Li                                      
   1.00000000000000     
    21.2169999999999987    0.0000000000000006    0.0000000000000000
     0.0000000000000006   21.2169999999999987    0.0000000000000000
    -0.0000000000000006   -0.0000000000000006   21.2169999999999987
   Li
   500
Direct
  0.9973193872837811  0.0006541721261257  0.9848217693359089
  0.0273102653532575  0.1022215096384969  0.1046697110807386
  0.0145505618136426  0.1913554239524942  0.1879675849554587
  0.0199459801102861  0.2830581015223643  0.3179851675543190
  0.0205692628552541  0.4048987736249217  0.3995791360701304
  0.9915367262101142  0.5134218225950917  0.5220910623556563
  0.0008850280435482  0.5916352589904292  0.6360190983645211
  0.0163967766413720  0.6968833270490649  0.7079280223405746
  0.9932492067681551  0.7955223368053908  0.7683381345147779
  0.9699960739030047  0.8888153617382315  0.8654762817551998
  0.1116414177310645  0.9938517533110272  0.0784491351274923
  0.1109383357684877  0.0832956501861730  0.1964536456614994
  0.1234262218975317  0.1773598887684429  0.2984960215864660
  0.0981197223924184  0.2933274798510652  0.3954588490361530
  0.1190316543337886  0.4218998977235202  0.5152256973181863
  0.0614537017485972  0.4849486897299329  0.6233970858273992
  0.0869780680586345  0.5946078418249527  0.6872627313003719
  0.0964554018004407  0.6762602031389946  0.8047881995569597
  0.0910978361691122  0.8014840236602723  0.9091737526511778
  0.0796261827779645  0.9200306702172796  0.9912668572371217
  0.2095668134043436  0.9789347056605564  0.1884029273695589
  0.1920113757835722  0.0921575934392251  0.2945844346514619
  0.1943409398124132  0.2035664203233267  0.3954393132865164
  0.1923896997690520  0.2766239482490462  0.5013520818211816
  0.2109693090446356  0.3838763204034521  0.6040672177970521
  0.1867391695338654  0.5071036385916941  0.6802481331008181
  0.2020452514493130  0.5880466413724861  0.7808588518640676
  0.1837543997737683  0.7058573648489386  0.8767823287929488
  0.1810125559692679  0.7976632709619622  0.9939659895366901
  0.2193711146721995  0.8979542442381074  0.0873893566479680
  0.3056033642833569  0.0137495890088104  0.2953051477588744
  0.2735682509308575  0.0979261455436671  0.4133769981618514
  0.2840495772258080  0.1923395776971262  0.5162054691992282
  0.2861206640901131  0.2991687910637708  0.6048795739265671
  0.2921199868030371  0.4150940213036733  0.6860632393835147
  0.2864383942121904  0.4947889088938098  0.8037273799311890
  0.2828433529716747  0.5850736541452619  0.9065612094075490
  0.3183351076966616  0.6973878258000639  0.9746369793090466
  0.3030385228825949  0.7757038714238575  0.0859235297167373
  0.3017016039025293  0.9108252750153198  0.1785965508790142
  0.4002111985671846  0.9896023641419589  0.3960552655889131
  0.3698829400952093  0.0782047207428036  0.5259394989866593
  0.4009717193759741  0.2083963868595973  0.5876860993542934
  0.3957429405665280  0.2996672969788392  0.6705033562709133
  0.3884947758872599  0.4139972672856658  0.7895816637601953
  0.4027179356176660  0.4954667855964558  0.9077248197200376
  0.3935596314276282  0.6125527963425554  0.9876902667672169
  0.4063974199934037  0.6892681199038506  0.0991029961823031
  0.4040581349860943  0.8135128048263169  0.2009863029646013
  0.3931782339633330  0.9119621430928007  0.3101986713484450
  0.5115321039732308  0.0137005457887511  0.5319644445491818
  0.5063475920252642  0.1051975736437782  0.6049158325870749
  0.5322755705330664  0.2065294848470600  0.6883227991704786
  0.4950869929773276  0.3242629287835257  0.7889093788000210
  0.5062428213225232  0.3938211387095265  0.9125395857095739
  0.4907135735495132  0.4770298699156328  0.0338542282132224
  0.5121273516519764  0.5918307767356339  0.0956241014281005
  0.5063003572606846  0.7195469086110222  0.1882659843521708
  0.5059815407456298  0.8216383230428406  0.3038071546401468
  0.5008438893340212  0.9170402318895228  0.3982975298110034
  0.5948117976151224  0.0110831342791187  0.6136600150822460
  0.5858258966866217  0.1095862581891893  0.7311758636942045
  0.5939717146627714  0.2045915303765824  0.8089860074468618
  0.6030707102794963  0.2972785893387382  0.9251870957251285
  0.5961796894000102  0.4000313654145273  0.0277128043549979
  0.5956546354338528  0.4703617344582156  0.1223906508931520
  0.6088343290757408  0.6153452712447560  0.1889436546165797
  0.6046922585662458  0.7128293476928889  0.2950278507800377
  0.6203751345619111  0.8028858330583972  0.4224129730876172
  0.6078750563227615  0.9258960757882804  0.5147505061978634
  0.6812809459395766  0.0140602889192607  0.6827235202903310
  0.6800682047414810  0.1051119748315017  0.7905161535561120
  0.6863697671678395  0.2019281618513489  0.9004653245039336
  0.6909042890135240  0.2870801310270039  0.0122410599990559
  0.7145018287222484  0.3972545011076036  0.1129557802705392
  0.6997547028326352  0.4806647744732970  0.1944721237686764
  0.7196180279964182  0.6191706202573428  0.3001258363576369
  0.7216122684639643  0.7170549936371771  0.3798566333600419
  0.7009612570108885  0.7996513046142226  0.4713064141961638
  0.6905058382429203  0.8984702177499173  0.5924043865768027
  0.7722249149267100  0.0267219522081348  0.7719043898760418
  0.8027516844982827  0.1156358325870741  0.8910338172220378
  0.7990244831974351  0.2120561200923774  0.9882383654616547
  0.7979519361832459  0.3003304251307881  0.0776317966724775
  0.7834392934910710  0.3961083871423838  0.2061980666446743
  0.7725705391902693  0.5064340938869805  0.3074369048404577
  0.8125443832775616  0.6017688909836423  0.4018978851864077
  0.7922835141631737  0.6926531950794157  0.5018931323938318
  0.7786505424895154  0.7837045397558597  0.6032551491728313
  0.7525664575576201  0.8816815855210436  0.7176739251543580
  0.8866517141914514  0.0230465084601974  0.9057856647970937
  0.9109293081019914  0.1137177753688050  0.9987324650044798
  0.9370710010840355  0.2032485341942802  0.0974190088136879
  0.8959596540509978  0.2819157567045281  0.2095302271763231
  0.9014143818636029  0.4035362614884264  0.3272406292124259
  0.8981672366498543  0.5051064731111836  0.4129503421784406
  0.9321400419474912  0.6073675990950633  0.5056927407267722
  0.9087472206249672  0.7119641655276396  0.6079775877833811
  0.8834862836404795  0.7834795645001620  0.7102028029410405
  0.8655909548946568  0.8937262360371392  0.7646247075458348
  0.1008071678371110  0.1204215379177072  0.9725067606164899
  0.1175252783145595  0.2233966229909967  0.1138324489795934
  0.0961487594853168  0.2985714040627769  0.2318876966583403
  0.0718595517745229  0.4200586430692397  0.3127321119856745
  0.0960240590092880  0.5196984455860871  0.3937352792572000
  0.0949237502945763  0.5948863599943408  0.5039289103077706
  0.0990574543997766  0.6963943139934941  0.6094414266861463
  0.1167473926568334  0.7864926266672967  0.7112708761841944
  0.1066091558655771  0.8925486784182510  0.7785232238299500
  0.1123161248055808  0.0100903850685796  0.8939474793797402
  0.2045603275675134  0.1215228642126576  0.0883690319083783
  0.2216931569024823  0.2132625804779167  0.2150112867040548
  0.1991443286044188  0.3201750445397593  0.3093107649526345
  0.1841235245322181  0.4158183744167445  0.4039284290898806
  0.1798922312296725  0.5181012216618726  0.5069114893717312
  0.1862212716218110  0.5953785497478421  0.6173670330395424
  0.1847437220153623  0.6913553560823900  0.7125347084884766
  0.1899645053494865  0.7965841033133785  0.7965969090823393
  0.2239153254465762  0.8971087905924477  0.8890508243389732
  0.2034979214780606  0.0179727902153957  0.9730457298392778
  0.3107350534948381  0.0766403440637191  0.1850763500966224
  0.3024901003911964  0.2128054856954336  0.2983682292501300
  0.2837315171796178  0.3038565193005596  0.4124458669934512
  0.2962907470424625  0.3956627671207045  0.4847145039355212
  0.3012180482631877  0.4912060951124104  0.5921101343262478
  0.3233927204600064  0.5995847867276254  0.6940272008295238
  0.2760068374416775  0.6885876627232861  0.7840170985530506
  0.2978320059386306  0.8041461837206043  0.8870038129801543
  0.2957258844322936  0.9021448253758777  0.9729921643022124
  0.2990073907715498  0.0200600546731380  0.0744862921242415
  0.3813375953245028  0.0961207008530920  0.3124716755431933
  0.3816058292878353  0.2097871362586616  0.4069458434274367
  0.3849182014422396  0.3049962398077000  0.4972380053730490
  0.4091941626997198  0.3937430838478591  0.5746589772352380
  0.3924959824668903  0.5065103732855718  0.6834166993448676
  0.4215477140971871  0.5836115478154298  0.8156511877268215
  0.4082741443182343  0.7001139520196062  0.8843362902389629
  0.3939007135787307  0.8182918089268014  0.9940416647028343
  0.3785114507234795  0.9230494749493303  0.0725400499599402
  0.4212228665692592  0.9807438959325054  0.2044404020361057
  0.4829581401706164  0.0815000589150188  0.4108964589715782
  0.5211009629071057  0.1968040674930478  0.4919979733232793
  0.4926911707592936  0.3018326379789755  0.5961569637554760
  0.5014907244190994  0.3991284983739476  0.7127877536880831
  0.5153731088278235  0.5070563496253016  0.7928621251826371
  0.5134184404015656  0.5856552929254875  0.9379529551774510
  0.4807095164255060  0.7050256803506656  0.9964956120092410
  0.4734428656266232  0.8112501479945351  0.1153558806617312
  0.5124340844605726  0.9190524640618349  0.1815048517698088
  0.5065460673045195  0.9992840835179351  0.2966683494367715
  0.6267751505867949  0.0678357915822190  0.4833328741103813
  0.6139572177970507  0.2023146170523660  0.5985599316585777
  0.5900154908799564  0.3218187670264427  0.7217044893246012
  0.6262331540745620  0.4038578597351190  0.7994465141160418
  0.6132045779327910  0.4920089819484375  0.9322839689871358
  0.5953776674364875  0.6086925078946095  0.0321054446905791
  0.5983435584672634  0.7091796639487171  0.1050882754395062
  0.5907937941273502  0.8247647871989443  0.2014225022387706
  0.5812474906914247  0.8846957081585529  0.2976446321346060
  0.5813359518310790  0.0014244426639038  0.3712283324692436
  0.6777387769241656  0.1025100155535625  0.6043237239006487
  0.6969613870952571  0.1947455318848128  0.7042447461940924
  0.6890678564358765  0.3088340151765081  0.8036367544893253
  0.6793282273648487  0.4187686336428342  0.9176461248055787
  0.7054196366121488  0.5114312956591434  0.0277568548805220
  0.7098632931140116  0.5903068944714178  0.1415022552669996
  0.7055856138945202  0.7126735575246244  0.1948798553047055
  0.7101417226752105  0.8061511372955650  0.2869801828722274
  0.6901015501720309  0.9191229688457341  0.3818508394212188
  0.7058900028279211  0.0045337960126304  0.5191726992506034
  0.7995965471084503  0.1134509935429122  0.6827643766790814
  0.7830273488240564  0.1999200725833035  0.7956104614224415
  0.7626411834849378  0.3023953772917949  0.8950567921949357
  0.7888746566432587  0.4134550808314117  0.0003246486308157
  0.8129928562002178  0.4956796003205000  0.0940505014846593
  0.8046818603007040  0.6017619206296843  0.2029176660225289
  0.7985497987462864  0.7225827473252551  0.3024167521327215
  0.7971311198567150  0.8327232667200803  0.4102687995475307
  0.7903134590187122  0.8903410105104399  0.5240925074232905
  0.8064419178017630  0.9835617580242229  0.6170932488099155
  0.9037118381486522  0.1011331356930754  0.7824050549088000
  0.9026074374322448  0.2141725041240505  0.8796118527595809
  0.8932284286185634  0.3085616213413758  0.9820855516802567
  0.9029062775133170  0.3963848866474962  0.0995371089220924
  0.8964048296177580  0.4954485535184077  0.2128809303860137
  0.8913977942216178  0.5950836202102110  0.2883054611867806
  0.8948115996606489  0.7082270613187518  0.4039997582127555
  0.9110141914502492  0.8047279535278307  0.5251371009096459
  0.9005614332846292  0.8792887495875945  0.6223813244096732
  0.9078049026723818  0.9961550101333856  0.6883285012018661
  0.0031643813922813  0.1092400758825463  0.9018101937125920
  0.0024478008201001  0.2419607404439859  0.9958925474855036
  0.0066276061648693  0.3143517137201286  0.1126282561153786
  0.9786951449309527  0.3907981189612073  0.2142591601074599
  0.9819518178818853  0.5410411839562599  0.3093316736579155
  0.0016273332704912  0.5986618994202786  0.4059834255549788
  0.9811405745392818  0.7000779497572722  0.5268907121647715
  0.0130164377621753  0.7933838346608866  0.6269596106895392
  0.0049712414573193  0.8979534095300963  0.6896779690813943
  0.9727775128434715  0.9721515911768890  0.8115984342744014
  0.2168951364471852  0.2240122840175331  0.9847957746146960
  0.1974592425884936  0.2997251637837550  0.1056479653108369
  0.2147647320544834  0.3894776749776128  0.2092785054437485
  0.1943327411980960  0.5011232643634855  0.2678283923269049
  0.2060008870245582  0.6061911872555044  0.3987631432341985
  0.2203238846208251  0.6934125837771603  0.5002243356742255
  0.2112567478908431  0.8000016425507823  0.5989015487580716
  0.2163430748927766  0.9153138195786426  0.7033676631946051
  0.2192454041570429  0.9965926450487785  0.7877694905028960
  0.2060235641231074  0.1177446929349131  0.8675158514398831
  0.2778305363623517  0.1903288245275050  0.1089100169675277
  0.2917552226987823  0.2801734048168925  0.1972212739784140
  0.3019800103690429  0.4088922972144999  0.2953901173587212
  0.2956705363623513  0.4829173426968936  0.4179442513079152
  0.2981023848800461  0.5846688216995801  0.5208230249328381
  0.2787557882829788  0.7069622986284614  0.6050584993165842
  0.3038251161804197  0.7838664344629294  0.7021870509497106
  0.3217150888438525  0.8968141348918337  0.7894840453409984
  0.3177280548616679  0.0393249427346021  0.8803464316350116
  0.2990302983456630  0.1112652773719205  0.9958767073573043
  0.4157884272046033  0.1936733953904906  0.1866267813545761
  0.3735132186454280  0.2903839864259794  0.3039239934957791
  0.3939893745581386  0.3986252076165329  0.3854967738134505
  0.4018542173728648  0.4957978715181213  0.4965990865815115
  0.3864560922844902  0.5952681034076477  0.5846130786633381
  0.4024234439364633  0.6998739572041259  0.7072608365932993
  0.4113381015223609  0.7853611255125585  0.8012033642833600
  0.3872195310364361  0.9057011264551988  0.9068765984823486
  0.4043723815808065  0.0336038313616456  0.0039679884055204
  0.4219102422585692  0.1025679271339044  0.1079104072206221
  0.4969463340717368  0.1804547452514527  0.3206746250648038
  0.4904487392185501  0.2966760121600629  0.3875601003911981
  0.5130672635151043  0.3954671546401443  0.4849745406984951
  0.4938086119621090  0.4992249342508330  0.5906677555733637
  0.4918857595324511  0.6092039237403952  0.6974231941367748
  0.5109508860819147  0.6853606032898156  0.8189040076353891
  0.4801643733798358  0.8075933812508822  0.8927831394636385
  0.4928094089645114  0.9070182462176533  0.0241399637083504
  0.5191074930480255  0.9971526931234393  0.1292453428854188
  0.4931531404062781  0.1079659306216740  0.2023177419050768
  0.6213917467125398  0.1757332893434480  0.3757244652872700
  0.6122403280388369  0.2963626464627396  0.4785768393269549
  0.5947048234905949  0.3807927864448288  0.6001236084272037
  0.5895234180138544  0.5033861903190839  0.6766185916953376
  0.6052984144789519  0.5949038384314491  0.7979913903944933
  0.5899799721921113  0.6917443097516127  0.9193185516331255
  0.5955691388980568  0.7846569741245233  0.0063245661497859
  0.6291628722251019  0.8880175670452957  0.1004226719140320
  0.6201984851769780  0.9841780741857917  0.2159114606212000
  0.6052989937314450  0.0826853278031763  0.3095073667342234
  0.6993384752792551  0.1984105603996795  0.5136698421077455
  0.7079957722580943  0.3132828472451337  0.6090496271857475
  0.6948227265871694  0.4107219654051022  0.6811726926521189
  0.7057389070085307  0.5081421397935628  0.7948797035396140
  0.6890504100485444  0.6039362968374391  0.9174174454446913
  0.6978637818730249  0.6969230748927728  0.0204734354527005
  0.6871492675684578  0.7987652014893740  0.1051886067775811
  0.6861295084130674  0.9245961257482236  0.2078642866569282
  0.7179840533534403  0.0006031484187190  0.2882218235377323
  0.7258433204505792  0.0817014653344046  0.4156891563369030
  0.7844130338879225  0.2022905797238082  0.5855217905453145
  0.7994701593062175  0.2958670688598772  0.7154837743319007
  0.7703869778950860  0.4097182353772908  0.8225469764811209
  0.7868336258660520  0.5006339256256780  0.9140454234811699
  0.8054700622142619  0.5828234510062700  0.0120558853749344
  0.8017445897157955  0.6903140109346282  0.0999766833199800
  0.7948720926615422  0.8277132511665144  0.1736773794598676
  0.8213689951454057  0.9148475953245025  0.2887183668756208
  0.8152985601168865  0.9933336800678703  0.4044041103831830
  0.8146753259178965  0.0867757699014930  0.4989039534335689
  0.8980322472545623  0.2248128015270794  0.7055354602441426
  0.8698625050666919  0.3197590747985117  0.8024888824998797
  0.8812254192392857  0.4202311486072503  0.9055740368572387
  0.9244120624970549  0.5109444516189825  0.0071783211575607
  0.8869262530046669  0.6012976622519659  0.1034297553848305
  0.9006556072960379  0.7300828821228293  0.2116185921666585
  0.8895036032426802  0.7991318857519900  0.3234395970212560
  0.9208481533675794  0.9007385153414731  0.4092533195079398
  0.9103149672432451  0.9736064650987402  0.5171673130037249
  0.9219031785832144  0.1011538832068624  0.6039461493142255
  0.9946922298157119  0.2210372809539507  0.8095194999293014
  0.0102986553235596  0.3180051491728335  0.8869587736249258
  0.0115461276335012  0.3799234373379861  0.9948414719328866
  0.9989735141631684  0.4850389244473803  0.1121234024602913
  0.9800952358957460  0.6081055875005887  0.1722156021115140
  0.0124489447141443  0.7048963500966181  0.2920714002922153
  0.0139728203798839  0.8114404317292738  0.4153965197718819
  0.0059830216335968  0.8996094947447801  0.5254277758401287
  0.0081073488240548  0.9858778027053745  0.6120421068011481
  0.9993234821133967  0.1149195018145832  0.7150928566715393
  0.0827348875901421  0.2216197949757301  0.9023184460574072
  0.1214712612527720  0.3135741853230911  0.9906996861007684
  0.0991309676203045  0.3810239496630032  0.1181576561248079
  0.0596724928123678  0.5074774430880922  0.1984685945232627
  0.1217455540368562  0.5974265640759739  0.2858739270396384
  0.0972653141348943  0.6873183649903396  0.3905139440071608
  0.1020634024602884  0.8045224093886958  0.4910353504265430
  0.1076968360277135  0.8685258924447368  0.6009397978036475
  0.0822331602017243  0.0090018701984249  0.7240030466135678
  0.0869098322100186  0.1163532530517983  0.8072982028562024
  0.3176702606400497  0.2893713767262085  0.0037074845642664
  0.2797758226893521  0.3831781510109806  0.1103115727954034
  0.3190951199509797  0.5076070627327169  0.1902919112032819
  0.3103321756138939  0.5568968831597303  0.3164178526653174
  0.3268090465193012  0.6962061964462478  0.4059960696611213
  0.2832458438987615  0.8118011250412422  0.5034501772163864
  0.2692814516661173  0.9048261455436659  0.6101945463543359
  0.3012634703303974  0.0387965489937301  0.6828529664891363
  0.3367198897110839  0.1061423056982633  0.7628319526794556
  0.3382359654993650  0.2036518593580610  0.8993138483291716
  0.3954867035867480  0.2773205698260810  0.0924006820002816
  0.4077903841259385  0.4002125399443841  0.1963787660838037
  0.3931950313427919  0.4796209893010328  0.2919146759673836
  0.4037762907102760  0.5736857029740321  0.3885665843427475
  0.4042459339209117  0.7140906080030192  0.4922077093839832
  0.3935043408587475  0.8016347414808891  0.5900054451618999
  0.3817306490078707  0.9021978455955164  0.6749562558325835
  0.4386835212329743  0.9737446359051702  0.7821781642079486
  0.4400159447612779  0.1129772046000852  0.8648692831220259
  0.3960780501484678  0.1675074478012917  0.0176539124287132
  0.4935061577979951  0.3040366390158837  0.2364121774991759
  0.5032690752698272  0.3869037451100539  0.3007327011358782
  0.4940164646274212  0.5017013757835684  0.3783583164443627
  0.4915450280435465  0.6042768826884100  0.4947979261912607
  0.4996879403308654  0.6976848051091125  0.5842463755479130
  0.4941002879766216  0.7756400216807293  0.6954430433143202
  0.5156812819908581  0.8611044502050262  0.8013511891407816
  0.4961507347881451  0.9943443898760407  0.8961659843521730
  0.5021199109204915  0.0933411443653682  0.9893383282273618
  0.5288302394306470  0.1921032591789569  0.1113844586887893
  0.6038298265541755  0.2869586350567914  0.2936471574680652
  0.5864710010840355  0.4037706768157605  0.3629636032426831
  0.5825580133854942  0.5014240533534462  0.4827597049535726
  0.6039390714992692  0.6038439934957793  0.5849344516189845
  0.6122231733986894  0.6812623712117656  0.6982680883253991
  0.5905164420040521  0.7830065890559439  0.8115587755102069
  0.6018409638497459  0.9098720007541132  0.9106997596267163
  0.6047416882688381  0.0028475760003772  0.9989721982372615
  0.5956714860724901  0.0844401267851254  0.1161773874723124
  0.6249579766225182  0.1990339133713519  0.2114571961163207
  0.6912856600838921  0.2982907663665912  0.3857938073243119
  0.6794048503558443  0.3988090177687695  0.4949654611867871
  0.6815978724607632  0.4739773181882470  0.5964176693217667
  0.7012317735777884  0.5986795253805894  0.6999712471131616
  0.6823385874534580  0.6698853636235071  0.8222389428288608
  0.6951674082103949  0.7773820172503179  0.9137085134561929
  0.7107281293302563  0.9036627355422553  0.9860375576188929
  0.6896961884337998  0.9978421185841526  0.0814137050478365
  0.7045363769618689  0.0797267031154263  0.1850158717066535
  0.7190827972851963  0.1756421751425776  0.2670723669698845
  0.7759583536786536  0.2934549620587248  0.4852419578639768
  0.8042361530847870  0.3930863152189303  0.6043964033557998
  0.7914919324126899  0.4989638125088405  0.7007799505113823
  0.8030158995145413  0.6055385172267549  0.8250516764858347
  0.7911447004760319  0.6770965381533642  0.9255939864259801
  0.8024396658340009  0.8066628052976412  0.9993013376066386
  0.7901084314464839  0.9048526257246579  0.0849394900315801
  0.8031359112975451  0.0066600372342904  0.2145611052457923
  0.8362464226799275  0.0948863453834221  0.3179318386199768
  0.8125913814394110  0.1848214139605062  0.4159368383843116
  0.8675993161144362  0.2962925658669917  0.5763368676061660
  0.8828675943818638  0.4106963095630860  0.7317380049017288
  0.8772172988641174  0.5239555884432292  0.7942141042560209
  0.8972687288495109  0.5983041556299185  0.8932786718197647
  0.8989178455955127  0.6980752010180495  0.9777174968185918
  0.9024671796201176  0.8123672927369583  0.0961926054578868
  0.9073887279068700  0.8731424202290583  0.1946040302587519
  0.9275860173445807  0.9918263788471506  0.3045529254842805
  0.9175746401470519  0.0873394245180776  0.4179599622943897
  0.9096337573643751  0.2120389833623975  0.4831851388037904
  0.9657574982325485  0.3219280100862534  0.6934603138992301
  0.9931030442569622  0.4269865706744582  0.7846238747231027
  0.9927718051562451  0.5013648800490174  0.9097138502144517
  0.0194469020125396  0.6139753386435416  0.9964474308337685
  0.9705392128953179  0.7241927949285980  0.0854157571758520
  0.0080025724654789  0.8221157222981574  0.1948603629165291
  0.0100611382382070  0.8858478521939972  0.3040838450299290
  0.0144676066361882  0.0056716552764300  0.3933208827826746
  0.0020671650091941  0.0937195593156446  0.5066725889616848
  0.0037495357496340  0.2266440585379641  0.5850154428053003
  0.0991269001272599  0.3179730395437588  0.8086440213036710
  0.1046243130508557  0.4135551307913445  0.8811887806947283
  0.1020807663665906  0.4701154456332191  0.0100947301692074
  0.0950663067351627  0.6116532323137136  0.0804445308007757
  0.1043063995852407  0.7007977791393714  0.1700573332704920
  0.1169427426120535  0.7937177494462020  0.3042377635858031
  0.0966882085120417  0.9008752179855790  0.4099983631050605
  0.0830747900268634  0.9942887378045882  0.5123540161191471
  0.0818141824951724  0.1094777386058325  0.6275162449922220
  0.1071546670123027  0.2261963439694554  0.6842447664608571
  0.1886774638261741  0.3101337276712073  0.8685839751142979
  0.1996766027242316  0.3735430239901945  0.9877613310081514
  0.1921964217372860  0.4717285742564954  0.0932539444784837
  0.1699907060376091  0.5991352915115229  0.1727677239949088
  0.2325318122260427  0.6979769161521432  0.3093023476457546
  0.1994671065654927  0.7930050492529546  0.4202470302116197
  0.1831996384974346  0.9026041523306816  0.4914157449215253
  0.1844994650516085  0.0162105849083289  0.6167250407691967
  0.1997200080124415  0.0880999745487117  0.7004304373851156
  0.2016162822265173  0.1901594763632914  0.8008065857567033
  0.3941935471555809  0.3979350200311060  0.0016821562897675
  0.3941011014752291  0.5175981213178105  0.1047865320262034
  0.4097008219823692  0.6274284036385893  0.2134341716548036
  0.3860942126596569  0.7242802502710077  0.3086495696846896
  0.4168549205825514  0.8247196267144261  0.4072814134891800
  0.3923872126125261  0.9144720130084352  0.5127169642267972
  0.4230078936701673  0.9927378290993047  0.5984397996889257
  0.4517645421124570  0.1094955879719066  0.6714080661733490
  0.4391909134184857  0.1823873073478808  0.7820800127256433
  0.3960179120516543  0.3007663387849391  0.8971554192392901
  0.4835490045718061  0.3795807696658358  0.1441429320827652
  0.5200965216571589  0.5003380228118957  0.1993050737616073
  0.4960383173870042  0.6096319908563856  0.2904723787528880
  0.4883386157326655  0.7192482603572614  0.3684818475750546
  0.5066518485176985  0.8086005377763144  0.4828918607720212
  0.5102889843050349  0.8791810482160543  0.5980478908422526
  0.5244324287128279  0.9886645091200421  0.7056039350520820
  0.5323420874770264  0.0808837337983661  0.7976473398689734
  0.5002331031719862  0.2232722557383227  0.9149418541735415
  0.4833885492765262  0.3190319479662520  0.0014602271763238
  0.6123761351746211  0.3693720917189012  0.2236524579346764
  0.5974295894801358  0.4887603841259391  0.2985298185417378
  0.6012880699439123  0.6009621086864314  0.3896734411085419
  0.6070865928265050  0.6856154248951327  0.4655419404251333
  0.6003776622519652  0.7809344148560129  0.5755477112692660
  0.6256943696092776  0.8604608050148457  0.6983568972993339
  0.6016068855163326  0.9987299391996984  0.8007466969882628
  0.6154617617947906  0.0992314021775016  0.9221212659659699
  0.6084972908516733  0.1774549747843679  0.0020711443653667
  0.5978552844417209  0.2938296139887839  0.1091828948484732
  0.7308775920252657  0.3711836352924536  0.2909110043832754
  0.6832723928924906  0.4842695564877246  0.3918266724796169
  0.7055676203044712  0.5972164306923702  0.4971482829806320
  0.7055413776688511  0.7202594669368878  0.5708819913277097
  0.6815063185181671  0.7815543884620837  0.7229669703539585
  0.6885139859546570  0.8981709614931432  0.8269627313003696
  0.7033295178394710  0.0285328840081078  0.8893524998821718
  0.7152744591601063  0.0956192604986583  0.0051425493707882
  0.7131854814535501  0.2003557142857133  0.1079061592119501
  0.7270664160814420  0.2855856082386765  0.1959087769241634
  0.7921237672620975  0.3737229617759326  0.4049053296884608
  0.8221882975915520  0.4994699877456767  0.5178113267662710
  0.8162160456237899  0.6017970683885565  0.6140820247914434
  0.7740202403732823  0.7089013074421473  0.7144620153650365
  0.7657543102229312  0.7593603068294286  0.8294787962482886
  0.7910409558373033  0.9262187514728737  0.8910874143375622
  0.7919936781825925  0.0108121020879466  0.0004226294952190
  0.8125027072630431  0.1098046684262641  0.0930713522175637
  0.8132276212471155  0.1794346146957650  0.1965001225432417
  0.8189062025734088  0.2807783272847217  0.3102844497337074
  0.8921775840128205  0.3968702036103124  0.4936597525569084
  0.8949370764009998  0.5195062845831160  0.6057113022576246
  0.8910686812461677  0.6040597841353659  0.6940067733421316
  0.8987717580242247  0.6792126474053788  0.8102246212942461
  0.8932205853796518  0.8067799736060692  0.9023335136918504
  0.8882959537163586  0.9434032299571129  0.9913948121789105
  0.9042942484799923  0.0086530833765366  0.1189699024367243
  0.9136936701701472  0.1107384356883614  0.1958711575623298
  0.9166324343686654  0.1927757039166735  0.3072564815949477
  0.9263059169533889  0.2882940849318913  0.3960158707640105
  0.9569821840976545  0.3900326624876271  0.5931217396427400
  0.9712689480133889  0.4932065904699030  0.6818604402130362
  0.9987317344582181  0.5883288513927525  0.7965094391290037
  0.0000143234198973  0.6886744629306705  0.8888618791535094
  0.9999720064099549  0.7992335485695463  0.0024914200876651
  0.0009141688268812  0.9087257732007359  0.0839486586228020
  0.0115014474242372  0.9743940877598121  0.2104375274544026
  0.0041159277937481  0.0964068030353005  0.2914410251213653
  0.0337123829947714  0.1932213258236288  0.4151588834425226
  0.9990622717632078  0.3152004948861773  0.5033923697978011
  0.0809592152519230  0.3925960390253067  0.7067654847527933
  0.0878279078097748  0.5030179073384531  0.7938168789178519
  0.1091936253947310  0.5728999618230688  0.9060289494273448
  0.0780212763350150  0.7037630796059773  0.9928822661073653
  0.1124476405712400  0.8084414926709727  0.0755124202290602
  0.1059292072394769  0.9019556963755448  0.1938533666399564
  0.1261320827638244  0.9920767549606424  0.3155089324598208
  0.0873191930998729  0.0966882386765349  0.4154592689824170
  0.1134947999245881  0.1967442414101868  0.5059409525380616
  0.0792503087147125  0.3138881425272189  0.5965721308384815
  0.2188023471744387  0.4304374883348245  0.7825121873968968
  0.1860748993731463  0.4888439435358407  0.8750347179148790
  0.2039145538954585  0.6087959834095287  0.9894978974407280
  0.2110538671819739  0.7067318631286241  0.0781026153556112
  0.2170548583682930  0.8028287788094417  0.2037329829853434
  0.2037261549700702  0.9067536220954864  0.3267127289437681
  0.1730567860677752  0.0285554135834474  0.4275713149832683