Li 
 1.0000000000000000
    21.2169999999999987    0.0000000000000006    0.0000000000000000
     0.0000000000000006   21.2169999999999987    0.0000000000000000
    -0.0000000000000006   -0.0000000000000006   21.2169999999999987
 Li 
 500
Cartesian
 -0.0568745600000000  0.0138795700000000 -0.3220365200000000
  0.5794419000000000  2.1688337700000000  2.2207772600000002
  0.3087192700000000  4.0599880300000004  3.9881082499999998
  0.4231938600000000  6.0056437400000000  6.7466913000000002
  0.4364180500000000  8.5907372800000008  8.4778705300000006
 -0.1795652800000000 10.8932708100000006 11.0772060700000008
  0.0187776400000000 12.5527252899999997 13.4944172099999999
  0.3478904100000000 14.7857735500000000 15.0201088499999997
 -0.1432315800000000 16.8785974199999984 16.3018302000000013
 -0.6365933000000000 18.8579955300000002 18.3628102700000007
  2.3686959600000002 -0.1304473500000000  1.6644553000000000
  2.3537786700000001  1.7672838099999999  4.1681569999999999
  2.6187341499999999  3.7630447600000001  6.3331900900000004
  2.0818061499999998  6.2235291400000001  8.3904504000000006
  2.5254946100000000  8.9514501299999996 10.9315436199999994
  1.3038631899999999 10.2891563500000007 13.2266159699999992
  1.8454136699999999 12.6157945799999993 14.5816533699999997
  2.0464942599999998 14.3482127300000002 17.0751912300000015
  1.9328227899999999 17.0050865299999998 19.2899395100000000
  1.6894287200000000 19.5202907299999993 21.0317089099999990
  4.4463790799999998 -0.4469423500000000  3.9973449099999998
  4.0739053600000004  1.9553076599999999  6.2501979499999996
  4.1233317200000004  4.3190687399999996  8.3900359099999999
  4.0819322600000003  5.8691303100000001 10.6371871200000001
  4.4761358299999996  8.1447038900000006 12.8164941599999995
  3.9620449600000001 10.7592178999999994 14.4328246399999998
  4.2867940999999998 12.4765855899999991 16.5674822599999985
  3.8987170999999998 14.9761757099999997 18.6026906700000012
  3.8405434000000001 16.9240216200000013 -0.1280236000000000
  4.6543969399999998 19.0518952000000006  1.8541399800000000
  6.4839865799999998  0.2917250300000000  6.2654893200000004
  5.8042975800000001  2.0776990299999998  8.7706197699999997
  6.0266798799999997  4.0808688200000001 10.9523314400000000
  6.0706221300000003  6.3474642399999999 12.8337299199999997
  6.1979097599999999  8.8070498500000003 14.5562037499999999
  6.0773634100000002 10.4979362799999993 17.0526838199999986
  6.0010874200000002 12.4135077200000001 19.2345091799999999
  6.7541159799999999 14.7964774999999999 -0.5381272100000000
  6.4295683400000003 16.4581090400000001  1.8230395300000000
  6.4012029300000002 19.3249798599999991  3.7892830200000001
  8.4912810000000007 -0.2206066400000000  8.4031045700000000
  7.8478063400000000  1.6592695600000000 11.1588583499999991
  8.5074169699999995  4.4215461400000002 12.4689359700000004
  8.3964779699999994  6.3580410399999998 14.2260697100000009
  8.2426936600000005  8.7837800200000000 16.7525541599999990
  8.5444664400000008 10.5123187900000001 19.2591974999999991
  8.3501546999999992 12.9965326799999996 -0.2611756100000000
  8.6225340599999996 14.6242017000000004  2.1026682700000001
  8.5729014499999998 17.2603011799999990  4.2643263899999999
  8.3420625899999994 19.3491007900000014  6.5814852100000003
 10.8531766500000000  0.2906844800000000 11.2866896200000006
 10.7431768600000002  2.2319769200000001 12.8344992199999997
 11.2932907799999995  4.3819360800000000 14.6041448299999992
 10.5042607300000004  6.8798865600000001 16.7382902899999984
 10.7409539400000007  8.3557030999999995 19.3613523900000004
 10.4114698899999993 10.1211427500000006  0.7182851600000000
 10.8658060200000008 12.5568735900000004  2.0288565599999999
 10.7421746799999998 15.2666267599999994  3.9944393900000001
 10.7354103500000004 17.4327003000000005  6.4458764000000004
 10.6264047999999995 19.4568426000000017  8.4506786900000002
 12.6201219099999999  0.2351508600000000 13.0200245399999996
 12.4294680500000005  2.3250916400000001 15.5133583000000002
 12.6022978699999992  4.3408185000000001 17.1642561200000010
 12.7953512600000003  6.3073598300000002 19.6296946100000014
 12.6491444699999995  8.4874654799999991  0.5879825700000000
 12.6380043999999998  9.9796649199999994  2.5967624400000000
 12.9176379600000004 13.0557806200000002  4.0088175200000000
 12.8297556499999992 15.1241002699999996  6.2596059100000003
 13.1624992299999999 17.0348287200000001  8.9623360499999993
 12.8972850700000006 19.6447370399999990 10.9214614900000004
 14.4547378299999991  0.2983171500000000 14.4853449300000001
 14.4290070999999998  2.2301607699999999 16.7723812300000006
 14.5627073500000002  4.2843098099999999 19.1051727900000010
 14.6589162999999996  6.0909791400000000  0.2597185700000000
 15.1595852999999998  8.4285487499999991  2.3965827900000001
 14.8466955299999999 10.1982645200000004  4.1261150500000001
 15.2681357000000002 13.1369430499999993  6.3677698700000001
 15.3104475000000004 15.2137557999999995  8.0594181900000006
 14.8722949900000003 16.9662017300000016  9.9997081899999998
 14.6504623699999996 19.0628426100000006 12.5690438699999998
 16.3842960200000007  0.5669596600000000 16.3774954400000006
 17.0319824900000008  2.4534454600000002 18.9050645000000017
 16.9529024600000007  4.4991947000000003 -0.2495466000000000
 16.9301462299999983  6.3721106299999999  1.6471138299999999
 16.6222314900000008  8.4042316499999998  4.3749043800000003
 16.3916291299999983 10.7450121700000008  6.5228888100000004
 17.2397541799999985 12.7677305600000004  8.5270674300000007
 16.8098793200000003 14.6960228399999995 10.6486665899999995
 16.5206285599999987 16.6278592200000013 12.7992644999999996
 15.9672025299999998 18.7066382000000004 15.2268876700000000
 18.8120894199999995  0.4889777700000000 19.2180544500000003
 19.3271871299999987  2.4127500400000002 21.1901067099999985
 19.8818354299999989  4.3123241500000002  2.0669391099999999
 19.0095759800000010  5.9814066099999996  4.4456028300000003
 19.1253089400000000  8.5618288600000003  6.9430644299999997
 19.0564142600000004 10.7168440399999998  8.7615674099999996
 19.7772152699999992 12.8865183499999993 10.7292828799999995
 19.2808897799999990 15.1057436999999997 12.8994604800000001
 18.7449284799999987 16.6230859200000012 15.0683728699999993
 18.3652432899999987 18.9621895500000015 16.2230424199999987
  2.1388256800000001  2.5549837700000002 -0.5833240600000000
  2.4935338300000001  4.7398061499999997  2.4151830699999999
  2.0399882300000001  6.3347894800000004  4.9199612600000000
  1.5246441100000001  8.9123842300000007  6.6352372199999996
  2.0373424600000001 11.0264419199999999  8.3538814200000004
  2.0139972099999999 12.6217039000000000 10.6918596899999994
  2.1017020099999999 14.7753981599999999 12.9305187499999992
  2.4770294300000000 16.6870140599999992 15.0910341799999994
  2.2619264600000002 18.9372053099999995 16.5179272399999988
  2.3830112200000002 21.4310876999999991 18.9668836700000014
  4.3401564700000002  2.5783506100000002  1.8749257500000001
  4.7036637099999998  4.5247921699999996  4.5618944700000004
  4.2252452199999997  6.7931539200000000  6.5626464999999996
  3.9065488199999998  8.8224184500000007  8.5701494799999995
  3.8167734699999998 10.9925536200000007 10.7551410700000005
  3.9510567200000000 12.6321466900000008 13.0986763400000008
  3.9197075500000000 14.6684865900000005 15.1178489099999993
  4.0304769100000000 16.9011249200000009 16.9013966199999999
  4.7508114600000004 19.0339572100000005 18.8629913400000007
  4.3176154000000002 21.5983286899999989 20.6451112499999994
  6.5928656300000004  1.6260781799999999  3.9267649200000001
  6.4179324600000003  4.5150939899999996  6.3304787200000003
  6.0199315999999996  6.4469237699999997  8.7508639600000002
  6.2864007800000001  8.3947769300000008 10.2841876299999999
  6.3909433299999998 10.4219197200000000 12.5628007200000003
  6.8614233499999999 12.7213904200000005 14.7251751199999994
  5.8560370700000002 14.6097644399999993 16.6344907800000001
  6.3191016700000002 17.0615695800000005 18.8195599000000016
  6.2744160899999999 19.1408067600000003 -0.5730252500000000
  6.3440398099999999 21.6426141799999989  1.5803756600000001
  8.0908397599999997  2.0393929100000001  6.6297115399999997
  8.0965308799999995  4.4510536700000003  8.6341699599999995
  8.1668094799999995  6.4711052200000001 10.5498987599999996
  8.6818725499999996  8.3540470100000004 12.1925395200000004
  8.3275872599999996 10.7466305900000005 14.5000521100000004
  8.9439778499999996 12.3824862099999997 17.3056712499999996
  8.6623525200000007 14.8543177199999992 18.7629630700000014
  8.3573914400000007 17.3616973100000003 -0.1264180000000000
  8.0308774500000002 19.5843407099999993  1.5390822399999999
  8.9370855599999999 20.8084432399999990  4.3376120100000000
 10.2469228599999997  1.7291867500000000  8.7179901700000002
 11.0561991299999995  4.1755918999999997 10.4387209999999993
 10.4534285699999998  6.4039830799999997 12.6486622999999998
 10.6401287000000000  8.4683093500000002 15.1232177700000001
 10.9346712499999992 10.7582145699999998 16.8221557100000005
 10.8931990499999998 12.4258483500000008 19.9005478499999988
 10.1992138099999998 14.9585298600000005 -0.0743526000000000
 10.0450372800000007 17.2122943900000003  2.4475057200000001
 10.8723139700000004 19.4995361299999992  3.8509884400000001
 10.7473879100000005 21.2018103999999994  6.2944123699999999
 13.2982883699999999  1.4392719899999999 10.2548735900000008
 13.0263302900000006  4.2925092300000003 12.6996460700000000
 12.5183586699999996  6.8280287800000004 15.3124041500000008
 13.2867888300000008  8.5686522099999998 16.9618566900000012
 13.0103615300000008 10.4389545699999999 19.7802689700000016
 12.6321279700000009 12.9146289400000001  0.6811812200000000
 12.6950552800000001 15.0466649300000004  2.2296579400000001
 12.5348719299999996 17.4990344899999997  4.2735812299999996
 12.3323280099999995 18.7705888399999985  6.3151261600000002
 12.3342048900000005 21.2472223999999983  7.8763515300000000
 14.3795836300000008  2.1749550000000002 12.8219364500000008
 14.7874297499999994  4.1319159499999998 14.9419607800000005
 14.6199527099999997  6.5525313000000001 17.0507610199999995
 14.4133069999999996  8.8850140999999994 19.4696978300000012
 14.9668884299999991 10.8510378000000003  0.5889171900000000
 15.0611694899999993 12.5245413800000005  3.0022533500000002
 14.9704099700000004 15.1207948699999992  4.1347658899999997
 15.0670769300000007 17.1041086799999995  6.0888585400000004
 14.6418845900000001 19.5010320300000011  8.1017292600000008
 14.9768681899999994 21.3131935500000012 11.0152871599999997
 16.9650399400000005  2.4070897300000000 14.4862117799999996
 16.6134912600000000  4.2417041800000002 16.8804671599999985
 16.1809579899999996  6.4159227200000002 18.9904199600000005
 16.7375535900000010  8.7722764499999997  0.0068880700000000
 17.2492694299999982 10.5168340800000006  1.9954694900000001
 17.0729350300000000 12.7675826699999995  4.3053041199999997
 16.9428310800000013 15.3310381499999995  6.4163762300000000
 16.9127309699999984 17.6678895500000017  8.7046731200000007
 16.7680806599999990 18.8903652199999996 11.1196707299999993
 17.1102781700000008 20.8682298199999998 13.0928674600000008
 19.1740540700000004  2.1457417400000001 16.6002880499999996
 19.1506219999999985  4.5440980199999998 18.6627246800000002
 18.9516275699999994  6.5467519200000002 -0.3800908500000000
 19.1569624900000015  8.4100981400000006  2.1118788400000001
 19.0190212699999996 10.5119319600000001  4.5166947000000004
 18.9127870000000016 12.6258891700000007  6.1169769699999996
 18.9852177100000006 15.0264535600000002  8.5716628700000008
 19.3289881000000001 17.0739129900000002 11.1418338699999993
 19.1072119299999983 18.6558694000000003 13.2050645600000003
 19.2608966200000005 21.1354208499999991 14.6042658099999993
 21.2841386800000016  2.3177466899999999 19.1337068799999983
 21.2689349900000018  5.1336810300000000 21.1298521800000003
 21.3576179199999991  6.6696003099999999  2.3896337100000000
 20.7649748900000013  8.2915636900000003  4.5459366000000001
 20.8340717200000007 11.4792708000000001  6.5630901200000000
 21.2515271299999995 12.7018095199999994  8.6137503399999993
 20.8168595699999983 14.8535538599999999 11.1790402400000008
 21.4931697600000007 16.8332248200000016 13.3022020600000008
 21.3224748300000009 19.0518774899999990 14.6328974699999996
 20.6394204899999991 20.6261403100000003 17.2196839799999992
  4.6018641100000002  4.7528686300000000 -0.3225880500000000
  4.1894927500000003  6.3592687999999997  2.2415328799999998
  4.5566633200000002  8.2635478300000003  4.4402620500000003
  4.1231577699999997 10.6323322999999998  5.6825150000000004
  4.3707208199999998 12.8615584199999997  8.4605576100000004
  4.6746118599999997 14.7121347900000004 10.6132597299999993
  4.4822344200000002 16.9736348499999998 12.7068941599999992
  4.5901510200000004 19.4202133100000012 14.9233517100000004
  4.6517297400000004 -0.0722938500000000 16.7141052799999983
  4.3712019599999996  2.4981891500000000 18.4060838199999992
  5.8947304899999997  4.0382066700000001  2.3107438299999998
  6.1901705600000003  5.9444391300000001  4.1844437699999997
  6.4071098800000001  8.6754678700000003  6.2672921199999996
  6.2732417700000003 10.2460572600000006  8.8675231799999992
  6.3248382999999997 12.4049183900000006 11.0503021199999996
  5.9143615599999997 14.9996190899999995 12.8375261799999993
  6.4462574899999998 16.6312941400000014 14.8983026600000006
  6.8258290400000003 19.0277054999999997 16.7504829899999983
  6.7412361399999998  0.8343573100000000 18.6783102399999983
  6.3445258400000002  2.3607153900000002 21.1295161000000000
  8.8217830599999996  4.1091684300000004  3.9596604200000001
  7.9248299600000003  6.1610770400000003  6.4483553699999998
  8.3592725600000009  8.4576310299999999  8.1790850499999994
  8.5261409300000004 10.5193434400000001 10.5363428199999998
  8.1994389099999996 12.6298033499999995 12.4037356899999995
  8.5382182100000001 14.8492257500000004 15.0059531699999997
  8.7273604999999996 16.6630070000000003 16.9991317799999990
  8.2156367899999996 19.2162608000000006 19.2412007900000006
  8.5795688200000004  0.7129724900000000  0.0841888100000000
  8.9516696099999997  2.1761837100000001  2.2895351100000001
 10.5437103699999994  3.8287083300000000  6.8037535199999999
 10.4058509000000008  6.2945749500000003  8.2228626499999997
 10.8857481299999996  8.3906266200000008 10.2897048299999998
 10.4771373200000006 10.5920554300000003 12.5321977699999998
 10.4363401600000003 12.9254796499999998 14.7972279100000002
 10.8408449499999993 14.5412959199999996 17.3746863299999994
 10.1876475099999997 17.1347087699999996 18.9421798700000004
 10.4559372300000000 19.2442061299999985  0.5121776099999999
 11.0139036800000003 -0.0604113100000000  2.7421984400000001
 10.4632301800000000  2.2907131500000002  4.2925755299999997
 13.1840686900000001  3.7285332000000002  7.9717459799999997
 12.9899030399999997  6.2879262699999998 10.1539648000000007
 12.6178522399999995  8.0792805500000000 12.7328226000000004
 12.5079183599999997 10.6803448000000003 14.3558166600000003
 12.8426164600000003 12.6220747400000004 16.9309833300000001
 12.5176050700000001 14.6767390199999994 19.5051817099999987
 12.6361904200000001 16.6480670199999992  0.1341883200000000
 13.3489486599999996 18.8410687199999991  2.1306678300000002
 13.1587512600000007 -0.3356938000000000  4.5809934600000002
 12.8426287499999994  1.7543346000000000  6.5668177999999999
 14.8378644299999998  4.2096768600000001 10.8985330400000002
 15.0215463000000007  6.6469221699999999 12.9222059399999996
 14.7420537899999999  8.7142879400000002 14.4524410200000002
 14.9736623899999994 10.7812517799999998 16.8649626700000006
 14.6195825500000005 12.8137164099999996 19.4648459400000000
 14.8065758600000006 14.7866168800000004  0.4343848800000000
 14.5792460100000003 16.9474012800000011  2.2317866700000000
 14.5576097799999999 19.6171560000000014  4.4102565699999996
 15.2334676600000005  0.0127970000000000  6.1152024300000001
 15.4002177299999996  1.7334599900000001  8.8196768300000006
 16.6428913399999985  4.2919992300000001 12.4230158300000006
 16.9623583700000005  6.2774115999999998 15.1804192400000009
 16.3453005100000013  8.6929917999999997 17.4519792000000002
 16.6942490399999990 10.6219500000000000 19.3933017499999991
 17.0896583100000008 12.3657651600000005  0.2557897200000000
 17.0106149600000016 14.6463923699999992  2.1212052899999998
 16.8648011900000014 17.5615920500000016  3.6849129600000001
 17.4269859700000005 19.4103214299999998  6.1257375900000000
 17.2981895500000000 -0.1414393100000000  8.5802420099999992
 17.2849663900000010  1.8411215100000000 10.5852451799999994
 19.0535501899999993  4.7698532100000000 14.9693458600000007
 18.4558727699999992  6.7843282900000004 17.0264066199999995
 18.6969597199999988  8.9160442799999995 19.2135643400000014
 19.6132507300000007 10.8407084299999994  0.1523024400000000
 18.8179143099999990 12.7577324999999995  2.1944691199999999
 19.1092100199999990 15.4901685100000002  4.4899116699999997
 18.8725979499999994 16.9551812200000001  6.8624179300000003
 19.5376352699999991 19.1109690800000003  8.6831276800000001
 19.3141526600000013 -0.5599916300000000 10.9727388799999996
 19.5600197400000013  2.1461819400000000 12.8139254499999993
 -0.1126149600000000  4.6897479899999999 17.1755752299999997
  0.2185065700000000  6.7471152500000002 18.8186043000000005
  0.2449741900000000  8.0608355700000001 -0.1094484900000000
 -0.0217789500000000 10.2910708599999996  2.3789222300000001
 -0.4223193800000000 12.9021762500000001  3.6538984299999999
  0.2641292600000000 14.9557858600000007  6.1968788999999997
  0.2964613300000000 17.2163316399999999  8.8134679600000005
  0.1269417700000000 19.0870146500000004 11.1480011200000000
  0.1720136200000000 -0.2996306600000000 12.9856973799999995
 -0.0143536800000000  2.4382470700000001 15.1721251400000003
  1.7553861100000001  4.7021071900000004 19.1444904700000009
  2.5772557500000000  6.6531034900000003 21.0196752400000015
  2.1032617400000002  8.0841851400000007  2.5069509900000000
  1.2660712800000000 10.7671489099999995  4.2109081699999997
  2.5830754200000001 12.6755994100000002  6.0653871099999996
  2.0636781700000002 14.5828337500000007  8.2855343500000007
  2.1654792100000000 17.0695519599999983 10.4182970299999997
  2.2850037699999999 18.4275138600000012 12.7501396899999992
  1.7447409599999999  0.1909926800000000 15.3611726399999995
  1.8439659100000001  2.4686669700000001 17.1284459700000014
  6.7400099200000003  6.1395925000000000  0.0786617000000000
  5.9360036300000001  8.1298908300000008  2.3404806400000000
  6.7702411600000003 10.7698990499999994  4.0374234800000002
  6.5843177700000002 11.8156811699999995  6.7134375799999999
  6.9339075399999999 14.7714068699999999  8.6140186100000005
  6.0096270699999996 17.2239844700000013 10.6817024099999998
  5.7133445600000003 19.1976963299999994 12.9464976899999993
  6.3919070500000004  0.8231463800000000 14.4880913899999992
  7.1441859000000001  2.2520213000000000 16.1850055399999988
  7.1763524800000003  4.3208814999999996 19.0807419200000012
  8.3910413899999998  5.8839105299999996  1.9604652700000000
  8.6520885799999991  8.4913094600000001  4.1665682799999999
  8.3424189799999997 10.1761185300000001  6.1935536800000000
  8.5669215600000008 12.1718895600000003  8.2442172199999995
  8.5768859800000001 15.1508604299999998 10.4431709700000006
  8.3489816000000001 17.0082843100000005 12.5181455300000000
  8.0991791800000001 19.1419316899999998 14.3205468800000002
  9.3075482699999998 -0.5570600600000000 16.5954741100000014
  9.3358182999999997  2.3970373500000002 18.3499315799999998
  8.4035879900000001  3.5540055200000000 21.5915630599999986
 10.4707201500000000  6.4507453699999999  5.0159571700000001
 10.6778599700000001  8.2089367600000003  6.3806457200000004
 10.4815473299999997 10.6445980900000006  8.0276283999999993
 10.4291108599999998 12.8209426200000003 10.4981276000000001
 10.6018790299999992 14.8027785099999996 12.3959553499999995
 10.4833258100000002 16.4567543399999998 14.7552150500000003
 10.9412097599999996 18.2700531200000000 17.0022681800000015
 10.5268301399999995 -0.1199950800000000 19.0139536900000010
 10.6534781499999998  1.9804190600000000 -0.2262086900000000
 11.2201911899999995  4.0758548499999998  2.3632440600000000
 12.8114574300000008  6.0884013599999998  6.2303117400000003
 12.4431552300000003  8.5668024500000008  7.7009987700000000
 12.3601333699999998 10.6387141399999994 10.2427126600000005
 12.8137752799999998 12.8117580100000001 12.4105542599999996
 12.9895390699999993 14.4543437299999997 14.8151540300000004
 12.5289873499999995 16.6130507999999999 17.2188425400000007
 12.7692597299999999 19.3047542400000012 19.3223167999999994
 12.8308043999999999  0.0604170200000000 -0.0218068700000000
 12.6383619199999995  1.7915661700000001  2.4649356299999998
 13.2597333899999992  4.2229025399999998  4.4864873300000001
 14.6670078499999992  6.3288351900000004  8.1853872100000000
 14.4149327100000004  8.4615309300000003 10.5016821900000004
 14.4614620600000006 10.0563767599999991 12.6541936899999996
 14.8780345399999998 12.7021834899999995 14.8512899500000000
 14.4771778100000006 14.2129577600000001 17.4454436500000014
 14.7493669000000001 16.4937142600000008 19.3861535300000014
 15.0795187199999994 19.1730122600000001 -0.2962411400000000
 14.6332840300000004 -0.0457837700000000  1.7273545800000001
 14.9481483100000005  1.6915614600000000  3.9254817499999999
 15.2567797100000000  3.7266000300000002  5.6664744100000002
 16.4635083900000012  6.2262339300000002 10.2953786199999993
 17.0634784599999989  8.3401123500000001 12.8234784899999994
 16.7930843299999992 10.5865152100000000 14.8684482100000004
 17.0375883399999992 12.8477107200000003 17.5051214199999983
 16.7857171100000002 14.3659572499999992 19.6383276100000010
 17.0253623900000015 17.1149647400000013 -0.0148235200000000
 16.7637305900000015 19.1982581600000017  1.8021611600000000
 17.0401346300000007  0.1413060100000000  4.5523429699999998
 17.7426403499999985  2.0132035899999998  6.7455598200000004
 17.2407513399999992  3.9213559400000002  8.8249318999999993
 18.4078546900000006  6.2864393700000001 12.2281393200000004
 18.7318017499999989  8.7137436000000008 15.5252852499999996
 18.6119194300000004 11.1167657200000001 16.8508406499999985
 19.0373506200000016 12.6942192699999996 18.9526935799999983
 19.0723399299999983 14.8110615400000007 -0.4727678700000000
 19.1476461499999999 17.2359968499999994  2.0409185100000000
 19.2520666399999989 18.5254627300000010  4.1289137100000000
 19.6805925299999984 -0.1734197200000000  6.4616994200000004
 19.4681811399999987  1.8530805699999999  8.8678565200000001
 19.2996994300000004  4.4988311100000002 10.2517390899999992
 -0.7265231599999999  6.8303465900000004 14.7131474799999999
 -0.1463327100000000  9.0593740700000005 16.6473647500000013
 -0.1533606100000000 10.6374586600000001 19.3013987600000014
  0.4126049200000000 13.0267147600000008 -0.0753748600000000
 -0.6250695200000000 15.3651985300000007  1.8122661200000001
  0.1697905800000000 17.4428292800000015  4.1343523199999996
  0.2134671700000000 18.7950338799999983  6.4517469399999996
  0.3069592100000000  0.1203355100000000  8.3450891699999996
  0.0438590400000000  1.9884478900000000 10.7500723199999992
  0.0795539000000000  4.8087069900000001 12.4122726500000002
  2.1031754399999998  6.7464339799999999 17.1570001999999988
  2.2198140500000001  8.7743992100000003 18.6961823600000017
  2.1658476200000001  9.9744394100000004  0.2141798900000000
  2.0170218300000000 12.9774466299999993  1.7067916100000000
  2.2130688799999998 14.8688264799999992  3.6081064399999998
  2.4811741700000001 16.8403094899999992  6.4550126299999997
  2.0514337199999999 19.1138694999999998  8.6989352699999998
  1.7625978200000001 -0.1211758500000000 10.8706151599999998
  1.7358515100000000  2.3227891800000000 13.3140121699999998
  2.2735005699999999  4.7992078300000003 14.5176212099999997
  4.0031697499999996  6.5801072999999999 18.4287461999999991
  4.2365384800000001  7.9254623400000002 20.9573321600000000
  4.0778314800000004 10.0086651599999996  1.9785689399999999
  3.6066928100000002 12.7118534800000003  3.6656127999999999
  4.9336274600000003 14.8089762300000007  6.5624679099999996
  4.2320935999999998 16.8251881300000008  8.9163812399999998
  3.8869467300000000 19.1505523000000011 10.4263678599999992
  3.9145251499999998  0.3439399800000000 13.0850551900000003
  4.2374594099999996  1.8692171600000000 14.8610325900000007
  4.2776926599999996  4.0346136100000001 16.9907133299999984
  8.3636044900000002  8.4429873200000003  0.0356903100000000
  8.3616430699999995 10.9818793400000008  2.2232558500000001
  8.6926223399999998 13.3121484399999996  4.5284328199999999
  8.1917609099999993 15.3670540700000000  6.5486179199999999
  8.8444108499999992 17.4980763199999991  8.6412897500000003
  8.3252794899999998 19.4023527000000016 10.8783158300000000
  8.9749584799999997 -0.1540814800000000 12.6970972300000007
  9.5850882899999998  2.3231678900000001 14.2452649400000002
  9.3183136100000006  3.8697115000000002 16.5933916299999993
  8.4023120400000000  6.3813594100000000 19.0349465299999991
 10.2594592299999992  8.0535651900000005  3.0582805899999999
 11.0348878999999993 10.6156718300000001  4.2286557499999997
 10.5244449800000002 12.9345619500000009  6.1629524599999996
 10.3610804099999996 15.2602903399999992  7.8180793599999996
 10.7496322699999993 17.1560776100000005 10.2455166099999992
 10.8268013799999991 18.6535842999999986 12.6887820999999992
 11.1268828400000004 -0.2405051100000000 14.9707986900000005
 11.2947020699999996  1.7161101800000000 16.9236836100000012
 10.6134457500000003  4.7371674500000003 19.4123213200000002
 10.2560548499999999  6.7689008399999997 21.2479816399999990
 12.9927844599999993  7.8369676699999999  4.7452341999999996
 12.6756636000000000 10.3700290699999993  6.3339071599999999
 12.7575289800000000 12.7506130599999992  8.2677014000000000
 12.8805562400000007 14.5467024699999996  9.8774033499999998
 12.7382128600000009 16.5690854799999983 12.2113957899999992
 13.2753574400000005 18.2563968999999986 14.8170382899999993
 12.7642932899999995 -0.0269468800000000 16.9894426699999990
 13.0582522000000001  2.1053926600000001 19.5646468999999996
 12.9104870199999997  3.7650622000000000  0.0439434700000000
 12.6846955700000006  6.2341829200000003  2.3165334799999999
 15.5070298700000002  7.8754031900000001  6.1722587799999999
 14.4969903599999999 10.2747471800000003  8.3133865100000008
 14.9700281999999998 12.6711410099999995 10.5479951199999995
 14.9694714100000006 15.2817451099999992 12.1124032100000001
 14.4595195600000004 16.5822394600000003 15.3391902099999999
 14.6082012399999996 19.0564932899999988 17.5456682700000002
 14.9225423799999994  0.6053822000000000 18.8693919900000004
 15.1759781999999994  2.0287538500000002  0.1091094700000000
 15.1316563599999991  4.2509471899999998  2.2894449799999999
 15.4261681500000005  6.0592698499999997  4.1565965199999999
 16.8064899700000012  7.9292800799999998  8.5908763799999992
 17.4443691100000002 10.5972547299999995 10.9864029199999997
 17.3176558400000005 12.7683283999999997 13.0289783200000002
 16.4223874400000014 15.0407590399999993 15.1587405799999999
 16.2470092000000008 16.1113476300000009 17.5990516200000009
 16.7835159599999990 19.6515832500000016 18.9062016700000015
 16.8037298700000015  0.2294003700000000  0.0089669300000000
 17.2388699400000007  2.3297256499999999  1.9746948799999999
 17.2542504399999999  3.8070642200000000  4.1691431000000003
 17.3747329000000015  5.9572737699999996  6.5833051700000000
 18.9293317999999999  8.4203951099999994 10.4739789699999992
 18.9878799500000000 11.0223648399999998 12.8513766999999994
 18.9058042099999994 12.8163364400000006 14.7247417100000000
 19.0692403900000009 14.4108547399999996 17.1905357899999984
 18.9514611600000009 17.1174506999999991 19.1448101599999987
 18.8469752499999998 20.0161863300000000 -0.1825762700000000
 19.1864110699999983  0.1835924700000000  2.5241844200000001
 19.3858385999999996  2.3495373900000001  4.1557983500000004
 19.4481903600000017  4.0901221100000003  6.5190607700000003
 19.6534326399999983  6.1167356000000002  8.4022687299999994
 -0.9127090000000000  8.2753230000000002 12.5842639500000004
 -0.6095867300000000 10.4643642299999993 14.4670329599999992
 -0.0269087900000000 12.4825732400000007 16.8995407700000015
  0.0003039000000000 14.6116060799999996 18.8589824899999989
 -0.0005939400000000 16.9573381999999988  0.0528604600000000
  0.0193959200000000 19.2804347299999996  1.7811386899999999
  0.2440262100000000 -0.5432806400000000  4.4648530199999996
  0.0873276400000000  2.0454631399999998  6.1835042299999996
  0.7152756300000001  4.0995768699999999  8.8084260299999997
 -0.0198957800000000  6.6876088999999999 10.6804759100000002
  1.7177116699999999  8.3297101599999994 14.9954432900000008
  1.8634447199999999 10.6725309399999997 16.8424127199999987
  2.3167611500000000 12.1552184899999993 19.2232162200000012
  1.6553774200000000 14.9317412600000008 -0.1510169600000000
  2.3858015899999998 17.1527031500000007  1.6021470200000001
  2.2474999900000001 19.1367940099999991  4.1129868800000002
  2.6761444000000001 -0.1681074900000000  6.6941530199999999
  1.8526513200000001  2.0514343600000000  8.8147993099999997
  2.4080191700000002  4.1743225700000002 10.7345491899999992
  1.6814538000000001  6.6597647200000001 12.6574708999999999
  4.6423294000000004  9.1325921900000004 16.6025610800000010
  3.9479511399999998 10.3718019500000000 18.5656116100000013
  4.3264550899999996 12.9168243799999996 -0.2228231100000000
  4.4779299000000004 14.9947299399999991  1.6571031899999999
  4.6052529299999998 17.0336181999999994  4.3226027000000000
  4.3224578300000003 19.2385915999999995  6.9318639700000002
  3.6717458299999999  0.6058602100000000  9.0717805899999995