Li                                      
   1.00000000000000     
   -11.1791050000000016   19.3627778431472777   -0.0000000000000023
   -19.1641800000000018  -11.0644444817984429   -0.0000000000000019
     0.0000000000000000   -0.0000000000000001   23.4479499999999987
   Li
   504
Direct
  0.9729635985294536  0.0021385668920502  0.0065334854432919
  0.9327751833932467  0.0367872344891680  0.6500661055657346
  0.8569276896913607  0.0852131658924549  0.3323101836194624
  0.7743159183141799  0.1158772316892396  0.9892724323448334
  0.7083838292813809  0.1793837076337965  0.6402623026746497
  0.6436759561730483  0.2158062165960715  0.3224147876466787
  0.5781443221852030  0.2588617283462042  0.9885582057280047
  0.4973198477719620  0.2877424415327567  0.6422729253516835
  0.4195955974215124  0.3277196874005170  0.3097517220055508
  0.3572032990597052  0.3620349210592479  0.0028228130817425
  0.2756708356987687  0.4194698339446674  0.6716616045325949
  0.2208588941078773  0.4610730823121116  0.3402389002023654
  0.0644044878441647  0.0394078926371364  0.6678383172089681
  0.0000135982901881  0.0813704350139801  0.3309703944268065
  0.9220827129915179  0.1324709647260107  0.0041278120262120
  0.8541957846104964  0.1598193976095956  0.6580312487872106
  0.7884027763286241  0.2181168555675654  0.3195909139178497
  0.7225091388972231  0.2507173144276678  0.9934393637823362
  0.6432838076940968  0.2968804691350186  0.6565321049388118
  0.5642407078429130  0.3408064645473843  0.3247193362319507
  0.5002862942537121  0.3840841427327888  0.9700211954563187
  0.4172326108081634  0.4217091576238303  0.6588999801688402
  0.3671698308559144  0.4539491733029806  0.3214344827586189
  0.2915761198228424  0.4910503398010135  0.0023809620883668
  0.1316600220325057  0.0833159910518617  0.3274489914896606
  0.0574253081568870  0.1246376062245744  0.0071045502911744
  0.9969320546090117  0.1507079182965327  0.6491279173659095
  0.9249374588951298  0.2082275426643960  0.3242940129094478
  0.8574723049552659  0.2536365275379922  0.9971967046159662
  0.7668774199480168  0.2877537124088789  0.6682304952032041
  0.7133146172179821  0.3312726736069820  0.3325788216027448
  0.6526685882221983  0.3762644392852863  0.9993058979569653
  0.5621650644604230  0.4232335642362557  0.6468711072823012
  0.5103666217142830  0.4526323253779054  0.3301564793510749
  0.4297913613843747  0.4935205457781748  0.0014082292908313
  0.3561046868817925  0.5363505751018991  0.6618783313679870
  0.2066994333233581  0.1269140777971032  0.9884431065402310
  0.1315091129564152  0.1750270247828709  0.6625309572905067
  0.0701921160045345  0.2067083749481142  0.3178965986365512
  0.0008236173764544  0.2561354133006901  0.0076122778323935
  0.9143161486297160  0.2888299181740521  0.6693580159459600
  0.8577562151393536  0.3273234000387433  0.3239860414236659
  0.7883975908618410  0.3741727034503128  0.0052803797346925
  0.7129035472302618  0.4114948487563979  0.6701606895272292
  0.6376710417233724  0.4619077465936456  0.3320162252990144
  0.5841778764338272  0.4933672956875341  0.0005735162348941
  0.5033906704482760  0.5393340361569514  0.6626083930578162
  0.4326068906212583  0.5753005600042087  0.3106452858352213
  0.2849043074353759  0.1692174735484429  0.6569613015210294
  0.2111056685776731  0.2056632798729225  0.3337500399821707
  0.1335245369541909  0.2412002961416917  0.0072185721992781
  0.0577977197431068  0.2950254115872042  0.6532801430402202
  0.9935525270765666  0.3306412466797823  0.3439665092257513
  0.9436368478943038  0.3791205204459871  0.0219980923705521
  0.8496237844774015  0.4188232573911179  0.6867592211685860
  0.7845497867174061  0.4581769591267957  0.3383540215669143
  0.7201330613848853  0.5049078934140070  0.0181302685309390
  0.6313506000389211  0.5438065182205492  0.6740670766527543
  0.5658858557611950  0.5812548348236533  0.3228468450333608
  0.5076351330255164  0.6352221783670799  0.9901196262359804
  0.3516669989150429  0.2177887284555808  0.3219349832288145
  0.2828764019566705  0.2440555395797830  0.9837225476001095
  0.2153027589237482  0.2935400403879385  0.6775920078301070
  0.1391279347250673  0.3289241360327111  0.3426028258333886
  0.0771507430814395  0.3839337416088000  0.0103223748771200
  0.9862018298154993  0.4142840326745230  0.6699607023215250
  0.9310417706468357  0.4606829964315224  0.3452777624483190
  0.8591996569270535  0.5068606190950220  0.0299755270716631
  0.7862464059696137  0.5478459726319116  0.6846537415850875
  0.7171542827491635  0.5847620092248889  0.3504069455965251
  0.6437775919953168  0.6165716629898697  0.9855969954729531
  0.5581061497324455  0.6642722282401436  0.6552328122501123
  0.4311971776917716  0.2469219139498833  0.0092881851078701
  0.3515817669284118  0.2975355972142708  0.6734528596316522
  0.2770036287360398  0.3359364892721146  0.3271284534468890
  0.2112827800779868  0.3820682881718014  0.0024307600451223
  0.1344734396505842  0.4145468618242418  0.6742484878208970
  0.0663952657096871  0.4623749559401205  0.3418352107540343
  0.0026492095076520  0.5024349796728558  0.0124701080478218
  0.9265464735581048  0.5383607978381661  0.6749565518520839
  0.8541075108238516  0.5854666338560577  0.3394293070396373
  0.7869858379834227  0.6242754119232004  0.0004325759821242
  0.7201382455573437  0.6710534005837303  0.6629219599154723
  0.6298507015592136  0.7087181811559802  0.3300972814254521
  0.1508314888789073  0.5143096040903572  0.0124390017037754
  0.0720117896337129  0.5196571083368511  0.6687879584356011
  0.0053112701645617  0.5792446080733455  0.3573987158792136
  0.9288165113812070  0.6265566715369886  0.0197226653076257
  0.8709667691766469  0.6610216412005840  0.6739433387566933
  0.7762355010687330  0.7066165648008393  0.3433328022279127
  0.7012055983660588  0.7499228946544036  0.9981152062333791
  0.2157131502908243  0.5331335926200893  0.6528427849769400
  0.1480160158821633  0.5781150425831783  0.3436768830537460
  0.0670423542598257  0.6312523265948329  0.0001349764051852
  0.0086303615430765  0.6650591693525101  0.6693053503611210
  0.9251140072602908  0.7017026001564588  0.3459536321938614
  0.8489736106291517  0.7547234947985046  0.0108898539104700
  0.8018471918160515  0.7975519144953367  0.6817168460355845
  0.2847097851535310  0.5644114153196895  0.3270109152399243
  0.2255040602949521  0.6340431237880466  0.9952031699999395
  0.1430292101359711  0.6556537838729781  0.6654572958403620
  0.0660675081236306  0.6971073048571625  0.3467608136318958
  0.9915279013464158  0.7645671549953477  0.0075279809109148
  0.9414247420161104  0.7882459123951051  0.6515673890468037
  0.8486382637348271  0.8308131750323113  0.3166016018457896
  0.3590608910767656  0.6313849581489706  0.9888095219411497
  0.2843690225501661  0.6525863057101446  0.6630641314059460
  0.2105425378774157  0.6888892460883724  0.3277686961973245
  0.1484677203585179  0.7533740595737157  0.0035330009659660
  0.0664057225934016  0.7799204043443311  0.6628290127708425
  0.0128250014741838  0.8158287180508097  0.3256258700654016
  0.9147639823004710  0.8817851690834146  0.0272796346802195
  0.4238572490762209  0.6701184902023343  0.6371372512309179
  0.3509222126993308  0.7098855462326981  0.3478748517460986
  0.2878327305085193  0.7570997315412740  0.9859346356504517
  0.2117508278334697  0.7953093986704758  0.6720786652990967
  0.1393583372284510  0.8302043314922827  0.3474966984320602
  0.0654269918976027  0.8754476652662717  0.0133623161086547
  0.0021889836318607  0.9159429154879675  0.6595792873150970
  0.9308631098673885  0.9591329800787705  0.3316821410826947
  0.8440471953054853  0.0053577720896172  0.0051670623657927
  0.7957104761136904  0.0360296630445518  0.6643722406436368
  0.7241030658399765  0.0880219292530668  0.3171930232706899
  0.6397156810242635  0.1136312371144115  0.9732638507843987
  0.5703134669088428  0.1718551052281967  0.6509043374793961
  0.4874718666836344  0.2131938239881705  0.3372282579074053
  0.0710493722755672  0.9609507814655984  0.3387524052209230
  0.1369561769826433  0.0084201388795364  0.0023690992176313
  0.2190127351487661  0.0405354336806880  0.6629454178297038
  0.2729020079323448  0.0849021976736566  0.3306507942058872
  0.3688870134815190  0.1225054546113498  0.0041095008305660
  0.4265776578076270  0.1625055866055547  0.6801818751745898
  0.8620548241832182  0.9129779742571458  0.6642129721361556
  0.7830906966783573  0.9640100999525956  0.3384713418443823
  0.6993326116364003  0.9949311316525140  0.0015210284907639
  0.6440878280908464  0.0417824091899845  0.6674847400305808
  0.5698622543148275  0.0952437163227344  0.3124662467294570
  0.5052159913349570  0.1225520364131114  0.0151026870152862
  0.1402919891745569  0.9183196125458437  0.6698958399348314
  0.2095738060082368  0.9662719149676278  0.3234619133015926
  0.2844764122078871  0.9963763034945785  0.9830102934371681
  0.3511499274473309  0.0433079505788356  0.6662867141903632
  0.4172409652799587  0.0881057769669198  0.3383478845698633
  0.7759236807734879  0.8829969584217352  0.0070151578282989
  0.7249811942400086  0.9092941720733947  0.6832490592994276
  0.6360162147208612  0.9614594928628790  0.3308969248910856
  0.5690929605142330  0.9962472618004270  0.0045057299252207
  0.4919064459301126  0.0478406026644720  0.6515564234826527
  0.2173206466438700  0.8796845433772944  0.9752820566403457
  0.2831074107598894  0.9216130133841958  0.6555409892975703
  0.3495024218454788  0.9599452378570348  0.3396194358142210
  0.4422062096580746  0.9969961997111483  0.0080664083640585
  0.7036681526078681  0.8255121908080909  0.3485977951164188
  0.6093122093376095  0.8783965984473596  0.0038740188374646
  0.5678434827018037  0.9241128727297934  0.6815291349563637
  0.4904083583165857  0.9649266469789595  0.3317549657859189
  0.2827882682799583  0.8317376494131352  0.3342432268066062
  0.3535467746504892  0.8793658290503856  0.9900681863446508
  0.4173963121550557  0.9317607541677120  0.6611338607426234
  0.6435522235068873  0.8004384737793657  0.6541806980994096
  0.5620472969691690  0.8328780042879771  0.3279752848330020
  0.4929991306687143  0.8823731964188255  0.9971555602941820
  0.3602329071159289  0.8005957268662556  0.6614178437773859
  0.4123685111933568  0.8362289753423227  0.3228660147262374
  0.5689751935977725  0.7559112050907046  0.0039331353060703
  0.4986273140718254  0.8052253887264200  0.6518150209293339
  0.4244680151099800  0.7568473647160445  0.9883657304796358
  0.4967768419219354  0.7083768824226411  0.3314712770199506
  0.9899929236183453  0.9779199536642622  0.7901673493844896
  0.9435306346321326  0.0462836184345363  0.4380503383024958
  0.8640282499944547  0.0550627739014047  0.1001803833597421
  0.7679033531619766  0.1327886090169415  0.7532321750941975
  0.7251852715654152  0.1591850120754827  0.4384474954100455
  0.6309556299289838  0.2076788134260212  0.1038687160284795
  0.5751813571506190  0.2654968772141970  0.7745653991073880
  0.5063672992820329  0.3060492832336053  0.4453892267767543
  0.4149689748540268  0.3464517860072505  0.0977142172343406
  0.3636853899245054  0.3707727113327053  0.7765838936879348
  0.3056762602498537  0.4167995181979904  0.4497839764243778
  0.2083941745813647  0.4574645599742126  0.1223753296130354
  0.0636472815315088  0.0390027789759202  0.4377200970660553
  0.0198956034782043  0.0755561991005536  0.1101379229314290
  0.9173772254889272  0.1301835033719456  0.7808172134450970
  0.8653035351911740  0.1556927138665287  0.4434310189163639
  0.7849240656816647  0.2060603721483361  0.0847327902865729
  0.6917114631625765  0.2502106416033385  0.7644887813220365
  0.6601978982304786  0.2931454445169166  0.4510292336856736
  0.5704187368857347  0.3320355844281906  0.1058424463545862
  0.5129232454039681  0.3873462367128795  0.7810293675993023
  0.4324795642395642  0.4117238123943565  0.4632949554225405
  0.3550925692653948  0.4606556488961360  0.0951789947522030
  0.2920919578680028  0.5147081029993501  0.7967465121684398
  0.1532110846872357  0.0964632239478789  0.1139389183276123
  0.0629020336893618  0.1099075969163863  0.7807822636946966
  0.0017081110523378  0.1707301083163628  0.4414782034250351
  0.9215231010272902  0.1992120739677006  0.1177736927961703
  0.8332157368936848  0.2522198763324681  0.7491790028552572
  0.7935416152371459  0.2993745759742552  0.4221271211342597
  0.6970961952478092  0.3182526686883662  0.1111227629707514
  0.6464971327416720  0.3988797209628530  0.7773738002682506
  0.5877823252460743  0.4211327601248769  0.4256116202056077
  0.4914360466065517  0.4530870015936230  0.1074791399674595
  0.4301322003540662  0.5205612010720415  0.7759158229184209
  0.3660047911313598  0.5467331703959886  0.4249413675822424
  0.2209874887271610  0.1260048340097413  0.7852160504436441
  0.1309514833346768  0.1596995549977009  0.4332036945660462
  0.0814454460450946  0.2211839972746077  0.1132586081085947
  0.9783608189210824  0.2373875364036024  0.7838089351094695
  0.9227669182594695  0.2869659108947502  0.4514190404704905
  0.8512399535046171  0.3322696812269967  0.1019637904379707
  0.7820844364768291  0.3714291264097795  0.7891309380990634
  0.7295340956460308  0.4224308920962443  0.4520920152934451
  0.6573726945240779  0.4508553929144057  0.1155799854571526
  0.5581386079258337  0.5061478016509611  0.7649010954049302
  0.5064040431338199  0.5268747866792367  0.4332723393729552
  0.4197376600766773  0.5808839634958787  0.0992791932770274
  0.2672502911937897  0.1690030746665911  0.4511614392729442
  0.2051958384384633  0.2325785228761887  0.1218024722843580
  0.1250396024190366  0.2583010442084799  0.7813556639279753
  0.0750144869824751  0.2872188433578557  0.4385417309402300
  0.9860593298146938  0.3236270550460247  0.1213486999929643
  0.9176259368293174  0.3853055184965797  0.7949425595841006
  0.8755512917060386  0.4171025693315684  0.4465856094029519
  0.7902024128619800  0.4628702561425868  0.1308513430811615
  0.7172548241827030  0.5049133236436418  0.7931410089154909
  0.6572129814286711  0.5351599689235726  0.4464148102499337
  0.5736060926550621  0.5634160189253734  0.1099243891257018
  0.5248393825226003  0.6248357401487894  0.7653722052460878
  0.3482963825351320  0.2072115732851429  0.1131330116278804
  0.2746161002805891  0.2361476327331928  0.7667105691542346
  0.2018530311361602  0.2975577765581718  0.4598801059367688
  0.1468614704547377  0.3383387419306274  0.1166360364125651
  0.0611281103048427  0.3739554495131330  0.7850807780637510
  0.0083036654047248  0.4123248473222318  0.4343352728063650
  0.9231807582431415  0.4546871611318792  0.1322168701315007
  0.8521107549605134  0.5114331194273447  0.8120563964013883
  0.7900305450014926  0.5470381140346774  0.4509994741544574
  0.7138611546618279  0.5900541341510177  0.1158895101703976
  0.6549804261805647  0.6267141893252273  0.7895195921178626
  0.5712221952638430  0.6602656028494280  0.4290643037024537
  0.4478552026404685  0.2545935414343816  0.7689080034715161
  0.3518731821900403  0.2848638710142239  0.4501971831226186
  0.2655960886831679  0.3453748236043239  0.1166087508716132
  0.2136712558511249  0.3705770836716411  0.7833770756078877
  0.1386453012785793  0.4345503595379583  0.4559061146070320
  0.0652223803471514  0.4441811714223789  0.1349818431888536
  0.0217770143000209  0.4973787018569880  0.7875587174998273
  0.9324367276571977  0.5290583643893854  0.4538711277531746
  0.8591912181691654  0.5884391415134402  0.1251210387261992
  0.7864971139144572  0.6383115792772429  0.7987964005382153
  0.7271857985134815  0.6688119154541923  0.4455259611181361
  0.6362133388673712  0.7049000141097110  0.1221870500406226
  0.1515656689504112  0.5033762197186675  0.7721887538142980
  0.0843221728831907  0.5410954956335559  0.4583821860759656
  0.9943852663433859  0.5928316404403589  0.1277850929398952
  0.9316156537147933  0.6410959058764192  0.7974136600427784
  0.8612024167490162  0.6537555098579233  0.4413040572843272
  0.7800609779346175  0.6899927829558195  0.1179007695768703
  0.7283731944697820  0.7644120285781568  0.7955293703713977
  0.2215190203506410  0.5389999442711897  0.4392798880072704
  0.1426255661744449  0.5822246488005973  0.1204314257749601
  0.0708448133675077  0.6261856240475296  0.7877539678308736
  0.0190694012456305  0.6665271867195983  0.4589276661712418
  0.9219525448115959  0.7241382692363558  0.1051084171537369
  0.8640223326175942  0.7621085922446440  0.7826563580185066
  0.7719904360260017  0.8049250709745763  0.4395950784610179
  0.2887917369410999  0.5922881782368492  0.1179294693139497
  0.2447557380800731  0.6134354981350825  0.7723575011888002
  0.1495547095602134  0.6738530659063855  0.4582837036926506
  0.0641739636987921  0.7137925338597881  0.1346384067690352
  0.0121471286759913  0.7601515052082917  0.7735951599180311
  0.9274920353972504  0.7981802951981507  0.4425047908239321
  0.8393249566335967  0.8243384110706842  0.1346753409146615
  0.3670255856101861  0.6338733434343240  0.7621208352969049
  0.2700868933018938  0.6767221540736017  0.4255109453065202
  0.2232439421519672  0.7059839596616868  0.1128552662386255
  0.1658113095702944  0.7582866681551792  0.7890100772135753
  0.0625254753696893  0.7900250214549942  0.4546820570668260
  0.0001159082690450  0.8373634712933153  0.1248093995423929
  0.9156263194943790  0.8746109556270483  0.7905483379144016
  0.4113220584410513  0.6638347114184526  0.4191563270989604
  0.3597097387223300  0.7099559694858044  0.0956530353399785
  0.3056709112102993  0.7656448654799917  0.7705549094910253
  0.2075394828946173  0.7684032600964557  0.4542385125352126
  0.1362134648359330  0.8247117452552288  0.1361178184020346
  0.0789933622840806  0.8525993149053690  0.7678383453564166
  0.9826349872077458  0.9314271751429430  0.4470196750675441
  0.9359916620287549  0.9651561768390877  0.1358264423968834
  0.8589601277463146  0.0044842169667874  0.7695572606560503
  0.7987930693733674  0.0561261856339712  0.4502109638582468
  0.7331659197864866  0.0921642282782429  0.0938418292430683
  0.6332857726068610  0.1204461361259277  0.7774738162611214
  0.5884167328117584  0.1666679931069552  0.4296848172228280
  0.5068267810079163  0.2036967440454305  0.1149243076686872
  0.0813443575566382  0.9557145161294045  0.1375000458462239
  0.1461489997970489  0.9913822112724802  0.7756102460982746
  0.1991965401912097  0.0459388897185136  0.4163106019929259
  0.2736333204280612  0.0912330524674729  0.0924519806635544
  0.3594105975785453  0.1381623910627354  0.7697251670188621
  0.4502254630965439  0.1632154198285605  0.4533804362428242
  0.8543116737297467  0.9249214548521962  0.4074993724398084
  0.7927814051318052  0.9403465924440297  0.1331468947178749
  0.7073040426044770  0.0066740507968532  0.7899208988419062
  0.6699193345353933  0.0476576314613339  0.4245820129264999
  0.5822768380032386  0.0738210896001732  0.1133594002887222
  0.5082065249236294  0.1357272028437251  0.7541565936467762
  0.1290494693538449  0.9087001803311736  0.4472461694945622
  0.1999900253572235  0.9581433897812985  0.1024479355338102
  0.2860362681338628  0.0090344332355130  0.7750401702494258
  0.3569298140617363  0.0452451829910459  0.4403404788051830
  0.4356313162031498  0.1021679406516114  0.1164389675856512
  0.7895214694914401  0.8803502102777614  0.7958452235696498
  0.7102811296192044  0.9228112469444696  0.4323198121797418
  0.6549889301126726  0.9604047262357582  0.1257608874123335
  0.5623698333656151  0.9956329184955095  0.7686214807691059
  0.5146741900197043  0.0452600267258916  0.4156674621875283
  0.2160205478596282  0.8730609054663319  0.7811843538560908
  0.2534705471365513  0.9264467448726208  0.4357227817357199
  0.3570507757506078  0.9579221692528748  0.1131037544859979
  0.4266815115204068  0.9962603153985583  0.7848474723803136
  0.7058335179069744  0.8189793338821971  0.1287840399693820
  0.6307644821530687  0.8719891653981620  0.7809197298697725
  0.5889581332465497  0.9160372135845520  0.4425470384404591
  0.5070717727745162  0.9711535969510550  0.1167756251612602
  0.3026734272712019  0.8330880828621616  0.1005212071844213
  0.3796000006693632  0.8810487646493144  0.7793367322089964
  0.4212517239007738  0.9255324750175760  0.4416922131785483
  0.6356403777272774  0.7791377087434483  0.4481934241586174
  0.5918194876735541  0.8430001125146589  0.1070405911817431
  0.5223137111317300  0.8631920661525214  0.7843953505530337
  0.3422095116604353  0.8196540074842389  0.4263751658460535
  0.4430779334621562  0.8419036362966494  0.1077976816736665
  0.5790356396459515  0.7444210170044201  0.7651850937928515
  0.4984502849084365  0.7841997261416225  0.4313100002345607
  0.4518369143114498  0.7561636173338115  0.7685736352218413
  0.5101449152719510  0.6904460277955380  0.1023709100369103
  0.0179662872427784  0.0090442397458617  0.2202259894788270
  0.9298119055296752  0.0205441776185395  0.8841360336404662
  0.8806847745498203  0.0943587444600453  0.5482962911469897
  0.7784195929429245  0.1053168696199762  0.2085153943095222
  0.7242168580957795  0.1689106494813331  0.8757358007842910
  0.6319382978002253  0.2154854403042563  0.5551967468371402
  0.5602749992092555  0.2453733791356996  0.2203751799197775
  0.4993387041239217  0.2849510313530104  0.8765683695163133
  0.4240304890570812  0.3380385526346288  0.5628074100294498
  0.3459751751634457  0.3448750366284585  0.2099875741802606
  0.2801897581062818  0.4058319554609326  0.9001149303030758
  0.2021950689959624  0.4592988712907058  0.5571226354542702
  0.0671069729117022  0.0394881468232882  0.8806964143986988
  0.0214465089487987  0.0864499062614712  0.5440150281794374
  0.9373708425386980  0.1164940971813806  0.2163687115504800
  0.8703707098373030  0.1670628253232991  0.8831948801494391
  0.7882403709791248  0.2085385582678398  0.5487281800754431
  0.7045648335063035  0.2471577738742567  0.2073744694099062
  0.6456422767528665  0.2799551343047639  0.8904881096215220
  0.5880374945538946  0.3345988826260822  0.5483941704925144
  0.4865702259578129  0.3533137887529705  0.2456321657117115
  0.4361867250381337  0.4069231259147301  0.8878129849304557
  0.3616830749171385  0.4636403696259634  0.5680695058629865
  0.2969117808238124  0.4957506533769589  0.2238179111606797
  0.1534661080287449  0.0944581581056596  0.5442572421043224
  0.0878989110195150  0.1413317712694848  0.2111644706680096
  0.0047757372449979  0.1642160302129128  0.8968895796860679
  0.9473679508934367  0.2330806642041239  0.5648586012849748
  0.8515005670178724  0.2554436507978792  0.2219522397480347
  0.7818240481232195  0.2845864563214064  0.8691275169044630
  0.7372103732947011  0.3338479647889656  0.5737393938489319
  0.6431895136295935  0.3530942994814197  0.2276417025795467
  0.5898302659209520  0.4031643469791959  0.8710181376197070
  0.5162902546243231  0.4601909089289506  0.5334288089150618
  0.4227049669240088  0.4971879037211622  0.2129237353372062
  0.3588901995709008  0.5436235505785234  0.8998608573457361
  0.2248652260914454  0.1323616156117851  0.2099008139304317
  0.1405655021023975  0.1793744894182581  0.8952988559767476
  0.0809129121277508  0.2195332468943718  0.5302034327094702
  0.9866691686514955  0.2525353551981979  0.2190764062530022
  0.9255212330050995  0.2876400454653663  0.8923185109998926
  0.8771165510046544  0.3447633756874069  0.5553168673594087
  0.7716887712241345  0.3750240907340867  0.2085620772818118
  0.7017189163255892  0.4150697021166607  0.8877389396514417
  0.6646407664624761  0.4505467332510662  0.5586960092460131
  0.5619382592908551  0.4864175183008257  0.2076004431091008
  0.5091949825094844  0.5384469554686575  0.8860735625075975
  0.4318485140195349  0.5750381575252206  0.5364482477146169
  0.2901546959441603  0.1520834905431485  0.8964942436332421
  0.2207297126644789  0.2154668238089954  0.5412639258442624
  0.1416891807712872  0.2586530950342691  0.2148510833569688
  0.0593955043923273  0.2899670030165780  0.9197838634080995
  0.0148922143520451  0.3374882704126136  0.5578899204408074
  0.9256180348295260  0.3801971515998659  0.2228009971020910
  0.8580889284205995  0.4214809436067029  0.9165899172422343
  0.7987361824624628  0.4503478520319106  0.5758036672715505
  0.6970077739408467  0.4967799107135846  0.2202363993440812
  0.6448439919764581  0.5301006218411644  0.8985020264031647
  0.5623036382887676  0.5756936355058144  0.5505545602067556
  0.4940938388654885  0.6106255986673901  0.1996375252420819
  0.3617015733128071  0.2057582188891445  0.5537581012412574
  0.2737275509704489  0.2507147415808291  0.2168483735251883
  0.2110171035977828  0.2985180180985836  0.8725021202279919
  0.1432632693519906  0.3499155898802258  0.5558894594196957
  0.0699689753350015  0.3680209848784344  0.2351104540055715
  0.9836514031474977  0.4093003369211132  0.9099215406890551
  0.9342572465865970  0.4701869599115369  0.5547409769297502
  0.8422903440228566  0.5116672518042691  0.2306253476316726
  0.7833098718346960  0.5354949695329196  0.8897029987696143
  0.7106297647616202  0.5807215160577996  0.5614692819628146
  0.6300994518567293  0.6341817347390375  0.2271259257205855
  0.5665516123038685  0.6737162763100599  0.8864018632758928
  0.4194627086852805  0.2335892918988876  0.2150185227280019
  0.3640558579346305  0.2706879531648951  0.8996061553355403
  0.2825615701986592  0.3233783536673300  0.5818306278374052
  0.1997442462173424  0.3900104177893553  0.2315729208736812
  0.1400964366498130  0.4062063727519742  0.9008283018344869
  0.0788972201449880  0.4735383194997667  0.5670993946165837
  0.9848934213875182  0.5010825800268890  0.2625545213973908
  0.9388517020770664  0.5307287279211366  0.8802840986098985
  0.8408417040271701  0.5854606950206787  0.5739305755940265
  0.7807180793668138  0.6250502309704871  0.2281490795570633
  0.7217645117677804  0.6818873454368628  0.8964477470311891
  0.6477590947146297  0.7010418606734135  0.5299685243272876
  0.1252539604462726  0.4955823366564758  0.2453667838766265
  0.0744392461469801  0.5458186252269641  0.8969205175718997
  0.0040220525630232  0.5928060043311234  0.5736487373096608
  0.9210399347768501  0.6476443479416503  0.2374898487927553
  0.8719879410755809  0.6452452788474261  0.8934729415577891
  0.7732939082959831  0.7036254957581747  0.5713372734076998
  0.7124423614668416  0.7319377565183700  0.2270538115272345
  0.1993121259701667  0.5440997436888182  0.8822536349659558
  0.1497073719449560  0.5836554853770579  0.5471675255192920
  0.0644518195066297  0.6279843876593887  0.2452256559741883
  0.0082439492596293  0.6584344368301700  0.9009169168306812
  0.9234243171016772  0.7049616977907220  0.5644919351158606
  0.8522628407273345  0.7463856854773283  0.2390104554982386
  0.8107462439682038  0.7961083218965754  0.9013232201535715
  0.2806409316580485  0.5692346600635574  0.5536434895161406
  0.2194375067840539  0.6296925603246706  0.2268218509507207
  0.1358095124124645  0.6483629349516775  0.9033549487268644
  0.0839361472594007  0.7267779720547196  0.5618811461129880
  0.0163446000082672  0.7513147972062768  0.2226860872698921
  0.9467009281299994  0.7657906349678072  0.9133787346015296
  0.8307074424446768  0.8211858548933222  0.5558505583643765
  0.3593874286107024  0.6259075013844040  0.2199635639789435
  0.2843633789183855  0.6703210807306448  0.8895149635682458
  0.2239317310317261  0.7155947379937260  0.5682053164562362
  0.1620301368569628  0.7502482024752197  0.2361216566906705
  0.0926667319488317  0.8028387858774622  0.8770262807622871
  0.9765373248205407  0.8335032925704127  0.5580365648169661
  0.9175960882802130  0.8633392397444695  0.2428434200004688
  0.4291191337268287  0.6594367260461311  0.8664361131783380
  0.3516807938816626  0.7271590685702947  0.5371676905657026
  0.2977930283119434  0.7563550925858991  0.2107373693649137
  0.2258500836075754  0.7843213438348045  0.8995628624250713
  0.1421384562945320  0.8320489471788264  0.5520865580999654
  0.0647350429355740  0.8758153950674483  0.2421223765830263
  0.0203909413270367  0.9012369366107080  0.8892749988805022
  0.9176636211386295  0.9644304355631732  0.5409152923816336
  0.8581946978723209  0.0016803673333285  0.2217543013355083
  0.7973997229187333  0.0446714787964098  0.8972862587134500
  0.7111004568969932  0.0714187894708047  0.5473657441268855
  0.6368996908291535  0.1375613583129223  0.2244558125550427
  0.5723549412291575  0.1471483405358569  0.8685511193942332
  0.4939695011107261  0.1983999743420028  0.5533109960572276
  0.0513691923057138  0.9622665788700218  0.5651180248166696
  0.1420854007939454  0.9953742323207919  0.2312306248520670
  0.2113140800150290  0.0373369098773679  0.8859649943811689
  0.2897377776751853  0.0848057418007144  0.5505738476071471
  0.3592208859527801  0.1031715991887410  0.2173761369330762
  0.4430703314273927  0.1541540959534089  0.9033562511861390
  0.8549998552414024  0.9134683390195448  0.8982964387078596
  0.7994268809371476  0.9632255279475075  0.5387906853264326
  0.7072066931072953  0.0058755428643806  0.2537488961721621
  0.6490602858603225  0.0393852355298989  0.8584335244658945
  0.5664968539386095  0.0712832653236717  0.5365381519493155
  0.5016206561834693  0.1210084681085277  0.2062739395128332
  0.1498073025929614  0.9234117877491457  0.8816196622732448
  0.1941599898622144  0.9669591444315060  0.5468159493687068
  0.2683423357919210  0.9910515619367430  0.2279425020097676
  0.3563175940839116  0.0409123292720395  0.8880386976260155
  0.4425812232483253  0.0789464717133015  0.5400986017967426
  0.7732284792950779  0.8635575308189516  0.2342347309679553
  0.7186315564984085  0.9028639500146056  0.9016184502269908
  0.6244288661132131  0.9524711837756428  0.5686061702622212
  0.5720784074472078  0.0047820712868898  0.2270242059540379
  0.5086096243485088  0.0277498789615578  0.8782151910934672
  0.2076253485645623  0.8640260516095708  0.2077144475316572
  0.2781046467371695  0.9307470428235050  0.8853817126870354
  0.3711014242580504  0.9625876141097507  0.5559333779712077