Li 
 1.0000000000000000
   -11.1791050000000016   19.3627778431472777   -0.0000000000000023
   -19.1641800000000018  -11.0644444817984429   -0.0000000000000019
     0.0000000000000000   -0.0000000000000001   23.4479499999999987
 Li 
 504
Cartesian
  0.2612588900000000 -0.5471618900000000  0.1531968400000000
 -11.1325889000000000 17.6540883400000013 15.2427175399999992
 -11.2127250699999994 15.6496641400000005  7.7919925699999997
 -10.8768510799999998 13.7107899100000008 -0.2515394700000000
 -11.3568388700000007 11.7314976400000006 15.0128384599999993
 -11.3314702799999996 10.0755786399999998  7.5599658200000004
 -11.4240088400000008  8.3303188499999994 -0.2682866200000000
 -11.0739387399999991  6.4457834600000004 15.0599834399999999
 -10.9711823200000005  4.4985000499999996  7.2630428900000004
 -10.9313155799999997  2.9107328400000001  0.0661891800000000
 -11.1205486199999992  0.6965524600000000 15.7490877200000003
 -11.3050923099999991 -0.8250758200000000  7.9779047199999997
 -1.4752044799999999  0.8110233500000000 15.6594394700000006
 -1.5595496799999999 -0.9000553600000000  7.7605772599999998
 -12.8467568799999992 16.3883650900000006  0.0967887300000000
 -12.6119520699999992 14.7712903600000001 15.4294838199999997
 -12.9936681000000007 12.8523259700000008  7.4937517700000003
 -12.8817972699999999 11.2157361400000006 -0.1538334700000000
 -12.8808079800000002  9.1709439899999996 15.3943319699999996
 -12.8389825500000008  7.1544332700000002  7.6140027600000000
 -12.9534106599999994  5.4372547000000004 -0.7029415100000000
 -12.7459973699999995  3.4128047900000000 15.4498537900000006
 -12.8041937600000004  2.0867324400000000  7.5369796800000000
 -12.6701371599999995  0.2125244100000000  0.0558286800000000
 -3.0685238600000000  1.6274586000000000  7.6780075800000001
 -3.0305410699999999 -0.2671323900000000  0.1665871400000000
 -2.8538967899999999 -1.7269033400000000 15.2207189500000002
 -14.3304830800000005 15.6054364499999991  7.6040298000000002
 -14.4465090000000007 13.7966984700000008 -0.0657315300000000
 -14.0875671400000009 11.6650421400000006 15.6686352400000004
 -14.3227881499999992 10.1464043600000000  7.7982915799999999
 -14.5070501200000006  8.4743198799999995 -0.0162752700000000
 -14.3954264900000002  6.2022329799999998 15.1678013800000002
 -14.3797694099999998  4.8739902800000001  7.7414926199999998
 -14.2625993300000005  2.8614239700000001  0.0330200900000000
 -14.2596506499999993  0.9607547800000000 15.5196900200000005
 -4.7429189000000003  2.5980414399999998 -0.2709854600000000
 -4.8244035900000002  0.6098049400000000 15.5349927599999997
 -4.7460815399999996 -0.9279989900000000  7.4540235499999996
 -4.9178324699999996 -2.8180485399999999  0.1784923100000000
 -15.7564247700000006 14.5079578700000003 15.6950732899999998
 -15.8618313499999992 12.9868914499999999  7.5968084999999999
 -15.9842924899999996 11.1255542999999992  0.1238140800000000
 -15.8555849599999998  9.2508310999999992 15.7138943399999995
 -15.9806747300000005  7.2363301000000000  7.7850998499999999
 -15.9855654800000000  5.8524713899999998  0.0134477800000000
 -15.9633517099999995  3.7796102199999999 15.5368084700000004
 -15.8613213399999999  2.0110900100000002  7.2839951300000001
 -6.4278892900000004  3.6442414699999999 15.4043957500000008
 -6.3013405499999999  1.8120422199999999  7.8257542500000001
 -6.1150907099999996 -0.0833413400000000  0.1692607200000000
 -6.3000468700000001 -2.1451678799999998 15.3180801300000002
 -17.4434963900000000 15.5795751399999993  8.0653095100000005
 -17.8145492999999995 14.0766726999999996  0.5158101700000000
 -17.5244377900000003 11.8170299100000005 16.1030958800000015
 -17.5511501599999988 10.1215896999999995  7.9337081800000000
 -17.7265888599999997  8.3572511299999999  0.4251176300000000
 -17.4795406500000006  6.2077843799999997 15.8054911100000002
 -17.4653696799999985  4.5258602600000000  7.5700966799999998
 -17.8484186200000003  2.8008457800000000 -0.2316745100000000
 -8.1050646999999998  4.3995386800000000  7.5487153899999999
 -7.8394292900000000  2.7769339600000000 -0.3816728900000000
 -8.0323463200000003  0.9210020100000000 15.8881435199999999
 -7.8588871400000002 -0.9454595500000000  8.0333339299999995
 -8.2202515900000002 -2.7541608700000002  0.2420385300000000
 -18.9642675800000013 14.5117842600000007 15.7092050499999996
 -19.2368255800000014 12.9303535299999997  8.0960557099999999
 -19.3186513200000007 11.0283608999999991  0.7028646600000000
 -19.2885499600000010  9.1623031400000006 16.0537266999999986
 -19.2236274300000005  7.4160322699999996  8.2163245400000005
 -19.0129476299999993  5.6432995600000000 -0.3377209300000000
 -18.9693597999999994  3.4566821999999999 15.3638662200000002
 -9.5524545300000003  5.6171213499999997  0.2177889000000000
 -9.6323952300000002  3.5155335499999998 15.7910889799999996
 -9.5345999999999993  1.6466090900000001  7.6704916200000000
 -9.6839778299999999 -0.1363518300000000  0.0569963400000000
 -9.4477433800000004 -1.9829513999999999 15.8097448299999996
 -9.6032765300000005 -3.8303252500000000  8.0153349299999999
 -20.8374751799999984 13.8549099600000005  0.2923984700000000
 -20.6752035499999991 11.9838503700000008 15.8263474800000008
 -20.7681454999999993 10.0600309200000009  7.9589214200000002
 -20.7615236799999998  8.3309713100000007  0.0101430200000000
 -20.9106892199999983  6.5190437699999997 15.5441609700000001
 -20.6231699199999987  4.3540862400000000  7.7401045499999999
 -11.5424828799999997 -2.7700334500000001  0.2916690900000000
 -10.7638297200000004 -4.3553689400000000 15.6817066100000009
 -22.3392281799999992 13.0565989800000004  8.3802672200000003
 -22.3907821399999989 11.0519662600000004  0.4624560700000000
 -22.4045666799999985  9.5504988100000006 15.8025897099999995
 -22.2193452100000002  7.2117558099999997  8.0504503799999991
 -22.2105083500000013  5.2798079900000001 -0.0441945500000000
 -12.6285480900000007 -1.7220212300000000 15.3078249799999995
 -12.7337873199999994 -3.5305205599999998  8.0585183699999998
 -12.8469067300000006 -5.6863301100000001  0.0031649200000000
 -24.0208983499999995 12.1713753600000008 15.6938383899999998
 -23.7895015600000015 10.1488275399999992  8.1119034699999997
 -23.9544220400000007  8.0878912100000004  0.2553447500000000
 -24.2483624000000013  6.7015201600000003 15.9848625200000001
 -13.9992825399999994 -0.7321264500000000  7.6677355900000004
 -14.6718501200000002 -2.6489499200000002 -0.1124758300000000
 -14.1640056899999998 -4.4850020700000002 15.6036093999999999
 -14.0980654800000007 -6.4338545900000002  8.1308302200000000
 -25.7366971000000007 10.7392236400000005  0.1765157200000000
 -25.6303725900000003  9.5070949999999996 15.2779195600000008
 -25.4088694900000007  7.2395079200000003  7.4236585300000000
 -16.1139543900000000 -0.0335075500000000 -0.2623937700000000
 -15.6852725900000003 -1.7143307400000001 15.5474946000000003
 -15.5556746500000003 -3.5454884299999998  7.6855039999999999
 -16.0975323199999991 -5.4609179699999997  0.0828416300000000
 -15.6888915600000001 -7.3435867600000000 15.5419815499999991
 -26.9571654400000007 10.5844139399999992  7.6352591199999997
 -27.1249323099999984  7.9559087200000000  0.6396515100000000
 -17.5806160600000005  0.7925649200000000 14.9395624100000006
 -17.5273706500000017 -1.0596603700000000  8.1569521300000005
 -17.7269078499999999 -2.8036467300000001 -0.3298039600000000
 -17.6086372100000013 -4.6995724499999998 15.7588669400000008
 -17.4680867299999996 -6.4873852100000002  8.1480852099999996
 -17.5086518499999997 -8.4194937799999998  0.3133189200000000
 -28.7568707799999999  9.2707631100000008 15.4657821500000008
 -28.7872135200000017  7.4118219900000000  7.7772662600000002
 -9.5383695300000007 16.2838175599999992  0.1211570200000000
 -9.5858099100000000 15.0085169700000005 15.5781670800000001
 -9.7816922999999996 13.0467330500000003  7.4375261500000001
 -9.3290982499999995 11.1294061000000006 -0.6269078900000000
 -9.6690562999999994  9.1413716899999997 15.2623723600000005
 -9.5351839999999992  7.0799382299999998  7.9073113299999997
 -19.2101021400000000 -9.2566733600000006  7.9430494600000001
 -1.6924125400000001  2.5586878700000000  0.0555505200000000
 -3.2251947099999998  3.7921928800000000 15.5447110100000003
 -4.6778811999999999  4.3447452999999996  7.7530832900000002
 -6.4715432399999999  5.7872224900000004  0.0963593700000000
 -7.8830427399999996  6.4616943800000000 15.9488705999999993
 -27.1334756299999995  6.5901819399999999 15.5744325600000000
 -27.2287162000000009  4.4965749600000002  7.9364591000000004
 -7.7207719900000003 13.5971062099999997  0.0356650000000000
 -8.0010510700000008 12.0090303800000004 15.6511488100000005
 -8.1958176999999992  9.9802974199999994  7.3266929300000001
 -7.9964719000000004  8.4264147999999999  0.3541270500000000
 -19.1671812300000006 -7.4442537499999997 15.7076841599999995
 -20.8606564900000002 -6.6333309099999997  7.5845187699999999
 -3.1107465099999998  5.5483477600000004 -0.3983737900000000
 -4.7555032700000002  6.3200596200000003 15.6230575599999995
 -6.3528555300000003  7.1041026399999998  7.9335642799999997
 -25.5960449499999996  5.2541670299999996  0.1644910700000000
 -25.5305180800000002  3.9768149199999998 16.0207897800000012
 -25.5356748300000014  1.6770254899999999  7.7588545499999997
 -6.2900318100000003 11.0607425300000006  0.1056501300000000
 -6.4158997299999996  8.9953455400000006 15.2776624400000003
 -19.2878832600000010 -5.5252893900000002 -0.5795851000000000
 -20.8268451500000005 -4.7153901200000004 15.3710923400000006
 -22.3036875999999999 -3.8539230400000002  7.9633795500000000
 -4.8859042800000001  8.5955759799999996  0.1891407400000000
 -23.6866443800000006  4.4911363099999999  8.1739036699999996
 -23.6453156900000003  2.0790065499999999  0.0908378000000000
 -24.0578473499999994  0.7702316299999999 15.9804610799999995
 -23.9743544799999988 -1.1807092200000000  7.7789738499999999
 -19.1008897699999984 -3.7271486299999999  7.8373184699999996
 -20.8046615499999987 -2.8840467400000001 -0.2328806700000000
 -22.5225480100000013 -2.2274630700000002 15.5022337100000005
 -22.5340848700000009  3.6045516800000001 15.3391962999999993
 -22.2446097400000014  1.6674645100000001  7.6903480799999997
 -22.4212478100000006 -0.2171366000000000 -0.0666962800000000
 -19.3698421100000004 -1.8830372200000001 15.5088925300000007
 -20.6355534899999995 -1.2678092000000001  7.5705461700000001
 -20.8470518300000016  2.6532027100000000  0.0922239600000000
 -21.0056913899999991  0.7454383000000000 15.2837260199999996
 -19.2495316400000007 -0.1552157700000000 -0.2727997700000000
 -19.1289825600000007  1.7811829400000001  7.7723219300000004
  0.5350161400000000  0.0505386500000000 18.5278044999999985
 -11.4348156299999992 17.7572715400000014 10.2713824299999992
 -10.7142954400000008 16.1207480499999996  2.3490246199999998
 -11.1292570200000007 13.3995098400000003 17.6617503800000009
 -11.1575725200000004 12.2803075800000006 10.2806949500000009
 -11.0335134000000004  9.9192029900000005  2.4355084599999999
 -11.5180427299999995  8.1995333800000001 18.1619707499999983
 -11.5259167599999994  6.4184122199999996 10.4434643200000004
 -11.2784461300000007  4.2016555200000001  2.2911980800000000
 -11.1712321400000008  2.9395653300000002 18.2093003099999997
 -11.4048079999999992  1.3070863900000000 10.5465121899999996
 -11.0965935299999998 -1.0265011200000000  2.8694506099999999
 -1.4589759200000001  0.8008440900000000 10.2636389500000007
 -1.6703876400000000 -0.4507532200000000  2.5825085099999998
 -12.7503164200000008 16.3225632699999998 18.3085629800000014
 -12.6570422699999998 15.0320267300000001 10.3975483600000000
 -12.7237266099999999 12.9183667599999996  1.9868102299999999
 -12.5277968499999997 10.6250136400000006 17.9256947199999992
 -12.9983136899999998  9.5397737399999993 10.5757109200000006
 -12.7399606599999995  7.3711019899999997  2.4817883900000002
 -13.1571958200000001  5.6458479199999996 18.3135375600000003
 -12.7250837099999998  3.8185104600000002 10.8633169499999997
 -12.7977048900000003  1.7786796800000000  2.2317523100000001
 -13.1292854000000005 -0.0392475400000000 18.6820723800000010
 -3.5614013899999999  1.8992802099999999  2.6716340600000001
 -2.8094774100000000  0.0018916000000000 18.3077434799999992
 -3.2909976799999998 -1.8559600300000001 10.3517588400000005
 -14.1195395500000007 15.6390761499999993  2.7615516599999999
 -14.1481933200000007 13.3426983900000007 17.5667118000000002
 -14.6083532999999992 12.0527566299999993  9.8980156299999997
 -13.8919629899999997  9.9764297800000001  2.6056009900000001
 -14.8714621000000005  8.1045978299999994 18.2278219999999997
 -14.6415443500000002  6.7214985399999998  9.9797199899999995
 -14.1768560200000007  4.5024110200000003  2.5201655000000001
 -14.7846215900000004  2.5688337300000001 18.1936354199999997
 -14.5692988799999998  1.0375706499999999  9.9640039399999996
 -4.8852216600000000  2.8847581600000001 18.4117066899999990
 -4.5244314000000001  0.7685976200000000 10.1577385699999994
 -5.1492971299999999 -0.8702679800000001  2.6556821799999999
 -15.4865358000000004 16.3172219699999985 18.3787127199999993
 -15.8151746400000004 14.6922124499999995 10.5848510900000008
 -15.8837767999999997 12.8059906699999999  2.3908418600000001
 -15.8611386700000008 11.0336702500000001 18.5035027800000016
 -16.2510799100000014  9.4518434700000000 10.6006309699999992
 -15.9891122800000005  7.7400969799999997  2.7101137199999998
 -15.9393976800000008  5.2068696200000000 17.9353626400000010
 -15.7582672200000005  3.9758121599999998 10.1593481499999996
 -15.8244562099999992  1.7001287000000000  2.3278935600000001
 -6.2264244099999999  3.3047828799999999 10.5788108699999999
 -6.7510824999999999  1.3998092799999999  2.8560182799999998
 -6.3479585500000004 -0.4368435200000000 18.3211885400000014
 -6.3429084400000004 -1.7254281000000000 10.2829045800000003
 -17.2253079199999988 15.5120941600000002  2.8453782500000000
 -17.6423010100000006 13.5045956399999998 18.6397733899999984
 -17.7813085400000013 12.3380969300000007 10.4715170400000002
 -17.7042846500000017 10.1791115199999993  3.0681957500000001
 -17.6945168099999997  8.3014603800000000 18.5975307200000017
 -17.6029549000000003  6.8042211899999998 10.4675121499999992
 -17.2098087399999997  4.8727220800000000  2.5775015799999998
 -17.8416991600000010  3.2488880099999999 17.9464092000000015
 -7.8646817200000001  4.4513045299999998  2.6527371999999998
 -7.5955379599999997  2.7044881699999999 17.9777910900000002
 -7.9589870200000004  0.6161238999999999 10.7832457300000009
 -8.1257643500000007 -0.8998842000000000  2.7348759500000002
 -7.8499071100000002 -2.9539992900000001 18.4085348300000007
 -19.1738001400000009 14.9614144899999992 10.1842717599999997
 -19.0340412299999997 12.8444830799999998  3.1002145600000000
 -19.3270319599999993 10.8405078899999996 19.0410577799999992
 -19.3153712999999989  9.2445130899999999 10.5750131199999995
 -19.2882324400000016  7.2937137400000003  2.7173714400000000
 -19.3325584900000003  5.7479961299999998 18.5126159199999982
 -19.0392017600000010  3.7549763600000001 10.0606783400000008
 -9.8856967900000008  5.8547846899999998 18.0293164200000007
 -9.3928097499999996  3.6613817700000002 10.5562010399999995
 -9.5879518499999996  1.3212975000000000  2.7342361600000000
 -9.4904593399999992  0.0370394900000000 18.3685864999999993
 -9.8777316899999992 -2.1235001599999999 10.6900637799999991
 -9.2414957599999994 -3.6517314500000002  3.1650475100000000
 -20.9544074999999985 14.2812222999999996 18.4666374299999987
 -20.5627778100000000 12.2008283100000003 10.6423475100000005
 -20.8819424699999985 10.1255764700000004  2.9338318600000002
 -21.0250518200000016  8.1662058599999998 18.7301380600000016
 -20.9465183300000000  6.6803047600000003 10.4466704600000000
 -20.6211264700000001  4.5195304700000003  2.8650358400000000
 -11.3411610100000004 -2.6348458600000000 18.1062432899999983
 -11.3122979000000008 -4.3542095700000001 10.7481225800000004
 -22.4774695700000002 12.6947082299999998  2.9962984700000002
 -22.7007065499999996 10.9452968800000008 18.6977156300000011
 -22.1561605099999994  9.4418295299999997 10.3476754700000004
 -21.9435294700000014  7.4697605800000000  2.7645313499999999
 -22.7918901299999987  5.6455339000000002 18.6535328999999983
 -12.8058763399999993 -1.6745113800000000 10.3002128499999994
 -12.7522841499999995 -3.6803651500000001  2.8238700500000000
 -12.7923156200000001 -5.5566436899999996 18.4712156500000013
 -24.1657308200000003 12.3572613699999998 10.7609129699999997
 -24.1841204400000009  9.8393746300000000  2.4645769099999999
 -24.2641826199999997  8.2975642700000005 18.3516871500000001
 -24.0558910899999994  6.0418305500000002 10.3076034199999995
 -14.5791504100000004 -0.9615294200000000  2.7652043000000002
 -14.4921384000000000 -2.0481720299999999 18.1102000700000012
 -14.5857292500000000 -4.5600152200000004 10.7458133700000005
 -14.3966560799999996 -6.6551316600000003  3.1569946299999998
 -25.8825792999999997 11.1873258700000004 18.1392206300000005
 -25.6650017000000013  9.1274006700000001 10.3758302100000002
 -25.1806715099999998  7.1308160899999997  3.1578606599999999
 -16.2506804100000011  0.0931784600000000 17.8701712400000012
 -15.9881549100000004 -2.2579221899999999  9.9773593700000003
 -16.0252711499999982 -3.4886974700000000  2.6462246399999998
 -16.3855642400000008 -5.1794531900000003 18.5006688399999994
 -15.8391605700000007 -7.5305210999999996 10.6613621399999996
 -27.2277850400000005 10.1000605100000005  2.9265245599999998
 -26.9970845500000003  8.0519846499999996 18.5367378999999985
 -17.3200603800000010  0.6193753300000000  9.8283565999999993
 -17.6269569299999986 -0.8902886500000000  2.2428675899999999
 -18.0900832300000012 -2.5527971599999999 18.0679329899999992
 -17.0459240600000008 -4.4834143099999997 10.6509619299999994
 -17.3276689600000005 -6.4875062600000000  3.1916837999999998
 -17.2224418300000011 -7.9040068600000000 18.0042351300000014
 -28.8350177400000014  8.7208186899999998 10.4816949899999994
 -28.9599757699999998  7.4444816800000000  3.1848516299999998
 -9.6883417999999999 16.5822387599999992 18.0445401700000012
 -10.0054039199999991 14.8458476800000003 10.5565241699999994
 -9.9623906600000005 13.1763828400000005  2.2003985199999998
 -9.3878195800000004 10.9295021400000003 18.2301671700000014
 -9.7720278599999997  9.5492937199999997 10.0752281099999994
 -9.5695508700000005  7.5597830500000001  2.6947394199999999
 -19.2248421299999990 -8.9993974800000007  3.2240942000000001
 -1.4686621600000000  2.9252016599999999 18.1864702700000009
 -3.1072201900000000  3.3487100600000002  9.7616301799999992
 -4.8073822599999998  4.2888581500000003  2.1678094200000002
 -6.6656577400000003  5.4304974499999998 18.0484772299999996
 -8.1610074099999999  6.9117276700000003 10.6308418000000007
 -27.2758011499999995  6.3081050599999999  9.5550249100000002
 -26.8835579299999985  4.9460375599999997  3.1220217300000002
 -8.0349288699999999 13.6215263800000006 18.5220257400000001
 -8.4024180099999999 12.4441940300000002  9.9555778099999994
 -7.9240545600000001 10.4577077099999993  2.6580455500000002
 -8.2823946500000005  8.3385439399999992 17.6834260999999984
 -18.8571513899999985 -7.5555064900000000 10.4870058200000003
 -20.5977418800000009 -6.7289619099999998  2.4021940700000002
 -3.3707669800000000  5.4384957299999996 18.1731031600000001
 -4.8572426999999996  6.4105398800000000 10.3250815300000003
 -6.8279330299999996  7.3046008899999997  2.7302550900000000
 -25.6973333000000004  5.5467427899999997 18.6609390099999999
 -25.6252281699999997  3.5426219099999998 10.1370133399999993
 -25.7275590700000016  2.0560603700000000  2.9488349999999999
 -6.2030998799999999 10.9373614799999999 18.0225980499999991
 -6.6209681099999997  9.4647449500000000  9.7465498700000008
 -19.1464127300000015 -5.4771760399999998 18.3171716700000005
 -20.5881660400000008 -5.3427246799999999 10.2168060000000001
 -22.3493009899999997 -3.6853818100000000  2.6520511800000000
 -4.6982494299999997  8.3031168500000003 18.4030642899999997
 -23.5856543800000011  4.6053462300000003  3.0197217300000001
 -23.7623396999999983  2.5652768300000002 18.3109667800000011
 -24.1391268600000011  1.2684226000000001 10.3768208299999998
 -24.2799709300000011 -0.9269569700000000  2.7381490199999998
 -19.3490679999999990 -3.3570585099999999  2.3570162400000001
 -21.1281653799999987 -2.3982046600000002 18.2738487300000010
 -22.4462882000000015 -2.0838991400000002 10.3567769300000005
 -22.0374258199999993  3.6870375000000002 10.5092169999999996
 -22.7714180900000009  2.1319413200000001  2.5098824300000002
 -22.3813679500000013  0.5627036600000000 18.3924629599999996
 -19.5335929999999998 -2.4428895100000001  9.9976235700000000
 -21.0876075699999994 -0.7359764500000000  2.5276346500000000
 -20.7393185799999991  2.9751334400000000 17.9420218200000008
 -20.6007727799999998  0.9746478000000000 10.1133353199999991
 -19.5423879800000009  0.3822874300000000 18.0214761699999997
 -18.9347955299999988  2.2384209199999998  2.4003879800000001
 -0.3741724500000000  0.2478077400000000  5.1638479899999998
 -10.7881772399999996 17.7764314500000005 20.7311775099999984
 -11.6535755299999995 16.0084765500000010 12.8564240200000004
 -10.7203458099999995 13.9070929900000007  4.8892585400000002
 -11.3331303900000009 12.1539476299999993 20.5342092700000016
 -11.1941063500000002  9.8518541800000001 13.0182255599999994
 -10.9657526500000007  8.1335602100000006  5.1673461999999999
 -11.0430126600000005  6.5157595300000004 20.5537312999999990
 -11.2185130300000004  4.4701993599999996 13.1966800099999997
 -10.4769400899999994  2.8831897600000000  4.9237781399999996
 -10.9097073699999996  0.9349469000000000 21.1058498800000010
 -11.0624461499999995 -1.1668286600000000 13.0633836999999993
 -1.5069538499999999  0.8624630000000000 20.6505254899999997
 -1.8964943400000001 -0.5412562000000000 12.7560371799999999
 -12.7114809199999996 16.8611609099999988  5.0734027299999997
 -12.9315876099999993 15.0043373399999993 20.7091093899999983
 -12.8082923399999995 12.9551598899999991 12.8665509300000007
 -12.6129803200000001 10.9076688799999992  4.8625061900000004
 -12.5828133900000001  9.4038799300000004 20.8801206700000002
 -12.9860461100000002  7.6838886100000003 12.8587190899999992
 -12.2103886900000003  5.5121303900000003  5.7595707400000000
 -12.6745252300000004  3.9434083200000001 20.8173944800000008
 -12.9285805699999994  1.8732659000000000 13.3200653700000000
 -12.8198627300000005  0.2638312700000000  5.2480711900000001
 -3.5258268799999999  1.9264031100000001 12.7617165999999997
 -3.6911386600000000  0.1382095500000000  4.9513739499999998
 -3.2004540299999999 -1.7244876099999999 21.0302220200000001
 -15.0575256000000000 15.7647671000000003 13.2447762400000002
 -14.4143823500000003 13.6610742199999997  5.2043250199999997
 -14.1939592000000001 11.9894943099999995 20.3792585600000002
 -14.6392746599999999 10.5805984100000003 13.4530126200000009
 -13.9570458199999994  8.5471433900000005  5.3377312600000000
 -14.3200885899999992  6.9599628700000000 20.4235897400000006
 -14.5908443800000001  4.9050567400000000 12.5078120399999992
 -14.2536616899999995  2.6836344099999998  4.9926250999999997
 -14.4301708000000009  0.9342186099999999 21.0998923900000008
 -5.0503938000000002  2.8895076700000000  4.9217437899999998
 -5.0089615099999998  0.7370595100000000 20.9929228099999996
 -5.1117086000000000 -0.8623146800000000 12.4321835800000002
 -15.8697112400000009 16.3104924999999987  5.1368926200000002
 -15.8588846500000002 14.7380847100000008 20.9230398300000004
 -16.4124854099999986 13.1687976899999999 13.0210421400000005
 -15.8138189800000006 10.7926050100000008  4.8903531600000001
 -15.7990599300000003  8.9947118100000001 20.8156582700000001
 -16.0644476099999984  7.8842421900000002 13.1002760899999995
 -15.6037596799999996  5.4987460500000003  4.8678048100000000
 -16.0112385500000016  3.9018128800000000 20.7766085899999986
 -15.8478146399999993  1.9993090700000000 12.5786116900000007
 -6.1582252000000004  3.9354815799999998 21.0209522000000000
 -6.5968056300000004  1.8899196800000000 12.6915294700000008
 -6.5408327000000002 -0.1183566800000000  5.0378174600000003
 -6.2209684200000002 -2.0582618500000001 21.5670460400000010
 -17.8132725900000004 15.9170122500000009 13.0813749599999998
 -17.6337478499999989 13.7158660999999995  5.2242266400000004
 -17.6700029000000001 11.9515327899999999 21.4921545499999986
 -17.5597029499999984 10.4829024499999992 13.5014155999999996
 -17.3123027200000017  7.9994129400000000  5.1640920799999996
 -17.3677224300000006  6.6207020600000002 21.0680305899999993
 -17.3187478699999993  4.5180301600000004 12.9093757999999994
 -17.2256657900000008  2.8107962000000000  4.6810907100000003
 -7.9866874100000000  4.7269468200000002 12.9844922700000005
 -7.8647714700000000  2.5261064200000001  5.0846498200000001
 -8.0798353899999995  0.7829412600000000 20.4583860900000012
 -8.3074004800000001 -1.0976467599999999 13.0344682499999998
 -7.8350109200000002 -2.7171540300000001  5.5128581700000003
 -18.8402476499999985 14.5175427399999997 21.3357947900000013
 -19.4549073899999989 12.8874580000000005 13.0075386900000005
 -19.2217355099999985 10.6477669099999996  5.4076916199999996
 -19.0190252899999983  9.2421006699999992 20.8617114299999997
 -19.0732564199999999  7.3344052900000003 13.1653036500000002
 -19.1975208500000001  5.1836071099999996  5.3256373500000000
 -19.2447599499999988  3.5157166700000002 20.7843065699999983
 -9.1657648999999992  5.5374274899999998  5.0417435700000004
 -9.2573313200000005  4.0541208700000002 21.0939201499999989
 -9.3560664399999993  1.8931750700000001 13.6427354699999999
 -9.7071917499999998 -0.4476451500000000  5.4299102699999997
 -9.3507648200000002 -1.7817916800000000 21.1225769800000016
 -9.9569738999999995 -3.7117691000000002 13.2973182500000000
 -20.6130637300000004 13.5260721299999993  6.1563652900000001
 -20.6665026300000001 12.3065583899999993 20.6408575300000017
 -20.6197318400000000  9.8032337599999995 13.4574954400000006
 -20.7063045199999998  8.2010371499999994  5.3496282099999997
 -21.1364930899999983  6.4306612200000002 21.0198619499999992
 -20.6762593400000014  4.7857767000000004 12.4266754600000002
 -10.8976562799999996 -3.0580786400000002  5.7533480800000003
 -11.2923305299999992 -4.5978292900000000 21.0309474499999993
 -22.5847089200000006 12.8815868299999998 13.4508869099999995
 -22.7079750000000011 10.6680667099999997  5.5686501000000002
 -22.1136414200000004  9.7448282200000005 20.9501088600000003
 -22.1291394500000003  7.1878929200000004 13.3966878200000004
 -21.9914548799999992  5.6963784999999998  5.3239464200000004
 -12.6553566100000001 -2.1609249899999998 20.6870391200000014
 -12.8588732100000005 -3.5590731299999998 12.8299567799999998
 -12.7553195000000006 -5.7003321299999996  5.7500389199999997
 -23.8896210400000015 12.2371923299999992 21.1246548199999999
 -23.8330702700000003 10.0800503399999997 13.2361786699999993
 -23.8314054099999986  8.2438330700000009  5.6043052099999997
 -24.3201805700000016  6.8898030800000001 21.1341818000000004
 -14.0462299300000009 -0.8642772800000000 12.9818048600000004
 -14.5206564999999994 -2.7182786800000001  5.3185074200000004
 -13.9435727899999993 -4.5441262800000004 21.1818216700000015
 -14.8664348799999999 -6.4161575500000003 13.1749610199999996
 -25.7601550099999983 11.3663738399999996  5.2215322400000002
 -25.2590186500000016  9.8577117899999998 21.4168589000000011
 -25.0239192599999996  6.9988383599999997 13.0335561000000002
 -16.0126338200000014  0.0334201400000000  5.1576946499999998
 -16.0250819200000016 -1.9106654500000000 20.8573023900000010
 -16.2171427000000001 -3.5817178900000002 13.3232498499999998
 -16.1892435100000007 -5.1637260400000002  5.5365688000000004
 -16.4216781300000001 -7.0886798300000002 20.5644683800000010
 -26.8902204199999986  9.6862243699999997 13.0848134700000003
 -26.8030916099999992  8.2148401199999999  5.6941803699999998
 -17.4347319700000014  1.0126374100000000 20.3161506600000017
 -17.8668838000000001 -1.2360940600000001 12.5954811499999995
 -17.8239846700000015 -2.6025486799999999  4.9413593000000002
 -17.5556772099999989 -4.3049949700000001 21.0929050199999999
 -17.5345165200000004 -6.4539640299999999 12.9452980100000001
 -17.5079637199999993 -8.4369605599999993  5.6772733799999999
 -28.6785243500000000  9.7859170599999992 20.8516757099999985
 -28.7411764400000003  7.0976298199999999 12.6833547299999996
 -9.6260515000000009 16.5984409500000005  5.1996837700000000
 -9.7703074900000004 14.9456085900000009 21.0395233300000015
 -9.3181492099999996 12.9786709400000007 12.8346046000000005
 -9.7562191499999997 10.8101072100000000  5.2630286699999997
 -9.2183932700000000  9.4542669299999993 20.3657432199999988
 -9.3243097400000003  7.3694362099999999 12.9740085700000005
 -19.0153115200000009 -9.6522948799999995 13.2508591899999999
 -1.4997385700000001  2.8023495999999999  5.4218841299999996
 -3.0778335499999998  3.6785154200000001 20.7740628899999997
 -4.8642415400000001  4.6717997999999996 12.9098280499999998
 -5.9929671000000004  5.8139777800000001  5.0970247899999999
 -7.9073665999999996  6.8734429600000002 21.1818522099999988
 -27.0640048299999982  6.4481525299999998 21.0632099799999999
 -27.3963044400000015  4.8215697200000003 12.6335370499999993
 -8.0185378400000005 13.6284764700000007  5.9498914300000001
 -8.0106988300000008 12.1318343700000000 20.1285063599999994
 -7.6990131399999999 10.1802430000000008 12.5807197599999991
 -7.9266980499999997  8.3738778499999995  4.8367010199999996
 -19.3711412799999998 -7.3163529399999998 20.6721737599999997
 -20.7015140100000004 -6.9393890200000001 12.8217130400000006
 -2.8283376699999998  5.2948625299999996  5.3447843900000001
 -4.7673630400000002  6.4466262199999997 20.8226869800000003
 -6.4606063599999999  7.6961030499999996 12.6642050099999999
 -25.1933743200000002  5.4170669100000000  5.4923242600000002
 -25.3363048800000001  3.9250151299999998 21.1411043399999983
 -25.2338850699999995  1.5521128799999999 13.3326490500000006