Li                                      
   1.00000000000000     
    21.2169999999999987    0.0000000000000006    0.0000000000000000
     0.0000000000000006   21.2169999999999987    0.0000000000000000
    -0.0000000000000006   -0.0000000000000006   21.2169999999999987
   Li
   500
Direct
  0.9876491502097409  0.0011738478578494  0.9790939840693795
  0.9888205849083249  0.1023823801668442  0.0874641532733165
  0.9683314083046639  0.1869048348022844  0.2115017660366689
  0.9597966394872017  0.2957372352358973  0.3200651114672226
  0.9924508328227333  0.4202444671725516  0.3925889018240056
  0.9972286369420758  0.5207119522081314  0.5013854093415659
  0.0147146250648049  0.6296037945986726  0.5876187938916928
  0.0209109515954182  0.7172907946458054  0.7126661884338006
  0.0108124188150995  0.8217763062638426  0.7913341603431192
  0.9950383437809336  0.9335757100438329  0.9040989527265850
  0.0917356016401953  0.0176505406042295  0.0809326983079615
  0.1015790319083720  0.0838033515577123  0.2054751289060661
  0.0991457501060466  0.2071550794174470  0.3117830126785108
  0.0922488396097449  0.2975722524390818  0.4203760616486747
  0.1174372196823299  0.4250011076023910  0.5028012442852443
  0.0578927591082632  0.5171206975538496  0.6176909266154524
  0.0991079002686490  0.6271975345241998  0.6961492784088250
  0.1023019017768760  0.7135771838620002  0.7962991417259744
  0.0925870481217856  0.8078830348305601  0.8985888075599746
  0.1026688763727179  0.9041292322194465  0.0034235080360077
  0.1908038530423681  0.0010803289814802  0.1898717957298359
  0.1982446392044110  0.1009804793326126  0.2836568148183076
  0.2142065725597391  0.1822070033463703  0.3907975104868768
  0.1992252594617554  0.3103591384267332  0.4914222590375630
  0.1839465970683918  0.4039068770325684  0.5948383956261480
  0.1864587868218877  0.5260187165951820  0.6773809883583937
  0.2235818254230111  0.6016605825517303  0.7748113130979846
  0.1861588000188519  0.6780970867700447  0.9016308017156049
  0.1846867789979711  0.7986085082716698  0.9870355309421726
  0.1985309713908663  0.9122710698967822  0.0887867502474435
  0.3209060701324375  0.0067916255832614  0.3016703417071227
  0.3077834071734955  0.1025480312956617  0.3916345623792239
  0.3065632733185666  0.2177006301550648  0.5040799811471928
  0.3071362888249993  0.3042013130979839  0.5839147603336912
  0.2838460951124091  0.4210060625913172  0.6846508441344170
  0.2865377899797323  0.5037223061695784  0.7773568331997893
  0.2985940066927455  0.5651369359475922  0.8994097511429544
  0.2957231267379896  0.6730897761229215  0.0039017721638288
  0.3194624989395294  0.7895085035584657  0.0902018819814288
  0.2892511179714390  0.9188007559975517  0.1834772621011425
  0.4188402804354965  0.0113316194560937  0.3901855804307885
  0.3976844384220186  0.0980330437856409  0.5045697087241336
  0.3997415586557977  0.2058749498044037  0.5938235141631694
  0.3854924843286014  0.3152433034830580  0.6900010411462532
  0.3871816548051115  0.3999952401376277  0.7658592746382595
  0.4041006494791901  0.4561772597445426  0.8892906051750984
  0.3937769958052471  0.5663849196399084  0.9851372828392329
  0.4203899340151764  0.6765522826035735  0.1086661460149898
  0.3917919201583615  0.8139774944619873  0.1977358358863199
  0.3884293670170180  0.8724757095725124  0.2845079775651627
  0.4768772540887056  0.0085488216995770  0.5048933972757723
  0.4911705391902714  0.1130345986708789  0.5901830583965690
  0.4800381184898868  0.2234493071593562  0.6669676330301186
  0.5154212018664310  0.2987026596597033  0.7987240783334144
  0.5150439760569370  0.3958597054248969  0.8784552627609941
  0.5035966112079961  0.4914646721968268  0.0050077970495366
  0.4933581656219062  0.5688509515954152  0.1244273747466664
  0.4960362110571737  0.6887048404581222  0.2204420832351417
  0.5259788787293189  0.7884435735495146  0.3069027534524196
  0.4684842522505548  0.8811454494037818  0.3952605702974026
  0.5785084012819937  0.0041517566102627  0.5795648640241282
  0.5991904562379204  0.1142064566149799  0.6519107951171250
  0.5873314097186224  0.2049479709666784  0.7630739374086843
  0.6148390271951740  0.2722616133289364  0.8959183211575592
  0.5947304284300330  0.4003455804307876  0.9808815671395550
  0.5892903935523393  0.4898148239619147  0.0903921506339245
  0.6029081717490712  0.5812485940519423  0.1990984517132475
  0.6288871126926523  0.6912709167177269  0.2941694570391675
  0.6067928415892894  0.7943940161191492  0.3969046783239847
  0.5792361252768998  0.8972724569920345  0.4891442597916793
  0.6819409530093807  0.0239876386859592  0.6870708526181843
  0.6954913253523145  0.1291395475326382  0.7746154258377729
  0.7224875071876298  0.1973595371635923  0.8737262553612695
  0.7123545520101828  0.3014184733939800  0.0098243064523729
  0.7142832898147731  0.3990697167365767  0.1009906546637112
  0.7171939911391831  0.4985003911957406  0.1906962859970776
  0.7019089070085300  0.6017720403450042  0.2767338191073208
  0.7070038261771217  0.6906853711646335  0.4254673483527327
  0.6827691978130730  0.7937682443323766  0.5132490224819719
  0.6839090059857682  0.9045278498373932  0.6073785021445062
  0.7993058976292602  0.9988434330961056  0.8052310053259149
  0.8067898416364230  0.0941792020549528  0.8783697110807367
  0.8110564919639884  0.2047609082339648  0.9803855102040799
  0.7991371683084338  0.2735122100202645  0.0958392793514662
  0.8009535645944297  0.3791060055615745  0.1818898675590361
  0.8075189484847058  0.5381340420417615  0.3028162572465476
  0.7958399915162389  0.6114640693783286  0.4216746509874127
  0.7967881085921675  0.7135358915020973  0.5360426521185815
  0.7959482052128024  0.7968373719187412  0.6064378875430094
  0.7937045642645018  0.9077827402554561  0.7274108290521752
  0.8981460870999669  0.0048756209643201  0.8706473502380163
  0.8790368129330233  0.0906605467313923  0.9915784809350967
  0.8839558316444354  0.1810630173917147  0.0714064231512452
  0.8868295470613177  0.2712394117924291  0.2139238860347845
  0.8602738723664984  0.4065800640995434  0.3072840392138403
  0.9105533807795609  0.4846596384974333  0.4070552085591714
  0.9069158627515677  0.6297683027760783  0.4913061271621828
  0.9236206631474744  0.7155708021869245  0.6233897318188255
  0.9009972281660907  0.8153138120375161  0.7233401324409670
  0.8900323999622941  0.8834255182165265  0.8076483847857858
  0.0831837484092972  0.1140458297591564  0.0031350205024268
  0.0894503186124354  0.1870749300089543  0.1018388311259812
  0.0800684083517922  0.2865462223688553  0.2099834359240234
  0.0830396436819498  0.3621332997124966  0.2872131639722895
  0.0934104119338244  0.4987232290144661  0.3929991393693726
  0.0961862082292484  0.6052412277890369  0.5059678540792731
  0.1244937587783355  0.7114952415515887  0.5860893401517657
  0.1319650044775429  0.7995846655983385  0.7128855158599237
  0.1284353603242678  0.9136699203468908  0.8000672988641213
  0.1055291304142898  0.0038655681764652  0.9058963614083027
  0.2074420587264925  0.1023603030588660  0.1102789055945692
  0.2102279973606045  0.2181180256398179  0.2055960913418460
  0.2041418287222498  0.2937799340151770  0.3136849045576682
  0.1867145477682968  0.3813768251873526  0.3829499123344462
  0.1919651953622079  0.5159638035537526  0.4804492213790823
  0.1999144322948609  0.5643621412075248  0.5988314276287880
  0.2033444808408333  0.7153146231795233  0.6855966639958524
  0.2068797539708740  0.7862109350992128  0.7993121280105555
  0.1790694839044136  0.9180863336004137  0.9097243691379546
  0.1997602700664558  0.0294555361266902  0.9805050435971125
  0.3110963006079999  0.1039253584389854  0.1958851322053050
  0.3201591869727096  0.2181977598152400  0.3110820723947754
  0.2840895093557023  0.3082050563227625  0.3872044157986494
  0.2651968544091972  0.4042883277560421  0.5072639671018493
  0.3196249224678311  0.4980204364424736  0.6094892534288547
  0.3116273417542530  0.6136229363246457  0.7037410072111996
  0.2975535028514855  0.6840011061884326  0.8131327817316318
  0.2761056992034696  0.7975836612150644  0.9012992713390204
  0.3051343436866674  0.9151579747372409  0.0075264165527642
  0.3011752740726763  0.0158875020031104  0.0885490498185391
  0.4046014620351599  0.1193002903332214  0.3019268628929623
  0.3970327463826209  0.2141869642267977  0.4317790667860706
  0.3783660828580864  0.3107440943582986  0.4938589319884983
  0.4018125187349781  0.4165328269783686  0.6081515365037475
  0.3993616420794623  0.4989344601027454  0.6840054894659957
  0.3974575745864186  0.5808605415468762  0.8074077791393677
  0.3980138704812148  0.7007960074468613  0.8990488975821265
  0.3915685511618037  0.8026671197624538  0.0182860475090720
  0.4021724442663910  0.9333836291652915  0.1158333048970164
  0.4012342626195959  0.0219328203798810  0.2061160338407859
  0.5260133675825998  0.1236100386482519  0.4111043474572256
  0.4937362633737123  0.2082904543526425  0.4786173488240593
  0.5101925946175214  0.3252948399868032  0.6024717551963050
  0.5243229146439177  0.4052315812791605  0.6995657072159105
  0.4973809256728075  0.4828387213083829  0.7959269500871926
  0.4898966300607981  0.5898643615968311  0.9038295564877217
  0.5266925602111527  0.6891818056275625  0.0008139675731726
  0.4992264702832614  0.7848322760050905  0.1159689480133821
  0.4986443776217158  0.9065591780176305  0.2067620299759625
  0.4911821671301340  0.9864394820191364  0.2970982707263019
  0.5874033803082455  0.1066423679125208  0.4885264773530693
  0.5956688834425208  0.2140771296601756  0.5707315374463846
  0.6089878569071985  0.3020170580195156  0.6962746919922722
  0.6076094207475151  0.3910426078144909  0.7969282207663682
  0.5944107654239517  0.4868735919310012  0.8984002050242736
  0.6152340580666475  0.5953717943158807  0.0259603516048443
  0.5996908408351800  0.6873856878917834  0.1073085568176495
  0.6048599043220051  0.7869140406277992  0.1945412961304598
  0.5963419705896200  0.9007655073761640  0.3047568963566931
  0.5627300556157806  0.9944372423057004  0.3918606556063509
  0.7011101022764734  0.1091303501908811  0.5696119041334811
  0.7094882980628725  0.2093531154263104  0.6846486675778891
  0.7196297855493228  0.2963416906254395  0.8015487283781866
  0.7081281981430010  0.3909495381062342  0.8951352707734372
  0.7184577150398255  0.4717888023754568  0.0002246957628316
  0.6984843135221723  0.6115497695244372  0.1245280944525646
  0.6992108959796397  0.6937691181599632  0.1922344629306707
  0.7093023339774689  0.7996692534288528  0.3078298340953012
  0.7075179002686554  0.8971295131262664  0.4167583894989875
  0.7028470608474322  0.9849179210067405  0.4906768529952430
  0.8131140175331097  0.1122347230993981  0.6828348522411289
  0.7853270151293756  0.2041940307300720  0.7810902380166880
  0.8073727265871682  0.3055341631710391  0.9095193929396217
  0.8285504067493079  0.3953687901211325  0.9895649790262553
  0.8237080760710782  0.4980349474477990  0.0864419281708066
  0.8330273313852103  0.6190263797897941  0.1937932723759275
  0.7919562303812953  0.6768773318565309  0.3270664231512441
  0.8121209186030072  0.7992453047084851  0.4136707423292663
  0.8071742371683115  0.8685489348164239  0.5333236890229500
  0.7784241688268807  0.0000998840552384  0.6092416764858370
  0.9160024362539474  0.1183709365131733  0.7939776561248024
  0.8973415185935778  0.2120712414573234  0.8837815638403157
  0.9056912739784124  0.3121335122778888  0.0043919842579072
  0.8896677334213123  0.3748769797803675  0.0993298015742070
  0.8937078993260101  0.5002957967667427  0.2163702601687305
  0.9147415242494219  0.5958243309610225  0.3169932794457253
  0.8909410034406378  0.7172779879342031  0.4322592854786222
  0.9137918730263479  0.8032764471885727  0.5245227020785208
  0.8871123537729204  0.9194014431823518  0.6317404647216875
  0.9087377263515108  0.0061955304708476  0.7103659032851013
  0.9853111943253055  0.0927122981571387  0.9136557350238022
  0.9821046354338492  0.1980374402601655  0.0033557091011929
  0.9818368789178464  0.2855776419851992  0.1341255516802562
  0.9663151939482475  0.3900109355705297  0.2192392260922844
  0.9966430668803312  0.4938403582033288  0.2942627463826142
  0.0047214483668725  0.6185430414290423  0.3765063797897881
  0.0061381585521048  0.7280352943394419  0.4994351812226014
  0.0110998538907481  0.8019331578451272  0.6199179299618223
  0.0012006358109033  0.8810232374982334  0.7102187528868384
  0.0181305123250226  0.9992094716500901  0.7742409016354799
  0.1898163373709778  0.1893925404157031  0.0186077649997642
  0.1697752538059092  0.2696475496064465  0.1292115482867544
  0.1737214681623200  0.3880432681340409  0.1974406749304833
  0.1747230522694068  0.4807142654475172  0.2930690121129302
  0.2051572842531897  0.6058001432813285  0.3835010340764455
  0.1773721525192045  0.7031625800065981  0.4972179365603040
  0.2063188617617939  0.8057725399443854  0.5823582702549857
  0.2236898769854392  0.8917531974360173  0.7063634830560375
  0.2108180774850368  0.0118762563039070  0.8137215336758246
  0.2210245755761875  0.1302372965075165  0.9064571527548679
  0.2874664585002620  0.1985248677946956  0.0816514893717297
  0.3052456186077208  0.2745135985294809  0.2065683951548252
  0.3072819489088943  0.3737508370646196  0.2994609515954210
  0.2847350615072841  0.4941948121789110  0.3889151336192640
  0.3053922802469700  0.5891297525569144  0.5061289371730240
  0.2846928802375430  0.6922749304802736  0.5804391502097346
  0.2956033793656019  0.8107358476693207  0.6989723697978008
  0.2764853028232110  0.8924661017108946  0.8102217481265015
  0.3021386741763692  0.0056439751142960  0.9168275599754878
  0.3101159150681028  0.1078041334778703  0.0145813149832676
  0.4099855681764595  0.2033157958241034  0.1970684300325232
  0.4081579851062855  0.2861273719187452  0.3305292977329515
  0.3902007904039237  0.3937550567940775  0.3993443917613249
  0.3980338488004875  0.4941500160248822  0.4906991685912274
  0.4170941787246107  0.6195597629259524  0.5812301630767749
  0.4016420478861278  0.7058383876137029  0.6857081354574177
  0.3918488542206688  0.7890744360654196  0.8338094923881769
  0.3906908752415532  0.8988900787104654  0.9211031286232725
  0.4067315973040451  0.0137365211858409  0.9966658787764544
  0.4282583221002056  0.1314546349625303  0.0986626723853519
  0.5080381887165970  0.2149199797332315  0.3194287891784882
  0.5244639567328093  0.3095119738888599  0.4102070933685269
  0.4987170061742958  0.4057343238912168  0.4882919823726226
  0.4843676259603171  0.5029011938539867  0.6198236192675708
  0.5079231342791175  0.6190540755054883  0.6947375415940016
  0.4973261658104349  0.6924267045293888  0.7939366998161859
  0.5187719672903768  0.7983826766272344  0.9189396215299084
  0.5039956176650833  0.8875441264080663  0.0053151171230610
  0.4711676113493866  0.0088859457039163  0.1105784559551282
  0.5198244044869682  0.0995180430786604  0.2318787213083837
  0.6434234349813863  0.2097444464344633  0.3846934533628712
  0.6271885346655992  0.3101580374228234  0.4962153796483975
  0.5988051581279166  0.4334248927746600  0.6019307017957303
  0.5902218480463759  0.5153284451147684  0.7079644624593513
  0.6025713998208957  0.6181230583965700  0.8049410821511032
  0.6164995489465994  0.6898581147193283  0.9227855563934568
  0.5918052542772330  0.8034867992647392  0.0299384611396505
  0.5791808314087774  0.9320385638874455  0.1152842371683107
  0.6079414191450283  0.0132580963378430  0.1880430932742598
  0.6112263340717377  0.1128196969411306  0.2825309421690179
  0.7220951727388396  0.1832958189187934  0.5010254993637204
  0.7040485671866890  0.3188316816703605  0.5914021030305889
  0.6931101022764778  0.4059936781825897  0.7134697120233753
  0.7024615006834125  0.5106398991374874  0.7901151765094028
  0.6984829118159936  0.5866155747749460  0.9001549158693507
  0.6936194886176210  0.6856573629636600  0.0042202262336772
  0.6956682693123426  0.8059629165291966  0.1020217900739979
  0.6853184733939770  0.8904369194513819  0.2131936037140036
  0.7040828774096255  0.9733632210020247  0.3115406966112104
  0.6894222317009948  0.0643147707027367  0.3999177202243516
  0.8112642300985087  0.2207133741810807  0.6011313201677879
  0.8110347301692045  0.3288443106942580  0.6828750299288302
  0.8098656619691766  0.4001221558184440  0.8005746575858979
  0.8134717815902377  0.4893892345760449  0.9094337290851655
  0.8053003209690317  0.5981933534429942  0.9965743003252143
  0.7941053815336758  0.6925062247254559  0.0906778272140230
  0.7841309355705306  0.7750662746853934  0.2090331880096130
  0.7871275477211697  0.8886987674977647  0.3058195795824119
  0.8306825583258686  0.0038295583730061  0.3892088443229511
  0.8022611651034524  0.1167234811707587  0.4955780463779078
  0.9066418810387873  0.2092824296554667  0.7081506669180371
  0.8977758806617331  0.2829560927558106  0.7851345161898493
  0.8985437361549700  0.3866200697553879  0.8700422712918865
  0.9156653014092484  0.4695558420134773  0.9934524320120630
  0.9230534170712161  0.5812923240797474  0.0794917429419826
  0.9198884917754597  0.7059143842202005  0.1937915544139130
  0.9015537743319015  0.8043607479851076  0.3026066790780959
  0.8910956483008903  0.8899996309563107  0.3984148234905973
  0.8840295277371908  0.0013259376914760  0.5100182947636327
  0.8869971725503163  0.0967227760757865  0.5980097860206470
  0.0205791935711943  0.2147638751944214  0.7941112400433639
  0.0050349884526568  0.3000591780176265  0.9150025390017404
  0.0012892755809020  0.3916169906207259  0.9946234585473945
  0.9945484719800177  0.4931741890936507  0.1133928642126563
  0.0126104364424720  0.6201598925390002  0.2100504001508199
  0.0077113630579220  0.7187218438044951  0.3296570547202720
  0.0001766031955484  0.8243886345854747  0.3864667450629184
  0.9750485577602888  0.9114935909883570  0.5131402196351971
  0.0107168657208874  0.9989361389451830  0.6125580360088634
  0.9954841810812098  0.1146458919734172  0.7134897831927205
  0.0830942037045759  0.1935480185700129  0.9227523302069116
  0.0911158368289549  0.2884270707451577  0.0379495729839263
  0.0735798468209481  0.3982183456662085  0.1172891535089775
  0.0849320558985696  0.4941657034453470  0.2064900230946876
  0.0912147066031963  0.6012273606070622  0.3071589385869800
  0.1074943205919752  0.7171670127727765  0.4042488528067096
  0.0917489513126242  0.8246094245180728  0.4628166507988851
  0.0981969948626116  0.8967666470283291  0.5993719145025196
  0.1194715977753660  0.9936666771928202  0.6947003808266956
  0.1020294372437220  0.1219898944242814  0.8249815996606529
  0.2950399330725375  0.3010441183956232  0.0049027176320848
  0.2980670820568392  0.3858223905358926  0.1129654428052973
  0.2744208516755435  0.4868595946646579  0.2232004213602323
  0.2848719022481987  0.5972866178064749  0.2991652467361092
  0.3007960140453392  0.6945862605457904  0.3966803068294311
  0.3013334005750110  0.8048809812885906  0.4720541259367508
  0.3162979785077979  0.9032992991469087  0.5796251496441513
  0.2852967667436488  0.9849438813215841  0.7170993684309721
  0.2904461973888885  0.0851060032049773  0.7872691978130746
  0.3051962916529192  0.1927280115002148  0.8916308742989116
  0.4071099151623727  0.3011153796483939  0.1150332483385981
  0.4037213291228738  0.3903335452703018  0.2053527543950580
  0.3963424282415033  0.4862376349153976  0.3025272408917346
  0.4026928825941454  0.6147763500966192  0.3940836154970100
  0.4109187128246248  0.7046416321817404  0.4940055120893589
  0.3848488273554196  0.8043811245699217  0.5996065848140617
  0.3863155870292658  0.8778488853278006  0.7088589169062516
  0.4080721723146539  0.9859120983173852  0.8014704081632686
  0.4024112004524696  0.0889274463873306  0.8739608516755411
  0.3892303803553787  0.2383800565584195  0.9979726841683529
  0.5129682914643894  0.3028776716783739  0.2099972635151062
  0.4905488014328157  0.3724795814676938  0.2986218089268036
  0.4768253051798084  0.4987904491681192  0.3832822354715546
  0.4978230282320766  0.5948683918555844  0.4966093934109423
  0.5082692741669419  0.6951318739689896  0.5892101800443044
  0.4922308125559667  0.7918635495121862  0.7185314417683912
  0.5062418541735383  0.8787792868925877  0.8083248833482557
  0.4937649653579683  0.9974534905971595  0.9113142880708835
  0.4912342984399274  0.1239397676391576  0.9811442107743815
  0.5228379115803392  0.2015350280435513  0.0961607984163635
  0.6296215025686962  0.3122813074421487  0.2875420026393911
  0.6226873662629018  0.4145619573926567  0.3702888462082257
  0.6058397803648035  0.4942558622802480  0.4917424098600165
  0.5954212697365335  0.5836982155818475  0.5853960220577861
  0.5862382198237270  0.6897133878493662  0.7002973620210184
  0.6103354055710071  0.7985344780129111  0.8027029669604531
  0.6166596634773995  0.9137358740632493  0.9025412122354695
  0.5931601022764781  0.0200236598011045  0.0254699632370290
  0.5902143078663329  0.1042779643681939  0.1024498647311134
  0.5922812094075525  0.2011740250742307  0.1756765164726417
  0.7189280294103781  0.3088052844417177  0.3972185954659011
  0.7068478121317838  0.4083841169816651  0.4778215647829569
  0.7045195352783153  0.5019918899938745  0.6037828604420952
  0.6925198708582769  0.6072168360277104  0.6948802752509806
  0.6757657336098433  0.6913132737898877  0.8138373511806591
  0.6829328019983976  0.7743485341942815  0.9152119955695923
  0.6591774487439324  0.9102743026818132  0.9980335589385874
  0.7397753075364122  0.0047563321864530  0.1088650313427877
  0.7082620262054036  0.1258243073950140  0.2205493368525211
  0.7155725027100885  0.1836047089597983  0.2875815256633842
  0.7822214959702123  0.3105043535843919  0.5092511914973841
  0.8006904788612914  0.4069303115426308  0.6067894108497924
  0.8107576254889963  0.5236413630579264  0.6995848602535730
  0.8030113295941916  0.5947292496582932  0.8106911273978383
  0.8115434415798646  0.6844737691473810  0.8966640542960818
  0.7787518579441013  0.8171344473771001  0.9923728364047690
  0.7934709355705323  0.9040536602724245  0.1106196959984942
  0.8140669119102597  0.9975164896073920  0.2034577150398249
  0.7759750582080400  0.0679650841306483  0.3210361846632424
  0.7810343945892413  0.1855399151623729  0.4011084559551321
  0.8998386605080810  0.3162171635952333  0.6084323886506127
  0.8943750676344422  0.4256480369515003  0.6947838898053433
  0.9161924145732172  0.5017665965970650  0.8185187246076282
  0.9056603393505185  0.6087802059669158  0.9127621105717125
  0.8991154781543074  0.7035605203374686  0.0077988490361491
  0.9008696342555496  0.8039241330065536  0.0997912419286422
  0.8846819932129861  0.8840237158882047  0.2136106848282040
  0.9202747127303610  0.9898534034029325  0.3020022368855138
  0.8906706607908745  0.1178600485459782  0.4112840736202088
  0.9089520851204256  0.2226796144601053  0.5160824207003785
  0.9838895974925776  0.3169573959560736  0.6893274275345220
  0.9931331257953531  0.3745236192675705  0.7851566555120897
  0.0063698303247364  0.5129574666541004  0.8910265621906959
  0.0151338681246145  0.5889473587217822  0.9836513159259113
  0.0164970523636683  0.6974646693689053  0.1179674525144918
  0.9997824254135850  0.8210279243059802  0.2079866672950956
  0.9934893882264220  0.8953745897157930  0.2924852062025707
  0.9905458457840410  0.9792023806381707  0.4276619479662500
  0.9895989720507146  0.1092359056417038  0.5037561681670368
  0.9971233138521001  0.2035493062167149  0.5930908394212153
  0.1023154050996808  0.2917411217419996  0.7898630678229708
  0.0976330084366310  0.3900715883489667  0.9091752184568946
  0.0757801866427883  0.5089701395107724  0.9894309313286485
  0.0837692713390226  0.5801835311307002  0.1083026224254127
  0.1115709110618823  0.7198069736531991  0.2042452029033299
  0.1213923132393830  0.8179622156761113  0.2961351421030329
  0.1172572851958336  0.9089012626667312  0.4131445411698138
  0.0898273408116168  0.0004273521232960  0.5291997011830105
  0.1043063934580744  0.0810532855728923  0.5985628175519651
  0.0958624654757969  0.1924279309044650  0.6781016317104189
  0.2000822712918904  0.2875713691850876  0.9141147933261067
  0.1626359164820670  0.3796754343215341  0.0217890601875865
  0.1812928590281402  0.4818760790875274  0.0917169510298379
  0.1718912560682497  0.5669981448838186  0.1758911231559566
  0.2000227251732127  0.7129967973794606  0.2990312636093719
  0.2078796780883252  0.7988918357920554  0.3647774426167700
  0.2322037088184032  0.9039525064806497  0.4882665395673271
  0.2261178451241932  0.9634252057312551  0.6000839812414540
  0.2034917594381866  0.0903696121035011  0.6920880199839772
  0.2093952825564429  0.2125751161804246  0.7681228048263193
  0.3991318885799089  0.3755836004147639  0.0042070170146573
  0.4117782763821438  0.4698363222887281  0.1015197011830153
  0.3865340410991180  0.5667297544421928  0.2009602177499161
  0.4136130649950545  0.6952652830277586  0.2843225055380145
  0.4140403600886060  0.7710589593250674  0.3919268204741471
  0.3910898307960622  0.8932383833718234  0.4883742555497932
  0.4026278281566675  0.9899784611396498  0.6021062949521578
  0.4116870071169316  0.0937473412829348  0.7044375788282977
  0.3971824786727609  0.2063820285620039  0.7981301479945344
  0.3887331253240305  0.3035062002168090  0.8697463873309133
  0.4895211665174131  0.3805636998633162  0.1054795772258075
  0.5022120700381763  0.4896114926709743  0.2060838101522364
  0.5291572154404491  0.5997578474807952  0.2863543578262693
  0.5203434538341867  0.6860018701984245  0.4021091224018463
  0.4886563647075448  0.7952767097139102  0.4978658806617346
  0.4812743573549483  0.8896639807701376  0.6020780713578731
  0.4970208446057427  0.9940420964321035  0.7018890116416117
  0.5137170118301384  0.1162522939152595  0.7874946985907556
  0.5071864198520046  0.2217950893151723  0.8958198821699597
  0.4966192402318867  0.3085404849884554  0.9936204369137940
  0.6174152080878557  0.3839847414808872  0.2093356713955785
  0.6014473214874840  0.4809834792854772  0.2851963463260603
  0.6136621793844554  0.5795426860536352  0.3968048706226170
  0.5914210505726558  0.6817800721119838  0.5171747198001597
  0.5825779869915664  0.8030567082999482  0.6249419517368153
  0.5784078234434631  0.9341657614177308  0.7072545784041111
  0.5823478093038617  0.0286792953763495  0.8009701842861858
  0.6150758028939052  0.1121118504029752  0.8898695503605580
  0.6022642810010836  0.2003624404958302  0.0106866814346986
  0.6003465711457778  0.3031255563934607  0.0748254979497602
  0.7333525899043210  0.4044791737757478  0.2634251887637262
  0.7143285648300903  0.5043020940755056  0.3787279822783631
  0.6973292892491898  0.5959794207475113  0.5160045661497890
  0.6901236235094501  0.7054927685346684  0.5928744572748244
  0.6841895216100298  0.8028269793090459  0.7130181712777457
  0.6750514610925222  0.9199781816467905  0.8013380821982352
  0.7072490644294689  0.0236103336946769  0.8972539133713511
  0.6976958373002802  0.1247702804354986  0.9900407258330617
  0.7165967827685336  0.1833332257152307  0.1049484837630175
  0.6994650501955988  0.2744138205212820  0.1801686760616477
  0.7964502507423319  0.4161209525380585  0.4064721619456080
  0.8209019041334784  0.5115043686666354  0.5055962011594488
  0.8067571376726193  0.6118600108403669  0.6046135980581582
  0.7643166823773413  0.7249625493707867  0.7108048418720827
  0.7935165131734010  0.8160421680727694  0.8199957557618873
  0.7564145289154922  0.9252147532638944  0.9106391624640651
  0.7925248084083520  0.0327035004948897  0.0060877136258668
  0.8064857845124180  0.0876937705613443  0.0843698652024329
  0.8193736824244695  0.1777770570768737  0.2057767841824969
  0.7774749601734428  0.2997532473959552  0.3000564009991962
  0.9025211146721972  0.4028731107131094  0.4999742517792356
  0.9163942197294617  0.5193005585144022  0.5867745373992577
  0.9041068756186093  0.6230189475420644  0.7210839374086788
  0.9164139661592117  0.7364370938398466  0.8161320398736862
  0.9194508733562685  0.8222973035773222  0.9273628510156939
  0.8914473229014490  0.9182220907762613  0.0110989758212767
  0.8859475769430176  0.9807017321016147  0.1122256105952744
  0.8947828510156981  0.0853894702361302  0.2119685784983716
  0.8884178243861030  0.1923855563934609  0.3213000598576627
  0.8692092293915223  0.2849953508978658  0.3924350304001507
  0.0028119899137451  0.4095936249234100  0.5739601753311021
  0.9895552010180495  0.5140246128104806  0.7068338407880503
  0.0199774972899078  0.6175749620587254  0.8059412871753793
  0.0200885374935211  0.7019020596691306  0.8931746443889352
  0.9860217014658090  0.8085440373285593  0.0199627105622824
  0.0028247711740619  0.9159205778385271  0.1159874181081193
  0.9851135994721218  0.9983900018852836  0.1988708808973954
  0.9893227609935451  0.0769042758165597  0.3141337234293289
  0.9883848107649555  0.1957511424800842  0.4282078837724441
  0.0022057468068084  0.3052707347881380  0.4847092496582945
  0.0874918419192170  0.3975784017533144  0.6869911193853966
  0.1080672559739853  0.5003794824904588  0.7894473455248132
  0.1564884135363158  0.5887607244190960  0.8916827939859573
  0.1058038422020076  0.6820236791252299  0.0048452217561419
  0.1132970438799106  0.8074287514728766  0.0836601267851265
  0.0934175321675994  0.9040944643446309  0.1888807107508157
  0.0772323792242062  0.9991488787293221  0.3175959975491338
  0.1007849347221565  0.0812179431587907  0.4032552222274575
  0.1056693943535834  0.1850365494650532  0.5091183225715241
  0.0925394334731564  0.2834537799877452  0.5789162713861558
  0.1931725427723023  0.3733873954847553  0.7869849366074391
  0.2192666050808327  0.4622345520101803  0.8945755215157689
  0.2175496149314213  0.5939497209784577  0.0316073426968941
  0.2102361248055828  0.6886258434274382  0.0780177829099316
  0.2177511028891956  0.8135639364660392  0.1914644063722477
  0.2180923174812648  0.9116502851487027  0.2917660366687116
  0.2110021317811217  0.9985781156619709  0.4087167285667164