Li 
 1.0000000000000000
    21.2169999999999987    0.0000000000000006    0.0000000000000000
     0.0000000000000006   21.2169999999999987    0.0000000000000000
    -0.0000000000000006   -0.0000000000000006   21.2169999999999987
 Li 
 500
Cartesian
 -0.2620479800000000  0.0249055300000000 -0.4435629400000000
 -0.2371936500000000  2.1722469599999998  1.8557269400000000
 -0.6719125100000000  3.9655598799999998  4.4874329700000004
 -0.8529947000000000  6.2746569200000000  6.7908214700000000
 -0.1601706800000000  8.9163268599999999  8.3295587300000005
 -0.0588000100000000 11.0479454900000000 10.6378942300000006
  0.3122002000000000 13.3583037099999995 12.4675079499999999
  0.4436676600000000 15.2187587900000008 15.1206385200000000
  0.2294070900000000 17.4356278899999992 16.7897368799999995
 -0.1052714600000000 19.8076758400000017 19.1822674800000001
  1.9463542599999999  0.3744915200000000  1.7171490599999999
  2.1552023199999999  1.7780557100000001  4.3595658100000003
  2.1035753800000001  4.3952093200000002  6.6151001799999998
  1.9572436300000000  6.3135904800000002  8.9191189000000008
  2.4916654899999999  9.0172485000000009 10.6679340000000007
  1.2283106699999999 10.9717498399999993 13.1055483899999992
  2.1027723200000001 13.3072500900000001 14.7701992400000002
  2.1705394500000001 15.1399671100000006 16.8950788900000006
  1.9644193999999999 17.1408543500000015 19.0653587299999998
  2.1783255499999998 19.1829099200000002 21.2896365699999990
  4.0482853499999996  0.0229213400000000  4.0285098899999996
  4.2061565099999996  2.1425028300000002  6.0183466399999999
  4.5448208499999998  3.8658859900000002  8.2915507799999997
  4.2269623300000001  6.5848898399999998 10.4265060700000003
  3.9027949500000001  8.5696922099999995 12.6206862399999995
  3.9560960800000000 11.1605391100000002 14.3719924300000006
  4.7437355900000000 12.7654325800000006 16.4391716300000006
  3.9497312600000001 14.3871858899999996 19.1299007199999984
  3.9184993900000000 16.9440767200000018 -0.2750671400000000
  4.2122316199999998 19.3556552900000014  1.8837884800000000
  6.8086640899999997  0.1440979200000000  6.4005396399999999
  6.5302405500000003  2.1757615800000001  8.3093105099999995
  6.5043529700000002  4.6189542699999997 10.6950649599999998
  6.5165106399999999  6.4542392599999996 12.3889194699999994
  6.0223626000000001  8.9324856300000004 14.5262369600000003
  6.0794722900000000 10.6874761700000001 16.4931799300000002
  6.3352690400000000 11.9905103700000009 19.0827766899999993
  6.2743575800000002 14.2809457799999997  0.0827839000000000
  6.7780358400000003 16.7510019200000002  1.9138133300000000
  6.1370409700000002 19.4941956400000009  3.8928370700000001
  8.8865342300000005  0.2404229700000000  8.2785674599999997
  8.4376707300000007  2.0799670899999998 10.7054555100000002
  8.4813166500000001  4.3680488100000003 12.5991534999999999
  8.1789940399999992  6.6885171699999999 14.6397520900000000
  8.2148331700000004  8.4866990100000006 16.2492362300000011
  8.5738034800000005  9.6787129200000006 18.8680787700000003
  8.3547665200000001 12.0169888399999998 -0.3153422700000000
  8.9194132300000000 14.3544097799999992  2.3055696200000000
  8.3126491700000003 17.2701604999999994  4.1953612299999996
  8.2413058800000005 18.5113171299999983  6.0364057600000001
 10.1179047000000004  0.1813803500000000 10.7123232099999992
 10.4211653299999991  2.3982550800000002 12.5219139500000001
 10.1849687600000003  4.7409239500000000 14.1510522699999992
 10.9356916399999999  6.3375743299999998 16.9465287700000005
 10.9276880399999996  8.3989553699999995 18.6381853100000008
 10.6848092999999995 10.4274059500000007  0.1062504300000000
 10.4675802000000004 12.0693106399999994  2.6399756100000000
 10.5244002900000009 14.6122505999999994  4.6771196799999997
 11.1596938699999999 16.7284073000000006  6.5115557199999996
  9.9398303800000001 18.6952630000000006  8.3862435200000007
 12.2742127500000002  0.0880878200000000 12.2966277200000000
 12.7130239100000004  2.4231183900000000 13.8315913399999992
 12.4614105199999994  4.3483811000000001 16.1901397299999985
 13.0450396400000006  5.7765746499999997 19.0086990200000017
 12.6183955000000001  8.4941321799999994 -0.4056357900000000
 12.5029742800000001 10.3924011200000006  1.9178502600000000
 12.7919026799999997 12.3323514200000002  4.2242718500000001
 13.3430978699999994 14.6666950400000005  6.2413933699999999
 12.8743237199999996 16.8546578400000016  8.4211265599999994
 12.2896528699999994 19.0374297199999987 10.3781737599999992
 14.4687412000000002  0.5089457300000000 14.5775822799999997
 14.7562394500000007  2.7399537800000000 16.4350154900000014
 15.3290174399999994  4.1873772999999996 18.5378499599999991
 15.1140265300000003  6.3951957500000001  0.2084423100000000
 15.1549485599999993  8.4670621799999992  2.1427187200000000
 15.2167049100000007 10.5766828000000004  4.0460031000000001
 14.8924012799999996 12.7677973799999993  5.8714614400000000
 15.0005001799999995 14.6542715200000000  9.0271407299999993
 14.4863140700000006 16.8413808399999994 10.8896045099999998
 14.5104973800000003 19.1913673899999999 12.8867496799999994
 16.9588732299999982 -0.0245388800000000 17.0845862400000001
 17.1176600699999995  1.9982001300000001 18.6363701599999985
 17.2081855899999994  4.3444121899999999 -0.4161606300000000
 16.9552933000000010  5.8031085600000001  2.0334219899999999
 16.9938317800000007  8.0434921199999998  3.8591573200000000
 17.1331295300000015 11.4175899699999999  6.4248525299999999
 16.8853371000000010 12.9734331600000008  8.9466710700000007
 16.9054533000000013 15.1390910099999996 11.3732169499999998
 16.8876330699999997 16.9064985199999995 12.8667926599999998
 16.8400297399999985 19.2604264000000001 15.4334755599999998
 19.0559655300000017  0.1034460500000000 18.4725248300000011
 18.6505240599999986  1.9235448200000000 21.0383206300000012
 18.7548908800000014  3.8416140400000001  1.5150300800000001
 18.8158625000000015  5.7548865999999999  4.5388230900000002
 18.2524307499999985  8.6264092199999993  6.5196454599999996
 19.3192110799999988 10.2830235499999993  8.6364903599999998
 19.2420338599999994 13.3617940799999992 10.4240420999999994
 19.5964596100000001 15.1822657099999994 13.2264599399999998
 19.1164581899999995 17.2985131500000016 15.3471075900000002
 18.8838174300000006 18.7436392199999986 17.1358757799999992
  1.7649095900000000  2.4197103700000002  0.0665157300000000
  1.8978674099999999  3.9691687899999999  2.1607144800000002
  1.6988114200000000  6.0796511999999998  4.4552185599999996
  1.7618521199999999  7.6833822200000004  6.0938017000000002
  1.9818887100000000 10.5814107499999999  8.3382627399999993
  2.0407827799999998 12.8414031299999998 10.7351199600000005
  2.6413840799999999 15.0957945400000000 12.4350575299999999
  2.7999014999999998 16.9647878500000004 15.1252919899999991
  2.7250130399999999 19.3853347000000014 16.9750278799999990
  2.2390115599999998 21.2990157599999996 19.2204030999999986
  4.4012981599999996  2.1717785500000000  2.3397875400000001
  4.4604074200000001  4.6278101500000002  4.3621322700000000
  4.3312771799999998  6.2331288599999999  6.6554526200000002
  3.9615225600000001  8.0916721000000003  8.1250482900000005
  4.0729255499999999 10.9472040199999991 10.1936911299999995
  4.2415845100000000 11.9740715499999997 12.7054063999999993
  4.3143598499999998 15.1768303600000003 14.5463044200000002
  4.3893677400000000 16.6810374099999983 16.9590054200000004
  3.7993172400000002 19.4790377399999990 19.3016219400000004
  4.2383136500000003 21.8419581100000002 20.8033755099999986
  6.6005302099999996  2.2049843299999998  4.1560948499999997
  6.7928174700000001  4.6295018700000004  6.6002283300000002
  6.0275271200000002  6.5391866800000003  8.2153160900000000
  5.6266816600000000  8.5777854500000004 10.7626195899999999
  6.7814819799999997 10.5664996000000002 12.9315334899999996
  6.6117973100000000 13.0192378400000006 14.9312729500000003
  6.3131926700000003 14.5124514700000002 17.2522382299999997
  5.8581346200000004 16.9223325399999993 19.1228666400000016
  6.4740353700000002 19.4169067499999990  0.1596879800000000
  6.3900357899999998 21.5540851300000007  1.8787451900000001
  8.5844292200000005  2.5311942599999999  6.4059822500000001
  8.4238437800000003  4.5444048199999996  9.1610564599999993
  8.0277931799999998  6.5930574499999999 10.4782049599999993
  8.5252562100000002  8.8375769900000005 12.9031511499999993
  8.4732559599999995 10.5858924400000003 14.5125444699999999
  8.4328573599999999 12.3241181100000006 17.1307708500000011
  8.4446602899999998 14.8687888899999994 19.0751204600000008
  8.3079099500000009 17.0301882800000008  0.3879750700000000
  8.5328927500000002 19.8036004599999984  2.4576352300000002
  8.5129873499999995 21.6823486500000016  4.3731638899999998
 11.1604256199999998  2.6226341899999999  8.7224009400000000
 10.4756023000000003  4.4192985699999996 10.1548242900000005
 10.8247562800000008  6.9017806200000003 12.7826432299999997
 11.1245592799999997  8.5977984599999999 14.8426856100000002
 10.5529311000000003 10.2443891499999999 16.8871821000000004
 10.3941368000000001 12.5151521599999995 19.1765517000000010
 11.1748360499999997 14.6223703700000005  0.0172699500000000
 10.5920880200000003 16.6517863999999989  2.4605131700000000
 10.5797377600000004 19.2344660800000007  4.3868699900000001
 10.4214120399999999 20.9292864899999991  6.3035340099999999
 12.4629375200000005  2.2626311200000000 10.3650662699999998
 12.6383066999999993  4.5420744600000003 12.1092110300000009
 12.9208953599999994  6.4078959199999996 14.7728601400000006
 12.8916490800000005  8.2967510099999995 16.9084260600000000
 12.6116132099999998 10.3299970000000005 19.0613571499999992
 13.0534210099999992 12.6320033600000006  0.5508007800000000
 12.7236405700000006 14.5842621399999999  2.2767656500000002
 12.8333125900000002 16.6959552000000002  4.1275826799999997
 12.6525875899999996 19.1115417699999988  6.4660270700000000
 11.9394435899999998 21.0989749700000004  8.3141075299999994
 14.8754530400000000  2.3154186399999999 12.0854557699999994
 15.0532132200000000  4.4418450500000004 14.5261907800000003
 15.2683851599999993  6.2874816500000001 17.0064593700000017
 15.0243559799999993  8.2947763499999994 18.9920850399999992
 15.2435173400000004 10.0099430199999997  0.0047673700000000
 14.8197416799999999 12.9752514600000008  2.6421125800000000
 14.8351575800000006 14.7196993799999998  4.0786385999999997
 15.0492676200000002 16.9665825499999983  6.5312255900000000
 15.0114072899999993 19.0343968799999992  8.8423627499999995
 14.9123060899999995 20.8970035299999992 10.4106907900000003
 17.2518401099999998  2.3812841200000001 14.4877070600000000
 16.6622832800000005  4.3323847500000001 16.5723915800000015
 17.1300271399999993  6.4825183400000004 19.2972729600000008
 17.5793539800000005  8.3885396199999995 -0.2213998400000000
 17.4766142500000008 10.5668074799999996  1.8340383899999999
 17.6743408899999999 13.1338826999999991  4.1117118599999998
 16.8029353400000012 14.3613063499999996  6.9393682999999999
 17.2307695299999999 16.9575876299999990  8.7768521400000008
 17.1258157900000008 18.4280027500000010 11.3155287100000006
 16.5158255899999986 21.2191192400000013 12.9262806500000007
 19.4348236900000018  2.5114761600000000 16.8458239300000017
 19.0388950000000001  4.4995155300000000 18.7511934400000015
 19.2160517599999991  6.6225367300000002  0.0931847300000000
 18.8760803000000017  7.9537648799999996  2.1074804000000000
 18.9618004999999989 10.6147759199999996  4.5907278099999997
 19.4080709200000001 12.6416048300000003  6.7256464100000004
 18.9030952700000014 15.2184870700000001  9.1712452599999992
 19.3879221699999995 17.0431163800000007 11.1287981699999996
 18.8218628099999989 19.5069404199999994 13.4036374400000007
 19.2806883400000011 21.3484505700000007 15.0718333700000002
 20.9053476099999997  1.9670768300000001 19.3850337300000000
 20.8373140499999998  4.2017603699999997 21.2881980800000008
 20.8316330600000015  6.0591008300000002  2.8457418300000001
 20.5023094700000001  8.2748620200000005  4.6515986600000003
 21.1457759500000009 10.4778108799999998  6.2433726900000002
 21.3171749699999999 13.1236277099999992  7.9883358600000003
 21.3472333100000000 15.4467248399999999 10.5965162399999997
 21.4525055999999985 17.0146158099999987 13.1527987199999998
 21.2424738899999994 18.6926700299999986 15.0687112800000005
 21.6016750799999997 21.2002273599999995 16.4270692099999991
  4.0273332300000000  4.0183415299999998  0.3948009500000000
  3.6021215600000001  5.7211120600000003  2.7414814199999999
  3.6858483899999999  8.2331140200000004  4.1890988000000000
  3.7070989999999999 10.1993145700000003  6.2180452300000004
  4.3528221000000000 12.8532616399999995  8.1367414399999998
  3.7633049600000001 14.9190004599999995 10.5494729599999992
  4.3774672900000002 17.0960759799999984 12.3558954199999995
  4.7460281200000001 18.9203275899999994 14.9869140200000004
  4.4729271500000003  0.2519785300000000 17.2647297799999997
  4.6894784200000004  2.7632447199999999 19.2323014100000016
  6.0991758500000000  4.2121021199999999  1.7323996500000001
  6.4763962900000003  5.8243550199999996  4.3827616400000000
  6.5196011100000000  7.9298715099999999  6.3536630100000000
  6.0412238000000000 10.4853313299999993  8.2516123900000000
  6.4795080100000000 12.4995659600000000 10.7385376600000004
  6.0403288399999999 14.6879971999999999 12.3151774500000002
  6.2718169000000001 17.2013824799999995 14.8300967700000008
  5.8661886699999997 18.9354532800000008 17.1904748299999994
  6.4104762500000003  0.1197482200000000 19.4523303399999996
  6.5797293699999999  2.2872802999999999 21.5263717600000000
  8.6986638000000003  4.3137512400000002  4.1812008799999996
  8.6598879699999998  6.0707644500000004  7.0128401100000000
  8.2788901700000004  8.3543010399999993  8.4728899599999998
  8.4450841699999994 10.4843808900000006 10.4111642599999996
  8.8494871899999996 13.1451994899999995 12.3319603699999991
  8.5216393299999993 14.9757730700000007 14.5486695099999999
  8.3138571399999996 16.7417923100000010 17.6909360000000007
  8.2892883000000008 19.0717508000000002 19.5430450799999988
  8.6296242999999997  0.2914477700000000 -0.0707400500000000
  9.0863568200000007  2.7890729900000002  2.0933259199999998
 10.7790462500000004  4.5599572100000003  6.7773206200000002
 11.1275517700000002  6.5669155500000000  8.7033638999999994
 10.5812787200000002  8.6084651500000007 10.3600909899999998
 10.2768279200000006 10.6700546299999992 13.1507977300000007
 10.7766051399999991 13.1344703200000001 14.7402464200000001
 10.5517692600000004 14.6912173900000003 16.8449549599999990
 11.0067848300000009 16.9392852500000011 19.4971419499999996
 10.6932750199999997 18.8310237299999983  0.1127708400000000
  9.9967632099999992  0.1885331100000000  2.3461430999999999
 11.0291143900000002  2.1114743200000001  4.9197708300000000
 13.6515150199999997  4.4501479200000000  8.1620410000000003
 13.3070591399999998  6.5806230799999996 10.5282017099999994
 12.7048490399999991  9.1959759499999993 12.7711637000000007
 12.5227369500000005 10.9337236200000003 15.0208820000000003
 12.7847573899999993 13.1147169300000002 17.0784349400000011
 13.0802709299999993 14.6367196199999992 19.5787411499999990
 12.5563320800000007 17.0475794200000017  0.6352043300000000
 12.2884796999999999 19.7750622100000015  2.4459856599999998
 12.8986930900000001  0.2812970300000000  3.9897103100000000
 12.9683891300000003  2.3936955100000001  5.9944590000000000
 15.3206932800000004  3.8889873900000000 10.6302580199999994
 14.9377984500000007  6.7646517900000003 12.5477784200000002
 14.7057170399999997  8.6139678699999997 15.1376868800000004
 14.9041256600000001 10.8342467399999993 16.7638737000000013
 14.8197119399999995 12.4462226499999993 19.0985868500000002
 14.7165246900000000 14.5475922700000009  0.0895405400000000
 14.7599936700000001 17.1001152000000012  2.1645963199999998
 14.5404020500000009 18.8924001200000014  4.5233286899999996
 14.9385264099999997 -0.5651525400000000  6.6099589600000002
 14.6274714899999996  1.3645664900000001  8.4850542699999991
 17.2125931700000017  4.6828756599999997 12.7542032200000008
 17.2077238699999988  6.9770897400000003 14.4885595100000000
 17.1829197499999999  8.4893917800000001 16.9857925099999996
 17.2594307899999997 10.3833713900000006 19.2954554300000005
 17.0860569099999999 12.6918683800000007 -0.0726830700000000
 16.8485338800000015 14.6929045699999996  1.9239114600000000
 16.6369060600000012 16.4445811500000012  4.4350571499999996
 16.7004851800000012 18.8555217500000012  6.4885740199999997
 17.6245918400000008  0.0812517400000000  8.2578440499999992
 17.0215751399999995  2.4765220999999999 10.5146794099999994
 19.2362207900000008  4.4403453099999997 15.0248326999999993
 19.0481108600000013  6.0034794199999997 16.6581990299999987
 19.0644024499999993  8.2029180200000003 18.4596868699999987
 19.4276707000000002  9.9625663000000007 -0.1389197500000000
 19.5844243499999990 12.3332792399999995  1.6865763100000000
 19.5172741300000006 14.9773854899999996  4.1116754100000001
 19.1282664300000000 17.0661219899999992  6.4204059100000004
 18.9063763700000003 18.8831221700000000  8.4531673099999995
 18.7564544899999994  0.0281324200000000 10.8210581599999998
 18.8194190100000007  2.0521671399999999 12.6879736300000001
  0.4366287500000000  4.5566451399999996 16.8486581800000010
  0.1068273500000000  6.3663555799999996 19.4136088700000009
  0.0273545600000000  8.3089376900000005 -0.1140740800000000
 -0.1156650700000000 10.4636767699999993  2.4058563999999998
  0.2675556300000000 13.1579324399999997  4.4566393399999997
  0.1636119900000000 15.2491213600000002  6.9943337300000001
  0.0037469900000000 17.4910536599999986  8.1996649300000009
 -0.5293947500000000 19.3391595199999990 10.8872960400000007
  0.2273797400000000 -0.0225719400000000 12.9966438499999999
 -0.0958121300000000  2.4324418900000002 15.1381127299999996
  1.7630097199999999  4.1065083099999997 19.5780361899999988
  1.9332047100000000  6.1195571600000003 22.0221760899999985
  1.5611436100000000  8.4489986399999992  2.4885239700000001
  1.8020034300000001 10.4847137299999993  4.3810988200000001
  1.9353024299999999 12.7562409100000007  6.5169911999999997
  2.2807070000000000 15.2161325099999996  8.5769479099999995
  1.9466375000000000 17.4957381599999984  9.8195808800000002
  2.0834456399999999 19.0266979499999991 12.7168739100000003
  2.5348288900000000 -0.1343741100000000 14.7394579799999992
  2.1647585700000000  2.5882595899999998 17.5036346000000016
  6.2598622600000002  6.3872530599999999  0.1040209600000000
  6.3240892799999999  8.1859936599999994  2.3967877999999998
  5.8223872099999996 10.3297000200000006  4.7356433400000002
  6.0441271499999996 12.6726301699999997  6.3473890400000004
  6.3819890299999997 14.7370366900000000  8.4163660700000005
  6.3933907600000000 17.0771597799999988 10.0155723900000009
  6.7108942100000002 19.1653012300000007 12.2979067999999998
  6.0531414999999997 -0.3194456700000000 15.2146972999999992
  6.1623969699999996  1.8056940699999999 16.7034905699999996
  6.4753497199999996  4.0891102200000002 18.9177322600000011
  8.6376510700000004  6.3887650100000002  2.4406604299999999
  8.5657554400000002  8.2817068299999992  4.3569693899999997
  8.4091973000000007 10.3165039000000007  6.4187204700000002
  8.5439348899999992 13.0437098200000001  8.3612720700000001
  8.7184623299999995 14.9503815099999997 10.4813149499999998
  8.1653375700000002 17.0665543200000016 12.7218529100000008
  8.1964578100000001 18.6253197999999998 15.0398596399999995
  8.6580672799999991 -0.2989030100000000 17.0047976500000004
  8.5379584400000006  1.8867736300000000 18.5428273899999994
  8.2583009799999996  5.0577096600000004 21.1739864400000002
 10.8836482399999994  6.4261555599999998  4.4555119400000001
 10.4079739199999999  7.9028992799999997  6.3358589199999997
 10.1168025000000004 10.5828369599999998  8.1320991899999999
 10.5623111900000008 12.6213226699999996 10.5365614999999995
 10.7839491899999995 14.7486129699999999 12.5012723900000005
 10.4436611500000005 16.8009689299999998 15.2450816000000007
 10.7409334199999993 18.6450601300000010 17.1502290500000001
 10.4762112700000003 -0.0540292900000000 19.3353552499999992
 10.4225181100000004  2.6296300499999998 -0.4000632800000000
 11.0930519699999994  4.2759686900000000  2.0402436599999998
 13.3586794199999996  6.6256725000000003  6.1007786700000004
 13.2115578500000002  8.7957610499999994  7.8564184499999996
 12.8541026200000008 10.4866266299999999 10.4332987100000008
 12.6330530799999998 12.3843250400000002 12.4203474000000007
 12.4382163099999996 14.6336489499999995 14.8582091300000005
 12.9494863000000002 16.9425060199999997 17.0309488500000015
 13.0836680800000007 19.3867340400000003 19.1492168999999990
 12.5850778900000009  0.4248419900000000  0.5403962100000000
 12.5225769699999994  2.2124655700000000  2.1736787799999999
 12.5664304199999997  4.2683092900000004  3.7273286500000000
 15.2534960000000002  6.5519217200000002  8.4277869400000007
 14.9971900300000005  8.6646858099999999 10.1379401399999995
 14.9477909800000006 10.6507619299999998 12.8104609499999995
 14.6931940999999995 12.8833196099999991 14.7432748000000000
 14.3377215699999994 14.6675937300000001 17.2671870799999994
 14.4897852599999997 16.4293528500000008 19.4180529100000001
 13.9857679299999997 19.3132898799999992 -0.0417219800000000
 15.6958126999999994  0.1009151000000000  2.3097893699999998
 15.0271954099999991  2.6696143299999999  4.6793952799999996
 15.1823017900000004  3.8955411099999999  6.1016172299999996
 16.5963934799999997  6.5879708700000004 10.8047825300000007
 16.9882498899999987  8.6338404200000003 12.8742509300000005
 17.2018445399999997 11.1100987999999994 14.8430919800000005
 17.0374913799999987 12.6183704900000002 17.2004336500000008
 17.2185172000000009 14.5224799600000001 19.0245212399999986
 16.5227781699999987 17.3371415700000000 -0.1618255300000000
 16.8350728399999987 19.1813065099999989  2.3470180900000002
 17.2720576699999988 -0.0526926400000000  4.3167623400000004
 16.4638628099999984  1.4420151900000000  6.8114247299999997
 16.5712067500000018  3.9366003799999998  8.5103181100000000
 19.0918768599999993  6.7091795599999999 12.9091099899999993
 18.9759558099999985  9.0309743999999998 14.7412297900000002
 19.4388544600000017 10.6459818800000008 17.3665117799999997
 19.2153954200000001 12.9164896299999992 19.3660737000000012
 19.0765330999999989 14.9274435600000004  0.1654681800000000
 19.1137510299999995 17.0568583300000007  2.1172707800000001
 18.7702978499999986 18.7563311800000001  4.5321778999999998
 19.5254685799999983 -0.2152803400000000  6.4075814600000003
 18.8973594100000000  2.5006366500000001  8.7262141900000003
 19.2852363900000014  4.7245933800000000 10.9497207200000002
 -0.3418144100000000  6.7248850700000000 14.6254600299999993
 -0.1456944700000000  7.9462676300000004 16.6586687600000012
  0.1351486900000000 10.8834185699999999 18.9049105699999984
  0.3210952800000000 12.4956961100000008 -0.3468700300000000
  0.3500179600000000 14.7981078900000007  2.5029154400000002
 -0.0046162800000000 17.4197494699999993  4.4128531200000003
 -0.1381356500000000 18.9971626700000016  6.2056586200000003
 -0.2005887900000000 -0.4412630900000000  9.0737035499999994
 -0.2206786100000000  2.3176582099999998 10.6881946200000009
 -0.0610346500000000  4.3187056300000002 12.5836083399999996
  2.1708259499999998  6.1898713799999996 16.7585247099999997
  2.0714795399999999  8.2761488900000000 19.2899706100000010
  1.6078282200000000 10.7988194499999999 -0.2242439300000000
  1.7773326300000001 12.3097539800000000  2.2978567399999998
  2.3672000199999998 15.2721445599999992  4.3334704700000000
  2.5755807100000001 17.3547043300000006  6.2830993099999999
  2.4878478199999998 19.2841580899999983  8.7656877299999998
  1.9058666900000001  0.0090671300000000 11.2280300600000000
  2.2130687500000001  1.7197075600000000 12.6997073000000000
  2.0339139300000002  4.0827434100000000 14.3872823200000006
  4.2451455500000002  6.1014017400000000 19.3947735700000017
  3.4506462400000002  8.0555736899999992 21.6792984900000008
  3.8464905900000002 10.2239647700000003  1.9459585500000001
  3.6470167800000000 12.0299996399999998  3.7318819599999999
  4.2438821600000001 15.1276530499999993  6.3445463200000001
  4.4105831300000000 16.9500880800000004  7.7394829999999999
  4.9266660900000003 19.1791603299999984 10.3595511699999996
  4.7975423199999998 -0.7760074100000000 12.7319818300000005
  4.3174846599999999  1.9173720599999999 14.6840315199999996
  4.4427397099999997  4.5102062399999996 16.2972615500000018
  8.4683812799999991  7.9687572500000003  0.0892602800000000
  8.7366996900000000  9.9685172499999997  2.1539435000000000
  8.2010927500000008 12.0243052000000006  4.2637729400000000
  8.7756284000000004 14.7514435099999996  6.0324705999999999
  8.7846943199999998 16.3595579399999984  8.3155113499999995
  8.2977529400000005 18.9518387799999992 10.3618365800000003
  8.5425546299999997 -0.2126269900000000 12.7748892600000001
  8.7347632300000004  1.9890373400000001 14.9460521100000001
  8.4270206499999993  4.3788074999999997 16.9339273500000012
  8.2477507200000009  6.4394910500000000 18.4534090999999982
 10.3861705900000008  8.0744200199999998  2.2379601899999999
 10.6554334900000001 10.3880870400000003  4.3724802000000000
 11.2271286400000001 12.7250622500000006  6.0755804099999997
 11.0401270599999997 14.5549016800000004  8.5315492499999994
 10.3678220900000007 16.8733859499999994 10.5632203899999997
 10.2111980399999993 18.8760006800000006 12.7742904399999997
 10.5452912600000008 -0.1264088400000000 14.8919791600000000
 10.8995338400000001  2.4665249199999999 16.7082750199999985
 10.7609742700000002  4.7058264100000002 19.0066104399999993
 10.5367704199999999  6.5463034699999998 21.0816448100000002
 13.0996984699999999  8.1470042599999992  4.4414749400000000
 12.7609078199999999 10.2050264800000008  6.0510108799999998
 13.0200704599999995 12.2961571700000007  8.4190089399999994
 12.5481804300000004 14.4653277899999999 10.9728960299999994
 12.3605571500000000 17.0384541799999987 13.2593933899999996
 12.2720787900000001 19.8201949599999985 15.0058203900000002
 12.3556734699999993  0.6084886100000000 16.9941844000000017
 13.0500633100000005  2.3786771299999998 18.8803622500000010
 12.7782412500000007  4.2510899000000002  0.2267393200000000
 12.7375532000000007  6.4314149299999999  1.5875725900000000
 15.5595418999999993  8.5818346299999995  5.5890922300000003
 15.1559091600000002 10.6997775300000004  8.0354715999999993
 14.7952355299999994 12.6448953700000004 10.9480688799999992
 14.6423529200000004 14.9684400699999998 12.5790173599999999
 14.5164490799999992 17.0335800199999987 15.1281065399999992
 14.3225668499999994 19.5191770799999986 17.0019900899999996
 15.0057033999999998  0.5009404500000000 19.0370362799999988
 14.8030125800000008  2.6472510400000000 -0.2113059200000000
 15.2040339400000004  3.8897810499999999  2.2266919800000000
 14.8405499699999996  5.8222380300000003  3.8226388000000000
 16.8982849699999989  8.8288382500000004  8.6241198600000004
 17.4170757000000016 10.8525881900000005 10.7272345999999992
 17.1169661899999994 12.9818338499999992 12.8280867099999991
 16.2165070500000006 15.3815304099999999 15.0811463299999993
 16.8360398599999996 17.3139666800000001 17.3978499500000012
 16.0488470599999999 19.6302814199999993 19.3210311099999998
 16.8149988599999993  0.6938701700000000  0.1291630200000000
 17.1112088900000003  1.8605987300000000  1.7900754299999999
 17.3846514200000009  3.7718958200000001  4.3659660300000001
 16.4956862300000004  6.3598646499999996  6.3662966599999997
 19.1487904899999997  8.5477587899999996 10.6079536999999995
 19.4431361600000017 11.0179999500000001 12.4495953600000000
 19.1824355799999999 13.2185930099999993 15.2992378999999996
 19.4435551199999992 15.6249858199999991 17.3158734900000013
 19.5079891799999992 17.4466818900000007 19.6758576100000013
 18.9138378500000002 19.4819181000000015  0.2354869700000000
 18.7971497399999983 -0.4094513500000000  2.3810907800000001
 18.9846077499999986  1.8117083899999999  4.4973373299999997
 18.8495609799999997  4.0818443499999999  6.8170233700000002
 18.4420122199999987  6.0467463600000002  8.3262940400000005
  0.0596619900000000  8.6903479400000005 12.1777130400000004
 -0.2216073000000000 10.9060602099999997 14.9968935999999999
  0.4238625600000000 13.1030879700000007 17.0996562899999986
  0.4262185000000000 14.8922559999999997 18.9504864300000015
 -0.2965775600000000 17.1548788399999985  0.4235488300000000
  0.0599331700000000 19.4330868999999993  2.4609050500000000
 -0.3158447600000000 -0.0341593300000000  4.2194434799999998
 -0.2265389800000000  1.6316780200000001  6.6649752099999997
 -0.2464394700000000  4.1532519900000002  9.0852866700000003
  0.0467993300000000  6.4769291800000000 10.2840761500000006
  1.8563144100000000  8.4354209499999993 14.5758905799999994
  2.2928629699999998 10.6165514800000000 16.7497043300000001
  3.3202146699999999 12.4917362900000004 18.9188338400000013
  2.2448401200000001 14.4704964000000000  0.1028010700000000
  2.4038233800000000 17.1312158200000013  1.7750169099999999
  1.9820397800000000 19.1821722500000007  4.0074820400000002
  1.6386393900000000 -0.0180582400000000  6.7384342799999999
  2.1383539599999999  1.7232011000000000  8.5558660500000006
  2.2419875399999998  3.9259204699999999 10.8019634500000006
  1.9634091600000001  6.0140388500000004 12.2828665299999997
  4.0985418400000002  7.9221603700000003 16.6974593999999996
  4.6521795600000004  9.8072304900000002 18.9802088399999995
  4.6157501800000000 12.6018312300000002  0.6706129900000000
  4.4605798600000002 14.6105745200000001  1.6553032999999999
  4.6200251500000000 17.2613860400000014  4.0623003100000004
  4.6272646999999996 19.3424841000000001  6.1904000000000003
  4.4768322300000003 -0.0301681200000000  8.6717428299999995