Li                                      
   1.00000000000000     
    20.2271999999999998    0.0000000000000000    0.0000000000000000
     0.0000000000000000   20.2271999999999998    0.0000000000000000
     0.0000000000000000    0.0000000000000000   20.2271999999999998
   Li
   432
Direct
  0.9945247132573982  0.0038581835350442  0.0113223337881649
  0.9185562692809697  0.0919751310117078  0.0860069589463706
  0.8474326268588825  0.1793057912118314  0.1855570682051919
  0.7474514178927407  0.2651416686442047  0.2216521258503406
  0.6551320652388881  0.3311363263328602  0.3407572521159636
  0.5839623754152825  0.4019466238530285  0.4226276073801642
  0.5055035758780235  0.4783401301218149  0.4979255764515074
  0.4283906274719200  0.5904811911683296  0.5934620031442819
  0.3453415801495012  0.6687885317789934  0.6458267333096046
  0.2491000271911119  0.7449105798133218  0.7341849845752222
  0.1839353934306303  0.8157137285437415  0.8371420834322123
  0.0866048237027357  0.9280309222235417  0.9265769177147618
  0.0749733902863454  0.9077030399659876  0.1195776434701799
  0.9839566380912856  0.9971855461952188  0.1645578443877582
  0.8973425234337924  0.0842041795206470  0.2676286450917544
  0.8406068635302972  0.1566624663819027  0.3201004152823899
  0.7597681018628393  0.2492205312648323  0.4181266542081943
  0.6610856559484262  0.3279982083531081  0.5198344704160718
  0.5873864949177374  0.3886928709856008  0.5726653417180856
  0.4934275005932633  0.4883390004548360  0.6220465922124632
  0.4152895675130495  0.5981911915638349  0.7152259778911585
  0.3467274259413102  0.6768556616832768  0.8165051514791983
  0.2565259427899065  0.7482532663937675  0.9138070029465268
  0.1624775411327306  0.8333350928452745  0.9977998521792415
  0.1678355437233066  0.8247605961279874  0.1884513911960113
  0.0893856984654349  0.9296523863906003  0.2519429560196187
  0.0092657856747351  0.0063925807823111  0.3440721765741159
  0.8980730882178420  0.0772178709856064  0.4253910798330978
  0.8395741318620438  0.1740603182842904  0.5011420646456273
  0.7530551504904253  0.2270022964127492  0.5866059355719031
  0.6732104725320340  0.3233189897761406  0.6611020798726486
  0.5727840917180842  0.3846385396891350  0.7227440594842562
  0.4794060141789274  0.4823339241219742  0.8045403684148056
  0.4145551094565718  0.5884484397247292  0.9070656986631889
  0.3448499980224682  0.6746355625098843  0.9924766398710645
  0.2593330302760606  0.7539647385698487  0.0784314625850371
  0.2700818358448061  0.7346428497271020  0.2685844249327616
  0.1746835147721910  0.8233665045087832  0.3319443704516658
  0.0888174715234911  0.9095701762972652  0.4061037513842720
  0.9944258992841313  0.0007138832858757  0.4857418238807156
  0.9197545503084967  0.0870812712585050  0.6005274303907626
  0.8226614281759197  0.1510239830525251  0.6844857068699568
  0.7422040618573007  0.2404076327914879  0.7391094298765992
  0.6648085661880998  0.3416266235564009  0.8269594293822209
  0.5828519014000975  0.4220475236315480  0.8901781072021819
  0.4880508018905232  0.5186862976585971  0.9753721014277801
  0.4275162103504186  0.5862780463929766  0.0710018831078969
  0.3759564877986108  0.6627591268193314  0.1738356089819675
  0.3471209831316244  0.6551135342509085  0.3614539189803807
  0.2625788601487073  0.7529978148236012  0.4194595386410356
  0.1753427122884048  0.8217144300743584  0.4916909156976743
  0.0695646812213226  0.8742811847413350  0.5698132544296755
  0.0197204007475094  0.9901806873912378  0.6720376369443102
  0.9096530918762866  0.0733215338751805  0.7478638343418780
  0.8501046116120889  0.1699978425090976  0.8441571453290635
  0.7641154227970262  0.2487756041370019  0.9235842187747210
  0.6645395165915176  0.3383093863708240  0.0145891324553062
  0.5745333417378546  0.4152726689803856  0.0708294459935104
  0.5017376235959503  0.4930583867267870  0.1583730096108198
  0.4330087980541037  0.5903175689171007  0.2438296630280021
  0.4264686654603693  0.5866579838039883  0.4280464745491201
  0.3307079976467335  0.6666253025628848  0.5282546328705919
  0.2409223614736575  0.7633647534013619  0.5750513160496737
  0.1832019725913625  0.8417705816919820  0.6488510708353132
  0.0858520235128921  0.8898287503955089  0.7561289718794484
  0.9939003554619532  0.9990605194984994  0.8498753623833224
  0.9165730461952251  0.0845265419830739  0.9518263358250252
  0.8211551653219402  0.1648458204793570  0.9984124965393164
  0.7628142066128802  0.2579363525352036  0.0934367490310066
  0.6391045537691795  0.3356922322417333  0.1682796566010154
  0.5772349811145361  0.4426618849865562  0.2617600003955047
  0.4908267214443924  0.5083487141077327  0.3472014871064673
  0.1043896139851270  0.0784003317315296  0.9222822145427969
  0.0170438434385360  0.1609966218754977  0.9962268104334768
  0.9268706662316077  0.2448252150569559  0.0599221671808223
  0.8460772365923077  0.3412678052325546  0.1572135752847643
  0.7411643133997785  0.3979889515108397  0.2352415722393602
  0.6625979151835182  0.4986003871025133  0.3278832537375393
  0.5905810097294761  0.5830438879330799  0.4280884986552778
  0.5207554149857643  0.6588016304777753  0.4974314991694371
  0.4244478044415416  0.7599287825304515  0.5754157411801941
  0.3498376028318333  0.8282706128381605  0.6589279054935915
  0.2424235049833854  0.9123160852713212  0.7613184098639465
  0.1610393311975926  0.9767692814625875  0.8082391987027364
  0.1732485840847957  0.9724491966263216  0.0212103687114364
  0.1017933737739298  0.0819900534923264  0.0788163354295222
  0.0076900782115175  0.1910378564507198  0.1620801084678050
  0.9350488456138280  0.2576351047104879  0.2424611201748164
  0.8294117272781207  0.3187337708629983  0.3356719456968804
  0.7429300783103940  0.4228825294652765  0.4142823781838345
  0.6889796516571778  0.4968331568383135  0.5049737551415916
  0.5988622038641012  0.5776937707641210  0.5659494561778189
  0.4985496929876589  0.6747507776657145  0.6235848891591544
  0.4046012176672988  0.7532005690357551  0.7350275757396005
  0.3479429135026137  0.8350197550822642  0.8233089053353879
  0.2617533969110895  0.9238785432486978  0.9251915129133081
  0.2646637369482647  0.9134307111216557  0.1024874559998423
  0.1928041271159628  0.0039157451352665  0.1893093483032757
  0.0745933263130851  0.0917218181458637  0.2266368849865543
  0.0125530760560011  0.1676240626483150  0.3359785022148429
  0.9263679570083880  0.2456083783222596  0.4190910427543102
  0.8309367777052685  0.3375550788047761  0.5046901770882783
  0.7319663952499624  0.3883417072061377  0.5988272029742134
  0.6687389277804172  0.4889710335587694  0.6625816306755254
  0.5632737600854298  0.5559572338237615  0.7214866007158705
  0.4862600765306127  0.6537839552681532  0.8090318783618073
  0.4184102070479341  0.7527378633720900  0.9130869344249319
  0.3409850241259278  0.8290524368177472  0.9934345099667752
  0.3297305469862337  0.8205626448544550  0.1638417685097266
  0.2692586497389655  0.8842881674181271  0.2490826609713679
  0.1890894765464353  0.9826528372686312  0.3275543565100492
  0.0901243721325713  0.0768103479473154  0.4112742366714102
  0.0182009190594812  0.1771917170938124  0.4958431829417833
  0.9105191865408955  0.2456103523967741  0.6023058713020077
  0.8278449627234608  0.3214127392817616  0.6774267970851113
  0.7543494616160444  0.3970798266690423  0.7504279277408656
  0.6531582571982284  0.4882661564625863  0.8058644473777861
  0.5713957206138289  0.5853122102910930  0.8861387923192510
  0.5061213519419425  0.6828822896891324  0.9834579788601516
  0.4322099059682003  0.7503016161406393  0.1010704551297295
  0.4316102461042561  0.7486668184424943  0.2515839780098119
  0.3506419662632467  0.8458247127630116  0.3404890652191099
  0.2469295236117688  0.9108037301257710  0.4038789600142394
  0.1635798291409571  0.9803801984456584  0.4992954650174042
  0.0893513407688644  0.0729131837327941  0.5769572224529327
  0.9977705589503216  0.1556053952104079  0.6569628346978362
  0.9262830312648305  0.2504262033301714  0.7319675743553233
  0.8398288379014431  0.3340389104769841  0.8413510387003669
  0.7551959060077493  0.4142199602515433  0.9156169380833745
  0.6702397766374020  0.4925269374901120  0.9781631031482334
  0.5791604438577735  0.5792779445499150  0.0646678447832656
  0.5292923291409579  0.6738641260283202  0.1715625158202840
  0.5085655365053015  0.6675650292675215  0.3478450947239367
  0.4225495644478698  0.7358551870748329  0.4243325205663666
  0.3376246306953021  0.8452183515266540  0.4773888185215966
  0.2549108665559245  0.9174965452460029  0.5711094936521093
  0.1668739904682823  0.9826814437984481  0.6553337387280465
  0.0725617455703187  0.0775384096661895  0.7526754706533794
  0.9910600646653975  0.1503275594249303  0.8326522885026080
  0.9086310799319719  0.2348598100577419  0.9091460854690681
  0.8376441618217072  0.3489309479314997  0.9918699983190962
  0.7304294786228454  0.4394833738728039  0.0837134546551184
  0.6693952178255032  0.4771699681616823  0.1595913547104857
  0.5971875321349458  0.5830423039273853  0.2637940036188908
  0.1771389910615397  0.1492060685611420  0.8300570682051926
  0.0787590180548960  0.2391401103464617  0.9159841016057584
  0.9924934504034155  0.3446855719031774  0.9963043139930363
  0.9116629385184325  0.4251678581316227  0.0929542032510682
  0.8338623116397699  0.4911957127036857  0.1859397158281908
  0.7468642308376872  0.5764533361018849  0.2615176539511168
  0.6631342167971823  0.6741238742880853  0.3509303250079086
  0.5896989593220994  0.7695491506486292  0.4326012300268971
  0.4886965022346175  0.8163936634828346  0.4988975552721087
  0.4162446774640074  0.9129371316840675  0.5810094130675552
  0.3178702069490598  0.9774415727337455  0.6666293110267389
  0.2511316286979905  0.0619598530691334  0.7370572194866298
  0.2423414451827242  0.0623230521278302  0.9140999100221450
  0.1928275821665864  0.1715476749129863  0.9898379261588346
  0.1149709465472242  0.2402860430509435  0.0751122295720634
  0.0133477896100302  0.3386956944114843  0.1538250069213731
  0.9283035491813010  0.4047555242445782  0.2646348560354355
  0.8186521174458150  0.4895810794375919  0.3246111829615543
  0.7463357706454659  0.5856882860702441  0.4059056592113564
  0.6662277977179230  0.6779710998062001  0.5362731959935161
  0.5811728276775838  0.7442361295681081  0.5900524002333469
  0.5076654979433641  0.8436869255260220  0.6774890276459402
  0.4261334722551808  0.9168103820598006  0.7655908736750519
  0.3454432511667491  0.0051819470811552  0.8292764426119277
  0.3421651296274320  0.9812493212110454  0.0122630383839564
  0.2683680672559703  0.0861499648987518  0.0779437826293332
  0.1922320261825661  0.1750703898710668  0.1588095584163867
  0.0886327306794783  0.2473837243909216  0.2618065624505590
  0.0179437173706702  0.3208527903021690  0.3495174072536003
  0.9183413260362272  0.4205197842509065  0.4039819856430924
  0.8305713914926400  0.5039761098916316  0.4988605872290748
  0.7688242866041790  0.5815008696211024  0.6136141146574943
  0.6740950784092732  0.6682602955426376  0.6808421145783896
  0.5916937529663002  0.7462343502808082  0.7602159315179549
  0.5023588717172913  0.8356096340571142  0.8372671650055352
  0.4130511311501337  0.9226927988055706  0.9270180242445818
  0.4329574424537270  0.9074342573366536  0.0899992164016794
  0.3477148819411511  0.0005725310473039  0.1839622720890688
  0.2490303235247566  0.0922727456098684  0.2326863579734209
  0.1782912652270241  0.1576230852515437  0.3316443313953457
  0.0964889035556098  0.2404868207166615  0.4201109748259739
  0.9950012735326723  0.3312476541488678  0.5166048662197440
  0.9022019572654614  0.4132225948228125  0.6029310586734695
  0.8420255571705439  0.4919420547579492  0.6631079877590551
  0.7608601417892729  0.5634741882218037  0.7487400989756381
  0.6735228667339044  0.6545526167734508  0.8180180370985610
  0.5860422179046054  0.7370732182407878  0.8951554644241426
  0.4991509709697866  0.8191075512181598  0.9983942527883229
  0.5280456711754482  0.8268781413146655  0.1687724682605634
  0.4346379968557201  0.9074141581632631  0.2313495876839085
  0.3391755655750686  0.9905439813716157  0.3312758009017571
  0.2296391952420507  0.0879935922915678  0.4123863594565762
  0.1752982844882141  0.1550215585943704  0.5049018786584369
  0.1000254162711585  0.2182472433159290  0.5923055316603367
  0.0145466273137131  0.3049961003005848  0.6657768198267675
  0.9374033059444713  0.4177514109713627  0.7581691717093832
  0.8462377852594543  0.5035769276024382  0.8338806226269568
  0.7579950700047462  0.5733194060473039  0.9063321853741471
  0.6526679634353769  0.6367992599074483  0.9942618484021537
  0.5872043708471750  0.7572482137913283  0.0711654752017097
  0.6032303462664146  0.7640261370827375  0.2540514277804178
  0.4930918886449902  0.8301104052958408  0.3370638051732300
  0.4393346726190472  0.9065158632929950  0.4091440965630468
  0.3486959554461322  0.9954288576767922  0.4721493592785961
  0.2685835276261699  0.0791880631031461  0.5616498932131009
  0.1704731954991274  0.1666808569648808  0.6703508804975513
  0.0731994052562897  0.2216467993592772  0.7472895165915219
  0.9847894172203766  0.3191695113510491  0.8459421516571766
  0.9120381832384084  0.4219630794178144  0.9402151899422577
  0.8374408454951734  0.5290427394795145  0.0167304940871702
  0.7506116066484765  0.5912997814823626  0.0923523147049536
  0.6450260520487276  0.6518231836339154  0.1639923766018043
  0.2554128302483818  0.2473609555450054  0.7601509670147095
  0.1456005542042433  0.3246477461042545  0.8359846948663190
  0.0865877758661640  0.4316833234456539  0.9172046699493777
  0.0158627096187303  0.5144901256723600  0.9952043189368780
  0.9323952756684051  0.6020656403258968  0.1166359412078819
  0.8157121153694007  0.6813816138664777  0.1693177849628213
  0.7410086848402173  0.7507157026182583  0.2481774239637744
  0.6760801079734193  0.8285136578468624  0.3454302800189879
  0.5814772944352171  0.9334422460844820  0.4280581345910477
  0.4963604156778985  0.9889937791686449  0.4995889124545201
  0.4092049097255170  0.0586527616279042  0.5917274476941969
  0.3252710261430138  0.1749287835192206  0.6589625657530434
  0.3126253589226380  0.1589400174023083  0.8350169568699570
  0.2482581800743588  0.2702821537335893  0.9097182076609727
  0.1795531660338554  0.3401299468043035  0.9925284275628883
  0.0872821680707148  0.4257049942651463  0.0978074340492014
  0.0251954432645149  0.5119810418644235  0.1643092652467999
  0.9114568595752246  0.5790888289036573  0.2574628218438519
  0.8111848446646093  0.6682910689566555  0.3235692646535355
  0.7694602574750817  0.7573272128618882  0.4280267184780868
  0.6720354443521614  0.8500455668604658  0.5164250533934478
  0.5918286935413732  0.9171359960844825  0.5811398656264828
  0.4955142273770008  0.0055996949651984  0.6723293668921073
  0.4008712036267994  0.0950671615448471  0.7356380996875487
  0.4102274135817083  0.0756551005576682  0.9045860870511007
  0.3469438963376064  0.1473313933713030  0.9960270502096193
  0.2709866026934051  0.2466983492524903  0.0710515350616987
  0.1689838603464651  0.3421602807111199  0.1629681181775027
  0.0950940871697483  0.4197654124149679  0.2724455688380019
  0.0039294440159807  0.5061983136568600  0.3179703745451690
  0.9138883508345188  0.5793665401044166  0.4029467825502309
  0.8343006155078285  0.6422819895981675  0.4960637502966279
  0.7643529534488209  0.7546480071389041  0.5865538789352982
  0.6734200423192505  0.8270016186125630  0.6699103019696224
  0.5739588371104247  0.9265719738767615  0.7654444935532325
  0.4738483843537438  0.9960232212070892  0.8416425283776334
  0.4779360494779326  0.0198906709776949  0.0080686886964116
  0.4164415094526177  0.0853500019775382  0.1104409389337135
  0.3382580317592172  0.1792266057585792  0.1652500553709828
  0.2724178497270984  0.2591176302206932  0.2514134610821088
  0.1695340487066943  0.3329433792121534  0.3505955322535996
  0.0738658178096827  0.4171206138269241  0.4148631016650839
  0.9747999411683281  0.5067387245886721  0.5070643015345695
  0.9134030938538231  0.5977842163027987  0.5860389604097449
  0.8452755111928525  0.6771886944312584  0.6839120288522409
  0.7595267956019640  0.7586342266848618  0.7505524694470793
  0.6448895581197576  0.8276523532668847  0.8251865329852848
  0.5866872508305647  0.9197196428571459  0.9181364889851267
  0.5905889969941498  0.8960605372963144  0.0872237319055529
  0.5019744200878051  0.0009607572971078  0.1736979952736917
  0.4196863757712421  0.0875925056359748  0.2593487986473662
  0.3248244591441249  0.1632876987422875  0.3571064002926718
  0.2346219941464938  0.2415093379212152  0.4186920196567030
  0.1595031788878316  0.3231682585825055  0.4914024284132239
  0.0793931587169752  0.3956358344209789  0.5599397158281931
  0.0061929431656367  0.5215187974608426  0.6273409923271629
  0.9407290910259434  0.5852766596464178  0.7366088959420978
  0.8463042947120698  0.6806033667536795  0.8248015760955525
  0.7254244279979432  0.7466575868137966  0.8963241412553415
  0.6728143489954093  0.8316164219466842  0.9903927211873125
  0.6649479468240784  0.8404181923350720  0.1747267110623341
  0.5958008953290630  0.9171837743236821  0.2791190140009476
  0.4997620718636284  0.0062063276182585  0.3395824691504501
  0.4263221508661630  0.0935252288997006  0.4212173241971229
  0.3351970416073442  0.1474184400213545  0.5211108294771378
  0.2407980773414025  0.2352109145111498  0.5759390647247287
  0.1476964181893692  0.3314739514119580  0.6801398804580003
  0.0649366511430145  0.3909047371855721  0.7348738080406605
  0.0076997073247895  0.5068894271080495  0.8423771683673493
  0.9114839275826583  0.5880941840689786  0.9211570815535524
  0.8155596088435360  0.6632800768272418  0.0116954091520327
  0.7167173494106933  0.7369254973501000  0.0912734871855747
  0.3316560660892236  0.3303990043110261  0.6684527982123072
  0.2469420315219111  0.4377325467687072  0.7377404480105980
  0.1485335197160254  0.5263435725162182  0.8166748121341527
  0.0979528219427337  0.6090167200601186  0.9295397163225729
  0.0008516418485982  0.6636158054500854  0.0141675679283324
  0.9233152339424109  0.7641373146060744  0.0873350439012839
  0.8182461566603365  0.8370083526143048  0.1519949785437404
  0.7599827761627935  0.9134772084124378  0.2476207680746683
  0.6714197610148744  0.0204357034092695  0.3470949434424924
  0.5795835271317813  0.0683438557981333  0.4238249297974974
  0.5052945721602597  0.1645956261865180  0.5045098852040795
  0.4137440278436983  0.2288199983190964  0.5915420522860302
  0.4043827657807313  0.2362029796511607  0.7737259976665101
  0.3278079551297282  0.3578855397682332  0.8198800713890222
  0.2265158420344875  0.4392564235287111  0.8827487309167878
  0.1688895338949550  0.5058382440476166  0.0035854176554366
  0.1202592771120052  0.6035503955070425  0.0883189788997001
  0.0031201708590416  0.6641583367940171  0.1788359199493783
  0.9094871143806387  0.7581964523018527  0.2371656808653668
  0.8285785457206103  0.8313314096859656  0.3062985588712195
  0.7596547826688820  0.9031999975280840  0.4106252333491511
  0.6828896120075925  0.9934231954991333  0.5074503841362130
  0.5843716737857960  0.0584090561224500  0.5947377125850366
  0.4986678170977683  0.1549019424339519  0.6594325937351684
  0.4860311199770635  0.1615563424497708  0.8397247246282262
  0.4020666271159641  0.2736939077084344  0.9008861483546937
  0.3332867292556543  0.3680732370273674  0.9901463732004459
  0.2647461408400602  0.4271016888150641  0.0852945158005056
  0.1783930405592500  0.4921800837486145  0.1825697412395186
  0.0925237165796560  0.6021862600854320  0.2573673296353434
  0.9783137270605948  0.6739858922638859  0.3160417942176892
  0.9099920948030373  0.7373039427108026  0.3876386573524755
  0.8566535200126566  0.8441960567948144  0.4865316806082873
  0.7585097359001765  0.9122945380477745  0.6006949538245507
  0.6657055336378761  0.0058905913818990  0.6795137883641829
  0.5624683001107442  0.0825237645348835  0.7686347151360522
  0.5735399872448994  0.0792784626641350  0.9081014777131813
  0.4608231376562273  0.1817522375810796  0.9933251231015632
  0.4185759714641648  0.2797353014752417  0.0709372597294760
  0.3565901246835921  0.3390004755972171  0.1768422396574891
  0.2513828700957106  0.4220470846187325  0.2575326189487441
  0.1755636098916327  0.5300702969269082  0.3414408558772379
  0.0595399605481717  0.5823166903970858  0.4209219536070208
  0.9832518366358158  0.6781235870510969  0.4867510614420212
  0.8894741185136823  0.7569568457324820  0.5758943857775662
  0.8384569797104859  0.8459469768430594  0.6647958219625067
  0.7524093250672337  0.9049275806834345  0.7509355723975659
  0.6729612022425258  0.0065866466935631  0.8500586314467640
  0.6615383963178303  0.0095652561896884  0.0112743350537912
  0.5528097621025125  0.0846707972433194  0.0948667546669810
  0.4907281309326024  0.1795881698900459  0.1688260673746242
  0.4175462273572208  0.2447012404089577  0.2633062969664621
  0.3391343616516380  0.3310569950363842  0.3372794380833710
  0.2569303823564297  0.4096709851091589  0.4133136044534069
  0.1722533390681846  0.5188974944628981  0.5052364593220986
  0.0713141230620167  0.5886302691425414  0.5552481154089577
  0.0087890489044469  0.6814294499485811  0.6631393959618705
  0.9304896139851309  0.7609268672876155  0.7316284952934637
  0.8474613599509553  0.8294803299517497  0.8535031778990643
  0.7431337481213447  0.9150281324157561  0.9180110272306621
  0.7345417398354712  0.9149540460370176  0.0761750197753486
  0.6642237284448669  0.0158547515227028  0.1706729992287634
  0.5768924912988425  0.1085168075660476  0.2616341401676934
  0.5003214849311846  0.1862655018984327  0.3493346899224790
  0.4071032995174804  0.2536081593102324  0.4087777814032592
  0.3444964364815704  0.3331071008345177  0.5051698865883552
  0.2420225898789781  0.4142408548884688  0.5866677142659356
  0.1454104206217366  0.5147047930509387  0.6532211269973089
  0.0531429723342853  0.5925193823168797  0.7193564373714594
  0.0075700887913328  0.6713519098046206  0.8335243034132276
  0.9138745748299328  0.7390433994818864  0.9202907930904942
  0.8001320266769483  0.8113371979315005  0.0060115636370810
  0.4332236078152221  0.4058531358764412  0.5729757835983236
  0.3200657248655290  0.4884765301178646  0.6440818076649251
  0.2545203814665413  0.6013373269656697  0.7266298449612378
  0.1522803467607972  0.6580558802009193  0.8051948366555948
  0.0889801761983833  0.7472966198979591  0.9148225389574449
  0.0066490507831034  0.8475829363431444  0.0169350557664956
  0.8945863901083726  0.9051508211714889  0.0846399407728242
  0.8018073025431107  0.0138199998022444  0.1382662345752266
  0.7292572679362408  0.1028951461398506  0.2394643302088255
  0.6684539278792911  0.1769115349628194  0.3514389015780708
  0.5782066375968995  0.2624108972077224  0.4364281091797153
  0.4958816811026736  0.3249901232004433  0.5129783983942389
  0.4847907718319888  0.3192243582898300  0.6541972354057890
  0.3998287103504197  0.4261569119799091  0.7418495634591054
  0.3246748694826778  0.5055940288324621  0.8306184494146507
  0.2334133839582364  0.6205457309958859  0.9063826960726118
  0.1738135663858600  0.6833517466579622  0.0051548301297260
  0.0916231697911698  0.7650652759650356  0.0972696097334307
  0.0000661094961245  0.8461856243078643  0.1854359931181762
  0.8958418515662103  0.9271891962308203  0.2413210409745261
  0.8149379973500999  0.0088628302483755  0.3289587248853039
  0.7560830406581260  0.0884179248734398  0.4415281418090515
  0.6682593398987535  0.1688176396139838  0.5228223540579009
  0.5773116570756187  0.2351885159587113  0.5949023260757826
  0.5659325363866472  0.2333272697160282  0.7488967776063902
  0.4922009739360860  0.3394674898156964  0.8136469274046831
  0.4076543896337625  0.4085210469071328  0.9106034201471260
  0.3100051173667140  0.5181851427780444  0.9719152725043472
  0.2408105798133207  0.5934854250711936  0.1005868854809364
  0.1674590793584869  0.6978009635540232  0.1699327272187929
  0.0689810655948406  0.7487486320400265  0.2593343473145069
  0.9871534013605441  0.8529540015424786  0.3226269399620278
  0.9027598234061074  0.9414489563557993  0.4235810967410245
  0.8358302197041638  0.9905976897445044  0.5162578409270679
  0.7740603281719700  0.1000770655355154  0.6091589196725167
  0.6627803858171148  0.1518072817789928  0.6790480368019303
  0.6605649734021526  0.1597623754152835  0.8556525218517663
  0.5601248378421104  0.2565044934543579  0.8978518193323808
  0.4993511973975657  0.3585738144676469  0.9720079803432995
  0.4041590724371176  0.4292858186006967  0.0579268237818411
  0.3255512522741668  0.5058975874070555  0.1730008809919283
  0.2595638565891463  0.6136206726585982  0.2521657802365098
  0.1641293406897617  0.6497129068778662  0.3700859644439163
  0.0605730625098886  0.7564013402744791  0.4250101610702401
  0.9655708990863801  0.8253358032747968  0.4815519226585963
  0.9197962046155652  0.9072863327598455  0.5859936837525694
  0.8238536213613372  0.0013733838593595  0.6622411520131308
  0.7506493874584734  0.0657332196250593  0.7660081069055522
  0.7448913379014428  0.0667508409468454  0.9221280987976570
  0.6382996662909335  0.1638304624466045  0.0045094852475884
  0.5693796111177036  0.2622286994739724  0.0549187262695767
  0.4963021654010475  0.3562889149264379  0.1787028550664473
  0.4037630433277997  0.4456705772425238  0.2602241348283485
  0.3079860371183329  0.5180979339700968  0.3262475676317038
  0.2573667788917859  0.5898428902665742  0.4329479077677547
  0.1674755398671124  0.6800055029860772  0.4956013175328238
  0.0930183253243158  0.7489565372369853  0.5710397657609576
  0.9975930776380295  0.8203988208946384  0.6779151039194744
  0.9004631071033060  0.8976962199414658  0.7661615868731246
  0.8248759591045740  0.9904869551890556  0.8394060665836136
  0.8233222398552442  0.0071599746875464  0.0034448925209603
  0.7302940238886251  0.1126351754073696  0.0819577351289382
  0.6513443215076720  0.1992841614261991  0.1617709603899726
  0.5764307368296144  0.2581274753796876  0.2606447491496624
  0.4875184543584865  0.3441494482676788  0.3202050120629636
  0.3845268969506392  0.4180283454951734  0.4248332616476844
  0.3463613312766967  0.5078722611137465  0.5093310987185546
  0.2443413304856819  0.5797438473936083  0.5793669316563808
  0.1712088816049686  0.6464401241892119  0.6408619927622183
  0.1117682684701791  0.7464858413423485  0.7337509502056605
  0.9854764154208198  0.8168815901360560  0.8385696354413881
  0.9081870679085569  0.9006572575541867  0.9293263862521783
 
  0.00000000E+00  0.00000000E+00  0.00000000E+00
  0.00000000E+00  0.00000000E+00  0.00000000E+00
  0.00000000E+00  0.00000000E+00  0.00000000E+00
  0.00000000E+00  0.00000000E+00  0.00000000E+00
  0.00000000E+00  0.00000000E+00  0.00000000E+00
  0.00000000E+00  0.00000000E+00  0.00000000E+00
  0.00000000E+00  0.00000000E+00  0.00000000E+00
  0.00000000E+00  0.00000000E+00  0.00000000E+00
  0.00000000E+00  0.00000000E+00  0.00000000E+00
  0.00000000E+00  0.00000000E+00  0.00000000E+00
  0.00000000E+00  0.00000000E+00  0.00000000E+00
  0.00000000E+00  0.00000000E+00  0.00000000E+00
  0.00000000E+00  0.00000000E+00  0.00000000E+00
  0.00000000E+00  0.00000000E+00  0.00000000E+00
  0.00000000E+00  0.00000000E+00  0.00000000E+00
  0.00000000E+00  0.00000000E+00  0.00000000E+00
  0.00000000E+00  0.00000000E+00  0.00000000E+00
  0.00000000E+00  0.00000000E+00  0.00000000E+00
  0.00000000E+00  0.00000000E+00  0.00000000E+00
  0.00000000E+00  0.00000000E+00  0.00000000E+00
  0.00000000E+00  0.00000000E+00  0.00000000E+00
  0.00000000E+00  0.00000000E+00  0.00000000E+00
  0.00000000E+00  0.00000000E+00  0.00000000E+00
  0.00000000E+00  0.00000000E+00  0.00000000E+00
  0.00000000E+00  0.00000000E+00  0.00000000E+00
  0.00000000E+00  0.00000000E+00  0.00000000E+00
  0.00000000E+00  0.00000000E+00  0.00000000E+00
  0.00000000E+00  0.00000000E+00  0.00000000E+00
  0.00000000E+00  0.00000000E+00  0.00000000E+00
  0.00000000E+00  0.00000000E+00  0.00000000E+00
  0.00000000E+00  0.00000000E+00  0.00000000E+00
  0.00000000E+00  0.00000000E+00  0.00000000E+00
  0.00000000E+00  0.00000000E+00  0.00000000E+00
  0.00000000E+00  0.00000000E+00  0.00000000E+00
  0.00000000E+00  0.00000000E+00  0.00000000E+00
  0.00000000E+00  0.00000000E+00  0.00000000E+00
  0.00000000E+00  0.00000000E+00  0.00000000E+00
  0.00000000E+00  0.00000000E+00  0.00000000E+00
  0.00000000E+00  0.00000000E+00  0.00000000E+00
  0.00000000E+00  0.00000000E+00  0.00000000E+00
  0.00000000E+00  0.00000000E+00  0.00000000E+00
  0.00000000E+00  0.00000000E+00  0.00000000E+00
  0.00000000E+00  0.00000000E+00  0.00000000E+00
  0.00000000E+00  0.00000000E+00  0.00000000E+00
  0.00000000E+00  0.00000000E+00  0.00000000E+00
  0.00000000E+00  0.00000000E+00  0.00000000E+00
  0.00000000E+00  0.00000000E+00  0.00000000E+00
  0.00000000E+00  0.00000000E+00  0.00000000E+00
  0.00000000E+00  0.00000000E+00  0.00000000E+00
  0.00000000E+00  0.00000000E+00  0.00000000E+00
  0.00000000E+00  0.00000000E+00  0.00000000E+00
  0.00000000E+00  0.00000000E+00  0.00000000E+00
  0.00000000E+00  0.00000000E+00  0.00000000E+00
  0.00000000E+00  0.00000000E+00  0.00000000E+00
  0.00000000E+00  0.00000000E+00  0.00000000E+00
  0.00000000E+00  0.00000000E+00  0.00000000E+00
  0.00000000E+00  0.00000000E+00  0.00000000E+00
  0.00000000E+00  0.00000000E+00  0.00000000E+00
  0.00000000E+00  0.00000000E+00  0.00000000E+00
  0.00000000E+00  0.00000000E+00  0.00000000E+00
  0.00000000E+00  0.00000000E+00  0.00000000E+00
  0.00000000E+00  0.00000000E+00  0.00000000E+00
  0.00000000E+00  0.00000000E+00  0.00000000E+00
  0.00000000E+00  0.00000000E+00  0.00000000E+00
  0.00000000E+00  0.00000000E+00  0.00000000E+00
  0.00000000E+00  0.00000000E+00  0.00000000E+00
  0.00000000E+00  0.00000000E+00  0.00000000E+00
  0.00000000E+00  0.00000000E+00  0.00000000E+00