Li 
 1.0000000000000000
    20.2271999999999998    0.0000000000000000    0.0000000000000000
     0.0000000000000000   20.2271999999999998    0.0000000000000000
     0.0000000000000000    0.0000000000000000   20.2271999999999998
 Li 
 432
Cartesian
 -0.1107497200000000  0.0780402500000000  0.2290191100000000
 18.5798213700000012  1.8603993700000001  1.7396799599999999
 17.1411892299999984  3.6268541000000001  3.7532999299999998
 15.1188493200000007  5.3630735600000001  4.4834018799999997
 13.2514873099999999  6.6979607000000003  6.8925650899999997
 11.8119237600000009  8.1302547500000006  8.5485731400000002
 10.2249219300000007  9.6754814800000002 10.0716402200000008
  8.6651428999999993 11.9437811499999995 12.0040746299999999
  6.9852932100000000 13.5277193899999997 13.0632664999999992
  5.0385960699999996 15.0674552800000008 14.8505065199999997
  3.7204979900000001 16.4996047300000015 16.9330403499999989
  1.7517730899999999 18.7714670699999999 18.7420566300000004
  1.5165017599999999 18.3602909300000015  2.4187209099999998
 -0.3245122900000000 -0.0569285200000000  3.3285444300000000
 18.1507266899999991  1.7032147799999999  5.4133781299999999
 17.0031231500000004  3.1688430400000001  6.4747351200000001
 15.3679813500000009  5.0410335300000000  8.4575314600000002
 13.3719117799999996  6.6344853600000002 10.5147957999999999
 11.8811841099999995  7.8621684399999996 11.5834164000000008
  9.9806567400000006  9.8777306300000003 12.5822608299999992
  8.4001451399999993 12.0997328700000004 14.4670188999999993
  7.0133249900000001 13.6908948400000003 16.5156129999999983
  5.1888015500000000 15.1350684700000002 18.4837570100000015
  3.2864657199999998 16.8560355900000012 -0.0445028300000000
  3.3948431100000001 16.6825975299999989  3.8118439799999999
  1.8080224000000000 18.8042647500000015  5.0961005600000000
  0.1874209000000000  0.1293040100000000  6.9596167299999996
 18.1655039699999996  1.5619013200000000  8.6044704500000009
 16.9822338799999990  3.5207528699999999 10.1367007699999991
 15.2321971400000002  4.5916208500000000 11.8653955799999995
 13.6171628699999996  6.5398378700000004 13.3722439899999994
 11.5858183799999992  7.7801606699999999 14.6190886399999993
  9.6970413299999993  9.7562647499999997 16.2735989399999994
  8.3852891100000004 11.9026642799999998 18.3473992999999993
  6.9753498799999996 13.6459884500000008 20.0750234899999995
  5.2455810700000001 15.2505955600000007  1.5864488800000001
  5.4629993099999998 14.8597678500000008  5.4327108800000001
  3.5333583900000001 16.6543989600000018  6.7143051700000003
  1.7965287599999999 18.3980578699999988  8.2143417999999997
 -0.1127484500000000  0.0144398600000000  9.8251970199999992
 18.6040592400000016  1.7614102899999999 12.1469884399999994
 16.6401372400000014  3.0547923099999998 13.8452292900000007
 15.0127100000000002  4.8627732699999999 14.9501142599999994
 13.4472158299999993  6.9101500400000004 16.7270737700000005
 11.7894619800000005  8.5368396700000009 18.0058106100000010
  9.8719011800000001 10.4915714799999993 -0.4981534300000000
  8.6474558899999998 11.8587632999999997  1.4361692900000000
  7.6045470699999997 13.4057614100000002  3.5162076299999998
  7.0212855500000000 13.2511124799999997  7.3112007099999996
  5.3112351200000001 15.2310373999999999  8.4844919799999996
  3.5466921100000000 16.6209821200000007  9.9455304899999994
  1.4070987200000000 17.6842603800000013 11.5257266600000001
  0.3988884900000000 -0.1986172000000000 13.5934396900000003
 18.3997350200000014  1.4830893300000001 15.1271913500000004
 17.1952360000000013  3.4385803600000000 17.0749354099999984
 15.4559154799999998  5.0320339000000001 18.6815227099999994
 13.4417737099999997  6.8430516199999998  0.2950973000000000
 11.6212008099999995  8.3998033299999992  1.4326813700000001
 10.1487472600000004  9.9731906000000006  3.2034425400000002
  8.7585555599999996 11.9404715299999999  4.9319913599999996
  8.6262669899999995 11.8664483700000005  8.6581816499999995
  6.6892968100000001 13.4839633200000009 10.6851121100000004
  4.8731847899999998 15.4407315399999998 11.6316779799999992
  3.7056629399999998 17.0266619100000014 13.1244403799999994
  1.7365460500000001 17.9987440999999997 15.2943719399999996
 -0.1233787300000000 -0.0190030600000000 17.1905989300000002
 18.5397063200000005  1.7097352699999999 19.2527816600000001
 16.6096697599999992  3.3343693800000000 20.1950892499999988
 15.4295955199999995  5.2173301900000002  1.8899638100000000
 12.9272956299999997  6.7901139199999996  3.4038262700000002
 11.6758474099999994  8.9538104799999996  5.2946718800000001
  9.9280502599999991 10.2824711099999995  7.0229139199999997
  2.1115096000000002  1.5858191900000000 18.6551868100000000
  0.3447492300000000  3.2565108700000001 -0.0763210600000000
 18.7479983399999988  4.9521285900000001  1.2120576599999999
 17.1137734799999990  6.9028921499999996  3.1799904300000001
 14.9916788000000007  8.0502021199999998  4.7582783299999996
 13.4025005499999992 10.0852897499999994  6.6321601499999998
 11.9458002000000008 11.7933453299999993  8.6590316800000000
 10.5334239299999997 13.3257123400000008 10.0616464200000006
  8.5853906299999991 15.3712314699999997 11.6390492800000001
  7.0762351600000004 16.7535953400000004 13.3282665300000005
  4.9035487199999999 18.4535999199999985 15.3993397400000003
  3.2573747599999998 -0.4698923900000000 16.3484159200000008
  3.5043337600000002 -0.5572756100000000  0.4290263700000000
  2.0589949299999999  1.6584292100000000  1.5942337799999999
  0.1555487500000000  3.8641609300000002  3.2784267699999998
 18.9134200099999994  5.2112367900000001  4.9043095699999997
 16.7766768900000010  6.4470917300000004  6.7897035800000003
 15.0273952800000004  8.5537294999999993  8.3797725199999995
 13.9361292100000007 10.0495436300000005 10.2142051400000007
 12.1133055699999996 11.6851274400000005 11.4475728399999994
 10.0842643499999998 13.6483189300000003 12.6133762699999998
  8.1839497500000000 15.2351385500000003 14.8675497799999992
  7.0379109000000000 16.8901115900000001 16.6532338899999992
  5.2945383100000001 18.6874760699999989 18.7140337700000003
  5.3534063400000003 18.4761456799999984  2.0730342700000000
  3.8998876400000002  0.0792045600000000  3.8291980500000000
  1.5088141300000000  1.8552755599999999  4.5842295999999996
  0.2539135800000000  3.3905654400000000  6.7959043599999998
 18.7378299400000010  4.9679697899999997  8.4770383400000000
 16.8075243900000011  6.8277940900000003 10.2084691500000009
 14.8056306699999993  7.8550653800000001 12.1125976000000009
 13.5267160400000002  9.8905148900000004 13.4021711600000000
 11.3934510000000007 11.2454581600000001 14.5936537699999995
  9.8356798199999993 13.2242188200000008 16.3644496100000012
  8.4632669400000005 15.2257793100000001 18.4691920399999994
  6.8971722800000004 16.7694094500000013 20.0943985199999986
  6.6695257200000002 16.5976847300000010  3.3140602200000000
  5.4463485599999997 17.8866736199999998  5.0382448000000002
  3.8247506599999999 -0.3508845300000000  6.6255074799999996
  1.8229637000000001  1.5536582699999999  8.3189262399999997
  0.3681536300000000  3.5840923000000000 10.0295192300000000
 18.4172536899999990  4.9680097200000004 12.1829613200000004
 16.7449856299999986  6.5012797600000001 13.7024473100000002
 15.2583774299999995  8.0318130700000001 15.1790557800000006
 13.2115627000000000  9.8762571999999995 16.3003813499999985
 11.5577355199999996 11.8392271400000002 17.9241065800000001
 10.2374178100000002 13.8127966499999992 19.8926012300000004
  8.7423962100000008 15.1765008500000000  2.0443723100000000
  8.7302667700000001 15.1434334699999997  5.0888394400000001
  7.0925051799999999 17.1086656300000008  6.8871404199999997
  4.9946928599999998 18.4230092100000000  8.1693405000000006
  3.3087619199999998 -0.3968536500000000 10.0993492299999996
  1.8073274399999999  1.4748295499999999 11.6702291299999992
 -0.0450953500000000  3.1474614500000002 13.2885186500000003
 18.7361121299999986  5.0654209000000003 14.8056545199999992
 16.9873858700000007  6.7566718500000000 17.0181757299999994
 15.2754986299999995  8.3785099800000005 18.5203669300000016
 13.5570740099999991  9.9624408700000000 19.7855007200000017
 11.7147941299999996 11.7171708399999996  1.3080494300000001
 10.7061018000000008 13.6303844499999993  3.4702293200000001
 10.2868568200000006 13.5029713600000001  7.0359322999999998
  8.5469945500000009 14.8842900399999998  8.5830587600000001
  6.8292009299999998 17.0964006399999988  9.6562391099999996
  5.1561330800000000 18.5583861200000015 11.5519459500000004
  3.3753935799999999 -0.3503059000000000 13.2555665999999999
  1.4677209400000000  1.5683849200000000 15.2245172800000006
 -0.1808298600000000  3.0407056099999998 16.8422243700000003
 18.3790625799999994  4.7505563500000001 18.3894796999999990
 16.9431959899999995  7.0578960700000000 20.0627528300000009
 14.7745431499999995  8.8895181000000001  1.6932887900000000
 13.5399909500000000  9.6518123800000009  3.2280862500000000
 12.0794316500000001 11.7933132900000004  5.3358140699999996
  3.5830258000000001  3.0180209900000001 16.7897303300000011
  1.5930744100000001  4.8371348400000000 18.5277936200000006
 -0.1518364800000000  6.9720240000000002 -0.0747533800000000
 18.4403885900000013  8.5999552999999995  1.8802032600000000
 16.8666997499999987  9.9355139200000000  3.7610398200000001
 15.1069721700000006 11.6600369199999996  5.2897698899999996
 13.4133484299999992 13.6356384300000002  7.0983378699999999
 11.9279587899999999 15.5658245799999992  8.7503115999999999
  9.8849618899999996 16.5133579099999999 10.0913006299999992
  8.4194643399999993 18.4661619500000000 11.7521936000000000
  6.4296242499999998 19.7709061800000008 13.4840444000000002
  5.0796896800000004  1.2532743399999999 14.9086037900000008
  4.9018888799999996  1.2606208400000001 18.4896816999999984
  3.9003620699999999  3.4699291300000001 -0.2055503000000000
  2.3255403299999999  4.8603138499999998  1.5193100900000001
  0.2699884100000000  6.8508655500000000  3.1114491800000001
 18.7769815499999986  8.1870709399999999  5.3528221599999997
 16.5590401100000015  9.9028544099999998  6.5659753199999997
 15.0962829000000003 11.8468341000000006  8.2103349500000000
 13.4759229099999995 13.7134570300000007 10.8473051900000002
 11.7554990200000002 15.0538130399999996 11.9351079099999993
 10.2686515600000003 17.0654241800000008 13.7037060600000000
  8.6194869700000005 18.5445069599999997 15.4857597200000008
  6.9873497300000000 20.3320162800000013 16.7739404599999986
  6.9210425100000004 -0.3792737300000000  0.2480469300000000
  5.4283345699999996  1.7425725700000001  1.5765844800000000
  3.8883156400000001  3.5411837899999998  3.2122727000000002
  1.7927919699999999  5.0038800700000001  5.2956136999999996
  0.3629511600000000  6.4899535600000000  7.0697584999999998
 18.5754736700000009  8.5059377800000000  8.1714244199999992
 16.8001336499999994 10.1940255700000009 10.0905528699999998
 15.5511626100000004 11.7621343899999999 12.4116954199999991
 13.6350559699999998 13.5170346499999994 13.7715296200000008
 11.9683078799999993 15.0942314500000005 15.3770396900000001
 10.1613133700000002 16.9020431900000005 16.9355703999999996
  8.3548678400000007 18.6634917800000011 18.7509789799999993
  8.7575167799999996 18.3548542099999992  1.8204321500000000
  7.0332984600000001  0.0115807000000000  3.7210416700000000
  5.0371861600000001  1.8664192799999999  4.7065935000000003
  3.6063330800000002  3.1882736700000001  6.7082362199999999
  1.9517003500000001  4.8643750199999998  8.4976687099999992
 -0.1011102400000000  6.7002125499999998 10.4494699499999992
 18.2490194300000006  8.3583360700000000 12.1956071099999992
 17.0318193499999992  9.9506103299999999 13.4128178899999995
 15.3900702599999999 11.3975051000000001 15.1449157299999992
 13.6234817300000000 13.2397666899999997 16.5462144400000000
 11.8539931500000009 14.9089273999999996 18.1064886099999995
 10.0964265199999996 16.5682522600000013 20.1947202300000015
 10.6808853999999993 16.7254295400000004  3.4137944700000000
  8.7915096899999998 18.3544476600000017  4.6795543799999999
  6.8605720000000003 -0.1912687800000000  6.7007818800000001
  4.6449579300000003  1.7798639900000000  8.3414213700000008
  3.5457934600000001  3.1356520699999999 10.2127512800000009
  2.0232340999999998  4.4145306399999997 11.9806824499999998
  0.2942375400000000  6.1692171199999999 13.4668008900000000
 18.9610441499999993  8.4499413400000005 15.3356394700000003
 17.1170209299999989 10.1859512300000006 16.8670701299999983
 15.3321178800000002 11.5966462900000007 18.3325623799999988
 13.2016454299999992 12.8806659900000007 20.1111332599999990
 11.8775002500000006 15.3170110699999995  1.4394783000000000
 12.2016608600000005 15.4541094799999996  5.1387490400000004
  9.9738682500000007 16.7908091900000009  6.8178570000000001
  8.8865102900000004 18.3362776700000012  8.2758394699999993
  7.0531428299999996 -0.0924614100000000  9.5502595199999991
  5.4326927300000003  1.6017527899999999 11.3606047199999995
  3.4481954199999998  3.3714870299999999 13.5593213299999995
  1.4806190100000001  4.4832941399999999 15.1155745100000001
 -0.3076675000000000  6.4559055399999998 17.1110410900000005
 18.4479787399999999  8.5351315999999997 19.0179206900000004
 16.9390834699999999 10.7010532999999999 20.5656110500000011
 15.1827710899999992 11.9603389399999998  1.8680287400000000
 13.0470709599999992 13.1845578999999997  3.3171065999999998
  5.1662863999999997  5.0034195199999996 15.3757256400000006
  2.9450915300000000  6.5667148900000001 16.9096296200000005
  1.7514282600000000  8.7317449200000006 18.5524823000000012
  0.3208582000000000 10.4066946700000003 -0.0970032000000000
 18.8597457199999994 12.1781021200000001  2.3592185099999998
 16.4995721000000017 13.7824421800000003  3.4248246999999998
 14.9885308700000000 15.1848766600000005  5.0199343900000004
 13.6752075600000005 16.7585114600000011  6.9870873600000003
 11.7616575300000008 18.8809229999999992  8.6584175000000005
 10.0399814000000003 -0.2226250300000000 10.1052848500000003
  8.2770695500000002  1.1863811399999999 11.9689894300000006
  6.5793220999999997  3.5383194900000001 13.3289676099999994
  6.3235356600000001  3.2149115199999998 16.8900549899999994
  5.0215678600000002  5.4670511800000003 18.4010521300000001
  3.6318578000000001  6.8798764600000002 -0.1511289900000000
  1.7654738699999999  8.6108200600000000  1.9783705300000001
  0.5096332700000000 10.3559429299999994  3.3235163700000001
 18.4362201900000002 11.7133455600000005  5.2077519900000002
 16.4079980899999995 13.5176571100000000  6.5449002299999997
 15.5640265200000005 15.3186090000000004  8.6577820400000007
 13.5933953400000007 17.1940416899999988 10.4458328399999996
 11.9710373499999996 18.5510932199999985 11.7548322899999995
 10.0228653800000007 20.3404661500000010 13.5993405700000007
  8.1085020100000005  1.9229424900000001 14.8798989699999993
  8.2977519399999995  1.5302908500000001 18.2972436999999992
  7.0177035800000001  2.9801015600000000 -0.0803616500000000
  5.4813002099999997  4.9900168499999999  1.4371736100000001
  3.4180703399999999  6.9209444299999996  3.2963887199999999
  1.9234871200000001  8.4906789499999995  5.5108110100000003
  0.0794816500000000 10.2389745300000001  6.4316503599999999
 18.4854024499999987 11.7189628799999994  8.1504851600000006
 16.8755654100000001 12.9915662600000008 10.0339806899999999
 15.4607200599999999 15.2644161700000005 11.8643426200000004
 13.6214018800000005 16.7279271399999985 13.5504096599999997
 11.6095801900000009 18.7419566300000007 15.4827988600000008
  9.5846260399999998 -0.0804391000000000 17.0240717500000009
  9.6673080599999999  0.4023325800000000  0.1632069800000000
  8.4234457000000003  1.7263915599999999  2.2339109599999998
  6.8420128599999996  3.6252523999999999  3.3425459200000001
  5.5102503299999999  5.2412241300000000  5.0853903599999999
  3.4291991099999999  6.7345123200000003  7.0915659499999997
  1.4940986700000001  8.4371820799999995  8.3915189300000002
 -0.5097266300000000 10.2499055299999995 10.2564910400000002
 18.4755870599999987 12.0915008999999998 11.8539272600000007
 17.0975568200000012 13.6976311600000002 13.8336253899999999
 15.3631004000000004 15.3450462299999995 15.1815749100000001
 13.0443100699999999 16.7410896800000017 16.6912130400000009
 11.8670403600000007 18.6033531600000011 18.5713303900000000
 11.9459617599999994 18.1247957000000000  1.7642918700000001
 10.1535369899999992  0.0194334300000000  3.5134240900000000
  8.4890802599999997  1.7717511300000000  5.2459000199999997
  6.5702892999999998  3.3028529400000002  7.2232625800000001
  4.7457459999999996  4.8850576800000001  8.4689672199999997
  3.2263027000000002  6.5367889999999997  9.9396951999999992
  1.6059013000000000  8.0026051500000008 11.3260126200000002
  0.1252659000000000 10.5488650199999991 12.6893517199999994
 19.0283154699999990 11.8385080499999997 14.8995354599999992
 17.1183662299999995 13.7667004199999994 16.6834264400000016
 14.6733049900000001 15.1027923400000006 18.1301276700000003
 13.6091504000000008 16.8212716899999997 -0.1943283500000000
 13.4500351100000000 16.9993068600000008  3.5342321299999999
 12.0513838700000004 18.5520596399999995  5.6457961200000000
 10.1087873800000008  0.1255366300000000  6.8688025200000000
  8.6233034100000001  1.8917535100000000  8.5200470599999996
  6.7800976000000004  2.9818622700000001 10.5406129699999997
  4.8706708699999997  4.7576582099999998 11.6496346499999994
  2.9874849900000000  6.7047899099999997 13.7573253900000001
  1.3134866300000001  7.9069082999999996 14.8644394900000005
  0.1557435200000000 10.2529538200000001 17.0389314600000006
 18.4367677000000008 11.8954986799999993 18.6324285200000013
 16.4964873200000000 13.4162987699999992  0.2365653800000000
 14.4971851699999998 14.9059394199999993  1.8462070799999999
  6.7084735799999997  6.6830467400000000 13.5209284400000005
  4.9949458599999996  8.8541037700000000 14.9224235899999993
  3.0044172100000002 10.6464567100000007 16.5190447599999999
  1.9813113200000001 12.3187029999999993 18.8019857500000001
  0.0172263300000000 13.4230896200000007  0.2865702300000000
 18.6760818999999998 15.4563582900000007  1.7665434000000000
 16.5508286600000005 16.9303353500000000  3.0744328300000001
 15.3723236100000005 18.4770861900000014  5.0086747999999996
 13.5809417900000007  0.4133570600000000  7.0207588400000001
 11.7233519200000007  1.3824048400000000  8.5727916200000003
 10.2206943700000004  3.3293086500000002 10.2048223500000006
  8.3688832000000009  4.6283878700000001 11.9652393999999997
  8.1795310800000003  4.7777249099999999 15.6503104999999998
  6.6306370699999997  7.2390223899999997 16.5838781799999992
  4.5817812399999998  8.8849275300000006 17.8555351299999998
  3.4161623799999998 10.2316913300000003  0.0725229600000000
  2.4325084499999998 12.2081345599999995  1.7864456500000001
  0.0631123200000000 13.4340635099999997  3.6173499200000001
 18.3963777600000000 15.3361912799999995  4.7971976600000001
 16.7598239599999985 16.8155066899999994  6.1955622100000003
 15.3656892200000001 18.2692069900000007  8.3057987200000003
 13.8129447600000006 -0.1330303400000000 10.2643004100000006
 11.8202027199999993  1.1814516600000000 12.0298786599999996
 10.0866536700000005  3.1332325700000001 13.3384749599999992
  9.8310486699999995  3.2678324500000002 16.9852799499999989
  8.1326820800000004  5.5360614100000003 18.2224043000000009
  6.7414573300000002  7.4450909799999998 -0.1993112800000000
  5.3550731400000000  8.6390712799999996  1.7252692300000001
  3.6083917099999998  9.9554249899999991  3.6928746700000001
  1.8714957200000000 12.1805419199999996  5.2058204500000000
 -0.4386525800000000 13.6328474400000008  6.3926405800000001
 18.4065921000000010 14.9135943100000006  7.8408446500000002
 17.3277020800000017 17.0757224799999996  9.8411736100000002
 15.3425281299999998 18.4531640800000005 12.1503769699999999
 13.4653589700000005  0.1191501700000000 13.7446613000000006
 11.3771588000000001  1.6692246900000001 15.5473281100000005
 11.6011080300000007  1.6035813200000000 18.3683502099999991
  9.3211617699999998  3.6763388600000000 -0.1350140700000000
  8.4666198900000005  5.6582618900000003  1.4348621399999999
  7.2128197700000003  6.8570304200000001  3.5770233500000002
  5.0847715899999999  8.5368307899999998  5.2091637899999998
  3.5511602500000001 10.7218379099999996  6.9063924800000001
  1.2043266900000000 11.7786361599999996  8.5140725400000008
 -0.3387684500000000 13.7165414200000004  9.8456110700000004
 17.9915708899999984 15.3111175100000008 11.6487309200000002
 16.9596370199999988 17.1111386900000007 13.4469580499999992
 15.2191338999999992 18.3041511600000000 15.1893240100000000
 13.6121208300000003  0.1332294200000000 17.1943059500000004
 13.3810694500000000  0.1934783500000000  0.2280482300000000
 11.1817936200000005  1.7126531500000000  1.9188888200000001
  9.9260560499999997  3.6325658299999999  3.4148786300000000
  8.4457910500000004  4.9496209300000000  5.3259491299999997
  6.8597385600000003  6.6963560500000003  6.8222186499999999
  5.1969822299999997  8.2864969500000001  8.3601769400000006
  3.4842027400000002 10.4958434000000000 10.2195189099999997
  1.4424850300000001 11.9063421799999993 11.2311146799999992
  0.1777778500000000 13.7834097700000004 13.4134531900000002
 18.8211995200000004 15.3914199299999996 14.7987959000000000
 17.1417704200000003 16.7780645300000018 17.2639794799999997
 15.0315149500000000 18.5084570399999997 18.5687926499999989
 14.8577226800000002 18.5069584800000015  1.5408073600000001
 13.4353861999999999  0.3206972300000000  3.4522368900000000
 11.6689197999999994  2.1949911700000002  5.2921260800000001
 10.1201027400000001  3.7676295600000000  7.0660626400000002
  8.2345598599999992  5.1297829600000000  8.2684299400000008
  6.9681983199999999  6.7378239500000001 10.2181723299999998
  4.8954393300000003  8.3789326200000005 11.8666451899999998
  2.9412456599999999 10.4110367900000007 13.2128343800000003
  1.0749335300000000 11.9850080499999994 14.5505665299999993
  0.1531217000000000 13.5795693499999999 16.8598627900000011
 18.4851238000000002 14.9487786499999995 18.6149059299999990
 16.1844305300000002 16.4110797700000006  0.1215971000000000
  8.7629005600000003  8.2092725499999997 11.5896957700000005
  6.4740334300000004  9.8805124699999993 13.0279715399999994
  5.1482346600000000 12.1633703799999999 14.6976872000000007
  3.0802050300000001 13.3106279000000001 16.2868369999999985
  1.7998198200000000 15.1157181900000008 18.5042984600000011
  0.1344916800000000 17.1442295700000003  0.3425487600000000
 18.0949778300000013 18.3086666899999990  1.7120290100000000
 16.2183166700000001 20.5067398999999995  2.7967387800000001
 14.7508326099999998  2.0812807000000002  4.8436928999999997
 13.5209512899999993  3.5784250000000002  7.1086249500000003
 11.6955013000000001  5.3078377000000003  8.8277186499999996
 10.0302979400000005  6.5736402199999997 10.3761166599999992
  9.8059598999999995  6.4570149399999996 13.2325783200000000
  8.0874152899999991  8.6199610900000003 15.0055394900000003
  6.5672635200000000 10.2267515400000004 16.8010854999999992
  4.7212991999999998 12.5519026100000008 18.3335840700000006
  3.5157617700000001 13.8222924500000008  0.1042677800000000
  1.8532801800000001 15.4751283500000003  1.9674918500000000
  0.0013372100000000 17.1159658599999993  3.7508509200000000
 18.1203722999999997 18.7544413100000007  4.8812489599999997
 16.4839138600000013 20.4064702400000009  6.6539139199999999
 15.2934428800000006  1.7884470500000000  8.9308780300000006
 13.5170153200000005  3.4147081600000000 10.5752323199999996
 11.6773983500000007  4.7572051499999999 12.0332083300000008
 11.4472305999999993  4.7195573499999997 15.1480849000000006
  9.9558475400000006  6.8664768100000000 16.4577991300000015
  8.2457068699999994  8.2632369200000007 18.4189575000000012
  6.2705355100000002 10.4814345200000005 -0.5680754000000000
  4.8709237600000002 12.0045483900000001  2.0345910500000000
  3.3872282899999999 14.1145596500000003  3.4372632599999999
  1.3952938100000001 15.1450883300000001  5.2456077099999998
 -0.2598507200000000 17.2528711799999996  6.5258396400000001
 18.2603034999999991 19.0428763299999986  8.5678595600000005
 16.9065050200000009 -0.1901824100000000 10.4424506000000008
 15.6570730699999991  2.0242788200000001 12.3215792999999998
 13.4061914200000007  3.0706362500000002 13.7352404499999992
 13.3613798300000006  3.2315455200000001 17.3074546900000001
 11.3297571200000000  5.1883676899999998 18.1610283199999998
 10.1004765400000007  7.2529442599999996 -0.5662001800000001
  8.1750063900000001  8.6832501099999995  1.1716974499999999
  6.5849902900000004 10.2328916799999998  3.4993234200000001
  5.2502500400000001 12.4118280700000003  5.1006076699999996
  3.3198770000000000 13.1418729100000000  7.4858028200000000
  1.2252234500000001 15.2998811900000007  8.5967655300000008
 -0.6964043100000000 16.6942323600000009  9.7404470500000002
 18.6049017899999996 18.3518621099999990 11.8530114399999995
 16.6642519699999987 20.2549797100000006 13.3952842299999997
 15.1835352900000000  1.3295989800000001 15.4941991800000007
 15.0670660699999992  1.3501826100000001 18.6520694800000015
 12.9110150099999998  3.3138315299999999  0.0912142600000000
 11.5169552700000004  5.3041523499999998  1.1108520600000000
 10.0388031600000005  7.2067271399999999  3.6146583900000002
  8.1669958299999994  9.0146678999999992  5.2636056199999999
  6.2296951700000003 10.4796705299999999  6.5990748000000004
  5.2058093100000002 11.9308701100000008  8.7573239199999993
  3.3875612400000001 13.7546073100000008 10.0246269699999999
  1.8815002700000001 15.1492936700000005 11.5505355499999993
 -0.0486853000000000 16.5943710300000014 13.7123243899999991
 18.2138473599999990 18.1578809800000016 15.4973036499999992
 16.6849309999999988 20.0347777399999991 16.9788343899999994
 16.6535036100000013  0.1448262400000000  0.0696805300000000
 14.7718032800000003  2.2782942199999998  1.6577755000000001
 13.1748718599999997  4.0309605900000003  3.2721735700000001
 11.6595797999999995  5.2211960700000004  5.2721134699999999
  9.8611332800000007  6.9611797199999996  6.4768508200000001
  7.7779024500000000  8.4555429499999999  8.5931873499999991
  7.0059199200000002 10.2728338000000008 10.3023419999999994
  4.9423409600000001 11.7265947500000003 11.7189707999999992
  3.4630762900000001 13.0756736799999995 12.9628437000000005
  2.2607591199999999 15.0993184100000004 14.8417272199999992
 -0.2937714500000000 16.5232272999999985 16.9619157300000012
 18.3700814600000015 18.2177744799999992 18.7976706799999995
