Li                                      
   1.00000000000000     
    20.6400000000000006    0.0000000000000000    0.0000000000000000
     0.0000000000000000   20.6400000000000006    0.0000000000000000
     0.0000000000000000    0.0000000000000000   20.6400000000000006
   Li
   432
Direct
  0.9998816928294545  0.9790942000969025  0.0066844554263596
  0.9531287766472900  0.0632432412790678  0.1004162562984519
  0.8631082848837224  0.1588994946705427  0.1497508948643400
  0.7740628192829462  0.2506184229651183  0.2568567185077484
  0.6492204195736448  0.3143506288759710  0.3172710421511624
  0.5958725242248093  0.4016803507751945  0.4203164282945764
  0.4978673333333319  0.4972763919573637  0.4694259486434120
  0.4269081637596912  0.5946380494186059  0.5689617252906984
  0.3388853057170564  0.6808315406976746  0.6832989641472835
  0.2420445276162795  0.7407901516472890  0.7379655644379852
  0.1606034966085303  0.8338673338178282  0.8216676618217065
  0.0636712403100788  0.9169831860465081  0.8916014069767471
  0.0674066434108553  0.9129569123061998  0.0818482529069797
  0.0138505285852730  0.0006985944767450  0.1711397470930223
  0.9512151429263582  0.0888111046511639  0.2586409563953467
  0.8695244578488399  0.1642556041666694  0.3406280101744201
  0.7654346540697645  0.2632378052325564  0.4351311080426328
  0.6759331235465140  0.3336750615310109  0.5214323687015536
  0.5879742233527168  0.4342792010658911  0.5963788590116295
  0.4918656506782924  0.5107420125969000  0.6366701162790704
  0.4105482180232585  0.5398357742248052  0.7428084341085253
  0.3374201395348848  0.6533412582364306  0.8138163401162757
  0.2610547441860476  0.7699594360465127  0.9047007955426380
  0.1726010697674454  0.8569682034883712  0.9729490431201526
  0.1329311729651153  0.8581468948643405  0.1776305872093005
  0.0577295518410850  0.9286843488372085  0.2564397722868250
  0.0109030125968985  0.0266962131782975  0.3592696206395374
  0.9164518168604658  0.1074398701550408  0.4172792068798472
  0.8277902262596868  0.1769287887596889  0.5160508425387604
  0.7524904573643383  0.2449677446705394  0.5930448788759719
  0.6910475072674416  0.3529384447674389  0.6519060746124055
  0.5986333459302315  0.4275502151162769  0.7490425721899214
  0.5162303614341113  0.4865209602713207  0.8326523464147257
  0.4333321952519356  0.5684630082364350  0.9225620310077502
  0.3028396298449607  0.6789922785852696  0.9795420731589175
  0.2127720983527155  0.7917896090116301  0.0646403057170559
  0.2492134607558114  0.7806785799418634  0.2480416153100791
  0.1290443129844974  0.8226328827519396  0.3389773265503848
  0.0599087688953475  0.9318997931201523  0.4318075717054271
  0.9862127146317832  0.0216718905038746  0.5009767732558146
  0.9228384103682146  0.1062906976744173  0.5615064922480641
  0.8390041918604680  0.1690577063953498  0.6733813561046489
  0.7542331279069785  0.2584593328488367  0.7420934341085257
  0.6825152969961223  0.3412806584302359  0.8557937800387592
  0.5756304975775208  0.4221016710271286  0.9010954006782939
  0.5032270387596895  0.4807235683139552  0.0197007529069779
  0.4199180697674407  0.5902984801356581  0.0582844520348829
  0.3265785033914739  0.6845175314922471  0.1421091361434108
  0.3346933856589160  0.6615909394379855  0.3197990813953453
  0.2544216429263599  0.7651175663759702  0.4099407296511615
  0.1647959103682197  0.8152706119186064  0.4995319297480592
  0.0817914559108530  0.9262546690891469  0.5771377969961264
  0.9618678459302359  0.9990413527131778  0.6688807519379836
  0.9354400474806184  0.0846734016472865  0.7722073817829482
  0.8242270857558154  0.1184500518410871  0.8350830978682140
  0.7844437756782980  0.2396960402131754  0.9153424345930219
  0.6520299544573618  0.3069202151162784  0.9927097761627905
  0.6039657650193817  0.4012872679263566  0.1023275610465149
  0.5013080218023234  0.5025296870155032  0.1824411962209282
  0.4013231792635636  0.5689715968992246  0.2344261749030991
  0.4079531419573641  0.5974877718023279  0.3731681879844970
  0.3412942548449607  0.6743778997092988  0.5068680048449608
  0.2185520184108540  0.7463284215116275  0.5954991860465100
  0.1280323304263575  0.8464457199612383  0.6822732010658896
  0.0674952393410848  0.9399151763565925  0.7495366036821736
  0.9754885770348807  0.9911357567829455  0.8279264748062047
  0.9133442073643394  0.0626266787790684  0.9264396686046510
  0.8192630411821682  0.1353646991279049  0.9915890281007762
  0.7722430649224776  0.2602853406007739  0.0854490426356591
  0.6987074806201576  0.3235780285852741  0.1868146942829441
  0.6008653871123997  0.4086436593992246  0.2422443008720947
  0.5018738585271336  0.4828753653100790  0.3308027039728714
  0.0704961603682150  0.0791608449612369  0.9166282286821712
  0.0120700067829489  0.1625088008720965  0.9851780581395317
  0.9260740116279038  0.2448539694767433  0.0507418977713172
  0.8479786434108547  0.3293617543604626  0.1621337722868219
  0.7564864229651178  0.4265734200581406  0.2452215886627940
  0.6666433808139516  0.5242988425387622  0.3257206705426370
  0.5544834689922453  0.5997910591085258  0.4141035663759709
  0.4882265416666698  0.6713471739341088  0.4947453943798479
  0.4134300043604640  0.7619524181201527  0.5868074956395333
  0.3188424462209269  0.8327591715116256  0.6623973173449613
  0.2240899685077551  0.9343153803294584  0.7770688178294591
  0.1526358890503872  0.0243490397286834  0.8252786041666695
  0.1376121385658919  0.0079638909883712  0.0021470915697677
  0.0747236002906959  0.0763480285852722  0.0692609093992260
  0.0256836259689948  0.1763825755813926  0.1676268483527110
  0.9231325721899211  0.2425218997093026  0.2479707252906991
  0.8334355406976712  0.3255171046511620  0.3422116332364311
  0.7285189912790671  0.4248450639534909  0.4101410285852722
  0.6660916899224816  0.5316483783914734  0.4919384224806223
  0.6003511230620120  0.5873905208333312  0.5910342010658880
  0.4943783934108552  0.6587559622093053  0.6507318740310097
  0.4127229060077511  0.7461453725775158  0.7451429491279100
  0.3485713696705446  0.8380002688953496  0.8518659840116243
  0.2544716458333340  0.9374259273255845  0.8905327679263593
  0.2333453149224809  0.9085169781976745  0.0498684428294567
  0.1759096603682195  0.9906226201550368  0.1837220809108544
  0.1056465426356610  0.1109963144379833  0.2423253531976712
  0.0087674462209293  0.1488034946705454  0.3374933459302341
  0.9242079239341052  0.2584658357558141  0.4349639379844987
  0.8173442776162787  0.3536869806201537  0.5118973328488394
  0.7497797378876001  0.4433163585271345  0.5642542160852742
  0.6807303958333364  0.5130372853682204  0.6850435116279101
  0.5670315062984486  0.5999345092054256  0.7351076361434110
  0.4846625377906975  0.6545358192829482  0.8208139946705444
  0.4181908672480645  0.7257720358527138  0.9028879069767441
  0.3533772204457364  0.8272502277131792  0.9618155973837190
  0.3171861240310108  0.8418363716085295  0.1273997553294564
  0.2485004379844966  0.9069679815891476  0.2832763003875982
  0.1435013561046503  0.0294870125969027  0.3779664917635657
  0.0996899801356577  0.1182929384689899  0.4206963032945765
  0.0100927301356606  0.1899176947674448  0.5120691879844941
  0.8943146409883695  0.2720238488372075  0.5874191637596908
  0.8259354060077513  0.3609305237403078  0.6566887538759687
  0.7376550397286792  0.4282074646317824  0.7718052422480639
  0.6523693929263601  0.5085315033914739  0.8418864738372065
  0.5576194350775197  0.5798082364341113  0.9164673066860445
  0.5194847044573621  0.6576647223837213  0.9904327916666631
  0.4246203498062044  0.7552936729651165  0.0790093367248090
  0.3922675581395367  0.7600829612403075  0.2325434685077497
  0.3410533483527161  0.8554643754844946  0.3482662354651183
  0.2310487592054287  0.9446102480620127  0.4329358527131788
  0.1530840489341116  0.0126140852713164  0.4971179447674388
  0.0634114215116313  0.0696187480620125  0.5756963541666664
  0.9831509219961205  0.1752135620155073  0.6483655600775222
  0.8942240862403068  0.2464644534883718  0.7432330353682204
  0.8291637398255816  0.3233616346899240  0.8222534622093036
  0.7359828774224795  0.4305770968992277  0.9333151182170525
  0.6619399060077527  0.4909110954457390  0.9919875218023222
  0.5946965305232581  0.5679192810077538  0.0901662848837219
  0.4765858246123997  0.6476618091085271  0.1874586036821739
  0.4592379476744171  0.6919298410852690  0.3367180591085273
  0.4046673696705412  0.7673681991279082  0.4346638706395325
  0.3196318624030994  0.8533295242248045  0.5336273357558170
  0.2145519287790663  0.9095539510658881  0.5898193197674431
  0.1457075712209317  0.0294358280038765  0.6795878948643406
  0.0656147601744195  0.1124788478682177  0.7566504767441842
  0.9830811109496125  0.1709275111434110  0.8365522911821728
  0.9048245130813939  0.2394746182170522  0.9152031308139499
  0.8386576661821721  0.3194315203488358  0.0056471405038749
  0.7324683173449600  0.4157753832364364  0.0927205329457337
  0.6641487911821713  0.5109411768410865  0.2017333740310079
  0.5615139520348862  0.6140729433139569  0.2693074210271291
  0.1600777737403121  0.1638122519379834  0.8313672621124013
  0.0770469612403133  0.2383896511627910  0.9062651656976755
  0.9946162441860480  0.3048653624030990  0.9970032519379828
  0.9468594394379863  0.3945254011627881  0.0800715043604683
  0.8413729578488400  0.4911832858527134  0.1483684239341088
  0.7692215266472857  0.5852367238372125  0.2650878851744167
  0.6437244811046483  0.6886046603682203  0.3074381623061981
  0.5539576569767419  0.7628381773255839  0.3976050949612429
  0.4881020663759656  0.8376299815891457  0.5054797858527138
  0.4104011288759679  0.8973871279069741  0.5811094374999968
  0.3077522621124018  0.0103406031976760  0.6834529408914705
  0.2282413173449598  0.0932998754844974  0.7588594844961207
  0.2468279563953502  0.0786181031976767  0.9264700174418579
  0.1511301085271342  0.1699049127906989  0.9985331492248051
  0.0896345106589180  0.2403089559108551  0.0827825750968998
  0.9974685629844942  0.2828079137596902  0.1684719132751908
  0.9160589215116275  0.4189265062984475  0.2492126216085282
  0.8483135881782928  0.5065283909883718  0.3457146463178304
  0.7399592955426328  0.6236948531976765  0.4250879006782924
  0.6400576526162780  0.6896927621124007  0.4963158187984504
  0.6018242514534862  0.7392337843992252  0.6114981724806228
  0.4959506899224806  0.8260448498062019  0.6639672485465127
  0.4194589467054257  0.9319049428294548  0.7398436962209303
  0.3417904123062030  0.0099129195736438  0.8405400377906957
  0.3492975290697657  0.9882591283914763  0.0062346448643424
  0.2286673633720895  0.0707416240310081  0.0685311380813971
  0.1852354966085272  0.1870312054263579  0.1564071690891495
  0.0986083590116280  0.2334845581395371  0.2674806414728650
  0.9877759922480607  0.3327704307170549  0.3242665431201530
  0.9309231836240315  0.3988781419573613  0.4142250392441866
  0.8386696472868209  0.4997978871124005  0.4451643735465112
  0.7571077141472884  0.5637065387596891  0.5667426409883731
  0.6940899321705416  0.6416624849806212  0.6870429975775210
  0.5685951531007731  0.7402573871124005  0.7477565576550376
  0.5061173105620185  0.8228656535852679  0.8318647025193826
  0.4565426017441894  0.9174284622093012  0.9113836472868186
  0.4142238720930251  0.9184344689922455  0.0834364355620139
  0.3144171792635646  0.0084751191860448  0.1298975843023271
  0.2559860484496141  0.1081514970930257  0.2608300411821673
  0.1744848725775228  0.1873905247093006  0.3599027635658913
  0.0603378687015521  0.2661280310077530  0.4110207141472841
  0.0109955285852692  0.3414694500969020  0.4977427596899204
  0.9199045765503868  0.4245414433139558  0.5770463483527166
  0.8477849031007736  0.4785465605620161  0.6754441046511630
  0.7612545775193809  0.5633672533914762  0.7699952819767475
  0.6536801264534873  0.6462946821705415  0.8316280465116250
  0.5895964718992275  0.7453300203488382  0.9033324951550412
  0.4863962848837176  0.8266399937015478  0.0048555702519408
  0.5066052999031001  0.8475309680232570  0.1622866797480640
  0.3903511274224840  0.9287958938953480  0.2363379636627911
  0.3233118672480586  0.9964305247093037  0.3144136157945709
  0.2752524035852701  0.1008350784883731  0.4231480973837236
  0.1539134762596888  0.1540189835271306  0.4893606681201561
  0.0952415872093013  0.2474913885658907  0.6107851874999994
  0.9863572466085273  0.3179278391472877  0.6438506477713162
  0.9371217141472883  0.3986140654069743  0.7315945334302327
  0.8583849593023274  0.4795918260658922  0.8509067383720961
  0.7462855503875971  0.5660662776162795  0.9063914321705440
  0.6628684384689905  0.6692631962209319  0.9949028851744188
  0.5667668614341110  0.7511022059108541  0.0796576879844935
  0.5736061002906965  0.7550186797480620  0.2267771724806167
  0.4833493236434094  0.8409393507751943  0.3230796967054275
  0.3924995741279105  0.9282509825581400  0.4212492524224771
  0.3494335130813937  0.0122207063953468  0.5144600242248032
  0.2341844772286805  0.0853910324612386  0.5904175237403066
  0.1445427156007781  0.1588770188953461  0.6644431167635645
  0.0695574423449585  0.2428604156976775  0.7414849413759725
  0.0048832209302319  0.3112578260658907  0.8305081569767410
  0.9156581593992215  0.3983603725775211  0.9020717470930251
  0.8256889016472897  0.4769269249031041  0.9947296623061987
  0.7733758711240313  0.5909907688953524  0.0918719360465090
  0.6768864253875932  0.6736893333333356  0.1645240392441849
  0.2590513037790672  0.2712341787790677  0.7264605295542665
  0.1398893280038749  0.3302300053294545  0.8410536928294547
  0.0782498590116276  0.4074655954457356  0.9136524680232583
  0.0176987243217042  0.4663045188953490  0.9972222141472855
  0.9293150450581393  0.5540185145348815  0.0853371991279062
  0.8460391526162780  0.6639964927325579  0.1699273086240325
  0.7660369704457395  0.7623599253875994  0.2643578599806204
  0.6603686855620126  0.8316609035852736  0.3497573808139549
  0.5764062519379820  0.9390111269379844  0.4287570847868238
  0.5064090494186075  0.0051272311046517  0.5158964476744217
  0.4168447015503887  0.0726128449612418  0.6126264767441825
  0.3257444874030995  0.1540529631782945  0.6653591724806205
  0.3281031400193797  0.1520467015503897  0.8382583212209269
  0.2583845319767448  0.2104709622092997  0.8977430499030987
  0.1704863565891443  0.3085755823643410  0.9697807441860462
  0.0999759190891467  0.3767112514534858  0.0816023527131762
  0.0275966308139530  0.4791255014534883  0.1773473759689921
  0.8970329113372060  0.5904193730620122  0.2372722819767432
  0.8505812674418607  0.6715080082364366  0.3488150838178328
  0.7547749263565890  0.7691360809108545  0.4255377911821725
  0.6355050508720907  0.8502076337209274  0.5192098435077526
  0.5738155697674401  0.9112749607558115  0.5957142524224821
  0.5014944064922489  0.0149343498062038  0.6602122189922497
  0.4091355857558128  0.1048817441860450  0.7362960557170553
  0.4539313299418595  0.0936432635658946  0.8917516099806164
  0.3575185755813948  0.1444054937015480  0.0040192034883688
  0.2546183759689953  0.2524411356589127  0.0738320348837220
  0.1761362296511635  0.3181937141472844  0.1936459190891497
  0.0719916574612398  0.4097630552325597  0.2592464781976744
  0.0007578202519412  0.4957597175387605  0.3240438144379851
  0.9546843062015498  0.5908111361434081  0.4207476254844948
  0.8547056472868206  0.6658883541666683  0.4888272281976711
  0.7418215004844981  0.7336929951550388  0.5659186700581387
  0.6645843987403097  0.8249752364341063  0.6690346937984515
  0.5690759365310072  0.9357947446705452  0.7133761564922452
  0.5286758265503906  0.0241124515503870  0.8217667984496160
  0.5303275489341104  0.9932852771317826  0.0121052354651141
  0.4189328381782929  0.0774380939922494  0.0804656283914724
  0.3340207703488360  0.1681066492248036  0.1331173066860458
  0.2817284418604658  0.2354797504844939  0.2527352088178318
  0.1794103018410880  0.3414621128875979  0.3195612354651161
  0.0805681128875975  0.3954293207364330  0.4192269777131798
  0.9943044118217088  0.5053702790697656  0.4965825373062032
  0.9123868062015532  0.5861140746124036  0.5683020780038746
  0.8272073318798476  0.6580552722868234  0.6741309437984526
  0.7674229244186037  0.7264750930232537  0.7585191085271319
  0.6609223735465122  0.8410888187984469  0.8177773275193800
  0.5784302906976748  0.8925645169573642  0.9132637315891472
  0.5963530920542652  0.9087427364341067  0.0877818590116277
  0.5003911739341049  0.0060451196705458  0.1784763507751919
  0.4041861119186052  0.0722988691860493  0.2285920087209306
  0.3618245004844951  0.1722817877906948  0.3529111739341104
  0.2623166996124056  0.2448095925387577  0.4213510469961221
  0.1731099689922502  0.3197456802325576  0.5048369525193763
  0.0853336889534901  0.4219340542635663  0.5897697267441870
  0.9926664253875970  0.4851891986434111  0.6715715295542637
  0.8948540910852714  0.5662293846899189  0.7475772480620151
  0.8446631535852731  0.6553117214147264  0.8591863682170526
  0.7554349840116288  0.7661126821705437  0.9182941027131761
  0.6800488376937963  0.8294084878875978  0.0117791942829442
  0.6753333105620172  0.8005586593992220  0.1513318837209283
  0.5908007674418627  0.9056731918604655  0.2838173580426329
  0.4779163139534859  0.9962754864341079  0.3352415261627897
  0.4049024186046495  0.0781249912790685  0.4240727800387631
  0.3272164505813961  0.1865749069767446  0.5146593919573661
  0.2413176608527152  0.2331084457364341  0.6030738459302327
  0.1697833987403072  0.3326415581395352  0.6696241409883754
  0.0605487572674406  0.4090261429263577  0.7638152238372058
  0.9571417945736442  0.5060205760658931  0.8372903657945727
  0.9325342218992247  0.5813132819767475  0.9409802616279066
  0.8127485566860457  0.6570109379844951  0.0040900174418610
  0.7837179147286832  0.7559548158914708  0.0651674646317844
  0.3511510843023231  0.3472972732558119  0.6778227533914745
  0.2210252519379878  0.4051221264534917  0.7458785116279074
  0.1467807582364316  0.5075600862403107  0.8518947790697666
  0.0659551724806207  0.5740276182170518  0.9373630043604635
  0.0286702025193790  0.6548415329457384  0.0068245184108520
  0.9046654006782973  0.7364912979651166  0.0875987524224797
  0.8409751211240319  0.8397169656007719  0.1639791506782942
  0.7651370993217057  0.9054539050387618  0.2523984060077495
  0.6791508711240297  0.9967319413759697  0.3209919374999970
  0.5917689253875977  0.0901796414728651  0.4339446753875933
  0.4979430033914696  0.1628143231589121  0.4973520314922482
  0.4174680397286821  0.2497047291666661  0.6063084321705432
  0.4075688653100755  0.2320392170542647  0.7362656051356566
  0.3252022814922455  0.3367443100775205  0.8586304859496110
  0.2251607984496147  0.4238599273255801  0.9197764757751941
  0.1594115469961253  0.5078947674418615  0.0055710634689916
  0.0881638846899193  0.5964316807170533  0.1096032218992278
  0.0041450852713183  0.6684400838178277  0.1583227577519395
  0.9220069137596880  0.7741415387596930  0.2504570886627917
  0.8510711342054265  0.8528788934108533  0.3522626569767411
  0.7479032500000002  0.9323448672480623  0.4373812839147320
  0.6664007374031016  0.0191006371124018  0.5098334563953486
  0.5960268696705455  0.0915901579457383  0.5887276749030974
  0.5103035406976772  0.1585403488372066  0.6795504394379819
  0.5238351002906967  0.1649882834302332  0.7946787165697700
  0.4178974331395366  0.2431312722868242  0.9012240358527137
  0.3260914161821731  0.3199636177325615  0.9787493343023286
  0.2500048357558171  0.3724927049418625  0.0983830828488337
  0.1846002364341075  0.5117968454457369  0.1743018580426323
  0.0794092902131780  0.5908394583333347  0.2472358207364351
  0.9708102834302323  0.6646995813953467  0.3313561288759672
  0.9275384685077483  0.7555874898255794  0.4102175387596887
  0.8391780096899240  0.8298980499031003  0.4811049869186022
  0.7722809297480637  0.9123271191860454  0.5696241569767437
  0.7132652325581361  0.0017570562015479  0.6406792810077491
  0.5982078687015502  0.0767363997093042  0.7129758522286807
  0.5857803856589143  0.0943005474806213  0.9278329859496139
  0.5016858512596869  0.1637339011627930  0.9991313241279087
  0.4181900983527100  0.2487989491279095  0.0776782005813956
  0.3733322470930247  0.3136409481589126  0.1798789937015499
  0.2313387548449626  0.4165556230620169  0.2452507926356589
  0.2045074292635647  0.5124692296511597  0.3516222698643432
  0.0927282979651167  0.5989790237403128  0.3991564554263576
  0.0079372756782945  0.6764140591085237  0.5109182427325578
  0.8973966874999988  0.7461500673449635  0.5758119045542642
  0.8292967354651140  0.8329872524224839  0.6801698546511616
  0.7622625155038776  0.9179629869186030  0.7452473730620142
  0.6354347722868212  0.0029008953488372  0.8294001448643442
  0.6456013464147290  0.9981927979651175  0.0075123643410819
  0.5665812868217088  0.1000840542635686  0.0797963280038729
  0.4898403435077512  0.1563399394379843  0.1711778454457331
  0.4237313987403084  0.2412268851744201  0.2684539205426333
  0.3311019966085240  0.3176778716085238  0.3289827262596887
  0.2646924161821715  0.3826371560077533  0.4331566952519381
  0.1645857340116308  0.5109285494186082  0.5036968464147265
  0.0742401928294569  0.5847408982558164  0.5757853464147260
  0.9958795959302336  0.6580376899224802  0.6620380373062034
  0.9112432378875965  0.7455320687984468  0.7475795605620164
  0.8173040571705457  0.8124119825581388  0.8626358275193766
  0.7228495901162759  0.9244374098837227  0.8895232359496106
  0.7533425625000021  0.9032319093992243  0.1026372509689892
  0.6656079467054283  0.0175008318798433  0.1622139593023277
  0.5783385290697680  0.0758901608527154  0.2728686056201539
  0.5074450552325587  0.1653709743217036  0.3321030586240283
  0.4175284147286789  0.2662804433139527  0.4265971860465143
  0.3594579815891450  0.3030852461240343  0.5280999510658901
  0.2583937635658913  0.4164707601744198  0.5666737751937987
  0.1425980087209311  0.5111817567829462  0.6764777383720926
  0.0537026778100795  0.5767570799418635  0.7749235886627872
  0.9677659825581415  0.6723940930232573  0.8590973265503905
  0.9082935673449626  0.7378222926356557  0.9172651889534862
  0.8335530314922508  0.8561381085271336  0.0125603420542646
  0.4157072451550405  0.4156866555232526  0.5595401177325598
  0.3093589694767473  0.4924376918604665  0.6451934389534912
  0.2424195634689923  0.5797156874999985  0.7542799970930218
  0.1720668924418618  0.6370915494186065  0.8304863924418626
  0.1155192030038776  0.7520579467054276  0.9047654525193778
  0.0230296962209309  0.8048017969961236  0.9979422393410857
  0.9441786807170516  0.8934650494186016  0.0652993585271346
  0.8539227727713197  0.9925073391472878  0.1460911361434114
  0.7811877165697680  0.0867178250968976  0.2240176749031022
  0.7074988909883686  0.1720141957364376  0.3229277994186077
  0.6077839123062034  0.2471636264534851  0.4203661419573663
  0.5337488808139526  0.3158962950581383  0.5156528163759688
  0.5130537378875957  0.3209601637596933  0.6541150314922461
  0.4238944534883728  0.4155108071705413  0.7384899835271312
  0.3430820508720913  0.4665306933139561  0.8454917727713180
  0.2536637281976724  0.5389898977713159  0.9192022083333313
  0.1957558628875944  0.6416255334302292  0.9884564825581421
  0.0878830799418608  0.7650280789728683  0.0913221719961257
  0.9942539583333314  0.8391548972868250  0.1606066259689953
  0.9287785591085296  0.9211559350775218  0.2436546230620138
  0.8547413294573616  0.0060060707364329  0.3247000658914700
  0.7481142582364342  0.0947064297480651  0.4027562315891444
  0.6726320872093012  0.1827151250000014  0.4908194413759688
  0.5699265944767475  0.2245335222868192  0.5918465872093037
  0.6221273120155004  0.2681936831395362  0.7311227916666638
  0.4985976593992234  0.3273622771317832  0.8126818250969023
  0.4222411264534855  0.4250377252907001  0.9392097248062043
  0.3370183444767463  0.4872548774224796  0.0167281574612375
  0.2590766128875970  0.5744302974806175  0.0992399806201547
  0.1781231472868186  0.6672579917635630  0.1667974767441862
  0.0606556623062033  0.7657902456395362  0.2527736957364368
  0.9942817243217021  0.8648448309108545  0.3525960644379822
  0.9216566220930247  0.9497875072674447  0.4514836550387571
  0.8357852039728684  0.0117002940891453  0.4970629539728648
  0.7632775281007724  0.1067619089147271  0.6037183435077509
  0.6882454815891492  0.1702203018410842  0.6625642950581394
  0.6481943420542606  0.1694280348837225  0.8132024031007745
  0.5679864903100764  0.2485183086240284  0.8999930784883716
  0.4852644186046504  0.3462706501938015  0.9916582311046511
  0.4145232238372074  0.4036875876937955  0.0856507349806179
  0.3342966080426351  0.4843788551356596  0.1570837214147289
  0.2721484520348838  0.5892507969961258  0.2480472921511634
  0.1871122315891469  0.6854264341085283  0.3085797068798470
  0.0762318866279088  0.7427606342054247  0.4012568657945721
  0.0099729874031027  0.8201564156976744  0.5163443890503885
  0.9101636065891441  0.9245374975775178  0.5605756850775165
  0.8444282180232534  0.0118916438953462  0.6617879205426362
  0.7342218929263566  0.0903123561046542  0.7439093992248047
  0.7244895397286797  0.0967835552325553  0.9027449040697704
  0.6572758420542613  0.1947052335271309  0.0154032480620145
  0.5656655799418573  0.2741012635658890  0.1042245290697679
  0.4869162567829477  0.3281168938953485  0.1894326235465087
  0.4241336952519390  0.4002619641472833  0.2630511632751933
  0.3302175901162769  0.4539215547480637  0.3460104263565924
  0.2477079970930234  0.5766853929263576  0.3938758871124008
  0.1715136182170554  0.6491058178294580  0.4857875271317837
  0.0984237359496092  0.7444847248061990  0.5807316802325602
  0.9935162781007776  0.8387526419573632  0.6417761312984496
  0.9192153803294545  0.9021881128875933  0.7630992630813935
  0.8289758013565915  0.0091550634689952  0.8419323149224809
  0.8514289825581400  0.0195496942829436  0.9958066991279040
  0.7433826172480593  0.1038620343992278  0.0998251637596894
  0.6571489297480611  0.1818228425387574  0.1721295508720928
  0.5889025159883730  0.2700684534883706  0.2560527475775203
  0.4921731879844984  0.3143145242248053  0.3338773565891486
  0.4149845968992238  0.3565975896317823  0.4201915072674396
  0.3541177906976714  0.5138488231589164  0.4764100838178322
  0.2589715949612383  0.5910063575581361  0.5890039951550392
  0.1483779714147317  0.6550386962209274  0.6930511908914738
  0.0686111322674421  0.7549343221899250  0.7516635019379834
  0.0000532776162814  0.8492837388565917  0.8446847688953483
  0.9014949927325588  0.9183719752906967  0.9062588100775173
 
  0.00000000E+00  0.00000000E+00  0.00000000E+00
  0.00000000E+00  0.00000000E+00  0.00000000E+00
  0.00000000E+00  0.00000000E+00  0.00000000E+00
  0.00000000E+00  0.00000000E+00  0.00000000E+00
  0.00000000E+00  0.00000000E+00  0.00000000E+00
  0.00000000E+00  0.00000000E+00  0.00000000E+00
  0.00000000E+00  0.00000000E+00  0.00000000E+00
  0.00000000E+00  0.00000000E+00  0.00000000E+00
  0.00000000E+00  0.00000000E+00  0.00000000E+00
  0.00000000E+00  0.00000000E+00  0.00000000E+00
  0.00000000E+00  0.00000000E+00  0.00000000E+00
  0.00000000E+00  0.00000000E+00  0.00000000E+00
  0.00000000E+00  0.00000000E+00  0.00000000E+00
  0.00000000E+00  0.00000000E+00  0.00000000E+00
  0.00000000E+00  0.00000000E+00  0.00000000E+00
  0.00000000E+00  0.00000000E+00  0.00000000E+00
  0.00000000E+00  0.00000000E+00  0.00000000E+00
  0.00000000E+00  0.00000000E+00  0.00000000E+00
  0.00000000E+00  0.00000000E+00  0.00000000E+00
  0.00000000E+00  0.00000000E+00  0.00000000E+00
  0.00000000E+00  0.00000000E+00  0.00000000E+00
  0.00000000E+00  0.00000000E+00  0.00000000E+00
  0.00000000E+00  0.00000000E+00  0.00000000E+00
  0.00000000E+00  0.00000000E+00  0.00000000E+00
  0.00000000E+00  0.00000000E+00  0.00000000E+00
  0.00000000E+00  0.00000000E+00  0.00000000E+00
  0.00000000E+00  0.00000000E+00  0.00000000E+00
  0.00000000E+00  0.00000000E+00  0.00000000E+00
  0.00000000E+00  0.00000000E+00  0.00000000E+00
  0.00000000E+00  0.00000000E+00  0.00000000E+00
  0.00000000E+00  0.00000000E+00  0.00000000E+00
  0.00000000E+00  0.00000000E+00  0.00000000E+00
  0.00000000E+00  0.00000000E+00  0.00000000E+00
  0.00000000E+00  0.00000000E+00  0.00000000E+00
  0.00000000E+00  0.00000000E+00  0.00000000E+00
  0.00000000E+00  0.00000000E+00  0.00000000E+00
  0.00000000E+00  0.00000000E+00  0.00000000E+00
  0.00000000E+00  0.00000000E+00  0.00000000E+00
  0.00000000E+00  0.00000000E+00  0.00000000E+00
  0.00000000E+00  0.00000000E+00  0.00000000E+00
  0.00000000E+00  0.00000000E+00  0.00000000E+00
  0.00000000E+00  0.00000000E+00  0.00000000E+00
  0.00000000E+00  0.00000000E+00  0.00000000E+00
  0.00000000E+00  0.00000000E+00  0.00000000E+00
  0.00000000E+00  0.00000000E+00  0.00000000E+00
  0.00000000E+00  0.00000000E+00  0.00000000E+00
  0.00000000E+00  0.00000000E+00  0.00000000E+00
  0.00000000E+00  0.00000000E+00  0.00000000E+00
  0.00000000E+00  0.00000000E+00  0.00000000E+00
  0.00000000E+00  0.00000000E+00  0.00000000E+00
  0.00000000E+00  0.00000000E+00  0.00000000E+00
  0.00000000E+00  0.00000000E+00  0.00000000E+00
  0.00000000E+00  0.00000000E+00  0.00000000E+00
  0.00000000E+00  0.00000000E+00  0.00000000E+00
  0.00000000E+00  0.00000000E+00  0.00000000E+00
  0.00000000E+00  0.00000000E+00  0.00000000E+00
  0.00000000E+00  0.00000000E+00  0.00000000E+00
  0.00000000E+00  0.00000000E+00  0.00000000E+00
  0.00000000E+00  0.00000000E+00  0.00000000E+00
  0.00000000E+00  0.00000000E+00  0.00000000E+00
  0.00000000E+00  0.00000000E+00  0.00000000E+00
  0.00000000E+00  0.00000000E+00  0.00000000E+00
  0.00000000E+00  0.00000000E+00  0.00000000E+00
  0.00000000E+00  0.00000000E+00  0.00000000E+00
  0.00000000E+00  0.00000000E+00  0.00000000E+00
  0.00000000E+00  0.00000000E+00  0.00000000E+00
  0.00000000E+00  0.00000000E+00  0.00000000E+00
  0.00000000E+00  0.00000000E+00  0.00000000E+00