Li 
 1.0000000000000000
    20.6400000000000006    0.0000000000000000    0.0000000000000000
     0.0000000000000000   20.6400000000000006    0.0000000000000000
     0.0000000000000000    0.0000000000000000   20.6400000000000006
 Li 
 432
Cartesian
 -0.0024418600000000 -0.4314957100000000  0.1379671600000000
 19.6725779500000009  1.3053405000000000  2.0725915300000000
 17.8145549999999986  3.2796855699999998  3.0908584700000001
 15.9766565899999993  5.1727642500000002  5.3015226699999998
 13.3999094599999999  6.4881969799999997  6.5484743099999996
 12.2988088999999992  8.2906824399999994  8.6753310799999994
 10.2759817600000005 10.2637847299999994  9.6889515799999995
  8.8113845000000008 12.2733293400000001 11.7433700099999996
  6.9945927100000000 14.0523629999999997 14.1032906199999992
  4.9957990499999996 15.2899087300000005 15.2316092500000000
  3.3148561700000001 17.2110217699999986 16.9592205400000005
  1.3141744000000000 18.9265329599999994 18.4026530400000006
  1.3912731199999999 18.8434306700000000  1.6893479400000000
  0.2858749100000000  0.0144189900000000  3.5323243799999999
 19.6330805499999990  1.8330611999999999  5.3383493399999997
 17.9469848100000000  3.3902356700000000  7.0305621299999999
 15.7985712599999992  5.4332282999999997  8.9811060699999992
 13.9512596700000007  6.8870532700000000 10.7623640900000002
 12.1357879700000009  8.9635227099999994 12.3092596499999996
 10.1521070299999998 10.5417151400000009 13.1408711999999994
  8.4737152200000008 11.1422103799999999 15.3315660800000000
  6.9643516800000000 13.4849635699999997 16.7971692600000004
  5.3881699200000002 15.8919627600000002 18.6730244200000008
  3.5624860800000002 17.6878237200000008 -0.5583317500000000
  2.7436994100000001 17.7121519099999993  3.6662953200000001
  1.1915379500000001 19.1680449599999996  5.2929168999999998
  0.2250381800000000  0.5510098400000000  7.4153249700000003
 18.9155654999999996  2.2175589200000001  8.6126428300000004
 17.0855902700000009  3.6518101999999999 10.6512893900000005
 15.5314030400000007  5.0561342500000004 12.2404463000000003
 14.2632205499999998  7.2846495000000004 13.4553413800000001
 12.3557922599999994  8.8246364400000008 15.4602386900000006
 10.6549946599999998 10.0417926200000007 17.1859444299999993
  8.9439765100000006 11.7330764900000002 19.0416803200000011
  6.2506099600000002 14.0144006300000008 20.2177483900000006
  4.3916161100000002 16.3425375300000013  1.3341759099999999
  5.1437658300000004 16.1132058899999997  5.1195789400000002
  2.6634746200000001 16.9791427000000006  6.9964920199999998
  1.2365169899999999 19.2344117300000015  8.9125082800000008
 -0.2845695700000000  0.4473078200000000 10.3401606000000008
 19.0473847899999988  2.1938399999999998 11.5894940000000002
 17.3170465200000017  3.4893510600000002 13.8985911899999994
 15.5673717600000003  5.3346006299999997 15.3168084800000006
 14.0871157300000007  7.0440327900000002 17.6635836200000007
 11.8810134699999992  8.7121784899999994 18.5986090699999984
 10.3866060800000000  9.9221344499999997  0.4066235400000000
  8.6671089600000002 12.1837606300000001  1.2029910900000000
  6.7405803100000004 14.1284418499999997  2.9331325700000002
  6.9080714800000003 13.6552369900000006  6.6006530400000001
  5.2512627099999998 15.7920265700000009  8.4611766599999996
  3.4013875900000001 16.8271854300000001 10.3103390299999997
  1.6881756500000000 19.1178963700000004 11.9121241300000005
 -0.7870476600000000 -0.0197864800000000 13.8056987200000005
 19.3074825799999985  1.7476590100000000 15.9383603600000008
 17.0120470499999996  2.4448090699999998 17.2361151399999990
 16.1909195299999986  4.9473262699999996 18.8926678499999987
 13.4578982600000003  6.3348332400000000 -0.1504702200000000
 12.4658533899999995  8.2825692100000001  2.1120408600000000
 10.3469975699999992 10.3722127400000002  3.7655862899999999
  8.2833104199999994 11.7435737600000003  4.8385562499999999
  8.4201528499999991 12.3321476099999998  7.7021914000000002
  7.0443134199999999 13.9191598499999998 10.4617556199999999
  4.5109136599999999 15.4042186200000000 12.2911032000000002
  2.6425873000000002 17.4706396599999998 14.0821188700000004
  1.3931017400000001 19.3998492400000018 15.4704355000000007
 -0.5059157700000000 -0.1829579800000000 17.0884024399999994
 18.8514244399999988  1.2926146500000000 19.1217147599999997
 16.9095891700000003  2.7939273899999999 20.4663975399999991
 15.9390968599999994  5.3722894300000004  1.7636682400000001
 14.4213223999999993  6.6786505099999998  3.8558552900000000
 12.4018615899999993  8.4344051300000000  4.9999223700000002
 10.3586764400000000  9.9665475400000005  6.8277678100000001
  1.4550407500000000  1.6338798400000001 18.9192066399999987
  0.2491249400000000  3.3541816500000001 -0.3059248800000000
 19.1141675999999983  5.0537859300000001  1.0473127700000000
 17.5022792000000003  6.7980266100000000  3.3464410600000001
 15.6138797700000005  8.8044753900000003  5.0613735899999996
 13.7595193800000004 10.8215281099999991  6.7228746399999997
 11.4445388000000001 12.3796874599999995  8.5470976099999998
 10.0769958200000005 13.8566056700000004 10.2115449399999996
  8.5331952900000001 15.7266979100000004 12.1117067100000000
  6.5809080900000003 17.1881492999999992 13.6718806300000004
  4.6252169500000004 19.2842694500000000 16.0387003999999997
  3.1504047499999999  0.5025641800000000 17.0337503900000016
  2.8403145400000001  0.1643747100000000  0.0443159700000000
  1.5422951100000000  1.5758233100000001  1.4295451699999999
  0.5301100399999999  3.6405363600000000  3.4598181499999998
 19.0534562899999997  5.0056520100000004  5.1181157700000002
 17.2021095600000002  6.7186730399999997  7.0632481100000000
 15.0366319799999992  8.7688021200000001  8.4653108300000000
 13.7481324800000007 10.9732225299999993 10.1536090399999992
 12.3912471800000006 12.1237403500000003 12.1989459100000008
 10.2039700399999997 13.5967230600000004 13.4311058800000005
  8.5186007799999999 15.4004404899999994 15.3797504699999994
  7.1945130700000002 17.2963255499999988 17.5825139099999994
  5.2522947699999998 19.3484711400000009 18.3805963299999995
  4.8162472999999997 18.7517904299999998  1.0292846600000001
  3.6307753900000002 -0.1935491200000000  3.7920237499999998
  2.1805446399999999  2.2909639300000002  5.0015952900000000
  0.1809600900000000  3.0713041300000001  6.9658626600000000
 19.0756515499999999  5.3347348500000003  8.9776556799999998
 16.8699858899999988  7.3000992800000004 10.5655609500000001
 15.4754537899999995  9.1500496400000007 11.6462070200000003
 14.0502753699999996 10.5890895700000005 14.1392980799999997
 11.7035302899999998 12.3826482700000007 15.1726216100000002
 10.0034347799999992 13.5096193099999997 16.9416008500000004
  8.6314595000000001 14.9799348200000004 18.6356064000000003
  7.2937058300000004 17.0744447000000008 19.8518739300000000
  6.5467215999999997 17.3755027099999992  2.6295309499999999
  5.1290490399999999 18.7198191399999985  5.8468228399999997
  2.9618679900000000  0.6086119400000000  7.8012283900000003
  2.0576011900000002  2.4415662500000002  8.6831717000000008
  0.2083139500000000  3.9199012199999999 10.5691080399999997
 18.4586541900000007  5.6145722400000002 12.1243315400000000
 17.0473067799999995  7.4496060100000001 13.5540558799999999
 15.2252000200000008  8.8382020699999995 15.9300601999999998
 13.4649042699999999 10.4960902300000001 17.3765368199999983
 11.5092651400000001 11.9672420000000006 18.9158852099999990
 10.7221642999999993 13.5741998699999993 20.4425328200000003
  8.7641640200000008 15.5892614100000007  1.6307527100000001
  8.0964024000000006 15.6881123200000001  4.7996971899999998
  7.0393411099999996 17.6567847100000002  7.1882150999999999
  4.7688463900000002 19.4967555200000007  8.9357959999999999
  3.1596547699999999  0.2603547200000000 10.2605143800000000
  1.3088117399999999  1.4369309600000000 11.8823727500000000
 -0.3477649700000000  3.6164079199999999 13.3822651599999993
 18.4567851400000009  5.0870263199999997 15.3403298499999998
 17.1139395900000011  6.6741841400000004 16.9713114599999990
 15.1906865900000003  8.8871112799999992 19.2636240399999998
 13.6624396600000004 10.1324050099999994 20.4746224499999983
 12.2745363899999997 11.7218539600000007  1.8610321200000000
  9.8367314199999996 13.3677397399999993  3.8691455800000001
  9.4786712400000006 14.2814319199999993  6.9498607400000001
  8.3523345100000004 15.8384796300000001  8.9714622899999998
  6.5972016399999998 17.6127213800000000 11.0140682099999996
  4.4283518099999997 18.7731935499999985 12.1738707599999998
  3.0074042699999999  0.6075554900000000 14.0266941500000009
  1.3542886500000000  2.3215634199999999 15.6172658400000000
 -0.3492058700000000  3.5279438299999999 17.2664392900000010
 18.6755779500000010  4.9427561200000003 18.8897926200000015
 17.3098942300000012  6.5930665800000003 20.7565569799999992
 15.1181460699999999  8.5816039100000001  1.9137518000000000
 13.7080310500000007 10.5458258899999997  4.1637768399999997
 11.5896479699999997 12.6744655500000007  5.5585051700000001
  3.3040052499999999  3.3810848800000000 17.1594202899999999
  1.5902492800000001  4.9203624000000001 18.7053130199999984
 -0.1111207200000000  6.2924210800000004 -0.0618528800000000
 19.5431788299999987  8.1430042799999995  1.6526758500000001
 17.3659378500000017 10.1380230200000003  3.0623242700000000
 15.8767323099999995 12.0792859799999999  5.4714139499999996
 13.2864732900000000 14.2128001899999994  6.3455236700000004
 11.4336860399999996 15.7449799800000001  8.2065691600000008
 10.0744266499999995 17.2886828199999982 10.4331027800000005
  8.4706793000000005 18.5220703200000010 11.9940987900000007
  6.3520066899999996 20.8534300500000001 14.1064687000000006
  4.7109007900000002  1.9257094299999999 15.6628597599999999
  5.0945290200000004  1.6226776500000000 19.1223411600000013
  3.1193254399999999  3.5068374000000002 -0.0302758000000000
  1.8500563000000001  4.9599768500000003  1.7086323500000000
 -0.0522488600000000  5.8371553399999998  3.4772602899999998
 18.9074561400000007  8.6466430899999995  5.1437485100000000
 17.5091924600000013 10.4547459899999993  7.1355503000000002
 15.2727598600000007 12.8730617699999996  8.7738142700000008
 13.2107899500000006 14.2352586100000007 10.2439584999999997
 12.4216525499999992 15.2577853099999992 12.6213222799999993
 10.2364222399999996 17.0495656999999987 13.7042840100000003
  8.6576326600000009 19.2345180199999994 15.2703738900000001
  7.0545541099999998 20.8446026599999996 17.3487463800000015
  7.2095010000000004 -0.2423315900000000  0.1286830700000000
  4.7196943800000000  1.4601071200000000  1.4144826900000000
  3.8232606499999999  3.8603240799999998  3.2282439699999999
  2.0352765300000000  4.8191212800000001  5.5208004400000004
 -0.2523035200000000  6.8683816899999997  6.6928614499999997
 19.2142545100000000  8.2328448499999993  8.5496048099999999
 17.3101415199999984 10.3158283900000001  9.1881926699999994
 15.6267032199999996 11.6349029599999998 11.6975681100000006
 14.3260161999999998 13.2439136899999994 14.1805674699999997
 11.7358039600000001 15.2789124699999999 15.4336953500000007
 10.4462612900000007 16.9839470900000009 17.1696874599999987
  9.4230392999999992 18.9357234599999984 18.8109584800000000
  8.5495807199999998 18.9564874400000001  1.7221280299999999
  6.4895705799999996  0.1749264600000000  2.6810861400000001
  5.2835520400000000  2.2322468999999998  5.3835320500000003
  3.6013677700000000  3.8677404300000000  7.4283930399999996
  1.2453736099999999  5.4928825600000000  8.4834675399999995
  0.2269477100000000  7.0479294499999998 10.2734105600000003
 18.9868304600000002  8.7625353900000000 11.9102366300000000
 17.4982803999999987  9.8772010100000003 13.9411663200000007
 15.7122944800000006 11.6279001100000006 15.8927026199999997
 13.4919578100000006 13.3395222400000009 17.1648028799999999
 12.1692711800000009 15.3836116199999999 18.6447827000000004
 10.0392193200000008 17.0618494699999985 20.7402189700000008
 10.4563333899999993 17.4930391800000002  3.3495970700000002
  8.0568472700000004 19.1703472499999990  4.8780155699999996
  6.6731569400000001 -0.0736739700000000  6.4894970299999999
  5.6812096099999998  2.0812360200000000  8.7337767300000007
  3.1767741500000000  3.1789518200000000 10.1004041900000008
  1.9657863600000001  5.1082222599999998 12.6066062700000003
 -0.2815864300000000  6.5620305999999999 13.2890773699999993
 19.3421921800000014  8.2273943099999993 15.1001111699999999
 17.7170655600000018  9.8987752899999997 17.5627150800000003
 15.4033337600000007 11.6836079700000006 18.7079191599999994
 13.6816045699999993 13.8135923700000003 20.5347955499999983
 11.6980680199999991 15.5027495299999991  1.6441346800000001
 11.8392299100000002 15.5835855500000005  4.6806808400000000
  9.9763300400000006 17.3569882000000000  6.6683649400000000
  8.1011912099999996 19.1591002800000005  8.6945845700000000
  7.2123077100000001  0.2522353800000000 10.6184548999999997
  4.8335676100000002  1.7624709100000000 12.1862176899999994
  2.9833616500000000  3.2792216700000001 13.7141059300000006
  1.4356656100000000  5.0126389800000002 15.3042491900000002
  0.1007896800000000  6.4243615299999997 17.1416883599999998
 18.8991844100000002  8.2221580900000006 18.6187608599999983
 17.0422189300000007  9.8437717300000003 20.5312202299999988
 15.9624779799999992 12.1980494700000008  1.8962367600000001
 13.9709358199999993 13.9049478400000002  3.3957761700000000
  5.3468189099999996  5.5982734499999998 14.9941453300000003
  2.8873157300000001  6.8159473100000003 17.3593482200000011
  1.6150770900000000  8.4100898900000001 18.8577869400000004
  0.3653016700000000  9.6245252699999995 -0.0573335000000000
 19.1810625299999984 11.4349421400000004  1.7613597900000000
 17.4622481100000009 13.7048876100000001  3.5072996500000002
 15.8110030699999999 15.7351088600000004  5.4563462300000003
 13.6300096699999997 17.1654810500000004  7.2189923399999998
 11.8970250400000008 19.3811896600000004  8.8495462299999996
 10.4522827800000009  0.1058260500000000 10.6481026799999992
  8.6036746399999995  1.4987291199999999 12.6446104800000008
  6.7233662199999999  3.1796531600000000 13.7330133199999995
  6.7720488100000003  3.1382439199999999 17.3016517500000013
  5.3330567400000000  4.3441206599999997 18.5294165500000005
  3.5188383999999999  6.3690000199999997 -0.6237254400000000
  2.0635029700000000  7.7753202300000002  1.6842725599999999
  0.5695944600000000  9.8891503499999995  3.6604498400000001
 18.5147592900000006 12.1862558599999993  4.8972999000000002
 17.5559973599999992 13.8599252899999996  7.1995433300000000
 15.5785544799999993 15.8749687099999992  8.7831000100000001
 13.1168242500000005 17.5482855600000001 10.7164911699999994
 11.8435533599999996 18.8087151900000009 12.2955421699999992
 10.3508445499999997 20.9482449799999983 13.6267802000000007
  8.4445584900000004  2.1647592000000002 15.1971505899999997
  9.3691426500000006  1.9327969599999999 18.4057532299999984
  7.3791833999999996  2.9805293900000001  0.0829563600000000
  5.2553232799999998  5.2103850400000002  1.5238932000000001
  3.6354517799999999  6.5675182599999999  3.9968517700000001
  1.4859078100000001  8.4575094600000007  5.3508473099999998
  0.0156414100000000 10.2324805699999999  6.6882643300000000
 19.7046840799999998 12.1943418500000007  8.6842309899999997
 17.6411245600000015 13.7439356299999993 10.0893939899999996
 15.3111957699999994 15.1434234199999995 11.6805613499999996
 13.7170219899999992 17.0274888799999999 13.8088760799999992
 11.7457273299999994 19.3148035299999989 14.7240838699999994
 10.9118690600000008  0.4976810000000000 16.9612667200000011
 10.9459606100000002 -0.1385918800000000  0.2498520600000000
  8.6467737800000002  1.5983222600000000  1.6608105700000000
  6.8941886999999999  3.4697212400000002  2.7475412100000001
  5.8148750400000004  4.8603020499999996  5.2164547099999998
  3.7030286299999999  7.0477780100000000  6.5957439000000004
  1.6629258499999999  8.1616611799999994  8.6528448200000003
 -0.1175569400000000 10.4308425600000003 10.2494635699999996
 18.8316636799999984 12.0973945000000001 11.7297548900000006
 17.0735593299999984 13.5822608200000001 13.9140626800000007
 15.8396091600000002 14.9944459200000004 15.6558343999999998
 13.6414377899999995 17.3600732200000003 16.8789240400000011
 11.9388012000000003 18.4225316300000017 18.8497634199999986
 12.3087278199999997 18.7564500800000005  1.8118175700000001
 10.3280738299999992  0.1247712700000000  3.6837518800000000
  8.3424013499999994  1.4922486600000000  4.7181390600000004
  7.4680576900000002  3.5558961000000000  7.2840866300000000
  5.4142166800000000  5.0528699899999996  8.6966856099999994
  3.5729897600000000  6.5995508400000000 10.4198346999999991
  1.7612873400000000  8.7087188799999993 12.1728471599999999
 -0.1513649800000000 10.0143050599999999 13.8612363700000003
 18.4697884399999985 11.6869744999999998 15.4299944000000000
 17.4338474900000016 13.5256339299999997 17.7336066400000014
 15.5921780699999992 15.8125657600000000 18.9535902800000002
 14.0362080099999993 17.1189911899999991  0.2431225700000000
 13.9388795299999995 16.5235307300000009  3.1234900799999998
 12.1941278400000002 18.6930946800000015  5.8579902700000002
  9.8641927200000001 -0.0768739600000000  6.9193851000000004
  8.3571859199999992  1.6124998200000000  8.7528621799999993
  6.7537475400000000  3.8509060800000001 10.6225698499999996
  4.9807965200000002  4.8113583200000001 12.4474441799999997
  3.5043293499999999  6.8657217599999996 13.8210422699999995
  1.2497263500000000  8.4422995899999993 15.7651462200000001
 -0.8845933600000000 10.4442646900000007 17.2816731499999996
 19.2475063400000010 11.9983061400000004 19.4218325999999983
 16.7751302100000004 13.5607057599999994  0.0844179600000000
 16.1759377600000001 15.6029073999999994  1.3450564700000001
  7.2477583799999996  7.1682157200000001 13.9902616299999991
  4.5619611999999998  8.3617206900000003 15.3949324799999996
  3.0295548499999998 10.4760401800000000 17.5831082400000014
  1.3613147600000000 11.8479300399999996 19.3471724099999989
  0.5917529800000000 13.5159292400000002  0.1408580600000000
 18.6722938700000007 15.2011803899999993  1.8080382500000001
 17.3577264999999983 17.3317581700000005  3.3845296700000000
 15.7924297300000003 18.6885686000000000  5.2095031000000001
 14.0176739799999996 -0.0674527300000000  6.6252735899999999
 12.2141106199999996  1.8613078000000001  8.9566181000000000
 10.2775435900000005  3.3604876300000002 10.2653459300000005
  8.6165403400000002  5.1539056099999998 12.5142060399999995
  8.4122213800000001  4.7892894400000001 15.1965220900000002
  6.7121750899999997  6.9504025599999997 17.7221332300000007
  4.6473188800000003  8.7484689000000007 18.9841864600000001
  3.2902543299999998 10.4829480000000004  0.1149867500000000
  1.8197025800000000 12.3103498899999995  2.2622105000000001
  0.0855545600000000 13.7966033299999999  3.2677817199999999
 19.0302226999999995 15.9782813600000004  5.1694343099999998
 17.5661082099999994 17.6034203600000012  7.2707012400000002
 15.4367230800000002 19.2435980600000001  9.0275496999999998
 13.7545112199999995  0.3942371500000000 10.5229625400000000
 12.3019945899999996  1.8904208600000001 12.1513392099999997
 10.5326650799999992  3.2722728000000001 14.0259210700000008
 10.8119564700000002  3.4053581700000000 16.4021687100000015
  8.6254030200000003  5.0182294599999997 18.6012641000000016
  6.7305268299999996  6.6040490700000003 -0.4386137400000000
  5.1600998100000002  7.6882494299999999  2.0306268300000001
  3.8101488799999998 10.5634868900000001  3.5975903499999999
  1.6390077500000000 12.1949264199999998  5.1029473400000001
 -0.6024757500000000 13.7193993600000006  6.8391905000000000
 19.1443939900000011 15.5953257900000004  8.4668899999999994
 17.3206341200000011 17.1290957500000012  9.9300069299999993
 15.9398783900000005 18.8304317400000016 11.7570426000000001
 14.7217944000000003  0.0362656400000000 13.2236203600000000
 12.3470104099999993  1.5838392900000000 14.7158215899999991
 12.0905071599999996  1.9463633000000000 19.1504728299999982
 10.3547959699999996  3.3794677200000001 -0.0179294700000000
  8.6314436299999997  5.1352103099999997  1.6032780600000001
  7.7055775799999999  6.4735491700000001  3.7127024300000002
  4.7748318999999997  8.5977080600000004  5.0619763600000001
  4.2210333400000000 10.5773648999999992  7.2574836500000002
  1.9139120700000001 12.3629270499999997  8.2385892399999996
  0.1638253700000000 13.9611861800000003 10.5453525300000006
 18.5222676300000018 15.4005373900000002 11.8847577100000006
 17.1166846200000009 17.1928568900000016 14.0387058000000007
 15.7330983199999999 18.9467560500000012 15.3819057800000003
 13.1153736999999992  0.0598744800000000 17.1188189900000012
 13.3252117899999991 -0.0373006500000000  0.1550552000000000
 11.6942377600000000  2.0657348799999999  1.6469962100000000
 10.1103046899999995  3.2268563499999998  3.5331107300000002
  8.7458160700000001  4.9789229099999996  5.5408889200000004
  6.8339452100000004  6.5568712700000003  6.7902034699999998
  5.4632514700000003  7.8976309000000002  8.9403541900000008
  3.3970495500000002 10.5455652600000001 10.3963029099999993
  1.5323175800000000 12.0690521400000002 11.8842095499999996
 -0.0850451400000000 13.5818979199999994 13.6644650900000002
 18.8080604300000012 15.3877819000000002 15.4300421300000004
 16.8691557400000001 16.7681833199999986 17.8048034800000003
 14.9196155400000006 19.0803881400000002 18.3597595899999995
 15.5489904899999996 18.6427066100000012  2.1184328600000000
 13.7381480200000006  0.3612171700000000  3.3480961200000001
 11.9369072400000000  1.5663729200000001  5.6320080199999998
 10.4736659400000001  3.4132569099999999  6.8546071299999998
  8.6177864799999995  5.4960283499999996  8.8049659200000008
  7.4192127399999999  6.2556794800000004 10.8999829899999998
  5.3332472800000001  8.5959564900000007 11.6961467199999998
  2.9432228999999999 10.5507914599999992 13.9625005200000007
  1.1084232700000001 11.9042661299999999 15.9944228699999993
 -0.6653101200000000 13.8782140799999993 17.7317688199999992
 18.7471792300000004 15.2286521199999996 18.9323535000000014
 17.2045345699999999 17.6706905600000006  0.2592454600000000
  8.5801975400000003  8.5797725699999994 11.5489080299999998
  6.3851691300000004 10.1639139600000004 13.3167925799999995
  5.0035397899999996 11.9653317900000005 15.5683391400000009
  3.5514606600000000 13.1495695799999996 17.1412391399999997
  2.3843163500000002 15.5224760199999992 18.6743589400000012
  0.4753329300000000 16.6111090899999994 -0.0424721800000000
 19.4878479700000007 18.4411186200000010  1.3477787600000000
 17.6249660299999995 20.4853514799999985  3.0153210499999998
 16.1237144699999995  1.7898559100000000  4.6237248099999997
 14.6027771099999999  3.5503730000000000  6.6652297799999998
 12.5446599499999998  5.1014572500000002  8.6763571699999993
 11.0165769000000004  6.5200995300000004 10.6430741300000005
 10.5894291500000008  6.6246177800000003 13.5009342500000002
  8.7491815200000005  8.5761430599999997 15.2424332600000003
  7.0812135300000003  9.6291935100000003 17.4509501900000004
  5.2356193500000003 11.1247514899999995 18.9723335800000008
  4.0404010100000001 13.2431510100000001 -0.2382582000000000
  1.8139067700000000 15.7901795499999995  1.8848896300000000
 -0.1185983000000000 17.3201570800000013  3.3149207600000001
 19.1699894600000000 19.0126585000000006  5.0290314199999999
 17.6418610399999984 20.7639652999999988  6.7018093600000004
 15.4410782900000001  1.9547407100000000  8.3128886200000007
 13.8831262800000008  3.7712401799999999 10.1305132699999998
 11.7632849099999994  4.6343718999999997 12.2157135599999993
 12.8407077199999993  5.5355176200000002 15.0903744199999998
 10.2910556900000003  6.7567573999999997 16.7737528699999991
  8.7150568499999999  8.7727786499999993 19.3852887199999984
  6.9560586300000002 10.0569406699999995  0.3452691700000000
  5.3473412900000001 11.8562413400000004  2.0483131999999999
  3.6764617600000000 13.7722049500000008  3.4426999199999999
  1.2519328700000001 15.8059106699999994  5.2172490800000002
 -0.1180252100000000 17.8503973100000017  7.2775827700000004
 19.0229926800000015 19.6036141499999985  9.3186226399999992
 17.2506066099999984  0.2414940700000000 10.2593793699999996
 15.7540481799999998  2.2035657999999998 12.4607466099999993
 14.2053867399999998  3.5133470299999998 13.6753270499999999
 13.3787312200000006  3.4969946400000000 16.7844976000000017
 11.7232411600000006  5.1294178900000000 18.5758571400000001
 10.0158576000000004  7.1470262199999999 -0.1721741100000000
  8.5557593399999998  8.3321118100000007  1.7678311700000000
  6.8998819899999999  9.9975795699999992  3.2422080100000001
  5.6171440500000003 12.1621364500000002  5.1196961099999996
  3.8619964599999999 14.1472016000000007  6.3690851500000001
  1.5734261400000000 15.3305794899999999  8.2819417099999999
  0.2058424600000000 16.9280284200000004 10.6573481900000004
 18.7857768400000005 19.0824539500000014 11.5702821399999998
 17.4289984199999992 20.8854435299999999 13.6593026799999997
 15.1543398699999994  1.8640470300000000 15.3542900000000007
 14.9534640999999997  1.9976125800000000 18.6326548199999991
 13.5661733800000004  4.0187160200000003  0.3179230400000000
 11.6753375699999999  5.6574500800000003  2.1511942799999999
 10.0499515400000003  6.7723326899999998  3.9098893499999998
  8.7541194699999991  8.2614069400000005  5.4293760100000004
  6.8156910599999998  9.3689408899999993  7.1416551999999998
  5.1126930599999998 11.9027865100000003  8.1295983100000004
  3.5400410800000000 13.3975440799999994 10.0266545600000008
  2.0314659100000001 15.3661647200000004 11.9863018799999992
 -0.1338240200000000 17.3118545300000015 13.2462593500000008
 18.9726054499999996 18.6211626499999987 15.7503687899999996
 17.1100605399999992 20.8289605100000017 17.3774829799999999
 17.5734941999999990  0.4035056900000000 -0.0865497300000000
 15.3434172199999992  2.1437123900000001  2.0603913800000000
 13.5635539099999995  3.7528234700000001  3.5527539300000002
 12.1549479300000005  5.5742128800000001  5.2849287100000000
 10.1584546000000007  6.4874517799999998  6.8912286399999996
  8.5652820799999994  7.3601742500000000  8.6727527099999993
  7.3089912000000004 10.6058397099999997  9.8331041300000006
  5.3451737200000000 12.1983712200000003 12.1570424599999996
  3.0625213300000000 13.5199986899999995 14.3045765800000009
  1.4161337700000001 15.5818444100000004 15.5143346799999993
  0.0010996500000000 17.5292163700000003 17.4342936299999991
 18.6068566500000010 18.9551975699999993 18.7051818400000016
