Li                                      
   1.00000000000000     
   -10.6364300000000007   18.4228371711498369    0.0000000000000014
   -18.2338799999999992  -10.5273355263713349    0.0000000000000078
    -0.0000000000000001    0.0000000000000000   22.3096999999999994
   Li
   504
Direct
  0.9946108649540690  0.0089254315415346  0.0382939743698927
  0.9223019143539091  0.0423835052719781  0.6572757697324505
  0.8658194236571930  0.0866077887772576  0.3015492696002156
  0.7902538957470711  0.1167676295806999  0.0082819607614653
  0.7195823008634648  0.1593780340567577  0.6814260545861188
  0.6508003133707163  0.2123022068179807  0.3262067697010735
  0.5803545741108280  0.2448382778262399  0.9753692985562310
  0.5038800905463887  0.3075686781151177  0.6750471149320703
  0.4305287041042760  0.3464059841242886  0.3511805842301783
  0.3645366102103722  0.3789441091561443  0.0097081399570556
  0.2787204846074616  0.4093320245557521  0.6485151481194293
  0.2127635086102941  0.4620688210140784  0.3513600147021236
  0.0860863703650168  0.0366676432914161  0.6654616763112031
  0.0093462815563399  0.0903312515200128  0.3177459293491154
  0.9352041468677967  0.1216906344744473  0.0147160459351738
  0.8542920202165405  0.1624742329887070  0.6658204758468287
  0.7876807915183903  0.2203041557073959  0.3297160925516707
  0.7013934899476055  0.2533648226113456  0.0019657427038453
  0.6454079036747231  0.2927522316214137  0.6799799141180713
  0.5805206664999432  0.3283781365907856  0.3293955857765880
  0.4996504905548917  0.3858285413059264  0.9666968067701518
  0.4331351663208096  0.4207958900075184  0.6328679023025856
  0.3585724733570075  0.4692217606571560  0.3335618645701217
  0.2749748846515843  0.4991254893443084  0.0170980447966542
  0.1473448904204275  0.0846126801967273  0.3335287699969101
  0.0861174334880275  0.1361510850639007  0.0010447428696949
  0.9946520252107049  0.1692971879538590  0.6692264974428141
  0.9305208263662266  0.2043723868322829  0.3063857187680696
  0.8527721002304887  0.2565575648159069  0.0012372169952997
  0.7849905932114041  0.2934986105342645  0.6827013756348137
  0.7075602017995379  0.3255721828142626  0.3378684361510906
  0.6450990938120498  0.3753812011269488  0.9858671447845566
  0.5658017313592012  0.4188269117993002  0.6439411646055291
  0.4920650698378850  0.4556627113496532  0.3561331904956120
  0.4241958272031781  0.4943853808219245  0.0064849446653241
  0.3547953431031843  0.5445129549364722  0.6751763905386454
  0.2128882744964642  0.1360010634323316  0.0059253786469569
  0.1467728922614597  0.1612838691251355  0.6754104376123422
  0.0635236660761862  0.2145320229395651  0.3321634235332596
  0.9908351665142447  0.2555854250347664  0.0083012523700461
  0.9264057365526028  0.2922067536673367  0.6657256762753434
  0.8694321824354603  0.3390200539752399  0.3229920496465652
  0.7818500758080518  0.3744818172639555  0.9931427267063171
  0.7141659228158588  0.4164010530717377  0.6859737571549616
  0.6411502551139350  0.4594229413596267  0.3308157424797287
  0.5649484051893339  0.4987201486788351  0.9841464125470054
  0.5041018518759657  0.5424586725179097  0.6721015755478561
  0.4352438553880162  0.5863400992676944  0.3556719996234818
  0.2797381325337369  0.1781429528424070  0.6619271307996044
  0.2091114421106397  0.2069414120193400  0.3584143359166632
  0.1390080343473059  0.2554404944656454  0.9928595633289561
  0.0738265909992819  0.2993844213462822  0.6546174332241108
  0.0017978305378605  0.3256528265696730  0.3456260967202596
  0.9199322493599169  0.3720998621763840  0.9814999426258524
  0.8539769880553507  0.4204451732126344  0.6484944055724640
  0.7941422170902186  0.4655337102073247  0.3442624876174918
  0.7095703047020123  0.5079090897800356  0.9909124268815788
  0.6290913101550544  0.5535833638220424  0.6875603454999393
  0.5666755694324834  0.5892169199874786  0.3170505165914363
  0.5027100267290407  0.6215546526794284  0.9946186219447171
  0.3571298070271922  0.2175720815669351  0.3470610922603186
  0.2913783107803809  0.2555947683030837  0.9984824282711102
  0.2200248010297159  0.3016553528696875  0.6682975450140489
  0.1478515192137735  0.3468132676911893  0.3116294454878386
  0.0783178250050085  0.3735870218835444  0.9956731045240375
  0.9994247532933827  0.4126068171627608  0.6669073537519523
  0.9293397518500868  0.4594462200710510  0.3319173269922970
  0.8525378643345007  0.4977621928879969  0.0196496810804234
  0.7880328707913620  0.5466768708650420  0.6803099835497548
  0.7081945951189255  0.5903617421327354  0.3134164045235934
  0.6403234860630889  0.6304132687685780  0.9956932213342142
  0.5648383038092462  0.6599079170321502  0.6758178370843169
  0.4219621264864557  0.2580505591226725  0.9638931478235904
  0.3642056722731084  0.2985840167459770  0.6603685840688129
  0.2931723057925524  0.3298807627065088  0.3222396311918132
  0.2232832946313366  0.3778197759601554  0.0055523758723766
  0.1487099727790380  0.4020294530968656  0.6498905337140357
  0.0661022563718774  0.4569186622517236  0.3196559447235927
  0.9931354820335869  0.4924066114745500  0.9886286745227437
  0.9283370283622361  0.5387960352605745  0.6753756684312222
  0.8465671931555647  0.5861862850750583  0.3272237031425789
  0.7850221244444739  0.6236688825908203  0.0012632980273182
  0.7150124502298283  0.6769332864975510  0.6412890531921107
  0.6395850477631839  0.7016793929992033  0.3404666512772465
  0.1295184587665617  0.4987224814258724  0.9839112148527320
  0.0690763657976348  0.5491391667894590  0.6387962581298723
  0.9910551039530517  0.5744483248030932  0.3337103515511188
  0.9271203880243917  0.6272643804393638  0.0183506577856249
  0.8582050309169205  0.6784659761391652  0.6737576475703406
  0.7946324499143316  0.7153994652129825  0.3069622805326802
  0.7216594251369628  0.7425606026084637  0.9946930837259131
  0.2036984414389238  0.5433114974172142  0.6818595570536559
  0.1331940491959713  0.5960990836459672  0.3563163753882819
  0.0647196521033209  0.6250138210177241  0.0090035459912059
  0.9935403551681503  0.6660649609451639  0.6819944799795579
  0.9344082326849730  0.7094227559697970  0.3201700058718870
  0.8572643040540342  0.7566092575157128  0.0172321317633148
  0.7845159674352686  0.7857695953078832  0.6725746451095276
  0.2923029148887295  0.5835223253081665  0.3481804667924706
  0.2147331660327225  0.6241395276712680  0.9999143690860919
  0.1391991568278357  0.6665759121120516  0.6632500925606379
  0.0704810433816405  0.7050419612141923  0.3424586471355511
  0.9984177748581260  0.7494678207252505  0.0282013716006944
  0.9228199065849054  0.7973487371312729  0.6724010228734585
  0.8517346729124711  0.8458417041789019  0.2921990896336553
  0.3711863488196272  0.6251102340162618  0.9907750171450118
  0.2966815486299481  0.6578656142140886  0.6533789378611061
  0.2137508491056508  0.6983918637200190  0.3403965221405940
  0.1417559701837448  0.7546367907465950  0.0266973070009868
  0.0671504096542179  0.7907114409133769  0.6754562956920083
  0.9954739740368197  0.8367428785500124  0.3237109190172873
  0.9311221764406596  0.8791432228818721  0.9906548613383421
  0.4303093806214662  0.6722893275965660  0.6471076800674140
  0.3625095016525179  0.7048244252642917  0.3484520132498403
  0.2897962312566662  0.7454823988078587  0.0124540558591093
  0.2149911755169853  0.7948355715292550  0.6663600545950885
  0.1346658645571637  0.8467657113158751  0.3340262504650440
  0.0717112240219748  0.8820316907578629  0.0199283952720108
  0.0048251347448200  0.9213990632847242  0.6714691282267324
  0.9275042731848302  0.9594570482842215  0.3133054899886574
  0.8567837083598135  0.0115254510225142  0.0089589438674622
  0.7859706134857873  0.0463991579192893  0.6431278753188110
  0.7082045703272044  0.0892601647062818  0.3393269685383515
  0.6470918548520075  0.1345699890696039  0.9950875731184183
  0.5725062579381586  0.1710707695169020  0.6526568039910856
  0.4931185697852030  0.2105142219198299  0.3289411525031696
  0.0716366877191845  0.9634126563102896  0.3337952321187672
  0.1479455297663890  0.0115873351599802  0.0018606901930553
  0.2090803468968048  0.0408006247631576  0.6818772668390878
  0.2879111328953883  0.0925281272410245  0.3516118831718913
  0.3606543660306087  0.1354566439792890  0.9998899900043483
  0.4323046317815411  0.1724389913380975  0.6566486806187442
  0.8553534568610104  0.9168592532604052  0.6654193812556883
  0.7895532437087667  0.9528850706497352  0.3187051067472879
  0.7154989277375208  0.0055752352239224  0.0229514377154345
  0.6491860213241480  0.0525801341901584  0.6721562773143503
  0.5711685486739739  0.0713714526928868  0.3440503789831340
  0.4982547268228004  0.1335361467762297  0.9963601487245484
  0.1479726680933879  0.9147741530552764  0.6827032344675175
  0.2202104364947246  0.9587432859574818  0.3307958977485157
  0.2863304259364483  0.0043031690269331  0.9946041488679782
  0.3601186853125640  0.0419542884992623  0.6674621872996980
  0.4320327484491528  0.0760620078344800  0.3807641451924511
  0.7828473039098540  0.8678623700097887  0.0224884830365255
  0.7024652595629277  0.9186137870396820  0.6881453520217633
  0.6445551840288246  0.9529173491292156  0.3298551742067346
  0.5731269312299929  0.0027854562417531  0.9913694971245661
  0.5061386200982838  0.0332096030591416  0.6551278717329225
  0.2231215613315385  0.8845256133859820  0.0042442771529849
  0.2863326133897957  0.9204875962199139  0.6751188321671719
  0.3585647145391206  0.9572710593321148  0.3601740516456928
  0.4334276405529991  0.9963078100323628  0.9975100310627241
  0.7111683350698854  0.8299494811752979  0.3137807231831857
  0.6427710785282059  0.8696149814087946  0.0093405926570043
  0.5821553896935043  0.9205242920542602  0.6695125519392917
  0.5068269967620296  0.9639773463920136  0.3703009215722304
  0.2914574319305387  0.8363673133359981  0.3410046759929557
  0.3552050164647866  0.8695890900194243  0.0095737002290477
  0.4350379317994353  0.9114218148342843  0.6345530961868633
  0.6419751554568691  0.7878050429883245  0.6564573010842807
  0.5902119637005185  0.8402712112253070  0.3409303271671078
  0.5006360507411785  0.8695135204802824  0.0229115079987636
  0.3574578522901959  0.7923335612697358  0.6515234525789211
  0.4318117152609489  0.8352303967914096  0.3372928403340225
  0.5776954040034354  0.7431351744113570  0.9997327512248049
  0.5168569758960118  0.7873742854439314  0.6649963804981667
  0.4281383328963244  0.7517742313666389  0.0189387499607818
  0.5007288563274201  0.7105100894978662  0.3220818845614204
  0.9983095340363093  0.0252678477038444  0.7867634746321102
  0.9311287771084409  0.0343896938720931  0.4296119889554788
  0.8577864416782717  0.1034521812219893  0.1330892006615940
  0.7829757914868196  0.1134094560321657  0.7820741117092567
  0.7173551106237070  0.1584640778983228  0.4456345961622077
  0.6517972601430415  0.2173885639423290  0.1167469571531683
  0.5722428652278140  0.2324704111798965  0.7910920711618701
  0.5023105579602145  0.2933118404856927  0.4519508778692654
  0.4365823594905009  0.3365103545731642  0.1209838814506696
  0.3535309731177421  0.3814344287448037  0.7593606050283057
  0.2928319763019829  0.4172913950460568  0.4588207923011041
  0.2221777655500503  0.4514368992869606  0.1020373810494988
  0.0762281295161600  0.0153420613917845  0.4380423694626074
  0.0050879318476120  0.0957821461509027  0.1147099019708904
  0.9276610508439589  0.1397665559371788  0.7664601343810062
  0.8495768431660409  0.1616012761981267  0.4278013702559846
  0.7806377665443875  0.2230611104599944  0.1012238784026707
  0.7091167827007965  0.2451372236176752  0.8024870294087307
  0.6466668479109714  0.2936662240222248  0.4367441211670240
  0.5751459517403745  0.3409281455471955  0.0997976243517371
  0.5084752230492953  0.3665321666755403  0.7669229778975080
  0.4316203364858282  0.4103615020166842  0.4656956884225281
  0.3694710196480386  0.4659402564064834  0.1338417320717014
  0.2895922221181806  0.5193850448119406  0.7842721946059328
  0.1401098373989029  0.0848794519978853  0.1151588434627087
  0.0845414100080149  0.1383617694285846  0.7867197133982060
  0.0023101734316739  0.1391053249229515  0.4379102022886912
  0.9385860578850966  0.2096625817614921  0.1045580698081991
  0.8453789030038124  0.2676313442187421  0.8003424936238517
  0.7744589114099938  0.2828116281839854  0.4440162234364422
  0.7221751237539280  0.3436585026582364  0.0729798580886367
  0.6216106468604181  0.3763344695377242  0.7559692658350414
  0.5534606415821131  0.4276634215019897  0.4529820965768252
  0.5019500807532893  0.4681466809353410  0.0769285656015128
  0.4086937951320735  0.4924141343829902  0.7741745823565509
  0.3563695431293681  0.5309643937753492  0.4603840750884132
  0.2408749386292186  0.1151962032499938  0.7842215959873968
  0.1237946063819919  0.1618574359840252  0.4505871732923339
  0.0762853164603143  0.2202061174825118  0.1066419369153309
  0.0188223735156470  0.2620561570914646  0.7552179043196432
  0.9164891300972542  0.2788598088810303  0.4250041954844761
  0.8613067202108056  0.3389476788236081  0.0977414290644845
  0.7824825758114855  0.3793451945587805  0.7841726204296791
  0.7100302950460886  0.3923800539908626  0.4316883239129155
  0.6563320909465915  0.4423835945993346  0.0893078270886676
  0.5669237149039432  0.5000066289283609  0.7759953226623395
  0.4753645687080734  0.5576891172068912  0.4346393111516491
  0.4200199989583666  0.5930490933624242  0.1100274046715128
  0.2767528225453901  0.1738414997627231  0.4507200961913398
  0.1983207625991668  0.2203252248598417  0.1080692541809185
  0.1506204685681638  0.2612620895556788  0.7725597040749079
  0.0673877243855188  0.2854825350783372  0.4437693622056784
  0.9922387770197076  0.3389646397225548  0.1139775864310124
  0.9331826680989934  0.3789676006177416  0.7725130068983432
  0.8527096534466097  0.4039773444155017  0.4606784026678952
  0.7832197238677594  0.4626254753492560  0.1037986669475615
  0.7434577019922557  0.4911053793706301  0.8122047176788598
  0.6304943310931534  0.5499144768930577  0.4318015750996196
  0.5815813904664964  0.5769960749440344  0.0978847326499235
  0.4969145585293901  0.5855157636345751  0.7686842301779038
  0.3688197357575405  0.2122867825167489  0.1135994401538341
  0.2860621515075721  0.2256661072596913  0.7574231540540666
  0.1880227458836927  0.2964969943314486  0.4453234319600909
  0.1490864124004574  0.3389298575262885  0.1092678722708058
  0.0817836435424297  0.3956501156262959  0.7525572974983987
  0.0130045420873515  0.4048109183786366  0.4559863198519025
  0.9373402701107949  0.4722444855831824  0.0964784909702985
  0.8595742251219605  0.4960075351316391  0.7636995051479829
  0.7612766771002910  0.5382747382010962  0.4278215292003011
  0.7156234545023210  0.5801960109328235  0.0992752107827499
  0.6430842652745881  0.6140402469636470  0.7695569828370594
  0.5636564807382669  0.6620221904817285  0.4366062492996292
  0.4237059634201188  0.2376266916037295  0.7599617520630062
  0.3446081051089180  0.2962446414354147  0.4574429790629182
  0.3094181945472272  0.3406740772107781  0.1338760207443386
  0.2256916904955730  0.3833227690684708  0.7774560213718686
  0.1456725680773232  0.4215711887280875  0.4371684661828681
  0.0814492197414367  0.4656604143312109  0.0932560388530561
  0.0027037224846040  0.5213387762260737  0.7587733295382719
  0.9082329253922836  0.5371824365066402  0.4647531607327764
  0.8386779193427429  0.5965214808019610  0.1100188765424903
  0.7933713095792214  0.6159314820352151  0.7829411677431750
  0.7088368708191410  0.6717708601851697  0.4363028767755708
  0.6252284199668736  0.7142759910129755  0.1099515291554809
  0.1320917537588002  0.5128813257281095  0.7641432663818861
  0.0623693229556821  0.5507818485278193  0.4550901078902925
  0.0039450815410831  0.5812229353458491  0.1053894875323280
  0.9371299092173118  0.6296650827856567  0.7779043227833640
  0.8329409876229263  0.6720909028148654  0.4255927529280967
  0.7781811976478821  0.7124403886557360  0.1052131104407508
  0.7136977995018867  0.7345692098688872  0.7539523888712054
  0.2140728750331675  0.5306875557923476  0.4536978372636113
  0.1328014635494910  0.5680892058661300  0.1107615270487727
  0.0721306447890768  0.6329676742331358  0.7798686418911984
  0.9590660638545430  0.6730856343485669  0.4417436787585700
  0.9257003597736855  0.7116090504211030  0.1328203776832524
  0.8615884530308833  0.7538877666480559  0.7743026033519058
  0.7681310322487320  0.8000389853755010  0.4453418459235223
  0.2942087551354788  0.5720383040041028  0.1109352685154903
  0.2229274640625576  0.6144550684451744  0.7630615144981761
  0.1231871358885215  0.6631654152720756  0.4529709807841442
  0.0838006381481975  0.7074720733262154  0.1139869850334136
  0.0033375357157297  0.7683448369182599  0.7738211652330591
  0.9121323980629725  0.8071493443672466  0.4457692098055972
  0.8480198676244086  0.8385272870833660  0.1075493717979157
  0.3717543091862936  0.6103475926759216  0.7640141552777493
  0.2876541929669045  0.6573915509096793  0.4562164403824340
  0.2038217089231438  0.7088984802224587  0.1134331497061822
  0.1562024367230066  0.7594998314108850  0.7867991089077861
  0.0661354296786101  0.7782345135376332  0.4348799620792718
  0.0021282943038372  0.8362526328251505  0.1012627206999639
  0.9239163404566213  0.8805029208746049  0.7837553889115512
  0.4023531217251275  0.6825975204119601  0.4470603934611432
  0.3550901352053160  0.6989210806036965  0.1354886883283939
  0.2950138813863390  0.7434382090704688  0.7804875412936951
  0.2201324604103547  0.7705280375936212  0.4379573795254998
  0.1420673556113741  0.8435049559805421  0.1368660994993220
  0.0562519074087220  0.8829762894392559  0.7896444353801257
  0.9937534738922480  0.9024000644782291  0.4237715666279698
  0.9208466718295654  0.9747808340491346  0.1234451951393325
  0.8520336607398917  0.0043091821321823  0.7679849002900099
  0.7850756819945417  0.0255180046025743  0.4547422470943161
  0.7076245059270647  0.0736769621398281  0.1196447980026605
  0.6492010889113971  0.1089731451490366  0.7885128446370828
  0.5754621849277015  0.1539264524264397  0.4529732040323253
  0.4987988517195205  0.2125404335009833  0.0974123802650837
  0.0947367923694884  0.9520966140797995  0.1142940626722933
  0.1537479851033510  0.9880239520500922  0.7893957516237364
  0.1976685692397098  0.0427382488028698  0.4555772022931706
  0.2779358885056809  0.0855731296587194  0.1221680287050049
  0.3635433438105480  0.0981741747556271  0.7779677951742983
  0.4274066812985069  0.1612230113851894  0.4604834027351359
  0.8422231464207783  0.9262332157892672  0.4304494054155796
  0.7806231077835051  0.9717896414629408  0.1336901119244089
  0.7177733302937597  0.9967102501751413  0.7831928927775778
  0.6478296023531129  0.0136366232882565  0.4456132641855319
  0.5582351674411825  0.1079981226142550  0.1084719296987373
  0.5032971839287796  0.1118844170272268  0.7588074008166856
  0.1479966322488764  0.9069505103054922  0.4513787863575018
  0.2180251603030570  0.9751572552960610  0.1126972137680013
  0.2935723384100157  0.9909339099832550  0.7682603746352470
  0.3671513378953577  0.0549551996102693  0.4611826994536017
  0.4253637575756954  0.0957069898457803  0.1388978466765565
  0.7834267429986639  0.8737912626367361  0.7864994199832367
  0.7221400667562392  0.9050720318304144  0.4283220424299756
  0.6336147984488534  0.9679849877993405  0.1122335324993173
  0.5455307037490087  0.9926765914178972  0.7870434259537333
  0.5073942882468572  0.0275044006356566  0.4666596323572278
  0.2113526900800764  0.8867514454768610  0.7931345253409958
  0.2908584241385057  0.9346530262204453  0.4439920438195060
  0.3497390366366417  0.9669016950065981  0.1182203391349930
  0.4134459896998308  0.9819192882577354  0.7578495111991614
  0.7016136678012614  0.8530075455903301  0.1329857115962980
  0.6506279402283042  0.8772372039147740  0.7756167106684515
  0.5694331281955058  0.8895288030999140  0.4582076370368071
  0.4908395283048961  0.9771967922324762  0.0845390901715390
  0.2872898768577912  0.8364958996710214  0.1226233624835800
  0.3567606576220328  0.8670177920689000  0.7596975831140682
  0.4207024195505866  0.9251955899468243  0.4499474954840252
  0.6389113063279908  0.7898084831113152  0.4387935140320138
  0.5606796509187433  0.8351843200996356  0.1037455532795164
  0.5053939250604529  0.8470489267050780  0.7585105106747250
  0.3504409539027336  0.7822644420540428  0.4399019157586181
  0.4130166905672539  0.8481926530145927  0.1230525349959848
  0.5929166294616408  0.7465295858531107  0.7849853395608193
  0.4855984112943901  0.7889170845785998  0.4262508662151419
  0.4421321778886593  0.7358152109775702  0.7468870899205271
  0.5137574754336072  0.6982633446953557  0.1228176291030323
  0.0174224799281006  0.9837318010109968  0.1961046114470406
  0.9339628894304752  0.0355341306389576  0.8931513919954099
  0.8534498278440452  0.0569340846613429  0.5444030614486053
  0.7816576681682221  0.1305532820532704  0.2037778818182190
  0.7102104346837450  0.1675553544400188  0.8900080606193725
  0.6278672387632795  0.2113723714097659  0.5595528734138071
  0.5725409226055191  0.2509107850096086  0.2042013375347906
  0.4842933375911116  0.2899733948696479  0.8784852436384156
  0.4234928257508557  0.3234581659744862  0.5621000681317980
  0.3713109875086573  0.3744937475256620  0.2281785859962255
  0.2848563804252748  0.4152606329290975  0.9037085200607820
  0.2043933481410747  0.4607369879604235  0.5634069149293808
  0.0830135793903182  0.0449592458525245  0.9159313594535092
  0.0259919847431291  0.0482163545947785  0.5498379902015742
  0.9388119655307534  0.1303407335942595  0.2010936027826489
  0.8508336542720940  0.1625739806717306  0.8952075119790948
  0.7832737264143859  0.1877977582475197  0.5622346365034048
  0.7047486643506744  0.2661327591297393  0.2165771673308043
  0.6130455541295916  0.2844774791042539  0.8925654822790108
  0.5655023090666376  0.3180709659586611  0.5589404953898978
  0.4981529685857424  0.3739020236145905  0.2168890164367951
  0.4346422705840283  0.4135067793520619  0.8916715204597097
  0.3608305008920283  0.4568470153032180  0.5777895969017948
  0.2854380834371284  0.4786926559891143  0.2184766523081905
  0.1362092580306822  0.0739396744743672  0.5630439719045981
  0.0780139064810328  0.1208661121323615  0.1964702730202532
  0.0110216258118641  0.1730348295900725  0.8733661272899198
  0.9156454366398279  0.1928809128041351  0.5476317857254926
  0.8653845767816293  0.2523864326178824  0.2032477025688380
  0.7895495771073655  0.2868883403624380  0.8918598322702707
  0.7051523666509070  0.3264581187757756  0.5524585583849202
  0.6560395749372674  0.3641694051924205  0.1992956897672329
  0.5654939164323451  0.4000449603946876  0.8853316687360220
  0.4893515834903823  0.4665258868005822  0.5459463381399132
  0.4435747489812627  0.5189483188818400  0.2323577080821337
  0.3529720012596513  0.5628356244881445  0.8785204247479825
  0.2067838588964221  0.1375820708328845  0.2423199419983249
  0.1779720475005888  0.1668674108200392  0.9117267529370636
  0.0685202127916895  0.1949271615836068  0.5514515865296232
  0.0203134776462548  0.2500379297746278  0.2292871168146604
  0.9495072260100343  0.3111823537310769  0.8902587681591427
  0.8401324948899855  0.3153731053060156  0.5645475219299243
  0.7841532913648308  0.3910734082448926  0.2233880988986883
  0.7019534632647932  0.4210973673582572  0.8769423900814459
  0.6312382778993495  0.4594890765872677  0.5456434174372546
  0.5713174841860393  0.4870378170569865  0.2000562844861236
  0.5080418362106798  0.5083080491959819  0.8944077145815470
  0.4295316546267145  0.5952995425427190  0.5643840602966392
  0.3033173099908026  0.1461995639158857  0.8934584109154287
  0.2103806092915832  0.2022429316148120  0.5302430261276498
  0.1464211484161098  0.2465146350832867  0.2260551553808412
  0.0838959143552458  0.3068628810584713  0.8742375755837131
  0.9957504241398851  0.3162169410002562  0.5509860069835071
  0.9206399839221646  0.3841428514288125  0.1940563553073318
  0.8540421704091301  0.4100064153869170  0.8923371748611615
  0.7756842659146130  0.4610771505295546  0.5486812422399225
  0.7066895352989206  0.4950731679741551  0.2007166958766788
  0.6398088084892635  0.5361742204687445  0.8888040054326112
  0.5572395975730657  0.5917629751422027  0.5548027494766856
  0.5225456323459809  0.6350342812251810  0.1909899330784341
  0.3542295311205592  0.2174029399284905  0.5591975719081859
  0.3083470267487840  0.2582102517005964  0.2263419212270890
  0.2429523536195006  0.2797017396950565  0.8666691246408504
  0.1347883933924550  0.3364897865330150  0.5505874359583487
  0.0667959282536330  0.3734457764801178  0.2142349735765166
  0.0066474080079217  0.4205598857753969  0.8620497397992821
  0.9261082425574401  0.4274795235909608  0.5846977431341500
  0.8704906887692161  0.5100335991711304  0.2111888519343594
  0.8098887199541167  0.5418627923633608  0.8952524659677152
  0.7021741532881478  0.5907345392610566  0.5526365545031950
  0.6407241612664052  0.6211786010098379  0.2133878156138351
  0.5698164598786946  0.6592828746077330  0.8822286677992111
  0.4111940650173977  0.2433772077597851  0.2297127702299875
  0.3618836347774135  0.2999708416719002  0.8681353765402520
  0.2556144867022994  0.3253504714961934  0.5433353106496241
  0.2060625782890497  0.3729637976343483  0.2161527349090306
  0.1488697537495938  0.3971087719742172  0.8902717024433286
  0.0751753530776540  0.4451568497360014  0.5535775496757012
  0.0148733204325637  0.4938535357450817  0.2156222799947969
  0.9428217971397430  0.5451907954998561  0.9028986629134437
  0.8479729530361340  0.5907349797814732  0.5563246283006933
  0.7768583027938547  0.6333829372801816  0.2187477218429663
  0.7074890085450960  0.6731389065213023  0.8881081148558678
  0.6341628436737565  0.7201573655559415  0.5411382748311269
  0.1517584616575931  0.4873116673835369  0.2326796998614924
  0.0972637623896802  0.5476906993906709  0.8957260657920116
  0.9980156346007476  0.5694868132105455  0.5658532060045616
  0.9302754284606749  0.6247296798299686  0.2245575861620708
  0.8798466836542502  0.6791572692471064  0.8883490472753977
  0.7701180017347724  0.7020342298407272  0.5473340910007778
  0.7145120137926142  0.7629700826777324  0.2327851719207317
  0.2226400905281878  0.5492406279904927  0.8782862835448242
  0.1460253026641567  0.5804669708248511  0.5418367351421125
  0.0843801970238189  0.6126203030276542  0.2316806756702263
  0.0265625071282329  0.6683501762820683  0.8959209182552854
  0.9186532260088924  0.7010659402871013  0.5376766030022821
  0.8667323228605071  0.7399231995141378  0.2185658256274152
  0.7753831519908232  0.7790900768607827  0.8916847339946301
  0.2817636896430784  0.5930940967347453  0.5550507469844987
  0.2245739149034094  0.6232179757848542  0.2317456039301291
  0.1536332137097887  0.6659943784153910  0.9052770077589543
  0.0491727609895776  0.6956775710834791  0.5697390045585564
  0.0179754806180554  0.7587950715201401  0.2184080440346605
  0.9397224388040897  0.7838338823240605  0.9113860406011725
  0.8514788946690146  0.8379733655357882  0.5839836645046788
  0.3519212290254217  0.6299155320731060  0.2509098203920246
  0.3075292151627949  0.6602168249415925  0.8879266695652532
  0.2067255367366059  0.7078285339866568  0.5528081435429399
  0.1476081938105338  0.7608783884235137  0.2310479499948457
  0.0694141910641690  0.8138272137218934  0.9274394034881652
  0.9890015236627434  0.8144675441358586  0.5729739879962494
  0.9415615086890554  0.8714953444979585  0.1989838263177006
  0.4537487265029156  0.6525548091224991  0.8827775931545432
  0.3588072009743044  0.7062382034619503  0.5335393254951910
  0.2771890136346613  0.7622117546954286  0.2466987637664317
  0.2092883878252607  0.8052953997220413  0.9066066675033753
  0.1449019828784230  0.8263400928520142  0.5670194803157358
  0.0856354587592989  0.8799682435876974  0.2027239873238997
  0.0002978456242531  0.9310551438238477  0.9268525560630607
  0.9232605952931863  0.9418919449072689  0.5558335988381700
  0.8621241050951340  0.9973806723990180  0.2219933831472432
  0.7826821135712052  0.0369644725504301  0.9006498939923020
  0.7109576620310420  0.0749558253560494  0.5458922096666470
  0.6286576308734055  0.1406629584734134  0.2214661537358182
  0.5409996693808665  0.1575030381140650  0.8718774470297674
  0.4912011400588980  0.2052519610660681  0.5487675289223972
  0.0635181660184401  0.9459729971578454  0.5464915261074808
  0.1458237720230997  0.0015279752055122  0.2407923024514034
  0.2223805933479142  0.0173330374827785  0.9050562114237337
  0.2748007049576700  0.1003712933159093  0.5562604687647053
  0.3530298498299302  0.1435479686371437  0.2532002814919068
  0.4265701626392442  0.1703674936436528  0.8770075863861919
  0.8459280618346980  0.8988865395220103  0.8907877004173059
  0.7895342451353926  0.9482454989840079  0.5430456348583803
  0.7037061707764281  0.0107938718456211  0.2409189993590246
  0.6225196897634859  0.0485523748214334  0.8927609380672976
  0.5789726785672968  0.0595629636976014  0.5485264167604242
  0.4919443319778622  0.1384378935816599  0.2502793596507331
  0.1404746244149635  0.9204111560805472  0.9250606368530256
  0.2113486550924790  0.9410873524732395  0.5795279161082405
  0.2900581087581600  0.0050422718730943  0.2373890132991505
  0.3686070745991614  0.0191778038202060  0.8833265404734263
  0.4374480261011300  0.0888749981757684  0.5608406173099567
  0.7841447551626572  0.8883992459007786  0.2089997494363445
  0.7128468941709940  0.9203006995457272  0.8883675508859383
  0.6459049981952774  0.9412247415276269  0.5622281630860115
  0.5716110566359163  0.0216111485249471  0.2045307870567541
  0.4946227539651247  0.0323514156637330  0.8902285960815277
  0.2209742541291391  0.8841070163976710  0.2301188621989567
  0.2954949913589857  0.9082030658894098  0.8800341201360808
  0.3620687108190168  0.9684855649035384  0.5578894575005506