Li                                      
   1.00000000000000     
    21.6720000000000006    0.0000000000000000    0.0000000000000000
     0.0000000000000000   21.6720000000000006    0.0000000000000000
     0.0000000000000000    0.0000000000000000   21.6720000000000006
   Li
   432
Direct
  0.9892395754891083  0.9973390886858624  0.9852444421373221
  0.9244905241786654  0.0956726734957556  0.0906730500184594
  0.8192314447212965  0.1584607844222958  0.1599034523809522
  0.7378605306386135  0.2434039779438919  0.2367918253968284
  0.6667536987818394  0.3353803765226999  0.3227453248431189
  0.5722533153377611  0.4306950281469142  0.4225274215577670
  0.4929997148394207  0.5114542252676273  0.5000740439276470
  0.3934380218715390  0.5984591126799543  0.5872113270579575
  0.3277798592654122  0.6746281552233313  0.6842542834071637
  0.2316517377260965  0.7637963999630841  0.7613236161867860
  0.1515675502953115  0.8331889991694368  0.8362999021779274
  0.0914041694352150  0.9104457927279412  0.9302740323920276
  0.0879720980989305  0.9213029780361737  0.0783395150424511
  0.9966064008859377  0.9780014267257258  0.1558968853820630
  0.9106111609449954  0.0718368217054248  0.2405437652270237
  0.8213901061277227  0.1616394241417467  0.3236210252860801
  0.7382722240679200  0.2532177260981925  0.4063645865633063
  0.6604448767995592  0.3427957087486178  0.5072128705241781
  0.5768895505721687  0.4276245256552258  0.5857539964008893
  0.5173402459394580  0.5121745514950149  0.6507635409745305
  0.4278427334809862  0.5767042137320075  0.7562468821520838
  0.3127276061277229  0.6636911175710623  0.8232469652085612
  0.2488092515688436  0.7488673431155419  0.8981145847176109
  0.1639101185861946  0.8301561964747108  0.9969336101882647
  0.1617307258213359  0.8239220016611313  0.1678653926725744
  0.0858394988925824  0.9125044222960526  0.2632739018087875
  0.0074988732004400  0.9888840900701368  0.3497210534330009
  0.9276899423218907  0.0921789544112244  0.4259135852713172
  0.8420421603912871  0.1905775281469175  0.4793907553525258
  0.7360710885012907  0.2455475406053864  0.5821739073458829
  0.6525443595422686  0.3245285354374303  0.6521085478958994
  0.5862797969730522  0.4171678359173114  0.7579889848652641
  0.5162901559616060  0.5075466708194938  0.8420402980804695
  0.4248004715762264  0.5840505311000399  0.9118850013842774
  0.3273835848098940  0.6741257285898854  0.9947706160022136
  0.2639468992248055  0.7544142049649309  0.0931785077519365
  0.2365144975083027  0.7312336355666318  0.2517437167774119
  0.1410866136028019  0.8310851416574394  0.3345211687892231
  0.0841381339977829  0.9225708628645251  0.4208712052417880
  0.9916361577150212  0.9852609482281309  0.5074442824843146
  0.9205383314876343  0.1092028003875996  0.5658500069213730
  0.8411345007382778  0.1733573389627168  0.6667939530269464
  0.7357547129937245  0.2513204009782228  0.7286435303617580
  0.6661122226836440  0.3440330338685840  0.8271679475821330
  0.5842821027131748  0.4335934334625335  0.9305459856035441
  0.4937791006829073  0.4775746220930230  0.0043064927094889
  0.4074556727574716  0.5919655915466961  0.0841994264488761
  0.3359037366186755  0.6443469578257677  0.1741393600036929
  0.3347748417312673  0.6685401291989663  0.3264599520118097
  0.2422782535068322  0.7576814447212996  0.4128289022702134
  0.1638954826504246  0.8332522762089312  0.5161577750092263
  0.0602752417866341  0.9201984150055367  0.5828739760981918
  0.9880354872646748  0.0065049017165038  0.6568430458656351
  0.9171304489664109  0.1050182244370603  0.7668090079365086
  0.8138059334625325  0.1775347485234420  0.8343028119232159
  0.7350147522148376  0.2560761600221468  0.9244326024363261
  0.6503933319490613  0.3427946871539334  0.0020110086747849
  0.5641064138058312  0.4111955735511259  0.0893539244186030
  0.4882588086009605  0.4917600226098173  0.1487465642303434
  0.4214190868401602  0.5642399783130330  0.2581735935769629
  0.3953328691399065  0.5888676176633467  0.4181842331118517
  0.3255058490217806  0.6816359736064967  0.4906156519933589
  0.2413008614802479  0.7470261973975667  0.5868805689368770
  0.1633572231450700  0.8306299086378743  0.6686760026762641
  0.0743520505721662  0.9149371631598342  0.7317042940199343
  0.9965867930970873  0.9879506529162043  0.8317086411037309
  0.9197574243263205  0.1052389138058345  0.9029287712255467
  0.8214476550387602  0.1640983107235172  0.9858349520118139
  0.7405822157622737  0.2551891763565877  0.0863012947582149
  0.6636231363049063  0.3433072868217053  0.1385890969915096
  0.5929013164451860  0.4041113801218188  0.2422603728313035
  0.4987455527870068  0.5055884348468069  0.3344222033038022
  0.0780619329088239  0.0803063344407562  0.9349830264857886
  0.0164434007013625  0.1830338658176416  0.9993152228682192
  0.8994520971760807  0.2425063685861915  0.0746004748062035
  0.8293186332595042  0.3372807452011841  0.1714020325765944
  0.7581400452196405  0.4168606972129965  0.2480908536360289
  0.6605415526947240  0.4804036184939093  0.3361820044296806
  0.5870593738464365  0.5950034122369843  0.4193178239202666
  0.4925374007936512  0.6843160958840926  0.4940093844592113
  0.4048031589147314  0.7623807682724220  0.5871935718899977
  0.3238561221853047  0.8485324072536002  0.6705707267441881
  0.2438413076781103  0.9203118807678123  0.7661438155223337
  0.1628420487264677  0.9970401384274652  0.8549761886304879
  0.1881701471945334  0.0138276144333673  0.0043054614248774
  0.0874706367663336  0.0806089188815093  0.0910444799741583
  0.0134253949796985  0.1612946059431550  0.1613520962532320
  0.9270834320782555  0.2324415250092287  0.2424976730343289
  0.8378734011627884  0.3320283070321182  0.3411036004983359
  0.7609532765780713  0.4096953968253985  0.4180152916205273
  0.6816316749723157  0.5034156621447039  0.5018126135105234
  0.5919705647840559  0.5970913339793285  0.5699686683277960
  0.4999518397009979  0.6739017178848314  0.6610726887227756
  0.4113757133628653  0.7470750909007009  0.7562113178294538
  0.3292084634551529  0.8274237776854960  0.8283819536729453
  0.2462538468992221  0.9160305167958640  0.9133352450166115
  0.2400282599667776  0.9031697835917285  0.0905339700996706
  0.1589627634736033  0.0001694942783317  0.1663246470099651
  0.0854126448874126  0.0716038422849792  0.2369385123661871
  0.0127973911037316  0.1623262730712440  0.3230080251015153
  0.9228686406423066  0.2621357470468837  0.4132652357881170
  0.8170589294942801  0.3288435972683672  0.5136438150609095
  0.7428984210040639  0.4191995773348083  0.6007845334994428
  0.6725880001845681  0.5050730112587658  0.6726621885382045
  0.6020344878183863  0.5921379849575459  0.7475708061092661
  0.5101701859542231  0.6684144665928358  0.8310027523994066
  0.4122597808231845  0.7518562619970481  0.9019531658361046
  0.3264222826688794  0.8445706958287218  0.9923504046696223
  0.3139375885935749  0.8206796710040578  0.1738444199889244
  0.2278358397932791  0.9318276338132137  0.2434210437430764
  0.1598581256921392  0.0098078889811717  0.3410993521594676
  0.0805563921188650  0.0745528926725711  0.4422828700627548
  0.0015803396087151  0.1945020648763389  0.4906221603912897
  0.9221898735695859  0.2498888372093049  0.5847744481358461
  0.8194165245478047  0.3345642386489445  0.6632227611664803
  0.7456268484680706  0.4323539281100039  0.7425953557585814
  0.6700546650055372  0.5081814493355452  0.8420573675710585
  0.5868257179771135  0.5882896926910277  0.9380086674049437
  0.4849993839977884  0.6781420722591349  0.9985156755260221
  0.4086489022702082  0.7459596710040586  0.0869198195828744
  0.4337964004245123  0.7630150235326667  0.2359557867294200
  0.3263486941675922  0.8334741528239178  0.3071097231450750
  0.2340725452196395  0.9220658337947611  0.4141746368586183
  0.1648962550756750  0.0055549155592445  0.5075635834256218
  0.0778317409560714  0.0987133859357670  0.5822139359542291
  0.0125811018826170  0.1702431192321896  0.6792255726282761
  0.8965245251937972  0.2597015909929894  0.7661701748800311
  0.8096064114987058  0.3420290951458114  0.8353961032668877
  0.7500112093946072  0.4340082244370649  0.9203931196936139
  0.6701990047065323  0.4974040397748212  0.0377515503875969
  0.5801795745662588  0.5988060128276089  0.0786979526578051
  0.5029519573643384  0.6619868696936138  0.1681640107050555
  0.4940523062015529  0.6666889281100055  0.3247280869324456
  0.4162767755629417  0.7574815476190508  0.4066955514027342
  0.3188223135843486  0.8323170681063132  0.5030556473791066
  0.2435748583425621  0.9146315185492782  0.5818891643595450
  0.1751301790328554  0.0124854591177552  0.6704271027131767
  0.0876306095422663  0.0705531898301928  0.7545061766334413
  0.0095903433001112  0.1763605698597246  0.8239533361018800
  0.8979455080287906  0.2373042907899574  0.9221642672572870
  0.8142613182908818  0.3243546862310822  0.9837660908084160
  0.7561504143595457  0.4025698860280542  0.0984670676448900
  0.6714372895902514  0.5083792723329665  0.1554134657622726
  0.5813579678848271  0.5756482193613905  0.2587835012919868
  0.1539670150424541  0.1648496202473240  0.8328312070874873
  0.0887984662237002  0.2598268443152421  0.9032232036729440
  0.0014055887781481  0.3194157188999611  0.9911578179217457
  0.9022770787190879  0.4041101905684741  0.0625712984496118
  0.8302815393133969  0.4925805629383504  0.1806477094868981
  0.7556647434477668  0.5681128105389419  0.2606863395164254
  0.6868356842930936  0.6645748048172777  0.3507578723698757
  0.5967792506459944  0.7597912726098173  0.3989340762273912
  0.5099033790143963  0.8243980624769307  0.5044810082133608
  0.4204746853082284  0.9041247268364714  0.5881899778516058
  0.3374893678479154  0.9793201015134727  0.6730767806386098
  0.2383918969176833  0.0713167178848266  0.7580901642672586
  0.2578829138981149  0.1048959519195307  0.9055166542081921
  0.1515003557585857  0.1748250272240668  0.0051285889627195
  0.0899824990771521  0.2437772799003355  0.0629332069029189
  0.9927484380767808  0.3246505274086360  0.1413155717054266
  0.9263241094499790  0.4035594799741631  0.2425623181985941
  0.8400452662421571  0.4946358554817252  0.3353740014765592
  0.7610120639534870  0.5848384011627914  0.4246339078073120
  0.6698769162975253  0.6714344772056080  0.5083237924510868
  0.5855221548541891  0.7538554618863031  0.5878441985049818
  0.4948363330564760  0.8373577574750826  0.6631686166482069
  0.4326327736249524  0.8963425424510874  0.7588746114802518
  0.3369276384274613  0.0030832018272449  0.8104862052417872
  0.3380427145625688  0.9889098731081560  0.0151569052233285
  0.2447453059246953  0.1058966800479908  0.0852057941122197
  0.1735840425433750  0.1653599866186752  0.1658536097268382
  0.0857952643964595  0.2580445242709501  0.2532503714470309
  0.9920488261351039  0.3410882345884119  0.3197151984127018
  0.9162368364710218  0.4154603474529353  0.4176475276854958
  0.8284017930970862  0.4928701162790716  0.5070365896087097
  0.7515521179402000  0.5864950299926193  0.5913433979328175
  0.6641628945182703  0.6655544984311561  0.6680097877445519
  0.5989945547249889  0.7584571124031001  0.7471181561461790
  0.5184944329088239  0.8314938625876707  0.8448107664267255
  0.4108719665928362  0.9187757775009260  0.9162843918420052
  0.4118424760059085  0.9007855735511257  0.0844362241602070
  0.3066250318383155  0.9996190873015891  0.1598530532484332
  0.2460564364156497  0.0929250904392731  0.2489500909006992
  0.1609344841269831  0.1510434579180497  0.3404894790513140
  0.0995445279623510  0.2558370302694755  0.4000806344592078
  0.0091500244555220  0.3381941445182690  0.4902750036914014
  0.9209275770579524  0.4077091745108916  0.5733694347545253
  0.8474978520671854  0.5004394435215929  0.6679567617201911
  0.7532554581949071  0.5894968240125493  0.7587241906607574
  0.6660369693613859  0.6640032613510485  0.8275102583979361
  0.5882344209117747  0.7619564756367652  0.9074580181801437
  0.5095620131967493  0.8304321317829491  0.9935390125507553
  0.5044333600959732  0.8386437795311892  0.1644833005721651
  0.4074302376338110  0.9221374432447362  0.2441950858250266
  0.3297146202473229  0.9906633324104845  0.3300190965300871
  0.2607270948689546  0.0855182918050943  0.4376945884090091
  0.1687008301033615  0.1679090974529345  0.4891033347176048
  0.0694375595238128  0.2616258997785152  0.5946893037098562
  0.9922791952750103  0.3287973837209321  0.6740372425249177
  0.9042442077334840  0.4156826481173894  0.7563736415651547
  0.8336952067183461  0.4942724829272791  0.8320138399778543
  0.7403877307124418  0.5779594587486159  0.9253721451642676
  0.6760288256736828  0.6762041569767447  0.0219716343669276
  0.5799809629937229  0.7493079669619789  0.0933271816168357
  0.5826465536175718  0.7609096530084898  0.2446456210778862
  0.5113701997969713  0.8470846802325553  0.3285983153377643
  0.4231086964747135  0.9157540776116662  0.4180960917312646
  0.3355424806201555  0.9901699413990386  0.5015901005906258
  0.2567267515688414  0.0876962693798475  0.5978390905315649
  0.1602933813215230  0.1738002523994098  0.6701526158176421
  0.0800536351052017  0.2818020588778154  0.7453956386120311
  0.9797255712440034  0.3379634740679194  0.8507802542451088
  0.9079475890549986  0.4298906164636378  0.9232786627907004
  0.8390943789221126  0.4931882664267278  0.0036904009782219
  0.7703267977113342  0.5940164345699515  0.0940479715762308
  0.6689909902177931  0.6591982848837219  0.1762330574012552
  0.2570282188999613  0.2586214742524930  0.7561494112218554
  0.1783444522886697  0.3286300729051277  0.8220199889258026
  0.0775270662606147  0.4024639451827241  0.9137742026578053
  0.9950591948135852  0.4854498777224094  0.9933185774270967
  0.9323627745478049  0.5719507156699919  0.0933233301033596
  0.8439424663159869  0.6602069892026563  0.1774761992432659
  0.7651126748800294  0.7565101638058351  0.2476471751568852
  0.6532636480251028  0.8353205218715374  0.3328042589516400
  0.5716454637320041  0.9281290305463301  0.4156971354743462
  0.5029974284791408  0.9958659399224814  0.5137841717423370
  0.4123327491694369  0.0780367631044641  0.5934724026393496
  0.3523798786452588  0.1662642012735347  0.6900755089516437
  0.3428500673680333  0.1628421124030979  0.8169541777408611
  0.2583721433185673  0.2461331889073435  0.9210733697859013
  0.1647481589147262  0.3297893124769260  0.9967754748061992
  0.0803099538575154  0.4026638865817631  0.0766419845884059
  0.9970783324104815  0.4775712361572531  0.1589473394241452
  0.9281617234219297  0.5752686590993008  0.2530439350313785
  0.8319725738279828  0.6678767787929090  0.3270446640826847
  0.7597873892580296  0.7540478977482437  0.4184568641565178
  0.6581212264673297  0.8402099012550721  0.4924938002953141
  0.5700945334994429  0.9219430726282738  0.5815440969915073
  0.5090403839055000  0.0010624598560369  0.6668998611111121
  0.4347497314507223  0.0815396608527124  0.7421832082871873
  0.4241798675710626  0.0664144592100371  0.8965628806755248
  0.3530049635474342  0.1480193184754555  0.9945028253045436
  0.2646012052417888  0.2500818143226269  0.0806770851790333
  0.1739280052602439  0.3326824206349173  0.1556173361941688
  0.0902189894795100  0.3975295436507906  0.2429897185308221
  0.0120181395348808  0.4906421862310850  0.3312242340346998
  0.9184904143595389  0.5760764770210400  0.4134730647840499
  0.8321312347729801  0.6530202154854194  0.4932512366186756
  0.7439675710594287  0.7614684426910330  0.5835344366002246
  0.6607333448689587  0.8459698325027674  0.6560059523809514
  0.5899673708010340  0.9230033139534868  0.7541109643780004
  0.5093879222037643  0.9929777985419008  0.8213049174049445
  0.4877110889627190  0.9952283047249892  0.9967331953672911
  0.4190650327611678  0.0714131344592133  0.0920692930970830
  0.3311801139719464  0.1690721779254361  0.1521254489664088
  0.2553696405500219  0.2519361249538576  0.2490324967700275
  0.1832223241971178  0.3407728834440746  0.3338366671280895
  0.0766792261904783  0.4137245007382830  0.4199727251753416
  0.0059762504614227  0.4978111480251002  0.5029991726651915
  0.9080985349760056  0.5709741371354724  0.5850211927833158
  0.8277208711701718  0.6648748458840927  0.6540714165743822
  0.7448998214285680  0.7532720454964945  0.7422011563307507
  0.6641567520302658  0.8372965388519731  0.8418434772978927
  0.5720868936877110  0.9369373140457711  0.9164272005352530
  0.5869253368401601  0.9397250424510872  0.0875245016611288
  0.5098486184939119  0.0057436452565511  0.1710353935954245
  0.3983322420634892  0.0753796940753020  0.2531596465485393
  0.3356832655038744  0.1616338049095631  0.3312511872462167
  0.2538813205980048  0.2526074524732351  0.4254457073643394
  0.1835008176448909  0.3300102745478029  0.5149540766888165
  0.0862944601328905  0.4143573449612390  0.5863268129383528
  0.0030662449243266  0.4830965411590995  0.6643370025839772
  0.9080668157069027  0.5739889996308634  0.7555992511074194
  0.8296119882798081  0.6745786743263196  0.8329830357142853
  0.7409022697489860  0.7607497808231827  0.9253073712624555
  0.6575022715946872  0.8332137273901807  0.9969088607419678
  0.6801025664451856  0.8397223680324828  0.1623198671096375
  0.5888360497416016  0.9354982821151694  0.2502309754521974
  0.5276125484496106  0.0094322517534167  0.3316483305647822
  0.4069294739756373  0.0760558222591357  0.4137058342561843
  0.3482276024363244  0.1674988261351018  0.5157086835548199
  0.2599459971391624  0.2457735142118835  0.5957218946105556
  0.1680628303802152  0.3436509214654819  0.6750397780546322
  0.0721627846991524  0.4120175752122535  0.7470399760059081
  0.9929294707456648  0.4960643124769319  0.8296546447028419
  0.9155263570505738  0.5833156630675518  0.9200582405869326
  0.8374173703396082  0.6692339830195664  0.9957744868955345
  0.7581018083241062  0.7669613132152051  0.0932118203211516
  0.3400609468438560  0.3303190605389474  0.6875662204688098
  0.2528748149686209  0.4297956455334102  0.7694576873385017
  0.1664123823366523  0.5126652487080108  0.8396390946843866
  0.0910191463639691  0.5756178742155811  0.9112737518456981
  0.9751703506829088  0.6777863787375438  0.0071285502030278
  0.9133105057216682  0.7439954452750115  0.0945992492617194
  0.8367676762643015  0.8466441638981195  0.1680950553709835
  0.7615141196013298  0.9283652334809886  0.2532435811184968
  0.6764702943890768  0.0014034509966763  0.3301137264673315
  0.5842957918050971  0.0760751854928046  0.4193625645994814
  0.4966652011812442  0.1597316302141039  0.5038557018272414
  0.4203895768733830  0.2464890771502368  0.5915722988187539
  0.4409671719269070  0.2680492483388690  0.7654917829457375
  0.3434402454780354  0.3276407761166453  0.8338777768549264
  0.2451434989848664  0.4215025669066108  0.9030285142118828
  0.1628625982834961  0.4793938122923578  0.9962159722222239
  0.0775607198228130  0.5773383264119616  0.0792829111295674
  0.9997609103912879  0.6514671885382057  0.1599529812661515
  0.9157106953672951  0.7569279545035101  0.2397200802879311
  0.8401109740679189  0.8344528792912485  0.3296204997231484
  0.7524274561646394  0.8996256178479172  0.4129468424695446
  0.6727817718715414  0.0006148292727914  0.5002336498708004
  0.5915576310446653  0.0881690794573657  0.5785641772794392
  0.4994358896271720  0.1505132267441880  0.6818330670911763
  0.5164970939461071  0.1605289364156519  0.8373071387043183
  0.4235822439091947  0.2639009463824280  0.9087746908453269
  0.3415428331487647  0.3394304194352173  0.9818602625507538
  0.2479184851421223  0.4157625272240679  0.0849407050572140
  0.1681618443152431  0.4936151688815045  0.1588631123108186
  0.0875305675526050  0.5734113104466587  0.2383381164636376
  0.0017631012366195  0.6612523343484682  0.3440044306017001
  0.9140824603174593  0.7366108905500184  0.4219447503691427
  0.8437290688445884  0.8366918512366155  0.4918005569398289
  0.7522321165559234  0.9195962269287534  0.5742555481727578
  0.6825585866555954  0.0002009722222240  0.6724106399963077
  0.6036956183093380  0.0820987758397962  0.7416494712070900
  0.5996626079734213  0.0736643701550364  0.9174982756552197
  0.5001202145625712  0.1462620837947597  0.0020643337024708
  0.4017549298634151  0.2386131335363615  0.0860966352897776
  0.3151285040605387  0.3183517317275744  0.1782413385935797
  0.2486841265227042  0.3971382073643426  0.2437640840716142
  0.1652688482834961  0.4854796862310806  0.3367058190291630
  0.0881833803986680  0.5890105001845711  0.4109101250461435
  0.0037928626799584  0.6577934722222238  0.5148626504245115
  0.9037808397932849  0.7520366412882993  0.5840941897379111
  0.8206195745662583  0.8330389502583984  0.6621532387412330
  0.7681852791620543  0.9077111360280554  0.7396314207272070
  0.6712804337393905  0.9871477990033242  0.8380840610003659
  0.6875253968254000  0.0033351125876706  0.9972640337763039
  0.5786799321705445  0.0790364124215586  0.0799608517903252
  0.4935692344961211  0.1479137177002556  0.1828800226098224
  0.4187557152085617  0.2432025359911378  0.2553376255075648
  0.3475204563492085  0.3287341634366925  0.3253302094868928
  0.2472071419342896  0.4068346696197835  0.4130889050387623
  0.1649629125138432  0.4962723629568089  0.4953909085455876
  0.0975564996308620  0.5747044582871936  0.5853777011812440
  0.9843581755260260  0.6444889424141778  0.6615529964931710
  0.9042460455887777  0.7550819808970104  0.7400400406053862
  0.8339012776854915  0.8253789142672545  0.8363786918604674
  0.7629659906792199  0.9068391726651868  0.9088327187153951
  0.7608841869693634  0.9296565416205240  0.0780569661314132
  0.6712776910298999  0.0292543673864927  0.1596711360280523
  0.5920314285714312  0.0852537836840170  0.2571677505537124
  0.5048006699889243  0.1574311231081609  0.3236932631967520
  0.4298408171834609  0.2634521608527152  0.4185274229420415
  0.3470187998338901  0.3395900802879268  0.4995549007936475
  0.2668256261535618  0.4210372775932072  0.5931137006275407
  0.1728765346991494  0.5046945039682527  0.6537704120524168
  0.0657750092284957  0.5800048444998183  0.7420199584717579
  0.9750272222222236  0.6657851148947955  0.8376181427648604
  0.9011030569398315  0.7625066495939450  0.9163445699520096
  0.8304628197674404  0.8288562684569953  0.0254483167220343
  0.4105537679955731  0.4303460525101528  0.6021573966408269
  0.3410312822997383  0.5123575239940905  0.6818700424510880
  0.2449114401070531  0.5979411969361408  0.7582209676079756
  0.1565556699889257  0.6653177334809897  0.8317804365079340
  0.0685069421373186  0.7543498015873027  0.8999719832041322
  0.9948250184569929  0.8311677510151370  0.0182055601698039
  0.9189281409191565  0.9414922471391662  0.0717155186415681
  0.8253885239018075  0.9997317068106284  0.1685409362310821
  0.7504819029162064  0.0798088496677707  0.2589583144149117
  0.6490627879291253  0.1762118932262808  0.3239235760428230
  0.5769519250645985  0.2544453723698794  0.4199867534145412
  0.5032551301218149  0.3359237213916586  0.5164209519195282
  0.5121129448135875  0.3377583813215210  0.6675345842561811
  0.4460454019010669  0.4274336489479538  0.7540445538021388
  0.3364532355112573  0.5164432193613848  0.8353205278700599
  0.2479510622000731  0.5792727514765588  0.9183151758028814
  0.1686150747508322  0.6722491320598039  0.9911748112772258
  0.0821012333887055  0.7408875839793296  0.0900362753783668
  0.0018061337209332  0.8401208121077914  0.1582341883536387
  0.9189063588962725  0.9439029928017746  0.2599242197305287
  0.8291651435031397  0.0164131676818045  0.3459373112772255
  0.7448705071059436  0.1065048911037252  0.4263273098929474
  0.6681663390549986  0.1881626513473620  0.4895800359911391
  0.5907105398671106  0.2461805292543389  0.5942473329641942
  0.5777128677556291  0.2313301172019209  0.7693938533591762
  0.5183192774086365  0.3471367746400915  0.8408787541528255
  0.4274071848468068  0.4141184634551465  0.9086509177740894
  0.3401412232373602  0.5026269619785921  0.0034485022148374
  0.2496338588962743  0.5716728894425955  0.0697957691952737
  0.1759089604097426  0.6470462315430012  0.1488142234219296
  0.0675444813584321  0.7222217870985617  0.2564984786821682
  0.9962936923218919  0.8433436286452576  0.3243927934662238
  0.9145089871723897  0.9132778774455517  0.4024684062384623
  0.8364043743078611  0.0101704092838659  0.5007928959025492
  0.7697931939830198  0.0977929586563278  0.5867319578257693
  0.6775860483573268  0.1641936544850466  0.6816023620339635
  0.6740512347729819  0.1519650858250259  0.8387611263381345
  0.5833502943890707  0.2353023398855640  0.9113392870985635
  0.5042415550018475  0.3294286867847944  0.0037469721299388
  0.4115998952565505  0.3923584020856410  0.1050088925802868
  0.3284268715393139  0.4954007631967485  0.1544184288482811
  0.2472034579180544  0.5645370021225560  0.2500505610926567
  0.1678691136028050  0.6643320948689535  0.3431130975452206
  0.0761537158545593  0.7499892455703190  0.4304368503137681
  0.9837857262827612  0.8339446119416749  0.4870262347729764
  0.9082976079734237  0.9180021165559253  0.5790933430232528
  0.8478179517349602  0.0050094541343668  0.6503443401624196
  0.7502855947766705  0.0778932461240345  0.7554124335548167
  0.7552435700442999  0.0636585963455119  0.9103436757105925
  0.6815576291989629  0.1464015646917716  0.0009651102805464
  0.5917146539313407  0.2257908273348121  0.0760010418973778
  0.4975696585455864  0.3131310349760028  0.1677774409376127
  0.4134467095791834  0.4056341915836086  0.2455950124584731
  0.3332443235511278  0.4796400096899234  0.3327827445551890
  0.2594048103543756  0.5838856861387995  0.4104160068290881
  0.1647025789036576  0.6732460529715780  0.4952007581210793
  0.0668984122369878  0.7445133808600986  0.5787477279438917
  0.0010956473791097  0.8222576767257266  0.6648457452011840
  0.9122923329641921  0.9059828414544100  0.7398457950350661
  0.8465838741232901  0.0020236138796577  0.8178141306755293
  0.8297859671465488  0.0092688791989630  0.0024523634182358
  0.7503916066814327  0.0872468567737172  0.0664602044112215
  0.6725612024732399  0.1622866154485081  0.1710637818383134
  0.5834242141934283  0.2495408937799937  0.2286785054448117
  0.5101716219084551  0.3319506349206378  0.3309886821705419
  0.4309864244186059  0.4038413759689945  0.4253460017534110
  0.3485168627722430  0.4934382488925806  0.4867779720376504
  0.2466957207456630  0.5797989281100016  0.5698632050572172
  0.1506361757105950  0.6710458845514964  0.6693974644702863
  0.0717006653746779  0.7499817414174998  0.7241960155961635
  0.9951907262827646  0.8561437486157217  0.8340749580103335
  0.9089112956810652  0.8997219167589492  0.9197635672757443
 
  0.00000000E+00  0.00000000E+00  0.00000000E+00
  0.00000000E+00  0.00000000E+00  0.00000000E+00
  0.00000000E+00  0.00000000E+00  0.00000000E+00
  0.00000000E+00  0.00000000E+00  0.00000000E+00
  0.00000000E+00  0.00000000E+00  0.00000000E+00
  0.00000000E+00  0.00000000E+00  0.00000000E+00
  0.00000000E+00  0.00000000E+00  0.00000000E+00
  0.00000000E+00  0.00000000E+00  0.00000000E+00
  0.00000000E+00  0.00000000E+00  0.00000000E+00
  0.00000000E+00  0.00000000E+00  0.00000000E+00
  0.00000000E+00  0.00000000E+00  0.00000000E+00
  0.00000000E+00  0.00000000E+00  0.00000000E+00
  0.00000000E+00  0.00000000E+00  0.00000000E+00
  0.00000000E+00  0.00000000E+00  0.00000000E+00
  0.00000000E+00  0.00000000E+00  0.00000000E+00
  0.00000000E+00  0.00000000E+00  0.00000000E+00
  0.00000000E+00  0.00000000E+00  0.00000000E+00
  0.00000000E+00  0.00000000E+00  0.00000000E+00
  0.00000000E+00  0.00000000E+00  0.00000000E+00
  0.00000000E+00  0.00000000E+00  0.00000000E+00
  0.00000000E+00  0.00000000E+00  0.00000000E+00
  0.00000000E+00  0.00000000E+00  0.00000000E+00
  0.00000000E+00  0.00000000E+00  0.00000000E+00
  0.00000000E+00  0.00000000E+00  0.00000000E+00
  0.00000000E+00  0.00000000E+00  0.00000000E+00
  0.00000000E+00  0.00000000E+00  0.00000000E+00
  0.00000000E+00  0.00000000E+00  0.00000000E+00
  0.00000000E+00  0.00000000E+00  0.00000000E+00
  0.00000000E+00  0.00000000E+00  0.00000000E+00
  0.00000000E+00  0.00000000E+00  0.00000000E+00
  0.00000000E+00  0.00000000E+00  0.00000000E+00
  0.00000000E+00  0.00000000E+00  0.00000000E+00
  0.00000000E+00  0.00000000E+00  0.00000000E+00
  0.00000000E+00  0.00000000E+00  0.00000000E+00
  0.00000000E+00  0.00000000E+00  0.00000000E+00
  0.00000000E+00  0.00000000E+00  0.00000000E+00
  0.00000000E+00  0.00000000E+00  0.00000000E+00
  0.00000000E+00  0.00000000E+00  0.00000000E+00
  0.00000000E+00  0.00000000E+00  0.00000000E+00
  0.00000000E+00  0.00000000E+00  0.00000000E+00
  0.00000000E+00  0.00000000E+00  0.00000000E+00
  0.00000000E+00  0.00000000E+00  0.00000000E+00
  0.00000000E+00  0.00000000E+00  0.00000000E+00
  0.00000000E+00  0.00000000E+00  0.00000000E+00
  0.00000000E+00  0.00000000E+00  0.00000000E+00
  0.00000000E+00  0.00000000E+00  0.00000000E+00
  0.00000000E+00  0.00000000E+00  0.00000000E+00
  0.00000000E+00  0.00000000E+00  0.00000000E+00
  0.00000000E+00  0.00000000E+00  0.00000000E+00
  0.00000000E+00  0.00000000E+00  0.00000000E+00
  0.00000000E+00  0.00000000E+00  0.00000000E+00
  0.00000000E+00  0.00000000E+00  0.00000000E+00
  0.00000000E+00  0.00000000E+00  0.00000000E+00
  0.00000000E+00  0.00000000E+00  0.00000000E+00
  0.00000000E+00  0.00000000E+00  0.00000000E+00
  0.00000000E+00  0.00000000E+00  0.00000000E+00
  0.00000000E+00  0.00000000E+00  0.00000000E+00
  0.00000000E+00  0.00000000E+00  0.00000000E+00
  0.00000000E+00  0.00000000E+00  0.00000000E+00
  0.00000000E+00  0.00000000E+00  0.00000000E+00
  0.00000000E+00  0.00000000E+00  0.00000000E+00
  0.00000000E+00  0.00000000E+00  0.00000000E+00
  0.00000000E+00  0.00000000E+00  0.00000000E+00
  0.00000000E+00  0.00000000E+00  0.00000000E+00
  0.00000000E+00  0.00000000E+00  0.00000000E+00
  0.00000000E+00  0.00000000E+00  0.00000000E+00
  0.00000000E+00  0.00000000E+00  0.00000000E+00
  0.00000000E+00  0.00000000E+00  0.00000000E+00