Li 
 1.0000000000000000
    21.6720000000000006    0.0000000000000000    0.0000000000000000
     0.0000000000000000   21.6720000000000006    0.0000000000000000
     0.0000000000000000    0.0000000000000000   21.6720000000000006
 Li 
 432
Cartesian
 -0.2331999200000000 -0.0576672700000000 -0.3197824500000000
 20.0355586400000014  2.0734181800000000  1.9650663399999999
 17.7543838700000016  3.4341621199999999  3.4654276199999998
 15.9909134200000000  5.2750510100000003  5.1317524399999996
 14.4498861600000001  7.2683635200000003  6.9945366800000004
 12.4018738499999994  9.3340226499999996  9.1570142800000003
 10.6842898200000000 11.0842359699999999 10.8376046800000001
  8.5265888099999998 12.9698058899999999 12.7260438800000006
  7.1036451100000004 14.6205413800000006 14.8291588300000008
  5.0203564600000004 16.5529955800000010 16.4994054100000014
  3.2847719500000001 18.0568719900000012 18.1242914800000001
  1.9809111600000000 19.7311812199999999 20.1608988300000007
  1.9065313100000001 19.9664781399999995  1.6977739700000001
 -0.0735460800000000 -0.4767530800000000  3.3785973000000000
 19.7347650799999990  1.5568476000000000  5.2130644799999999
 17.8011663800000015  3.5030496000000002  7.0135148599999999
 15.9998356400000006  5.4877345599999998  8.8067333199999993
 14.3131613699999996  7.4290685999999999 10.9923173300000006
 12.5023503399999996  9.2674787199999997 12.6944606100000001
 11.2117978100000002 11.0998468799999994 14.1033474600000002
  9.2722077200000008 12.4983337199999998 16.3893824300000013
  6.7774326800000004 14.3835139000000005 17.8414082299999990
  5.3921941000000002 16.2294530600000009 19.4639392800000017
  3.5522600899999999 17.9911450899999998 -0.0664548000000000
  3.5050282899999998 17.8560376199999986  3.6379787900000000
  1.8603136199999999 19.7757958400000007  5.7056719999999999
  0.1625155800000000 -0.2409040000000000  7.5791546700000003
 20.1048964300000002  1.9977023000000000  9.2303992200000007
 18.2487376999999995  4.1301961900000004 10.3893564499999993
 15.9521326299999995  5.3215063000000002 12.6168729200000005
 14.1419413600000006  7.0331824200000002 14.1324964499999997
 12.7058557600000004  9.0408613399999993 16.4271372800000002
 11.1890402600000005 10.9995514500000002 18.2486973399999997
  9.2062758200000001 12.6575431100000007 19.7623717499999998
  7.0950570500000003 14.6096527900000002 21.5586687899999987
  5.7202571999999998 16.3496646500000011  2.0193646200000002
  5.1257421900000004 15.8472953499999996  5.4557898299999996
  3.0576290899999998 18.0112771900000013  7.2497427700000001
  1.8234416400000000 19.9939557400000005  9.1211207600000002
 -0.1812611900000000 -0.3194247300000000 10.9973324899999998
 19.9499067200000013  2.3666430900000002 12.2631013499999995
 18.2290668999999994  3.7570002499999999 14.4507585499999998
 15.9452761400000007  5.4466157300000004 15.7911625900000008
 14.4359840899999998  7.4558839099999998 17.9263837600000002
 12.6625617300000002  9.3968368899999994 20.1667926000000008
 10.7011806699999994 10.3499972099999997  0.0933303100000000
  8.8303793400000004 12.8290783000000008  1.8247699700000000
  7.2797057799999996 13.9642872699999998  3.7739482099999999
  7.2552403700000001 14.4886016800000004  7.0750400800000000
  5.2506543099999998 16.4204722700000012  8.9468279699999993
  3.5519428999999998 18.0582433299999998 11.1861712999999998
  1.3062850399999999 19.9425400500000016 12.6320448100000000
 -0.2592949200000000  0.1409742300000000 14.2351024899999992
 19.8760510900000007  2.2759549600000000 16.6182848199999995
 17.6368021900000009  3.8475330699999999 18.0810105400000012
 15.9292397099999992  5.5496825400000001 20.0343033599999991
 14.0953242900000006  7.4290464600000004  0.0435825800000000
 12.2253141999999997  8.9114304700000009  1.9364782500000000
 10.5815449000000008 10.6574232099999993  3.2236355400000001
  9.1329944500000000 12.2282088099999999  5.5951381199999997
  8.5676539399999996 12.7619390100000007  9.0628887000000002
  7.0543627600000001 14.7724148199999998 10.6326224099999997
  5.2294722699999996 16.1895517499999997 12.7188756900000008
  3.5402777400000001 18.0014113800000004 14.4915463300000003
  1.6113576400000000 19.8285182000000013 15.8574954600000009
 -0.0739710200000000 -0.2611334500000000 18.0247896700000005
 19.9329828999999989  2.2807377400000002 19.5682723299999992
 17.8024135799999996  3.5563385900000002 21.3650150799999992
 16.0498977799999984  5.5304598299999999  1.8703216600000001
 14.3820406100000007  7.4401555200000002  3.0035029099999999
 12.8493573300000001  8.7579018299999998  5.2502668000000003
 10.8088136200000005 10.9571125600000006  7.2475979900000000
  1.6917582099999999  1.7403988800000001 20.2629521500000003
  0.3563613800000000  3.9667099399999999 -0.0148404900000000
 19.4929258499999989  5.2555980199999999  1.6167414899999999
 17.9729934200000017  7.3095483100000003  3.7146248499999999
 16.4304110600000008  9.0342050300000007  5.3766249799999999
 14.3152565299999992 10.4113072199999994  7.2857364000000002
 12.7227507499999994 12.8949139499999994  9.0874558800000003
 10.6742705499999992 14.8304984300000005 10.7061713800000007
  8.7728940600000005 16.5223160100000008 12.7256590900000006
  7.0186098799999996 18.3893943299999982 14.5326087899999994
  5.2845288200000002 19.9449990799999988 16.6038687699999983
  3.5291128800000000 -0.0641461200000000 18.5290439599999992
  4.0780234300000000  0.2996720600000000  0.0933079600000000
  1.8956636400000000  1.7469564900000001  1.9731159700000001
  0.2909551600000000  3.4955767000000000  3.4968226300000000
 20.0917521400000005  5.0374727300000002  5.2554095700000003
 18.1583923499999997  7.1957174699999999  7.3923972300000003
 16.4913794100000004  8.8789186400000002  9.0592273999999993
 14.7723216599999994 10.9100242299999994 10.8752829599999998
 12.8291860799999995 12.9401633900000004 12.3523609800000003
 10.8349562699999993 14.6047980299999995 14.3267673099999993
  8.9153344600000004 16.1906113699999992 16.3886116800000003
  7.1346058200000000 17.9319281100000012 17.9526937000000011
  5.3368133699999998 19.8522133600000004 19.7938014299999985
  5.2018924499999999 19.5734955500000005  1.9620522000000000
  3.4450410100000002  0.0036732800000000  3.6045877499999999
  1.8510628400000000  1.5517984700000000  5.1349314399999999
  0.2773450600000000  3.5179349900000001  7.0002299199999998
 20.0004091799999983  5.6810059099999997  8.9562841899999999
 17.7073011200000003  7.1266984400000002 11.1316887599999994
 16.1000945800000004  9.0848932399999995 13.0202024099999996
 14.5763271400000001 10.9459423000000005 14.5779349499999995
 13.0472914200000005 12.8328144099999992 16.2013545100000016
 11.0564082700000004 14.4858783199999994 18.0094916500000011
  8.9344939700000001 16.2942289100000011 19.5471290099999990
  7.0742237100000001 18.3035361200000004 21.5062179700000016
  6.8036554200000001 17.7857698299999996  3.7675562700000000
  4.9376583199999997 20.1945684800000009  5.2754208599999997
  3.4644452999999999  0.2125565700000000  7.3923051600000003
  1.7458181300000000  1.6157102900000000  9.5851543600000007
  0.0342491200000000  4.2152487499999998 10.6327634599999996
 19.9856989399999989  5.4155908799999999 12.6732318399999997
 17.7583949200000006  7.2506761800000001 14.3733636800000006
 16.1592250600000007  9.3699743299999998 16.0935265500000000
 14.5214247000000007 11.0133083700000007 18.2490672700000012
 12.7176869600000000 12.7494142200000002 20.3285238399999990
 10.5109066500000008 14.6966949899999992 21.6398317200000001
  8.8562390099999995 16.1664379899999986  1.8837263300000000
  9.4012355900000006 16.5360615899999992  5.1136338099999996
  7.0726288999999998 18.0630518400000000  6.6556819200000001
  5.0728201999999998 19.9830107499999983  8.9759927299999998
  3.5736316399999999  0.1203861300000000 10.9999179799999993
  1.6867694900000001  2.1393165000000001 12.6177404200000005
  0.2726576400000000  3.6895088800000000 14.7201766099999993
 19.4294795100000002  5.6282528799999998 16.6044400299999992
 17.5457901499999984  7.4124545499999996 18.1047043499999987
 16.2542429300000002  9.4058262399999997 19.9467596900000004
 14.5245528299999993 10.7797403500000009 22.4901516000000008
 12.5736517400000007 12.9773239100000009  1.7055420299999999
 10.8999748200000006 14.3465794399999993  3.6444504400000000
 10.7071015799999998 14.4484824500000002  7.0375071000000000
  9.0215502799999996 16.4161400999999998  8.8139059900000003
  6.9095171799999999 18.0379755000000017 10.9022219899999993
  5.2787543299999999 19.8218942700000014 12.6107019699999992
  3.7954212400000000  0.2705848700000000 14.5294961699999998
  1.8991305700000001  1.5290287300000001 16.3516578599999995
  0.2078419200000000  3.8220862699999998 17.8567166999999998
 19.4602750499999999  5.1428585900000003 19.9851439999999982
 17.6466712900000005  7.0294147599999999 21.3201787200000012
 16.3872917800000018  8.7244945699999992  2.1339782899999999
 14.5513889400000007 11.0175955900000009  3.3681206299999999
 12.5991898800000008 12.4754482099999997  5.6083560400000003
  3.3367731500000000  3.5726209700000000 18.0491179200000005
  1.9244403600000000  5.6309673699999996 19.5746532699999989
  0.0304619200000000  6.9223774599999999 -0.1916277700000000
 19.5541488500000007  8.7578760500000001  1.3560451800000000
 17.9938615199999994 10.6752059599999995  3.9149971600000000
 16.3767663200000015 12.3121408300000006  5.6495943500000001
 14.8851029500000003 14.4026651700000006  7.6016246100000000
 12.9333999199999994 16.4661964599999990  8.6456993000000004
 11.0506260300000001 17.8663548100000007 10.9331124099999997
  9.1125273799999995 19.5941910800000016 12.7472531999999994
  7.3140695800000000 21.2238252400000000 14.5869199900000002
  5.1664291899999997  1.5455759099999999 16.4293300400000000
  5.5888385100000004  2.2733050700000001 19.6243569300000011
  3.2833157100000001  3.7888079900000000  0.1111467800000000
  1.9501007200000000  5.2831412100000001  1.3638884600000001
 -0.1571558500000000  7.0358262299999996  3.0625910699999999
 20.0752960999999992  8.7459410500000008  5.2568105599999999
 18.2054610100000005 10.7197482599999994  7.2682253599999997
 16.4926534499999988 12.6746178300000008  9.2026660499999995
 14.5175725300000007 14.5513279900000008 11.0163932300000003
 12.6894361399999998 16.3375555699999992 12.7397594699999992
 10.7240930100000007 18.1472173199999993 14.3721902600000000
  9.3760174700000007 19.4255355799999982 16.4463305800000015
  7.3018957799999997 21.7388191500000012 17.5648570399999997
  7.3260617100000003 -0.2403452300000000  0.3284804500000000
  5.3041202700000003  2.2949928499999999  1.8465799700000001
  3.7619133699999998  3.5836816300000001  3.5943794300000000
  1.8593549700000001  5.5923409299999998  5.4884420499999997
 -0.1723178400000000  7.3920642200000000  6.9288677800000000
 19.8566847200000005  9.0038566499999995  9.0512572200000001
 17.9531236599999993 10.6814811600000006 10.9884969699999999
 16.2876374999999989 12.7105202899999998 12.8155941200000001
 14.3937382500000002 14.4238970900000005 14.4771081200000005
 12.9814099899999995 16.4372825400000018 16.1915446799999998
 11.2368113500000000 18.0201349899999990 18.3087389300000005
  8.9044172600000007 19.9117086500000013 19.8577153399999986
  8.9254501400000006 19.5218249499999992  1.8299018499999999
  6.6451776899999997 -0.0082551400000000  3.4643353700000001
  5.3325350900000004  2.0138725599999998  5.3952463699999997
  3.4877721400000001  3.2734138200000000  7.3790879900000004
  2.1573290100000002  5.5445001200000004  8.6705475100000005
  0.1982993300000000  7.3293435000000002 10.6252398800000005
 19.9583424500000000  8.8358732300000007 12.4260623900000002
 18.3669734499999997 10.8455236199999998 14.4759589399999999
 16.3245522899999997 12.7755751699999998 16.4430706600000001
 14.4343532000000003 14.3902786799999998 17.9338023200000016
 12.7482163699999997 16.5131207400000015 19.6664301700000017
 11.0432279500000003 17.9971251599999995 21.5319774799999983
 10.9320797800000005 18.1750879900000015  3.5646820899999998
  8.8298281099999993 19.9845626699999990  5.2921959000000003
  7.1455752500000003 -0.2023442600000000  7.1521738600000004
  5.6504776000000003  1.8533524200000000  9.4857171200000003
  3.6560843900000002  3.6389259599999999 10.5998474700000003
  1.5048507900000001  5.6699564999999996 12.8881065899999996
 -0.1673252800000000  7.1256969000000003 14.6077351199999992
 19.5967804699999988  9.0086743499999997 16.3921295600000008
 18.0678425199999992 10.7118732500000000 18.0314039400000006
 16.0456828999999992 12.5255373900000002 20.0546651300000001
 14.6508967099999996 14.6546964899999992 22.1481692599999995
 12.5693474300000005 16.2390022599999995  2.0225866799999999
 12.6271161099999993 16.4904340000000005  5.3019598999999999
 11.0824149700000003 18.3580191900000003  7.1213826899999999
  9.1696116700000001 19.8462223699999996  9.0609784999999992
  7.2718766400000003 -0.2130370300000000 10.8704606600000009
  5.5637821599999997  1.9005535499999999 12.9563687699999992
  3.4738781599999999  3.7665990699999998 14.5235474900000003
  1.7349223800000000  6.1072142200000004 16.1542142800000015
 -0.4393874200000000  7.3243444100000001 18.4381096699999993
 19.6770401499999998  9.3165894399999996 20.0092951799999987
 18.1848533799999998 10.6883761100000001 21.7519783699999998
 16.6945223600000006 12.8735241699999996  2.0382076400000000
 14.4983727400000006 14.2861452300000007  3.8193228200000000
  5.5703155600000001  5.6048445899999999 16.3872700400000006
  3.8650809700000002  7.1220709400000004 17.8148172000000002
  1.6801665800000001  8.7221986200000003 19.8033145200000007
 -0.1070771300000000 10.5206697499999997 -0.1447997900000000
 20.2061660500000002 12.3953159100000008  2.0225032100000000
 18.2899211299999997 14.3080058700000006  3.8462641899999999
 16.5815218900000012 16.3950882699999987  5.3670095800000004
 14.1575297800000008 18.1030663499999989  7.2125339000000004
 12.3887004899999997 20.1144123499999985  9.0089883200000003
 10.9009602700000006 -0.0895933500000000 11.1347305700000003
  8.9360753400000004  1.6912127299999999 12.8617339099999999
  7.6367767300000002  3.6032777700000000 14.9553164299999999
  7.4302466599999999  3.5291142600000001 17.7050309400000003
  5.5994410900000000  5.3341984699999996 19.9615020700000017
  3.5704221000000000  7.1471939799999999 -0.0698819100000000
  1.7404773200000001  8.7265317499999995  1.6609850900000001
 -0.0633183800000000 10.3499238299999998  3.4447067400000000
 20.1151208699999984 12.4672223800000008  5.4839681599999999
 18.0305096200000001 14.4742255499999999  7.0877119600000000
 16.4661122999999989 16.3417260400000011  9.0687971600000008
 14.2628032200000003 18.2090289799999994 10.6733256399999998
 12.3550887300000003 19.9803502699999989 12.6032236700000002
 11.0319231999999996 21.6950256299999999 14.4530537900000002
  9.4218961799999992  1.7671275300000000 16.0845944900000006
  9.1928260900000005  1.4393341600000000 19.4303107500000003
  7.6503235700000003  3.2078746699999998 -0.1191347700000000
  5.7344373199999996  5.4197730799999997  1.7484337900000000
  3.7693677299999999  7.2098934200000002  3.3725389099999998
  1.9552259400000001  8.6152602700000003  5.2660731800000002
  0.2604571200000000 10.6331974599999999  7.1782915999999997
 19.9055242600000000 12.4847294099999999  8.9607882599999993
 18.0339481200000016 14.1522541099999994 10.6897407999999992
 16.1232651999999987 16.5025440900000007 12.6463583100000001
 14.3194130499999996 18.3338582099999989 14.2169609999999995
 12.7857728599999998 20.0033278199999991 16.3430928199999990
 11.0394550500000008 -0.1521851500000000 17.7993201700000014
 10.5696747200000001 -0.1034121800000000 -0.0707981900000000
  9.0819773900000005  1.5476654500000000  1.9953257200000001
  7.1773354300000003  3.6641322399999998  3.2968627300000000
  5.5343708500000002  5.4599596999999997  5.3970322700000004
  3.9707942100000002  7.3852299300000004  7.2349082500000002
  1.6617921899999999  8.9662373800000008  9.1016489000000007
  0.1295173000000000 10.7885632000000005 10.9009980700000000
 19.6803114500000014 12.3741515000000000 12.6785792900000001
 17.9383667200000012 14.4091676599999996 14.1750357400000002
 16.1434689300000009 16.3249117699999999 16.0849834600000001
 14.3936051299999992 18.1458905900000005 18.2444318400000007
 12.3982671599999996 20.3053054700000004 19.8608102899999999
 12.7198458999999993 20.3657211199999999  1.8968309999999999
 11.0494392599999998  0.1244762800000000  3.7066790500000000
  8.6326563499999995  1.6336287300000001  5.4864758599999996
  7.2749277299999999  3.5029278200000000  7.1788757299999997
  5.5021159800000001  5.4745087100000003  9.2202593700000008
  3.9768297200000000  7.1519826699999998 11.1600847499999993
  1.8701735399999999  8.9799523800000003 12.7068746899999994
  0.0664516600000000 10.4696682400000007 14.3975115200000001
 19.6796240299999994 12.4394895999999999 16.3753469699999989
 17.9793510099999985 14.6194690299999994 18.0524083500000003
 16.0568339900000012 16.4869692500000014 20.0532613499999997
 14.2493892300000002 18.0574079000000012 -0.0669911700000000
 14.7391828199999999 18.1984631599999993  3.5177961600000001
 12.7612548700000001 20.2741187700000012  5.4230057000000000
 11.4344191500000001  0.2044157600000000  7.1874826199999999
  8.8189755600000002  1.6482817800000000  8.9658328399999991
  7.5467886000000002  3.6300345599999999 11.1764385900000001
  5.6335496500000000  5.3264035999999999 12.9104849000000002
  3.6422576599999998  7.4476027699999996 14.6294620700000007
  1.5639118700000001  8.9292448899999997 16.1898503600000012
 -0.1532325100000000 10.7507057800000005 17.9802754600000014
 19.8412872100000008 12.6416170500000007 19.9395021899999989
 18.1485092500000000 14.5036388800000005 -0.0915753200000000
 16.4295823900000002 16.6215855800000014  2.0200865700000001
  7.3698008399999999  7.1586746799999998 14.9009351300000006
  5.4803029900000002  9.3145312300000001 16.6756869999999999
  3.6064891499999998 11.1104812699999993 18.1966584599999983
  1.9725669400000001 12.4747905699999997 19.7491247500000000
 -0.5381081599999999 14.6889863999999992  0.1544899400000000
 19.7932652800000000 16.1238692899999982  2.0501549300000002
 18.1344290800000003 18.3484723199999991  3.6429560400000001
 16.5035339999999984 20.1195313400000018  5.4882948899999997
 14.6604642199999997  0.0304155900000000  7.1542246799999996
 12.6628583999999993  1.6487014200000001  9.0884254999999996
 10.7637282400000007  3.4617038899999999 10.9195607700000004
  9.1106829099999995  5.3419112799999997 12.8205548599999997
  9.5566405499999991  5.8091633099999997 16.5897379200000010
  7.4430370000000003  7.1006308999999996 18.0717991799999993
  5.3127499100000000  9.1348036300000004 19.5704339599999990
  3.5295582300000001 10.3894227000000008 -0.0820074500000000
  1.6808959200000000 12.5120762100000000  1.7182192500000000
 -0.0051815500000000 14.1185969100000008  3.4665010100000000
 19.8452821899999989 16.4041426299999991  5.1952135799999999
 18.2068850299999987 18.0842628000000012  7.1435354699999998
 16.3066078300000008 19.4966863900000007  8.9493839699999995
 14.5805265599999991  0.0133245800000000 10.8410636599999997
 12.8202369800000007  1.9108002900000001 12.5386428500000005
 10.8237746000000001  3.2619226499999998 14.7766862299999993
 11.1935250199999992  3.4789831100000002 18.1461203100000006
  9.1798743900000002  5.7192613100000003 19.6949651000000010
  7.4019162800000000  7.3561360499999999 -0.3931243900000000
  5.3728894100000000  9.0104054900000001  1.8408349600000000
  3.6444034900000002 10.6976279400000003  3.4428813699999998
  1.8969624599999999 12.4269699199999994  5.1652636599999999
  0.0382099300000000 14.3306605900000008  7.4552640200000004
 19.8099950800000002 15.9638312199999994  9.1443866299999996
 18.2852963799999984 18.1327858000000006 10.6583016700000002
 16.3023744300000004 19.9294894300000003 12.4452662400000005
 14.7924096899999995  0.0043554700000000 14.5724833900000004
 13.0832914400000000  1.7792446700000000 16.0730273399999994
 12.9958880400000005  1.5964542300000000 19.8840226300000005
 10.8386052900000003  3.1697918800000000  0.0447382400000000
  8.7068328400000006  5.1712238299999997  1.8658862800000000
  6.8294649400000003  6.8993187300000001  3.8628462899999998
  5.3894823900000004  8.6067792300000008  5.2828552300000000
  3.5817064799999998 10.5213157600000002  7.2970885100000000
  1.9111102200000001 12.7650355599999994  8.9052442299999992
  0.0821989200000000 14.2557001299999992 11.1581033600000001
 19.5867383599999982 16.2981380899999984 12.6584892799999995
 17.7844674199999986 18.0536201299999988 14.3501849900000007
 16.6481113699999987 19.6719157399999993 16.0292921499999999
 14.5479895599999995 -0.2785329000000000 18.1629577699999984
 14.9000503999999996  0.0722785600000000 -0.0592938600000000
 12.5411514900000007  1.7128771300000001  1.7329115799999999
 10.6966324499999992  3.2055860900000002  3.9633758499999998
  9.0752738599999994  5.2706853599999999  5.5336770199999998
  7.5314633300000002  7.1243267899999996  7.0505563000000002
  5.3574731800000004  8.8169209599999991  8.9524627500000005
  3.5750762400000000 10.7552146499999992 10.7361117700000008
  2.1142444600000001 12.4549950200000001 12.6863055399999993
 -0.3389896200000000 13.9673643599999995 14.3371765399999997
 19.5968203000000010 16.3641366899999987 16.0381477600000011
 18.0723084900000011 17.8876118300000009 18.1259990100000010
 16.5349989499999985 19.6530185499999988 19.6962226800000018
 16.4898820999999991 20.1475165700000005  1.6916505700000000
 14.5479301200000002  0.6340006500000001  3.4603928599999998
 12.8305051199999998  1.8476200000000000  5.5733394900000004
 10.9400401200000008  3.4118472999999998  7.0150804000000004
  9.3155101899999995  5.7095352300000002  9.0703263100000004
  7.5205914299999996  7.3595962200000002 10.8263538100000005
  5.7826449699999998  9.1247198800000007 12.8539601200000000
  3.7465802600000000 10.9377392899999997 14.1685123700000002
  1.4254760000000000 12.5698649899999992 16.0810565399999987
 -0.5412100399999999 14.4288950099999997 18.1528603900000007
 19.5287054500000004 16.5250441099999996 19.8590195200000004
 17.9977902299999997 17.9629730499999987  0.5515159200000000
  8.8975212599999995  9.3264596500000003 13.0499551000000000
  7.3908299499999996 11.1038122599999998 14.7774875600000009
  5.3077207299999998 12.9585816200000004 16.4321648099999997
  3.3928744800000001 14.4187659200000002 18.0263456200000007
  1.4846824500000000 16.3482689000000008 19.5041928200000001
 -0.1121522000000000 18.0130674999999982  0.3945509000000000
 19.9150106700000009 20.4040199800000011  1.5542187199999999
 17.8878200900000017 21.6661855500000016  3.6526191699999999
 16.2644437999999987  1.7296173900000000  5.6121445899999998
 14.0664887400000005  3.8188641500000000  7.0200717399999997
 12.5037021199999998  5.5143401100000000  9.1019529200000004
 10.9065451800000002  7.2801388899999999 11.1918748699999995
 11.0985117399999993  7.3198996400000000 14.4668095099999992
  9.6666959499999994  9.2633420399999995 16.3416535699999983
  7.2916145200000004 11.1923574499999994 18.1030664799999990
  5.3735954200000000 12.5539990699999997 19.9017264900000015
  3.6542259000000001 14.5689831900000009 -0.1912594900000000
  1.7792979300000000 16.0565157200000002  1.9512661600000001
  0.0391425300000000 18.2070982400000005  3.4292513300000000
 19.9145386100000010 20.4562656599999997  5.6330776900000004
 17.9696669900000003 22.0277061699999983  7.4971534100000001
 16.1428336299999984  2.3081740000000002  9.2393654600000001
 14.4805008999999991  4.0778609799999996 10.6101785399999997
 12.8018788200000007  5.3352244300000002 12.8785281999999999
 12.5201932700000000  5.0133862999999996 16.6743035900000010
 11.2330153799999994  7.5231481799999997 18.2235243599999990
  9.2627685100000008  8.9747753400000008 19.6922826899999990
  7.3715405900000004 10.8929315199999994  0.0747359400000000
  5.4100649900000004 12.3892948599999997  1.5126139100000000
  3.8122989899999999 14.0227859299999995  3.2251018500000002
  1.4638240000000000 15.6519905700000006  5.5588350300000000
 -0.0803231000000000 18.2769431199999985  7.0302406199999998
 19.8192387699999983 19.7925581599999987  8.7222953000000008
 18.1265555999999997  0.2204131100000000 10.8531836399999992
 16.6829581000000005  2.1193689999999998 12.7156549900000009
 14.6846448400000007  3.5584048799999999 14.7716863899999993
 14.6080383600000001  3.2933873400000002 18.1776311300000017
 12.6423675800000002  5.0994723100000003 19.7505450300000014
 10.9279229800000000  7.1393785000000003  0.0812043800000000
  8.9201929300000007  8.5031912900000002  2.2757527199999998
  7.1176671599999999 10.7363253400000005  3.3465561899999998
  5.3573933399999998 12.2346459099999993  5.4190957600000003
  3.6380594300000002 14.3974051599999999  7.4359470500000002
  1.6504033300000001 16.2537669300000012  9.3284274200000006
 -0.3513957400000000 18.0732476300000009 10.5548325599999995
 19.6846257599999994 19.8949418700000003 12.5501109300000007
 18.3739106499999991 21.7805648900000008 14.0942625400000008
 16.2601894099999988  1.6881024300000000 16.3712982599999997
 16.3676386500000000  1.3796090999999999 19.7289681399999992
 14.7707169399999998  3.1728147099999999  0.0209158700000000
 12.8236399799999994  4.8933388100000004  1.6470945800000001
 10.7833296399999998  6.7861757899999997  3.6360727000000002
  8.9602170900000004  8.7909041999999999  5.3225351099999996
  7.2220709799999998 10.3947582900000004  7.2120676399999999
  5.6218210500000003 12.6539705900000001  8.8945357000000005
  3.5694342899999998 14.5905884599999993 10.7319908300000009
  1.4498223900000000 16.1350939900000014 12.5426207600000001
  0.0237448700000000 17.8199683700000016 14.4085369900000000
 19.7711994400000002 19.6344601400000016 16.0339380700000014
 18.3471657199999996 21.7158557600000002 17.7236678400000010
 17.9831214800000012  0.2008751500000000  0.0531476200000000
 16.2624868999999990  1.8908138800000001  1.4403255500000001
 14.5757463800000000  3.5170755300000001  3.7072942800000002
 12.6439695699999994  5.4080502499999996  4.9559205700000000
 11.0564393899999995  7.1940341600000002  7.1731867200000003
  9.3403377899999995  8.7520503000000005  9.2180985500000006
  7.5530574499999998 10.6937937299999994 10.5494522100000001
  5.3463896599999998 12.5654023699999993 12.3500753799999998
  3.2645871999999998 14.5429064100000005 14.5071818500000003
  1.5538968200000001 16.2536042999999992 15.6947760499999998
 -0.1042265800000000 18.5543473200000015 18.0760724900000014
 19.6979256000000014 19.4987733799999994 19.9331160300000008
