Li                                      
   1.00000000000000     
    22.7325000000000017   -0.0000000000000006    0.0000000000000000
    -0.0000000000000006   22.7325000000000017    0.0000000000000000
     0.0000000000000006    0.0000000000000006   22.7325000000000017
   Li
   500
Direct
  0.9864514228527455  0.0000996010117689  0.0158533496095927
  0.0141271492356765  0.1014053188166741  0.1240719071813459
  0.0067127751017253  0.2172935576817352  0.1940970777521187
  0.0149899263169502  0.2954310111074463  0.3035346622676798
  0.0035847469481993  0.3994750634554052  0.4053081583635745
  0.0171830229847103  0.5163596722753780  0.4900372532717441
  0.0064294490267258  0.6197931019465557  0.5898532589904306
  0.0286459386341136  0.7055175163312413  0.7034924289013560
  0.9963428866160768  0.7999743873309129  0.8203619606290573
  0.0118538788078766  0.9405087091169051  0.9268747313317931
  0.1167335999120169  0.9801198768283328  0.1100264555152322
  0.0824635636203652  0.0756957822500794  0.2319947678433962
  0.0982238939843825  0.1903593229957110  0.3048107313317914
  0.1081480356318067  0.3227389908720966  0.4261437175849565
  0.1107547625646106  0.3931465030243046  0.4993789455625190
  0.1040849422632775  0.4917441676014533  0.6106663534587042
  0.1082204746508282  0.5964223376223501  0.7202790867700415
  0.1028740582865950  0.6989221735400832  0.8103743838117268
  0.1151248674804819  0.7997148888155721  0.8877643294842201
  0.1504398922247887  0.9118771490157229  0.9925530073683078
  0.1565525168811206  0.9747162102716374  0.2188174204333038
  0.1900434989552409  0.0688551096447796  0.3174057340811629
  0.1678870436599595  0.1985947713625862  0.4045847157153872
  0.2348045146816204  0.3111918156823918  0.4845949891125017
  0.2070017617947855  0.3884892466732666  0.5856007385901236
  0.2001578550533409  0.4723245269987899  0.6948030053887635
  0.1911149569998898  0.5963097186847008  0.7893628729792113
  0.2291128604421004  0.6904624929066330  0.8925201099747042
  0.2361656122291862  0.8026585228197547  0.9866725116023289
  0.2317381286704077  0.8751076555592192  0.1192640219949439
  0.2896102623996484  0.9655853993181580  0.2973158909050895
  0.3035231408776013  0.0600340842406268  0.3690840686242183
  0.2877766906411523  0.1816992834048179  0.4758477444187861
  0.3214590383811711  0.2601513687451913  0.5780599027823570
  0.2684259980204544  0.3753786618277815  0.7071163492796657
  0.2842670964478202  0.4677013931595724  0.7951333372924196
  0.2761698431760706  0.5555119885626283  0.8821732801055759
  0.3118366009017919  0.6966975097327648  0.0130444667326515
  0.3206771591333961  0.8191711109644757  0.1154740666446727
  0.3182224902672388  0.8911233216760124  0.2076344084460544
  0.4277046017815920  0.9900177776311452  0.3917853702848362
  0.4107546635873760  0.0917585157813718  0.4713581167931409
  0.4079571107445261  0.1650142008138147  0.5671256214670635
  0.4113508210711530  0.2965216258660490  0.6840948254701402
  0.4220396982294048  0.3756055880347517  0.8038107841196549
  0.3929577741119559  0.4837798152424924  0.8862749697569541
  0.3908789059716256  0.6092444319806418  0.0043649858132611
  0.3813618805674679  0.7042683677554180  0.0838107907181325
  0.3754094551853058  0.7926696799736064  0.2048751721104125
  0.3824686193775406  0.8858360013196958  0.2927288353678676
  0.5125555403057263  0.9962119107005378  0.4833830704937867
  0.5293993832618469  0.1088978656109063  0.5990258959639263
  0.4766735449246653  0.1723424709116870  0.6883642476630385
  0.5058268580226581  0.2614666772242416  0.8189129761354863
  0.5392974292312758  0.3872747647641077  0.8691907871989457
  0.4920057912680065  0.4677007201143724  0.9811219469921895
  0.4722726748047918  0.5797175708786995  0.1063941493456539
  0.4710539936214673  0.6932565520730236  0.1870699192785636
  0.4781035521830006  0.8058280739030010  0.2969932453535691
  0.5176878328384475  0.8937350832508528  0.3868001187726833
  0.5983364104256026  0.9958435715385434  0.5861629314857595
  0.5939215867150551  0.0943601592433723  0.6804232653689652
  0.5858405881447268  0.1944875574617839  0.8078593032002672
  0.6128641799186170  0.2962243008907919  0.9052138242604215
  0.6175373575277661  0.3977797800505911  0.0247322494226339
  0.5930297411195440  0.5050335114923570  0.0974199621687006
  0.5975800765423926  0.5894985228197527  0.2175096817332047
  0.5562647328714405  0.6806216663367408  0.2799730108874954
  0.5969920237545381  0.8001920571868482  0.3869654996150871
  0.6057790440998545  0.8976119102606432  0.5143967975365697
  0.7137983275046764  0.0265530887495871  0.6944283923897530
  0.7080475957329782  0.1194310432200609  0.7678445230396989
  0.6835745896843690  0.2223033203563176  0.8680898343780896
  0.6866345923237631  0.3233647997360620  0.9767861669416007
  0.6933076872319361  0.4027875869350055  0.1100598306389529
  0.6867804676124507  0.4915845960629071  0.2081851353788622
  0.6735460991971820  0.6148084354998318  0.3237464458374575
  0.6815902025734104  0.6892050817112079  0.3966747022984691
  0.7008652959419308  0.7971469301660647  0.4951047390300261
  0.7075526906411511  0.8848675024744281  0.6019933689651396
  0.8043263697349587  0.9828347814802569  0.7845887399098217
  0.8019776922907695  0.0933624625536140  0.8755936421423058
  0.7908021431870651  0.1988304717914886  0.9945095554822387
  0.8045756111294367  0.3094566492906665  0.0801389231276772
  0.7824220802815347  0.4005846550093466  0.1840599177389208
  0.8101653645661528  0.5074229543605000  0.3057969515011578
  0.7714114536456620  0.5945446246563293  0.3895310533377341
  0.8080439942813129  0.7118522269877943  0.5072980472891260
  0.7839931103046283  0.8198935145716462  0.6135518772682289
  0.8248563673155189  0.9029886136588559  0.6965770456395006
  0.8933891001869583  0.9994532858242593  0.9023681196524791
  0.9139050865500948  0.0975529690971086  0.9970583173870011
  0.8934979122401856  0.1943092189596385  0.1089365485538352
  0.8876159366545693  0.3222641909160870  0.1954121390080275
  0.8899074730012089  0.3976477255031341  0.3172458000659830
  0.9076697371604538  0.5352403954690388  0.4092905716485191
  0.9119095101726629  0.6223216650170471  0.5191633828219508
  0.9156618770482794  0.7146980274936752  0.5864894833388306
  0.9298500983173881  0.8035321240514648  0.7020424867480486
  0.9172200554272507  0.9193803928296518  0.7877575524029439
  0.1082852981414248  0.0827070863301458  0.0051323703948114
  0.1108351681513255  0.2011050927086799  0.1286568753986614
  0.1264721772792257  0.2870011441768412  0.2237474677224256
  0.1358040074782778  0.4090898506543468  0.2904969972506350
  0.0862479005828689  0.5079135779170798  0.4016580833608288
  0.1262709024524327  0.6116899773452076  0.5208164852083996
  0.1066629460024160  0.7044101722203919  0.6072674382492025
  0.0895240290333206  0.8254423253051826  0.7148321368085320
  0.0803435020345304  0.9349752640492710  0.8091413940393721
  0.0856103002309467  0.0092668778180993  0.8967892317167028
  0.1933634452875808  0.1013356432420522  0.1191958816672170
  0.2116359806444521  0.1832636023314649  0.2174907630045055
  0.2201419144396795  0.3036354439678846  0.3222348663807324
  0.1762062738370176  0.4171484772902261  0.4148803440008777
  0.1848627476080509  0.5119614974155979  0.4834131938854043
  0.2130736386231149  0.6095955306279564  0.6075170913889778
  0.1959489677774116  0.7206765212801045  0.7098760646651243
  0.2250613526888827  0.7948373588474666  0.7955550964478135
  0.2082664190036283  0.9005742887935781  0.8805633691850900
  0.2187257147256148  0.0042965441548475  0.9943912147805989
  0.3056884962058746  0.0853790106675447  0.2146358170020903
  0.2976851525349176  0.1831420362916560  0.3200275433850237
  0.3244905052237996  0.3147240233146391  0.4152248217310017
  0.3277156960299124  0.4215224502364450  0.4838104757505803
  0.2964706134389061  0.5121311883866682  0.5946168881557270
  0.3259490359617274  0.6022876590784136  0.7168509569998918
  0.3119320140767599  0.6865313339931802  0.7944637672935215
  0.3480442032332576  0.7880777107665224  0.9099668439458952
  0.3136010161662810  0.8876361253711664  0.0113932836247628
  0.3048958117233056  0.9856715235895734  0.1164833581876152
  0.4132873256351033  0.0700562063125503  0.2754230348619799
  0.3842138572528313  0.1953348505443770  0.3896377015286490
  0.4110027467282507  0.2864358684702495  0.4924739835037926
  0.3643758350379400  0.3851739289563412  0.5973809862531638
  0.4148311333993178  0.5114604183437805  0.7157932779060800
  0.4084595710986463  0.5968512460134150  0.8084554452875850
  0.3842556172880265  0.6726460983173865  0.9007729400637885
  0.3920408648410856  0.8262580120972203  0.0091490157263863
  0.3885095730781956  0.9118867273727034  0.0973056614978560
  0.3917055497635573  0.9648194932365541  0.1996433837017477
  0.5421188223908473  0.0945955688991518  0.3629945852853851
  0.5129048322885765  0.2008666710656541  0.4792357211041463
  0.5100684020675246  0.2763510872099388  0.6047528802375481
  0.5120732022434851  0.3796557972066452  0.6932694982953933
  0.5205111114043746  0.4976719876828355  0.7804914963158467
  0.4900704731111816  0.5825918728692372  0.9022455981524260
  0.4790599986803059  0.6925358939843846  0.0201381251512132
  0.4763515169910946  0.7938958966237735  0.0867738898053432
  0.5009787797206613  0.8907480730232038  0.2050048600021981
  0.5279736060706028  0.9755519714065741  0.2772232455735164
  0.5882970350819292  0.1145368863961309  0.4938321227317743
  0.6206990053887580  0.1885737921478068  0.5826236476410429
  0.5936709591993861  0.2971251045859447  0.7026628531837673
  0.6123870792917643  0.3978504484768521  0.7861537424392395
  0.5892915825360134  0.4844162217090044  0.8858446167381473
  0.5820215726382898  0.5646863582975925  0.9849056874518851
  0.5860986398328407  0.6707659333553266  0.0945285771472584
  0.5801282696579761  0.7714311382382064  0.2103636973496066
  0.6192510964478188  0.8925259417134086  0.2877571912460155
  0.6071707181348316  0.9923508633014393  0.3764421823380601
  0.7088130342021302  0.0827659738260209  0.5940364425382185
  0.6954471114043770  0.2122777397998448  0.7128599256570993
  0.6933823635763758  0.3214408485648335  0.7935792790058258
  0.6973602525019231  0.4329692840646686  0.9014910986473126
  0.7069480453095807  0.5024334437479396  0.0033494424282381
  0.6881990102276490  0.6042776614978536  0.1086018981634211
  0.7074667044979677  0.7055575084130652  0.2215283404816901
  0.7071804398988206  0.8109276947102160  0.3102885014846564
  0.7106294221928948  0.9007132897833472  0.3824116863521425
  0.6849235081931155  0.0025722353458733  0.5007352768063313
  0.8080784300011032  0.1143288089739372  0.7169261251512182
  0.8057238579126818  0.1912677831298808  0.8008292730671940
  0.8044169105905610  0.3290428989332455  0.8980721891564940
  0.8056885041240491  0.3911716269658001  0.0005702558011649
  0.7927521148135952  0.5090207095568005  0.0962144691520948
  0.8022808868360300  0.5943620600461870  0.2050357197844477
  0.8018681240514667  0.6794662593203569  0.3085609317057063
  0.8035666525899074  0.7917224401187752  0.4046448463653363
  0.8027209950511391  0.8761936562190726  0.4972496720554247
  0.8113817323215642  0.9817070590564185  0.5923523809523843
  0.9096119375343648  0.1094866121192126  0.7789996947102154
  0.8951803642362250  0.1763226464313234  0.8925662843945901
  0.9132654296711777  0.2880020186956997  0.9933237985263403
  0.9201592759265367  0.3998098550533342  0.0918876005718658
  0.8847863794127377  0.4878292911030471  0.1952961856373037
  0.9159492840646664  0.6106434149345645  0.3170876876718367
  0.9019148839766871  0.7042275979324728  0.3991703864511180
  0.9239930663147504  0.7751514615638371  0.4846510594963149
  0.9034739008028154  0.8849109442428258  0.5829445287583823
  0.8908262219289540  0.9987098792477695  0.6789442973716078
  0.9792217288023721  0.0835796494006402  0.9096573575277702
  0.0092403492796649  0.1897034325305214  0.0229126858022681
  0.0087867401297714  0.2800492633894223  0.1286595794567233
  0.9982224282415046  0.3989673080391540  0.2306436823930511
  0.9766290482788946  0.5010759828439433  0.3023236058506527
  0.0098861986143177  0.6228883440008772  0.4071493469701934
  0.0310630445397564  0.7103106675464659  0.5040087284724493
  0.0276467432090612  0.7930058656109082  0.5912817112064204
  0.9940499518310801  0.9141610324425358  0.6769617864291178
  0.0015065861651848  0.9977130139667878  0.7765427278126040
  0.1951970421203129  0.2073141959749236  0.0174167619047623
  0.1876907757615740  0.3226454393489462  0.1080502188496624
  0.1994637057076858  0.3904998583525767  0.2021300367315533
  0.1718700978774876  0.5392965291982819  0.2911420292532725
  0.1982029103706182  0.6123902100516858  0.3996683330034116
  0.2177406088199731  0.7035437730122069  0.5039645344770705
  0.1971738392169797  0.8085987084570547  0.6298732990212272
  0.1820036278455959  0.9111229468822160  0.7246086167381520
  0.1931604557351818  0.0076297657538760  0.7677930997470597
  0.1962045239194978  0.0778983860112206  0.9041628206312566
  0.2685904436379616  0.2012627955570210  0.1235357202243463
  0.2752584546354342  0.3051006682063147  0.2035085718684684
  0.2801956986693028  0.4098694529858165  0.3291026970196853
  0.2701014116353235  0.5082636757945664  0.3989599511712285
  0.2774839700868768  0.6142618510942484  0.5056164649730590
  0.2945066847025188  0.7337121671615563  0.5978183948091953
  0.3165029811943256  0.8098221766193774  0.6974604680523484
  0.2929985368965120  0.9094457455185321  0.7893327825800043
  0.3011727447487047  0.9864846391729927  0.9105516313647826
  0.2801462901132723  0.1199525555922136  0.0219372079621678
  0.3680890601561657  0.1996503068294260  0.1968016856922929
  0.4162015427251760  0.3072765415154493  0.2796534877378178
  0.3938658612119212  0.4179460890795141  0.3889306495106126
  0.3871024946662303  0.5118086818431777  0.5197728045749486
  0.3946102606400501  0.6269789015726417  0.6104606418123808
  0.4039480805014861  0.7192274246123418  0.7083494305509745
  0.4189532633894189  0.8135949046519286  0.8014395486638080
  0.3945973799626117  0.9083142729572202  0.8865651674914758
  0.4097727504673898  0.0145979637083471  0.0061584612339161
  0.4013613777631164  0.0981805815462451  0.1024771336192671
  0.4864261999340158  0.2035227031782725  0.2928408674804786
  0.4856783525789083  0.3044518178818905  0.4167194949961512
  0.4839244830089058  0.3975603162872545  0.5231973698449366
  0.5108400703838143  0.4966782861541859  0.6336322023534606
  0.4803276472011433  0.6054988611019496  0.6893778453755601
  0.4937434752007022  0.6982964073463123  0.8170059148795801
  0.4784459298361412  0.8207952341361491  0.9211329017925891
  0.4974074114153737  0.9236808380072574  0.9876197488177709
  0.5183985888045726  0.0141822390850095  0.1197111465962806
  0.5024351004069061  0.0741932581106326  0.2149968802375426
  0.5918454191136036  0.2246104515561456  0.3481002437039464
  0.5986336782140143  0.2865206910810514  0.5230841302100515
  0.5987631373584108  0.4215243008907947  0.6071129686572121
  0.6041502443637938  0.5329706090399213  0.7105114026173993
  0.5595707313317959  0.6319709314857604  0.7902443347630026
  0.5944896342241250  0.6915190326624909  0.9084893126580909
  0.5979850641152566  0.7918715860552084  0.9903273551083274
  0.5873579219179561  0.9004341115143504  0.1230730891894893
  0.6723750973276168  0.0068963765533923  0.1801092251182226
  0.5914177424392406  0.0939965164412158  0.2785195178708904
  0.6988263767733400  0.1895082547014155  0.4787690839106986
  0.7029237145056655  0.3353388197514562  0.6195325815462454
  0.6743618374573828  0.4349505333773251  0.7095013386121209
  0.6838490139667854  0.5434944946662270  0.7632283857912654
  0.6819761315297512  0.6081362846145382  0.9037205771472543
  0.6982988276696389  0.6924966541295490  0.9838727192345758
  0.6901287399098237  0.7935232077422185  0.1124994070163865
  0.7251825087429893  0.8606009778950821  0.2146652391949857
  0.7116228091938837  0.9914424181238317  0.2807601799186159
  0.6909871452765870  0.1011667480479517  0.3661145522929701
  0.7904981827779594  0.2086274417683924  0.5966825764874102
  0.8051557246233330  0.2969053452106039  0.7059489026723824
  0.8171811714505637  0.4206131864071239  0.7774175743978873
  0.8071918526338919  0.5127214960958995  0.8796454767403503
  0.8033089686572055  0.6016243769932927  0.9964657081271326
  0.7754109754756371  0.7018784761904726  0.1246896676564404
  0.8048235908940953  0.8010141862971523  0.2233851402177507
  0.8172462826349971  0.8868800083580766  0.3148873656658964
  0.7979286682063105  0.9929095721983927  0.4236691147036211
  0.7861269653579654  0.1009734859782228  0.5019863349829521
  0.8988167935774740  0.2062395284284619  0.7113503600571889
  0.9046296434620018  0.2853669279665709  0.7955100274936768
  0.9008656887715816  0.4156175779170823  0.8841367671835485
  0.8904062861541817  0.4970021805784697  0.9975213874408908
  0.8867684539755842  0.5931159392939591  0.0912300868800173
  0.8833826741449471  0.6872413447707046  0.1917476150885307
  0.9254265685692289  0.7948074826789835  0.3056975422852730
  0.9230472130210075  0.8828287887385926  0.4254712398548364
  0.8898029715165521  0.9528084135048971  0.5133980868800165
  0.8976984739909852  0.1164029350049489  0.5980674026173958
  0.0010117712526139  0.1899281214120734  0.8079200637853319
  0.0144468549433654  0.2891724706917387  0.9196175317277024
  0.0158888006158548  0.3954520593863435  0.0038193361926773
  0.9958869275266693  0.5199876639172984  0.0999136280655435
  0.0124618405366732  0.6098396753546709  0.1779310335422863
  0.9946007641042556  0.7222193212361177  0.3137172255581220
  0.0060837096667754  0.7678175246893204  0.3707409193885383
  0.0399141709006940  0.8772868804574969  0.4755220327724601
  0.9939438196414798  0.0066268707797192  0.5787454965357952
  0.9708681662817540  0.0935207280325514  0.6908529646981165
  0.1167454446277389  0.1994459034422107  0.9088582280875386
  0.0991888327284727  0.2721895493236559  0.9976859544704695
  0.1185294340701617  0.3923154184537552  0.1263288600021966
  0.1179770315627380  0.4980605608709965  0.2026778488947514
  0.0897849418233818  0.6075910564170215  0.2914352565709919
  0.1417492453535658  0.7336498458154637  0.4171427520070381
  0.1123852110414632  0.8086257433190340  0.5151183842516218
  0.1083853808424067  0.8916354184537525  0.5766013518090816
  0.0833686563290428  0.0134538211811304  0.6875262527218737
  0.0997581326294963  0.0982251463763362  0.7814674224128453
  0.2876289506213539  0.2957061550643374  0.9870628439458926
  0.2848644790498156  0.4127698519740477  0.1077198561530821
  0.2792813298141397  0.5078198909050897  0.2123698137028498
  0.3000545505333747  0.6083728472451355  0.2971231782689969
  0.2922606413724864  0.6915678064445174  0.3869071888265694
  0.3016226033212348  0.7999575717584975  0.5022150506983394
  0.3216176601781555  0.8962239014626618  0.5917567641042538
  0.2990927227537696  0.0118451894864151  0.6934760976575376
  0.2994776183877690  0.1157108360277164  0.7953191149235650
  0.2872221814582616  0.1906789970306804  0.8941206664467174
  0.4018926875618618  0.2769711426371941  0.1102206378532955
  0.3725767636643553  0.4225883092488729  0.1766775985923204
  0.4122230792917634  0.5126237980864374  0.3102018568129310
  0.3870651881667229  0.5926116216870128  0.3856785892444705
  0.3992553837017496  0.6692241372484347  0.4833930438799072
  0.4193680585065422  0.7884820411305427  0.5877987256131121
  0.3998045089629372  0.8984079423732538  0.6883922969317027
  0.3962811239414918  0.0159023411415404  0.8112388553832588
  0.3760883576377410  0.1019227968767211  0.9057005613109013
  0.3689537362806590  0.2151681112944033  0.0153569383041869
  0.5015295220499283  0.3071592059826216  0.1788330544374759
  0.4630112196194887  0.4090115130320058  0.2856314914769627
  0.4879473749037686  0.4589582030133101  0.4091134899373117
  0.4981278473551072  0.6027686290553191  0.5016599401737594
  0.5026020398108457  0.7118113771032668  0.6244353564280232
  0.4883121632024654  0.8261109873529122  0.7051068501044782
  0.5060422082920937  0.9156852620697222  0.8164644126250948
  0.5254602784559523  0.0131759291762918  0.8886929528208540
  0.4911180120972176  0.1117380292532744  0.0198005789068532
  0.5005594892774639  0.1818404623336605  0.1115482991312007
  0.5864842986913033  0.3145648881557221  0.2717739813042996
  0.6002842195095113  0.4081287583855726  0.4265121249312642
  0.5856121420873208  0.5374369928516458  0.5236819139997806
  0.5740061858572503  0.6208297354008607  0.6054530293632467
  0.5875657151655105  0.7157542430441026  0.7203924662927506
  0.5826871571538561  0.7904374675024712  0.8317925679093818
  0.6062654173540096  0.9337768393269528  0.9006609695370074
  0.6245330509182878  0.0273399740459723  0.0116290764324205
  0.6128596907511294  0.1094238807874177  0.0992002049928544
  0.6156344603541157  0.1982036370834734  0.2070194457274823
  0.6889439472121381  0.3052799749257673  0.4197285067634411
  0.7042158882657006  0.3977725705487742  0.5056587849994472
  0.6943628716595214  0.5239207830199035  0.6201865690091282
  0.7112752974815777  0.6366509473221171  0.6868871514351724
  0.7258762982514000  0.7085006013416901  0.8086628228307475
  0.7060220723633535  0.8066931507753239  0.8815211437369399
  0.7289854076762339  0.9059455427251706  0.0255602652589886
  0.7213139967007578  0.0100580164962025  0.0931532853843606
  0.7068878236005744  0.1203154206532489  0.2109818898053462
  0.7076570003299238  0.2182991527548666  0.2674441693610490
  0.7849552864841058  0.3178158381172338  0.5109984172440321
  0.8163220895194101  0.4285346033212392  0.6137445076432400
  0.7899272675684585  0.5112025039041015  0.7011538603321270
  0.8205733262949551  0.6113275724183467  0.7830045014846618
  0.7980019399538136  0.7328529457824686  0.9009946415924333
  0.8080557540965572  0.7805742993511515  0.0062765142417263
  0.8172566646871218  0.8760819659078436  0.1134221972946250
  0.7934302091718877  0.9917604135048919  0.2181834923567578
  0.8266281781590266  0.1045448120532271  0.3103050737930246
  0.7964339364346174  0.1934583921698021  0.4163136865720887
  0.9021430172660274  0.2989453218959639  0.5922234576047529
  0.9001356498405357  0.3929806189376421  0.6714813654459491
  0.9098517628945331  0.5058769119102635  0.7878901840976553
  0.8879069701968518  0.6109866345540524  0.8966186987792781
  0.9117753727042768  0.7242183609369874  0.0328654556252062
  0.8899370852304003  0.8099067467282524  0.1189882529418256
  0.9019462914329708  0.9004385848454888  0.2129752900032997
  0.8961464431980630  0.0000342711976273  0.3029464929066279
  0.8914096139887846  0.0958097635543851  0.4490380468492248
  0.9047265003849105  0.2237468540635632  0.5219138308588995
  0.0097810720334337  0.2901496557791674  0.6798821211921222
  0.0080749899923021  0.3951282520620225  0.8054576557791719
  0.0066286088199732  0.4876286932805485  0.9261870115473414
  0.9925947022984687  0.6053713845815452  0.9797506715055562
  0.0363409479819623  0.7217715517430960  0.1074708325085254
  0.9967910506983415  0.7983487465083030  0.2121328168921153
  0.0055046545694495  0.8897679960409093  0.3040081271307571
  0.9796927082371027  0.9840772862641600  0.3983270071483531
  0.0070940059386331  0.0934684451776064  0.5107744563950263
  0.0094543736940480  0.2023601359287355  0.5876768762784579
  0.0965527843396004  0.2784264317606926  0.8078083092488697
  0.0931843176069478  0.3793210271637548  0.8965459074012969
  0.1112326778840895  0.5186990652150030  0.0219400461893784
  0.1012445806664459  0.5936181801385700  0.0929529800945801
  0.0962910647751016  0.7010685890245227  0.1953065228197488
  0.0966348826569856  0.7906191782689973  0.3029818634114179
  0.0914325811063463  0.8895324029473244  0.4088050056087127
  0.1075685234795998  0.9610081231716734  0.4802538612119207
  0.1022553476300416  0.1053165806664467  0.5936042384251650
  0.0805954373694036  0.1704881812383121  0.7007033753436716
  0.1689902874738820  0.2977230986473103  0.8903143173870021
  0.1801476722753748  0.4044086946002423  0.9905985580116550
  0.2057389438029276  0.4538614067964346  0.1140753071593537
  0.1976152055427249  0.6050494393489529  0.1901184563950267
  0.1792101128340491  0.6622341678214028  0.3132551963048513
  0.2006847838997032  0.7921951197624537  0.4064327909380836
  0.2081775035741771  0.8922724130649939  0.4915138915649422
  0.2267714250522346  0.9874877387000964  0.5950838728692389
  0.2058211085450381  0.0971674021774973  0.6906449176289442
  0.2020308703398186  0.1792240972176415  0.7879749112504157
  0.3969843985483337  0.3712562349059709  0.9903991021664993
  0.4025188822170875  0.4999438205212812  0.1017278882656996
  0.3865327328714372  0.6191307577257206  0.1771019065215000
  0.4030041724403404  0.6890885459144371  0.2902850249642555
  0.3931206972396382  0.7934835112724059  0.4008967517870872
  0.3967243822720761  0.8922565160013178  0.4540442199494095
  0.4060258876058498  0.0177916713955781  0.6022538766083798
  0.3914511910260643  0.0924465967227519  0.6893079340151758
  0.4010304977455164  0.2217602722973737  0.7962090790718150
  0.4107144603541215  0.2851722969317052  0.9078183385021461
  0.4965210773122166  0.4045777833498292  0.0985313489497415
  0.5010362225888016  0.4959099395139148  0.2185227581656193
  0.4874981269108076  0.5733459232376532  0.2795381436269651
  0.4925869055317307  0.6923493984383597  0.4074382263279475
  0.5030295453645692  0.7852012664687109  0.5096565978224987
  0.4971578229407214  0.9272257714725640  0.6085517285824267
  0.4952504735510814  0.9939398618717661  0.6942584300010992
  0.4968521214120756  0.1040371424172406  0.7866049387440910
  0.4964783367425483  0.1677343741339499  0.9092157774111982
  0.4975481099747086  0.2794126765643909  0.0040733553282735
  0.5955524491366972  0.4207402797756501  0.1926484988452657
  0.5769126695260098  0.4883196612779059  0.2822620877598183
  0.5724673304739909  0.6058036700758791  0.4128302113713858
  0.5951260402507401  0.7107114769602987  0.5138797268228288
  0.5755252242384259  0.8197813592873615  0.6400971551743098
  0.5923620745628497  0.9115943675354643  0.7112781673815007
  0.6165236128890328  0.0333930874298929  0.8078638398768305
  0.6026756410425591  0.1089867867590470  0.8934181550643316
  0.6130057877488184  0.2008355323875506  0.9833044447377119
  0.6013999868030382  0.2707319824040439  0.0753468470251875
  0.7067098370174847  0.4019929792147821  0.2894786873419122
  0.6889250619157608  0.5138890482788980  0.4171394254921381
  0.6893960906191552  0.6418901022764771  0.5070078416364225
  0.6905698097437565  0.7270217041680382  0.6308254653029834
  0.6792395829759172  0.8240359252172027  0.7280072578906882
  0.6871597131859701  0.9032221022764730  0.7753299104805862
  0.7152523145276604  0.0078073199164166  0.8892619628285487
  0.7296869974705800  0.0946964495765954  0.9936164526558926
  0.7256824867480489  0.2094945118222782  0.0935402001539671
  0.6713478266798631  0.3038725525129209  0.1798193018805705
  0.7844985808863996  0.4146438196414834  0.4214670559771250
  0.7889041873969020  0.5246894556252073  0.5046431386781052
  0.8056489994501277  0.6447440457494764  0.6097406541295527
  0.8213845274386884  0.7457571050258451  0.7016425153414687
  0.8289374120752200  0.8122309187286945  0.7810269350049452
  0.8102902329264268  0.9061272477730142  0.8786221788188726
  0.8134304933465302  0.9950904405586698  0.0034706838227194
  0.8117253724843252  0.1099575035741793  0.0986595051138224
  0.7910386693060616  0.2110467484878455  0.1937797316617207
  0.7755525709886726  0.2933737393599500  0.2991475178708924
  0.9037231602331488  0.4035748501044765  0.4881966272957214
  0.8921394971956431  0.5167800457494778  0.5803851996040876
  0.9083657595952914  0.6346188751787096  0.6815850900692837
  0.9307344467172527  0.7148034598042443  0.8101732796656762
  0.9083255365665863  0.8219127381502247  0.9123294604640932
  0.8765916234466076  0.9024567051578103  0.0253921895963956
  0.9100774987352906  0.9966718464753086  0.1079398737490394
  0.8772913982184107  0.0990181163532355  0.2120510489387470
  0.8989581748597857  0.2295237606950380  0.3138085850654377
  0.8997379368745158  0.3005167187946753  0.4111030533377331
  0.9989832724073437  0.4075677096667789  0.5715512644891660
  0.9834076586385123  0.5126906349939517  0.6703300191355979
  0.0073997879687653  0.6229163066094827  0.8093017191246048
  0.0035210095677982  0.7300272658088645  0.9060070889695382
  0.0033794870779715  0.8194076106895380  0.0035473643461970
  0.9944640853403683  0.8977524280215547  0.1046722595403082
  0.9865148835367847  0.9737864841086576  0.2169513027603642
  0.9751973223358661  0.0978467709226862  0.3098045001649652
  0.0107275103926128  0.2075570038491179  0.4096794681623237
  0.9977477611349386  0.2920123853513701  0.4844917378202993
  0.1031537767513484  0.3637150990872087  0.6706508333883221
  0.0608008164522147  0.4839427810403620  0.7840865307379303
  0.0961572493126610  0.5966814943363019  0.8763148698999217
  0.0941576021115154  0.7028046814032791  0.9954911536346671
  0.0966296293852409  0.8108601640822641  0.0842498035851733
  0.0837333346530329  0.8872788874958744  0.1927000026393912
  0.0779245489937281  0.9833544044869669  0.3071088551633139
  0.1033615612009271  0.0791903059496306  0.4005385553722647
  0.1040275161112945  0.1882545544924668  0.4949729968107306
  0.0947845335972701  0.2909810060486109  0.5816052607500239
  0.1701209765753902  0.3864886858022629  0.8019516986693063
  0.1839345659298388  0.4781659289563365  0.9036209044319818
  0.1983109028923380  0.5737759186187148  0.9982625874848807
  0.2010691006268530  0.6954609317057105  0.0842045146816233
  0.1961317642142291  0.8080452004838889  0.2044717668536222
  0.2008422052128012  0.8743343543385009  0.2771020754426488
  0.1922770399208176  0.9750148545034634  0.3944098898053454