Li 
 1.0000000000000000
    22.7325000000000017   -0.0000000000000006    0.0000000000000000
    -0.0000000000000006   22.7325000000000017    0.0000000000000000
     0.0000000000000006    0.0000000000000006   22.7325000000000017
 Li 
 500
Cartesian
 -0.3079930300000000  0.0022641800000000  0.3603862700000000
  0.3211454200000000  2.3051964100000002  2.8204646300000000
  0.1525981600000000  4.9396258000000000  4.4123118200000002
  0.3407585000000000  6.7158854600000000  6.9001017100000004
  0.0814902600000000  9.0810668799999998  9.2136677099999993
  0.3906130700000000 11.7381462499999998 11.1397718599999997
  0.1461574500000000 14.0894466900000008 13.4088392100000000
  0.6511938000000000 16.0381769399999996 15.9921416399999998
 -0.0831353300000000 18.1854177600000000 18.6488782700000009
  0.2694683000000000 21.3801142300000002 21.0701798300000007
  2.6536465599999999 -0.4519249000000000  2.5011763999999999
  1.8746029600000000  1.7207543700000001  5.2738210600000004
  2.2328746700000002  4.3273433099999998  6.9291099500000000
  2.4584752200000000  7.3366641100000001  9.6873120600000000
  2.5177326400000002  8.9372028799999992 11.3521318800000000
  2.3661109499999999 11.1785742900000002 13.8819728799999993
  2.4601219400000001 13.5581707900000001 16.3737443399999982
  2.3385845299999999 15.8882483099999998 18.4218356800000009
  2.6170760500000001 18.1795187100000000 20.1811026200000008
  3.4198748499999998 20.7292472900000000 22.5632112400000011
  3.5588300899999998 -0.5747637500000000  4.9742670100000002
  4.3201638400000002  1.5652487799999999  7.2154258499999999
  3.8164922200000002  4.5145556400000002  9.1972220500000006
  5.3376936300000004  7.0741679499999996 11.0160555900000006
  4.7056675500000003  8.8313317999999992 13.3121687899999994
  4.5500884399999997 10.7371173100000004 15.7946093199999993
  4.3445207600000000 13.5556106799999991 17.9441915099999996
  5.2083081000000000 15.6959386199999997 20.2892134000000013
  5.3686347799999998 18.2464348700000016 -0.3029671300000000
  5.2679870099999997 19.8933847800000017  2.7111693799999999
  6.5835652900000001 -0.7823299100000000  6.7587334900000000
  6.8998397999999996  1.3647248199999999  8.3902035900000005
  6.5418836200000001  4.1304789599999996 10.8172088500000001
  7.3075675899999997  5.9138909899999996 13.1407467400000009
  6.1019940000000004  8.5332954300000008 16.0745224100000001
  6.4621017700000003 10.6320219199999997 18.0753685900000001
  6.2780309599999997 12.6281762799999999 20.0540040899999994
  7.0888255300000003 15.8376761399999992  0.2965333400000000
  7.2897935199999999 18.6218072799999987  2.6250142200000002
  7.2339927599999996 20.2574609099999989  4.7200491900000001
  9.7227948600000005 -0.2269208700000000  8.9062609300000002
  9.3374803899999996  2.0859004600000000 10.7151483899999995
  9.2738850199999998  3.7511853199999998 12.8921831900000008
  9.3510325400000003  6.7406778599999999 15.5511856200000000
  9.5940174400000000  8.5384540300000005 18.2726286500000015
  8.9329125999999999 10.9975246500000008 20.1472457499999997
  8.8856547300000006 13.8496490500000000  0.0992270400000000
  8.6693089499999996 16.0097806700000014  1.9052287999999999
  8.5339954400000000 18.0193635000000008  4.6573248500000002
  8.6944678900000003 20.1372669000000002  6.6544582500000002
 11.6516688199999994 -0.0861127400000000 10.9885056500000005
 12.0345714800000003  2.4755207299999999 13.6173561799999998
 10.8359813599999999  3.9177752199999998 15.6482402599999997
 11.4987090500000004  5.9437912400000004 18.6159392299999986
 12.2595788100000007  8.8037235900000006 19.7588795700000013
 11.1845216500000006 10.6320066200000003 -0.4291453400000000
 10.7359385799999991 13.1784296800000007  2.4186049999999999
 10.7082349099999998 15.7594545700000008  4.2525669400000004
 10.8684890000000003 18.3184866900000003  6.7513989499999996
 11.7683386599999995 20.3168327799999986  8.7929337000000007
 13.6016824500000002 -0.0944860100000000 13.3249488399999994
 13.5013224699999999  2.1450423199999999 15.4677218799999991
 13.3176211700000007  4.4211884000000001 18.3646616099999989
 13.9319349700000004  6.7339189199999998 20.5777732600000007
 14.0381679800000008  9.0425288500000001  0.5622258600000000
 13.4810485900000003 11.4806743000000004  2.2145992900000002
 13.5844890899999999 13.4007751699999993  4.9445388399999999
 12.6452880400000005 15.4722320300000007  6.3644864700000001
 13.5711211800000005 18.1903659399999995  8.7966932199999999
 13.7708721199999999 20.4049627499999993 11.6935251999999998
 16.2264204800000016  0.6036180900000000 15.7860934299999993
 16.0956919700000007  2.7149661900000002 17.4550256200000007
 15.5393593600000006  5.0535102299999997 19.7338521600000014
 15.6089208700000004  7.3508903099999996 -0.5277084600000000
 15.7606169999999999  9.1563688200000009  2.5019350999999999
 15.6122369800000005 11.1749468299999997  4.7325685899999996
 15.3113866999999999 13.9761327600000005  7.3595660799999996
 15.4942492800000000 15.6673545200000000  9.0174076700000008
 15.9324203400000002 18.1211425900000016 11.2549684800000005
 16.0844415400000003 20.1152504999999984 13.6848142599999996
 18.2843492000000012 -0.3902083300000000 17.8356635300000015
 18.2309578899999991  2.1223621800000001 19.9044324699999997
 17.9769097199999983  4.5199137000000000 -0.1248115300000000
 18.2900150799999999  7.0347232799999997  1.8217580700000000
 17.7864099399999986  9.1062906699999999  4.1841420800000000
 18.4170841500000009 11.5349923099999998  6.9515292000000004
 17.5361108700000017 13.5154856799999994  8.8550146699999992
 18.3688600999999991 16.1821807500000006 11.5321528600000001
 17.8221233800000007 18.6382293200000007 13.9475680499999992
 18.7510473699999984 20.5271886600000002 15.8349376900000003
 20.3089677199999983 -0.0124281800000000 20.5130832800000000
 20.7753473799999995  2.2176228700000000 22.6656282000000004
 20.3114412900000012  4.4171343199999997  2.4764000899999998
 20.1777292800000012  7.3258707200000002  4.4422064499999996
 20.2298216300000000  9.0395269200000001  7.2117901499999997
 20.6336022999999997 12.1673522900000002  9.3041979200000000
 20.7299829399999993 14.1469272499999992 11.8018815999999998
 20.8152836199999989 16.2468729100000004 13.3323721800000001
 21.1378173599999997 18.2662940099999993 15.9591808299999993
 20.8507049100000010 20.8998147799999998 17.9076985600000000
  2.4615955399999998  1.8801388400000001  0.1166716100000000
  2.5195604600000001  4.5716215199999999  2.9246924200000000
  2.8750287700000001  6.5242535100000003  5.0863393099999996
  3.0871645999999999  9.2996350299999992  6.6037229899999996
  1.9606304000000001 11.5461454099999994  9.1306923799999993
  2.8704532899999999 13.9052424099999996 11.8394607500000006
  2.4247154200000001 16.0130042400000008 13.8047070400000003
  2.0351049899999998 18.7643676600000013 16.2499215499999998
  1.8264086600000000 21.2543251899999994 18.3938067399999987
  1.9461361500000001 22.9431593000000014 20.3862612100000007
  4.3956345199999998  2.3036125099999998  2.7096203800000001
  4.8110149299999998  4.1660398399999998  4.9441087699999997
  5.0043760700000002  6.9023927299999999  7.3252040999999997
  4.0056091199999999  9.4828277599999993  9.4312674199999993
  4.2023924099999999 11.6381647400000006 10.9891904300000007
  4.8436964900000001 13.8576303999999997 13.8103822800000007
  4.4544099099999999 16.3827790200000010 16.1372576400000014
  5.1162071999999998 18.0686402599999987 18.0849562299999995
  4.7344163699999999 20.4723050200000003 20.0174067899999990
  4.9721823100000000 22.8301711900000015 22.6049982900000010
  6.9490637399999997  1.9408783599999999  4.8792087100000003
  6.7671277300000003  4.1632763400000004  7.2750261299999996
  7.3764804100000001  7.1544638599999999  9.4390982599999997
  7.4497970599999999  9.5822590999999999 10.9982216400000006
  6.7395182199999999 11.6420222399999993 13.5171284099999998
  7.4096364599999998 13.6915042099999997 16.2958143799999995
  7.0909945099999998 15.6065735500000002 18.0601475899999997
  7.9119148499999996 17.9149765599999995 20.6858212799999990
  7.1289350999999996 20.1781882199999991  0.2589978200000000
  6.9310440399999997 22.4067779099999989  2.6479579400000000
  9.3950541300000001  1.5925527100000001  6.2610541399999997
  8.7341415100000006  4.4404494899999998  8.8574390500000000
  9.3431199399999993  6.5114033800000000 11.1951648299999995
  8.2831736700000000  8.7559663400000005 13.5799632700000004
  9.4301487399999999 11.6267739599999995 16.2717706900000003
  9.2853072000000001 13.5679209499999995 18.3782134100000007
  8.7350908199999999 15.2909274300000000 20.4768208600000001
  8.9120689599999992 18.7829102600000013  0.2079800000000000
  8.8317938700000003 20.7294650300000001  2.2120009500000002
  8.9044464100000003 21.9327591300000009  4.5383932199999997
 12.3237161299999993  2.1503937700000000  8.2517744099999994
 11.6596091000000008  4.5662016000000003 10.8942260300000004
 11.5951299500000005  6.2821510900000002 13.7475448500000006
 11.6407040700000000  8.6305254100000006 15.7597488699999992
 11.8325188400000005 11.3133284599999993 17.7425229400000006
 11.1405270299999994 13.2437697500000002 20.5102980600000002
 10.8902314199999992 15.7430722099999993  0.4577899300000000
 10.8286608599999994 18.0472384699999999  1.9725874500000000
 11.3885001100000007 20.2489305699999989  4.6602729800000002
 12.0021599999999999 22.1767351899999987  6.3019774300000000
 13.3734623500000005  2.6037097700000000 11.2260387300000009
 14.1100401400000006  4.2867537300000000 13.2444920699999997
 13.4956250799999999  6.7543964399999998 15.9732833099999993
 13.9210892800000003  9.0441353200000005 17.8712399499999997
 13.3960708999999998 11.0119917600000008 20.1374627500000010
 13.2308053999999995 12.8367326399999993 -0.3431314600000000
 13.3234873300000007 15.2481865800000005  2.1488708800000000
 13.1877658899999997 17.5365583500000000  4.7820927500000003
 14.0771255499999999 20.2893459699999994  6.5414403500000002
 13.8025083500000001 22.5586160000000007  8.5574719100000003
 16.1130923000000017  1.8814774999999999 13.5039334300000000
 15.8092514600000005  4.8256037200000002 16.2050882600000001
 15.7623145800000000  7.3071540900000000 18.0400409599999989
 15.8527419399999996  9.8424742500000004 20.4931464000000005
 16.0706964399999990 11.4215682600000008  0.0761412000000000
 15.6444840000000003 13.7367419399999999  2.4687926500000001
 16.0824868599999995 16.0390860599999989  5.0358929999999997
 16.0759793500000008 18.4344138199999996  7.0536333600000001
 16.1543833399999990 20.4754648599999989  8.6931736599999994
 15.5700236499999995 22.7909733400000007 11.3829646800000006
 18.3696429099999996  2.5989796500000000 16.2975231399999991
 18.3161175999999983  4.3479948799999999 18.2048514499999996
 18.2864074199999997  7.4799677000000004 20.4154260399999998
 18.3153139200000012  8.8923090100000000  0.0129633400000000
 18.0212374500000010 11.5713132800000000  2.1871954200000001
 18.2378502599999983 13.5113355300000002  4.6609745000000000
 18.2284671299999985 15.4459667399999994  7.0143613800000004
 18.2670789300000003 17.9978303699999991  9.1985889699999994
 18.2478550199999994 19.9180722900000013 11.3037281699999994
 18.4447352299999991 22.3166557200000000 13.4656505000000006
 20.6777533700000014  2.4889044100000000 17.7086105600000003
 20.3496876299999983  4.0082545600000001 20.2902630600000009
 20.7608063799999982  6.5470058900000003 -0.1517667500000000
 20.9175207400000005  9.0886775300000000  2.0888348799999998
 20.1134063699999999 11.0895793600000001  4.4395705400000001
 20.8218171000000005 13.8814514300000003  7.2081958600000000
 20.5027800999999990 16.0088538699999994  9.0741408099999994
 21.0046723799999988 17.6211306000000008 11.0173302100000008
 20.5382204500000007 20.1162380399999989 13.2517864999999997
 20.2507070899999988 22.7031723300000010 15.4341012400000004
 22.2601579500000000  1.8999743800000000 20.6787858799999995
 22.9425562399999983  4.3124332799999996 23.2533626300000016
 22.9322445700000017  6.3662198800000001  2.9247538899999999
 22.6920913499999983  9.0695243300000001  5.2431075099999997
 22.2012198400000003 11.3907097799999999  6.8725713700000002
 22.9572380100000011 14.1598092799999993  9.2555225300000004
 23.4386406600000008 16.1471372500000001 11.4573784199999995
 23.3609795899999995 18.0270058400000011 13.4413114999999994
 22.5972405300000005 20.7811656700000000 15.3890338100000008
 22.7667484699999996 22.6805110899999995 17.6527575600000013
  4.4373167599999999  4.7127699600000001  0.3959265400000000
  4.2666805600000002  7.3345374500000000  2.4562515999999999
  4.5343086899999996  8.8770380299999996  4.5949210599999999
  3.9070369999999999 12.2595583500000007  6.6183861799999999
  4.5056476600000002 13.9211604500000004  9.0854603800000007
  4.9497883900000001 15.9933088199999993 11.4563737799999998
  4.4822543000000001 18.3814701400000011 14.3185947700000007
  4.1373974699999998 20.7121023899999983 16.4721653799999999
  4.3910200599999998  0.1734436500000000 17.4538566400000015
  4.4602193400000001  1.7708250600000000 20.5538813199999986
  6.1057322599999999  4.5752065000000002  2.8082757599999999
  6.2573128200000001  6.9357009400000003  4.6262586099999998
  6.3695487200000001  9.3173573399999992  7.4813270599999999
  6.1400803399999999 11.5541040099999996  9.0693570900000005
  6.3079043500000003 13.9637075300000006 11.4939262899999992
  6.6948732099999999 16.6791118400000009 13.5899066600000005
  7.1949040200000001 18.4092826299999999 15.8550200900000000
  6.6605892400000002 20.6739754100000006 17.9435074800000010
  6.8464094199999996 -0.3072379400000000 20.6991149599999993
  6.3684255399999996  2.7268214700000000 23.2311875800000003
  8.3675845599999992  4.5385505999999998  4.4737943199999997
  9.4613015699999998  6.9851639800000003  6.3572229099999999
  8.9535556900000000  9.5009594699999997  8.8413659899999999
  8.7998074600000002 11.6346908599999992 11.8157352800000002
  8.9704777500000006 14.2527978799999993 13.8772965399999997
  9.1827497400000002 16.3498374300000009 16.1025534300000004
  9.5238550600000007 18.4950461699999984 18.2187245400000002
  8.9701849399999993 20.6482542100000011 20.1538426699999995
  9.3151590500000001  0.3318482100000000  0.1399972200000000
  9.1239475199999998  2.2318900699999999  2.3295614400000000
 11.0576835899999999  4.6265798499999997  6.6570050199999997
 11.0406831499999996  6.9209509499999999  9.4730759199999994
 11.0008133099999998  9.0375398899999997 11.8935842100000002
 11.6126719000000005 11.2907391399999995 14.4040440400000005
 10.9190482400000004 13.7645028600000003 15.6712818699999996
 11.2240235500000001 15.8740230800000006 18.5725869599999989
 10.8762720999999996 18.6587276600000003 20.9396536900000001
 11.3073139800000000 20.9975746500000007 -0.2814340600000000
 11.7844959199999995  0.3223977500000000  2.7213336400000001
 11.4216059199999993  1.6865982399999999  4.8874165800000000
 13.4541259899999996  5.1059570900000004  7.9131887900000004
 13.6084400900000002  6.5133316099999998 11.8910099900000006
 13.6113830199999999  9.5823011699999991 13.8011955600000000
 13.7338454300000006 12.1157543699999994 16.1517004600000007
 12.7204416499999997 14.3662791999999992 17.9642293399999993
 13.5142356100000001 15.7199564100000000 20.6522332999999989
 13.5936954700000001 18.0012208300000012 -0.2198834000000000
 13.3521139600000005 20.4691184399999990  2.7977590000000001
 15.2847668999999993  0.1567718800000000  4.0943329600000000
 13.4444038300000006  2.1367758100000001  6.3314449399999999
 15.8860706100000009  4.3079964000000004 10.8836182000000008
 15.9792133399999994  7.6230897200000003 14.0835244100000008
 15.3299304700000008  9.8875130000000002 16.1287391800000002
 15.5455977099999991 12.3549886000000004 17.3500892799999988
 15.5030224099999998 13.8244580900000003 20.5438280199999994
 15.8740781000000002 15.7421801899999991 -0.3666134100000000
 15.6883515800000009 18.0387663200000006  2.5573927699999999
 16.4852113799999991 19.5636117300000016  4.8798775499999998
 16.1769655099999987 -0.1945352300000000  6.3823807900000000
 15.7078652800000000  2.2997730999999999  8.3226990599999997
 17.9699999400000010  4.7426233199999999 13.5640866700000000
 18.3032025099999984  6.7494007600000003 16.0479834299999986
 18.5765709799999996  9.5615892599999999 17.6726450100000001
 18.3494887899999988 11.6554414099999999 19.9965407999999982
 18.2612211299999991 13.6764261499999993 -0.0803432900000000
 17.6270300000000013 15.9554524600000001  2.8345078699999999
 18.2956522799999988 18.2090549899999985  5.0781026999999996
 18.5780511200000014 20.1609997900000018  7.1581770400000000
 18.1389134500000004 -0.1611831500000000  9.6310581499999994
 17.8706312400000016  2.2953797699999998 11.4114043600000006
 20.4323527600000006  4.6883400799999997 16.1707720600000009
 20.5644933700000010  6.4871036899999996 18.0839317000000008
 20.4789292699999983  9.4480265899999996 20.0986390600000000
 20.2411609000000006 11.2981020700000006 -0.0563450600000000
 20.1584638799999993 13.4830080900000002  2.0738879500000000
 20.0814966400000010 15.6227138700000001  4.3589026600000000
 21.0372594699999986 18.0679611000000016  6.9492693799999996
 20.9831707700000010 20.0689054400000018  9.6720249599999999
 20.2274460500000011 -1.0727827400000001 11.6708220100000002
 20.4069305599999993  2.6461297199999998 13.5955672300000003
  0.0230000900000000  4.3175410200000002 18.3660428499999995
  0.3284131300000000  6.5736131899999997 20.9052055400000008
  0.3611921600000000  8.9896139399999999  0.0868230600000000
 -0.0935004200000000 11.8206195699999999  2.2712865500000001
  0.2832887900000000 13.8631804200000008  4.0448172199999997
 -0.1227381300000000 16.4178507200000006  7.1315768300000002
  0.1382979300000000 17.4544118799999985  8.4278679499999996
  0.9073488900000000 19.9429240099999987 10.8098046100000005
 -0.1376721200000000  0.1506453400000000 13.1563320000000008
 -0.6622394100000000  2.1259599499999999 15.7048150199999998
  2.6539158199999999  4.5339039999999997 20.6606196699999991
  2.2548101400000000  6.1875489300000002 22.6798959599999996
  2.6944703600000000  8.9183102499999993  2.8717708100000001
  2.6819128700000001 11.3221617000000006  4.6073741999999998
  2.0410361899999998 13.8120636900000004  6.6250519700000003
  3.2223147200000000 16.6776951199999992  9.4826976100000007
  2.5547968100000000 18.3820847100000009 11.7099286700000000
  2.4638706699999999 20.2691021499999984 13.1075902299999996
  1.8951779799999999  0.3058389900000000 15.6291905399999997
  2.2677517500000000  2.2329031399999999 17.7647081799999995
  6.5385251200000001  6.7221401700000003 -0.2940939000000000
  6.4756817699999996  9.3832906600000001  2.4487416299999998
  6.3487628300000001 11.5440156700000003  4.8276967900000001
  6.8209900699999997 13.8298357500000009  6.7543526500000004
  6.6438150299999998 15.7210651600000002  8.7953676699999992
  6.8566358300000001 18.1850355000000015 11.4166036399999999
  7.3111734600000000 20.3734098400000008 13.4521106400000008
  6.7991253199999999  0.2692707700000000 15.7644453900000006
  6.8078749600000004  2.6303965800000002 18.0795917800000012
  6.5292782400000000  4.3346102999999996 20.3255980500000000
  9.1360255200000005  6.2962464999999996  2.5055906499999998
  8.4696012799999991  9.6064887399999996  4.0163235100000003
  9.3708611499999996 11.6532204900000007  7.0516637099999997
  8.7989593900000003 13.4715436900000007  8.7674385299999997
  9.0760730100000000 15.2131377000000008 10.9887323699999992
  9.5332843900000004 17.9241680000000017 13.3621345300000005
  9.0885560000000005 20.4230585500000004 15.6488778899999996
  9.0084606500000000  0.3614999700000000 18.4414872800000005
  8.5494285899999998  2.3169599800000000 20.5888380099999999
  8.3872408099999998  4.8913090900000000 23.0816015999999991
 11.4010198599999999  6.9824966499999999  4.0653224100000003
 10.5254025500000008  9.2978542199999996  6.4931178799999998
 11.0922637000000002 10.4332673499999995  9.3001724100000001
 11.3236912899999993 13.7024378599999999 11.4039845900000003
 11.4254008700000007 16.1812521300000007 14.1949767399999995
 11.1005562500000003 18.7795680199999993 16.0288414699999997
 11.5036044999999998 20.8158152200000011 18.5602772599999994
 11.9450257799999999  0.2995218100000000 20.2022125499999987
 11.1643402100000007  2.5400847500000001  0.4501166600000000
 11.3789685899999995  4.1336883100000001  2.5357717100000001
 13.3322543200000005  7.1508463200000003  6.1781020299999998
 13.6459610199999997  9.2777870000000000  9.6956868800000002
 13.3124280200000005 12.2172864400000005 11.9045991099999995
 13.0485956200000004 14.1130119599999997 13.7634609900000005
 13.3568376200000003 16.2708833300000002 16.3763217400000016
 13.2459357999999998 17.9686197300000003 18.9087245499999987
 13.7819286000000005 21.2270819999999993 20.4742754900000001
 14.1971975799999992  0.6215059600000000  0.2643579800000000
 13.9318329199999997  2.4874783699999998  2.2550686600000001
 13.9949103699999995  4.5056641800000001  4.7060695499999996
 15.6614182799999995  6.9397770300000001  9.5414782799999998
 16.0085876800000015  9.0423649600000005 11.4948883300000002
 15.7846039800000000 11.9100292000000003 14.0983911800000001
 16.1690657000000009 14.4726676600000008 15.6146621700000008
 16.5009829500000009 16.1059899199999990 18.3829276200000002
 16.0496467600000017 18.3381520500000015 20.0391793999999983
 16.5716607799999984 20.5944070500000009  0.5810487300000000
 16.3972704299999990  0.2286438600000000  2.1176070600000001
 16.0693274499999994  2.7350702999999998  4.7961458099999996
 16.0868127600000008  4.9624854899999997  6.0796745799999998
 17.8439960500000012  7.2247485400000002 11.6162715199999997
 18.5570419000000015  9.7416628700000008 13.9519470200000004
 17.9570216100000017 11.6209109200000000 15.9389801299999991
 18.6536831399999983 13.8970040400000006 17.7996498299999999
 18.1405791000000001 16.6595795899999999 20.4818606900000013
 18.3691274299999989 17.7444052600000006  0.1426808600000000
 18.5782871299999996 19.9155332899999991  2.5783700999999999
 18.0366522300000014 -0.1873064000000000  4.9598562399999997
 18.7913250599999984  2.3765649400000002  7.0540100900000002
 18.1049344599999991  4.3977928999999998  9.4638508800000007
 20.5079661400000006  6.7957745300000001 13.4627197499999998
 20.4623336599999988  8.9334319200000003 15.2644501399999992
 20.6832051999999997 11.4998468999999996 17.9107136099999984
 20.1843451999999992 13.8892536700000004 20.3823845699999993
 20.7269336600000003 16.4632938899999992  0.7471139700000000
 20.2304947900000016 18.4112051200000018  2.7049004600000002
 20.5034940699999986 20.4692201300000001  4.8414607800000002
 20.3716490199999996  0.0007790700000000  6.8867311500000001
 20.2639690500000000  2.1779954500000001 10.2077574000000002
 20.5666951699999991  5.0863253600000000 11.8644061599999997
  0.2223482200000000  6.5958270499999996 15.4554203200000000
  0.1835647100000000  8.9822529899999992 18.3100661600000016
  0.1506848500000000 11.0850192700000001 21.0545462400000005
 -0.1683409300000000 13.7616049999999994 -0.4603178600000000
  0.8261206000000000 16.4076717999999993  2.4430806999999999
 -0.0729474400000000 18.1484628800000003  4.8223092599999999
  0.1251345600000000 20.2266509700000015  6.9108647500000000
 -0.4616355100000000 -0.3619630900000000  9.0549686900000008
  0.1612644900000000  2.1247714300000000 11.6111803299999998
  0.2149215500000000  4.6001517900000000 13.3593645900000002
  2.1948861700000002  6.3293288600000004 18.3635023900000007
  2.1183125000000000  8.6229152500000001 20.3807298400000008
  2.5285968500000000 11.7913265000000003  0.4987521000000000
  2.3015424300000000 13.4944252799999997  2.1130536200000001
  2.1889366300000002 15.9370417000000000  4.4398055300000001
  2.1967524699999998 17.9727504700000011  6.8875352100000002
  2.0784911500000001 20.2212953499999983  9.2931597900000007
  2.4453014600000000 -0.8863828400000000 10.9173708999999999
  2.3245196899999998  2.3941091700000001 13.4941083499999994
  1.8321357800000000  3.8756225799999999 15.9287394800000008
  3.8415717100000002  6.7679903399999999 20.2390702199999986
  4.0952069599999996  9.1932206500000007 22.5187817199999998
  4.6769605399999996 10.3174044299999998  2.5932169200000001
  4.4922876599999997 13.7542863799999999  4.3218678099999996
  4.0738938899999999 15.0542382200000002  7.1210737499999999
  4.5620668499999999 18.0085755600000006  9.2392334199999997
  4.7323950999999997 20.2835826300000015 11.1733395400000006
  5.1550814200000001 -0.2844349800000000 13.5277441399999994
  4.6788283499999999  2.2088579699999999 15.7000855900000005
  4.5926667600000002  4.0742117899999997 17.9126396700000008
  9.0244478400000006  8.4395823599999993 -0.2182524100000000
  9.1502604900000009 11.3649728999999997  2.3125292200000001
  8.7868553499999997 14.0743899500000005  4.0259690900000003
  9.1612923500000001 15.6647053700000001  6.5989043299999999
  8.9366162500000002 18.0378639199999995  9.1133854099999994
  9.0185370200000001 20.2832212500000004 10.3215602299999993
  9.2299834900000004  0.4044491700000000 13.6907362500000005
  8.8986642000000007  2.1015422600000000 15.6696926100000002
  9.1164257899999992  5.0411653899999997 18.0998228899999987
  9.3365664699999993  6.4826792400000004 20.6369803800000007
 11.2871653900000002  9.1970644600000000  2.2398638900000001
 11.3898059299999996 11.2732726999999997  4.9675685999999999
 11.0820511699999997 13.0335862000000002  6.3546008499999997
 11.1977318300000004 15.7388326999999997  9.2620894800000002
 11.4351191399999994 17.8495877900000011 11.5857686100000006
 11.3016402100000004 21.0781598499999987 13.8339021700000000
 11.2582813900000005 -0.1377620900000000 15.7822297599999999
 11.2946908500000003  2.3650243400000002 17.8814967699999983
 11.2861937900000004  3.8130216600000000 20.6687476600000011
 11.3105124099999994  6.3517486700000001 22.8250975499999988
 13.5383960499999993  9.5644784099999995  4.3793819999999997
 13.1146672599999992 11.1007266999999992  6.4165229100000003
 13.0136135900000003 13.7714319300000003  9.3846627799999993
 13.5287027099999992 16.1562486499999984 11.6817708899999992
 13.0831271600000001 18.6356797500000013 14.5510085799999995
 13.4658708600000008 20.7228189600000015 16.1691309399999987
 14.0151230299999998  0.7591083600000000 18.3647647399999983
 13.7003240099999992  2.4775421299999998 20.3096282099999996
 13.9351540699999994  4.5654937400000000 -0.3795317100000000
 13.6713252000000001  6.1544147899999997  1.7128222000000000
 16.0652813700000010  9.1383054000000001  6.5805742599999997
 15.6609889700000000 11.6819827899999993  9.4826219900000002
 15.6716966299999996 14.5917667499999997 11.5255557599999996
 15.6983782000000005 16.5270208899999993 14.3402398899999994
 15.4408138200000007 18.7323966700000000 16.5494249899999986
 15.6208581800000008 20.5324964399999992 17.6251871899999983
 16.2594732399999984  0.1774799000000000 20.2151475699999992
 16.5876096699999991  2.1526870400000000 -0.1451139900000000
 16.4965771299999986  4.7623339900000001  2.1264026000000000
 15.2614144700000001  6.9077827999999997  4.0877422799999996
 17.8336139899999999  9.4258906299999996  9.5809998499999995
 17.9337644400000009 11.9275030500000003 11.4718001500000000
 18.3144158799999985 14.6566440199999999 13.8609294199999997
 18.6721237699999989 16.9529233899999987 15.9500884799999998
 18.8438197199999991 18.4640393600000010 17.7546947999999993
 18.4199227199999989 20.5985376600000016 19.9732786800000000
 18.4913086900000003 -0.1116065600000000  0.0788973200000000
 18.4525470300000016  2.4996089499999998  2.2427771999999999
 17.9822865500000013  4.7976202099999998  4.4050977500000004
 17.6302488199999985  6.6691185300000004  6.8003709499999996
 20.5438867400000014  9.1742652800000002 11.0979298300000000
 20.2805611200000016 11.7477023900000006 13.1936065500000002
 20.6494246299999986 14.4264735799999997 15.4941330599999993
 21.1579208100000002 16.2492696499999987 18.4172640799999989
 20.6485102599999983 18.6841313199999988 20.7395294600000000
 19.9271190800000007 20.5150970500000014  0.5772279500000000
 20.6883367400000004 -0.0756572500000000  2.4537431800000000
 19.9430267100000016  2.2509293300000000  4.8204504699999999
 20.4355667099999998  5.2176488900000004  7.1336536600000002
 20.4532926500000016  6.8314963100000003  9.3454001600000005
 -0.0231127600000000  9.2650329599999992 12.9927891199999994
 -0.3771854000000000 11.6547398599999994 15.2382771600000009
  0.1682156800000000 14.1604449399999996 18.3974513299999991
  0.0800413500000000 16.5953448200000011 20.5958061500000014
  0.0768241900000000 18.6271835099999983  0.0806404600000000
 -0.1258451800000000 20.4081570700000015  2.3794621399999998
 -0.3065504100000000 -0.5958987500000000  4.9318454899999997
 -0.5638268700000000  2.2243017200000001  7.0426308000000004
  0.2438631300000000  4.7182895900000004  9.3130385100000002
 -0.0511990200000000  6.6381715500000000 11.0137084299999994
  2.3449432300000002  8.2681534899999996 15.2455700699999994
  1.3821545600000000 11.0012292699999996 17.8242470600000011
  2.1858946700000002 13.5640620700000003 19.9208277799999998
  2.1404376900000002 15.9765074200000008 -0.1024973500000000
  2.1966330500000000 18.4328786800000017  1.9152086600000000
  1.9034680300000000 20.1700673100000003  4.3805528100000002
  1.7714198100000000 -0.3783960000000000  6.9813520499999999
  2.3496666899999998  1.8001936300000001  9.1052427100000006
  2.3648055100000001  4.2794966600000004 11.2519736500000000
  2.1546894100000000  6.6147257200000000 13.2213415899999998
  3.8672751000000001  8.7858540499999993 18.2303669900000003
  4.1812925200000004 10.8699069799999997 20.5415622099999986
  4.5081026000000000 13.0433610699999996 -0.0394957300000000
  4.5708033300000004 15.8095656299999998  1.9141791300000000
  4.4585653299999999 18.3688875200000012  4.6481544399999999
  4.5656454300000000 19.8758057100000016  6.2992229300000000
  4.3709378100000000 -0.5679748200000000  8.9659228199999994