Li                                      
   1.00000000000000     
    22.0829999999999984   -0.0000000000000006    0.0000000000000000
    -0.0000000000000006   22.0829999999999984    0.0000000000000000
     0.0000000000000006    0.0000000000000006   22.0829999999999984
   Li
   500
Direct
  0.0107677018521031  0.0008590014943621  0.0073615609292190
  0.9950232857854431  0.0846800104152550  0.1130791124394364
  0.9871493800661142  0.1922502169089313  0.1988371394285195
  0.9957957650681521  0.2995106267264447  0.3080600240003619
  0.0012437340940963  0.4084205148756936  0.4009135769596526
  0.0000727704569101  0.5171928732509201  0.4966649911696805
  0.0056540809672612  0.6126018453108699  0.5829932975592058
  0.0130079436670769  0.6841580677444199  0.7104649359235609
  0.0031221296925210  0.7761165136077537  0.7980396454286094
  0.0119266730063856  0.8902305986505468  0.8872228859303561
  0.1027387669247872  0.9979530534800531  0.1038049033192934
  0.0893110899787146  0.1044407707286155  0.1898616116469682
  0.0965969270479548  0.2128900212833429  0.3068515559480147
  0.0929406937463213  0.3062113680206480  0.4132715672689429
  0.0812734017117265  0.4043441267037977  0.5048938550015833
  0.1036276334737138  0.5086042045917694  0.5855916985916778
  0.1043239740977242  0.5955790404383450  0.7046686433002733
  0.1121311755649117  0.7117493456505031  0.8132598342616504
  0.1048158665036425  0.8063322881854802  0.8997391038355289
  0.1013192854231733  0.8912319236516808  0.0102749929810244
  0.1963431671421461  0.0024439808902770  0.2098668337635274
  0.1893230276683440  0.1077200828691787  0.2996718566317966
  0.1963150187927383  0.2113838219444801  0.4072585309966925
  0.1921830657066508  0.3079143997645275  0.5044407009917151
  0.1922776783045776  0.4007139279083489  0.5971208182765011
  0.1912679735543179  0.5150230190644365  0.7069170552008330
  0.1931748752434004  0.5993271973916592  0.8119066000996256
  0.1922675578499309  0.7190329909885449  0.9091219607843115
  0.2003969954263454  0.8168269813883953  0.0252885341665561
  0.1964389371915019  0.8896443205180447  0.1041342272336152
  0.2972167699135113  0.9941948145632367  0.2960981542362902
  0.2983819748222629  0.0926415346646721  0.4014855603858152
  0.3051118869718792  0.2142468935380180  0.5002232151428672
  0.3148633509939742  0.3050726183036758  0.5973604532898591
  0.2947750482271445  0.3945002535887312  0.7067714866639463
  0.2966141239867781  0.5038615989675321  0.7986618733867701
  0.2931943857265793  0.5947159452972883  0.9163965924013979
  0.3010702540415693  0.7089550998505629  0.9969861993388562
  0.3050053987229973  0.7937554127609445  0.1104380179323456
  0.3052936181678234  0.8948423542996906  0.1941039695693547
  0.3937880034415642  0.9953530127247205  0.4000251483041239
  0.4105876452474746  0.1147702327582323  0.4912140633066144
  0.4147896454286126  0.2002582611058301  0.6005986265453060
  0.4124555001584937  0.3062343784811858  0.6934805941221782
  0.4147820074265240  0.3993467010822798  0.8049503450618118
  0.3936600756237851  0.5097527876647163  0.8903965847031685
  0.4086975465290053  0.6165070099171288  0.9972690481365731
  0.3997669379160413  0.6988653434768821  0.1115286632251085
  0.4069109188063251  0.7973560082416355  0.1980034035230744
  0.4014191599873200  0.9093185898655065  0.2939326337001305
  0.5085414952678562  0.0067050509441628  0.5096782728795901
  0.4944359656749526  0.1098681800480037  0.6081339709278666
  0.5135576497758478  0.1999621523343720  0.7117451455871020
  0.5146937191504790  0.3093731132545372  0.7971063034913755
  0.4976750590952292  0.4082586609609180  0.8899641439116053
  0.4877664511162436  0.4961142765928557  0.9797042340261726
  0.4965144907847687  0.6073251469456125  0.0971315342118402
  0.5009800765294585  0.6966224181497083  0.2061938178689502
  0.4984748267898382  0.8014683729565704  0.2948140230041219
  0.5109482330299357  0.9042554671013932  0.4040827550604504
  0.6069293039894958  0.0051032174070542  0.5930638572657685
  0.5981863188878336  0.1095821840329663  0.7001388506996307
  0.6013970805597069  0.2054412770004106  0.8208868369333899
  0.6008216687044339  0.3143439437576419  0.9143424629805708
  0.5922538106235535  0.4044185183172573  0.0002066911198639
  0.5767745510120932  0.5184217651587204  0.0927911959425813
  0.5968414210025799  0.6019805923108308  0.2015758429561174
  0.5997861735271499  0.7010484250328304  0.2899573368654629
  0.5901623728660041  0.7972067427432847  0.4039741842140998
  0.5980329991396118  0.8906095218041017  0.5047860960920190
  0.7091414794185553  0.9835350713218318  0.7034601548702639
  0.7035513476429855  0.0988892116107394  0.7935795390119083
  0.7029128673640344  0.2103456604627993  0.8997736408096699
  0.6984696513154915  0.3023309577503070  0.0010218194991651
  0.6820027460037110  0.4078945840691901  0.1075681501607590
  0.6926094937282059  0.4982120753520789  0.2016001308698989
  0.7043888017932360  0.5860726391341728  0.2942307299732860
  0.6923030706878563  0.6926242684417900  0.3947310274872109
  0.7028185907711801  0.7888800122265991  0.5073968785943919
  0.7043681995199904  0.8839754421953572  0.6039981134809551
  0.8085978906851423  0.9989538060951872  0.8058653298917733
  0.7895510537517580  0.0943271131639705  0.9022261531494848
  0.8007177109088417  0.2162234107684640  0.9764467219127866
  0.8037755314042485  0.3098128483448832  0.1002444771996593
  0.7908837100937376  0.4049848190916094  0.1892394516143625
  0.8016683453335176  0.5113303355522376  0.2826654191006668
  0.7998311248471666  0.6007027029841936  0.3999248046008219
  0.8022510379024581  0.6937000099624129  0.4937217859892229
  0.7987745990128161  0.7932960530725026  0.5924535484309175
  0.8052785762803936  0.9006149567540618  0.7126590042113818
  0.9095947470905230  0.9991478875152850  0.9033881583118273
  0.8946600629443466  0.0934880052529081  0.0042972974686393
  0.8986825449440730  0.1987930018566288  0.0971003781189168
  0.8830609627315127  0.3040511710365408  0.1969533922021469
  0.9119011751120780  0.3963346673912085  0.2980103237784704
  0.8955466408549597  0.4946224140741720  0.3983704464973030
  0.8896659235611111  0.6015385948467156  0.4940570257664234
  0.8910953588733435  0.7067268631979360  0.5930135366571605
  0.8971589131911415  0.7727678263822853  0.6878986360548822
  0.8963551618892396  0.8962713458316358  0.8014834211837183
  0.1117244744826351  0.0911457483131812  0.0039376434361245
  0.0935319503690621  0.2037160847710879  0.0919439759090679
  0.0934822501471686  0.3140791758366177  0.1915311945840728
  0.1005794851243067  0.3962930140832341  0.2941321296925210
  0.0980649766788915  0.5066711674138489  0.3880730258569969
  0.1071114137571882  0.6175431159715643  0.4919760657519348
  0.1007427767966291  0.7118451451342693  0.6081731467644786
  0.1162944092741043  0.7998349884526590  0.7068425933976386
  0.0881841271566373  0.8912997948648282  0.7934077240411170
  0.0877915908164653  0.9985025612462053  0.9021225875107532
  0.1931565878730268  0.0981807748041490  0.1091839985509182
  0.1981886378662310  0.2170687216410840  0.1952256450663441
  0.2003035746954680  0.3001535633745434  0.3143215106643140
  0.1813928610243210  0.4033034320518070  0.4107461884707675
  0.1949548421862985  0.4921899080740815  0.4941270542951628
  0.2083057705021929  0.6006602875515128  0.5822284195987848
  0.2004077149843795  0.6849133890322889  0.7036375293211989
  0.2012211954897438  0.8179761635647367  0.8074738581714413
  0.2060570782955224  0.9021849268668234  0.9034031992935709
  0.1859821115790439  0.9805829135534125  0.0005843494996185
  0.2970938921342210  0.1036058135217104  0.2075331445002959
  0.3021498673187537  0.1999825852465733  0.2994185708463490
  0.3130479649504139  0.2939223379975573  0.4003692188561345
  0.2988055544989336  0.4006366204772931  0.5046872050898870
  0.2945675990580980  0.4965178304578188  0.6161772866005535
  0.3085425082642743  0.5973791088167388  0.7093054435538662
  0.2990418598016547  0.6844589082099333  0.8145318697640747
  0.2975842064031156  0.8057411216773076  0.9144147978082700
  0.2936284286555235  0.8990284390707757  0.0163982420866731
  0.2908827093239168  0.0020520676538496  0.1009838137934125
  0.4007382878232093  0.0996337934157481  0.3136846859575257
  0.4087746710139015  0.2186803862699804  0.3968258230312927
  0.4209011416021369  0.3157837345469332  0.4892514436444344
  0.4081800620386744  0.4034934632975578  0.5913208250690545
  0.4109295756917106  0.5141613807000880  0.7015983829189878
  0.3967328990626271  0.6085305950278510  0.8129994783317471
  0.4025214721731629  0.7098588307748059  0.9103637485848850
  0.4049220164832690  0.8048379993660291  0.0092587913779809
  0.3935337395281451  0.8993984236743202  0.0992630756690644
  0.4075951170583707  0.9992143789340204  0.1988150817370808
  0.5034600452837026  0.0863368862926208  0.4007128148349395
  0.4993891405153263  0.2031922587510735  0.4827863890775745
  0.5101168881039726  0.2911836860933761  0.6011431780102328
  0.5099138056423484  0.3935871253905745  0.7020674441878398
  0.4905772974686400  0.5056859443916153  0.8076840021736160
  0.5010759462029597  0.6169090309287668  0.9019613956437098
  0.5038322487886617  0.7162928139292646  0.0096923022234279
  0.4945485133360492  0.7948103790245895  0.0991577806457471
  0.4922147357695934  0.8912502336639037  0.1938640660236359
  0.5078431716705154  0.0062345233890326  0.2904639310782073
  0.6117618530090994  0.0876606407643905  0.4975482995969784
  0.6079460068831253  0.1792086116016876  0.5794804836299434
  0.6004632925779987  0.2851989063985840  0.7040561296019590
  0.6045906339718314  0.4019833052574384  0.7989751519268182
  0.6064067201014325  0.5105481021600298  0.9007449834714478
  0.6095885165059087  0.6061638237558284  0.9969103663451548
  0.6000603939682136  0.6819972141466266  0.0986428347597723
  0.5936917112711129  0.7921540633066186  0.1886339609654470
  0.5973468106688387  0.8970336874518878  0.2946923280351399
  0.6096925123398123  0.9822202418149715  0.4090423918851585
  0.6992718480278981  0.0899650713218278  0.5950356056695227
  0.7034312511886966  0.2017461033374062  0.7016862323959643
  0.7007473454693667  0.2993744079155931  0.8127268958022000
  0.7113946230131774  0.4173670461440935  0.8984583580129524
  0.7018868287823210  0.4951818371598051  0.9936721785989207
  0.7092729633654855  0.5988786763573799  0.0967067853099692
  0.6964434601277034  0.6904743010460521  0.1878317905175919
  0.6924087338676799  0.8014949227912851  0.2962617153466454
  0.6842940139473797  0.8777996576552098  0.4040948313182113
  0.7181687293393111  0.9867223275823065  0.5037610333740901
  0.7984689303989470  0.1086817180636714  0.6972601947199237
  0.7958279644975761  0.2133773798849816  0.8224896535796802
  0.8097223982248778  0.3043042666304387  0.8988182307657482
  0.8139255205361593  0.3978685323552043  0.0181122791287436
  0.8059348426391324  0.4890832355205390  0.1010505828012498
  0.7967620241814970  0.6032334329574809  0.1899685269211631
  0.7839944251233959  0.6978525612462079  0.2861387198297365
  0.7877545175021510  0.8004077140787018  0.3957770085586176
  0.8096749970565611  0.8973027247203760  0.4981654467237249
  0.7976732214825901  0.9911954874790538  0.6021768785943920
  0.8967945464837186  0.1110987895666327  0.8035164896073894
  0.9023057292940280  0.1920637300185675  0.8966127595888267
  0.9179471548249793  0.2980907698229416  0.9962641321378456
  0.9029708119367825  0.3976846053525307  0.1112969311234906
  0.9004090060227341  0.5117094756147296  0.1969262749626424
  0.8913872019200326  0.6099559362405458  0.3089496499569790
  0.8885171240320631  0.6985296386360531  0.3768034877507560
  0.8975850609065787  0.7944506969161793  0.4807074478105307
  0.8850428768736123  0.8965094470859967  0.6043587827740780
  0.8931187959063536  0.0087703156274088  0.7078637784721309
  0.0084901548702589  0.1017435683557508  0.9086121555042368
  0.0018834411085464  0.1910875442648177  0.9991219675768690
  0.9816685626952832  0.3036129973282584  0.1081967508943507
  0.9965717307431063  0.4072484227686459  0.1923464198704892
  0.9722227568718012  0.5084458982022397  0.2980879830638941
  0.9893659475614740  0.6169415473441120  0.3985719856903529
  0.9985314400217362  0.7038392872345227  0.4948133854095929
  0.0126657564642514  0.7974846008241627  0.6141760770728624
  0.9962969510483148  0.9000117488565849  0.6940125988316836
  0.9977696639949301  0.9891973454693641  0.8039041584023892
  0.1988184209572950  0.2081156672553561  0.0127930910655252
  0.2023672118824464  0.3120480659330696  0.0920181872933910
  0.1957192709323934  0.3979058873341472  0.1993089344744803
  0.1865098596205215  0.5066851881537815  0.3008635959788108
  0.2004907132183149  0.5933971054657405  0.3962649042249708
  0.1973559525426793  0.7134096716931566  0.5134791568174606
  0.2047798682244277  0.8047446574287918  0.6067885572612397
  0.2057785527328733  0.9124828664583617  0.7038977720418416
  0.2004616619118806  0.9952092541774249  0.7960876801159245
  0.1850192568944422  0.0914493995381065  0.9044417542906302
  0.3037901557759355  0.1885303926096995  0.1060696716931560
  0.3160168967078718  0.3005231399719221  0.1982892799891331
  0.2858233147670148  0.4054576162659060  0.2996693922927136
  0.2932687139428509  0.5051190626273581  0.4127690363628105
  0.3054769619164048  0.6079063225105301  0.5041255123850945
  0.2966486863197915  0.7079906167640289  0.6026245510120916
  0.2876048308653694  0.7978103047593166  0.7090090105510995
  0.3144875995109331  0.9055265788162856  0.8145708884662426
  0.2967592052710231  0.0122095222569385  0.9050606457455928
  0.2960881854820485  0.0964520545215777  0.0054573237331894
  0.4085984336367332  0.1984783951455853  0.2263562419055347
  0.3996157193316137  0.3086126685685855  0.2990238622469761
  0.3979079373273535  0.3794653307974443  0.3904927527962698
  0.3954992876873646  0.5069608694470844  0.5075352891364417
  0.3899658488430049  0.6013087456414468  0.6156316406285356
  0.4037870044830854  0.6984745808993367  0.7011718176878148
  0.3945913227369502  0.7955010732237469  0.7958814282479736
  0.3935303758547306  0.9027338771905988  0.9188009948829432
  0.3988953656658936  0.9881908028800410  0.0169734003532156
  0.4007369931621625  0.1068305135171883  0.0926693144047448
  0.4976910012226625  0.2051188171896925  0.3146607408413686
  0.5176686935651844  0.3266026278132514  0.3988863130009506
  0.5129373101480752  0.4268327387583213  0.4942644740297979
  0.5098339836073009  0.5159117945931229  0.6049235986958266
  0.4886515804012106  0.6148641199112461  0.7059982212561735
  0.5043223941493480  0.7147181112167758  0.8066987574152051
  0.5046259702033211  0.8140680985373336  0.8978959375990598
  0.5094430738577174  0.8900371570891608  0.0198307349544891
  0.5089943594620294  0.0034799298102612  0.1125789566634978
  0.5061410252230232  0.1036966123262246  0.2180666526287212
  0.6054460775256985  0.1974628687225461  0.3845030883485023
  0.6150611565457567  0.2982062890005892  0.4923604768373835
  0.6049570914277922  0.4056689919847827  0.6092016134583176
  0.5912523841869302  0.5144148544128981  0.7100923235067711
  0.5962777724946804  0.5961785626952860  0.8030526087940970
  0.6166157455961567  0.7231604306480079  0.8895347267128528
  0.6087687619435798  0.7980699750939664  0.0194316714214580
  0.5916518724810942  0.9074609772222999  0.1027456373681090
  0.6101193243671617  0.9950253018158790  0.1959645659557125
  0.6149029094778768  0.0861778567223652  0.3073995258796387
  0.7076123407145758  0.1916257505773657  0.5057647475433598
  0.7006426735497868  0.2883771742969685  0.5787251034732606
  0.6937997464112655  0.3951880306117843  0.6977808739754536
  0.7118570552008308  0.4958876570212354  0.7851147701852099
  0.7099705194040666  0.6000318679527226  0.8864043617262141
  0.7067627645700298  0.6985566807046126  0.9912683145405978
  0.6911731164244017  0.7997695630122692  0.0842054960829586
  0.7104184535615659  0.8866416822895431  0.1901431100846835
  0.6838037023955081  0.9891066150432479  0.3118373617714951
  0.6948024992075332  0.1010645464837197  0.4004369469727820
  0.8086794959923935  0.1968700493592337  0.5999111348095809
  0.8074057904270262  0.3057116320246323  0.6870344622560367
  0.7938523244124411  0.4040472684870693  0.7812135991486642
  0.8044151098129788  0.4906505551781919  0.8826310410723153
  0.8076397495811278  0.5892014006249155  0.9874062210750338
  0.7848043766698396  0.7051310899787140  0.0832376624552822
  0.7915138939455701  0.8040922338450400  0.1791530910655226
  0.8061392310827316  0.9008198917719525  0.2994433306163131
  0.7982633002762327  0.9655007847665615  0.4041194543313864
  0.8093336036770395  0.1008133215595706  0.4978945718425933
  0.9010248059593380  0.2041682389168145  0.7117003989494179
  0.9106136833763543  0.3015480179323475  0.8024483403523064
  0.9032006874066028  0.4065482253317043  0.9043069804827226
  0.8949280161209998  0.4893093755377436  0.9881752230222318
  0.9062858923153527  0.6014652560793365  0.0780760802427238
  0.8905500416610082  0.7012394040664773  0.1802343762170011
  0.8824620454648340  0.7935710428836629  0.2980603097405279
  0.9070683480505366  0.9059672005615198  0.3968616379115133
  0.8856534619390501  0.0002318321785992  0.5028238871530135
  0.9083136729610999  0.0868467364035652  0.5835171004845350
  0.0061930023094661  0.2022122424489439  0.7968430000452855
  0.9967726893990871  0.2982076629081192  0.9013366204772879
  0.9973653457410663  0.3957862414527042  0.0138429855544970
  0.9899421849386414  0.5113410478648746  0.1001013653036296
  0.9800880971788288  0.6065962527736275  0.2049520513517180
  0.9972991989313016  0.6961792736494132  0.3106560757143484
  0.0015800289815715  0.7996666933840544  0.3875760240909329
  0.9886629031381631  0.9033802250599976  0.5130476244169699
  0.9894848553185724  0.9960318647828643  0.6015142598378844
  0.9905521690893480  0.0861742471584463  0.6986072920345947
  0.0967935656387269  0.2088164203233234  0.9176700031698601
  0.0929246135035982  0.3048087886609636  0.9906007539736450
  0.0962130168002560  0.3981127278902292  0.1024149816601039
  0.0958446873160383  0.5006790571933166  0.2139893488203626
  0.1002176728705351  0.6082271539193016  0.3028002875515128
  0.1160559815242479  0.7059932731060101  0.3988205338948489
  0.0897879830638928  0.8032820472761841  0.5072749563012309
  0.1163642924421495  0.9021618045555400  0.6035625970203355
  0.0868686292623266  0.0033052583435236  0.6981652012860593
  0.1016754544219509  0.1177784585427730  0.7894797346375029
  0.3144995376533970  0.2939622148258820  0.9961818869718755
  0.2972756015939879  0.4054775134719009  0.1079933043517656
  0.2964630783860898  0.4927974455463513  0.1803996241452737
  0.2921676706063465  0.6006571579948385  0.3077325807182021
  0.2950687714531526  0.7078214142100236  0.3972055191776462
  0.3106547330525729  0.7959207535208108  0.4932195308608414
  0.2933337870760298  0.9041673998098076  0.5940403468731574
  0.3091113947380322  0.0026100158492923  0.7111454865733791
  0.2880409305800811  0.1055665946655822  0.8060722669021416
  0.2984891794593096  0.2033232078974763  0.9054845206720117
  0.4058788683602756  0.2967987460942823  0.0999562292261018
  0.3934558524656993  0.4044267354978928  0.1924091989313013
  0.3772650296608262  0.5011411067336837  0.2907319182176309
  0.3963818819906706  0.6081400611329997  0.3952635520536134
  0.3974054625730190  0.6958172250147143  0.4912785178644228
  0.3858664796449744  0.8018750215097583  0.5996733369560303
  0.3967003835529610  0.8967156409908057  0.6975147294298765
  0.3977993678395180  0.9992014314178306  0.8051077484943150
  0.3943272458452185  0.1056776823801115  0.9040665385137885
  0.3953653643073878  0.1889922659964682  0.9919602694380316
  0.4918453724584495  0.2986527224561897  0.2028413336050363
  0.4972282737852680  0.3963488303219691  0.2890582162749595
  0.4881549096590163  0.5098509432595222  0.3876490907032561
  0.4893870977675121  0.5941880885749242  0.4917130457818217
  0.4860003464203260  0.7006770828238942  0.6105939881356690
  0.4899072626001910  0.8053858923153570  0.6998162514151147
  0.4794569025947553  0.9022337399809786  0.7925392021011675
  0.4932945578046457  0.9986617823665256  0.9209492147805989
  0.5058315369288593  0.0955971960331468  0.0192123746773518
  0.4936143902549475  0.1863470266721023  0.1032957614454588
  0.6113206507268032  0.3036596119186683  0.2913929588371147
  0.6196526160394882  0.4155650079246485  0.3861929203459695
  0.6049698609790326  0.5124795068604797  0.4944938427749861
  0.6109292061766993  0.6176106430285770  0.5998316546664881
  0.6096997129013246  0.6968633097858117  0.7163584798261127
  0.6019436353756262  0.7946006140470061  0.7922814255309518
  0.6006418887832297  0.8943551691346272  0.8772113938323614
  0.6051309156364653  0.9937778254766130  0.0177021749762289
  0.6139212172259221  0.0968545559932963  0.1007158411447691
  0.6003175886428451  0.1998549671693155  0.2110298079971002
  0.7054529660825040  0.2908908051442296  0.3877580292532699
  0.7013431476701513  0.4100014585880558  0.4926275003396299
  0.6921460186568851  0.5010106751800052  0.5993856581986137
  0.7100090218720254  0.6007945446723753  0.6967804895168257
  0.7144177598152410  0.7105598098084513  0.8050233093329737
  0.7036027052483789  0.8147937336412596  0.9146222650907916
  0.7103976171715800  0.9044241475343000  0.0077382448036971
  0.6921409310329238  0.9971885767332367  0.1057181587646596
  0.7013498134311433  0.0830787076031356  0.2144748304125343
  0.6997328560431129  0.2056688647375822  0.2857801344925974
  0.8256254965357996  0.2975127383054854  0.5003911361680906
  0.8026001322284131  0.4077739179459314  0.5898029203459672
  0.7957560286193015  0.4919953031743844  0.6851326563419846
  0.7991515659104280  0.6147410093737236  0.7943889992301791
  0.7936965960240911  0.7093182275958867  0.9164691119865935
  0.7951781447267123  0.8092349268668215  0.0034891722139179
  0.7975809994113092  0.8926245256532184  0.0972465077208682
  0.8063813250011336  0.9903075655481572  0.1911648299596962
  0.7979820318797266  0.0850898745641473  0.3045476484173335
  0.7972187361318674  0.2034194575012478  0.3893542507811460
  0.9102090223248638  0.2961358932210274  0.5856376624552837
  0.9001326250962265  0.3951377317393465  0.6911229280441944
  0.8983509169949713  0.5029491400624906  0.7752626346058022
  0.8879638165104353  0.5796427876647172  0.8909383575601169
  0.9020174844903295  0.7025003486845094  0.9974076547570547
  0.9127682266902113  0.7796935081284246  0.0887199606031785
  0.9036251836254152  0.8924196241452691  0.1959129194402962
  0.9112445686727355  0.0007162704342676  0.3004251107186491
  0.8986402223429764  0.0900668903681563  0.4008085020151242
  0.9118796073902971  0.1905465774577735  0.4953936104695913
  0.0105890680614067  0.2930832414074160  0.6974883543902521
  0.0026577045691241  0.3997341013449258  0.7967246832405053
  0.0065158271068242  0.4892179527238127  0.8939838065480217
  0.9946396168998746  0.5830109183534873  0.9846720595027847
  0.0017113947380309  0.6919976361907345  0.0897983421636539
  0.9963510809219756  0.7880456360095991  0.1867462396413515
  0.0014342992347025  0.8839670887107758  0.2889999660372240
  0.9933845107095962  0.9857742797627154  0.3964113268124834
  0.0023557532943883  0.0922389992301760  0.5052270461440926
  0.9974797011275669  0.1811736005071793  0.6114494095005227
  0.1017220794276170  0.3016190390798386  0.8053166512702106
  0.0972240777973994  0.4060811583571109  0.9039200860390366
  0.0850343929719699  0.5016857061993392  0.9995867490830079
  0.0881227595888205  0.5843334071457704  0.0956939759090716
  0.0835139650409786  0.6927957849929811  0.1998309305800845
  0.0940088280577811  0.7956480618575341  0.2936406235565840
  0.0935116270434264  0.9015477679663064  0.4042438341710834
  0.1005310437893385  0.0074909446180342  0.5046468129330250
  0.0936263940587807  0.1024371747498094  0.5994273536204346
  0.1037482402753227  0.1960811828103033  0.6886449159987293
  0.1968103989494168  0.3108800615858343  0.8945653806095208
  0.2076239079835176  0.3956409899017359  0.0013158180500810
  0.1910514979848728  0.5045987696418095  0.1072226726441130
  0.2118472626001875  0.6028879518181398  0.2003408617488560
  0.1953073681112159  0.6982326939274586  0.2915080337816391
  0.1977464194176548  0.7959064397953171  0.4030448910926978
  0.2057722623737703  0.9078551618892376  0.4873707698229381
  0.1997033541638373  0.0038857179730982  0.5947215029660811
  0.2127955857446935  0.0979124539238327  0.6912470841824003
  0.2046035860163897  0.1969193438391557  0.7994773866775375
  0.3963612226599622  0.4170516972331626  0.0050868056876325
  0.4111286423946012  0.5165553833265406  0.0907165385137887
  0.3897236666213857  0.5900713666621371  0.2075610791106257
  0.4037738146990932  0.7012041226282690  0.2947451890594550
  0.4077802567585920  0.8048097445999218  0.4087727623058441
  0.4120315998732025  0.9016226069827482  0.5099652601548712
  0.4081307639360574  0.0001042113843255  0.6035802531358954
  0.4058009726939247  0.1044006593307074  0.7163900584159748
  0.4082637666983686  0.2031634225422252  0.8034216415342144
  0.4029763750396214  0.2954073300729050  0.9037139387764341
  0.5000771860707331  0.4148342471584456  0.1008511950369098
  0.4869176321152011  0.5071018321785985  0.2106545242947035
  0.4978669361046926  0.5896467581397431  0.3115644753883089
  0.5012192994611269  0.7011804578182321  0.3895466141375721
  0.4989600176606430  0.8018325933976342  0.5020623991305513
  0.5003769555766908  0.8898112629624606  0.6154609668070492
  0.4935953887605820  0.0003452714757941  0.7004812819816166
  0.5126472458452227  0.0963071688629284  0.8196184617126292
  0.5031142054974396  0.2085413503600080  0.9088040537970414
  0.4796833763528525  0.3047217171579959  0.0143321007109520
  0.5880375075850210  0.4134342793098753  0.2082502957025767
  0.5913615468912710  0.5016037467735330  0.2986559543540253
  0.5938118290087431  0.5936332577095484  0.3737857261241686
  0.5811732962006957  0.6958849581125719  0.4918072100710944
  0.5993688230765741  0.7872500529819320  0.6012794090476845
  0.6047404478558178  0.8933107281619357  0.7092587746230166
  0.5934059511841667  0.0002068179142327  0.8033727550604510
  0.6015951673232820  0.0889386953765339  0.9160892455735166
  0.5973971779196674  0.2067567916496884  0.9949163999456587
  0.5788102861929971  0.3041469198025624  0.1007335443553856
  0.7017893479146835  0.3927868767830489  0.2753114146628661
  0.7118399130552930  0.4933647181089498  0.3921637929629114
  0.6926101335869248  0.5819410465063655  0.4938333428429118
  0.7161544980301571  0.6946440886654912  0.5963651270207819
  0.7200800009056749  0.7853119911243951  0.7017061739799857
  0.7123138183217890  0.9063962545849762  0.8072601557759356
  0.6991944740297953  0.9910602789476073  0.9054619530860819
  0.7004659629579351  0.0997770905221245  0.0063786437531164
  0.6913908114839487  0.2054537698682211  0.0993219911243912
  0.6942534166553429  0.3123618118009333  0.1878723357333669
  0.7922052601548728  0.3932558271068274  0.3897305624235869
  0.7961387139428524  0.5008274840374938  0.4959320468233486
  0.7947239519087077  0.6014655436308445  0.5908326124167900
  0.7972719956527641  0.6834929425349827  0.6923595879183111
  0.8142539292668545  0.7827319906715573  0.7999067110446987
  0.8083707408413687  0.9007420943712390  0.9008018475750603
  0.7954532617850845  0.9892337685097132  0.0116538128877437
  0.7725746583344630  0.1077725327174761  0.0887428112122421
  0.7943969374632047  0.1969502318525542  0.2029341421002613
  0.8001625485667745  0.3100262509622809  0.2849213883983168
  0.8986798790925121  0.4021443381786867  0.4916011637911524
  0.9020136353756314  0.5031613761717182  0.5965338966625922
  0.8978015387402110  0.6039027799664893  0.6826180469139160
  0.8923995756917122  0.6831031807272581  0.8071135180908371
  0.9092738735679049  0.7997289104741228  0.9017129538559061
  0.8999531467644815  0.9041642865552717  0.9940003052121540
  0.9095464253045336  0.9958274324140746  0.1055495317665205
  0.8841687913779808  0.0958977430602701  0.2072545288230785
  0.8866795376534000  0.1871996572023704  0.2921240628537802
  0.9041397686002810  0.3018028641941797  0.3885222175429064
  0.0110968378390623  0.3998033668432726  0.6217855748766041
  0.0063722234297856  0.5085968953493634  0.6997888828510597
  0.0050122234297874  0.6014590997599996  0.8082693320653931
  0.9959745777294771  0.6906230584612629  0.9001568256124628
  0.9991416071185952  0.8019145460308863  0.0140216474210959
  0.9916992759135965  0.8962828334012585  0.0972462043200650
  0.0022597432414102  0.9963029081193682  0.1968336996784856
  0.0084367644794625  0.1088293931983912  0.2956756423493161
  0.9812460213739058  0.1981859158628794  0.4010143617262116
  0.9884534415613828  0.2990561468097610  0.5149546769007856
  0.1018954938187733  0.3956488516053085  0.7021810098265604
  0.1015620758049209  0.4900579400443803  0.8081194964452294
  0.1001968967078781  0.5892799918489331  0.8961523755830285
  0.1034758203142658  0.7088346719195755  0.9892030634424671
  0.0974899126024553  0.7881631626137775  0.1017935928089457
  0.0974183294842206  0.8810307191051976  0.1913944545578019
  0.1048359765430433  0.9973245559932948  0.3002106892179484
  0.1011743472354283  0.0959616474210918  0.4189444595390128
  0.0945674459991821  0.2005406842367421  0.5069626115111205
  0.1048177312865093  0.3062470225965654  0.5903032626907603
  0.2008278924964912  0.3958352841552326  0.7971914395688984
  0.2067278290993073  0.4793331861612984  0.8883233935606611
  0.1903490694199164  0.5931411153375876  0.9942350446044443
  0.1932006964633430  0.6882395924466778  0.0910876126432072
  0.1985924679617810  0.7882255119322537  0.1929551845310868
  0.1942531318208580  0.8869123936965053  0.2954005995562170
  0.2033266644024820  0.9962253738169622  0.4016308065027374