Li 
 1.0000000000000000
    22.0829999999999984   -0.0000000000000006    0.0000000000000000
    -0.0000000000000006   22.0829999999999984    0.0000000000000000
     0.0000000000000006    0.0000000000000006   22.0829999999999984
 Li 
 500
Cartesian
  0.2377831600000000  0.0189693300000000  0.1625653500000000
 -0.1099007800000000  1.8699886699999999  2.4971260399999999
 -0.2837802400000000  4.2454615400000000  4.3909205499999997
 -0.0928421200000000  6.6140931700000003  6.8028895100000000
  0.0274653800000000  9.0191502299999993  8.8533745199999991
  0.0016069900000000 11.4211702200000005 10.9678529999999999
  0.1248590700000000 13.5280865499999994 12.8742409900000006
  0.2872544200000000 15.1082626100000006 15.6891971800000007
  0.0689459900000000 17.1389809699999986 17.6231094900000009
  0.2633767200000000 19.6589623099999997 19.5925429899999983
  2.2687801900000002 -0.0452027200000000  2.2923236800000000
  1.9722568000000000  2.3063655399999998  4.1927139699999998
  2.1331499400000000  4.7012503399999996  6.7762029100000003
  2.0524093400000001  6.7620656400000003  9.1262760200000006
  1.7947605300000000  8.9291313500000005 11.1495709999999999
  2.2884090300000000 11.2315066500000000 12.9316214800000004
  2.3037863199999999 13.1521719499999996 15.5611976500000004
  2.4761927500000001 15.7175607999999993 17.9592169199999994
  2.3146487800000002 17.8062359199999989 19.8689386299999988
  2.2374337799999999 19.6810745699999998 22.3099026699999996
  4.3358461600000000  0.0539704300000000  4.6344892900000003
  4.1808204199999999  2.3787825900000001  6.6176536099999996
  4.3352245600000003  4.6679889399999999  8.9934901400000005
  4.2439786399999999  6.7996736899999997 11.1395640000000000
  4.2460679700000004  8.8489656700000001 13.1862190300000002
  4.2237706599999996 11.3732533300000007 15.6108493300000006
  4.2658807699999999 13.2349425000000007 17.9293334500000014
  4.2458444799999997 15.8784055399999993 20.0761402599999990
  4.4253668499999996 18.0379902299999983  0.5584467000000000
  4.3379610499999997 19.6460155299999997  2.2995961399999998
  6.5634379300000001 -0.1281959100000000  6.5387355400000002
  6.5891691500000000  2.0458030100000002  8.8660056300000001
  6.7377858000000002  4.7312141499999996 11.0464292600000000
  6.9531273799999997  6.7369186299999999 13.1915108900000000
  6.5095173900000001  8.7117491000000005 15.6076347400000000
  6.5501297000000003 11.1267756900000006 17.6368501500000008
  6.4746116200000001 13.1331122199999992 20.2367859500000016
  6.6485344199999998 15.6558554700000006 -0.0665537600000000
  6.7354342200000001 17.5285007800000017  2.4388027499999998
  6.7417989699999996 19.7608037100000011  4.2863979600000004
  8.6960204799999996 -0.1026194200000000  8.8337553500000006
  9.0670069699999996  2.5344710500000001 10.8474801599999999
  9.1597997400000004  4.4223031800000001 13.2630194699999997
  9.1082548100000000  6.7625737800000003 15.3141319599999992
  9.1596310699999997  8.8187732000000008 17.7757184700000010
  8.6931954499999993 11.2568708100000006 19.6626277800000011
  9.0252679199999992 13.6143242999999998 -0.0603076100000000
  8.8280532899999997 15.4330433800000009  2.4628874700000001
  8.9858138200000006 17.6080127299999987  4.3725091599999999
  8.8645393099999996 20.0804824199999992  6.4909143499999997
 11.2301218400000007  0.1480676400000000 11.2552252999999993
 10.9186294299999993  2.4262190200000000 13.4294224799999995
 11.3408935799999995  4.4157642099999999 15.7174680500000008
 11.3659814000000008  6.8318864599999998 17.6024984999999994
 10.9901583299999999  9.0155760100000002 19.6530781899999987
 10.7713465399999997 10.9556915700000008 -0.4481914000000000
 10.9645294999999994 13.4115612199999994  2.1449556699999999
 11.0631430300000009 15.3835128599999997  4.5533780799999999
 11.0078195999999995 17.6988260799999999  6.5103780699999998
 11.2832698300000001 19.9686734799999996  8.9233594800000002
 13.4028198199999995  0.1126943500000000 13.0966291600000009
 13.2097484800000000  2.4199033700000001 15.4611662400000007
 13.2806517300000007  4.5367597200000001 18.1276440200000017
 13.2679449100000006  6.9416573100000001 20.1914246099999986
 13.0787408999999997  8.9307741400000005  0.0045643600000000
 12.7369124100000004 11.4483078400000000  2.0491079800000001
 13.1800490999999997 13.2935374199999998  4.4513993400000000
 13.2450780699999999 15.4812523700000000  6.4031278699999996
 13.0325556799999998 17.6047164999999985  8.9209619100000008
 13.2063627199999996 19.6673300699999984 11.1471913600000008
 15.6599712899999997 -0.3635950200000000 15.5345106000000008
 15.5365244100000002  2.1837704599999999 17.5246169599999995
 15.5224248500000002  4.6450632199999999 19.8697013099999999
 15.4243053099999994  6.6763745400000003  0.0225648400000000
 15.0606666400000009  9.0075360999999994  2.3754274600000000
 15.2948954500000003 11.0020172600000006  4.4519356900000000
 15.5550179100000001 12.9422420900000006  6.4974972099999997
 15.2881287100000005 15.2952217200000007  8.7168452799999994
 15.5203429400000008 17.4208373099999996 11.2048452699999999
 15.5545629499999993 19.5208296899999993 13.3380903400000008
 17.8562672199999994 -0.0231031000000000 17.7959240799999989
 17.4356559199999985  2.0830256399999998 19.9238601399999986
 17.6822492099999984  4.7748615799999996 -0.5201270400000000
 17.7497750600000010  6.8415971300000002  2.2136987900000000
 17.4650849699999995  8.9432797599999994  4.1789748099999997
 17.7032420700000017 11.2917077999999993  6.2421004499999997
 17.6626707299999985 13.2653177899999992  8.8315394600000001
 17.7161096700000016 15.3189773200000001 10.9028582000000007
 17.6393394699999995 17.5183567400000015 13.0831517099999992
 17.7829668000000005 19.8882800899999985 15.7376487899999997
 20.0865808000000001 -0.0188172000000000 19.9495207000000008
 19.7567781700000005  2.0644956200000002 22.1778972199999984
 19.8456066399999997  4.3899458600000001  2.1442676500000002
 19.5006352400000011  6.7143620100000003  4.3493217599999996
 20.1375136499999989  8.7522584600000002  6.5809619799999997
 19.7763564699999996 10.9227467699999998  8.7972145699999995
 19.6464925900000011 13.2837767899999992 10.9102613000000002
 19.6780588099999996 15.6066493200000007 13.0955179299999998
 19.8119602800000010 17.0650319099999983 15.1908655800000005
 19.7942110400000004 19.7923601299999987 17.6991583900000009
  2.4672115699999999  2.0127715600000000  0.0869549800000000
  2.0654660599999999  4.4986623000000003  2.0303988199999998
  2.0643685299999999  6.9358104400000000  4.2295833700000003
  2.2210967699999999  8.7513386299999993  6.4953198199999997
  2.1655688799999999 11.1888193900000008  8.5698166300000000
  2.3653413500000000 13.6372046299999994 10.8643074599999991
  2.2247027400000001 15.7196763399999995 13.4302875999999998
  2.5681294399999999 17.6627560499999987 15.6092049900000003
  1.9473700800000000 19.6825733700000001 17.5208227699999988
  1.9387017000000000 22.0499320599999997 19.9215730999999998
  4.2654769300000002  2.1681260500000001  2.4111102400000002
  4.3765996899999999  4.7935285800000003  4.3111679199999999
  4.4233038400000000  6.6282911400000000  6.9411619199999999
  4.0056985500000000  8.9061496899999995  9.0705080799999998
  4.3051877799999998 10.8690297400000002 10.9118077400000004
  4.6000163299999999 13.2643811300000003 12.8573501900000000
  4.4256035699999998 15.1249423699999994 15.5384275600000006
  4.4435676600000003 18.0633676200000011 17.8314452099999983
  4.5503584600000000 19.9229497400000000 19.9498528499999992
  4.1070429700000002 21.6542124800000018 22.0959041899999988
  6.5607244199999997  2.2879271800000001  4.5829544300000000
  6.6723755200000001  4.4162154300000003  6.6120602999999996
  6.9130382099999999  6.4906869900000004  8.8413534600000006
  6.5985230599999998  8.8472584899999998 11.1450075500000008
  6.5049362899999998 10.9646032499999997 13.6070430200000008
  6.8135442099999999 13.1919228600000000 15.6635921099999997
  6.6037413899999997 15.1149060700000000 17.9873072799999996
  6.5715520300000003 17.7931811899999985 20.1930219800000010
  6.4841965899999998 19.8532450199999992  0.3621223800000000
  6.4235628699999996 22.1283158100000001  2.2300255600000001
  8.8495036099999993  2.2002130599999998  6.9270989199999997
  9.0269710599999993  4.8291189699999997  8.7631046500000007
  9.2947599099999998  6.9734522099999996 10.8041396299999999
  9.0138403100000009  8.9103461500000005 13.0581377799999991
  9.0745578200000008 11.3542257699999993 15.4933970900000002
  8.7610526100000001 13.4381811300000003 17.9534674800000005
  8.8888816700000000 15.6758125600000007 20.1035626600000015
  8.9418928900000001 17.7732375400000002  0.2044618900000000
  8.6904055699999994 19.8614153900000012  2.1920264999999999
  9.0009229699999995 22.0656511299999991  4.3904334499999997
 11.1179081800000006  1.9065774600000001  8.8489410900000003
 11.0280103900000004  4.4870946500000004 10.6613718300000002
 11.2649112400000000  6.4302093400000002 13.2750447999999999
 11.2604265699999999  8.6915844900000003 15.5037553700000004
 10.8334184600000007 11.1670627099999997 17.8360858200000010
 11.0652601199999996 13.6232021299999992 19.9180135000000007
 11.1261275499999996 15.8178942100000004  0.2140351100000000
 10.9211148199999997 17.5517976000000004  2.1897012700000000
 10.8695780099999997 19.6814789099999992  4.2811001700000002
 11.2147007599999995 22.2206769800000004  6.4143149900000003
 13.5095369999999999  1.9358099300000000 10.9873591000000008
 13.4252716700000008  3.9574637699999999 12.7966675199999997
 13.2600308899999995  6.2980474500000003 15.5476715100000007
 13.3511749700000006  8.8769973300000000 17.6437682799999997
 13.3912796000000007 11.2744337399999992 19.8911514700000005
 13.4615432100000003 13.3859157199999999 -0.0682283800000000
 13.2511336800000006 15.0605444800000008  2.1783297199999998
 13.1104940600000006 17.4931381799999990  4.1656037599999998
 13.1912096200000004 19.8091949199999995  6.5076906799999996
 13.4638397500000000 21.6903696000000004  9.0328831399999991
 15.4420202199999999  1.9866986700000000 13.1401712800000006
 15.5338723200000004  4.4551591999999998 15.4953370699999997
 15.4746036300000007  6.6110850499999998 17.9474480400000012
 15.7097274599999999  9.2167164800000005 19.8406559199999997
 15.4997668399999995 10.9351005099999998 -0.1397372800000000
 15.6628748499999997 13.2250378099999999  2.1355759399999998
 15.3795609300000002 15.2477439900000000  4.1478894300000002
 15.2904620700000002 17.6994123799999983  6.5423474600000002
 15.1112647100000004 19.3844498399999985  8.9236261599999995
 15.8593200499999991 21.7897891600000015 11.1245548999999997
 17.6325893899999997  2.4000183800000001 15.3975968800000000
 17.5742689399999996  4.7120126800000000 18.1630390199999994
 17.8810997200000017  6.7199511200000002 19.8486029899999998
 17.9739172700000012  8.7861308000000005  0.3999734600000000
 17.7974591300000000 10.8004250899999992  2.2315000199999999
 17.5948957800000017 13.3212039000000004  4.1950749800000002
 17.3129488900000013 15.4106781099999992  6.3188013500000002
 17.3959830099999984 17.6754035499999986  8.7399436799999997
 17.8800529600000004 19.8151360700000012 11.0009875600000004
 17.6150177499999998 21.8885699500000008 13.2978720100000007
 19.8039139700000000  2.4533945699999999 17.7440546400000017
 19.9256174199999982  4.2413433500000002 19.7998995700000009
 20.2710270199999982  6.5827384699999998 -0.0824991700000000
 19.9403044399999985  8.7820691400000008  2.4577701300000001
 19.8837320800000015 11.3000803500000000  4.3487229300000001
 19.6845035800000012 13.4696569400000001  6.8225351200000004
 19.6211236500000012 15.4256300100000008  8.3209514200000001
 19.8213709000000016 17.5438547400000004 10.6154625700000000
 19.5444018499999999 19.7976181199999992 13.3460549999999998
 19.7227423699999989 22.2766748800000016 15.6317558200000004
 22.2704880900000006  2.2468032199999999 20.0648822299999985
 22.1245920299999987  4.2197862400000004 22.0636104099999990
 21.6781868700000011  6.7046858199999999  2.3893088499999999
 22.0072935299999983  8.9932669199999999  4.2475859900000001
 21.4695951399999991 11.2280107699999991  6.5826769299999999
 21.8481682200000016 13.6239201899999998  8.8016651600000007
 22.0505697900000008 15.5428829799999999 10.9269639900000008
 22.3626979000000006 17.6108524399999986 13.5628503100000000
 22.0012255699999990 19.8749594499999986 15.3258802200000002
 22.0337474899999997 21.8444449799999987 17.7526155299999999
  4.3905071900000001  4.5958182799999996  0.2825098300000000
  4.4688751399999997  6.8909574400000002  2.0320376300000000
  4.3220686600000002  8.7869557100000009  4.4013391999999998
  4.1186972300000004 11.1891290100000003  6.6439707900000000
  4.4274364200000003 13.1039882799999994  8.7507178799999998
  4.3582115000000003 15.7542257800000005 11.3391602200000001
  4.5221538299999997 17.7711762700000016 13.3997117100000001
  4.5442077799999998 20.1503591399999991 15.5441745000000004
  4.4267948800000001 -0.1057940400000000 17.5800042400000009
  4.0857802500000000  2.0194770900000001 19.9727872600000005
  6.7085980100000002  4.1633166599999996  2.3423365600000001
  6.9786011300000004  6.6364524999999999  4.3788221700000003
  6.3118362599999998  8.9537205400000008  6.6175991900000000
  6.4762530099999998 11.1545442599999998  9.1151786300000008
  6.7458477500000003 13.4243953200000004 11.1326036899999998
  6.5508929399999998 15.6345567899999995 13.3077579600000000
  6.3511774799999996 17.6180449599999989 15.6570459799999995
  6.9448296599999999 19.9967434399999995 17.9881689300000005
  6.5533335299999997  0.2696228800000000 19.9864542400000005
  6.5385153999999996  2.1299507200000001 22.2035140800000015
  9.0230792100000006  4.3829984000000000  4.9986248900000003
  8.8247139299999997  6.8150935600000002  6.6033439500000002
  8.7870009800000002  8.3797329000000005  8.6232514600000005
  8.7338107699999998 11.1952168800000003 11.2079017899999993
  8.6116158400000007 13.2787010300000006 13.5949935199999992
  8.9168284199999999 15.4244141700000004 15.4839772500000006
  8.7137601799999995 17.5670502000000006 17.5754495800000008
  8.6903312899999996 19.9350722100000013 20.2898823700000008
  8.8088063600000002 -0.2607825000000000  0.3748236000000000
  8.8494750199999999  2.3591382300000001  2.0464164700000000
 10.9905103799999999  4.5296388399999996  6.9486531400000002
 11.4316777599999995  7.2123658300000004  8.8086064499999992
 11.3271946200000002  9.4257473699999998 10.9148423799999996
 11.2586638600000004 11.3928801600000007 13.3585278299999999
 10.7908928500000005 13.5780443599999998 15.5905587200000006
 11.1369514299999999 15.7831200500000008 17.8143286600000010
 11.1436553000000007 17.9770658200000000 19.8282359899999996
 11.2500313999999992 19.6546905400000007  0.4379221200000000
 11.2401224400000004  0.0768472900000000  2.4860810999999998
 11.1771122599999995  2.2899322899999999  4.8155658900000002
 13.3700657300000003  4.3605725299999998  8.4909817000000007
 13.5823955200000004  6.5852894800000001 10.8727964099999994
 13.3592674500000008  8.9583883499999999 13.4529992299999996
 13.0566264000000007 11.3598232299999999 15.6809687800000006
 13.1676020499999993 13.1654111999999994 17.7338107600000008
 13.6167255100000002 15.9695517900000006 19.6435953699999999
 13.4434405699999999 17.6237792599999992  0.4291096000000000
 13.0654482999999999 20.0394607600000008  2.2689319100000001
 13.4732650399999994 -0.1098562600000000  4.3274855099999998
 13.5789009499999995  1.9030656100000001  6.7883037300000000
 15.6262033200000001  4.2316714500000003 11.1688029199999992
 15.4722921600000003  6.3682331400000001 12.7799864599999999
 15.3211797999999995  8.7269372799999996 15.4090950400000004
 15.7199393500000006 10.9506871300000004 17.3376894700000008
 15.6782789800000000 13.2505037399999992 19.5744675199999989
 15.6074421300000008 15.4262271799999997 -0.1928218100000000
 15.2631759299999992 17.6613112600000015  1.8595099700000000
 15.6881707099999996 19.5797082700000011  4.1989302999999998
 15.1004371600000002 -0.2405586200000000  6.8863044599999998
 15.3433235900000007  2.2318083799999999  8.8428491000000005
 17.8580693100000012  4.3474813000000001 13.2478375899999996
 17.8299420700000013  6.7510299700000003 15.1717820299999993
 17.5306408800000000  8.9225758299999995 17.2515399100000018
 17.7638988699999985 10.8350362100000002 19.4911412800000008
 17.8351085900000008 13.0113345299999992 -0.2781084200000000
 17.3308350500000010 15.5714098599999993  1.8381373000000001
 17.4790013199999983 17.7567687999999997  3.9562377099999999
 17.8019726399999989 19.8928056700000013  6.6126070700000001
 17.6280484599999987 -0.7618461700000000  8.9241699099999998
 17.8725139700000000  2.2262605799999999 10.9950058300000002
 19.8973307900000016  4.5086472200000003 15.7164799100000003
 20.1090819699999983  6.6590848800000000 17.7204666999999993
 19.9453807800000007  8.9778044599999998 19.9698110500000006
 19.7626953800000003 10.8054189399999991 -0.2611265500000000
 20.0135113599999990 13.2821572499999991  1.7241540799999999
 19.6660165700000000 15.4854697600000009  3.9801157300000001
 19.4874093500000001 17.5244293400000011  6.5820658200000004
 20.0307903299999985 20.0064736900000000  8.7638955500000009
 19.5578854000000000  0.0051195500000000 11.1038598999999998
 20.0582908400000015  1.9178364800000001 12.8858081299999991
  0.1367600700000000  4.4654529500000004 17.5966839700000008
 -0.0712687000000000  6.5853198199999996 19.9042165900000008
 -0.0581810700000000  8.7401475699999995  0.3056946500000000
 -0.2221067300000000 11.2919443600000005  2.2105384500000000
 -0.4397145500000000 13.3954650500000003  4.5259561499999998
 -0.0596417900000000 15.3737268999999994  6.8602181199999999
  0.0348917800000000 17.6590395899999990  8.5588413400000007
 -0.2503571100000000 19.9493455100000006 11.3296306900000001
 -0.2322059400000000 -0.0876283300000000 13.2832393999999994
 -0.2086364500000000  1.9029859000000000 15.4273448299999991
  2.1374923099999998  4.6112930099999998 20.2649066799999993
  2.0520542399999999  6.7310924800000000 21.8754364499999987
  2.1246720500000000  8.7915233700000002  2.2616300400000000
  2.1165382300000002 11.0564956199999997  4.7255267900000000
  2.2131068699999998 13.4314802400000008  6.6867387500000000
  2.5628642400000001 15.5904494499999995  8.8071538500000006
  1.9827880300000000 17.7388774500000004 11.2021528600000000
  2.5696726700000001 19.9224391300000008 13.3284728300000008
  1.9183199399999999  0.0729900200000000 15.4175821400000004
  2.2452990599999998  2.6009017000000001 17.4340809800000009
  6.9450932900000000  6.4915675899999998 -0.0843153900000000
  6.5647371100000003  8.9541599299999994  2.3848161399999999
  6.5467941600000001 10.8824459900000008  3.9837649000000002
  6.4519386699999997 13.2643120200000002  6.7956585799999996
  6.5160036799999999 15.6308202900000008  8.7714894799999996
  6.8601884699999998 17.5763180000000006 10.8917669000000004
  6.4776900199999998 19.9667286900000001 13.1181929799999999
  6.8261069299999999  0.0576369800000000 15.7042257799999998
  6.3608078700000004  2.3312271099999999 17.8004938700000004
  6.5915365499999998  4.4899864000000003 19.9958146700000015
  8.9630230500000003  6.5542067099999999  2.2073334099999999
  8.6886855900000004  8.9309556000000008  4.2489723399999999
  8.3311436499999996 11.0666990599999995  6.4202329499999999
  8.7533010999999998 13.4295569700000001  8.7286050199999998
  8.7759048300000000 15.3657317800000008 10.8489035099999995
  8.5210894699999997 17.7078060999999991 13.2425862999999993
  8.7603345699999995 19.8021715000000000 15.4032177699999995
  8.7846034399999997 -0.0176347900000000 17.7791944099999988
  8.7079285700000000  2.3336802600000000 19.9645013700000007
  8.7308533399999995  4.1735162099999998 21.9054586299999983
 10.8614213599999996  6.5951480699999996  4.4793451700000002
 10.9802919699999997  8.7525712200000001  6.3832725899999998
 10.7799248700000003 11.2590383799999998  8.5604548699999992
 10.8071352800000007 13.1214555599999994 10.8584991899999999
 10.7323456499999992 15.4730520200000008 13.4837470400000008
 10.8186220800000008 17.7853366599999987 15.4540422799999995
 10.5878467799999996 19.9240276799999982 17.5016432000000002
 10.8934237199999995 -0.0295518600000000 20.3373215099999989
 11.1702778299999999  2.1110728800000000  0.4242668700000000
 10.9004865800000008  4.1151013900000004  2.2810803000000002
 13.4997939299999992  6.7057152100000001  6.4348307100000000
 13.6837887200000008  9.1769220699999998  8.5282982599999997
 13.3595494400000003 11.3170849499999999 10.9199075299999997
 13.4911496599999996 13.6386958299999996 13.2460824299999995
 13.4639987600000008 15.3888324700000005 15.8193443100000000
 13.2927213000000002 17.5471653600000010 17.4959507199999997
 13.2639748300000004 19.7500451999999989 19.3714592100000011
 13.3631060099999992 -0.1374042800000000  0.3909171300000000
 13.5572222399999998  2.1388391599999999  2.2241079199999998
 13.2568133100000001  4.4133972400000001  4.6601712500000003
 15.5785178500000008  6.4237416500000002  8.5628605600000007
 15.4877607299999998  9.0540622099999997 10.8786930900000005
 15.2846605300000000 11.0638187400000003 13.2362334900000000
 15.6791292299999991 13.2673459299999994 15.3870035499999993
 15.7764873899999998 15.6912922800000008 17.7773297399999990
 15.5376585400000007 17.9930900200000004 20.1976034800000015
 15.6877105799999992 19.9723984500000000  0.1708836600000000
 15.2845481799999998 -0.0620846600000000  2.3345741000000002
 15.4879079300000004  1.8346271000000001  4.7362476800000000
 15.4522006600000008  4.5417855400000002  6.3108827099999996
 18.2322878400000015  6.5699737999999996 11.0501374600000002
 17.7238187200000006  9.0048714299999997 13.0246178900000000
 17.5726803800000013 10.8647322800000001 15.1297844500000007
 17.6476640300000014 13.5753257099999995 17.5424922700000003
 17.5272019300000004 15.6638744200000009 20.2383874000000006
 17.5599189699999982 17.8703348899999988  0.0770513900000000
 17.6129812100000009 19.7118274000000007  2.1474946300000002
 17.8073188000000009 -0.2140380300000000  4.2214929400000001
 17.6218372099999989  1.8790397000000001  6.7253257199999998
 17.6049813499999992  4.4921118800000004  8.5981099200000006
 20.1001458399999997  6.5395689299999997 12.9326364999999992
 19.8776287600000003  8.7258265300000009 15.2620676199999998
 19.8382833000000005 11.1066258599999994 17.1201247599999995
 19.6089049600000003 12.8002516800000006 19.6745917500000012
 19.9192521099999986 15.5133151999999992 -0.0572467600000000
 20.1566607500000003 17.2179717399999994  1.9592028900000000
 19.9547549300000000 19.7073025599999987  4.3263449999999999
 20.1230138099999998  0.0158174000000000  6.6342877199999997
 19.8446720300000017  1.9889471400000001  8.8510541499999995
 20.1370373700000016  4.2078400699999996 10.9397771000000006
  0.2338383900000000  6.4721572199999997 15.4026353300000007
  0.0586900900000000  8.8273281600000004 17.5940711800000003
  0.1438890100000000 10.8034000500000005 19.7418444000000015
 -0.1183733400000000 12.8746301100000000 -0.3384869100000000
  0.0377927300000000 15.2813838000000004  1.9830167900000000
 -0.0805790800000000 17.4024117800000013  4.1239172100000001
  0.0316736300000000 19.5206452199999987  6.3819862499999997
 -0.1460898500000000 -0.3141465800000000  8.7539513299999996
  0.0520221000000000  2.0369138200000001 11.1569288600000007
 -0.0556557600000000  4.0008566200000004 13.5026373100000008
  2.2463286800000000  6.6606532400000003 17.7838076100000002
  2.1469993100000000  8.9674902200000002 19.9612672599999996
  1.8778144999999999 11.0787254500000003 -0.0091258200000000
  1.9460149000000000 12.9038346300000004  2.1132100700000001
  1.8442388900000000 15.2990093199999997  4.4128664400000002
  2.0759969500000000 17.5702961500000008  6.4844658900000001
  2.0650172599999999 19.9088793600000002  8.9269165899999994
  2.2200270400000002  0.1654225300000000 11.1441155700000003
  2.0675516599999999  2.2621201300000000 13.2371542499999997
  2.2910723900000001  4.3300607600000003 15.2073456799999995
  4.3461640399999997  6.8651644000000003 19.7546873000000005
  4.5849587600000001  8.7369399800000007 22.1120572099999997
  4.2189902300000002 11.1430546300000000  2.3677982800000001
  4.6782231000000003 13.3135746400000006  4.4241272499999997
  4.3129726100000001 15.4190725799999999  6.4373719100000004
  4.3668341799999997 17.5760019099999987  8.9004403300000003
  4.5440688700000003 20.0481655399999994 10.7626087100000003
  4.4100491699999997  0.0858083100000000 13.1332349500000003
  4.6991649200000003  2.1622007200000000 15.2648093599999992
  4.5182609899999999  4.3485698700000004 17.6548591299999984
  8.7528448799999996  9.2097526300000006  0.1123319300000000
  9.0789538099999998 11.4070925299999999  2.0032933200000000
  8.6062677300000008 13.0305459900000002  4.5835713100000000
  8.9165371499999999 15.4846906400000002  6.5088580100000000
  9.0050114099999998 17.7726135899999989  9.0269289100000005
  9.0988938200000007 19.9105320299999988 11.2615628399999999
  9.0127516599999993  0.0023013000000000 13.3288627300000009
  8.9613028799999999  2.3054797599999999 15.8200416599999993
  9.0156887599999997  4.4864578599999998 17.7419601100000008
  8.8989272899999996  6.5234800699999997 19.9567149099999988
 11.0432044999999999  9.1607846800000008  2.2270969400000000
 10.7526020700000000 11.1983297600000000  4.6518838599999999
 10.9943955500000001 13.0211693600000000  6.8802783099999996
 11.0684257899999992 15.4841680499999992  8.6023578799999996
 11.0185340699999994 17.7068691600000001 11.0870439600000008
 11.0498243100000000 19.6497021200000006 13.5912245299999999
 10.9000669699999992  0.0076246300000000 15.4687281500000005
 11.3207891299999996  2.1267512100000001 18.0996344899999997
 11.1102709999999991  4.6052186400000004 20.0691199199999986
 10.5928480000000000  6.7291696800000000 22.3994957799999987
 12.9856322800000008  9.1298691900000009  4.5987912800000004
 13.0590370399999998 11.0769155399999999  6.5952194400000002
 13.1131466200000002 13.1092032300000003  8.2543101900000000
 12.8340499000000001 15.3672275299999992 10.8605786200000001
 13.2358617200000008 17.3848429200000005 13.2780531899999996
 13.3544833100000009 19.7269808100000006 15.6625615200000006
 13.1041836200000006  0.0045671600000000 17.7408805500000000
 13.2850260799999997  1.9640332100000000 20.2299988100000014
 13.1923218799999997  4.5658102300000003 -0.1122611400000000
 12.7818675499999994  6.7164764300000002  2.2244988600000002
 15.4976141700000003  8.6739125999999995  6.0797019700000003
 15.7195608000000000 10.8949730700000007  8.6601530400000009
 15.2949095800000006 12.8510041299999997 10.9053217100000008
 15.8148397799999998 15.3398254099999996 13.1695311000000004
 15.9015266600000000 17.3420446999999989 15.4957774399999995
 15.7300260499999993 20.0159484899999995 17.8267260199999988
 15.4403115700000004 -0.1974158600000000 19.9953163099999998
 15.4683898600000003  2.2033774899999998  0.1408595900000000
 15.2679832900000001  4.5370356000000003  2.1933275299999999
 15.3311981999999993  6.8978858900000004  4.1487847899999997
 17.4942687600000006  8.6842684299999995  8.6064200100000008
 17.5811312199999996 11.0597733300000005 10.9516673900000008
 17.5498890299999992 13.2821636000000005 13.0473565800000006
 17.6061574800000002 15.0935746500000008 15.2893767799999996
 17.9811695200000017 17.2850705500000004 17.6643399000000016
 17.8512510700000000 19.8910876700000010 19.8924072000000010
 17.5659943799999994 -0.2377506900000000  0.2573511500000000
 17.0607661800000017  2.3799408400000002  1.9597074999999999
 17.5426675699999990  4.3492519700000001  4.4813946600000003
 17.6699895600000012  6.8463096999999999  6.2919190199999999
 19.8455477699999996  8.8805534200000000 10.8560285000000007
 19.9191671100000001 11.1113126700000002 13.1732580400000003
 19.8261513799999989 13.3359850899999994 15.0742543300000005
 19.7068598299999991 15.0849675399999992 17.8234878200000004
 20.0794949500000008 17.6604135299999996 19.9125271599999998
 19.8736653399999987 19.9666599399999996 -0.1324912600000000
 20.0855137100000007 -0.0921428100000000  2.3308503100000002
 19.5250994200000001  2.1177098600000002  4.5768017600000004
 19.5805442300000010  4.1339300300000001  6.4509756800000000
 19.9661185100000012  6.6647126500000002  8.5797361300000006
  0.2450514700000000  8.8288577499999992 13.7308908499999998
  0.1407178100000000 11.2313452399999996 15.4534379000000008
  0.1106849300000000 13.2820213000000003 17.8490116599999986
 -0.0888934000000000 15.2510290000000008 19.8781631800000014
 -0.0189558900000000 17.7086789200000005  0.3096400400000000
 -0.1833048900000000 19.7926138099999989  2.1474879300000000
  0.0499019100000000 -0.0816428800000000  4.3466785899999998
  0.1863090700000000  2.4032794900000001  6.5294052100000002
 -0.4141441100000000  4.3765395800000002  8.8556001500000008
 -0.2549826500000000  6.6040568899999998 11.3717441299999997
  2.2501581900000001  8.7371135899999999 15.5062632399999991
  2.2427953199999999 10.8219494899999997 17.8457028400000013
  2.2126480700000002 13.0130700600000004 19.7897329100000015
  2.2850565399999998 15.6531960600000009 -0.2384287500000000
  2.1528697399999999 17.4050071200000005  2.2479079099999999
  2.1512889700000000 19.4558013699999997  4.2265637399999996
  2.3150928700000000 -0.0590818300000000  6.6295526499999999
  2.2342331099999999  2.1191210599999999  9.2515505000000005
  2.0883329100000001  4.4285399300000003 11.1952553500000000
  2.3146899599999999  6.7628529999999998 13.0356669499999995
  4.4348823499999996  8.7412305799999999 17.6043785600000007
  4.5651706499999998 10.5851147500000007 19.6168455000000002
  4.2034785000000001 13.0983352499999999 -0.1273075100000000
  4.2664509800000001 15.1983949200000001  2.0114877500000001
  4.3855174699999999 17.4063839800000011  4.2610293400000003
  4.2896919100000002 19.5856863899999993  6.5233314399999998
  4.4900627300000000 -0.0833550700000000  8.8692130999999996