Li                                      
   1.00000000000000     
    22.7325000000000017   -0.0000000000000006    0.0000000000000000
    -0.0000000000000006   22.7325000000000017    0.0000000000000000
     0.0000000000000006    0.0000000000000006   22.7325000000000017
   Li
   500
Direct
  0.0026293302540381  0.9972984172440320  0.0052092990212245
  0.9843822320466273  0.1013897947872024  0.0904010509182882
  0.9971263794127339  0.1905070968877141  0.1954557369405023
  0.0115899056416993  0.3005172840646679  0.3056291217420011
  0.0094611969647005  0.4069622518420744  0.4069086242164275
  0.9956821176729349  0.5141266231166810  0.4975526189376467
  0.0176667176949294  0.5904545272187391  0.6199752737270430
  0.0134672380952381  0.6968079146596295  0.6979699056416990
  0.0264564636533606  0.7841878715495412  0.8063005973826023
  0.0146927641042538  0.8910252823050726  0.9091260310128675
  0.1092882934125186  0.0140226745848437  0.0997052453535687
  0.0938200849004716  0.0793975713185944  0.1970646954800372
  0.1039092233586274  0.1864528314087792  0.3046797083470807
  0.0994031721104136  0.3037922744968640  0.3977160527878567
  0.0987082529418259  0.4047389596392819  0.5056016095897959
  0.0876053509292873  0.4954817727922602  0.6136316691960815
  0.1103119234576013  0.6000750594963193  0.7092332946222371
  0.0966860679643702  0.7018859298361377  0.8052253628065529
  0.1252157862091750  0.7832519063015511  0.9256738537336417
  0.1145896109094906  0.9113967953370690  0.0056950419003599
  0.1934964473771004  0.0136877219839420  0.2108201759595261
  0.1954072037831267  0.0935045116023332  0.2986614111954253
  0.1949773100186931  0.2068109882327036  0.3967843312438148
  0.1928834835587807  0.3081502241284539  0.4956881522049912
  0.1993261181128361  0.3977687311118459  0.5966010720334296
  0.1999462720774190  0.4982656980094546  0.7181396718354804
  0.2083414512262181  0.6222927183547782  0.8126588351479143
  0.2204299100406928  0.7051509697569571  0.9089624823490610
  0.2207204517760886  0.8123587330913864  0.0213080972176414
  0.2028858581326318  0.9056356889915307  0.1126415849554618
  0.3050775796766771  0.0041060662047698  0.2997219821840957
  0.2939365692290750  0.0935829297261606  0.4030268179918650
  0.2993967245133646  0.2133752270977709  0.4882970605960608
  0.2845735004948864  0.2863757413394907  0.5945543055097318
  0.2983958148025962  0.3880544550753342  0.7060224748707782
  0.3129165459144403  0.4976031826679872  0.8001192020235379
  0.3044176355438282  0.5852088476850312  0.8954883945892433
  0.3095679832838414  0.6873743323435590  0.0022996775541628
  0.3083155653799636  0.7855760699439145  0.1171709028923331
  0.3066085256790956  0.9061900763224457  0.2086623151875102
  0.3890259645881429  0.0114511804684909  0.4034576157483798
  0.3948767174749790  0.1000927843396013  0.4917215686792034
  0.3997133628065512  0.1925156669965915  0.5873187981964136
  0.3890499474320919  0.3068925032442564  0.7000752710876483
  0.4034654050368403  0.4071885058836457  0.8106933513691814
  0.4103854569449013  0.4903244165841869  0.8851280250742306
  0.3957132242384276  0.5858222316067270  0.0014548162322683
  0.4110027608050117  0.6863400976575420  0.1079395178708893
  0.3881291393379556  0.7975437224238391  0.2108569339052053
  0.3962605234795973  0.9050715605410744  0.3030604733311364
  0.4954801865170992  0.9989802810953492  0.4909043558781505
  0.5015148413065020  0.0858817551963043  0.6008917545364554
  0.4939538581326275  0.1963183173870036  0.6965792407346285
  0.5030337798306377  0.3094348589024492  0.8031712402947306
  0.5103934916969095  0.3997046110194660  0.9068999920818186
  0.4992394523259662  0.4869150823710555  0.9861941898163451
  0.4864980648850761  0.5904951241614427  0.0930235165511917
  0.4936574683822741  0.6976252708677038  0.2006836124491400
  0.5095651542945134  0.8002549737160436  0.3021410729132299
  0.5095347700428903  0.8909873366325769  0.4047759419333588
  0.6005297261629821  0.0038261506653470  0.5962889708567047
  0.5858200039590926  0.1007697054877355  0.6888504418783654
  0.5960741643022089  0.1867279929616217  0.8036374864181255
  0.6114445973826008  0.2921440312328158  0.9003524689321480
  0.6025609994501266  0.3809411868470249  0.0001355944132868
  0.5998197479379712  0.4900828140327746  0.0970147797206664
  0.5887386187176915  0.5920509257670759  0.1981965736280671
  0.6154330078082069  0.6970564922467801  0.3129506987792823
  0.6088335735180905  0.7882553036401632  0.4057009981304276
  0.6017634839986812  0.8988130997470591  0.5003696680963401
  0.7105352402947318  0.9944372391949869  0.6890327456285021
  0.6997709394039404  0.1207470867700451  0.8014562283074866
  0.7004413469701944  0.2029870480589437  0.9125671355988132
  0.7022668932145635  0.3015298066644689  0.9967000378312960
  0.6962805762674549  0.3836692519520497  0.1224931652919850
  0.7064476076102508  0.5005953454305541  0.1943832420543288
  0.7219378238205181  0.5982652150005521  0.3063273709446861
  0.7014242595403033  0.6856652110414601  0.3986163686352171
  0.7032227907181365  0.7927860257340811  0.5100267462883536
  0.7023966840426681  0.9074045582316046  0.5888069671175629
  0.8011476353238720  0.0115174318706721  0.7961058005058845
  0.7879269002529412  0.0994863165072033  0.9050762964918064
  0.7929988980534475  0.2022225201803565  0.0092089308259133
  0.8178809774551823  0.3042296390630170  0.1050772466732681
  0.8113705452545901  0.3966105470141841  0.2126035187506901
  0.7928401130539982  0.4981482045529546  0.2949977877488195
  0.8096413579676707  0.6039846088199710  0.3954842749367629
  0.8057528692400737  0.7003520382711983  0.4897839344550761
  0.8078198433960182  0.8042943019905451  0.6039661902562443
  0.8088721007368278  0.9028247293522469  0.6998747806004602
  0.9049908822170920  0.0022396304849863  0.9102104616738131
  0.8915421189926320  0.0987115996920735  0.9963577807104400
  0.8926847614648636  0.1886054899373164  0.0957628003959101
  0.9079070493786432  0.2921252101616645  0.2034905333773267
  0.8938463389420406  0.3888447570658755  0.2960877571758473
  0.9010037774111979  0.5140426129990132  0.3862123915099502
  0.9042141643022106  0.6021279445727501  0.4997474122951715
  0.8950676511602325  0.6980677035081939  0.5972058150225479
  0.9029818203013278  0.8228390872099425  0.7122571784889473
  0.9127755869350054  0.9064366149785528  0.8133059694270344
  0.1069315112724070  0.1171629446827254  0.0023822254481445
  0.0994486215770394  0.1877737362806542  0.1077033907401272
  0.0921836828329461  0.2984309543604979  0.1897508505443781
  0.1036668448256890  0.3885148993731420  0.2945782733971214
  0.1106420169361044  0.5093427502474412  0.4111933043000136
  0.1109825109424847  0.5917574050368444  0.5126465298581309
  0.0949507097767537  0.7011835389860366  0.6083743477400176
  0.1142020358517541  0.7887436524799298  0.6923954219729467
  0.1083816487407887  0.8996623354228532  0.8116249844935695
  0.0925509631584731  0.0181846053007817  0.9095327992961586
  0.2157544392389781  0.1115983121082138  0.1140868087539886
  0.1900549763554409  0.2013192257780716  0.2015058444957631
  0.1848091432970449  0.2959038328384480  0.2845935273287168
  0.1880770588364697  0.4040475068734182  0.3945379540305751
  0.1940349820741218  0.4820042969317058  0.5007827528868347
  0.1732028285494351  0.5818172730671947  0.6051929369844942
  0.2011539245573530  0.6983029376443426  0.6825619729462247
  0.2099901827779576  0.8037577125261208  0.7926142514021777
  0.1948069833938177  0.9037962203893102  0.8911377771912470
  0.2036173456504997  0.9975157496975697  0.0044355794567252
  0.3046238645111643  0.1179063424612323  0.2173834206532490
  0.2973183455405248  0.1985140358517512  0.3028345478939869
  0.2934435227097794  0.3084875438249171  0.4042680541075541
  0.2956286444517744  0.4026943503794129  0.4936718275596590
  0.2943552090619193  0.5131508536236637  0.6057431074452850
  0.2807148034751989  0.5888853139777837  0.7165420398108466
  0.3107503741339457  0.7123731485758285  0.7940836032112628
  0.3090328740789587  0.8216884561750817  0.9220927262729575
  0.2912509046519318  0.9104848635213898  0.0129978159023452
  0.2983576368635212  0.0101759736060671  0.1037659654679430
  0.4134135123721521  0.1087499808644026  0.3039749882327030
  0.4020662553612695  0.1952992451336186  0.4024623077092286
  0.4065855607610231  0.3024639793247559  0.5038104062465649
  0.3987994756406010  0.4062460332123621  0.6134836252062001
  0.3979012779060795  0.4966855827559655  0.6979359199384163
  0.3994435886946022  0.6077297314417649  0.7910826543495020
  0.3975891138238197  0.7013311479159796  0.8974809774551886
  0.4030047412295161  0.7927770289233464  0.9965787643242052
  0.4012387638843080  0.9015820072583338  0.1075337164852073
  0.4018003448806766  0.0084796784339574  0.1983026429121324
  0.5159879080611489  0.1006525824260436  0.4124584836687575
  0.5083143354228525  0.2018579012427111  0.5045248604420962
  0.5083619302760383  0.2910107814802601  0.6014220305729694
  0.5077493254151548  0.4031003008907916  0.7004948923347598
  0.5139649752556892  0.5074218770482801  0.8016209893324557
  0.4965803294842175  0.6027227062575591  0.8979822074122978
  0.4967605855053350  0.6855214543055084  0.9951250280435531
  0.4855888441658394  0.7987197659738285  0.0996707344110845
  0.5123058326184946  0.8984013962388673  0.2080482441438463
  0.4935319775651621  0.0096929950511395  0.3027796445617525
  0.6011582250082483  0.0847939707467305  0.4950323184867500
  0.5889789451226193  0.2029321843176035  0.6045412845045632
  0.5988273705047860  0.3022549257670732  0.7075976716155310
  0.6129725274386857  0.3976061519850447  0.7974615827559646
  0.6108988232706452  0.4858066015616416  0.9202639678873865
  0.6014548760585043  0.5931615726382944  0.9947853979984629
  0.6027447381502284  0.7068394558451558  0.0957515513032021
  0.5847363972286388  0.7845149064115233  0.1914519551303187
  0.6123121368085336  0.9049194628835338  0.2813058928846388
  0.5994225294182343  0.9880565375563606  0.3780016707357277
  0.6901194650830291  0.0928880950181465  0.5905782505223769
  0.6963892207192330  0.1964235174309934  0.6935127561860739
  0.7000494784999418  0.2988766836027708  0.8040188531837700
  0.7214352754866411  0.3907171512152203  0.9082051481359272
  0.6968282766963583  0.4932978044649730  0.0089013452106030
  0.7076278262399640  0.5998219566699632  0.0986622562410631
  0.6910615660398136  0.6865473185967232  0.1992542065324940
  0.6972473854613455  0.7965896988892567  0.2911080000000013
  0.6906005195205083  0.8831740974375890  0.3959913713845822
  0.7022945311778273  0.9961655612009253  0.4806981123941512
  0.7931928459254394  0.1053702412845041  0.7007433559881235
  0.7973499571098657  0.1990842621796958  0.8018632724073456
  0.8042822984713496  0.2937646814032746  0.9110907999560069
  0.8070806585285411  0.3958062443637971  0.0133293650060509
  0.7972806677664153  0.5066451490157249  0.1075402287473892
  0.8024342483228821  0.5859222118112868  0.2092806290553142
  0.8206552596502803  0.6880586772242410  0.2946851380182522
  0.7953736236665563  0.7953426169581022  0.3899886396128878
  0.7928944911470381  0.9117655919938414  0.4855490808314116
  0.8121983464203240  0.0032403580776403  0.6006812106015644
  0.9096957351809110  0.0966265817661949  0.8026790471791472
  0.8975388254701429  0.1880337815902351  0.8952092589904339
  0.9192091692510758  0.3062314030572963  0.9984514342901107
  0.9031187317716913  0.3941537917079074  0.1080663420213384
  0.8990742619597469  0.5038376588584654  0.2091090707137369
  0.8944511857472790  0.5979229548003957  0.2885825826459936
  0.9146097019685442  0.7003304920268363  0.3890215136918513
  0.8999245811063474  0.8077515847355130  0.4919281821181158
  0.9035466398328396  0.9085328283294842  0.5956444416584219
  0.9144345188606593  0.0017562054327485  0.6916684557351829
  0.9980750388210708  0.0956657622346881  0.9104416628175542
  0.0060015699989009  0.2097136993291571  0.0087699232376579
  0.0130379588694609  0.2987985100626886  0.0989276753546662
  0.0001866913010033  0.4043300156164094  0.2066356221269103
  0.0073559925217168  0.4885256183877686  0.3069337296821715
  0.0112388619817452  0.6031712649290668  0.3970853623666528
  0.9954056060706051  0.6874795684592527  0.5179144920268328
  0.9899209862531606  0.8002164236225653  0.5984516032112595
  0.0153556441218541  0.9037500591663914  0.7032901291103073
  0.0010560558671528  0.9934290157263845  0.8081697670735721
  0.2167057666336731  0.2109907801605644  0.0133911778290994
  0.2078590344220856  0.3043972607500294  0.1081937890685154
  0.2019666943802960  0.3966465368965117  0.1834085877048253
  0.2049290834708017  0.4985243695150103  0.3080702417244012
  0.1989657010887527  0.5946083145276617  0.4115509569998892
  0.1958732572308364  0.6951458225008267  0.5077290548773803
  0.2126579804245026  0.8038806959199363  0.6075586974595808
  0.1891296166281720  0.9079945716485227  0.7067143151875044
  0.1808345021445064  0.0015011402177478  0.7963289818541739
  0.1872316828329517  0.1122728525239225  0.9052666473111159
  0.3074339808644027  0.2072010913889812  0.1126795064335226
  0.2914223569778969  0.2966731837677301  0.1970458889255440
  0.3030916568789195  0.3956853469701969  0.2964487038381165
  0.2784910449796527  0.5070117576157500  0.4045391571538559
  0.2835355944132871  0.6048072125811075  0.4981832508523070
  0.3006619729462230  0.6901253540085790  0.5997107678433977
  0.3160053777631120  0.8000756969097083  0.6973771674914744
  0.2942640387110984  0.9035378233806242  0.7950641953150779
  0.2990639815242488  0.0037487975365664  0.9068803598372384
  0.2945303327834594  0.1046179232376545  0.0007205665896848
  0.4143246211371405  0.2066336720554247  0.2148411155834182
  0.3901285309578810  0.2867219153194753  0.2994258057846721
  0.4006804249422657  0.3932254019575510  0.3975993520290331
  0.3855504964258216  0.5094487174749815  0.5038779742659187
  0.3912523703948096  0.5863031624326425  0.5954726712856058
  0.3951645318376791  0.6885762753766613  0.6919947423292641
  0.4088194012976984  0.7980282577807074  0.7909551100846812
  0.3996875460244169  0.9093822030133083  0.8905523154074544
  0.4005009281865171  0.9955554435279907  0.0073615889145486
  0.3946367751017235  0.1025700838007282  0.1118712952820857
  0.5010194690421201  0.2038616997690497  0.3127978035851768
  0.5182436102496411  0.3064045965028015  0.4005272825250188
  0.5020707995161118  0.4177174213130996  0.5013692158803451
  0.4943412743868905  0.4996637343011088  0.5983874316507212
  0.4817692035631822  0.5977725907841176  0.7101674026174010
  0.5029067740019784  0.6851302698779307  0.8076778035851788
  0.5056324121852001  0.8013344709116907  0.8996870867700437
  0.5080004799296134  0.8979459329154267  0.0001813016606178
  0.5063523215660410  0.9951942118112811  0.0991599120202338
  0.5092324548553862  0.1022265105025824  0.1970937200043963
  0.5870404126250932  0.2028465113823827  0.4015356463213493
  0.6058147964368175  0.3083901172330386  0.5030240373913983
  0.5974041165731876  0.3997750911690332  0.6062493342131319
  0.6129566989992270  0.5107521064555129  0.6938562256680996
  0.6109004020675215  0.5902975985923220  0.8041934631034877
  0.6161613808424065  0.6955050460794041  0.9012588034752014
  0.5970571952051031  0.8137501607830231  0.0041121174529835
  0.5939174375893543  0.8985872851644103  0.0939881904761890
  0.6012142918728713  0.0000893953590690  0.1856652651490123
  0.5990185298581352  0.0889529180688413  0.3074083567579464
  0.6766733095787956  0.2146542316067297  0.4911924750907275
  0.6971560167161570  0.3078863481799203  0.6006158231606733
  0.7141423569778951  0.4027643677554167  0.6886898466952616
  0.7081204944462769  0.4864760312328187  0.8045682058726484
  0.6914425184207644  0.5996814318706711  0.9050897173650085
  0.6854049756955902  0.7112126726052992  0.0078865456944897
  0.7026810399208188  0.7958329097107679  0.0838023728142545
  0.7016418647311085  0.8952511967447521  0.1797638711096425
  0.6903982980314538  0.0042589926316978  0.2833237945672522
  0.6826287685032426  0.0986938255801135  0.3951787317716935
  0.7872582320466321  0.2195288441658434  0.5923390454195570
  0.7948698286594080  0.3062052026833797  0.6869549534807007
  0.8163908408666032  0.3946484966457717  0.7985916322445803
  0.7875350876498430  0.4856900991971855  0.8980202929726175
  0.7834737288023774  0.6035770267238547  0.9901921033762235
  0.7987029930715934  0.6962221840976568  0.0957310678543948
  0.8032238024854266  0.7809739210381608  0.2140162595403083
  0.8040151470361820  0.9130219975805574  0.2847804918068846
  0.7958006726053029  0.9999859804245048  0.3684240739030002
  0.7823648366875631  0.0957613531287791  0.4877249704168065
  0.8899264036071699  0.1985174477070260  0.7039728252501902
  0.9058012761464838  0.2932582962718584  0.8057847086770025
  0.9114007183547770  0.3876553876608355  0.8941402837347425
  0.8889759274166948  0.4902619562300643  0.0011662571208646
  0.9017042393049621  0.6096446576487438  0.0831717391399991
  0.9028319846035444  0.6867865267788389  0.1838158675904538
  0.9197542496425797  0.8092665386561109  0.2979543107885192
  0.8984418924447368  0.8944467863191434  0.4001004333003380
  0.8799294380292508  0.0028026952600868  0.4949775537226415
  0.9003134138348159  0.1112780059386367  0.5937339808643998
  0.9957631518750674  0.1927557721324078  0.8056146002419453
  0.9946297732321554  0.2990789899923030  0.8863353951391204
  0.9981735699988974  0.3879986996590787  0.9917152112614076
  0.0013265822060902  0.5179872306169599  0.1080178383371830
  0.9937396621577008  0.6012759472121445  0.1990390674144962
  0.0120521900362931  0.7048393639063022  0.2900120549873506
  0.0067522775761546  0.8053063349829515  0.4115475838557145
  0.9948112574507846  0.9068762124711327  0.4998244552952826
  0.9912454741009569  0.9950088771582557  0.5896566673265156
  0.9981731230616973  0.0978875688991536  0.6868221049158691
  0.1006165388760607  0.2061940125371180  0.9029068857362788
  0.1023134745408569  0.3001393388320679  0.9987207231936637
  0.0988612620697253  0.4154698013856830  0.0846949785549356
  0.1088579302760380  0.5131663512592084  0.1997138748487828
  0.1030939373144193  0.5916900138568124  0.2967059030023123
  0.1016605925437162  0.7001981678213980  0.4075999727262740
  0.0995659861431903  0.7956487658638522  0.5137482322665790
  0.1074531921258099  0.9031232609699771  0.5903461616628149
  0.0847154004179060  0.0059755728582402  0.7023452136808501
  0.0862664911470361  0.1254738550533361  0.7934789675574621
  0.3019388404267005  0.3174704269218083  0.0092723756735964
  0.3086356859122432  0.4174902707577246  0.1105481236115722
  0.2964713828219487  0.5134517039480926  0.1955421845375582
  0.3095701106345530  0.5925797439788880  0.2909068830968877
  0.2909706490707151  0.6946685665896837  0.3951698651710132
  0.3032004605740681  0.8005434844385775  0.5003266715055545
  0.2994894085560347  0.8840758148025927  0.5884322520620273
  0.2760703565379927  0.9986618959639273  0.6782192820851236
  0.2893169132299604  0.0890412664687119  0.8034764992851677
  0.2965575238095255  0.2020401060156161  0.8969112983613741
  0.3950489620587234  0.3109416540195724  0.1064812537116495
  0.3925457094468285  0.4122983187066964  0.1929480932585506
  0.3802464110854515  0.5018108773782046  0.3020821115143519
  0.3755946279555715  0.6142721077752142  0.4114294996150889
  0.3993532092818626  0.7041740653249775  0.5058576399428105
  0.4159247020785202  0.8010509059716284  0.5980353999780021
  0.3929377604750925  0.9082622628395498  0.7088630053887641
  0.4002873243154070  0.0081564231826690  0.8020897323215692
  0.3920925129220265  0.0904713907401273  0.9049915271087627
  0.3957288736390652  0.2128957277026302  0.0128338634114158
  0.4975542065324987  0.2889393951391170  0.2005898462553617
  0.4989314276916303  0.4143363585175379  0.2991445516331268
  0.4863490306829448  0.4948386921807995  0.4100843730342021
  0.4979476586385161  0.5849911487957797  0.4949130249642550
  0.4899428100736856  0.6915210509182899  0.5937544757505790
  0.5047097565160001  0.7886101563840313  0.6859771894864153
  0.5004045028043578  0.9009489712966001  0.8062128067744396
  0.4950634408885932  0.0084438258000645  0.9020362775761583
  0.5029786882217095  0.1064419381942159  0.0018975431650716
  0.5083500899593076  0.2099682749367631  0.1018934692620732
  0.5891949666776668  0.3160586451116245  0.3039970597162664
  0.5978255484438577  0.4212905228197528  0.4054018132629480
  0.6023170570768741  0.5138580494886185  0.5067551435169904
  0.5950105659298330  0.5837240686242140  0.6072851138238207
  0.6058416909710758  0.6781090421203118  0.7011665056637000
  0.6051681341691406  0.8002981088749621  0.8068410412405171
  0.6080082296271883  0.8960840497085698  0.8965915675794562
  0.6017866719454545  0.9970044425382127  0.9972901621027148
  0.6023089717364982  0.0954107929176260  0.0878093315737374
  0.5792769954910355  0.1947599670075917  0.2231141731001856
  0.6780594659628321  0.3079046580886384  0.3971055853953587
  0.7076062725173244  0.4206825892444712  0.5169182522819753
  0.7048222012537124  0.5152996665566931  0.6038757074672816
  0.7135267410095665  0.5931040708237134  0.7038987700428905
  0.6998976210271621  0.6950639806444485  0.8019671303200298
  0.6923521183327850  0.7917663684152672  0.9063031347190176
  0.6987820002199499  0.8893780283734714  0.9911709266468733
  0.6961368885956247  0.9986025179808635  0.0932098035851752
  0.6860532660288143  0.1034901669416044  0.2062457090069287
  0.6791561055757143  0.2068574987352889  0.2965490667546433
  0.7883407812603096  0.3067244249422600  0.4993690729132325
  0.8084401522049944  0.4069405261189942  0.6138818330583931
  0.8076241702408424  0.5103479313757830  0.7078916595183102
  0.8067018906851402  0.5998293469701963  0.8082586666666671
  0.8067717769712957  0.7087407900582861  0.8934661577037275
  0.8047974265918825  0.7835261211921249  0.9934912671285616
  0.7957513498295370  0.8808417428791344  0.1012244843286041
  0.7902437307819170  0.9929883374023944  0.1927602419443559
  0.7879125467942387  0.1100755565819895  0.2934329255471226
  0.7886337956669962  0.1813425980424483  0.3894469222478847
  0.9053385113823822  0.3032123237655355  0.5938173135378833
  0.8973585320576234  0.3925282788958526  0.7083934877378226
  0.9055453720444291  0.4910012735070950  0.8055697376003508
  0.9059953463103483  0.5961216672165435  0.8924837950071449
  0.8864980952380961  0.6987193990982092  0.9838241363686322
  0.8973696606180610  0.7867975251292236  0.0992411094248311
  0.9018057147256116  0.9038275636203679  0.2089854001979532
  0.9118333839216959  0.0046068646211381  0.2883284874078953
  0.8838497573958009  0.0957505668096346  0.4063696566589670
  0.8854122569009135  0.2058651952050994  0.5041893896403806
  0.0053405098427390  0.3068057164852078  0.6979739711866273
  0.0163710713735838  0.3933656329044339  0.8014155750577387
  0.9980283541185528  0.5028198152424963  0.8959896408226129
  0.9982140098977226  0.6063140459694267  0.9827698946442354
  0.0219786064005305  0.7005175576817351  0.0962892607500265
  0.0018745958429562  0.8100307533267355  0.1995151259210388
  0.0151624273617088  0.9122572299571132  0.3072569981304270
  0.9983390647751023  0.0102725520730260  0.4070478922247887
  0.9896327302320458  0.0962608349279677  0.4957851604530958
  0.0073830880897390  0.2043254916969062  0.5924507924777274
  0.1031663292642691  0.2920314131749677  0.8085883901902591
  0.0947954232926449  0.4030160593863386  0.9161390089079546
  0.0981045014846558  0.5116773680853370  0.9823518706697456
  0.0969588747388102  0.5926992112614116  0.0856714175739555
  0.1026506112394117  0.7037990968877139  0.1978915156713938
  0.1052027590454188  0.8088698911250418  0.3047029552402947
  0.1029920197954439  0.8931802573408092  0.3981326673265144
  0.0828032306169604  0.9975831109644773  0.4816996304849894
  0.0952055594413252  0.0955201939953838  0.5910799912020224
  0.1020334076762310  0.2111503873309104  0.6990557430990876
  0.2038312310568600  0.2988696210271655  0.9151381233916211
  0.1960405168811192  0.4193222118112843  0.0011524016276283
  0.2121273683052891  0.5149876551193202  0.1045449646981211
  0.1888937477180264  0.6043190656548987  0.2062861027163763
  0.2055052972616309  0.6921409778950860  0.3014665536126699
  0.2081338312988024  0.7952377763114455  0.4024027718024854
  0.1952541577037294  0.8970835134718982  0.4949740406906429
  0.1974887333113386  0.0024353687451892  0.5889390392609712
  0.1911535809963709  0.0993195627405683  0.6833999529308272
  0.1873839612889014  0.2088496746948181  0.8095124170240879
  0.3948501541845388  0.4003460622456814  0.9945770364016298
  0.4062739315957344  0.5012533236555612  0.0924294314307730
  0.4032453113383951  0.5873767838996997  0.1938249317057057
  0.3956359520510304  0.6898459945012618  0.2913464634334133
  0.4036162854943370  0.8040880699439157  0.4013221731001835
  0.4130780098977240  0.9011265333773224  0.4966918711096469
  0.4021948294292343  0.9990786020015392  0.5971800901792577
  0.3990851344990674  0.0858999991202012  0.7025829877928089
  0.3932726382931904  0.2007219280765398  0.7934912728472483
  0.3918961068954161  0.3076764592543739  0.9019882872539284
  0.5036002973716052  0.3922752473331101  0.0853632908830946
  0.4944729778950858  0.4988602736170691  0.2011399744858693
  0.4803843593973411  0.5912646545694500  0.3105512913229944
  0.4924023961288881  0.6905121878367950  0.4098739527108748
  0.5062940195754990  0.7872150555372244  0.4964614534257095
  0.4908245899043209  0.8994992095018119  0.5916082357857704
  0.4879296698559301  0.9931590599362181  0.6981128639612919
  0.4880028003959112  0.0856895176509411  0.7947706851424172
  0.4825568028153526  0.2090313216760151  0.8947045366765636
  0.4806488102936299  0.2910556797536543  0.0112043563180464
  0.6030429539205997  0.4056994844385784  0.2004273106785419
  0.6037339623886524  0.4974971723303625  0.2954434686022225
  0.5909583363026485  0.5982521975145687  0.3877022940723620
  0.6028291736500577  0.6799552095018129  0.4988176834927955
  0.5940461515451432  0.8018179958209615  0.5864992064225234
  0.5994789015726383  0.9036693584075692  0.6959428778181049
  0.6029573302540427  0.0073441249312651  0.8112826459914189
  0.5860803246453301  0.1097044482568990  0.9076315539425934
  0.6024774529858163  0.2067418308589026  0.0020828461453846
  0.5945763356427989  0.2893050847904988  0.1006844878477935
  0.6935889770152883  0.4040918218409786  0.2985304717914872
  0.6988043044099825  0.5078376390630126  0.4039635134719006
  0.7054194589244460  0.5986175378862839  0.4941235878148049
  0.7098537565160044  0.6901001618827678  0.5945092471131659
  0.6999781722203906  0.8060588720994204  0.6917345267788377
  0.6970198231606730  0.9091988166721663  0.7880867190146290
  0.6968482133509326  0.0240119524909304  0.9069509882327083
  0.7014090627955554  0.1065654331903687  0.0119622434839997
  0.7034587630045124  0.2195378167821431  0.1055766756845955
  0.6843226684262618  0.2988347665236972  0.2083260138568122
  0.8072851322995689  0.4151058299791046  0.3722372303970118
  0.8069841324095464  0.5005810544374825  0.4867391668316259
  0.8005318117233031  0.6071105509732746  0.5923789279665641
  0.7910376060706028  0.7131276590784097  0.6998747462883514
  0.7902889374243927  0.8027398222808770  0.7949816012317186
  0.7920565204003083  0.9124363294842155  0.8921455409655792
  0.8045912957219841  0.9963411283404824  0.0137928058946457
  0.7997829064115223  0.1121307854393478  0.1072111004069072
  0.7992903525789075  0.1988210372814265  0.2011460626855808
  0.7958176434620015  0.2806268945342580  0.3045638007258304
  0.8886540398108451  0.4197223380622432  0.4937702984713539
  0.9094438231606716  0.5087198653909581  0.5947803664357210
  0.8961479995600996  0.5918482626195996  0.7083656302650354
  0.8954140107775217  0.6972996678763863  0.8042288850764336
  0.8917077857692703  0.8235482054327505  0.8830129818541721
  0.8883915653799619  0.8980319085010464  0.0016377327614663
  0.8962136852523912  0.9986290086879990  0.1049579008028161
  0.9062533830419000  0.1004295273287141  0.2000243725943065
  0.9018593656658993  0.1887023987682852  0.3089498818871661
  0.9022840140767627  0.3050247227537639  0.4030229776751355
  0.9873716194875186  0.3897002362256714  0.5990330447597074
  0.9955695268888149  0.4911255242494192  0.7112670194655237
  0.0041322111514361  0.6067064726712843  0.8036380186957004
  0.0037680655449250  0.7083388091938829  0.8890255607610271
  0.0021643096887729  0.7984473454305530  0.9837303824920269
  0.0116728041350456  0.8994844504563986  0.0939941836577560
  0.0248304845485521  0.0017134872979199  0.2124675394259299
  0.0036540811613364  0.0941036216870117  0.3136202318266825
  0.0035678262399657  0.1993582109314858  0.3919345412955053
  0.9992755895743954  0.2980121240514677  0.4916341071153667
  0.0911539091608944  0.3955288815572402  0.7078045041240486
  0.0975269125701104  0.5050444706917432  0.8068974872979240
  0.0994921152534900  0.5996647372704302  0.9016635495436063
  0.1093495845155630  0.7031956995491058  0.9885907247333137
  0.1042822817551965  0.7830681851974077  0.0812493905201777
  0.1128189301660640  0.9062503719344548  0.2027435526228984
  0.1080133716045282  0.9895877140657632  0.3001432350159448
  0.0884886105795673  0.1092847913779806  0.3958631690311236
  0.0920633155174286  0.1790455902342458  0.4850299623886514
  0.1102257925877055  0.3113012919828435  0.5877671773892033
  0.1961471021664991  0.3891998042450240  0.8049282881337305
  0.2027389187286914  0.4990780719234564  0.9039395842956139
  0.1984285934235146  0.5993384365995809  0.9961405309578808
  0.1929347590454213  0.6852468808973953  0.0983605305179793
  0.2083025540525654  0.7954355169910912  0.1872405709886706
  0.2053519876828318  0.8979447033982169  0.3042948584625549
  0.1966391285604345  0.0035293047399065  0.3972891600131945