Li 
 1.0000000000000000
    22.7325000000000017   -0.0000000000000006    0.0000000000000000
    -0.0000000000000006   22.7325000000000017    0.0000000000000000
     0.0000000000000006    0.0000000000000006   22.7325000000000017
 Li 
 500
Cartesian
  0.0597712500000000 -0.0614137300000000  0.1184203900000000
 -0.3550309100000000  2.3048435100000000  2.0550418900000000
 -0.0653245800000000  4.3307025799999996  4.4431975399999999
  0.2634675300000000  6.8315091600000004  6.9477140100000003
  0.2150766600000000  9.2512693899999991  9.2500502999999998
 -0.0981562600000000 11.6873834599999995 11.3106149100000000
  0.4016086600000000 13.4225075399999998 14.0935879100000001
  0.3061439900000000 15.8401859199999997 15.8666008800000000
  0.6014215600000000 17.8265507899999989 18.3292283299999994
  0.3340032600000000 20.2552322300000007 20.6667075000000011
  2.4843961299999999  0.3187704500000000  2.2665494900000001
  2.1327650800000000  1.8049052900000000  4.4797731900000004
  2.3621164200000000  4.2385389900000003  6.9261314699999996
  2.2596826100000000  6.9059578799999999  9.0410801700000007
  2.2438853600000002  9.2007283999999991 11.4935885899999999
  1.9914886400000000 11.2635394000000009 13.9493819200000004
  2.5076657999999998 13.6412062899999995 16.1226458699999995
  2.1979160400000000 15.9556219000000006 18.3047855599999991
  2.8464678600000002 17.8052739600000010 21.0428808799999985
  2.6049083300000002 20.7183276499999991 22.8619625400000004
  4.3986579900000002  0.3111561400000000  4.7924696500000001
  4.4420942600000002  2.1255913099999999  6.7893205300000004
  4.4323217000000001  4.7013307900000001  9.0198998100000001
  4.3847237899999998  7.0050249700000000 11.2682309200000006
  4.5311809800000002  9.0422776799999998 13.5622338700000000
  4.5452786300000003 11.3268249799999996 16.3251100899999990
  4.7361220399999997 14.1462692200000006 18.4737669699999998
  5.0109229300000004 16.0298444199999999 20.6629896299999984
  5.0175276699999998 18.4669449000000014  0.4843863200000000
  4.6121027699999999 20.5873632999999998  2.5606248300000001
  6.9351760799999997  0.0933411500000000  6.8134299599999997
  6.6819130600000003  2.1273739500000000  9.1618071400000005
  6.8060360400000004  4.8505523500000001 11.1002129299999996
  6.4690671000000002  6.5100365399999998 13.5157057500000004
  6.7832828599999999  8.8214479000000008 16.0496559099999985
  7.1133753799999999 11.3117643500000007 18.1887097599999983
  6.9201739000000000 13.3032601300000000 20.3566899300000017
  7.0372541799999997 15.6257370099999999  0.0522774200000000
  7.0087835900000002 17.8581080099999987  2.6635875499999999
  6.9699783100000001 20.5999659100000017  4.7434160800000003
  8.8435327400000006  0.2603139600000000  9.1716002499999991
  8.9765349800000003  2.2753592199999999 11.1780605600000005
  9.0864840200000003  4.3763623999999997 13.3512245800000002
  8.8440779299999992  6.9764338300000004 15.9144611000000005
  9.1717773200000003  9.2564127099999993 18.4290866099999988
  9.3290874000000006 11.1462997999999995 20.1211728299999990
  8.9955508700000006 13.3172038799999992  0.0330716100000000
  9.3431202599999992 15.6022262699999992  2.4537350899999999
  8.8231456599999998 18.1301626700000007  4.7933052500000004
  9.0079923500000003 20.5745392500000008  6.8893222099999996
 11.2635033399999998 -0.0231807600000000 11.1594832700000008
 11.4006861300000004  1.9523070000000000 13.6597718100000005
 11.2288060800000000  4.4628061499999996 15.8349875900000008
 11.4352154000000006  7.0342279300000001 18.2580902199999997
 11.6025200500000008  9.0862850700000006 20.6161040699999987
 11.3489608499999992 11.0687971100000002 -0.3138405800000000
 11.0593172600000003 13.4234304099999999  2.1146570900000001
 11.2220683999999995 15.8587664700000008  4.5620402200000001
 11.5836898700000006 18.1917961900000016  6.8684219400000002
 11.5829991600000000 20.2543696299999993  9.2015691000000004
 13.6515419999999992  0.0869779700000000 13.5551390299999994
 13.3171532399999997  2.2907473299999999 15.6592926699999992
 13.5502559399999996  4.2447941000000000 18.2686891600000010
 13.8996643100000004  6.6411641899999996 20.4672625000000004
 13.6977179200000005  8.6597455300000004  0.0030824000000000
 13.6354024200000001 11.1408075699999998  2.2053884799999999
 13.3835006500000002 13.4587976699999992  4.5055036099999999
 13.9903308499999994 15.8458367100000004  7.1141517600000004
 13.8403092099999991 17.9190136899999999  9.2225979400000000
 13.6795884000000001 20.4322687899999984 11.3746534799999992
 16.1522423500000016 -0.1264554600000000 15.6634368899999998
 15.9075428799999994  2.7448831500000002 18.2191037099999988
 15.9227829199999995  4.6144030699999998 20.7449324100000005
 15.9642821500000007  6.8545263299999997 -0.0750163900000000
 15.8281981999999992  8.7217612700000000  2.7845758799999998
 16.0593202400000017 11.3797836900000000  4.4188170500000004
 16.4114515800000014 13.6000639999999997  6.9635869599999998
 15.9451269799999995 15.5868844099999997  9.0615465999999998
 15.9860120899999991 18.0220083299999985 11.5941830100000001
 15.9672326200000008 20.6275741199999985 13.3850543799999997
 18.2120886199999994  0.2618200200000000 18.0974751100000013
 17.9115482600000000  2.2615726899999999 20.5746469099999985
 18.0268474500000018  4.5970234400000001  0.2093420200000000
 18.5924793199999989  6.9159002699999998  2.3886685100000000
 18.4444809200000002  9.0159492599999993  4.8330094900000002
 18.0232378699999991 11.3241540599999997  6.7060372099999999
 18.4051721700000002 13.7300801200000002  8.9903462800000007
 18.3167770999999995 15.9207527100000004 11.1340132900000004
 18.3637645899999988 18.2836202199999995 13.7296614199999993
 18.3876850300000001 20.5234631599999986 15.9099034499999998
 20.5727052300000004  0.0509124000000000 20.6913593200000001
 20.2669812200000017  2.2439614400000001 22.6497032500000017
 20.2929563399999999  4.2874743000000004  2.1769278600000002
 20.6389969999999998  6.6407363400000001  4.6258485499999997
 20.3193619000000005  8.8394134399999995  6.7308149400000001
 20.4820683700000004 11.6854736999999993  8.7795731900000007
 20.5550484900000008 13.6878735000000002 11.3605080500000000
 20.3471253800000014 15.8688240700000005 13.5759811900000003
 20.5270342300000017 18.7051895500000001 16.1913863099999986
 20.7496710299999982 20.6055703500000007 18.4884779500000000
  2.4308205799999998  2.6634066399999998  0.0541539400000000
  2.2607157899999999  4.2685664599999997  2.4483673300000000
  2.0955655700000002  6.7840816700000000  4.3135112099999997
  2.3566065500000000  8.8319149499999998  6.6965006000000002
  2.5151696499999998 11.5786340699999997  9.3474517899999991
  2.5229099300000000 13.4521252100000002 11.6537372399999999
  2.1584670099999999 15.9396547999999996 13.8298698600000005
  2.5960977800000000 17.9301150800000002 15.7398789299999997
  2.4637858300000000 20.4515740400000006 18.4502649599999984
  2.1039147699999998 23.1458815400000013 20.6759543599999986
  4.9046377899999998  2.5369086300000001  2.5934783800000001
  4.3204247499999999  4.5764893000000004  4.5807316100000000
  4.2011738500000000  6.7266338799999996  6.4695223600000000
  4.2754617399999999  9.1850099499999995  8.9688340400000008
  4.4109002300000002 10.9571626799999997 11.3840439300000007
  3.9373333000000001 13.2261611600000002 13.7575484400000008
  4.5727315900000001 15.8741715299999999 15.5163400500000002
  4.7736018299999996 18.2714221999999999 18.0181034699999998
  4.4284497500000004 20.5455475800000009 20.2577895199999993
  4.6287313100000000 22.6760267800000008 22.8333318100000007
  6.9248620000000001  2.6803059299999998  4.9416686099999998
  6.7587892900000002  4.5127203199999997  6.8841863600000002
  6.6707048799999997  7.0126930900000000  9.1900235400000003
  6.7203781600000001  9.1542493199999999 11.2223948199999999
  6.6914297899999999 11.6652017800000003 13.7700551900000008
  6.3813492700000003 13.3868354000000007 16.2887919200000013
  7.0641328799999998 16.1940226000000003 18.0515055099999984
  7.0250898099999999 18.6790328300000006 20.9614729000000004
  6.6208611900000003 20.6975971600000008  0.2954728500000000
  6.7824149800000004 22.9638253200000015  2.3588598099999998
  9.3979226699999998  2.4721589399999999  6.9101114199999998
  9.1399711499999992  4.4396400900000001  9.1489744099999992
  9.2427062600000003  6.8757624100000001 11.4528700600000004
  9.0657090799999995  9.2349879500000007 13.9460165099999998
  9.0452908000000001 11.2909050099999995 15.8658283000000004
  9.0803513799999998 13.8152161200000005 17.9832864400000005
  9.0381945300000002 15.9430103200000008 20.4019863199999989
  9.1613052800000006 18.0218038100000015 -0.0777732400000000
  9.1211602000000003 20.4952129800000016  2.4445102099999998
  9.1339263400000004 22.9252642900000012  4.5079148299999998
 11.7296951200000006  2.2880848299999998  9.3762124799999995
 11.5552556299999996  4.5887347399999996 11.4691113900000001
 11.5563375799999992  6.6154025900000004 13.6718263100000001
 11.5424115399999998  9.1634775899999994 15.9240001400000004
 11.6837087999999998 11.5349678200000003 18.2228491400000010
 11.2885123400000005 13.7013939199999992 20.4133805300000013
 11.2926100100000006 15.5836164600000000 -0.1108203000000000
 11.0386483999999996 18.1568970800000002  2.2657649700000002
 11.6459923399999994 20.4229097400000015  4.7294567100000000
 11.2192156799999996 22.9528460099999982  6.8829382700000004
 13.6658293499999992  1.9275789400000001 11.2533221799999996
 13.3889638699999995  4.6131558799999999 13.7427347500000003
 13.6128432000000004  6.8710101000000003 16.0854640700000004
 13.9343979800000000  9.0385818499999999 18.1282954300000014
 13.8872575000000005 11.0435985700000003 20.9199006499999989
 13.6725729699999992 13.4840454500000000 -0.1185409400000000
 13.7018947600000001 16.0682279299999990  2.1766721400000000
 13.2925201499999996 17.8339851100000004  4.3521815699999999
 13.9193856500000006 20.5710816899999998  6.3947862100000004
 13.6263726500000004 22.4609952399999990  8.5929229800000009
 15.6881407399999997  2.1115786200000000 13.4253200800000005
 15.8306679599999995  4.4651976099999997 15.7652787300000004
 15.9138747699999996  6.7942142099999998 18.2773585800000014
 16.4000273999999990  8.8819776400000006 20.6457735299999996
 15.8406488000000003 11.2138923399999992  0.2023498300000000
 16.0861495599999991 13.6354526299999996  2.2428397400000000
 15.7095570500000008 15.6069369200000008  4.5295462500000001
 15.8501761900000009 18.1084753300000010  6.6176126100000001
 15.6990763100000006 20.0767551699999984  9.0018738500000008
 15.9649104299999998 22.6453336199999988 10.9274698400000005
 18.0312563700000013  2.3953290100000002 15.9296483400000000
 18.1257579000000000  4.5256829900000000 18.2283568400000000
 18.2833473499999997  6.6780056200000004 20.7113716100000005
 18.3469610699999990  8.9976654499999995  0.3030097900000000
 18.1241827800000017 11.5173108499999994  2.4446582499999998
 18.2413365499999998 13.3194766799999993  4.7574718999999996
 18.6555456900000003 15.6412938799999992  6.6989299000000004
 18.0808308999999987 18.0801260399999997  8.8654167499999996
 18.0244740199999995 20.7267113199999997 11.0377444800000006
 18.4632989099999989 22.8061614400000003 13.6549856199999997
 20.6796582999999998  2.1965637700000000 18.2469014399999985
 20.4033013499999996  4.2744779399999997 20.3503444800000004
 20.8959224399999997  6.9614053699999996 -0.0352027700000000
 20.5301465699999994  8.9601010700000003  2.4566181199999999
 20.4382056600000013 11.4534895799999994  4.7535719500000004
 20.3331115800000006 13.5922835699999993  6.5602035599999997
 20.7913650499999996 15.9202629099999999  8.8434315600000009
 20.4575355399999985 18.3622128999999994 11.1827573999999998
 20.5398739900000002 20.6532225199999999 13.5404872699999999
 20.7873826999999984 22.7724229399999984 15.7233531699999993
 22.6887408199999996  2.1747219400000000 20.6966150999999989
 22.8689306899999991  4.7673166699999996 22.9318622800000007
 23.0288854000000001  6.7924371299999997  2.2488733800000000
 22.7367439599999983  9.1914320800000002  4.6973442800000003
 22.8997200999999997 11.1054086200000004  6.9773710099999997
 22.9879874300000004 13.7115907799999999  9.0267429999999997
 22.6280579400000015 15.6281292900000004 11.7734911899999997
 22.5033788199999982 18.1909198500000002 13.6043010700000000
 23.0815721799999984 20.5444982200000013 15.9875428599999996
 22.7565067899999995 22.5831251000000002 18.3717192300000001
  4.9262638399999998  4.7963479099999997  0.3044149500000000
  4.7251554999999996  6.9197107300000003  2.4595153100000000
  4.5912078799999998  9.0167674000000009  4.1693357200000003
  4.6585503900000003 11.3327052300000002  7.0032067700000002
  4.5229878000000001 13.5169335099999994  9.3555821300000002
  4.4526888199999997 15.8024024099999991 11.5419507400000008
  4.8342475399999998 18.2742179200000017 13.8113280899999999
  4.2993890099999996 20.6409866000000015 16.0653831700000005
  4.1108203200000002  0.0341246700000000 18.1025485800000006
  4.2562442300000001  2.5522426199999999 20.5789740600000002
  6.9887429699999997  4.7101988099999996  2.5614868799999999
  6.6247587299999999  6.7441231500000001  4.4793456699999998
  6.8900310899999999  8.9949171499999991  6.7390201599999999
  6.3307976799999999 11.5256447800000004  9.1961863899999994
  6.4454729000000004 13.7487799600000002 11.3249507499999993
  6.8347983000000001 15.6882746100000006 13.6329250300000009
  7.1835922500000002 18.1877207799999994 15.8531264600000004
  6.6893572600000004 20.5396735700000015 18.0737968199999983
  6.7984719599999996  0.0852195400000000 20.6156577799999994
  6.6954107900000004  2.3782269399999998 22.7488802800000016
  9.4186344500000008  4.6972999499999997  4.8838756600000002
  8.8685968299999995  6.5179059400000003  6.8066971299999999
  9.1084677599999999  8.9389964499999994  9.0384272699999997
  8.7645266599999996 11.5810429700000004 11.4544060499999993
  8.8941445100000003 13.3281366400000003 13.5365824999999997
  8.9830777200000007 15.6530601800000007 15.7307704800000003
  9.2934870400000005 18.1411773700000012 17.9803870400000001
  9.0858971400000001 20.6725309300000006 20.2444805099999989
  9.1043873499999997 -0.1010358800000000  0.1673473200000000
  8.9710804900000003  2.3316744300000001  2.5431142200000001
 11.3894250800000005  4.6342860899999998  7.1106760700000002
 11.7809728699999994  6.9653424900000003  9.1049864500000002
 11.4133244499999993  9.4957612800000000 11.3973756999999996
 11.2376130199999995 11.3586058399999992 13.6028422899999999
 10.9518184200000004 13.5888654199999994 16.1438804800000000
 11.4323282400000004 15.5747238600000006 18.3605356700000009
 11.4942888100000005 18.2163358600000009 20.4521367000000005
 11.5481209099999997 20.4125559199999991  0.0041214400000000
 11.5106541500000006 -0.1092475800000000  2.2541527000000001
 11.5761267799999992  2.3238641499999999  4.4804329899999997
 13.3448961799999992  4.6112083200000002  9.1279090800000002
 13.7716848600000006  7.0104783399999997 11.4349939299999992
 13.5804890799999995  9.0878872600000005 13.7815629899999994
 13.9340381600000001 11.6106722599999994 15.7730866499999998
 13.8872933900000000 13.4189401600000000 18.2813279000000009
 14.0068885900000009 15.8105684600000007 20.4878657500000010
 13.5726026900000001 18.4985755300000001  0.0934787100000000
 13.5012281499999993 20.4271354599999988  2.1365865400000001
 13.6671038899999999  0.0020321800000000  4.2206356400000002
 13.6171887300000005  2.0221222100000000  6.9881604700000004
 15.3824760099999995  4.8796273200000000 11.1660329399999991
 15.8480991499999995  6.9990264099999999 13.6534992000000006
 16.2342411300000009  9.1558409899999997 15.6556419400000006
 16.0973491399999986 11.0588163799999997 18.2898467400000015
 15.7182170499999998 13.6322581500000002 20.5749519999999997
 15.5809686099999993 16.1676420800000002  0.1792809000000000
 15.9736967399999994 18.0912716200000006  1.9050374400000001
 15.9500736900000000 20.3512978300000000  4.0864821999999998
 15.6944793100000002  0.0968175500000000  6.4406581599999999
 15.5178584799999992  2.2435573899999999  8.9834005200000000
 17.8963477600000012  4.9904394500000002 13.4653473500000000
 18.0693783799999999  6.9608097700000000 15.6162034799999994
 18.5586047900000004  8.9713469499999992 18.1539842799999995
 17.9026413799999986 11.0409501799999994 20.4142463099999993
 17.8103165399999988 13.7208147599999997 -0.2229580100000000
 18.1565157900000003 15.8268708000000000  2.1762065000000002
 18.2592850899999988 17.7534896599999996  4.8651246199999996
 18.2772743300000009 20.7552725600000016  6.4737725299999997
 18.0905387900000001 -0.0003187000000000  8.3752002599999997
 17.7851086500000015  2.1768949599999998 11.0872078900000002
 20.2302519700000012  4.5127978799999999 16.0030622499999993
 20.5911275099999997  6.6664942199999997 18.3175008900000016
 20.7184168299999989  8.8123760999999998 20.3260439999999996
 20.2086452700000017 11.1448799199999993  0.0265119400000000
 20.4979916200000005 13.8587471799999999  1.8907015599999999
 20.5236280899999990 15.6123747200000000  4.1785942100000000
 20.9083134800000003 18.3966515900000012  6.7732463699999998
 20.4238303200000004 20.3330115700000000  9.0952830999999996
 20.0029959499999990  0.0637122700000000 11.2520772400000002
 20.4663746800000013  2.5296272700000002 13.4970577200000008
 -0.0963141500000000  4.3818205900000002 18.3136338999999992
 -0.1220786800000000  6.7988131400000000 20.1486193699999987
 -0.0415193200000000  8.8201804399999997 -0.1883339600000000
  0.0301565300000000 11.7751447200000001  2.4555155100000001
 -0.1423131300000000 13.6685054699999995  4.5246556000000000
  0.2739764100000000 16.0227608400000001  6.5926990400000003
  0.1534961500000000 18.3066262600000016  9.3555054500000008
 -0.1179530900000000 20.6155635000000004 11.3622594299999999
 -0.1990122600000000 -0.1134607000000000 13.4043701899999999
 -0.0415294800000000  2.2252291600000000 15.6131834999999999
  2.2872654699999999  4.6873053899999997 20.5253307800000009
  2.3258410600000001  6.8229175199999998 22.7034188400000012
  2.2473636400000001  9.4446672599999992  1.9253286000000001
  2.4746128999999999 11.6655540799999997  4.5399956599999998
  2.3435829300000002 13.4505932399999999  6.7448669399999996
  2.3109994199999999 15.9172548500000008  9.2657663800000005
  2.2633837799999998 18.0870855699999993 11.6787816899999992
  2.4426796899999998 20.5302495299999990 13.4200441200000000
  1.9257928400000000  0.1358397100000000 15.9660625700000001
  1.9610530100000001  2.8523344100000001 18.0377606300000011
  6.8638246900000004  7.2168964799999999  0.2107842800000000
  7.0160607300000004  9.4905975799999993  2.5130352199999999
  6.7395357100000002 11.6720408599999992  4.4451627100000000
  7.0373025399999998 13.4708190299999995  6.6130407199999999
  6.6144902800000001 15.7915531900000001  8.9831989599999993
  6.8925044700000004 18.1983547600000009 11.3736760599999993
  6.8081429800000004 20.0972534600000010 13.3765361699999996
  6.2757693799999998 -0.0304184500000000 15.4176198299999996
  6.5768967299999996  2.0241305900000000 18.2650295199999988
  6.7414939100000000  4.5928767099999996 20.3890360900000012
  8.9804505300000006  7.0684811500000002  2.4205850999999998
  8.9235453400000004  9.3725715300000001  4.3861925299999998
  8.6439515399999998 11.4074157700000001  6.8670815999999997
  8.5382048800000003 13.9639406899999994  9.3528210999999999
  9.0782968299999993 16.0076369400000011 11.4994087999999994
  9.4550082900000003 18.2098897199999996 13.5948397300000003
  8.9324576400000009 20.6470718899999994 16.1142282700000017
  9.0995316000000006  0.1854158900000000 18.2335048399999984
  8.9132430500000002  2.0566408900000002 20.5727198899999983
  8.9959066199999995  4.8396521300000002 23.0242457999999992
 11.3106510000000000  6.5683147999999996  4.5599086800000004
 11.3419586799999994  9.4189012699999992  6.8003035199999999
 11.0559293400000005 11.2489205699999992  9.3222430099999993
 11.3195951499999996 13.2983112899999991 11.2506103399999997
 11.1376249299999994 15.7200022900000000 13.4975236200000008
 11.4733145400000005 17.9270803799999996 15.5939764600000004
 11.3754453600000005 20.4808224900000013 18.3272326300000010
 11.2540296699999995  0.1919492700000000 20.5055396799999983
 11.4339630299999993  2.4196913599999998  0.0431359000000000
 11.5560684200000008  4.7731038100000003  2.3162932899999999
 13.3938745800000003  7.1848031499999996  6.9106131599999996
 13.5900692799999998  9.5769868099999993  9.2157967200000002
 13.6921724999999999 11.6812781099999992 11.5198113000000006
 13.5260776899999993 13.2695073899999993 13.8051088499999999
 13.7722962399999993 15.4151138000000003 15.9392675900000000
 13.7569846099999999 18.1927767600000010 18.3415139700000012
 13.8215470800000002 20.3702306600000007 20.3817678099999995
 13.6801155199999993 -0.0680965100000000 -0.0616013900000000
 13.6919886999999996  2.1689258499999999  1.9961256300000001
 13.1684143000000002  4.4273809499999999  5.0719429399999996
 15.4139868100000008  6.9994426399999998  9.0272027200000000
 16.0856595899999988  9.5631669600000002 11.7508441700000006
 16.0223706899999989 11.7140496699999996 13.7276045199999999
 16.2202466399999992 13.4827382900000003 16.0013787900000004
 15.9104226700000009 15.8005419400000005 18.2307177899999999
 15.7388945299999996 17.9988289700000017 20.6025360100000015
 15.8850618200000007 20.2177860299999992 -0.2007069100000000
 15.8249318199999998 -0.0317682600000000  2.1188918600000002
 15.5957058699999997  2.3525902200000002  4.6884805800000002
 15.4389161700000006  4.7023880900000004  6.7413016600000004
 17.9209568099999998  6.9726129900000000 11.3519074500000006
 18.3778657599999988  9.2507755100000004 13.9550687700000005
 18.3593164500000015 11.6014843499999998 16.0921471499999988
 18.3383507299999984 13.6356206300000000 18.3737401399999989
 18.3399394200000003 16.1114500099999987 20.3107194299999989
 18.2950574999999986 17.8115075500000017 -0.1479597700000000
 18.0894175600000011 20.0237349199999990  2.3010855900000000
 17.9642156100000001 -0.1593926200000000  4.3819222000000000
 17.9112219699999997  2.5022925900000001  6.6704639800000001
 17.9276177600000004  4.1223706099999999  8.8531021600000006
 20.5806077099999989  6.8927741500000002 13.4989520800000005
 20.3992028300000001  8.9231490999999998 16.1035549600000003
 20.5853101699999996 11.1616864499999995 18.3126140600000014
 20.5955392099999983 13.5513358000000004 20.2883878700000011
 20.1523179500000005 15.8836387400000003 -0.3677178200000000
 20.3994558099999992 17.8858747399999984  2.2559985199999999
 20.5002984099999992 20.5462600900000005  4.7507606100000004
 20.7282523999999988  0.1047255500000000  6.5544273400000002
 20.0921146099999994  2.1766497600000001  9.2377982200000002
 20.1276341300000006  4.6798305500000001 11.4614852999999997
  0.1214031400000000  6.9744609500000001 15.8666932999999997
  0.3721553800000000  8.9421842500000004 18.2181795599999994
 -0.0448204400000000 11.4303514499999999 20.3680845099999992
 -0.0406000200000000 13.7830340499999995 -0.3916833700000000
  0.4996286700000000 15.9245153800000008  2.1888956199999998
  0.0426142500000000 18.4140240999999989  4.5354776000000001
  0.3446798800000000 20.7378874800000013  6.9847197100000002
 -0.0377572100000000  0.2335207900000000  9.2532162099999997
 -0.2356739600000000  2.1882494299999999 11.2704361599999991
  0.1678360500000000  4.6448292400000000 13.4678876400000007
  2.3452285800000001  6.6386041000000002 18.3812355799999985
  2.1549369600000001  9.1615625699999992 20.8261300200000008
  2.2301605800000002 11.6317057699999999 -0.4011861000000000
  2.2041176199999999 13.4735348199999994  1.9475255000000000
  2.3335050200000000 15.9991129700000005  4.4985688799999997
  2.3915217200000001 18.3876348000000007  6.9266599299999996
  2.3412660900000000 20.3042201999999996  9.0505508599999995
  1.8823244400000001 -0.0549419300000000 10.9502368499999996
  2.1642603800000000  2.1714128100000001 13.4367259000000008
  2.3194744400000000  4.7999761799999998 15.8912846800000001
  4.6335934600000002  6.7940536600000003 20.8033773900000014
  4.4564910500000003  9.5322421800000008 22.7586969699999990
  4.8221854000000004 11.7069568700000008  2.3765684100000000
  4.2940271200000000 13.7376831599999996  4.6893988300000000
  4.6716491700000002 15.7340947799999995  6.8530884299999997
  4.7314023199999999 18.0777427499999988  9.1476210099999999
  4.4386151399999996 20.3929509700000011 11.2519973800000006
  4.4894126300000003  0.0553620200000000 13.3880567100000007
  4.3453987800000000  2.2577819600000000 15.5353894300000004
  4.2597059000000002  4.7476752299999996 18.4022410200000017
  8.9759311299999993  9.1008668600000000 -0.1232775200000000
  9.2356221499999993 11.3947411800000005  2.1011520500000000
  9.1667740400000000 13.3525427400000005  4.4061252599999996
  8.9937942799999995 15.6819240700000009  6.6230334800000001
  9.1752072099999999 18.2789320500000017  9.1230563000000000
  9.3902958600000002 20.4848589200000006 11.2910479600000002
  9.1428939600000003 -0.0209456800000000 13.5753964000000007
  9.0722028199999993  1.9527217299999999 15.9714677700000003
  8.9400702499999998  4.5629112300000001 18.0380403600000001
  8.9087782499999992  6.9942551100000001 20.5044487400000008
 11.4480937600000008  8.9173970600000008  1.9405210100000001
 11.2406069700000000 11.3403411700000003  4.5724144700000000
 10.9203374499999999 13.4409237600000004  7.0596072300000001
 11.1935374700000008 15.6970683100000006  9.3174596300000001
 11.5093288000000005 17.8953662499999986 11.2858099900000006
 11.1576699900000005 20.4478657800000008 13.4487342200000004
 11.0918612200000002 -0.1555116700000000 15.8698506800000008
 11.0935236600000007  1.9479369600000001 18.0671245999999996
 10.9697225199999995  4.7518045200000003 20.3388708800000018
 10.9263490799999996  6.6164232399999996 22.9872030299999999
 13.7086739499999997  9.2225635300000004  4.5562138399999998
 13.7243823000000003 11.3093544700000006  6.7161686500000002
 13.4339603800000003 13.5997680800000005  8.8134423999999996
 13.7038141899999992 15.4570817999999992 11.3393729899999993
 13.5041541400000007 18.2273275900000016 13.3325932100000006
 13.6276541299999998 20.5426636900000013 15.8205214699999992
 13.7067275100000003  0.1669503200000000 18.4424827499999999
 13.3230709800000007  2.4938563700000000 20.6327342999999992
 13.6958187000000002  4.6997586699999996  0.0473483000000000
 13.5162065499999997  6.5766278399999996  2.2888101199999999
 15.7670114199999993  9.1860173399999994  6.7863439500000000
 15.8855688500000003 11.5444191299999996  9.1831005700000006
 16.0359478499999994 13.6080731799999999 11.2326644600000005
 16.1367505199999997 15.6877019299999994 13.5146814600000003
 15.9122538000000002 18.3237333100000015 15.7248551299999999
 15.8450031300000003 20.6683620999999995 17.9151813400000002
 15.8411020100000002  0.5458517100000000 20.6172633400000009
 15.9447815199999994  2.4224987100000002  0.2719317000000000
 15.9913763299999996  4.9906434199999996  2.4000217799999999
 15.5563650599999992  6.7932613300000000  4.7357711100000000
 18.3516092700000009  9.4363932800000008  8.4618828399999995
 18.3447667900000013 11.3794588200000000 11.0647981099999999
 18.1980894100000015 13.8011406000000001 13.4662539799999994
 17.9822623800000017 16.2111745099999993 15.9099026699999992
 17.9652432699999984 18.2482830100000015 18.0719192500000005
 18.0054248500000007 20.7419588600000004 20.2806985100000006
 18.2903716299999992 -0.0831753000000000  0.3135449600000000
 18.1810649200000007  2.5490130799999999  2.4371763400000002
 18.1698679399999996  4.5196992299999996  4.5725528700000000
 18.0909245799999994  6.3793508799999996  6.9234966000000000
 20.2013279600000004  9.5413380500000002 11.2246333099999998
 20.6739317100000015 11.5644743400000003 13.5208446799999997
 20.3716843999999995 13.4541906299999994 16.1029216899999987
 20.3549989999999994 15.8513646999999995 18.2821331299999983
 20.2707472399999986 18.7213095799999998 20.0730926099999998
 20.1953612599999985 20.4145103600000013  0.0372297600000000
 20.3731776000000018 -0.0311660600000000  2.3859554799999998
 20.6014050299999987  2.2830142300000000  4.5470540499999998
 20.5015180299999997  4.2896772800000003  7.0232031900000003
 20.5111713500000015  6.9339745099999996  9.1617198399999999
 -0.2870746600000000  8.8588606199999997 13.6175186900000007
 -0.1007157300000000 11.1645109799999993 16.1688775199999988
  0.0939354900000000 13.7919548899999995 18.2687012600000003
  0.0856575500000000 16.1023119799999996 20.2097735599999986
  0.0492001700000000 18.1507042799999994 -0.3698490800000000
  0.2653520200000000 20.4475302700000015  2.1367227799999999
  0.5644589900000000  0.0389518500000000  4.8299183399999999
  0.0830664000000000  2.1392105799999999  7.1293719199999996
  0.0811056100000000  4.5319105300000002  8.9096519599999997
 -0.0164676600000000  6.7745606100000000 11.1760723399999993
  2.0721562400000000  8.9913603000000002 16.0901658900000015
  2.2170305400000001 11.4809234300000007 18.3427971300000010
  2.2617045099999999 13.6318786400000000 20.4970666399999999
  2.4857894300000001 15.9853962400000000 -0.2593613500000000
  2.3705969699999998 17.8010975199999990  1.8470017700000001
  2.5646563300000000 20.6013365800000017  4.6088678099999996
  2.4554139699999999 -0.2366972900000000  6.8230060899999998
  2.0115673400000000  2.4843165200000001  8.9989594900000007
  2.0928293199999999  4.0701538800000003 11.0259436199999996
  2.5057078300000000  7.0766566199999996 13.3614173600000008
  4.4589140000000000  8.8474845500000008 18.2980323100000000
  4.6087624700000003 11.3452922699999998 20.5488065999999989
  4.5107780000000002 13.6244610099999992 -0.0877353800000000
  4.3858894099999999 15.5773747199999999  2.2359807599999999
  4.7352378100000001 18.0822378899999983  4.2564462799999996
  4.6681640599999996 20.4125279699999993  6.9173828700000000
  4.4700989900000003  0.0802299200000000  9.0313758300000000