Li                                      
   1.00000000000000     
    20.2271999999999998    0.0000000000000000    0.0000000000000000
     0.0000000000000000   20.2271999999999998    0.0000000000000000
     0.0000000000000000    0.0000000000000000   20.2271999999999998
   Li
   432
Direct
  0.9854909611809859  0.9966294791172317  0.9895481351843074
  0.9167082364341113  0.0824130344288889  0.0711962308179110
  0.8508618271436461  0.1756715615606694  0.1530433391670627
  0.7550082675802869  0.2542390533538992  0.2481217593141878
  0.6774523943007438  0.3360472843497888  0.3367963667734557
  0.5700903061224523  0.4197484031403249  0.4084900866160410
  0.4991189062252772  0.5038484001740215  0.4944180573682928
  0.4239886622963169  0.6192321833966119  0.5836059410101271
  0.3207753173943999  0.6676541409587102  0.6893965561224462
  0.2419693585864593  0.7317371573920255  0.7725776217172893
  0.1684469298766018  0.8180170799715256  0.8484349455189033
  0.0869204976467302  0.9087931844249297  0.9367046150727703
  0.0641932284250899  0.9135428942216421  0.0832315031245088
  0.9610139267916438  0.9996210088395827  0.1533358897919612
  0.9373166745768060  0.0940962466381876  0.2420879004508762
  0.8302505265187463  0.1606506639574405  0.3117206227258364
  0.7432934207403861  0.2518984367584238  0.4143198331949094
  0.6647013541172271  0.3377881624742898  0.5139346236750484
  0.5558881298449592  0.4055980130715042  0.5708646342548676
  0.4908530355165297  0.4978609723540615  0.6508829803432974
  0.4047925506249044  0.5812568813281160  0.7703517021634241
  0.3396305479750055  0.6856158192928348  0.8483938988095261
  0.2413429392105684  0.7511502995965813  0.9442916903970868
  0.1537221029109332  0.8322605056557535  0.0239808515266589
  0.1640214483467801  0.8065636440041146  0.2038504044059479
  0.0662238208946349  0.9254374471009328  0.2420099207997168
  0.0060693447437146  0.0122255418446429  0.3407994576609710
  0.9040646609515903  0.0909724905078306  0.4136335839859200
  0.8393991605363098  0.1661217998536628  0.4921812826293319
  0.7478116837723476  0.2457472591362091  0.5751574810156654
  0.6395226506881855  0.3530977584638535  0.6703607909152041
  0.5632923681972812  0.4178399165480116  0.7627419301732346
  0.4844486256130338  0.4690630952380985  0.8306154929995273
  0.4184245822456916  0.5936948420938108  0.9254379236869141
  0.3259924997033679  0.6588831256921353  0.9996146411762368
  0.2599008048568265  0.7838021485919953  0.0530663413621255
  0.2709184093695640  0.7572780142580271  0.2652395729512733
  0.1713573514871030  0.8474117421096352  0.3306092696962537
  0.0797547450957126  0.9140015147919627  0.4425964958076278
  0.0076224128895745  0.0248737571191242  0.5245646782550253
  0.9267588296946698  0.0982971607538374  0.6034427444233472
  0.8306335518509727  0.2052552310749860  0.6782234960844775
  0.7266879859792752  0.2648080782312903  0.7387734857024171
  0.6558067987660152  0.3600119230541026  0.8259755631031496
  0.5758079012418946  0.4277715912236957  0.9290808727851640
  0.4880176608724867  0.5053248057071684  0.0120506402270237
  0.4138429441544034  0.6012906536742619  0.0837448134195569
  0.3330068229908250  0.6719403085943654  0.1589108373872818
  0.3328986270961849  0.6747562020447688  0.3143189976862857
  0.2708216179204257  0.7728667343972475  0.3981089369759516
  0.1788565614617923  0.8376319119799049  0.5030328893766836
  0.0565643356470460  0.9136268667932299  0.5878440644280971
  0.0120667116555921  0.9650766804105331  0.6852803299517447
  0.9109734540618604  0.0640173736355010  0.7374159918327763
  0.8365788922836543  0.1605836151320972  0.8043432491892091
  0.7404575784092700  0.2783571557111202  0.9194029242801776
  0.6413867752333502  0.3367179955703179  0.9914036396535337
  0.5565895719625047  0.4044278995609858  0.0895672727812027
  0.4925868899303936  0.4983200442967899  0.2026666607340601
  0.3846227683515266  0.6004488273216282  0.2538306883800061
  0.4009385194193982  0.5770232152744796  0.4250028486394584
  0.3316241036821737  0.6994379538443312  0.5099111483546892
  0.2697043209144141  0.7606020956929314  0.6087102159468429
  0.1832035892263875  0.8585157451352643  0.6585522726823285
  0.0733716198979621  0.9011950793980361  0.7860650693126061
  0.9908227752729033  0.9666299749841798  0.8275414896772659
  0.9018945563399754  0.0885034008661592  0.8871021194233535
  0.8421572313518411  0.1824768608606249  0.9841302859515935
  0.7640138467014737  0.2586418120155045  0.0688466742801737
  0.6776922549833913  0.3336845307308991  0.1502098688894193
  0.5917815792596102  0.4222078676237970  0.2608356050268910
  0.4992964725715865  0.5286288156541659  0.3086292413186200
  0.0789916503520018  0.0680705228603102  0.9335145383444043
  0.9814611013882271  0.1744377991022006  0.9694121811224505
  0.9333873818422731  0.2585256135302956  0.0978466836734668
  0.8347789001937969  0.3418173869838625  0.1749654040104431
  0.7746425323326989  0.4236645853108669  0.2558834376483148
  0.6511930099074519  0.4938124505616202  0.3531977905987986
  0.6009948198465409  0.5970990675921541  0.4367562584045217
  0.4864192260915985  0.6893321433515283  0.5081996000435041
  0.4033655088198103  0.7379528778080982  0.5879497285832969
  0.3489348080802088  0.8303161292714734  0.6953603415203276
  0.2361377338435346  0.9061335894241438  0.7547375726744221
  0.1810965709539616  0.9763019923667144  0.8421950551732351
  0.1757365631426993  0.9981210548172754  0.0085893939843373
  0.0537391828824525  0.0801042675209587  0.0915565614617933
  0.0175884635540271  0.1797974840808436  0.1661147128618907
  0.9107584341876276  0.2305924121974385  0.2731030666627134
  0.8420722922599282  0.3171339765266552  0.3307958288838790
  0.7669487581078940  0.4184467286623956  0.4288384769023921
  0.6808937742248062  0.4635761474647992  0.5124714567513067
  0.6075292235208067  0.5739154653140304  0.5788470406185695
  0.5040927582660970  0.6490109787810496  0.6563064215511787
  0.4217210483902889  0.7417602248457555  0.7434348510915996
  0.3372097230461932  0.8282138956454688  0.8233209940080712
  0.2587837960765711  0.9232668411841516  0.9482058520210401
  0.2388439769221620  0.8917073050150321  0.0934670003757319
  0.1509303828508166  0.9864130774402753  0.1488948406106658
  0.0885633538008221  0.0736543916112922  0.2410262552404703
  0.0073859407134975  0.1437649190199366  0.3289637226111353
  0.8994104893410864  0.2220601961714905  0.4312568076649299
  0.8599783880121805  0.3122572155315595  0.5069139015780735
  0.7539717252017084  0.3983746366279064  0.5753509645427926
  0.6438917635658896  0.4869789021713302  0.6606929837051112
  0.5523789723738304  0.5764552933673457  0.7699835820083862
  0.4868257588791352  0.6658601724410715  0.8322281858092069
  0.4324486325344097  0.7524165860821057  0.9124983522187975
  0.3671991743790528  0.8543736651637417  0.0113741373002654
  0.3581032500791039  0.8431256080920733  0.1597804560196181
  0.2472150544810958  0.9357553858171173  0.2434553314349017
  0.1516954482083506  0.0048762794652717  0.3340115507831030
  0.0736153100775212  0.0765823979591858  0.4157086705030864
  0.0157853341045708  0.1569460607498812  0.5101233097017897
  0.9181487383325404  0.2425420359713684  0.5767051475241232
  0.8428771090412894  0.3473861997706038  0.6622704294217669
  0.7616823292398323  0.4326419094091136  0.7310410743948736
  0.6630631268786615  0.4878586551771846  0.8359474123951927
  0.5623792200601159  0.5736597314507179  0.9178941707206150
  0.5003225972947334  0.6831918708471747  0.0174140118256574
  0.4227539699019118  0.7502975181933209  0.0701140029267506
  0.4029251967647554  0.7444422080169275  0.2323609916350264
  0.3549880586536958  0.8788931829417805  0.3338297366911860
  0.2305888348362615  0.9146542907569994  0.3916798499050813
  0.1459285768667939  0.0142404529544393  0.5336751161801914
  0.0683296150727699  0.0991811580446154  0.6121732938815043
  0.9960952366120850  0.1886456123437767  0.6934147845475422
  0.9064231094763500  0.2541584129291223  0.7768215318976459
  0.8318237956810606  0.3492124594605315  0.8157196987225106
  0.7736241862442625  0.4087692483388707  0.9174221276301182
  0.6682357632297098  0.4802394864341082  0.0102451812411033
  0.5784638630161396  0.5795866511430177  0.0943058164254040
  0.4935137661169122  0.6622269226585971  0.1747759867900669
  0.4874842365725343  0.6674924502649873  0.3392434419988959
  0.4225102896100310  0.7484165964641676  0.4121569460923880
  0.3465577682526515  0.8395633449019115  0.4741618726269579
  0.2721150772227503  0.9091115819292810  0.5740143875573480
  0.1560155795166907  0.9726312312134127  0.6676836072219601
  0.0878825131506105  0.0808413636093945  0.7280884086774222
  0.9986539550704023  0.1543552730976145  0.8151555667615895
  0.9095524437391234  0.2503909943047020  0.9066688795285529
  0.8399176302206897  0.3140714305489638  0.0093730021950620
  0.7608973080802102  0.3870870807625408  0.0786206400292642
  0.6919484085785470  0.5190653723698802  0.1542127679560181
  0.6100533173152982  0.5994038077440251  0.2609770769063431
  0.1928430044692320  0.1331348936086059  0.8656648977614267
  0.1016381456652411  0.2196177459065041  0.8870892975795002
  0.0054869433238380  0.3125877763605445  0.9868467187747214
  0.9339960053788943  0.3920787044178127  0.0924627377986056
  0.8410972161248225  0.5022484481292508  0.1509434627630100
  0.7510104932961568  0.5815315530572676  0.2684036337209292
  0.6699675016809081  0.6581560759769047  0.3593005497547850
  0.5743102634076891  0.7551148671096328  0.4523475918565083
  0.4825951698702724  0.8432649219862327  0.5197711146377131
  0.3998345811580464  0.9323678541765545  0.6264652695380448
  0.3303513338474957  0.0057354201273512  0.6943054589859230
  0.2645656007751924  0.0569617613906033  0.7575048746242672
  0.2656799057704475  0.0475991995926250  0.9277546264436012
  0.1696301712545463  0.1402504103385525  0.0097072160259444
  0.0835954931972793  0.2541832646139852  0.0707899575818729
  0.0140319836655607  0.3081988737937067  0.1935953078033563
  0.9337816702262316  0.4050748937074857  0.2527963885263418
  0.8408264628816653  0.5199145749288121  0.3324773023453602
  0.7576560774600551  0.5747055054579988  0.4172250598204386
  0.6891311273928196  0.6614165069807001  0.5141960345475383
  0.6021261736671448  0.7472341816959371  0.5757008780256285
  0.5052827806122480  0.8153663715195378  0.6665909656304407
  0.4371608082186356  0.9105345495174788  0.7583313785397863
  0.3501018494897963  0.9985043490942900  0.8262561189882902
  0.3501074538245561  0.0018129528555590  0.0184252649897161
  0.2334747404485071  0.0446974371143796  0.0976983967133336
  0.1561967840333836  0.1454996900213601  0.1572209930193011
  0.0966257826095571  0.2318640508819811  0.2537443699572819
  0.0130604789590265  0.3276901350656516  0.3430923874782437
  0.9379662059009632  0.4160371934820475  0.4244998343814288
  0.8445005215749077  0.5117571097334306  0.5164832062766962
  0.7258276617623807  0.5668935062687837  0.5966860816128801
  0.6674329714443914  0.6688577202974244  0.6708118681775019
  0.5859911628895773  0.7459316257316857  0.7422917591164406
  0.5121039511153285  0.8290323430825808  0.8523088227732956
  0.4604326411960145  0.9174517387478218  0.9157630077321599
  0.4462988317710810  0.9263983467805730  0.0582291711161176
  0.3726743217054249  0.0089446532392046  0.1597506693956632
  0.2142144889060305  0.0532145507040056  0.2086287568224989
  0.1566048123319064  0.1457144280968237  0.3528085360306932
  0.0766198712624586  0.2345745703804809  0.4182332665915212
  0.0129866639969975  0.3214150065258679  0.4948235890286341
  0.9183978434978641  0.4105962026380325  0.5792747686283803
  0.8285038883285907  0.5125157139890817  0.6406504093497887
  0.7163456078943184  0.5710503238213889  0.7405687771911076
  0.6651707834005691  0.6617565436639765  0.8220431443798475
  0.5781123175723764  0.7328394641868385  0.9192328429046057
  0.5413081657372274  0.8397963237620658  0.0108328196685648
  0.5013384833293770  0.8570664214523021  0.1401136662513878
  0.4399725651597848  0.9252444678452747  0.2594471221919008
  0.3208456261865180  0.0140194851487081  0.3123349959460526
  0.2408474984179705  0.0828033514277777  0.4306996119087145
  0.1649310052800175  0.1630620713692466  0.5153759991496614
  0.0846504958669527  0.2632888373081812  0.6154290732281282
  0.9605943284290461  0.3177120812569214  0.6901643415796528
  0.9181809108527119  0.4117399180311665  0.7613479062846054
  0.8270032832028136  0.5215344303709841  0.8148553784013615
  0.7419997938419556  0.5876062099549131  0.9232599840808433
  0.6684487709618736  0.6728992465590906  0.0154466535160580
  0.5843437045166908  0.7486681092785972  0.1140113950522093
  0.5887651177622217  0.7304284013605411  0.2388466643925042
  0.5048214943244744  0.8157499935730073  0.3109553255022917
  0.4248218656067095  0.9446602248457552  0.4075442700917549
  0.3360550511192884  0.9864262552404668  0.4989400811778211
  0.2520538047777237  0.0915018015345694  0.6124071764752443
  0.1907675570518919  0.1799899640088611  0.6643503302483751
  0.1082660457206117  0.2398872374822005  0.7386249723145042
  0.0380218888427493  0.3392792813637087  0.8278956637596906
  0.9257498724489821  0.3947666721048861  0.9027718962584999
  0.8529837120313246  0.5020289432051896  0.0176974158558778
  0.7429736493434618  0.5839103642619818  0.0645331904564159
  0.6879024734021542  0.6551819480699237  0.1862009882732139
  0.2360278471563078  0.2570369952341380  0.7784117959974708
  0.1623457161643742  0.3421786510243621  0.8465598056082868
  0.0730546239716787  0.4297570963850674  0.9429760480936551
  0.9952415346661923  0.5190971785516538  0.0115774373121340
  0.9342048321072625  0.6089408786188883  0.0776501339780111
  0.8485739192770154  0.6662837456494231  0.1772289961042546
  0.7454025693126098  0.7348495688973244  0.2739726180588491
  0.6737793060828992  0.8043761875098880  0.3508030701233977
  0.5758442903614949  0.9171383681379552  0.4091565352594557
  0.4733094867307415  0.0022292487343805  0.5204074740942914
  0.3971998417971818  0.0854709836260099  0.6065232118137942
  0.3263116110979283  0.1802685344486648  0.7059860568936855
  0.3392081776024369  0.1535947026775801  0.8410573386331279
  0.2490184064032590  0.2532584653338077  0.9157831192651500
  0.1639672984891618  0.3288321354413881  0.9788019424339538
  0.0816177923785801  0.4174436629884539  0.0638440837090641
  0.0033928526934019  0.4875554604690748  0.1751171610504656
  0.9282581810631214  0.5835341357182386  0.2590028451787703
  0.8389124490784710  0.6617414743513663  0.3298288888229735
  0.7583698727456110  0.7494613940634380  0.4277326698702737
  0.6663792793861703  0.8209204872646723  0.5096326540499945
  0.5681169459935163  0.9324901963692440  0.5695579165677884
  0.5066077296907139  0.0054592983705106  0.6841078666350242
  0.4542367099746869  0.1068861285793403  0.7584798835231794
  0.4085658479670968  0.0680387933080198  0.9246848891591526
  0.3190577193086526  0.1635176989400406  0.0091362571191240
  0.2143946339582357  0.2281923691860470  0.0630683975043524
  0.1616327662751118  0.3424187806517978  0.1499692073050127
  0.0655414184859993  0.3920452845673168  0.2660094427305779
  0.0402622938419555  0.4876872701115360  0.3367242697951269
  0.9581531427978192  0.5937727159468409  0.4111357933871247
  0.8387933994818866  0.6317707458274029  0.5105154465274495
  0.7749029465274475  0.7360406680113911  0.5482233808930559
  0.6773296432526479  0.8266784552483770  0.6476860015227004
  0.5638283128658443  0.9007484407134925  0.7453474341480799
  0.5293545008701130  0.9842138847690265  0.8270231356786866
  0.5340189744502482  0.0239589824592628  0.9803127422480600
  0.4305726309128275  0.1176484145111516  0.0733214172006029
  0.3131464354928042  0.1665797095000769  0.1546649140760934
  0.2150575606114558  0.2372962555370961  0.2480336403456747
  0.1507589908637854  0.3181817681142221  0.3378532584836265
  0.1124534547539966  0.4139844976071814  0.4037078542754315
  0.0363173024442318  0.4738845984614741  0.4840565619561801
  0.9635417057229887  0.5801789283736767  0.5669575734654302
  0.8540940965630455  0.6680029183475682  0.6609930158400559
  0.7766668219031772  0.7542787869799099  0.7293829684780917
  0.6448042957008369  0.8167132643173574  0.8077199597571578
  0.6128308900885955  0.9023889505220666  0.9081896970416068
  0.6134352110030079  0.9410806191662715  0.0802093695617785
  0.4986766655790191  0.0160145600972967  0.1687276528634740
  0.4202656437865855  0.0938492737501946  0.2275395156027500
  0.3192402299873436  0.1397134299359308  0.3103781813597521
  0.2394289367781965  0.2580569174181306  0.4080955505458022
  0.1491421417694951  0.3170980580604308  0.5021116526261693
  0.0883350809800660  0.4275296007356459  0.5834452039827553
  0.9997007287217201  0.4979967049319711  0.6723194189012816
  0.9072347591362160  0.5852000400450876  0.7250120229196355
  0.8252611053433014  0.6468245021555106  0.8231699978247136
  0.7451919440159784  0.7352174196131926  0.8932898245926282
  0.6823400752452145  0.8182605689368785  0.9943881585192216
  0.6766419415440623  0.8375776088633131  0.1773438740903330
  0.5683268875573475  0.9215039446883395  0.2392090981450750
  0.5096597032708416  0.0044363278160091  0.3104774224806235
  0.4231406220336993  0.0818816282036039  0.4072557630319551
  0.3248514653535821  0.1530951476230058  0.5009194203844345
  0.2515486468715409  0.2638104191385864  0.6167693234852081
  0.1522269107933880  0.3573915396100276  0.6668658741694387
  0.0780201209262756  0.4306023058060404  0.7467511296669826
  0.9991124812134160  0.4929861310512607  0.8061690945855062
  0.9046113881308315  0.5764609550506279  0.9001681666271182
  0.8436597601249787  0.6899531165954755  0.0151137745214385
  0.7788342523928193  0.7469043036109824  0.1240554510757761
  0.3123138971286181  0.3227739588277174  0.6615467924379033
  0.2370588984140198  0.4319842850221463  0.7343123492129422
  0.1545081761192861  0.4851062925170098  0.8451578003875966
  0.0620040242841355  0.5959631565416856  0.9271021812213291
  0.0079597789115624  0.6893989395467486  0.9852262176672966
  0.9226103800822685  0.7479394231529852  0.1074397005022973
  0.8266399224806236  0.8635283410457220  0.1942000093932919
  0.7241919010045876  0.9205158944391698  0.2276713736948253
  0.6586382356430960  0.0106935463138740  0.2974966129765875
  0.5919402146614487  0.0630107375217506  0.4201229923073910
  0.4898976323959801  0.1576651083689313  0.4949351521713368
  0.3904902616279102  0.2301125049438397  0.5959488658835639
  0.4078779811343125  0.2314009185651003  0.7503810552127845
  0.3338164486434110  0.3225639302523362  0.8458161955189070
  0.2563183811896863  0.4102692201589946  0.9209241343339656
  0.1717003307427589  0.5069498961793997  0.0086127625177994
  0.0778919450047439  0.5893012147009955  0.0987086808851458
  0.9869252486750497  0.6866985811184918  0.1744660407767782
  0.8984165094526162  0.7697866397721853  0.2740473491140634
  0.8197334608843505  0.8887057615488061  0.3240057961556744
  0.7199487314111721  0.9264308376839097  0.4254972082146793
  0.6781699281165956  0.0381577109041302  0.5001503337090654
  0.5680129474173370  0.0986469313597524  0.5921346919000143
  0.4995882415757009  0.1744892417141273  0.6615977203963013
  0.4773404816287012  0.1758474979235913  0.8333236710963448
  0.4013509398236010  0.2514552706256907  0.9406631901597819
  0.3264859733428267  0.3511628426079767  0.0168513382969451
  0.2361566628104725  0.4403678339068193  0.0892540252729006
  0.1485801999288086  0.4971120921333636  0.1664744027843668
  0.0897426302206910  0.5866713633127674  0.2493151350656575
  0.0080651800545795  0.6733556577282087  0.3303087481213396
  0.8607423825344114  0.7596654148868822  0.3961545720613842
  0.8317443358448031  0.8561426811422237  0.4870730017006792
  0.7630084257831058  0.9214735123991460  0.5578670616793246
  0.6673019557823139  0.9959709025470644  0.6560581355798121
  0.5800819673508926  0.1000894508384746  0.7623344768430655
  0.5901483952301874  0.0916392951075764  0.8866466223698808
  0.4948138447239359  0.1680854858803968  0.9858093779663051
  0.4039839552681528  0.2244728158123692  0.0734272207720323
  0.3174545265780750  0.3161801237937070  0.1528161223501030
  0.2347141131743413  0.4064358186006984  0.2389106435888309
  0.1652468319886111  0.4787376591915802  0.3424229552286064
  0.1053627986078141  0.5968637849034977  0.4097436916627117
  0.0159858339265924  0.6918649961438064  0.4760539649580764
  0.9139548983546888  0.7273124772583444  0.5516011267006817
  0.8273552300862193  0.8153814329220026  0.6410811684266733
  0.7371035353385551  0.8950734070953956  0.7434606544652738
  0.6719355985999016  0.0147573915321928  0.8069017145230220
  0.6839080095119456  0.0230781348876761  0.0036759032392055
  0.5876392629726297  0.1269815090571100  0.0698817344961213
  0.5206402992010766  0.2144979077677576  0.1746547599272290
  0.3958793045997453  0.2236083486592335  0.2486507287217208
  0.3168238421531413  0.3219872938419570  0.3137406032471119
  0.2538585780533111  0.3976185062687847  0.3981834228167997
  0.1904638333531068  0.4936720648433806  0.4900860559049178
  0.0719301742208529  0.5995604216105050  0.5542718749999977
  0.9985274986157222  0.6629326609713644  0.6454610237699754
  0.9334621821112137  0.7498319980026906  0.7599653600102840
  0.8286216332463212  0.8236717400332196  0.8359775134472400
  0.7492254859792737  0.9239334465472240  0.9042229285318797
  0.7523190075739592  0.9186555321547232  0.0721075185888296
  0.6755256308337323  0.0356354522622979  0.1547250548766002
  0.5765562485168516  0.0788285299003348  0.2195378974845781
  0.5153127743830055  0.1780976037217243  0.3308680148512906
  0.3933673395230173  0.2282391403654458  0.3905733037691803
  0.3485211403456745  0.3127387695775994  0.4729286376759987
  0.2545234515899395  0.4049544563755703  0.5792584257831024
  0.1893602836774235  0.5083509427899031  0.6478971409784862
  0.0900160264396490  0.5814967182803343  0.7213176663107106
  0.9872676672994771  0.6545542339028643  0.8247805331434890
  0.9128746707403863  0.7414583269063471  0.9118192389455757
  0.8298203626799534  0.8259452366120854  0.0028449904089527
  0.4153948465432720  0.3988406714720796  0.5666997379765846
  0.3607836205703236  0.5147396317829447  0.6384692695973726
  0.2554261924537258  0.5600185458194886  0.7553113530295832
  0.1514598550466673  0.6626500786070224  0.8388147133562711
  0.0930139742524929  0.7366522484575242  0.9333691024956465
  0.9656034053156120  0.8335426895467464  0.0006153417180812
  0.9115638145665272  0.8992258226546426  0.0930103761271965
  0.8214730333412419  0.0144631792833394  0.1723472067315299
  0.7486771965472201  0.0980848980580618  0.2347563345396324
  0.6609138476902388  0.1762886711952234  0.3324979225992735
  0.5802156932249645  0.2325308119759555  0.4053595455624119
  0.4952067453725704  0.3126451639376668  0.4739241061540866
  0.4949408687312129  0.3086257297104922  0.6854467983705135
  0.4057374728088945  0.4010291098125265  0.7472915139020699
  0.3647736977930691  0.4780614568501846  0.8392143915124208
  0.2567816583610210  0.5738442537770894  0.8831610519498483
  0.1725657520566344  0.6556757786544836  0.0057144102990065
  0.0959664278792900  0.7697238075462778  0.0838875978879940
  0.9985447758463835  0.8283373457522529  0.1692410902151593
  0.9136417467568450  0.9316284132257522  0.2712099514515103
  0.8251695850142369  0.0264455703211510  0.3208111053433029
  0.7318437148987513  0.0963650643687686  0.4058665223065958
  0.6622142595119413  0.1564782263486819  0.4774849697437133
  0.5867963573801589  0.2468801935018163  0.5815043837011515
  0.5851565792596105  0.2389525549754765  0.7673572501384243
  0.4793257138902050  0.3204780281007729  0.8465738747824716
  0.4371899719189969  0.4111340190436650  0.9419323603860121
  0.3377238416587574  0.5044577311738649  0.9962885100261047
  0.2518374174379048  0.5934552656818539  0.0941437470336979
  0.1580927083333350  0.6996787330920711  0.1777054016373967
  0.0605270625692143  0.7585207161643694  0.2766550362877709
  0.9932601867782012  0.8446660145744360  0.3465959010639139
  0.9301308683357092  0.9514957567038422  0.4131703162078750
  0.8462987249841802  0.0185288804184438  0.4958588326609714
  0.7553540707562121  0.0987405622132584  0.5712839078073060
  0.6521153110662894  0.1605471360346442  0.6668574523414037
  0.6691530365052998  0.1813545063083382  0.8443857152744840
  0.5863777636054408  0.2517761034646426  0.9138460167497229
  0.4987780849549139  0.3234653802800196  0.0164805445143159
  0.4152803986710936  0.4181680993909183  0.1004049240626514
  0.3296801465353596  0.4870102208906815  0.1837258384749276
  0.2222675857261507  0.5887918935888337  0.2356268776696737
  0.1822496999090362  0.6603017530849513  0.3257885940713479
  0.1126284325067246  0.7709903273809502  0.3867475409349765
  0.9782779554263570  0.8264283504390164  0.4910229557229897
  0.9154934281561466  0.9041911347096985  0.6032168792517041
  0.8249263180272095  0.9981508453962959  0.6696717963929757
  0.7466141690397095  0.0803461393569052  0.7294907026182571
  0.7325137265662107  0.0971749421570962  0.9099120342904570
  0.6620125563597554  0.1933648740310048  0.9910639421175418
  0.5986556033459891  0.2446408627986045  0.0624402289985753
  0.4796225972947283  0.3104399012221180  0.1890521391987008
  0.4055143119166260  0.3893031027527272  0.2609009605877262
  0.3007531284606841  0.5006236542872955  0.3159759190594826
  0.2660060107182431  0.6195248665163717  0.4105125286742606
  0.1816489845356770  0.6995422752531226  0.4914566969229526
  0.0806248106510026  0.7493547614103804  0.5632668159705716
  0.9808928185809194  0.8080521268391081  0.6627499594605268
  0.9065913833847503  0.9071402982123118  0.7556166844644849
  0.7913180207838977  0.0125793718359404  0.8292411678334091
  0.8348477317671268  0.0169514386568608  0.9971612546472102
  0.7523135762735293  0.1312183881110585  0.0762609510955556
  0.6948016027922819  0.1735454996242680  0.1420821181379495
  0.6083395096701452  0.2437404702578689  0.2398498200442987
  0.5115428225359935  0.3370526118296127  0.3163325690159766
  0.4266395442770161  0.4227015845000821  0.4179700774205060
  0.3122034577203010  0.5075829917141306  0.5256389534883752
  0.2514918090491989  0.6112399808179063  0.5778547307585811
  0.1479084732439517  0.6487322353069160  0.6704449127906997
  0.0731486508266102  0.7464415574078487  0.7625679609634517
  0.9928003836418284  0.8047776578073069  0.8598808391670616
  0.8936584514910635  0.9205458007040050  0.9081918965551310
 
  0.00000000E+00  0.00000000E+00  0.00000000E+00
  0.00000000E+00  0.00000000E+00  0.00000000E+00
  0.00000000E+00  0.00000000E+00  0.00000000E+00
  0.00000000E+00  0.00000000E+00  0.00000000E+00
  0.00000000E+00  0.00000000E+00  0.00000000E+00
  0.00000000E+00  0.00000000E+00  0.00000000E+00
  0.00000000E+00  0.00000000E+00  0.00000000E+00
  0.00000000E+00  0.00000000E+00  0.00000000E+00
  0.00000000E+00  0.00000000E+00  0.00000000E+00
  0.00000000E+00  0.00000000E+00  0.00000000E+00
  0.00000000E+00  0.00000000E+00  0.00000000E+00
  0.00000000E+00  0.00000000E+00  0.00000000E+00
  0.00000000E+00  0.00000000E+00  0.00000000E+00
  0.00000000E+00  0.00000000E+00  0.00000000E+00
  0.00000000E+00  0.00000000E+00  0.00000000E+00
  0.00000000E+00  0.00000000E+00  0.00000000E+00
  0.00000000E+00  0.00000000E+00  0.00000000E+00
  0.00000000E+00  0.00000000E+00  0.00000000E+00
  0.00000000E+00  0.00000000E+00  0.00000000E+00
  0.00000000E+00  0.00000000E+00  0.00000000E+00
  0.00000000E+00  0.00000000E+00  0.00000000E+00
  0.00000000E+00  0.00000000E+00  0.00000000E+00
  0.00000000E+00  0.00000000E+00  0.00000000E+00
  0.00000000E+00  0.00000000E+00  0.00000000E+00
  0.00000000E+00  0.00000000E+00  0.00000000E+00
  0.00000000E+00  0.00000000E+00  0.00000000E+00
  0.00000000E+00  0.00000000E+00  0.00000000E+00
  0.00000000E+00  0.00000000E+00  0.00000000E+00
  0.00000000E+00  0.00000000E+00  0.00000000E+00
  0.00000000E+00  0.00000000E+00  0.00000000E+00
  0.00000000E+00  0.00000000E+00  0.00000000E+00
  0.00000000E+00  0.00000000E+00  0.00000000E+00
  0.00000000E+00  0.00000000E+00  0.00000000E+00
  0.00000000E+00  0.00000000E+00  0.00000000E+00
  0.00000000E+00  0.00000000E+00  0.00000000E+00
  0.00000000E+00  0.00000000E+00  0.00000000E+00
  0.00000000E+00  0.00000000E+00  0.00000000E+00
  0.00000000E+00  0.00000000E+00  0.00000000E+00
  0.00000000E+00  0.00000000E+00  0.00000000E+00
  0.00000000E+00  0.00000000E+00  0.00000000E+00
  0.00000000E+00  0.00000000E+00  0.00000000E+00
  0.00000000E+00  0.00000000E+00  0.00000000E+00
  0.00000000E+00  0.00000000E+00  0.00000000E+00
  0.00000000E+00  0.00000000E+00  0.00000000E+00
  0.00000000E+00  0.00000000E+00  0.00000000E+00
  0.00000000E+00  0.00000000E+00  0.00000000E+00
  0.00000000E+00  0.00000000E+00  0.00000000E+00
  0.00000000E+00  0.00000000E+00  0.00000000E+00
  0.00000000E+00  0.00000000E+00  0.00000000E+00
  0.00000000E+00  0.00000000E+00  0.00000000E+00
  0.00000000E+00  0.00000000E+00  0.00000000E+00
  0.00000000E+00  0.00000000E+00  0.00000000E+00
  0.00000000E+00  0.00000000E+00  0.00000000E+00
  0.00000000E+00  0.00000000E+00  0.00000000E+00
  0.00000000E+00  0.00000000E+00  0.00000000E+00
  0.00000000E+00  0.00000000E+00  0.00000000E+00
  0.00000000E+00  0.00000000E+00  0.00000000E+00
  0.00000000E+00  0.00000000E+00  0.00000000E+00
  0.00000000E+00  0.00000000E+00  0.00000000E+00
  0.00000000E+00  0.00000000E+00  0.00000000E+00
  0.00000000E+00  0.00000000E+00  0.00000000E+00
  0.00000000E+00  0.00000000E+00  0.00000000E+00
  0.00000000E+00  0.00000000E+00  0.00000000E+00
  0.00000000E+00  0.00000000E+00  0.00000000E+00
  0.00000000E+00  0.00000000E+00  0.00000000E+00
  0.00000000E+00  0.00000000E+00  0.00000000E+00
  0.00000000E+00  0.00000000E+00  0.00000000E+00
  0.00000000E+00  0.00000000E+00  0.00000000E+00