Li 
 1.0000000000000000
    20.2271999999999998    0.0000000000000000    0.0000000000000000
     0.0000000000000000   20.2271999999999998    0.0000000000000000
     0.0000000000000000    0.0000000000000000   20.2271999999999998
 Li 
 432
Cartesian
 -0.2934772300000000 -0.0681762000000000 -0.2114119600000000
 18.5424408400000011  1.6669849299999999  1.4401003999999999
 17.2105523500000004  3.5533438099999999  3.0956382300000000
 15.2717032300000000  5.1425441799999998  5.0188084499999999
 13.7029650699999994  6.7972956299999998  6.8124474700000004
 11.5313306400000002  8.4903349000000006  8.2626106799999999
 10.0957779399999996 10.1914423599999999 10.0006929299999996
  8.5761034699999996 12.5253332200000003 11.8047140899999992
  6.4883864999999998 13.5047738400000004 13.9445620199999993
  4.8943626099999999 14.8009938299999995 15.6270820700000002
  3.4072097399999999 16.5461950800000004 17.1614633300000001
  1.7581582899999999 18.3823414999999990 18.9469115899999991
  1.2984492700000001 18.4784148299999984  1.6835402600000000
 -0.7885791000000000 -0.0076659300000000  3.1015557100000000
 18.9592918399999988  1.9033036000000001  4.8967603799999999
 16.7936434500000011  3.2495131100000001  6.3052353800000001
 15.0347446799999993  5.0952000599999998  8.3805301300000004
 13.4450472300000001  6.8325087199999999 10.3954584200000006
 11.2440603800000005  8.2041121300000004 11.5469931300000006
  9.9285825200000009 10.0703334600000005 13.1655402200000005
  8.1878198799999993 11.7571991899999997 15.5820579499999994
  6.8697750199999996 13.8680883000000001 17.1606330699999994
  4.8816918999999999 15.1936673399999993 19.1003768799999989
  3.1093677199999998 16.8342996999999990  0.4850654800000000
  3.3176946400000000 16.3145241399999996  4.1233228999999998
  1.3395224699999999 18.7190083300000012  4.8951830699999999
  0.1227658500000000  0.2472884800000000  6.8934187900000001
 18.2866967100000011  1.8401187600000000  8.3666492300000002
 16.9786946999999984  3.3601788699999999  9.9554492400000001
 15.1261364900000004  4.9707789599999996 11.6338253999999992
 12.9357525599999992  7.1421789799999997 13.5595217899999998
 11.3938273900000002  8.4517315600000007 15.4281335700000000
  9.7990392400000008  9.4878330399999999 16.8010257000000003
  8.4635577099999999 12.0087843099999994 18.7190179699999995
  6.5939154899999997 13.3273607599999995 20.2194052699999993
  5.2570655600000000 15.8541228200000006  1.0733835000000000
  5.4799208500000001 15.3176138500000008  5.3650538900000004
  3.4660794199999998 17.1407667900000007  6.6872998199999998
  1.6132151800000001 18.4876914399999990  8.9524878399999999
  0.1541800700000000  0.5031264600000001 10.6104746599999995
 18.7457361999999996  1.9882763299999999 12.2059570799999992
 16.8013909800000008  4.1517386099999998 13.7185623000000003
 14.6988632300000006  5.3563259600000004 14.9433190499999995
 13.2651352800000009  7.2820331700000001 16.7071729100000006
 11.6469815800000003  8.6526215299999993 18.7927046299999994
  9.8712308300000000 10.2213059099999999  0.2437507100000000
  8.3708840000000002 12.1624263100000007  1.6939230900000000
  6.7357956100000003 13.5914710099999994  3.2143212900000000
  6.7336071100000003 13.6484286499999996  6.3577932300000004
  5.4779630299999997 15.6329300100000008  8.0526290899999999
  3.6177674400000002 16.9429482100000008 10.1749468600000004
  1.1441381300000000 18.4801133600000007 11.8904394599999996
  0.2440757900000000 -0.7064009700000000 13.8613022899999994
 18.4264422500000009  1.2948922199999999 14.9158607500000002
 16.9216485699999986  3.2481569000000001 16.2696117700000009
 14.9773835299999991  5.6303858599999996 18.5969468300000003
 12.9734585800000009  6.8108622399999996 -0.1738803000000000
 11.2582485899999991  8.1804440100000004  1.8116951400000001
  9.9636535399999993 10.0796191999999998  4.0993790800000003
  7.7798416599999998 12.1453985200000005  5.1342841000000004
  8.1098636200000005 11.6715639800000002  8.5966176200000000
  6.7078270699999996 14.1476713800000002 10.3140747800000003
  5.4553632399999996 15.3848507100000003 12.3125032799999996
  3.7056956400000001 17.3653696800000006 13.3206685300000007
  1.4841024300000001 18.2286531099999998 15.8998953699999994
 -0.1856295600000000 -0.6749821700000000 16.7388472200000002
 18.2428015700000010  1.7901759900000001 17.9435919900000016
 17.0344827499999987  3.6909959600000000 19.9062001200000012
 15.4538608800000006  5.2315996599999997  1.3925754500000000
 13.7078167799999999  6.7495037399999998  3.0383250600000000
 11.9700843599999995  8.5400829799999993  5.2759739500000000
 10.0993696100000001 10.6926807799999999  6.2427053900000002
  1.5977799100000001  1.3768760799999999 18.8823852700000003
 -0.3749900100000000  3.5283882499999999 -0.6187059300000000
 18.8798132500000015  5.2292492900000003  1.9791644399999999
 16.8852397699999983  6.9140086500000004  3.5390602200000001
 15.6688494299999999  8.5695482999999992  5.1758054700000002
 13.1718112499999993  9.9884432000000007  7.1442023499999996
 12.1564424199999994 12.0776422599999993  8.8343561899999994
  9.8388989700000007 13.9432591299999995 10.2794549499999999
  8.1589548199999999 14.9267204499999995 11.8925767499999999
  7.0579741499999997 16.7949704100000012 14.0651927000000008
  4.7764051700000003 18.3285453400000016 15.2662278300000001
  3.6630765599999999 -0.4793443400000000 17.0352478199999986
  3.5546586100000002 -0.0380058000000000  0.1737393900000000
  1.0869932000000000  1.6202850400000000  1.8519328799999999
  0.3557653700000000  3.6367996699999998  3.3600355199999998
 18.4220930000000003  4.6642388400000003  5.5241103499999999
 17.0327646699999988  6.4147323700000003  6.6910733899999997
 15.5132259200000000  8.4640056700000006  8.6742016399999997
 13.7725745499999999  9.3768474499999996 10.3658626500000004
 12.2886151100000003 11.6087029000000008 11.7084548599999998
 10.1963850399999991 13.1276748699999999 13.2752412500000005
  8.5302359899999995 15.0037324200000004 15.0376054200000002
  6.8208085100000000 16.7524481099999996 16.6534784100000017
  5.2344716000000000 18.6751030500000006 19.1795494099999999
  4.8311448900000000 18.0367420000000003  1.8905757100000000
  3.0528990399999998 -0.2748254000000000  3.0117257199999998
  1.7913886699999999  1.4898221100000000  4.8752862700000001
  0.1493969000000000  2.9079617700000000  6.6540150100000002
 18.1925558500000015  4.4916559999999999  8.7231176999999995
 17.3949548500000013  6.3160891499999998 10.2534488699999997
 15.2507368799999998  8.0580034499999993 11.6377390300000005
 13.0241274800000006  9.8502196499999997 13.3639691200000001
 11.1730799500000000 11.6600765099999997 15.5746119099999998
  9.8471219899999998 13.4684868800000004 16.8336459599999984
  8.7472249800000004 15.2192807699999992 18.4572866699999985
  7.4274111400000002 17.2815869999999983 20.4572669500000011
  7.2434260600000000 17.0540702999999993  3.2319112400000001
  5.0004683500000002 18.9277113399999983  4.9244196799999997
  3.0683741699999998  0.0986334800000000  6.7561184399999998
  1.4890315999999999  1.5490474800000000  8.4086224200000004
  0.3192931100000000  3.1745793600000001 10.3183662100000006
 18.5715781600000014  4.9059462700000003 11.6651303599999991
 17.0490438600000012  7.0266501400000001 13.3958764299999995
 15.4067008100000002  8.7511344300000005 14.7869140199999993
 13.4119104799999995  9.8680145899999996 16.9088755000000006
 11.3753569599999995 11.6035301200000003 18.5664289700000005
 10.1201252400000001 13.8190586100000008 20.5794366999999987
  8.5511291000000007 15.1764179600000002  1.4182099600000000
  8.1500485400000002 15.0579814299999999  4.7000122500000003
  7.1804144599999997 17.7775481900000010  6.7524408500000002
  4.6641664799999996 18.5008952700000009  7.9225866600000003
  2.9517265099999999  0.2880444900000000 10.7947533100000008
  1.3821167900000000  2.0061571200000001 12.3825516499999999
 -0.0789824300000000  3.8157725299999998 14.0258395300000007
 18.3344015200000001  5.1409130500000000 15.7129244900000007
 16.8254662800000006  7.0635902599999998 16.4997254899999994
 15.6482511399999993  8.2682573399999999 18.5568808599999997
 13.5165384300000007  9.7139001399999998 20.4344313299999989
 11.7007042499999994 11.7234151099999995  1.9075426099999999
  9.9824016499999999 13.3949964099999992  3.5352288399999998
  9.8604411499999998 13.5015032900000005  6.8619449499999998
  8.5462001300000008 15.1383721799999993  8.3367809800000003
  7.0098932899999999 16.9820156900000008  9.5909670299999998
  5.5041260899999997 18.3887817899999995 11.6107038199999995
  3.1557583299999998 -0.5535935600000000 13.5053698600000001
  1.7776171700000001  1.6351944300000001 14.7271898599999993
 -0.0272267200000000  3.1221749800000000 16.4883146799999984
 18.3976991900000009  5.0647087199999996 18.3393727599999998
 16.9891818900000011  6.3527856399999996 20.4167895900000005
 15.3908220300000007  7.8296878000000003  1.5902754100000001
 13.9961788499999997 10.4992391000000005  3.1192924999999998
 12.3396704600000007 12.1242607000000007  5.2788355300000003
  3.9006740199999999  2.6929461200000002 17.5099770200000009
  2.0558551000000000  4.4422520700000003 17.9433326400000013
  0.1109855000000000  6.3227754699999998 -0.2660540500000000
 18.8921239999999990  7.9306543700000001  1.8702622900000001
 17.0130416099999984 10.1590798099999997  3.0531636099999999
 15.1908394500000004 11.7627550299999992  5.4290539799999999
 13.5515666499999998 13.3126545800000002  7.2676440800000002
 11.6166885600000001 15.2738594400000007  9.1497252099999997
  9.7615490200000004 17.0568882299999984 10.5135142899999998
  8.0875340399999995 18.8591910600000006 12.6716382999999997
  6.6820824999999999 20.3432114900000016 14.0438553800000001
  5.3514213200000000  1.1521769399999999 15.3222026000000007
  5.3739605900000003  0.9627985300000000 18.7658783800000002
  3.4311433999999998  2.8368731000000000  0.1963498000000000
  1.6909027599999999  5.1414157300000003  1.4318826300000000
  0.2838277400000000  6.2340002600000002  3.9158910100000002
 18.8877886000000004  8.1935308899999999  5.1133631099999999
 17.0075650299999985 10.5164160899999999  6.7250848899999998
 15.3252610100000002 11.6246831999999998  8.4392947300000003
 13.9391931400000004 13.3786039700000003 10.4007460300000005
 12.1793265399999999 15.1144552399999998 11.6448167999999992
 10.2204558599999995 16.4925786700000003 13.4832687799999995
  8.8425390999999998 18.4175644399999996 15.3389204600000006
  7.0815801299999999 20.1969471700000014 16.7128477699999998
  7.0816934900000001  0.0366709600000000  0.3726915200000000
  4.7225402699999997  0.9041040000000000  1.9761650100000001
  3.1594235899999998  2.9430513299999999  3.1801404700000000
  1.9544690300000001  4.6899605299999996  5.1325381200000004
  0.2641769200000000  6.6282538999999998  6.9397983400000003
 18.9724300399999990  8.4152675200000004  8.5864430499999997
 17.0818809499999986 10.3514134099999993 10.4470091099999998
 14.6814612800000006 11.4666683299999992 12.0692887100000004
 13.5003001999999999 13.5291188800000004 13.5686458200000004
 11.8529604499999994 15.0881081800000008 15.0144838699999994
 10.3584290400000008 16.7690030099999987 17.2398210200000008
  9.3132631200000002 18.5574798100000002 18.5233215099999988
  9.0273757299999993 18.7384446400000009  1.1778130899999999
  7.5381580399999999  0.1809252900000000  3.2313087399999998
  4.3329593099999997  1.0763813600000001  4.2199755899999998
  3.1676768599999998  2.9473948800000001  7.1363288200000001
  1.5498054600000000  4.7447867500000003  8.4596879299999994
  0.2626838500000000  6.5013256200000002 10.0088957000000001
 18.5766168600000015  8.3052115099999995 11.7171065999999993
 16.7583138500000004 10.3667578500000008 12.9585639599999993
 14.4896658800000004 11.5507491099999999 14.9796327700000003
 13.4545424699999998 13.3854819599999999 16.6276310900000013
 11.6935934699999997 14.8232904100000003 18.5935065600000016
 10.9491485300000004 16.9867282000000017 20.4463176100000013
 10.1406737699999994 17.3360539200000012  2.8341071499999999
  8.8994130699999996 18.7151049000000000  5.2478888299999999
  6.4898086499999996  0.2835749300000000  6.3176624300000004
  4.8716705200000003  1.6748799500000000  8.7118471900000003
  3.3360924299999999  3.2982891300000001 10.4246134099999992
  1.7122425100000001  5.3255959700000002 12.4484069500000007
 -0.7970664000000000  6.4264258099999996 13.9600921699999994
 18.5722289200000006  8.3283456699999991 15.3999363700000007
 16.7279608099999990 10.5491812300000003 16.4822427100000013
 15.0085782299999995 11.8856283299999994 18.6749643499999998
 13.5208469800000000 13.6108676400000004 20.5396425499999999
 11.8196369800000003 15.1434595800000000  2.3061312900000002
 11.9090697900000002 14.7745213599999996  4.8311992500000001
 10.2111253299999998 16.5003382700000003  6.2897555599999997
  8.5929568399999994 19.1078313000000009  8.2434794599999996
  6.7974527299999998 -0.2745588500000000 10.0921608099999993
  5.0983427199999998  1.8508252400000000 12.3872824399999999
  3.8586935300000000  3.6406930000000002 13.4379469999999994
  2.1899189600000000  4.8522471300000003 14.9403150399999998
  0.7690763500000000  6.8626698800000003 16.7460111699999992
 18.7253278200000004  7.9850244300000002 18.2605477000000000
 17.2534721399999995 10.1546398399999998 20.5851691700000003
 15.0282765999999999 11.8108717199999997  1.3053257500000000
 13.9143409100000000 13.2524963000000007  3.7663246300000002
  4.7741824700000004  5.1991387099999997 15.7450910799999999
  3.2837992699999998  6.9213160100000000 17.1235345000000017
  1.4776904900000001  8.6927827400000002 19.0737651200000009
 -0.0962504300000000 10.4998824499999994  0.2341791400000000
 18.8963479800000016 12.3171689400000002  1.5706447900000000
 17.1642743799999984 13.4770545800000008  3.5848463499999998
 15.0774068499999991 14.8639492000000004  5.5416989399999999
 13.6286687799999999 16.2702780199999992  7.0957638599999999
 11.6477176300000007 18.5511412000000000  8.2760910699999997
  9.5737256500000001  0.0450914600000000 10.5263860600000001
  8.0342406400000002  1.7288386800000000 12.2682663099999996
  6.6003702200000003  3.6463277000000001 14.2801211699999993
  6.8612316499999997  3.1067907699999999 17.0122350000000004
  5.0369451099999996  5.1227096300000001 18.5237283099999992
  3.3165993399999998  6.6513533699999998 -0.4287773500000000
  1.6508994100000001  8.4437164599999992  1.2913870500000000
  0.0686279100000000  9.8618818099999999  3.5421298399999999
 18.7760638799999988 11.8032616699999995  5.2389023500000000
 16.9688498900000013 13.3851771500000005  6.6715149000000000
 15.3396990899999999 15.1595055100000007  8.6518342599999993
 13.4789869600000003 16.6049228800000002 10.3084416200000000
 11.4914150900000003 18.8616656999999996 11.5205618899999997
 10.2472558700000000 20.3376263199999983 13.8375866399999996
  9.1879367799999994  2.1620070999999998 15.3419243000000005
  8.2641431200000000  1.3762342800000000 18.7037861899999989
  6.4536442999999997  3.3075052000000000  0.1848009000000000
  4.3366031400000002  4.6156926900000004  1.2756970900000000
  3.2693782900000001  6.9261731600000003  3.0334571499999998
  1.3257193800000000  7.9299783799999997  5.3806262000000000
  0.8143934700000000  9.8645479500000004  6.8109891500000002
 19.3807552500000000 12.0103594800000000  8.3161259199999993
 16.9664418499999989 12.7789532300000008 10.3262980399999993
 15.6741168799999997 14.8880417999999999 11.0890239699999995
 13.7004821600000000 16.7213904500000012 13.1008742900000001
 11.4046680499999997 18.2196188600000006 15.0762916199999992
 10.7073593599999999 -0.3193089100000000 16.7283623699999993
 10.8017085999999995  0.4846231300000000 -0.3982181000000000
  8.7092787200000004  2.3796980099999998  1.4830869700000000
  6.3340755800000004  3.3694411000000000  3.1284381500000000
  4.3500122899999996  4.7998388199999997  5.0170260500000001
  3.0494322600000001  6.4359262599999996  6.8338254300000001
  2.2746185200000002  8.3737472299999993  8.1658795099999999
  0.7345973400000000  9.5853585500000005  9.7911088900000003
 19.4897507899999987 11.7353952199999991 11.4679642299999998
 17.2759321099999994 13.5118286300000001 13.3700379300000005
 15.7097951400000007 15.2569478800000002 14.7533751800000008
 13.0425854500000007 16.5198225399999998 16.3379131700000002
 12.3958529800000008 18.2528017799999986 18.3701346399999998
 12.4080767000000005 19.0354258999999999  1.6224109600000001
 10.0868326499999998  0.3239297100000000  3.4128879799999998
  8.5007972299999999  1.8983080299999999  4.6024872900000000
  6.4573359799999999  2.8260114900000000  6.2780815499999996
  4.8429769900000004  5.2197688800000002  8.2546303200000004
  3.0167279300000001  6.4140058399999997 10.1563128200000001
  1.7867713500000000  8.6477267399999995 11.8014628300000002
 -0.0060534200000000 10.0730789499999993 13.5991393499999997
 18.3508189199999983 11.8369582500000003 14.6649631899999999
 16.6927214299999989 13.0834485699999998 16.6504241800000017
 15.0731464899999992 14.8713897900000003 18.0687519399999985
 13.8018291699999995 16.5511201800000016 -0.1135118400000000
 13.6865718800000007 16.9418498100000008  3.5871700099999999
 11.4956616199999999 18.6394445900000001  4.8385302699999997
 10.3089887499999993  0.0897344900000000  6.2800889199999999
  8.5589499900000003  1.6562360700000001  8.2376437700000000
  6.5708355599999999  3.0966861699999999 10.1321972999999996
  5.0881247900000002  5.3361461099999996 12.4755164599999997
  3.0791241700000000  7.2290301499999998 13.4888294099999992
  1.5781285899999999  8.7098789599999993 15.1046844500000006
 -0.0179520200000000  9.9717290700000003 16.3065435100000009
 18.2977554699999985 11.6601910300000000 18.2078815399999989
 17.0648747000000007 13.9558196799999994  0.3057093400000000
 15.7536361899999999 15.1077827300000003  2.5092944199999998
  6.3172356599999997  6.5288134199999996 13.3812392800000008
  4.7950377499999997  8.7378325300000004 14.8530827500000004
  3.1252677800000002  9.8123419999999992 17.0951758600000012
  1.2541678000000001 12.0546659599999995 18.7526812400000011
  0.1610040400000000 13.9446102300000003 -0.2988322500000000
 18.6618246799999987 15.1287202999999995  2.1732043100000000
 16.7206110400000014 17.4667604599999997  3.9281224300000002
 14.6483744199999997 18.6194591000000003  4.6051544099999999
 13.3224073199999999  0.2163005000000000  6.0175234900000003
 11.9732931100000002  1.2745307900000000  8.4979117899999999
  9.9092573900000005  3.1891236799999998 10.0111523099999999
  7.8985246199999999  4.6545316600000000 12.0543768999999994
  8.2502294999999997  4.6805926600000003 15.1781076800000001
  6.7521720700000003  6.5245651300000000 17.1084933499999998
  5.1846031600000000  8.2985975700000001 18.6277166500000000
  3.4730169300000000 10.2541769400000007  0.1742120700000000
  1.5755359499999999 11.9199135300000005  1.9966002300000001
 -0.2644656100000000 13.8899895400000002  3.5289595000000000
 18.1724504200000005 15.5706283200000009  5.5432105399999996
 16.5809126599999992 17.9760291800000012  6.5537300399999996
 14.5625469800000005 18.7391018400000000  8.6066171300000001
 13.7174787699999996  0.7718236500000000 10.1166408299999997
 11.4893114900000004  1.9953512099999999 11.9772268400000002
 10.1052712800000002  3.5294287899999999 13.3822694099999993
  9.6552613899999997  3.5569025100000000 16.8558045599999993
  8.1182057299999997  5.0862360500000001 19.0269824800000009
  6.6038970800000003  7.1030410499999999  0.3408553900000000
  4.7767880500000004  8.9074082499999996  1.8053590200000000
  3.0053614199999998 10.0551857099999999  3.3673110400000001
  1.8152421299999999 11.8667189999999998  5.0429471000000001
  0.1631360100000000 13.6200995599999999  6.6812211100000001
 17.4104083199999984 15.3659042800000005  8.0130977600000008
 16.8238590300000013 17.3173692400000014  9.8521230200000005
 15.4335240299999992 18.6388290300000001 11.2840886299999994
 13.4976501199999994 -0.0814973600000000 13.2702191200000001
 11.7334339700000001  2.0245293400000000 15.4198919300000004
 11.9370496199999998  1.8536063500000000 17.9343785599999990
 10.0086986000000007  3.3998987399999998 -0.2870365500000000
  8.1714642600000005  4.5404565400000001  1.4852270800000000
  6.4212161999999999  6.3954386000000003  3.0910422700000000
  4.7476093099999996  8.2210585900000002  4.8324933699999999
  3.3424807200000002  9.6835223799999994  6.9262575999999996
  2.1311944000000000 12.0728831499999991  8.2879676000000000
  0.3233486600000000 13.9944916500000005  9.6292387599999998
 18.4867485199999990 14.7114949399999997 11.1573463099999994
 16.7350797100000008 16.4928833200000007 12.9672770100000001
 14.9095406300000004 18.1048288200000016 15.0381273499999999
 13.5913757400000001  0.2985007100000000 16.3213623599999984
 13.8335440900000002  0.4668060500000000  0.0743532300000000
 11.8862968999999996  2.5684803800000000  1.4135118200000001
 10.5310954599999995  4.3386920800000004  3.5327767600000000
  8.0075298700000008  4.5229707899999996  5.0295080199999997
  6.4084592200000001  6.5129013899999997  6.3460939300000003
  5.1348482300000002  8.0427090499999991  8.0541357300000005
  3.8525500500000001  9.9856035900000002  9.9130686699999995
  1.4549460200000000 12.1274285600000002 11.2113680700000007
 -0.0297845800000000 13.4092715200000008 13.0558692199999999
 18.8813262500000008 15.1670017900000005 15.3719713299999992
 16.7606955000000006 16.6605730200000011 16.9094843600000004
 15.1547337500000001 18.6885866100000015 18.2898980199999990
 15.2173070300000006 18.5818291799999997  1.4585332000000000
 13.6639920400000001  0.7208054200000000  3.1296546300000001
 11.6621185500000006  1.5944804400000001  4.4406369600000000
 10.4233345499999999  3.6024158499999999  6.6925335099999996
  7.9567198499999998  4.6166387400000000  7.9002043300000002
  7.0496068100000002  6.3258296400000003  9.5660221399999994
  5.1482967600000000  8.1910947800000002 11.7167760300000001
  3.8302283300000002 10.2825161900000008 13.1051450500000009
  1.8207721699999999 11.7620504199999996 14.5902367000000002
 -0.2575394400000000 13.2397994000000008 16.6830007999999985
 18.4648985400000001 14.9976258700000002 18.4435501100000003
 16.7849424399999982 16.7065594900000001  0.0575461900000000
  8.4022746399999999  8.0674300300000006 11.4627489400000009
  7.2976424499999997 10.4117414799999999 12.9144456099999996
  5.1665566800000002 11.3276071300000005 15.2778337999999998
  3.0636087800000000 13.4035556699999994 16.9668729700000007
  1.8814122600000001 14.9004123600000007 18.8794435100000015
 -0.6957468000000000 16.8602346899999986  0.0124466400000000
 18.4383835900000008 18.1888205599999999  1.8813394800000001
 16.6160993400000017 20.5197496199999989  3.4861014199999998
 15.1436433899999994  1.9839828500000001  4.7484633299999999
 13.3684365799999991  3.5658262100000000  6.7255019799999998
 11.7361388699999996  4.7034472400000000  8.1992885999999991
 10.0166458800000004  6.3239362600000000  9.5861576799999995
 10.0112679399999998  6.2426343600000003 13.8646694799999999
  8.2069330100000002  8.1116960099999993 15.1156149099999997
  7.3783505399999996  9.6698447000000005 16.9749573399999996
  5.1939739600000001 11.6072624900000001 17.8638752300000014
  3.4905219800000000 13.2624851100000001  0.1155865200000000
  1.9411321300000000 15.5693573999999995  1.6968112200000001
 -0.0294351100000000 16.7549451599999983  3.4232733799999999
 18.4804143399999994 18.8442342399999987  5.4858179299999996
 16.6908702300000016 20.7621198400000004  6.4891103899999996
 14.8031491899999992  1.9491954300000001  8.2095433199999999
 13.3947402699999998  3.1651163800000002  9.6581839800000004
 11.8692472799999997  4.9936950500000004 11.7622054699999996
 11.8360791600000006  4.8333411200000000 15.5214885700000007
  9.6954170800000004  6.4823731699999998 17.1238190800000005
  8.8431289999999994  8.3160900299999998 19.0526542399999990
  6.8312076900000003 10.2037674200000001 -0.0750730500000000
  5.0939658100000003 12.0039383500000003  1.9042644000000000
  3.1977728299999999 14.1525416699999997  3.5944826999999999
  1.2242930000000001 15.3427502300000000  5.5959567500000000
 -0.1363275500000000 17.0852284099999991  7.0106646100000001
 18.8139430999999995 19.2460949700000015  8.3572786200000007
 17.1182535700000003  0.3747873700000000 10.0298357800000009
 15.2786978599999994  1.9972451000000000 11.5554738599999993
 13.1904668199999993  3.2474190300000001 13.4886590599999998
 13.5350923000000005  3.6682938699999998 17.0795587399999995
 11.8607803000000001  5.0927255999999996 18.4845461499999999
 10.0888840799999997  6.5427989400000000  0.3333552700000000
  8.3999596800000003  8.4583697799999999  2.0309104800000002
  6.6685062600000000  9.8508531399999999  3.7162592800000001
  4.4958509099999997 11.9096113900000002  4.7660719800000004
  3.6864011300000001 13.3560556199999994  6.5897910499999997
  2.2781578300000001 15.5949755499999991  7.8228198600000001
 -0.4393761400000000 16.7163315300000015  9.9320195299999998
 18.5178686699999986 18.2892549200000012 12.2013884600000004
 16.6859496199999988 20.1897967800000018 13.5455853600000005
 15.1019141200000000  1.6251774299999999 14.7555543399999998
 14.8167016500000006  1.9655769900000000 18.4049726999999983
 13.3906603799999999  3.9112299799999999 -0.1807514300000000
 12.1091266199999996  4.9483996599999998  1.2629910000000000
  9.7014221999999997  6.2793299700000000  3.8239954300000001
  8.2024190899999994  7.8745117200000001  5.2772959100000003
  6.0833936800000004 10.1262147799999997  6.3913081099999998
  5.3805567800000000 12.5312533800000008  8.3035190199999995
  3.6742503399999999 14.1497815100000004  9.9407928999999999
  1.6308141700000001 15.1573486299999995 11.3933105399999999
 -0.3864847800000000 16.3446319799999991 13.4055759800000001
 18.3378052300000007 18.3489082400000001 15.2840097999999998
 16.0061478699999995 20.4816454700000001 16.7732269500000015
 16.8866320399999985  0.3428801400000000 -0.0574198700000000
 15.2171971700000004  2.6541805799999998  1.5425455100000001
 14.0538909800000003  3.5103395300000000  2.8739234200000001
 12.3050049300000008  4.9301872400000004  4.8514902800000002
 10.3470789799999991  6.8176305900000003  6.3985221399999999
  8.6297233900000005  8.5500694900000003  8.4543643500000005
  6.3150017800000002 10.2669826900000007 10.6322042400000001
  5.0869751200000000 12.3636733400000001 11.6883832099999996
  2.9917742700000001 13.1220366700000000 13.5612233399999997
  1.4795923900000001 15.0984226699999997 15.4246146599999996
 -0.1456280800000000 16.2783986399999989 17.3929817100000008
 18.0762082299999989 18.6200640200000009 18.3701791300000004
