Li                                      
   1.00000000000000     
   -11.1791050000000016   19.3627778431472777   -0.0000000000000023
   -19.1641800000000018  -11.0644444817984429   -0.0000000000000019
     0.0000000000000000   -0.0000000000000001   23.4479499999999987
   Li
   504
Direct
  0.0043127291710832  0.9948459244152303  0.0001069441038553
  0.9238485072943874  0.0400574098585409  0.6526482733032068
  0.8607424835814257  0.0877583245451916  0.3286429060962703
  0.7764087727086988  0.1316232725307529  0.0206776562556641
  0.7205331385295395  0.1705172675480355  0.6743313807816875
  0.6414966481397144  0.2095879914140895  0.3391295712418341
  0.5714121845129512  0.2533988055346157  0.9973230585189725
  0.4971402750602252  0.2864140226909200  0.6790701332099403
  0.4272657498526016  0.3437253375565277  0.3548472642597744
  0.3554877063419468  0.3659992149204498  0.0149280325145682
  0.2846515914579015  0.4155777685596291  0.6668152964331640
  0.2196667293146817  0.4583641960148910  0.3411400945498428
  0.0659560444529745  0.0553100019763733  0.6601827788783226
  0.9959191470168633  0.0788963704154355  0.3312834409831140
  0.9319688833922228  0.1319831021116258  0.0026926631112758
  0.8631005694555967  0.1637790126421308  0.6754648146213214
  0.7908673585113348  0.1992633312841505  0.3465637810554867
  0.7134194177600222  0.2546197922280982  0.9973028721060899
  0.6409680611270403  0.2975355362459737  0.6715680918801041
  0.5755408480277993  0.3360393968387001  0.3558399612759331
  0.4964664615214858  0.3675600295798134  0.0025269825293890
  0.4306071123551263  0.4183379402215621  0.6704936990227282
  0.3546297048115363  0.4653986731387860  0.3346013220771979
  0.2859605055482746  0.4875898062230064  0.0079099853078830
  0.1451280021157331  0.0805433128841386  0.3277295652711629
  0.0645268528782665  0.1195484219180898  0.9952655481609298
  0.9953365803029612  0.1628901616689191  0.6696345326563744
  0.9297403790246435  0.2063162958260563  0.3321681613957708
  0.8525047209160306  0.2546036862461136  0.0135962205651268
  0.7935430197783475  0.2887082551865419  0.6780556108316489
  0.7084491472540932  0.3340687431283769  0.3396582289709755
  0.6441949583999644  0.3749856962090874  0.0056586025644023
  0.5646965067113356  0.4143544048501298  0.6785544552935363
  0.4931450649379130  0.4647506321077799  0.3563883311760705
  0.4318151367470477  0.4973894930915606  0.0216100819048179
  0.3489316618340794  0.5432562846170512  0.6747545576478942
  0.2117472483313705  0.1113942593652624  0.0045638544094473
  0.1410344074442236  0.1654084615448284  0.6593270917073752
  0.0733179844504974  0.2086546955538680  0.3449945892924546
  0.0052067905158495  0.2530063703278884  0.0194545233165400
  0.9309782851343442  0.2956194138107264  0.6722238097573552
  0.8489849171591146  0.3324026171566956  0.3436989114186986
  0.7850223339596880  0.3845006074520043  0.9992386438899743
  0.7236347204924982  0.4130397897519558  0.6637156476365718
  0.6351255609891027  0.4570184294615771  0.3236295343516176
  0.5645986874729445  0.4954364392255641  0.9918191940020336
  0.4982396439835526  0.5336908724894727  0.6813613271096202
  0.4189889098889168  0.5794712433569416  0.3331722043931364
  0.2831519313211786  0.1714378751821215  0.6724677769271921
  0.2153189989856870  0.2142958217802260  0.3291305474465815
  0.1516378685555324  0.2460892642127916  0.0150145778202386
  0.0844860417345004  0.2820325757958670  0.6798634554406675
  0.9980978047197624  0.3343794579662855  0.3558378903059776
  0.9430533046465115  0.3807254814325347  0.0134241155410209
  0.8540822495715901  0.4115828359680904  0.6748897178644597
  0.7831837145585112  0.4648346994580734  0.3401794331700643
  0.7123066809582568  0.4992009421413357  0.9980679138261550
  0.6438495501652568  0.5390681930820875  0.6631597598084298
  0.5694947163766173  0.5784836334599532  0.3259427016007805
  0.5017444450954684  0.6312374829035718  0.9979298774519734
  0.3550237343000617  0.2089784742560070  0.3256749835273425
  0.2822232821484434  0.2408927460198100  0.0089704989135484
  0.2203772398629411  0.2984027198639296  0.6703945176443966
  0.1357069801586661  0.3376923906774678  0.3334806228263005
  0.0816540814807425  0.3793862074687340  0.0048383240325904
  0.0048358995295601  0.4158970700228011  0.6767133135306054
  0.9217158080167351  0.4596840178928119  0.3278983872790562
  0.8601044872294281  0.5036373951972450  0.9971784424651204
  0.7879519322669921  0.5365697397036797  0.6658884699941794
  0.7110624743489353  0.5939631514467862  0.3314356653779953
  0.6425121093760708  0.6232711264198869  0.0027916316778231
  0.5703704242839720  0.6617748026805685  0.6553391993756392
  0.4259364830620598  0.2439839660511680  0.9978762595450803
  0.3632740854336021  0.2925290409064658  0.6793645551103609
  0.2858564888947299  0.3364456901215931  0.3341328576698572
  0.2136738178229649  0.3660424680213907  0.9984557430393721
  0.1470204568291251  0.4226123364505696  0.6691248808531256
  0.0678378268081019  0.4525677478055599  0.3454710010896491
  0.0009840591670809  0.5041696852797770  0.9969327544625415
  0.9280774646981840  0.5363786415075040  0.6831795436274817
  0.8583633801443611  0.5823087638089035  0.3198111694199284
  0.7886379236858900  0.6251140630140952  0.9930266291935936
  0.7227703540428578  0.6622645483014509  0.6543429161184662
  0.6364007955184832  0.7147685512667579  0.3252918122906294
  0.1464507687077017  0.5056491709682263  0.9932009497631995
  0.0693981783885604  0.5399383765434038  0.6688633684394603
  0.9940665911682629  0.5760709104348791  0.3333924526451142
  0.9275555431814411  0.6231559127206410  0.9869674142089195
  0.8605188723493242  0.6548443346663078  0.6630191526338152
  0.7874885853957423  0.7099545771099827  0.3195535272806396
  0.7181833444087644  0.7489165481436331  0.9883233826411271
  0.2077395740471601  0.5501068482487383  0.6670043807667625
  0.1370973353244409  0.5832499957309878  0.3198364974336769
  0.0696895096689047  0.6356285546270612  0.9905763923925122
  0.9992464151407248  0.6633467074650810  0.6715776470864228
  0.9311057176483217  0.7036992460052574  0.3294308248695543
  0.8635459078986472  0.7467695034841384  0.9877620508402671
  0.7927219791774434  0.7958929758000366  0.6724992952475617
  0.2839463744860780  0.5880357779592345  0.3317183152471728
  0.2244075355257209  0.6269971753326615  0.9997912175691255
  0.1381956440391292  0.6668966459688832  0.6707432709469288
  0.0715632871730847  0.7062726559939918  0.3326461311116731
  0.0053442351257189  0.7549319863612709  0.9877063645222748
  0.9255252109195240  0.7854068969809020  0.6489038542815067
  0.8551627075744221  0.8368580132278680  0.3314358061152447
  0.3708758018408460  0.6241731584269203  0.0128209404233601
  0.2846816756801260  0.6722438333388610  0.6732168556313027
  0.2099275334226718  0.7066851721011247  0.3278109821967377
  0.1483956172797107  0.7496231215157820  0.9810032557217170
  0.0692598132600679  0.7842644112758990  0.6654033879294374
  0.9991226285224215  0.8261951478159659  0.3244686810574038
  0.9330220329396255  0.8741716163412363  0.9882304133197124
  0.4370468444180844  0.6664794854948966  0.6786442580268215
  0.3451127204080748  0.6985612570807902  0.3302666279994639
  0.2924057146352723  0.7527688548892897  0.9866952010730117
  0.2123300113703195  0.7977727932131700  0.6598435590318132
  0.1424671619227382  0.8317189427261553  0.3348364381534452
  0.0685434814527426  0.8835416482090181  0.9888710198546136
  0.9977979805057728  0.9158764667801123  0.6650413652366183
  0.9361841977437706  0.9540375035134119  0.3222736162436348
  0.8584224614628013  0.0015565152774002  0.9972579184960750
  0.7841572585518861  0.0401932480354645  0.6811323198829768
  0.7191409019026267  0.0815480770810879  0.3359558984900630
  0.6434563690079997  0.1381378701275437  0.9980459763007019
  0.5796371517255992  0.1637087059795164  0.6748181572376240
  0.4933449073241718  0.2080545439360222  0.3441009226819389
  0.0741545818921523  0.9511744229493004  0.3307679234218739
  0.1381083922448809  0.0031800500576225  0.0011361061414732
  0.2132118383319863  0.0439397721187973  0.6575956136890468
  0.2830798754696104  0.0840269940450540  0.3273893069543377
  0.3490247803838145  0.1218031485034814  0.0184624903243176
  0.4247517099105380  0.1721870393609635  0.6734237602860773
  0.8548785958551548  0.9164179612528471  0.6631308792453083
  0.7935189104042806  0.9556064142115659  0.3120391769856212
  0.7098021267644938  0.0027880580163853  0.9999015099401021
  0.6375961295986556  0.0398808699158053  0.6619616017604955
  0.5740573345037561  0.0821368491405536  0.3348825662797807
  0.4928709999727943  0.1300662731120852  0.9904322535658778
  0.1371107328953443  0.9170116274391091  0.6557475037263387
  0.2119278588791360  0.9630907830736817  0.3407371851270611
  0.2854846142163012  0.0028277897510591  0.9972708249548461
  0.3585674936482803  0.0484675748672245  0.6611103209448999
  0.4256883010422072  0.0857512372236897  0.3192412053079252
  0.7852366606655679  0.8784781848516516  0.9908603366179136
  0.7160836214729898  0.9134020154670424  0.6638009949697121
  0.6387382546680413  0.9666229237853727  0.3292904096093707
  0.5664007705414988  0.0034014658616073  0.9979427937197087
  0.5102320432295286  0.0494949522688941  0.6649118106273662
  0.2254148675489773  0.8787089662646110  0.9895443840506317
  0.2894676520756718  0.9180404788173888  0.6490665017624124
  0.3487614035633300  0.9631000413071718  0.3375874061485149
  0.4199486859927930  0.0068661849698017  0.9948882345791432
  0.7159719737382844  0.8285850079952581  0.3244985237515436
  0.6423628910451953  0.8839722843817057  0.9950736674208187
  0.5734487216288144  0.9172201377150344  0.6535420640183887
  0.4959526813573873  0.9642192689733804  0.3397124047091538
  0.2792789802967022  0.8311982419790596  0.3405287170093771
  0.3594802568240212  0.8878711342482362  0.9950983032631839
  0.4293921035088033  0.9179264846554460  0.6694951712196584
  0.6459743133508269  0.7958263387083733  0.6632586187705130
  0.5684806135510740  0.8405734109493892  0.3196057693742986
  0.4981322606734508  0.8839349689913263  0.9992213715911191
  0.3563077517278899  0.7841783792012009  0.6651275309781894
  0.4241809594149260  0.8426159666471449  0.3373807339234318
  0.5728237728449841  0.7601569848994174  0.9946643182026591
  0.5022249252463524  0.7950778513379575  0.6807085135374322
  0.4363467367674190  0.7542631426583171  0.9979663113406474
  0.4965373591113078  0.7105205975978137  0.3270806172821068
  0.0050347350012956  0.0065902933897135  0.7727126976985161
  0.9055441135280589  0.0378128489055030  0.4333938681206675
  0.8546204852638510  0.0811728657362067  0.1250269537422284
  0.7777173867812408  0.1206893565415754  0.7827949731213195
  0.7086722085264157  0.1613222579991103  0.4359069321625100
  0.6660958552137330  0.2080464175613557  0.1229930518446167
  0.5773223752379195  0.2504239883139192  0.7762644009390982
  0.4943093801045819  0.2814493052833953  0.4724546218326111
  0.4327128351229277  0.3328872120441915  0.1239404293339064
  0.3605932185494893  0.3597995488221954  0.7864463405116453
  0.2852748203665882  0.4035342414476304  0.4400693621403988
  0.2106392218965851  0.4567365001424406  0.1091223548327278
  0.0665139347122619  0.0498845669310413  0.4401348723449203
  0.0005023193960767  0.0818966185209931  0.1049086210095140
  0.9344928845062128  0.1260963486229087  0.7832266249288296
  0.8532365697030855  0.1563672292500584  0.4456497804712143
  0.7930140831122685  0.2036931498456624  0.1365632500922231
  0.7047959745662027  0.2523088515525842  0.7714544712864040
  0.6502932947715578  0.2779472394306879  0.4518230514821155
  0.5818475052088914  0.3369606868272896  0.1134879070451760
  0.5042495040340427  0.3718267673443663  0.8042002418121825
  0.4302098518478061  0.4052855120416794  0.4436436456065422
  0.3525796972623070  0.4574452208983857  0.1312989092863148
  0.2917615839610335  0.4936075536721773  0.7771404979966263
  0.1383541675616087  0.0735420708656065  0.1099505594305654
  0.0758875024472943  0.1204154553940739  0.7840674532315219
  0.0007083201610314  0.1649833165074739  0.4493492066470637
  0.9192176775932666  0.2067304901294378  0.1197293034145872
  0.8497081979560193  0.2528597412301963  0.8000386362134009
  0.7795209017883451  0.2889325198998023  0.4527753010391109
  0.7217384449502049  0.3414618372069640  0.1175741747146333
  0.6368003170935523  0.3838362022887409  0.7913959032665971
  0.5682067082766196  0.4212793908464292  0.4448101394791451
  0.5097013678146354  0.4616562060341991  0.1020422390869982
  0.4403197805534091  0.5026261499117837  0.7801600634597037
  0.3644857550818941  0.5332426325016399  0.4419893517343709
  0.2198315762366221  0.1222579331302072  0.7739320136728338
  0.1364575321695725  0.1531170501339219  0.4392165063470372
  0.0608138266629510  0.2025207708486931  0.1301930761537804
  0.9974156444979059  0.2410467842357562  0.7818429969357652
  0.9217984725446584  0.2802703448090966  0.4680393578116622
  0.8637258683702882  0.3377386142413812  0.1165736339424157
  0.7848238633090077  0.3825123446744385  0.7806561183387046
  0.7131818841518083  0.4125154445934598  0.4320069750234055
  0.6475755625754331  0.4626662299422719  0.1044237300062463
  0.5765250728687121  0.5074728673633828  0.7841257073646091
  0.4946566672621771  0.5475822773385559  0.4623485532850395
  0.4364927779315195  0.5795586601546177  0.1143354250584778
  0.2729599856379679  0.1564214430126754  0.4257752165967617
  0.2125311435520629  0.1992737774567672  0.1172330438268574
  0.1387335563137100  0.2475822762542208  0.7722455293533130
  0.0664653671047688  0.2895344680686733  0.4514420377900876
  0.9989714351862915  0.3311574256791445  0.1249410421806587
  0.9352023195317614  0.3761005795035786  0.7908212402363546
  0.8524464003824477  0.4123220050767884  0.4473252002840340
  0.7851579376009710  0.4701498151225536  0.1043540876707780
  0.7187515165084832  0.4965181666026126  0.7717788454854286
  0.6315494256014347  0.5363937913603323  0.4291302962519126
  0.5753961044741729  0.5847737013267604  0.1140943054723351
  0.5020996787210734  0.6331877362407781  0.7762066555924960
  0.3763359098765093  0.2145203540260994  0.1152878464855149
  0.2829426219058320  0.2429689520104361  0.7820730844274237
  0.2028380426322229  0.2776705882234438  0.4580579892911771
  0.1504708376125876  0.3361363750961956  0.1070980746717751
  0.0812320350460638  0.3598942219733061  0.7880434890896666
  0.9917647681434829  0.4220124269143426  0.4478120074462808
  0.9184737669187442  0.4514027696394933  0.1203514580165859
  0.8675885878043772  0.4910912394964555  0.7855693077646464
  0.7797034247584307  0.5429489566350298  0.4404483556131780
  0.7207777744369537  0.5826850205906524  0.1080565998306895
  0.6417747558958453  0.6244814626814659  0.7644978767866704
  0.5676149992521644  0.6644936863348789  0.4340074172795525
  0.4271540887985168  0.2503625790481010  0.7825792442409707
  0.3424653678882663  0.2755436743713204  0.4538180314270548
  0.2949965371502330  0.3345792090536150  0.1203972556236295
  0.2236252748796090  0.3705264149818603  0.7916640832141013
  0.1431641135755015  0.4228986203483558  0.4445724717939115
  0.0678557437822533  0.4457111019310531  0.1008002806215487
  0.0041144541915870  0.4891716908615251  0.7977167095630975
  0.9269431150710901  0.5340578797315203  0.4473326742849579
  0.8684828408414020  0.5890890996398284  0.1059833307389368
  0.7798465440723064  0.6176778468960578  0.7694642085981940
  0.7168785215511733  0.6732659245182759  0.4439368644167203
  0.6502923916197147  0.7095768409283423  0.1050148853098065
  0.1456031841510708  0.4925232890758124  0.7878434541185939
  0.0538748934282438  0.5418181972566458  0.4444281726121062
  0.0052314035155590  0.5726641213348103  0.1003623749624154
  0.9321106440264515  0.6213473615260696  0.7842234920323534
  0.8590124340005119  0.6606870246471672  0.4388055318268798
  0.7864852565599847  0.7073313398206480  0.0882787655210819
  0.7233113693693554  0.7687012475423529  0.7800978712424751
  0.2193804936476198  0.5258721701925921  0.4401624167571185
  0.1445871925244262  0.5664883680446664  0.1044278062687809
  0.0678223276745769  0.6298421809637276  0.7913449627792630
  0.0087478256597464  0.6646384018741216  0.4537850579688225
  0.9316637975262481  0.7091686924645515  0.1123604242588385
  0.8618843862564205  0.7520323493193501  0.7689188082540284
  0.7921519492134763  0.8036918216061366  0.4647322371465279
  0.2896936326851716  0.5776738672033446  0.1136117033685267
  0.1997008795977280  0.6193286213333735  0.7683347533579692
  0.1430858423075350  0.6643088389292231  0.4354539586616326
  0.0697397156571782  0.7032699033299750  0.0941628018654086
  0.0167452405186879  0.7434564436355373  0.7611867510805865
  0.9376289477386521  0.7925747604223190  0.4343602788303471
  0.8585979872376370  0.8256716592038771  0.0965169505223287
  0.3550136074530670  0.6243843533014939  0.7917941504481192
  0.2912016907559973  0.6542442756674802  0.4407829464835942
  0.2132603782131000  0.7080501419636036  0.1010334370382040
  0.1562738726899298  0.7586057378109885  0.7722027038611046
  0.0752525250695228  0.7853287988702178  0.4469934800270394
  0.9947268037375849  0.8403359880100894  0.0808696474531914
  0.9420188986491453  0.8786693362312832  0.7677579370478043
  0.4294358330075880  0.6733614149963998  0.4341454476830577
  0.3604071274227891  0.7198177626067093  0.1035505321360688
  0.2921238748380617  0.7489175461813886  0.7912043956934411
  0.2203844881938295  0.7935150507931965  0.4403824556091251
  0.1376345023228396  0.8391202366555817  0.1049647158920095
  0.0843620753141536  0.8689118544099017  0.7729847312878064
  0.9959549703207671  0.9177605444904131  0.4500352154452756
  0.9325667987930757  0.9657065419328319  0.1009654255489281
  0.8467276616905224  0.0029377893318241  0.7795573024507476
  0.7799811392002383  0.0299397055788972  0.4352680340925303
  0.7126110214529859  0.0754361927836058  0.1066626178407901
  0.6190359772568428  0.1274724643302321  0.7821981772393727
  0.5705347814199797  0.1656374377799636  0.4391602481240398
  0.5256727165674633  0.2075955076531883  0.1191132879420138
  0.0714405966952896  0.9578560803687211  0.1026016133606547
  0.1488223870892682  0.9990730659166402  0.7685452672834927
  0.2113613442606948  0.0433174349003451  0.4407269603526132
  0.2862374959305285  0.0837651800419081  0.1188783706038237
  0.3518563603322420  0.1322079224327908  0.7901885563556732
  0.4209895847594112  0.1651410124549102  0.4532158453084421
  0.8558042358595799  0.9136986084393328  0.4278910454858504
  0.7806326096710734  0.9570902746719696  0.1128782362637253
  0.7066487960455703  0.0075912244031855  0.7799659786889706
  0.6376821626566880  0.0474402461797894  0.4554427888152262
  0.5769187609524309  0.0916487089373419  0.1110953780607673
  0.4915920244866925  0.1246082676691955  0.7750579453640967
  0.1291048961835983  0.9209637338800505  0.4336964937233319
  0.2097349553021530  0.9547166224960790  0.1010200849114753
  0.2966028382117543  0.9908996799410517  0.7566495685123868
  0.3502988475692419  0.0330173308560262  0.4486161357389449
  0.4433224123758990  0.0937129302269426  0.1215116600811612
  0.7934149392320577  0.8771463431128410  0.7791997931588881
  0.7022896613099263  0.9190191464389201  0.4433683068242615
  0.6453728794528644  0.9607186034802453  0.1125704281184525
  0.5504622435703581  0.0025269920545199  0.7719123838118023
  0.4962941139458650  0.0463427806103454  0.4322369878816730
  0.2153778851634627  0.8812401859656802  0.7652706876294104
  0.2794643022846302  0.9021201919940438  0.4558497216174544
  0.3582293901734772  0.9731376569811374  0.1116237027117535
  0.4276391942450601  0.9906406141780693  0.7667382270091849
  0.7202951076393518  0.8334067124559112  0.1151600225179621
  0.6436486143997371  0.8730205104794919  0.7878506688217968
  0.5661310224397837  0.9072227904553358  0.4340738682912573
  0.5009154144363777  0.9651730726750216  0.1105949492386316
  0.2876040815041492  0.8344153068086655  0.1015141443068615
  0.3524328471616442  0.8657669112965465  0.7746489202680849
  0.4247033413582315  0.9256722047645880  0.4382530984585031
  0.6503347704366789  0.7937317456910478  0.4510852462582022
  0.5744875011574777  0.8337074512644378  0.0913552924669290
  0.5001639636173181  0.8693068032916500  0.7804024437104289
  0.3494588987749410  0.7967486408189899  0.4410019954836173
  0.4379893891635831  0.8376913251521572  0.1042969901419966
  0.5839849517628295  0.7472108462675351  0.7627305231374208
  0.4964644958680751  0.7905873823935394  0.4429279877345351
  0.4272525071289195  0.7469805747646134  0.7783865297392722
  0.5066586644585342  0.7152355019029386  0.1058380156900682
  0.9942562912833282  0.9983981919828082  0.2019762763909014
  0.9279762264622633  0.0339627423075015  0.8839014920280874
  0.8522924663383975  0.0889794146211358  0.5585246189965432
  0.7871719042609513  0.1296413741269831  0.2321216775880188
  0.6973978654803759  0.1747555144555619  0.8875267040402264
  0.6336326016367479  0.1948187297802235  0.5582555562426563
  0.5774804220568939  0.2448080990880754  0.2377776087035315
  0.4958643142216062  0.2925462965576244  0.8969550434046454
  0.4141260720469049  0.3329751989049399  0.5708614637953460
  0.3670901147298267  0.3816507052727118  0.2321666691544451
  0.2772263692386261  0.4257554807726009  0.8998077469458963
  0.2258512350871626  0.4537629086442010  0.5585083020050803
  0.0674082153833169  0.0355435449034189  0.8900961687482294
  0.0027547654677278  0.0831820488842112  0.5515559842118378
  0.9287353348328153  0.1317094180232985  0.2203111039557797
  0.8561548983799980  0.1578125995866060  0.8952163370358619
  0.7837037781390350  0.2184194484338491  0.5574915926552251
  0.7257254477853934  0.2472962682481068  0.2408336690414288
  0.6378342674253830  0.3001692580561013  0.8957548681228005
  0.5553454446826791  0.3273894073537562  0.5530705485980647
  0.4988487274456261  0.3869259178722473  0.2342903469173194
  0.4036975766516022  0.4162195607829915  0.9044868736925835
  0.3515016641655464  0.4546188706544498  0.5632059126704050
  0.2897474617990028  0.5051839604441994  0.2156024415780493
  0.1478803659095078  0.0879994313380053  0.5340963892365878
  0.0817266221361663  0.1217965375948467  0.2187882697634578
  0.0047375975245032  0.1601533245787650  0.8928408308615445
  0.9225265312464614  0.2007762425478177  0.5651352267469036
  0.8548174313823083  0.2523890037949386  0.2305989743239820
  0.7843579577363755  0.2829994538185048  0.9085615028179461
  0.7037192996805999  0.3163033371813526  0.5750828387982736
  0.6508159546323427  0.3742179919772113  0.2158026125951338
  0.5653117857095040  0.4250766612407091  0.8867546745024626
  0.4992202146789779  0.4518919589557768  0.5669855266665138
  0.4389015233108680  0.5053335736904927  0.2279648779530845
  0.3531694411818904  0.5514718466553887  0.9054767789934743
  0.2196743516994459  0.1267174038516075  0.2203324013399879
  0.1389316773182827  0.1808701129624524  0.8751749683874266
  0.0775812537301874  0.2044211794357267  0.5589756793237797
  0.0015456805903327  0.2468918098444206  0.2340282928784845
  0.9248790638989917  0.2811831177943134  0.9010524655673535
  0.8592916985846770  0.3178764526263862  0.5697937576632484
  0.7780695127758079  0.3803529214075638  0.2142861414324102
  0.7045620512836592  0.4227078904333297  0.8895180069046518
  0.6516507560079177  0.4525506452797927  0.5497401252561502
  0.5762207674929840  0.5004367276353747  0.2172082791885828
  0.4925217068697094  0.5416940184304408  0.8922635138679524
  0.4217951329050962  0.5807200193676394  0.5588360692512566
  0.2790663235703832  0.1646350460516786  0.9144075959732092
  0.2097471758655445  0.2038910189502303  0.5679424649063165
  0.1444438934437784  0.2477072250721477  0.2220304615115580
  0.0697962958154434  0.2907136924443421  0.9011493401342108
  0.9967645871936952  0.3338508164440128  0.5644938372011197
  0.9300475477391785  0.3760651840481160  0.2327629831179294
  0.8542827328647817  0.4182464649996831  0.8977395942928936
  0.7973092428125739  0.4555174188056981  0.5514153889785689
  0.7187773319019755  0.5009817171957209  0.2216563302975345
  0.6294933617998808  0.5540323907224902  0.8791511496740654
  0.5653411487872901  0.5864552856885226  0.5500709592949491
  0.5110028003888587  0.6339840018805347  0.2195196714424910
  0.3535157210429531  0.1953031319529472  0.5736753856946990
  0.2866415287081381  0.2583721465364661  0.2221464942564282
  0.2233587462381834  0.3035813138435870  0.8976180514714542
  0.1408337843500007  0.3357904109230887  0.5657378495774665
  0.0735074800093329  0.3782348930499637  0.2388685334965288
  0.9956623041138855  0.4021476811305789  0.8983793892429830
  0.9311272398561101  0.4522282548634138  0.5621793726104016
  0.8652697945268457  0.4910794974612003  0.2239276973040276
  0.7891594063067586  0.5372090308669115  0.8844338012491519
  0.7103418272961264  0.5739953140058560  0.5375615923780117
  0.6450861557329333  0.6197717711384030  0.2216876605417539
  0.5760828065963608  0.6681160527799577  0.8898498947669182
  0.4469107922618178  0.2655632355609256  0.2333792169464743
  0.3659377741638821  0.2973003363126239  0.8846595766367642
  0.2821087085258256  0.3228163227425043  0.5604554214760782
  0.2337865101700700  0.3831129385773480  0.2238203348267120
  0.1362032536056361  0.4166490001972960  0.8997601261517545
  0.0767568911952807  0.4703623585175265  0.5618706748351130
  0.9920289407532152  0.4969056650626840  0.2187729622418999
  0.9349683116106320  0.5366083898623373  0.8924437650199692
  0.8459465847090826  0.5811058926155894  0.5418544456978083
  0.7805379890854454  0.6263823332657594  0.2114486784559020
  0.7145721788290302  0.6667351988340471  0.8725954158039428
  0.6451198526061575  0.7005450288053652  0.5462878729270599
  0.1414652275581574  0.4976212364566877  0.2156193974313325
  0.0648804732759487  0.5387293975948069  0.8967579391801834
  0.9960342484075824  0.5903675504746602  0.5579928151501505
  0.9331787679613370  0.6242539309894610  0.2107639247780710
  0.8494235078791448  0.6740980697296095  0.8833351081864294
  0.7768336179703468  0.7132759641779458  0.5620633240858979
  0.7178443942757227  0.7588544337785521  0.2192064803106462
  0.2100377287592892  0.5448315584720191  0.8842575495938902
  0.1367232491310943  0.5837813077325649  0.5589913757919120
  0.0735232085238522  0.6281364703303254  0.2114175085668464
  0.0059615161877034  0.6733281692500483  0.8807538108875193
  0.9249615655209169  0.6943421632481730  0.5496118543412081
  0.8683556835158157  0.7513599912247741  0.1986994432349078
  0.7659611998237636  0.7925270557490123  0.8815720909503852
  0.2885586290430879  0.5825308897782833  0.5558798551685769
  0.2204970094274401  0.6288360748763893  0.2125363718363431
  0.1356271622212333  0.6711784377247980  0.8911118012448824
  0.0780090684300703  0.7104400419463843  0.5518378996884579
  0.0055344929161194  0.7636182118185530  0.2048249301111582
  0.9123836544024542  0.7916983850679316  0.8692328821922573
  0.8660130596596503  0.8385155584373294  0.5511363270563123
  0.3629650027675737  0.6329209636277682  0.2363799675451403
  0.2754308463089998  0.6774824484466748  0.8941868568467584
  0.2173890580711060  0.7001270935658113  0.5486152026083317
  0.1489796479068062  0.7464143074833771  0.2117229459291750
  0.0669708472673634  0.8019607077609976  0.8668589642164903
  0.0057124625589964  0.8129008113701914  0.5561683810311777
  0.9353021413197027  0.8746564379724120  0.2012617303431625
  0.4217313224264529  0.6676169940381413  0.8893776854693058
  0.3571329818590669  0.7026148688247744  0.5577290650142146
  0.2843220888421953  0.7663136912204820  0.2163469309683776
  0.2237360811159661  0.7994376616644274  0.8881643452839185
  0.1412389625604717  0.8516333856938019  0.5500535752592413
  0.0612329092829569  0.8723462479307926  0.2175454331828561
  0.9901248742656961  0.9108072125951665  0.8723416908514423
  0.9291344930572407  0.9569711134518286  0.5541586066159283
  0.8508715517756116  0.0053062709277185  0.2225936791915686
  0.7752160979758074  0.0524995336632301  0.8953911736420466
  0.7176019160650071  0.0873704172110763  0.5472538823223374
  0.6382928548688369  0.1221737024319083  0.2309288133930707
  0.5595169527963932  0.1694380607680088  0.8994175495085912
  0.4965068990087929  0.2011727797775009  0.5500804411473084
  0.0748395949477612  0.9595797519080662  0.5611395145417859
  0.1368237088852098  0.0006366310420134  0.2081093942114336
  0.2075751158251862  0.0401905865423444  0.8780198546141591
  0.2921080190521650  0.0926542024586396  0.5503608196025667
  0.3666877088526590  0.1331737627452227  0.2271944387462455
  0.4273714560555391  0.1729504001085473  0.8937545081766203
  0.8474695301216499  0.9186600526852402  0.8739768593842996
  0.7859519445144159  0.9630000353429722  0.5561394710411776
  0.7188643132281740  0.9927982074719282  0.2167422077409782
  0.6306514759624378  0.0408742749134561  0.8775619847364027
  0.5678214875344381  0.0720017203760506  0.5492400384681844
  0.5119840603852666  0.1319026167895956  0.2239910943174124
  0.1488448924609500  0.9171421567980147  0.8779458963363567
  0.2160599252063804  0.9700138059559933  0.5508071938058521
  0.2816616760221962  0.9965555405591005  0.2251559419906641
  0.3556978143939702  0.0372806759600124  0.8817647094948597
  0.4392848626066552  0.0860130407880533  0.5478329269722906
  0.7839344184490500  0.8721116793436536  0.2126160316786780
  0.7195039731103421  0.9211541045159422  0.8822147731464796
  0.6474184439081654  0.9590038820661277  0.5409221829626887
  0.5748758409081347  0.0013764174895385  0.2252327256753759
  0.4882416381981969  0.0342347557375433  0.8847513923392043
  0.2065391747981309  0.8868780473945819  0.2206476182352830
  0.2887369870591172  0.9173693304009092  0.8758041867199466
  0.3562962145954742  0.9597538436778734  0.5575733332764727