Li 
 1.0000000000000000
   -11.1791050000000016   19.3627778431472777   -0.0000000000000023
   -19.1641800000000018  -11.0644444817984429   -0.0000000000000019
     0.0000000000000000   -0.0000000000000001   23.4479499999999987
 Li 
 504
Cartesian
  0.0505611800000000  0.1405334000000000  0.0025076200000000
 -11.0954668800000000 17.4450604200000008 15.3032640799999999
 -11.3041469299999999 15.6953683799999997  7.7060024299999998
 -11.2020072800000001 13.5770921900000001  0.4848486500000000
 -11.3227392200000008 12.0648442500000002 15.8116885000000007
 -11.1879403800000006 10.1021823899999994  7.9518932299999996
 -11.2440571299999998  8.2604101700000001 -0.0627687900000000
 -11.0464732199999993  6.4570046500000000 15.9228025300000002
 -11.3636629199999994  4.4699218800000002  8.3204409100000003
 -10.9881092299999992  2.8336514899999998  0.3500317600000000
 -11.1463571899999998  0.9135083800000000 15.6354517299999998
 -11.2398513900000001 -0.8181871200000000  7.9990358800000001
 -1.7973003800000000  0.6651177900000000 15.4799327899999994
 -1.4663639600000000 -0.9519611600000000  7.7679175599999999
 -12.9479259300000002 16.5851867400000010  0.0631374300000000
 -12.7873823699999996 14.8999007900000002 15.8382652000000004
 -12.6599075899999995 13.1086509000000007  8.1262102100000000
 -12.8549701100000000 10.9965551399999999 -0.0632421200000000
 -12.8674738299999998  9.1188567500000008 15.7468950400000001
 -12.8739510599999996  7.4259803299999998  8.3437176199999996
 -12.5940372699999994  5.5461222599999997  0.0592525600000000
 -12.8309057099999997  3.7090729400000000 15.7217027300000005
 -12.8834266500000005  1.7172384100000000  7.8457150699999998
 -12.5410413300000005  0.1420794000000000  0.1854729400000000
 -3.1659477200000001  1.9189142500000000  7.6845864600000002
 -3.0123999399999999 -0.0733177600000000 -0.1110131900000000
 -3.0695235200000002 -1.8925859100000000 15.7015570400000009
 -14.3475479499999992 15.7195812099999994  7.7886624400000004
 -14.4095106600000005 13.6898111700000005  0.3188035000000000
 -14.4039577100000002 12.1708007400000007 15.8990140600000007
 -14.3219809300000005 10.0212583899999998  7.9642891699999998
 -14.3878164599999998  8.3243954500000008  0.1326826300000000
 -14.2535639399999994  6.3494916999999997 15.9107109399999995
 -14.4194852299999994  4.4064507700000002  8.3565757699999992
 -14.3593685299999994  2.8578021300000001  0.5067121200000000
 -14.3118049099999993  0.7454572500000000 15.8216111300000009
 -4.5019243600000003  2.8674993299999998  0.1070130300000000
 -4.7465559800000001  0.9006651600000000 15.4598686799999996
 -4.8183255899999997 -0.8890084500000000  8.0894158800000007
 -4.9068668799999999 -2.6985570100000000  0.4561686900000000
 -16.0728076599999987 14.7554611199999997 15.7622702799999992
 -15.8611151199999991 12.7608560400000002  8.0590348899999995
 -16.1444859500000000 10.9459274299999993 -0.0178522400000000
 -16.0051574000000016  9.4415225100000004 15.5627713199999995
 -15.8585187800000007  7.2411401000000000  7.5884491399999998
 -15.8063411100000000  5.4504699800000003 -0.1918231300000000
 -15.7976212399999998  3.7423105099999998 15.9765263300000004
 -15.7890122300000009  1.7012617800000001  7.8122051900000002
 -6.4508514699999999  3.5857430899999998 15.7679908100000006
 -6.5138774000000002  1.7981097200000000  7.7174366200000000
 -6.4112746100000004  0.2132893600000000  0.3520610700000000
 -6.3494013799999998 -1.4846493199999999 15.9414043099999994
 -17.5659482800000006 15.6262231099999997  8.3436690599999999
 -17.8387835700000004 14.0476156799999998  0.3147679900000000
 -17.4355226999999999 11.9834694200000005 15.8247803600000001
 -17.6634688299999993 10.0214745500000006  7.9765103399999999
 -17.5297278900000002  8.2688549099999999 -0.0453034600000000
 -17.5284616100000008  6.5022257100000003 15.5497368900000001
 -17.4526057100000003  4.6263996299999999  7.6426881699999996
 -17.7062025799999994  2.7308741400000001 -0.0485401300000000
 -7.9737486999999998  4.5620149699999999  7.6364107299999997
 -7.7715156500000004  2.7992822999999998  0.2103398100000000
 -8.1822637399999998  0.9654552100000000 15.7193771299999998
 -7.9886803400000002 -1.1087146000000001  7.8194369699999999
 -8.1834451200000000 -2.6166477900000000  0.1134487800000000
 -19.2034923400000004 14.8547442499999995 15.8675399400000003
 -19.1134250600000009 12.7608301300000004  7.6885449899999996
 -19.2669960700000011 11.0815441099999994 -0.0661597400000000
 -19.0915164600000011  9.3200921200000000 15.6137195500000008
 -19.3318588099999999  7.1962724099999997  7.7714869100000001
 -19.1271903899999991  5.5446704599999999  0.0654580400000000
 -19.0586023000000004  3.7217852499999999 15.3663607800000008
 -9.4373413100000008  5.5477664500000001 -0.0497973600000000
 -9.6671583400000003  3.7973240800000001 15.9297061200000005
 -9.6433254700000006  1.8123910299999999  7.8347305399999998
 -9.4035857899999993  0.0872621000000000 -0.0362096600000000
 -9.7425760100000005 -1.8292462899999999 15.6896067499999994
 -9.4314559700000000 -3.6938819500000002  8.1005867600000006
 -20.8521044999999994 13.8034744699999994 -0.0719206200000000
 -20.6543322600000003 12.0354260699999998 16.0191597799999990
 -20.7552043200000007 10.1773764500000006  7.4989163100000003
 -20.7960645799999995  8.3536810700000004 -0.1635112500000000
 -20.7716826899999987  6.6672524700000002 15.3429999800000001
 -20.8123444900000010  4.4139702700000001  7.6274261499999998
 -11.3275402500000002 -2.7590334799999998 -0.1594237900000000
 -11.1232857599999999 -4.6303766800000004 15.6834748200000007
 -22.1527014199999996 12.8739859600000006  7.8173695600000004
 -22.3115128899999995 11.0651779200000000 -0.3055874200000000
 -22.1693855299999996  9.4165469700000006 15.5464399400000008
 -22.4091148900000015  7.3927135300000000  7.4928751299999998
 -22.3810185500000003  5.6196789799999998 -0.2737927400000000
 -12.8646891700000001 -2.0642114600000001 15.6398853700000000
 -12.7101334099999992 -3.7987519500000002  7.4995101999999996
 -12.9603663800000000 -5.6834943600000001 -0.2209642800000000
 -23.8831762999999988 12.0086235299999995 15.7471190900000000
 -23.8947475999999988 10.2427519199999999  7.7244775099999998
 -23.9648955599999987  8.4580578600000003 -0.2869548200000000
 -24.1145584900000003  6.5431859299999999 15.7687298499999997
 -14.4434898300000008 -1.0082986500000000  7.7781144700000002
 -14.5245621299999996 -2.5922221799999998 -0.0048955200000000
 -14.3254309800000001 -4.7029893600000001 15.7275546800000008
 -14.3351498100000008 -6.4288505599999999  7.7998698500000003
 -25.7065012400000015 11.1133540300000000 -0.2882605500000000
 -25.3982226599999983  9.2306480400000002 15.2154651300000001
 -25.5976512999999990  7.2989565000000001  7.7714902099999996
 -16.1078262899999984  0.2750565000000000  0.3006247700000000
 -16.0654881699999983 -1.9257765300000000 15.7855551700000003
 -15.8898437799999996 -3.7542986599999999  7.6864955200000002
 -16.0248426200000011 -5.4208120400000004 -0.4454347100000000
 -15.8040470699999993 -7.3363876599999998 15.6023453700000001
 -27.0026493000000016 10.2043991500000004  7.6081254100000004
 -27.1831334799999986  8.3936750300000007 -0.2759726800000000
 -17.6583253900000017  1.0882156900000000 15.9128166300000000
 -17.2454050099999989 -1.0468513100000001  7.7440753800000000
 -17.6950320199999993 -2.6671823099999998 -0.3119702600000000
 -17.6623209000000010 -4.7156139399999999 15.4719787800000006
 -17.5318668899999999 -6.4439480600000003  7.8512280600000004
 -17.6986059599999983 -8.4487053099999994 -0.2609517700000000
 -28.7065098600000006  9.1864763099999998 15.5938566800000000
 -28.7490478899999999  7.5712316499999996  7.5566556399999998
 -9.6262241700000004 16.6042214399999999 -0.0642961900000000
 -9.5364469700000001 14.7387468300000002 15.9711565800000006
 -9.6021536800000007 13.0222813500000001  7.8774771100000001
 -9.8405653199999996 10.9306839300000007 -0.0458178500000000
 -9.6171676900000005  9.4120395099999996 15.8231024100000006
 -9.5023492500000000  7.2505198899999996  8.0684612300000005
 -19.0574597099999998 -9.0883778999999993  7.7558297300000003
 -1.6048712700000001  2.6389766300000002  0.0266393600000000
 -3.2255872299999999  3.6422042900000000 15.4192690700000004
 -4.7748880900000001  4.5515007299999999  7.6766081000000002
 -6.2360421300000004  5.4104051100000001  0.4329075500000000
 -8.0481673800000006  6.3192190600000000 15.7904066600000004
 -27.1191763500000000  6.4131686800000001 15.5490597000000008
 -27.1842445499999990  4.7914762599999996  7.3166790199999996
 -7.9883833500000003 13.7128925800000001 -0.0023093900000000
 -7.8920382499999997 11.9043725400000007 15.5216425400000002
 -7.9915325800000003 10.2065460300000002  7.8523096700000004
 -8.0024701300000007  8.1042406200000006 -0.2243440400000000
 -19.1065511699999995 -7.4913795800000003 15.3759346800000003
 -20.8260089099999988 -6.5525524500000003  7.9895884800000001
 -3.2456547499999999  5.4964872400000004 -0.0639935600000000
 -4.9373049900000003  6.4065959299999999 15.5016817499999995
 -6.4021663599999998  7.2937181999999998  7.4855518200000004
 -25.6135571400000011  5.4844899099999997 -0.2143063700000000
 -25.5097746299999990  3.7590821900000000 15.5647725399999999
 -25.6650577200000001  1.6726012500000000  7.7211850599999998
 -6.3970399899999997 10.9294569599999996 -0.0482372700000000
 -6.6524677600000004  9.3318755499999995 15.5908188899999995
 -19.3596732699999983 -5.3577685700000002 -0.2451627600000000
 -20.8294822599999989 -4.5527100699999998 15.2192788799999992
 -22.3558629000000018 -3.9031773599999999  7.9157326200000000
 -4.8262352599999998  8.0554025899999999 -0.1198604200000000
 -23.8830781099999996  4.6953734499999999  7.6088251600000003
 -24.1216461799999990  2.6572676899999998 -0.1155124000000000
 -23.9884152899999989  0.9550289100000000 15.3242216399999993
 -24.0227787299999989 -1.0655289800000001  7.9655594799999996
 -19.0513217700000013 -3.7891299500000000  7.9847003299999999
 -21.0339897700000016 -2.8632645200000000 -0.1149347400000000
 -22.3915277900000014 -1.8421227200000001 15.6982893000000008
 -22.4727738799999983  3.7024807800000001 15.5520549300000006
 -22.4640046200000008  1.7068859900000000  7.4941000999999998
 -22.5085617000000013 -0.1350250900000000 -0.0182572400000000
 -19.0113373800000005 -1.7773903000000000 15.5958770900000001
 -20.8900075399999992 -1.1097558999999999  7.9108865799999997
 -20.9714423900000000  2.6807447000000000 -0.1251108000000000
 -20.8514402300000015  0.9273749100000001 15.9612191899999996
 -19.3328006200000004  0.1033822600000000 -0.0476858300000000
 -19.1673879000000014  1.7528268700000000  7.6693699600000000
 -0.1825814000000000  0.0245685200000000 18.1185286999999988
 -10.8478249699999996 17.1154713299999983 10.1621977500000007
 -11.1095035499999994 15.6496939299999998  2.9316257600000002
 -11.0070968800000006 13.7234082999999991 18.3549373899999999
 -11.0139298199999995 11.9369213700000003 10.2211239500000008
 -11.4333945000000003 10.5955480299999998  2.8839349300000001
 -11.2531178399999998  8.4077625800000000 18.2018088599999999
 -10.9196816099999996  6.4571224999999997 11.0780923500000004
 -11.2168526699999997  4.6953104200000002  2.9061489900000002
 -10.9263727700000004  3.0011042500000000 18.4405544699999986
 -10.9225200099999995  1.0588307600000000 10.3187244000000007
 -11.1077384800000001 -0.9749751900000000  2.5586955200000001
 -1.6995630799999999  0.7359495200000000 10.3202604800000000
 -1.5750970200000001 -0.8964142899999999  2.4598920999999998
 -12.8633272000000005 16.6991920699999987 18.3650587399999985
 -12.5350709299999998 14.7909136199999995 10.4495737700000006
 -12.7687998900000004 13.1012039700000003  3.2021282599999998
 -12.7142804500000004 10.8551506000000000 18.0890258700000004
 -12.5963279499999992  9.5161528000000004 10.5943243200000001
 -12.9621096100000006  7.5379011699999996  2.6610587699999999
 -12.7628132500000007  5.6496145000000002 18.8568470599999998
 -12.5763256099999996  3.8457987400000002 10.4025340199999992
 -12.7080880100000009  1.7655451000000000  3.0786902600000001
 -12.7212173899999996  0.1878213600000000 18.2223515399999982
 -2.9560492500000000  1.8652188500000000  2.5781152199999999
 -3.1560178200000002  0.1370627300000000 18.3847744400000011
 -3.1696883599999999 -1.8117337000000000 10.5363177300000004
 -14.2378512599999993 15.5112496499999999  2.8074067199999999
 -14.3448267600000001 13.6549584999999993 18.7592659399999988
 -14.2515008299999995 11.8968122199999993 10.6166526200000000
 -14.6122259700000008 10.1967756299999994  2.7568733700000001
 -14.4747636800000006  8.0832887200000005 18.5566115700000012
 -14.4255165299999994  6.3408378299999999 10.4298859099999994
 -14.5452677399999999  4.7612648899999996  2.3926813199999999
 -14.5547990699999996  2.9645349599999999 18.2931541600000003
 -14.2937823200000000  1.1574232000000000 10.3637442199999992
 -4.8004933100000002  2.9038338600000002 18.1471191599999990
 -4.4598357899999996  0.9480417799999999 10.2987266799999997
 -4.5609886599999996 -1.0632552099999999  3.0527607400000001
 -15.7696781799999997 16.6456887800000004 18.3326154999999993
 -15.6760332499999997 14.7475433700000007 10.9745634600000006
 -16.1281657699999990 12.9872419600000004  2.7334127399999999
 -16.1041637999999985 10.9640835100000000 18.3047856300000014
 -15.8782554000000005  9.2449281499999998 10.1296779499999996
 -16.1059341200000006  7.4197169399999998  2.4485223999999999
 -16.1703356999999990  5.5482215400000001 18.3861403800000005
 -16.0237841500000009  3.5192334500000002 10.8411257600000006
 -15.9863650800000006  2.0392180700000000  2.6809313299999999
 -6.0491370299999998  3.5545471900000001  9.9835559899999993
 -6.1948265100000004  1.9103396699999999  2.7488745500000000
 -6.2956282999999997 -0.0530933200000000 18.1075745599999998
 -6.2917139799999999 -1.9165839099999999 10.5853903299999992
 -17.5139670800000005 15.6787890200000000  2.9296113099999999
 -17.6623841299999995 13.9467707700000005 18.5431369000000004
 -17.4314009399999996 11.9436163400000002 10.4888589299999992
 -17.7873987100000015 10.0008921900000001  2.4468894300000001
 -17.5503621900000013  8.4233282500000008 18.0966317799999992
 -17.3397045100000007  6.2936519000000004 10.0622257299999998
 -17.6391219399999990  4.6710707899999999  2.6752775700000000
 -17.7475487799999989  2.7161739800000002 18.2004548499999999
 -8.3182053299999996  4.9133600700000004  2.7032636600000002
 -7.8193460100000003  2.7902386500000000 18.3380105799999988
 -7.5888769099999998  0.8552371500000000 10.7405208299999995
 -8.1239072900000000 -0.8056288600000000  2.5112302999999998
 -7.8051791000000001 -2.4091517900000001 18.4780043300000010
 -19.1745645899999992 14.5339878099999993 10.5002735600000001
 -18.9184786100000011 12.7896826200000007  2.8219949700000000
 -19.1102248299999999 11.3652733300000008 18.4199898500000003
 -19.1215579899999994  9.0897956099999995 10.3276110200000009
 -19.2243310399999991  7.5091738599999998  2.5337057500000002
 -19.1421425399999983  5.5170015499999998 17.9259079899999989
 -19.0799042900000018  3.6383496300000000 10.1765842200000005
 -9.5731939399999995  5.5007668699999996 18.3498789900000006
 -9.1090248799999998  3.5823431499999998 10.6411025099999996
 -9.7097334499999999  2.0100193300000000  2.8230688300000000
 -9.6007653400000006  0.2303375700000000 18.5628998400000000
 -9.7049519400000008 -1.9070833800000000 10.4243130900000001
 -9.3002542699999999 -3.6176700500000001  2.3635599400000000
 -20.5996752500000007 14.0300320900000006 18.7048215199999994
 -20.5971757500000017 12.0391398499999998 10.4890341800000009
 -20.9982704099999999 10.2982966699999992  2.4850918399999999
 -20.5552758400000002  8.2657331400000000 18.0423582899999992
 -20.9166496299999984  6.4314461100000004 10.4094093999999995
 -20.8681452299999997  4.7403935500000003  2.4623837800000001
 -11.0665182499999997 -2.6302144799999998 18.4733139199999989
 -10.9857745500000004 -4.9517497700000002 10.4209295700000002
 -22.2122257099999985 13.1278619699999997  2.3532919500000000
 -22.3277754399999999 11.1733879399999996 18.3884332300000004
 -22.2645152599999996  9.3227320200000001 10.2890901699999997
 -22.3476263800000012  7.4023109600000003  2.0699560799999999
 -22.8175028200000014  5.5000650799999997 18.2916958799999989
 -12.5303865000000005 -1.5706676700000000 10.3209063400000005
 -12.4726404599999992 -3.4682694100000000  2.4486179799999999
 -12.8286018500000001 -5.6556251800000004 18.5554171200000013
 -24.0141478299999989 12.1783053500000005 10.6403293500000000
 -24.0058038899999993 10.1930415100000005  2.6346216099999999
 -24.0471793600000012  8.3676557200000001 18.0295697699999984
 -24.2576445499999984  6.4458586699999998 10.8970182599999994
 -14.3091615099999991 -0.7823669800000000  2.6639615399999999
 -14.1014022800000003 -2.9857633799999999 18.0158748799999984
 -14.3305058200000008 -4.5796688899999998 10.2105026500000005
 -14.2572186199999997 -6.4309361799999998  2.2079246700000001
 -25.6140349100000009 11.4610796700000002 17.8482688799999991
 -25.6708978300000012  9.3857015799999992 10.1848580999999996
 -25.4216773499999995  7.4892438500000003  2.2631246300000001
 -15.9345485300000007 -0.0344164000000000 18.5659496500000003
 -15.7934293399999994 -1.6003758200000000 10.3354564900000003
 -15.9532605299999997 -3.7048681600000002  2.3690269800000001
 -16.2850589399999990 -5.3676547899999996 18.1065703900000017
 -15.8914383400000006 -7.2321289699999998 10.4810807700000002
 -27.2245055200000010  9.9628232299999997  1.8962274500000000
 -27.3699055000000016  8.5181145699999998 18.0023497200000016
 -17.7051276299999998  0.8647006400000000 10.1798207499999993
 -17.8237462899999990 -0.9859005300000000  2.4280477000000000
 -17.6180741300000001 -2.6300269200000002 18.5521211100000016
 -17.6707666000000003 -4.5125473400000002 10.3260658000000003
 -17.6196818099999994 -6.6194129799999999  2.4612074100000001
 -17.5950756800000008 -7.9805428500000000 18.1249073299999992
 -28.7220134599999994  9.1299442400000004 10.5524032299999995
 -28.9322361599999986  7.3720773299999998  2.3674322499999998
 -9.5219577599999994 16.3624946000000016 18.2790206499999996
 -9.2932609599999996 14.7713353099999996 10.2061431000000002
 -9.4120262100000005 12.9634693300000006  2.5010197299999999
 -9.3631734400000006 10.5758440999999994 18.3409437500000010
 -9.5523738999999992  9.2144519900000006 10.2974075400000000
 -9.8549481700000001  7.8815550600000002  2.7929624199999998
 -19.1551682700000008 -9.2148570200000002  2.4057974999999998
 -1.6459371599999999  2.8918708299999998 18.0208109999999984
 -3.1929737800000000  3.6132594000000000 10.3341437299999992
 -4.8051700100000003  4.6155378599999999  2.7874540900000002
 -6.4670956200000003  5.3501093199999996 18.5283017600000015
 -7.8710788599999999  6.3243342399999998 10.6269824800000006
 -27.0774100100000013  6.4611797700000002 10.0331678400000008
 -27.0686242099999994  4.5255435899999998  2.6467632399999999
 -8.0451806799999996 13.5986909699999998 18.2886032699999994
 -8.0378692699999998 11.8223980799999993 10.6791997399999996
 -8.2058077600000008 10.1567077500000007  2.6049588699999999
 -7.8835741300000004  8.1398659000000002 18.1735199499999993
 -19.0927919599999996 -7.6901226800000000 10.1692937000000008
 -20.6410102900000005 -6.5023577200000000  2.3687138999999999
 -3.1413541000000000  5.8437448500000002 17.7418812499999987
 -4.5487776699999998  6.4174403399999997 10.5191287199999994
 -6.7518792599999999  7.5470718699999999  2.8491993299999998
 -25.6794593199999994  5.6575801900000000 18.2706377899999985
 -25.4632182100000009  3.4298423699999998 10.3960778900000008
 -25.6260754300000002  1.8663940400000001  2.6395457699999998
 -6.2021029499999996 10.6305183700000008 18.0997629800000013
 -6.4362453999999998  9.0968755500000000 10.1350712800000000
 -19.2959775399999991 -5.5801189700000000 17.9440288199999998
 -20.4125545200000005 -4.5702535800000001 10.6887414799999991
 -22.6540691900000013 -3.8309114800000001  2.6173470000000001
 -4.6012585000000001  8.3838391199999993 17.9784396099999988
 -24.0238108900000000  4.7257318499999998  2.7002664500000000
 -23.9261376500000011  2.8033381600000000 18.4734830899999984
 -23.7150190000000016  0.9239530200000000 10.1781423600000007
 -24.0965365100000000 -0.9799899900000000  2.5932248400000000
 -19.2060413600000004 -3.6635279000000001  2.3802985799999998
 -20.5315967300000004 -2.7551510000000001 18.1639291500000013
 -22.4875520000000009 -2.0186122700000002 10.2761367400000001
 -22.4813787299999994  3.8100868499999998 10.5770242999999997
 -22.3995757600000012  1.8991640500000000  2.1420943299999999
 -22.2509375200000008  0.0661668500000000 18.2988374799999995
 -19.1756720899999991 -2.0490860799999999 10.3405927399999999
 -20.9499967100000006 -0.7878979200000000  2.4455506100000002
 -20.8481122499999998  3.0400979600000002 17.8844671700000006
 -20.7009876300000002  0.8655215400000000 10.3857533100000001
 -19.0915708299999984  0.0078702800000000 18.2515684299999990
 -19.3708923099999986  1.8966356600000001  2.4816845000000001
  0.0949068600000000 -0.0934910400000000  4.7359296300000002
 -11.0248117800000003 17.5924186400000018 20.7256779900000012
 -11.2330844899999995 15.5182418900000005 13.0962573399999993
 -11.2843479999999996 13.8074249200000008  5.4427774900000001
 -11.1453301000000007 11.5699872500000005 20.8106817799999995
 -10.8169865900000008 10.1133262800000008 13.0899483700000001
 -11.1472607499999992  8.4729595000000000  5.5753974800000003
 -11.1497291199999999  6.3644483000000003 21.0317570099999998
 -11.0107554899999993  4.3344455300000000 13.3855310599999999
 -11.4177617500000004  2.8851312999999998  5.4438324500000004
 -11.2583973600000000  0.6571247200000000 21.0986470600000011
 -11.2208087299999999 -0.6475272200000000 13.0958747399999993
 -1.4347264099999999  0.9119407200000000 20.8709304600000003
 -1.6249115700000001 -0.8670232500000000 12.9328571399999994
 -12.9065328200000007 16.5256044200000005  5.1658437499999996
 -12.5953945699999998 14.8314283499999995 20.9909879100000012
 -12.9469364500000008 12.7579922900000007 13.0720349900000006
 -12.8521911800000002 11.3158647899999991  5.6470558300000002
 -12.8829139399999999  9.0290371300000007 21.0036153600000013
 -12.4824145699999995  7.1306485500000001 12.9683705699999994
 -12.9918002399999999  5.3779767500000002  5.4936283399999999
 -12.4894841799999998  3.2114682700000001 21.2083629900000012
 -12.6418718800000001  1.7759433800000000 13.2060240800000006
 -12.9205536500000004  0.0207358500000000  5.0554352700000003
 -3.3396070800000000  1.8897098500000000 12.5234654299999999
 -3.2477612599999999  0.2348434000000000  5.1301364100000004
 -3.1221692399999998 -1.6802745200000000 20.9352871600000014
 -14.1607330099999995 15.6411986899999995 13.2512625400000008
 -14.3929221199999997 13.7590959000000002  5.4070732200000000
 -14.1918724399999991 12.0561171399999996 21.3039046899999995
 -13.9286460299999995 10.1262397499999999 13.4845136500000002
 -14.4471208499999992  8.4610905499999998  5.0601288699999998
 -14.4659254599999993  6.2427694000000002 20.7925792700000009
 -14.2409740399999993  4.6663566200000002 13.2946482800000005
 -14.5908297800000000  2.9071174200000001  5.3453090599999999
 -14.5166240000000002  0.7366118000000000 21.2315742400000005
 -4.8841977800000000  2.8514479900000000  5.1663431299999996
 -5.0193592100000002  0.6888758800000000 20.5210588999999999
 -4.7848532600000002 -0.7596182100000000 13.1068337800000005
 -15.9278634100000005 16.6609857900000016  5.4874837100000002
 -15.7279640500000006 14.7970928500000003 21.1278331600000016
 -15.6979536799999995 13.1211479000000004 13.3604955400000005
 -15.9872726299999997 10.8571933400000002  5.0245707299999998
 -15.9772232499999998  8.9652504900000007 20.8573737500000007
 -15.9576342499999999  7.6105473300000002 12.8902789700000007
 -16.0320919900000014  5.6201803200000002  5.0930888699999999
 -15.8870735500000002  3.5430450000000002 20.9217502599999996
 -15.8443150599999996  1.7417810400000000 13.1035602099999995
 -6.2748073900000003  3.5819038999999999 21.4409835899999983
 -6.2521898900000004  1.8053471100000000 13.3170865200000001
 -6.3618592999999999  0.0560921800000000  5.2061591600000003
 -6.3515496499999999 -1.8651353399999999 21.1301046700000015
 -17.5409131199999990 15.6062574400000003 13.2362232700000000
 -17.6040800699999984 13.8473517000000008  5.4578147899999996
 -17.5654669100000014 11.9136219800000003 21.0501531200000009
 -17.6428215500000007 10.3980745500000005 12.9295604700000002
 -17.6361910699999989  8.3744414000000003  5.1973865500000000
 -17.6547488500000007  6.0586794900000003 20.6142922000000013
 -17.5589427200000010  4.4577731199999997 12.8980363499999999
 -17.8623374900000016  2.8797529100000001  5.1472862800000003
 -7.6948137399999998  4.6841257100000000 13.4515117600000007
 -8.1558860699999993  2.6914319700000000  5.2088798900000004
 -8.3148378199999993  0.9658871900000000 21.0473031900000009
 -8.0095435399999992 -0.9884010800000000 13.2653928099999998
 -8.0703094100000001 -2.7616499700000001  5.6009774300000004
 -18.8374439900000006 14.8292473099999995 21.0651550000000007
 -19.0757528600000015 13.0255554700000005 13.1819538200000004
 -19.0840777700000004 11.3205049700000000  5.2506454500000004
 -19.1172664300000008  9.3363987700000006 20.7381595499999989
 -18.9411353899999995  7.4032517100000002 12.6047173400000005
 -19.0889036499999989  5.6332295700000001  5.1981211800000002
 -19.2439864800000002  3.7622304299999998 20.8651558399999999
 -10.0853643200000000  5.7151247100000004  5.4722642099999996
 -9.7883739599999995  3.7961087600000001 20.7434535199999992
 -9.3402329900000005  1.8906249700000000 13.1415307000000006
 -9.9555692600000008  0.2878244200000000  5.2481280200000002
 -9.5073669100000000 -1.9727163900000000 21.0975304500000007
 -9.8721822499999998 -3.7180715700000002 13.1747154900000005
 -20.6127852999999988 13.7104508500000009  5.1297774799999996
 -20.7357687000000013 12.1663099700000004 20.9259767799999992
 -20.5933436199999989  9.9502618999999992 12.7053759500000005
 -20.7298199200000006  8.1828111299999993  4.9580380399999999
 -20.7657107799999991  6.4590477599999998 20.4605736799999995
 -20.6372335999999983  4.7401708100000004 12.8093307299999992
 -11.1179575800000006 -2.7667427700000000  5.0558328499999998
 -11.0496127699999995 -4.7044753200000002 21.0271353199999993
 -22.4486814499999987 12.7539008900000006 13.0837876299999998
 -22.3954181299999995 11.1619102100000003  4.9419819699999996
 -22.4143313299999996  8.9886780099999992 20.7123974500000010
 -22.3536535500000006  7.1496544599999998 13.1792327199999999
 -22.5676808199999996  5.5031587799999997  5.1399425900000004
 -12.7892838799999993 -1.9613446500000000 20.7340268099999996
 -12.7161336200000008 -3.8118739700000002 13.1072018299999993
 -12.8596440500000000 -5.5263675499999998  4.9573071700000000
 -24.1495316500000001 12.0282072099999997 20.6518713200000015
 -23.6467406599999990 10.2273149900000000 12.8872712800000002
 -24.1066374799999998  8.5003972799999996  4.6590946100000004
 -23.7508918300000005  6.0622649400000004 20.6710583099999994
 -14.3895540400000002 -0.8580840600000000 13.0342430500000006
 -14.5160869500000000 -2.6882872299999998  4.9835422200000004
 -14.3787746799999994 -4.8000979499999996 20.8947449600000006
 -14.4870724099999997 -6.3501521399999996 12.9394674799999994
 -25.8750925400000007 11.0209296899999991  4.8027247199999996
 -25.3718830299999993  8.9065791799999996 20.3817291599999990
 -25.7507140200000002  7.4907096400000004 12.9230170399999995
 -16.1870351499999998  0.0250918500000000  5.5426256599999997
 -16.0624659399999992 -2.1628606499999998 20.9668487100000007
 -15.8475767500000000 -3.5372613199999998 12.8639018400000005
 -15.9698772699999996 -5.3739998399999998  4.9644690499999999
 -16.1175934900000009 -7.5765080899999999 20.3260656500000003
 -26.8215426900000011 10.4790910900000007 13.0410083900000000
 -27.2179142600000006  8.4324599800000009  4.7191749900000000
 -17.5089109799999996  0.7790787400000000 20.8540835000000015
 -17.4574649199999996 -0.8589566199999999 13.0776032299999994
 -17.8642399999999988 -2.9735698500000001  5.0728920200000003
 -17.8217363900000016 -4.5131815900000003 20.8256331599999989
 -17.8997806900000000 -6.6880716600000003 12.8976287299999992
 -17.4023296400000014 -8.4663874099999994  5.1009944400000000
 -28.5235832999999985  9.0939921399999992 20.4546243499999996
 -28.7264587300000009  7.4022710199999997 12.9938833000000002
 -9.6136727499999992 16.4165258899999991  5.2193654599999997
 -9.6723326699999994 14.4294589099999992 20.9950874700000014
 -9.6965295699999992 12.9280613500000001 12.8319816699999993
 -9.4769016700000002 11.0073386000000006  5.4148072699999998
 -9.5020402599999993  8.9590644400000006 21.0894977300000015
 -9.4058141200000005  7.3878877300000001 12.8982586799999996
 -19.2261987800000007 -9.1681144400000001 13.1575712800000009
 -1.5417671200000000  2.6422431099999999  4.8797386700000001
 -3.0907236500000002  3.5745443400000001 20.5877656500000015
 -5.0411480299999996  4.6308553999999997 12.9048329800000001
 -6.6514063600000002  5.6265989400000000  5.3272438400000004
 -8.0920829800000007  6.3614984600000000 20.9567110200000002
 -27.0793174699999994  6.2449010899999999 20.4929656999999992
 -27.2413453300000015  4.5631524700000003 13.0403305100000004
 -7.8982431899999996 13.9988938300000001  5.0821604499999999
 -7.8334410300000004 11.7589132799999998 20.5770295400000016
 -7.7275899600000004 10.1979422799999995 12.8785529600000004
 -8.2513290599999998  8.4540044400000003  5.2521319799999997
 -19.2402300599999982 -7.2656178899999997 20.5860314799999990
 -21.0048757700000017 -6.5491435700000000 12.9152995399999995
 -3.0827152099999999  5.4918634900000001  5.2794452700000001
 -4.6908367999999996  6.4748077899999998 20.6755748200000014
 -6.5591809999999997  7.5540886900000004 12.8455590799999992
 -25.4769903800000002  5.5297167299999996  4.9854100800000003
 -25.6965735299999984  3.7395371399999999 20.6861278900000016
 -25.6160817799999982  1.9249742900000000 12.6835163000000009