Li                                      
   1.00000000000000     
    21.0004999999999988    0.0000000000000000    0.0000000000000000
     0.0000000000000000   21.0004999999999988    0.0000000000000000
     0.0000000000000000    0.0000000000000000   21.0004999999999988
   Li
   500
Direct
  0.9942745510821140  0.0206277564819857  0.0177576286278907
  0.0243373067307928  0.1141604452274976  0.0946346058427210
  0.0235083298016718  0.2113340120473310  0.1931631908764047
  0.0057053874907709  0.3071092121616132  0.3020496540558568
  0.9971008675983910  0.4111725954143921  0.4099476745791790
  0.0132180490940712  0.4913542453751134  0.5018185057498599
  0.0072559924763667  0.6011127435061070  0.5949497026261312
  0.0072817504345153  0.7002363700864294  0.6955555196304886
  0.0077566724601823  0.8235370176900574  0.8005834651555901
  0.0013575733911111  0.9039505483202745  0.8928752905883215
  0.1207906173662536  0.9953212847313182  0.1021611356872469
  0.1005726454132017  0.1029052465417521  0.1963449565486570
  0.1077292245422754  0.2076330054046309  0.3090574633937280
  0.0943917125782718  0.3021901049975000  0.4165152586843135
  0.1024586719363825  0.4050513759196193  0.4991925854146331
  0.0873016171043517  0.4936299078593365  0.6028775048213149
  0.1045249546439351  0.5960401323778015  0.7041159262874714
  0.0954937553867765  0.7259432232565857  0.8052905192733490
  0.1098926025570819  0.8115958981928983  0.8958028237422937
  0.0870043270398355  0.9122726887455030  0.9956479764767536
  0.2094722782790868  0.0124938996690531  0.2064778767172228
  0.1831265065117478  0.1029719330492114  0.3103761458060532
  0.1919343872764969  0.2117034403942739  0.4179982905168913
  0.2046212528273159  0.2984596419132899  0.5007704349896400
  0.2113949358348606  0.3948759800957120  0.6158722320897141
  0.1912150720220964  0.4981521506630813  0.7126173105402245
  0.2046002928501736  0.6096541596628668  0.8057198247660793
  0.2125451613056839  0.7216307006976024  0.9040979419537649
  0.1873499035737254  0.8086705687959821  0.0205578357658140
  0.2057309021213811  0.9144290483559914  0.1098454603461789
  0.3031277812433046  0.0022736906264171  0.3044445884621823
  0.2924838432418255  0.0943093954905834  0.3992270326896943
  0.2939185205114185  0.1995047789338358  0.4992347796481056
  0.3060267236494383  0.2845067093640594  0.5919630656412949
  0.3016927335063428  0.3952680083807536  0.7078999633342065
  0.3065841575200565  0.4981512402085642  0.7919374848217871
  0.2884368205518939  0.6103745915573455  0.9021275917240033
  0.3014156253422513  0.7077983471822122  0.0156360853313018
  0.2950868993595392  0.7978516711506884  0.0986020951882125
  0.3031074388705051  0.9127161258065257  0.2054919406680824
  0.4130989933573019  0.0137850179757635  0.3904870084045626
  0.3914250122616139  0.0947749705959353  0.5019521097116737
  0.4008358396228644  0.2029524149425015  0.5836233680150471
  0.4094522911359277  0.2925597771481634  0.7080403214209170
  0.4048978305278439  0.4085089345491753  0.7922186247946499
  0.3906344563224664  0.5007739796671515  0.9139275222018526
  0.3889086678888631  0.5967543815623415  0.9986630327849326
  0.4001659460489009  0.7127471526868376  0.1149863327063656
  0.3905018642413296  0.8085410647365521  0.2103145882240867
  0.3945141582343297  0.9057118192423985  0.3017825280350479
  0.4974736911025914  0.0085545401299996  0.5043343120401929
  0.4947781048070254  0.1022092973976783  0.5764017961477137
  0.4918379252874914  0.1894772795885800  0.7001562129473129
  0.4911938782409919  0.2943634499178600  0.7963855412966367
  0.4934261789004992  0.4088185624151777  0.8918423623247094
  0.5012855412966388  0.4955637627675529  0.9869970672126840
  0.4959782343277510  0.6036885769386444  0.0971176000571390
  0.4856422261374718  0.6838733549201237  0.2024630756410559
  0.4877407099830933  0.7999095307254578  0.3104478855265356
  0.5005345410823523  0.9001748501226174  0.4039749091688307
  0.6158482474226830  0.9986011375919617  0.5982815990095460
  0.5953770476893396  0.0937753191590645  0.6923401819004340
  0.5909554177281464  0.1878234375372045  0.8090114097283418
  0.5892649236922907  0.2948715397252428  0.9106507811718743
  0.5943131054022501  0.3854169881669449  0.9955659893812054
  0.5998157391490651  0.4930526787457410  0.1062974252993953
  0.5993362586605073  0.5831756201042850  0.2006138291945447
  0.5839662965167491  0.7011619599533319  0.3022922620889972
  0.5837688688364580  0.7989817585295569  0.3879400152377315
  0.6044737396728621  0.9034412509225973  0.5026405718911420
  0.7082309906906943  0.0119643613247291  0.6929522020904244
  0.6991393628723159  0.0913696978643372  0.8046406461750877
  0.7049022123282782  0.1880624275612490  0.9021233761100902
  0.7009722844694153  0.2930271184019446  0.9919730673079243
  0.7016389447870282  0.3973046722697049  0.0997014166329393
  0.7047303683245616  0.4958569967381763  0.2021044375133911
  0.6782308435513471  0.5767902497559589  0.3179605123687566
  0.6847375424394642  0.6800109302159498  0.3913699526201739
  0.6942533325397022  0.8041419594771568  0.4772528473131601
  0.7040889307397435  0.9043567400776169  0.5931684497988172
  0.7954041056165337  0.0024679417156719  0.8031360472369684
  0.8085004652270200  0.1065003785624157  0.9032168972167298
  0.8027321420918554  0.2056646741744217  0.0021682036141968
  0.8064968034094449  0.3045018047189387  0.0996535963429466
  0.8075424170853083  0.3962689002642819  0.1853547796481010
  0.8059865455584401  0.4988300673793447  0.3058821594723966
  0.7866537339587154  0.5948859141449034  0.3995078102902312
  0.7950964696078699  0.7015236584843194  0.5058596771505464
  0.8034644584652710  0.8110542529939764  0.5950689059784295
  0.7884959639056177  0.9038381633770598  0.6993508249803568
  0.9011240241898975  0.0059512973500659  0.9093259012880637
  0.8953959281921868  0.1142737991952600  0.9922765234161091
  0.9187431908764054  0.2052535187257476  0.0979287859812885
  0.9175627389824044  0.3072550048808367  0.1990494731077845
  0.9027193343015654  0.4088257684340846  0.3017533187305048
  0.9034055241541878  0.4928853974905394  0.4124743177543380
  0.9025676521987549  0.6058736153901094  0.4921242575176805
  0.8976784205137989  0.7032828375514839  0.6035506126044652
  0.8964606209375958  0.8096477041022823  0.6993854455846318
  0.9057087074117263  0.9088862022332833  0.7954138377657642
  0.1094037689578826  0.0935286655079608  0.9948862669936460
  0.1118862717554379  0.2146659179543349  0.1000844432275443
  0.1065260122378007  0.3103616423418458  0.1997671241160930
  0.1035165910335465  0.4061176033903919  0.3066196085807462
  0.1010628842170433  0.4976689178829048  0.3979288669317427
  0.1111024042284683  0.6072419175733899  0.4990885326539853
  0.1067941763291316  0.7069321659008097  0.5946885655103458
  0.1040149444060887  0.8127384833694435  0.6864542139472860
  0.1030914616318626  0.9045660593795404  0.8038377262446161
  0.1024280998071490  0.9947338263374661  0.9042596090569290
  0.2054985905097482  0.0981967415061575  0.0968994095378690
  0.2061516021047112  0.1943137425299426  0.2078045356062930
  0.2006442894216818  0.2933833075402958  0.3118029737387218
  0.1882079883812295  0.3931673326825518  0.3997352353515424
  0.1973512973500604  0.5028890969262605  0.4997123820861376
  0.2045789966905573  0.6013037261017615  0.6057532053998713
  0.2032071207828352  0.7158704011809220  0.7026060084283685
  0.2010309764053204  0.8022594923930413  0.8017366691269245
  0.2057149629770691  0.9046450570224494  0.9192364896073926
  0.2062779738577660  0.0088588900264313  0.0060846746506016
  0.2997326996976284  0.1025269665007968  0.2095545177495808
  0.2979162348515487  0.1936482745648931  0.3148057803385598
  0.3131613809195031  0.3051988895502475  0.3970864407990291
  0.2871113640151393  0.4104507211733051  0.5091168153139236
  0.3038920201899984  0.4955957734339691  0.5945094240613287
  0.3053517582914722  0.6085548291707354  0.7122643475155357
  0.2984988819313799  0.7026481650436907  0.7920136868169791
  0.3005902188043166  0.7938630794504888  0.9002332187328861
  0.3080490769267428  0.8930847456012927  0.9962790904978434
  0.3067179776671978  0.0077468550748776  0.0995899473822064
  0.4068834589652610  0.1049038875264898  0.3007059536677730
  0.4072683250398796  0.2024560139044311  0.4140809875955327
  0.4042072988738354  0.2994978205280816  0.4976037765767458
  0.4100283045641788  0.3908721911383068  0.6069449313111619
  0.4019629199304759  0.5125376795790544  0.6987904673698253
  0.3937149296445313  0.6164777300540436  0.8054654984405119
  0.4066564348467878  0.6874938744315600  0.9132288612175898
  0.3981732444465607  0.8014425085117054  0.0042622061379518
  0.3968980743315669  0.9015895807242700  0.0995875369634049
  0.4204765377014823  0.0076246175091086  0.1948934601557113
  0.5056008856931982  0.1041282502797571  0.3958033470631648
  0.5111944077521997  0.1958659127163642  0.5018373433965877
  0.5136147710768810  0.2990955420109032  0.5922725439870504
  0.5064429365967484  0.4110151091640688  0.7002149934525335
  0.4884557910525942  0.5027501230923050  0.8160444108473612
  0.5116941049022614  0.5984981524249449  0.9097787824099441
  0.4915462108045077  0.6962995933430136  0.0143707064117535
  0.4974276012475869  0.8064405476060088  0.1110045737006260
  0.5004049917859064  0.8977772419704309  0.2076667736482491
  0.5030825570819744  0.0093764453227294  0.3032865846051251
  0.6145198766696041  0.1012259165257987  0.4892481864717482
  0.6019509949763133  0.1966427375538657  0.5945101892812090
  0.6031723763719938  0.3031912249708313  0.7064817623389885
  0.5907024942263277  0.3866984433703990  0.7998277055308236
  0.6051673003023765  0.4916758562891346  0.8817902935644355
  0.6181960710459293  0.6022009814052041  0.9913545782243247
  0.5898381048070291  0.6920982667079372  0.1087478360039071
  0.5857076541034729  0.7831487878860059  0.2049986366991234
  0.5985900883312283  0.8924298940501387  0.2929290331182557
  0.5886893883478947  0.9958098326230314  0.4066627223161348
  0.7013156391514457  0.0927676217232900  0.5949856879598130
  0.7004817647198891  0.1890354110616386  0.7002988528844583
  0.6967404537987179  0.2977946925073240  0.7966754920120920
  0.6889995490583587  0.3912127444584641  0.8907526373181582
  0.6978869045975102  0.4858471403061841  0.9972749415490085
  0.7046786214613903  0.5912045541772812  0.0915184800361928
  0.6983699069069758  0.6907481269493587  0.2172348796457229
  0.7104602190424032  0.7942229665960312  0.3036116759124781
  0.6946221909002190  0.8925922530415917  0.3951371653055844
  0.7112783367062718  0.9971393595390552  0.4985778910025971
  0.8081050294040608  0.1036626694602489  0.7031873522059016
  0.8134821389966902  0.1995179262398494  0.7976133615866274
  0.7995098978595720  0.3023083059927174  0.8897981595676328
  0.7925549605961777  0.3849075383919427  0.9954550534511100
  0.7828583376586238  0.5035683045641761  0.0932345744148932
  0.7994461917573403  0.5930254289183594  0.2085147044117974
  0.7973903126116042  0.6857007837908640  0.3035234080140938
  0.8017946420323341  0.7750469055498712  0.3895007047451244
  0.7973727863622315  0.9025554396323869  0.4902260374752956
  0.8056457198638114  0.0076575576771987  0.6067193723958937
  0.9075629046927460  0.1091359834289634  0.8140682578986187
  0.8992665312730637  0.2058400471417343  0.8951730496892907
  0.9067342044237066  0.2984385395585818  0.9978631351634490
  0.8981784371800643  0.4019388890740672  0.0798188085997964
  0.9065482831361180  0.4897990547844131  0.1889576229137404
  0.9086635684864675  0.6021941296635802  0.3121066979357607
  0.8997483626580305  0.6947289355015371  0.3949346696507234
  0.9121177319587659  0.7936923949429797  0.4956223247065523
  0.8899650236899106  0.9099994966786511  0.6070050374991069
  0.8945741077593397  0.0047559577152896  0.7091737425299414
  0.0149631489726403  0.1085833723006573  0.9072263660389055
  0.0167912844932232  0.1970335225351789  0.9928860512844935
  0.0055492083521784  0.3021548153615399  0.0963430684983706
  0.9949146791743075  0.4010623566105593  0.2045932039713350
  0.9816172624461288  0.4951373686340830  0.2985164229423134
  0.0108647556010553  0.5986597152448780  0.4033613437775259
  0.0058889412156873  0.6913073903002314  0.5007697588152666
  0.0021025218447193  0.8098611237827669  0.6139488278850536
  0.0110034832503985  0.9117331615913926  0.6949588257422477
  0.0015075969619787  0.0040072369705513  0.7937102230899242
  0.2110147763148476  0.2059791709721210  0.9974499802385637
  0.2127293888240729  0.3068682026618390  0.0919264122282826
  0.1964055755815366  0.3955493831099233  0.1992966619842349
  0.2056519830480212  0.4949660474750601  0.2891961143782282
  0.2084596528654075  0.6075123606580775  0.3913288140758553
  0.2050860498559572  0.6986813594914381  0.5063164872264920
  0.1970065946048933  0.8018946567938841  0.5913685769386419
  0.2069487631246858  0.9074140358562914  0.6983583905145139
  0.2069438565748456  0.0009042627556468  0.8044087945525078
  0.1996255179638595  0.0874017094831103  0.9099146782219449
  0.2912450455941524  0.2024232389705034  0.0897221913763957
  0.3069671850670233  0.2862040513321134  0.2106557972429215
  0.3015776367229321  0.3782669098354816  0.3012869036451491
  0.2922241641865639  0.5073631942096597  0.4023731663531791
  0.3112319506678389  0.5964794885836042  0.5083133582533748
  0.3035103573724456  0.6986894031094479  0.6146743101354701
  0.2916972376848150  0.8057133739672864  0.7082272636365801
  0.3049745829861195  0.9129940463322299  0.8193474617271050
  0.2948075512487804  0.9981878502892769  0.9201094454893948
  0.3022784519416177  0.0946979552867759  0.0054398233375395
  0.4030929625485129  0.2112057803385667  0.1918797014356812
  0.3899064731792095  0.2912129068355540  0.3122507283159948
  0.3899771595914387  0.3944185367015081  0.4059522520892358
  0.4003019118592448  0.4774191733530131  0.5043635813432985
  0.3887945115592473  0.6107476469607889  0.5975571476869632
  0.4001889326444612  0.7186586876502972  0.6894222870884050
  0.4068256374848218  0.8061652032094457  0.8046088093140611
  0.4014790519273319  0.9135342177567196  0.9227749072641132
  0.4089197790528800  0.0039549953572546  0.0127689083593268
  0.3928840294278686  0.1107680869503085  0.1133688783600419
  0.4938164748458362  0.2127412961596136  0.3070474117282913
  0.4984596838170532  0.3100915159162909  0.4115008561700932
  0.5090671150686887  0.4110628385038453  0.4987191762100878
  0.4960963053260627  0.5042010647365558  0.5965033946810792
  0.5049749944048969  0.5974883317063870  0.6973396690555020
  0.5059746206042703  0.7087926396990554  0.7959841160924768
  0.4865897126258929  0.8019667998380982  0.9085806495083446
  0.5066682155186797  0.9057898469084051  0.0041756320087600
  0.5101720316182963  0.9884719540010920  0.1107643656103434
  0.5051167248398869  0.1128025413680618  0.1924757658150966
  0.5990907949810733  0.2194243294207254  0.3919741629961209
  0.6158918968596012  0.3021949625008915  0.4999448284564636
  0.6072932706364114  0.4027776133901568  0.6041819832861108
  0.6123755334396819  0.5139128258851002  0.7073573491107368
  0.6030729592152539  0.6199539672864915  0.8157445365586540
  0.5969623894669169  0.7026904273707757  0.9048167581724229
  0.5979447332206362  0.8086670345944142  0.0206800895216759
  0.6050825156543880  0.9016408675983882  0.1154817437680080
  0.6054722749458321  0.0127815899621453  0.2075768153139208
  0.6028969529296901  0.1157344077521998  0.2926869745958456
  0.7098030727839841  0.1997102797552444  0.4986654317754358
  0.6999428994547756  0.2961433613485411  0.6105622408990286
  0.6954928558843818  0.4019651917811515  0.6950857470060257
  0.7058984952739209  0.4925062969929286  0.7892900840456178
  0.7106597161972346  0.5957191276398177  0.8997467465060325
  0.6929018361467598  0.7042579610009270  0.9969579910002153
  0.6883171100688088  0.7924619709054568  0.1090181819480520
  0.6967398300040486  0.8942704802266590  0.2037493121592320
  0.7033598557177214  0.0032558191471637  0.3032550463084220
  0.7051735044403671  0.0998844527511267  0.3987641670436446
  0.7945492650175012  0.1940299178590976  0.5824963929430282
  0.7983801633294476  0.2835997338158620  0.6984734225375604
  0.7955996785790802  0.3810677860050973  0.7843759105735586
  0.8052906754601068  0.4774417323397060  0.8958286126520818
  0.7956443784671805  0.5917473303016578  0.9869436051522555
  0.7898229094545357  0.6890842598985714  0.0924587233637268
  0.7857196804838011  0.7877096278660005  0.1934578624318490
  0.7968382267088856  0.8796140877598120  0.2881384052760652
  0.8077209347396490  0.9886536101521415  0.3925223689912158
  0.7957421461393750  0.0895661698531001  0.4807679845717985
  0.9046787238399077  0.1841929082640874  0.6908102816599637
  0.9107613737768148  0.2968370119759030  0.7836819609056960
  0.8987749329777870  0.3965867826956497  0.8934588352658253
  0.8894755677245811  0.5040231599247633  0.9972618709078347
  0.8960248565510369  0.6039960491416849  0.0978310535463436
  0.8906105102259474  0.6909909897383386  0.2000413775862455
  0.8924250046427460  0.7708192328754109  0.2901527863622277
  0.8914702930882612  0.8892458674793460  0.4014788262184226
  0.9035960391419238  0.9889680145710784  0.4910103559439065
  0.9018723930382606  0.0801556967691255  0.5915511092593064
  0.0054001195209636  0.2005387566962682  0.7988537515773402
  0.0170068526939815  0.3017175110116455  0.8878531468298405
  0.9996962015190149  0.4084198152424960  0.9822095645341804
  0.0053931911145000  0.5093648689316908  0.0968723254208257
  0.9986904387990734  0.5988827518392412  0.2063656189138356
  0.0022828208852204  0.7027269717387696  0.3005515482964682
  0.0042139463346089  0.7888468993595410  0.3884799852384475
  0.9897176252946380  0.8870196366753191  0.5021235032499192
  0.9870144101330922  0.9948243560867596  0.5877140834742036
  0.9991157405776079  0.0971115382967085  0.6957050689269337
  0.1016370448322661  0.2002927239827628  0.9073910949739314
  0.1044929182638512  0.3047775943429940  0.0118950272612537
  0.0812624166091283  0.4037997652436829  0.0937305007023639
  0.0978545110830709  0.4950641579962394  0.2043548053617741
  0.1008820670936430  0.5857854022523270  0.2995998280993319
  0.0969881979000533  0.6935889278826721  0.4005412223518476
  0.0891365800814299  0.7839464265136513  0.4950494212042571
  0.1096514921073322  0.9009470388800267  0.5930685669388822
  0.1088566996023914  0.0147266474607761  0.6971090740696653
  0.1044966924597048  0.0972745358443845  0.8043572448275071
  0.3102394947739313  0.3087659370015032  0.9955831542106139
  0.2999061189019301  0.3908268931692120  0.1105347367919833
  0.3079277507678384  0.4953635727720780  0.2082281302826132
  0.3120645456060558  0.5993464546082237  0.3031448189328856
  0.3124708335515791  0.6889834127758832  0.3994323797052459
  0.2993184057522456  0.7981287831242128  0.4908385700340503
  0.2903896269136439  0.8868584838456215  0.5929118901930934
  0.2989650141663276  0.9953768905502258  0.6945563605628422
  0.2805976733887263  0.0885589395490598  0.8129111830670723
  0.3106136691983536  0.2055482902788057  0.9034131839718071
  0.3715210828313644  0.3030114411561655  0.0864971295921535
  0.4006373386347946  0.3895539863336595  0.1992522239946695
  0.3948471845908443  0.4941298526225566  0.3130742106140332
  0.3965796876264847  0.5946601476155351  0.4102151891621659
  0.4054463860384274  0.7064613952048759  0.5036607676007705
  0.3917347777433875  0.8113154705840344  0.5830636132473046
  0.3962644813218716  0.9086433318254308  0.6946499402395148
  0.3976304526082686  0.9934438694316796  0.8083112654460578
  0.3961124754172545  0.0970877850527359  0.8904721044737016
  0.3905109287874069  0.2016381157591454  0.0053940996642936
  0.4838617923382742  0.3042867503154696  0.1932053770148343
  0.4935572267326975  0.3896791081164750  0.3008052479702883
  0.4894584328944518  0.4969558115282950  0.4085351329730216
  0.4945401185686080  0.5913540329992131  0.5087231189733572
  0.5152898302421391  0.7031212923501826  0.6126715740101432
  0.4962539453822501  0.8119458712887777  0.6873244446560776
  0.4966067150782152  0.9039285536058657  0.7917517735291995
  0.5055693902526102  0.9988765186543205  0.9187345910811615
  0.4975423094688196  0.0979972005428422  0.0186618690031182
  0.4957939739529991  0.2121676950548803  0.1069409109306889
  0.5929578686221788  0.3157257755767731  0.3064316192471637
  0.5950218685269419  0.4005364319897140  0.4009647108402206
  0.6176855603438014  0.4926979281445654  0.5021318973357793
  0.6120776429132633  0.6066927516011518  0.5909934506321264
  0.6174772824456554  0.7134806480798090  0.6973320216185357
  0.5953700673793492  0.7975635818194817  0.7947144272755438
  0.5984412428275547  0.8920331901621381  0.8987267107926016
  0.6099209380729036  0.9972815685340848  0.9981375776767223
  0.6048451032118294  0.1106830775457723  0.1118581890907393
  0.5837660584271802  0.2155767215066291  0.2112512292564475
  0.6984014375848204  0.3047673503011836  0.3913555686769357
  0.7129955143925173  0.4008121211399711  0.5067627518392399
  0.7035379457631947  0.4913593376348189  0.5982948777410044
  0.7097573967286479  0.6029871564962761  0.6989499907145102
  0.6995774676793403  0.6923740982357529  0.7928243508487895
  0.6875868645984653  0.8067403742767993  0.8865793519201901
  0.6944180481417135  0.9018946434608708  0.9909063441346646
  0.7108406618890015  0.0093926392228738  0.1054423032784939
  0.7000422661365207  0.1160136420561386  0.2026437094354918
  0.6847575257731933  0.2163885302730861  0.2924445294159668
  0.7932462055665326  0.3066653765386533  0.4903438908597408
  0.8070624008952194  0.3934796195328687  0.6139279917144833
  0.8022612947310748  0.4983073141115710  0.6881575491059735
  0.7981553239208594  0.6013068007904607  0.7963260169995934
  0.7915110906883172  0.6985587228875474  0.8912790238327659
  0.7941082545653657  0.8159054793933507  0.9907513149686906
  0.7868219375729169  0.8975013347301228  0.0974491588295550
  0.8034734220613799  0.0153227527915973  0.2022108259327169
  0.7973759277160042  0.1267688945501320  0.3039197514344920
  0.8075119016213890  0.2025251774957724  0.3958251798766668
  0.8936125739863314  0.2904714659174772  0.5932791062117602
  0.9117621928049360  0.4023291497821475  0.6954555220113789
  0.8869822128044547  0.4901666112711567  0.7866555596295299
  0.8929248046475067  0.6107716044856062  0.8959559020023349
  0.8861265322254255  0.7043588990738314  0.0062923163734183
  0.8952345687007437  0.8057849698816710  0.1147314040141936
  0.8706491840670481  0.9095470893550157  0.1937581786147931
  0.8980438003857074  0.0061466917454354  0.2961442803742784
  0.9078710892597783  0.1014766005571275  0.3923639270493524
  0.9016150796409619  0.1889257074831576  0.4998613056831971
  0.9932278160043779  0.2855717554343968  0.6814780767124589
  0.0079455870098357  0.4063270998309534  0.8064655265350851
  0.9966957353396353  0.5114717797195283  0.8915454846313153
  0.0079441756148668  0.6158094612033054  0.0110388343134673
  0.0038341777576747  0.7066958239089516  0.1059352572557799
  0.9969956353420173  0.7977324068474587  0.2230121959000968
  0.9762324882740856  0.8877491369253079  0.2729017509106910
  0.9882781629008832  0.9880013471107816  0.3803827408871214
  0.0036916787695560  0.0850446665555609  0.4888298526225583
  0.0048995742958482  0.1844099183352768  0.6015711925906544
  0.1136853536820581  0.2915486912216352  0.7883383357539131
  0.1003563467536495  0.4034953577295752  0.9025966453179706
  0.1098330411180655  0.5143033475393466  0.9959662541368033
  0.1077357905764131  0.5912803590390681  0.1101284331325445
  0.0967397914335351  0.6946217585295571  0.2042048446465543
  0.0823539277636272  0.8044487769338815  0.3042845832242094
  0.0806502592795439  0.8867125516059176  0.3861856917692421
  0.0962110378324326  0.9950476688650269  0.4751979514773481
  0.0994152043998966  0.0943509973572034  0.5798691759720001
  0.1079764800838063  0.1920334153948744  0.7010183762291362
  0.1891281050451212  0.2888534211090246  0.9074271288778846
  0.1915435822956582  0.3994657546248916  0.9876815837718169
  0.1959464088950256  0.4918408918835269  0.1074169848336979
  0.2168393504916537  0.5915421270922110  0.2110190566891248
  0.2073451546391780  0.6907309583105175  0.3002516859122437
  0.1993950463084246  0.7800620347134597  0.3979097797671471
  0.1911668703126139  0.8981606656984340  0.4966141872812528
  0.2020304926073209  0.0118376276755328  0.5776693416823377
  0.2085387371729226  0.0993112573510189  0.6973385452727285
  0.2061391119259071  0.1992171767338888  0.8128504535606282
  0.3901740377610068  0.4063104959405734  0.9958772686364625
  0.3961204137996717  0.4851464798457172  0.0930113697292896
  0.4089671036403928  0.5856600999976180  0.1997585324158919
  0.4084923292302562  0.6888886069379296  0.3095930720697098
  0.3956016847217896  0.7996991719244804  0.3963482912311633
  0.4055551401157089  0.8997400885693168  0.4913593338253861
  0.3989395785814622  0.9821738282421819  0.5898488402657094
  0.3896136491988287  0.0894583281350450  0.6972487721720881
  0.3975855198685778  0.1896968315040084  0.8052416928168356
  0.4026172514940143  0.3052078021951843  0.8953158386705056
  0.4855932892074009  0.4028935644389406  0.0916583262303305
  0.4964456846265577  0.4898371553058283  0.2013107254589173
  0.4940781976619633  0.5887673355396288  0.3215926639841911
  0.4905282978976686  0.7027954448703611  0.4031599261922310
  0.4998261469964973  0.7973461274731548  0.5151712097331043
  0.5134515325825575  0.9061047170305443  0.5977512521130421
  0.4953290640699066  0.9933047346491719  0.6846334449179778
  0.4908188085997978  0.0836850365467470  0.7960885917001974
  0.4843870145948941  0.1818738334801537  0.9179028727887442
  0.4913730182614700  0.3108601428537412  0.0026900611890213
  0.5915987676483923  0.3965346096521500  0.1919903407061767
  0.5894147420299518  0.4799117878145722  0.3137596447703643
  0.5950977648151223  0.5932660998547661  0.4245794876312488
  0.5931903911811602  0.7137057122449448  0.5096529096926261
  0.6273382048046443  0.8114820118568602  0.5977150544034657
  0.6228060103330861  0.9094293121592329  0.6889028856455823
  0.5912373076831514  0.9947539101449934  0.8090404118949550
  0.5899182152805906  0.0989626518416244  0.8977878821932777
  0.5925223942287090  0.1926375229161224  0.0009627980286169
  0.5959938444322788  0.3052264536558624  0.0863707178400546
  0.7139513759196205  0.3971196004857021  0.2966371110211696
  0.7085062565177012  0.4924610190233594  0.4098122154234431
  0.6909967243637070  0.6091360200947591  0.5028397342920385
  0.7080147563153290  0.7066028494559617  0.6003272036380096
  0.6980707340301393  0.7965975362491378  0.7034078445751319
  0.6974056284374157  0.9022284669412599  0.8039023961334237
  0.6955988162186628  0.0060929530249254  0.9016451279731399
  0.6955348210756895  0.1072502245184666  0.9978912749696462
  0.6965592038284782  0.2120344663222298  0.0924255689150257
  0.6978124739887122  0.3055856027237454  0.2012231470679282
  0.8020401214256836  0.4064918078140991  0.4025143563248506
  0.7967167705530827  0.5046921763767500  0.5042333858717640
  0.7956471693531100  0.6056007071260225  0.5863663374681565
  0.8093679683817072  0.7087240722839923  0.6958217818623353
  0.8045755224875606  0.8003323125639881  0.8080857322444714
  0.8037754167757925  0.8981481821861408  0.8994889426442256
  0.8067255289159760  0.0042302968976955  0.9982407480774285
  0.7944602709459332  0.1269984295611977  0.1060137749101244
  0.7949960919978096  0.2083314863931776  0.1928129311206845
  0.7952324073236383  0.3092840451417800  0.2901954862979466
  0.9017931739720453  0.4067072126854114  0.5109425937477710
  0.9024439894288250  0.4914566753172522  0.5907494464417482
  0.8927387233637276  0.5801945729863576  0.6978185981286131
  0.9066239565724601  0.7011802028523135  0.7909325954143966
  0.9095263941334721  0.7959864398466721  0.9039957053403498
  0.9112699621437557  0.8983312359229529  0.0106573924430364
  0.8849240960929521  0.0121436480083830  0.0765912392562100
  0.9075782600414257  0.1185341115687706  0.2019063655627278
  0.9163876517225802  0.2036138349086940  0.2925569429299273
  0.9039902921359015  0.3009636275326812  0.3982248151234486
  0.0064426313659212  0.3895960019999549  0.6065921892335879
  0.9920403114211567  0.4938652508273620  0.7051616290088347
  0.9961539944287026  0.6030421156639107  0.7927419556677222
  0.9973321092354936  0.6993380119520936  0.8954167648389344
  0.0027517454346295  0.7889779181448091  0.9978544477512443
  0.9905267598390495  0.8995679755243913  0.1133045665579360
  0.9858561839003812  0.0167289826432722  0.1949991352586835
  0.0040628056474858  0.1134093664436548  0.2977894135853916
  0.9932545172733995  0.1926909759291462  0.3945763448489288
  0.9957984514654399  0.3023868169805510  0.4980245846527467
  0.0958210880693287  0.3744092302564255  0.6864606766505545
  0.0927197866717435  0.5006264460369962  0.7898591224018503
  0.0979414942501364  0.6110711059260510  0.8879037999095232
  0.1005144282278962  0.7025500145234602  0.0047228075521986
  0.0981531563534190  0.8058492340658532  0.1074323306587956
  0.1051909821194741  0.9178954629651699  0.2053222742315626
  0.0868907454584402  0.0030120059046226  0.2964344882264740
  0.0952969010261668  0.1067065450822611  0.3972237289588350
  0.0803153829670720  0.1883612604461788  0.5012870555462996
  0.0991317063879436  0.2871474860122376  0.5861405790338310
  0.1994508159329555  0.3939373567296016  0.7912203042784682
  0.1965806009380699  0.5155825347015579  0.8816512873503015
  0.1928224604176094  0.5975587205066546  0.0019949444060856
  0.2025251632104030  0.6992895112021174  0.1132512211613985
  0.1904202909454540  0.8015246603652315  0.2069728735030125
  0.2026862831837306  0.9043060131901655  0.3097727111259232
  0.1921782452798766  0.9972487036022954  0.3906019770957840