Li 
 1.0000000000000000
    21.0004999999999988    0.0000000000000000    0.0000000000000000
     0.0000000000000000   21.0004999999999988    0.0000000000000000
    -0.0000000000000000   -0.0000000000000000   21.0004999999999988
 Li 
 500
Cartesian
 -0.1202372900000000  0.4331932000000000  0.3729190800000000
  0.5110956100000000  2.3974264299999999  1.9873740400000000
  0.4936866800000000  4.4381199200000001  4.0565235900000003
  0.1198159900000000  6.4494470100000001  6.3431937600000001
 -0.0608832300000000  8.6348300899999995  8.6091061399999997
  0.2775856400000000 10.3186848300000005 10.5384395299999998
  0.1523794700000000 12.6236681700000002 12.4942412300000001
  0.1529204000000000 14.7053138899999993 14.6070136900000005
  0.1628940000000000 17.2946891399999991 16.8126530599999988
  0.0285097200000000 18.9834134900000002 18.7508275399999995
  2.5366633599999999 -0.0982553600000000  2.1454349300000000
  2.1120758400000001  2.1610616299999998  4.1233422600000003
  2.2623675799999998  4.3603969300000003  6.4903612600000002
  1.9822731600000001  6.3461432999999996  8.7470286900000005
  2.1516833399999999  8.5062814200000005 10.4832938900000006
  1.8333776100000001 10.3664748800000002 12.6607290399999997
  2.1950763100000001 12.5171408000000000 14.7867865100000007
  2.0054166100000002 15.2451706599999994 16.9115035499999991
  2.3077996000000001 17.0439196600000002 18.8123071999999993
  1.8271343700000000 19.1581826000000000 20.9091053299999992
  4.3990225799999996  0.2623781400000000  4.3361386499999997
  3.8457482000000001  2.1624620800000001  6.5180542499999996
  4.0307180999999996  4.4458780999999998  8.7781731000000001
  4.2971486199999998  6.2678017099999996 10.5164295200000009
  4.4393993500000004  8.2925930200000000 12.9336248099999995
  4.0156121200000001 10.4614442400000005 14.9653198300000003
  4.2967084499999997 12.8030421800000003 16.9205191799999994
  4.4635546599999998 15.1546055299999995 18.9865088299999982
  3.9344416500000001 16.9824862799999998  0.4317248300000000
  4.3204518099999998 19.2034672300000011  2.3068095899999999
  6.3658349699999999  0.0477486400000000  6.3934885799999996
  6.1423069500000000  1.9805444600000000  8.3839673000000001
  6.1724358900000000  4.1897001100000004 10.4841799899999994
  6.4267142100000001  5.9747831500000004 12.4315203600000004
  6.3356982500000001  8.3008258099999992 14.8662531799999993
  6.4384205999999997 10.4614251199999995 16.6310831499999985
  6.0573174500000002 12.8181716100000003 18.9451304900000004
  6.3298788400000001 14.8641191900000003  0.3283656100000000
  6.1969724299999998 16.7552840200000013  2.0706932999999998
  6.3654077700000000 19.1674949999999988  4.3154335000000001
  8.6752854100000008  0.2894922700000000  8.2004224200000007
  8.2201209700000000  1.9903217700000000 10.5412452800000001
  8.4177530500000000  4.2621021900000002 12.2563825400000006
  8.5987028399999996  6.1439016000000004 14.8692007700000008
  8.5030568899999999  8.5788918800000005 16.6369872299999990
  8.2035189000000006 10.5165039599999997 19.1929349299999998
  8.1672764799999999 12.5321403900000004 -0.0280769800000000
  8.4036849500000006 14.9680465799999993  2.4147704800000001
  8.2007344000000000 16.9797666300000003  4.4167115099999998
  8.2849945799999993 19.0204010600000011  6.3375839799999998
 10.4471962499999993  0.1796496200000000 10.5912727199999992
 10.3905875900000009  2.1464463500000002 12.1047259199999999
 10.3288423500000004  3.9791176099999999 14.7036305499999997
 10.3153170400000000  6.1817796300000003 16.7244945600000001
 10.3621964700000007  8.5853942199999995 18.7291355300000006
 10.5272470100000000 10.4070868000000001 -0.2730680900000000
 10.4157909100000001 12.6777619599999998  2.0395181600000001
 10.1987295699999994 14.3616823900000004  4.2518258199999996
 10.2427987799999993 16.7985000999999983  6.5195608199999997
 10.5114756299999996 18.9041219399999996  8.4836750799999994
 12.9331211199999991 -0.0293768100000000 12.5642127200000004
 12.5032156899999993  1.9693285899999999 14.5394899899999999
 12.4103592500000008  3.9443861000000000 16.9896441100000004
 12.3748580300000004  6.1924497699999996 19.1241217299999988
 12.4808723700000002  8.0939494599999993 -0.0931164400000000
 12.5964304299999998 10.3543527799999993  2.2322990800000002
 12.5863610999999995 12.2469796100000003  4.2129907199999996
 12.2635842099999994 14.7247517400000003  6.3482886499999998
 12.2594381299999995 16.7790164200000014  8.1469342900000008
 12.6942507700000000 18.9727179899999996 10.5557033300000001
 14.8732049199999992  0.2512575700000000 14.5523427200000004
 14.6822761899999996  1.9188093399999999 16.8978558899999989
 14.8032989100000005  3.9494050100000000 18.9450419600000011
 14.7207684600000004  6.1537160000000002 -0.1685696000000000
 14.7347686600000003  8.3435967699999996  2.0937796000000000
 14.7996900999999994 10.4132448600000007  4.2442942400000003
 14.2431868300000009 12.1128836399999997  6.6773297400000002
 14.3798307600000008 14.2805695400000001  8.2189646900000000
 14.5796671100000008 16.8873832200000003 10.0225484199999997
 14.7862195900000000 18.9919437199999983 12.4568340299999996
 16.7038839199999991  0.0518280100000000 16.8662585599999986
 16.9789140200000013  2.2365612000000001 18.9680064500000007
 16.8577763500000017  4.3190609899999997  0.0455333600000000
 16.9368361199999988  6.3946901499999997  2.0927753500000001
 16.9587945299999987  8.3218450399999995  3.8925430500000000
 16.9261204499999991 10.4756808299999999  6.4236782899999998
 16.5201217400000004 12.4929016399999995  8.3898637699999998
 16.6974234099999990 14.7323475899999998 10.6233061499999994
 16.8731553599999984 17.0325448399999999 12.4967445599999998
 16.5588094900000016 18.9810533499999998 14.6867169999999998
 18.9240550700000014  0.1249802200000000 19.0962985900000000
 18.8037621900000005  2.3998069200000001 20.8383031299999999
 19.2940663800000003  4.3104265200000000  2.0565534699999999
 19.2692763000000014  6.4525087299999999  4.1801384600000002
 18.9575573800000008  8.5855455500000009  6.3369705700000001
 18.9719677100000013 10.3508397900000002  8.6621669099999998
 18.9543719800000012 12.7236488600000008 10.3348554700000008
 18.8516956700000016 14.7692912300000003 12.6748646399999991
 18.8261212700000016 17.0030066099999999 14.6874440499999999
 19.0203357100000012 19.0870646899999983 16.7040882999999987
  2.2975338500000002  1.9641487399999999 -0.1073909500000000
  2.3496676500000002  4.5080916100000001  2.1018233500000001
  2.2370995200000001  6.5177496699999997  4.1952094899999999
  2.1739001700000000  8.5286727300000003  6.4391650900000004
  2.1223711000000001 10.4512961099999995  8.3567051699999997
  2.3332060399999999 12.7523838900000008 10.4811087300000008
  2.2427310999999999 14.8459289499999993 12.4887572200000001
  2.1843658399999999 17.0679145199999986 14.4158817199999998
  2.1649722400000000 18.9963395300000002 16.8809941700000010
  2.1510413100000001 20.8899077200000001 18.9899039199999997
  4.3155731499999996  2.0621806700000000  2.0349360500000002
  4.3292867199999998  4.0806857499999998  4.3639991499999997
  4.2136304000000004  6.1611961500000003  6.5480183500000004
  3.9524618600000001  8.2567105699999992  8.3946398099999993
  4.1444759199999996 10.5609224800000003 10.4942098799999997
  4.2962612199999999 12.6276788999999994 12.7211201900000006
  4.2674511400000004 15.0336363599999991 14.7550774800000006
  4.2217510200000001 16.8478504700000009 16.8368709199999991
  4.3201170800000002 18.9979985199999994 19.3044258999999983
  4.3319405900000003 21.1865411200000011 21.1282812100000008
  6.2945365600000001  2.1531175600000001  4.4007496499999998
  6.2563898900000003  4.0667105899999996  6.6110787899999996
  6.5765455800000003  6.4093292799999997  8.3390138000000000
  6.0294822000000003  8.6196703699999997 10.6917076800000004
  6.3818843699999999 10.4077590400000002 12.4849951600000004
  6.4125395999999997 12.7799556899999995 14.9579074300000006
  6.2686257699999999 14.7559627899999999 16.6326834300000002
  6.3125448899999999 16.6715215999999984 18.9053477100000009
  6.4691846399999999 18.7552261999999992 -0.0781409600000000
  6.4412308899999999 21.1631878299999983  2.0914386899999999
  8.5447560800000009  2.2030340900000001  6.3149753799999999
  8.5528384600000003  4.2516775200000003  8.6959077800000006
  8.4885553799999993  6.2896039799999999 10.4499281100000001
  8.6107994100000003  8.2085114499999996 12.7461470299999995
  8.4414222999999993 10.7635475399999994 14.6749492099999994
  8.2682103799999993 12.9463405700000003 16.9151781999999997
  8.5399884600000000 14.4377151099999992 19.1782627000000012
  8.3618372200000000 16.8306934000000012  0.0895084600000000
  8.3350580099999991 18.9338319900000016  2.0913880699999998
  8.8302175300000005 21.1606207799999986  4.0928601100000002
 10.6178714000000003  2.1867453200000000  8.3120681899999997
 10.7353381599999995  4.1132821000000002 10.5388351300000007
 10.7861670000000007  6.2811559299999997 12.4380195600000008
 10.6355548899999999  8.6315228000000008 14.7048649699999991
 10.2578158399999992 10.5580039600000006 17.1373406499999987
 10.7458320500000006 12.5687604499999992 19.1058093199999988
 10.3227162000000003 14.6226396100000002  0.3017920200000000
 10.4462283399999993 16.9356547199999987  2.3311515500000000
 10.5087550299999997 18.8537709699999994  4.3611060799999999
 10.5649852400000004 21.1974100400000012  6.3691699200000000
 12.9052246700000008  2.1257948600000001 10.2744565399999992
 12.6412718700000006  4.1295958099999996 12.4850112299999996
 12.6669214900000000  6.3671673200000001 14.8364702499999996
 12.4050477299999997  8.1208606600000000 16.7967817299999993
 12.7088158900000003 10.3254388200000005 18.5180370600000010
 12.9824265899999993 12.6465217100000000 -0.1815581800000000
 12.3868951200000001 14.5344096500000006  2.2837589299999999
 12.3001535900000007 16.4465161199999983  4.3050738700000002
 12.5706911500000000 18.7414739899999994  6.1516561599999999
 12.3627714999999991 20.9125043899999987  8.5401205000000004
 14.7279790800000008  1.9481664400000001 12.4949969400000001
 14.7104672999999995  3.9698381500000002 14.7066260599999996
 14.6318979000000002  6.2538374399999999 16.7305836700000015
 14.4693350299999999  8.2156632399999996 18.7062507599999996
 14.6559739400000009 10.2030328699999995 -0.0572275900000000
 14.7986033900000002 12.4155912399999995  1.9219338399999999
 14.6661172299999993 14.5060560400000007  4.5620410900000001
 14.9200198299999993 16.6790794099999999  6.3759969999999999
 14.5874133199999996 18.7448836099999987  8.2980780400000000
 14.9372007100000008 20.9404251200000004 10.4703850000000003
 16.9706096700000018  2.1769678899999998 14.7672859899999995
 17.0835316599999985  4.1899762100000002 16.7502794000000002
 16.7901076099999997  6.3486255800000002 18.6862062500000015
 16.6440504500000017  8.0832507600000003 -0.0954461500000000
 16.4404165199999994 10.5751861799999993  1.9579726799999999
 16.7887697500000002 12.4538305200000003  4.3789130500000004
 16.7455952600000018 14.4000593099999996  6.3741433299999999
 16.8380883799999985 16.2763725400000006  8.1797095500000001
 16.7452271999999986 18.9541155100000012 10.2949918999999994
 16.9189629400000001 21.1613125400000008 12.7414101800000008
 19.0592747799999991  2.2919102200000001 17.0958404500000007
 18.8850467900000005  4.3227439099999998 18.7990816299999999
 19.0418716600000018  6.2673585500000000 -0.0448752300000000
 18.8621962699999983  8.4409176400000003  1.6762348899999999
 19.0379672199999987 10.2860250499999992  3.9682045600000002
 19.0823892700000002 12.6463778199999997  6.5543967099999998
 18.8951654900000001 14.5896550099999995  8.2938255299999994
 19.1549284299999982 16.6679371399999994 10.4083166299999998
 18.6897104799999987 19.1104444300000011 12.7474092900000002
 18.7865035499999991 21.1003774899999996 14.8930031799999991
 21.3147336100000011  2.2803051100000000 19.0522072999999992
 21.3531253700000008  4.1378024900000003 20.8511035199999988
 21.1170361500000006  6.3454021999999997  2.0232526100000001
 20.8937057199999998  8.4225100200000007  4.2965595800000003
 20.6144533199999991 10.3981323099999994  6.2689941400000002
 21.2286652999999994 12.5721533500000007  8.4707898999999998
 21.1241707100000013 14.5178008500000004 10.5164153200000001
 21.0446540099999986 17.0074885299999998 12.8932323600000007
 21.2315786499999994 19.1468522599999993 14.5944828199999996
 21.0321602900000002 21.0846539799999988 16.6683115400000013
  4.4314158099999998  4.3256655799999999 -0.0535516900000000
  4.4674235299999996  6.4443856899999998  1.9305006199999999
  4.1246152900000004  8.3067348200000009  4.1853295499999996
  4.3187944700000003 10.3945344800000008  6.0732629999999999
  4.3777569400000003 12.7580633300000006  8.2181007600000004
  4.3069095900000001 14.6726578900000000 10.6328993900000004
  4.1372369899999999 16.8401887399999985 12.4190357999999996
  4.3460274999999999 19.0561484599999993 14.6658753799999992
  4.3459244600000000  0.0189899700000000 16.8929868899999995
  4.1922356900000004  1.8354796000000000 19.1086631999999987
  6.1162915800000004  4.2509892300000001  1.8842108799999999
  6.4464643700000002  6.0104281799999999  4.4238770699999996
  6.3332811600000003  7.9437942399999999  6.3271756200000002
  6.1368535599999996 10.6548807599999993  8.4500376799999994
  6.5360265799999997 12.5263674999999992 10.6748346800000000
  6.3738692600000002 14.6728268100000001 12.9084678499999992
  6.1257878400000001 16.9203837099999994 14.8731266499999997
  6.4046187300000001 19.1733314700000008 17.2067063699999991
  6.1911059799999997 -0.0380560500000000 19.3227584099999987
  6.3479986300000002  1.9887044100000000 21.1147390100000010
  8.4651537599999997  4.4354269899999998  4.0295696699999999
  8.1882308899999998  6.1156166499999998  6.5574214199999998
  8.1897153399999993  8.2829864799999999  8.5252002699999991
  8.4065402999999996 10.0260413499999999 10.5918873900000001
  8.1648791400000000 12.8260059599999998 12.5489988799999992
  8.4041676800000005 15.0921917699999995 14.4782127400000000
  8.5435417999999999 16.9298723500000001 16.8971872999999988
  8.4312608299999994 19.1846753399999983 19.3787344399999988
  8.5875198200000007  0.0830568800000000  0.2681534600000000
  8.2507610600000003  2.3261852099999998  2.3808031299999999
 10.3703928800000007  4.4676735900000004  6.4481491699999998
 10.4679025899999996  6.5120768800000004  8.6417237300000007
 10.6906639499999994  8.6325251400000003 10.4733520599999999
 10.4182704600000005 10.5884744600000005 12.5268695399999999
 10.6047273700000009 12.5475537100000007 14.6444817199999999
 10.6257200199999993 14.8849998299999999 16.7160644299999994
 10.2186272599999999 16.8417037799999996 19.0806479300000014
 10.6402858600000005 19.0220396799999989  0.0876903600000000
 10.7138677500000004 -0.2420947300000000  2.3261070600000000
 10.6077037799999996  2.3689097700000001  4.0420873200000003
 12.5812062400000002  4.6080206300000004  8.2316534099999998
 12.9340377800000006  6.3462453099999996 10.4990913700000004
 12.7534623299999996  8.4585312699999999 12.6881237400000000
 12.8601923899999999 10.7924263000000007 14.8548580099999992
 12.6648336799999992 13.0193432900000001 17.1310431399999992
 12.5365086600000009 14.7568503199999999 19.0016043299999993
 12.5571383700000005 16.9824120600000015  0.4342922200000000
 12.7070353699999998 18.9349090400000009  2.4251743600000002
 12.7152205100000000  0.2684197800000000  4.3592169099999998
 12.6611374600000008  2.4304804299999998  6.1465728100000003
 14.9062194300000002  4.1940157300000003 10.4722234000000007
 14.6991508599999996  6.2191586599999997 12.8221123400000003
 14.6056977200000002  8.4414700099999997 14.5971482300000002
 14.8242213500000002 10.3428784900000004 16.5754864099999999
 14.9242093699999998 12.5103995399999999 18.8951315499999986
 14.5512850100000009 14.7897693100000005 -0.0638837100000000
 14.4550034699999994 16.6420976200000013  2.2894363300000000
 14.6318847999999999 18.7801272200000007  4.2788374300000003
 14.7709086500000009  0.0683738300000000  6.3685076000000000
 14.8089961799999994  2.0976234499999999  8.3742468900000002
 16.6859318399999985  4.0747252899999999 12.2327154999999994
 16.7663826200000017  5.9557362100000004 14.6682911100000002
 16.7079910500000004  8.0026140399999992 16.4722863100000012
 16.9115068300000004 10.0265150999999992 18.8128487799999995
 16.7089297700000010 12.4269898100000002 -0.2741908200000000
 16.5866760100000015 14.4711140000000000  1.9416794200000000
 16.5005061499999996 16.5422960400000001  4.0627118400000004
 16.7340011799999999 18.4723356500000016  6.0510505800000001
 16.9625434900000016 -0.2382798600000000  8.2431660099999995
 16.7109829400000010  1.8809343500000000 10.0963680599999996
 18.9987055399999996  3.8681431700000002 14.5073613199999993
 19.1264442300000006  6.2337256700000001 16.4577130199999999
 18.8747229800000014  8.3285207299999993 18.7630822700000017
 18.6794316599999988 10.5847383700000002 -0.0575020800000000
 18.8169700000000013 12.6842190299999995  2.0545010399999999
 18.7032660200000009 14.5111562799999998  4.2009689500000000
 18.7413713100000017 16.1875892999999991  6.0933535900000004
 18.7213218899999987 18.6746078400000002  8.4312560899999998
 18.9759686199999997 -0.2316772100000000 10.3114629799999999
 18.9397711899999983  1.6833097100000001 12.4228690700000008
  0.1134052100000000  4.2114141600000004 16.7763282099999991
  0.3571524100000000  6.3362185899999997 18.6453600100000010
 -0.0063799200000000  8.5770203299999999 -0.3736080400000000
  0.1132597100000000 10.6969169300000004  2.0343672700000002
 -0.0275014400000000 12.5768372300000006  4.3337811799999999
  0.0479403800000000 14.7576177699999995  6.3117327899999998
  0.0884949800000000 16.5661793099999990  8.1582739300000000
 -0.2159350100000000 18.6278558799999985 10.5448446300000001
 -0.2727038800000000 -0.1086911100000000 12.3422896099999999
 -0.0185698900000000  2.0393908600000001 14.6101542999999996
  2.1344287600000000  4.2062473499999999 19.0556666899999989
  2.1944035300000002  6.4004818700000001 21.2503015200000007
  1.7065513800000001  8.4799969700000002  1.9683873800000000
  2.0549936600000001 10.3965948499999996  4.2915530899999998
  2.1185738500000002 12.3017863399999996  6.2917461899999996
  2.0368006500000000 14.5657142799999999  8.4115659399999991
  1.8719127499999999 16.4632669299999996 10.3962853699999993
  2.3027361599999998 18.9203382900000001 12.4547364399999996
  2.2860451199999998  0.3092669600000000 14.6396391099999992
  2.1944827899999999  2.0428138900000001 16.8919043199999983
  6.5151845100000001  6.4842390600000002 -0.0927559700000000
  6.2981784500000000  8.2075601700000007  2.3212847399999998
  6.4666367300000003 10.4028827100000001  4.3728948499999998
  6.5535114900000000 12.5865752200000003  6.3661927699999996
  6.5620437400000000 14.4689961599999997  8.3882796899999992
  6.2858361800000004 16.7611035100000016 10.3078553900000003
  6.0983273599999999 18.6244715899999989 12.4514461500000007
  6.2784147800000003 -0.0970876100000000 14.5860308500000002
  5.8926914400000001  1.8597820100000000 17.0715412999999998
  6.5230423599999998  4.3166168699999998 18.9721285699999989
  7.8021285000000002  6.3633917699999998  1.8164829700000000
  8.4135844300000002  8.1808284899999997  4.1843963300000002
  8.2919882999999999 10.3769739699999999  6.5747149599999997
  8.3283717300000006 12.4881604300000006  8.6147240800000002
  8.5145768299999993 14.8360425300000003 10.5771279499999995
  8.2266262000000001 17.0380305400000012 12.2446274099999997
  8.3217522400000004 19.0819642899999984 14.5879960700000009
  8.3504383200000003 -0.1376820200000000 16.9749407300000001
  8.3185600399999995  2.0388920300000000 18.7003594299999989
  8.2009247599999995  4.2345012500000001 21.1137787900000014
 10.1613395700000009  6.3901738999999997  4.0574095200000002
 10.3649485400000003  8.1834561099999998  6.3170606100000004
 10.2788718200000009 10.4363205200000007  8.5794420599999999
 10.3855897600000002 12.4187303700000005 10.6834398600000000
 10.8213440799999994 14.7658986999999993 12.8664093899999994
 10.4215809799999999 17.0512692699999988 14.4341570000000008
 10.4289893199999995 18.9829515899999990 16.6271831200000015
 10.6172099800000002 -0.0235936700000000 19.2938857800000001
 10.4486372700000008  2.0579902099999998  0.3919085800000000
 10.4119213500000001  4.4556276800000001  2.2458125999999998
 12.4524117200000006  6.6303991499999997  6.4352172200000002
 12.4957567500000000  8.4114653399999995  8.4204594099999994
 12.9717056100000008 10.3469028400000003 10.5450209099999999
 12.8539365399999994 12.7408511299999994 12.4111579600000006
 12.9673316700000001 14.9834503500000000 14.6443211200000007
 12.5030690999999994 16.7492340000000013 16.6894003300000016
 12.5675653199999999 18.7331430099999992 18.8737102899999982
 12.8086446600000006 -0.0570884200000000 -0.0391118000000000
 12.7020495899999997  2.3243999700000000  2.3490779000000002
 12.2593791099999994  4.5272189400000000  4.4363814399999999
 14.6667793900000003  6.4002667400000002  8.2186626199999999
 14.9732623000000000  8.4172549500000002 10.6422711700000008
 14.7746486299999997 10.3187917700000007 12.5644915800000003
 14.9052602099999998 12.6630317800000007 14.6782992799999992
 14.6914766100000005 14.5402022500000001 16.6497077800000000
 14.4396679500000005 16.9419512300000008 18.6186096799999987
 14.5831262200000005 18.9402384599999998 -0.1909713200000000
 14.9280093199999992  0.1972501200000000  2.2143410900000000
 14.7012376099999997  2.4363444900000002  4.2556192199999998
 14.3802504199999994  4.5442673300000003  6.1414813400000003
 16.6585669400000000  6.4401262399999997 10.2974668800000000
 16.9487139499999984  8.2632687499999999 12.8927947899999999
 16.8478883199999991 10.4647027500000007 14.4516526100000000
 16.7616608800000009 12.6277434700000004 16.7232445200000015
 16.6221286600000013 14.6700824599999997 18.7173051400000006
 16.6766703999999990 17.1344230199999998 -0.1942270100000000
 16.5236541000000017 18.8479767799999998  2.0464810600000001
 16.8733435999999983  0.3217854700000000  4.2465284499999996
 16.7452931700000001  2.6622101699999998  6.3824667399999999
 16.9581536899999996  4.2531299899999997  8.3125266900000003
 18.7663108600000008  6.1000460199999997 12.4591578700000003
 19.1474619299999986  8.4491133099999995 14.6049136900000001
 18.6270699600000000 10.2937439200000007 16.5201600800000001
 18.7518673599999985 12.8265090799999992 18.8155219199999983
 18.6091002400000001 14.7918890600000008  0.1321417900000000
 18.8003735600000006 16.9218872599999983  2.4094168499999999
 18.2840681899999993 19.1009436500000014  4.0690186300000004
 18.8593688300000011  0.1290836000000000  6.2191779599999997
 19.0657468100000003  2.1310593500000001  8.2398386499999994
 18.9343674799999988  3.9675343199999999 10.4973373500000005
 -0.1422192500000000  5.9971496499999999 14.3113803500000003
  0.1668613000000000  8.5330722600000009 16.9361792899999983
 -0.0693912100000000 10.7411631100000005 18.7229009499999997
  0.1668316600000000 12.9323065899999996  0.2318210400000000
  0.0805196500000000 14.8409656499999993  2.2246933699999998
 -0.0630931600000000 16.7527794099999987  4.6833676200000003
 -0.4991296300000000 18.6431757500000010  5.7310732199999999
 -0.2461644400000000 -0.2519777100000000  7.9882277500000001
  0.0775271000000000  1.7859805200000001 10.2656713199999992
  0.1028935100000000  3.8727004900000002 12.6332958299999998
  2.3874492699999998  6.1226682900000000 16.5554992200000015
  2.1075334600000000  8.4736042600000001 18.9549808499999983
  2.3065487800000000 10.8006274500000004 -0.0847106800000000
  2.2625054699999998 12.4171831800000003  2.3127521600000001
  2.0315839900000001 14.5874042399999997  4.2884038400000000
  1.7294736600000000 16.8938265399999992  6.3901283900000001
  1.6936957699999999 18.6214069400000000  8.1100926199999996
  2.0204799000000002 -0.1040014300000000  9.9793945799999992
  2.0877690000000002  1.9814181200000001 12.1775426299999996
  2.2675600700000000  4.0327977400000004 14.7217364100000001
  3.9717847700000002  6.0660662700000003 19.0564234200000016
  4.0225109999999997  8.3889805800000001 20.7418070999999991
  4.1149725600000000 10.3289046500000001  2.2558103900000002
  4.5537347800000001 12.4226804400000006  4.4315056999999998
  4.3543519200000000 14.5056954900000008  6.3054355299999996
  4.1873956699999999 16.3816927600000000  8.3563043300000004
  4.0145998599999997 18.8618230599999990 10.4291462399999997
  4.2427413600000001  0.2485961000000000 12.1313450100000004
  4.3794177500000000  2.0855860599999998 14.6444581199999995
  4.3290244199999997  4.1836603200000004 17.0702659499999996
  8.1938498800000001  8.5327235699999999 -0.0865794200000000
  8.3187267499999997 10.1883186499999994  1.9532852700000001
  8.5885136600000003 12.2991549300000003  4.1950290600000004
  8.5785431600000006 14.4670051900000001  6.5016093100000001
  8.3078331799999994 16.7940824599999985  8.3235122900000000
  8.5168607200000004 18.8949917300000010 10.3187916899999994
  8.3779306200000008 -0.3743585200000000 12.3871205700000004
  8.1820814399999993  1.8786696199999999 14.6425728399999997
  8.3494947100000001  3.9837283100000001 16.9104781700000011
  8.4551635899999997  6.4095164499999999 18.8020802700000011
 10.1977018699999995  8.4609663000000008  1.9248706799999999
 10.4256075999999993 10.2868251799999992  4.2276258899999997
 10.3758891900000005 12.3644084299999992  6.7536067400000004
 10.3013395200000009 14.7590557400000009  8.4665600300000001
 10.4965989999999998 16.7446673500000003 10.8188529899999999
 10.7827389100000008 19.0286521099999995 12.5530751699999996
 10.4021580100000008 -0.1406039200000000 14.3776446599999996
 10.3074403900000000  1.7574276099999999 16.7182584699999985
 10.1723695000000003  3.8194414399999999 19.2764192799999989
 10.3190790700000008  6.5282184299999999 21.0569926299999999
 12.4238699199999996  8.3274250700000003  4.0318931500000001
 12.3780042899999998 10.0783874999999998  6.5891094199999998
 12.4973506099999998 12.4588847299999994  8.9163815300000007
 12.4572948100000005 14.9881768100000006 10.7029659299999995
 13.1744159700000001 17.0415279899999987 12.5523150000000001
 13.0792376200000007 19.0984702700000000 14.4673050500000002
 12.4162790800000007 -0.1101705100000000 16.9902531699999990
 12.3885774800000004  2.0782651699999999 18.8539944199999994
 12.4432665399999998  4.0454843000000000  0.0202192400000000
 12.5161687300000004  6.4099081399999998  1.8138282600000000
 14.9933358699999992  8.3397101700000000  6.2295276499999996
 14.8789856399999998 10.3419276300000007  8.6062614300000000
 14.5112767100000006 12.7921609899999993 10.5598858399999997
 14.8686638900000005 14.8390131400000005 12.6071714400000001
 14.6598344500000000 16.7289465600000007 14.7719164400000000
 14.6458668999999997 18.9472489199999998 16.8823522699999984
 14.6079229399999999  0.1279550600000000 18.9349985099999998
 14.6065790100000008  2.2523083399999999 -0.0442842800000000
 14.6280915599999997  4.4528298099999999  1.9409831600000000
 14.6544108600000005  6.4174504499999996  4.2257866999999996
 16.8432435699999985  8.5365312099999997  8.4530027400000005
 16.7314505400000009 10.5987880499999996 10.5891532200000000
 16.7089883800000010 12.7179176500000004 12.3139862699999991
 16.9971320199999987 14.8835598800000000 14.6126053299999992
 16.8964882600000017 16.8073787299999999 16.9702044200000017
 16.8796856400000017 18.8615609000000006 18.8897175399999995
 16.9416394699999984  0.0888383500000000 -0.0369451700000000
 16.6840629199999988  2.6670305200000000  2.2263422799999999
 16.6953154300000008  4.3750653799999997  4.0491679600000001
 16.7002781700000007  6.4951195899999998  6.0942503099999996
 18.9381075500000016  8.5410548199999994 10.7300499400000007
 18.9517750000000014 10.3208359099999996 12.4060337500000006
 18.7479595600000017 12.1843761300000004 14.6545394699999996
 19.0395563999999986 14.7251348499999999 16.6099799700000013
 19.1005090399999986 16.7161132300000013 18.9843618099999993
 19.1371248399999985 18.8654051199999984  0.2238105700000000
 18.5838484800000003  0.2550226800000000  1.6084543200000001
 19.0595972499999995  2.4892756100000000  4.2401346300000000
 19.2445988800000016  4.2759923400000002  6.1438420799999998
 18.9842481300000010  6.3203866599999996  8.3629202300000003
  0.1352984800000000  8.1817108399999992 12.7387392699999999
 -0.1671574400000000 10.3714171999999998 14.8087467900000007
 -0.0807680400000000 12.6641859500000002 16.6479774399999982
 -0.0560270400000000 14.6864479200000009 18.8041997700000003
  0.0577880300000000 16.5689307700000015 -0.0450576700000000
 -0.1989427800000000 18.8913772699999996  2.3794525499999999
 -0.2970272100000000  0.3513170000000000  4.0950793399999998
  0.0853209500000000  2.3816533999999998  6.2537265800000004
 -0.1416585100000000  4.0466068399999999  8.2863005300000001
 -0.0882346200000000  6.3502743500000003 10.4587652900000005
  2.0122907600000000  7.8627810399999998 14.4160174399999992
  1.9471618799999999 10.5134056800000000 16.5874364999999990
  2.0568203500000002 12.8327987599999993 18.6464237500000003
  2.1108532499999999 14.7539015800000008  0.0991813200000000
  2.0612653600000002 16.9232368400000013  2.2561326600000000
  2.2090632200000000 19.2762636699999987  4.3118704200000000
  1.8247491000000000  0.0632536300000000  6.2252724700000002
  2.0012825699999999  2.2408907999999998  8.3418969199999999
  1.6866631999999999  3.9556806500000001 10.5272788100000003
  2.0818154000000000  6.0302407799999997 12.3092452300000001
  4.1885668599999999  8.2728814600000007 16.6160220000000010
  4.1282909099999996 10.8274910200000001 18.5151178600000001
  4.0493680799999998 12.5490319100000001  0.0418948300000000
  4.2531296899999997 14.6854293800000004  2.3783322700000000
  3.9989213200000000 16.8324186299999994  4.3465338300000003
  4.2565132900000000 18.9908784299999986  6.5053818200000002
  4.0358392399999996 -0.0577786000000000  8.2028368199999999