Li                                      
   1.00000000000000     
    21.2169999999999987    0.0000000000000006    0.0000000000000000
     0.0000000000000006   21.2169999999999987    0.0000000000000000
    -0.0000000000000006   -0.0000000000000006   21.2169999999999987
   Li
   500
Direct
  0.9899791360701329  0.9903036767686260  0.0010057133430763
  0.0031080180986933  0.1035537088184029  0.1005918296648929
  0.9990287491162775  0.2028092015836336  0.2074597327614640
  0.9889771117500104  0.3102617976151194  0.3028521435641238
  0.9928845081774043  0.4047274534571343  0.4089100636282197
  0.0050808573313859  0.5019809520667380  0.5066169712966015
  0.9898164594428991  0.6055055243436840  0.5852006042324547
  0.0112759061130205  0.7129146764387073  0.6850389894895628
  0.0039760739030044  0.7982429570627332  0.8081738040250741
  0.0051414285714273  0.8950983923269078  0.9185143314323412
  0.1066288056746956  0.9825948121789096  0.0952514295140716
  0.1044521845689772  0.1067101725031847  0.2037454046283642
  0.0882088636470755  0.2122993802139774  0.3091862563039101
  0.0944962148277355  0.3152137102323636  0.4264442329264284
  0.0998915845784012  0.3928467879530544  0.5058205655842016
  0.0999046439176112  0.5019703850685744  0.6079563378422961
  0.0989389286892575  0.6101851482301939  0.7037783649903346
  0.1054624098600172  0.6950542857142850  0.7990464118395622
  0.1108582250082506  0.7807535118065729  0.9149543535843918
  0.1036494330018414  0.8775806155441401  0.0001137762171837
  0.1926301451666106  0.0239655365980127  0.1951045086487255
  0.2098417038224056  0.1066010402036071  0.3067495710986492
  0.1937808639298666  0.2026307861620396  0.4118606150728183
  0.2102737210727241  0.3119961554413919  0.5167796889286862
  0.2032569449026695  0.3985878974407342  0.6226853697506698
  0.1930791384267323  0.5157761130225751  0.7023589423575416
  0.2026408771268322  0.6081667035867468  0.7848515482867526
  0.2041349219965127  0.6965286096055081  0.9068246156384063
  0.2069643300183799  0.8120877334213148  0.0194935113352486
  0.2158311306970830  0.8960960036762984  0.1205655413112154
  0.3028724060894561  0.0022890950652794  0.3004166993448649
  0.3043585106282691  0.0875590201253686  0.4104121713720161
  0.2837728349908062  0.2082082768534690  0.5059925432436287
  0.2901493123438783  0.3074731540745645  0.6039425347598595
  0.3084788669463165  0.3967445854739111  0.7027401201866397
  0.2924044398359840  0.4990116835556364  0.7993750332280740
  0.2943018881085919  0.5918372870811126  0.8869002219918016
  0.2857630221049163  0.7056068732620062  0.0075337394542103
  0.3127426789838310  0.7956650761182047  0.1089598373945435
  0.2980052538059113  0.9068329391525651  0.2014408347080163
  0.4063115091671747  0.0030245350426554  0.4038309652637011
  0.4008097558561516  0.0996476231323911  0.5038418471037360
  0.3986380534477050  0.2265890879954782  0.5998851505867933
  0.4024471089220896  0.3028170844134408  0.7112549799688921
  0.3947982325493697  0.4095234613753149  0.7888335919309952
  0.3996435004948893  0.5002153919027208  0.8969014851298454
  0.4109571409718598  0.5955211500212059  0.9909430876184189
  0.4115011109016322  0.6909452330678221  0.1094156492435303
  0.3915731540745639  0.7889617024084430  0.2168813479756793
  0.4019297695244362  0.9108069048404559  0.3126044794268736
  0.5066747820144215  0.9988209350992108  0.5065423561295219
  0.4985425630390736  0.1008172743554709  0.5906832346703084
  0.5055248536550891  0.2030601112315580  0.6922408328227334
  0.5055845218456909  0.3059757270113579  0.8001073747466663
  0.5094286124334246  0.3970620587264904  0.8850524640618360
  0.5037925281613767  0.5026451972474888  0.0037290130555689
  0.4814541669416030  0.5940408036008833  0.0909422906160131
  0.5116272498468177  0.7000100325210923  0.2036540637224888
  0.5097476603666848  0.8016367785266496  0.2909437389828895
  0.5029101965405118  0.9133445463543381  0.4109163797897892
  0.6070690601875839  0.0099886275156749  0.5970735787340331
  0.6026399476834641  0.0937392157232395  0.7075757797992139
  0.5879349120987882  0.1901377183390665  0.8164723085261798
  0.6191296003204982  0.3168192619126202  0.8890782881651518
  0.5958764754677830  0.4123055997549159  0.9920190719705886
  0.5905630833765372  0.4960615907055654  0.0985873318565282
  0.5975439515482890  0.5856696898713309  0.2026932789744080
  0.6032007121647709  0.6981210534005768  0.3052371367299784
  0.5910799043220081  0.8064167073573074  0.3884649361361170
  0.6033955865579514  0.9082777796106924  0.4972425602111485
  0.6967292873639082  0.9876753372295823  0.7033532681340446
  0.6887800164962030  0.0892199113918082  0.8022093542913709
  0.6867889197341768  0.1847975533770096  0.8855571386152619
  0.6881650209737487  0.3010781392279753  0.9823390003299224
  0.6894774115096354  0.3992617768770330  0.0970140693783321
  0.7167892128953213  0.4989985134561934  0.1757141009567817
  0.6894514629778001  0.5971847961540249  0.2868609676203064
  0.6991732021492183  0.6941955361266920  0.3983592402318905
  0.7113503110713140  0.7902679615402732  0.4915894301739172
  0.7006746934062278  0.8877087189517852  0.5891403615025652
  0.7949206353395866  0.9943219908563918  0.8117348135928708
  0.7889593783286983  0.1002855507376168  0.9034741909789332
  0.7864092746382596  0.2058527543950603  0.0152565947117864
  0.8086957392656799  0.3074271075081327  0.0908294221614767
  0.8227831941367754  0.3855027793750310  0.2015976292595525
  0.8042776938304215  0.5080935433850229  0.2893254691992269
  0.7890407239477781  0.5959878507800340  0.3921373775745849
  0.7869134835273570  0.6929222529103995  0.4906450304001524
  0.8023225008248076  0.7989873012207198  0.5961231766979296
  0.8003443545270272  0.8920037696187038  0.7055948545977273
  0.8988630249328367  0.0063910119243999  0.9047375698732125
  0.8857410095678020  0.1073994249893957  0.0025796154027447
  0.9097497756515978  0.1928174473299720  0.0830190290804538
  0.9128825300466588  0.2950127977565131  0.1973699556959048
  0.9303872305226975  0.3985115110524546  0.3050150761182095
  0.8985202620540136  0.4992985648300916  0.3997034429938253
  0.9003169397181523  0.6090065254277235  0.4899014889004079
  0.9062644242824121  0.6910470005184521  0.5936022350002332
  0.8987321779704942  0.8013034005750086  0.7017716571617072
  0.9106827638214625  0.8972027873874708  0.8039853923740381
  0.1110155328274516  0.0792347989819504  0.9947962426356227
  0.0905097417165450  0.1926910746099821  0.0931123240797476
  0.0882013385492755  0.3070124334260242  0.1929889484847038
  0.0894151128811771  0.4209882796813886  0.2929753386435436
  0.0978185525757667  0.4912638525710520  0.4123579780364821
  0.1057719163878019  0.6016849040863477  0.4932176141773112
  0.1103522745911292  0.7075763944007178  0.6026268996559381
  0.0988901649620573  0.8098860470377502  0.6923976316161600
  0.1123594683508529  0.8856441330065508  0.8164265796295425
  0.1096702450864839  0.9959955794881452  0.9252670019324114
  0.2216743564123078  0.0932055384832893  0.0968989447141411
  0.1999430847904975  0.1965958264599124  0.1967459923646118
  0.1891721831550157  0.3012944431352196  0.3158988480935108
  0.1973038865061056  0.4116208898524789  0.4100729660178146
  0.2145629419804891  0.4990114931422909  0.5152383338832038
  0.2006177649997625  0.6055481057642425  0.6004398307960628
  0.1933182136965641  0.7038072027148061  0.6888650977989315
  0.2043676613093268  0.7954756214356422  0.8110021661874924
  0.2108246655983379  0.8960752717160787  0.9055057416222851
  0.2063646533440178  0.9969216265258964  0.0126243729085189
  0.2947476311448369  0.1139983244568015  0.2183275712871762
  0.2962548871188204  0.2083151604845170  0.3122289315171827
  0.3076234100014119  0.3099678931988521  0.4118795230239911
  0.2988387222510269  0.4064324551067529  0.5138521388509218
  0.3139076071075095  0.5031960503369959  0.6139579233633441
  0.2999805519159153  0.6067026181835331  0.7053440608945678
  0.3116304557666041  0.6911080567469483  0.8010524536927903
  0.2945634411085436  0.8065549677145682  0.9240450563227611
  0.3037258938586973  0.9122400457180575  0.0150490512325021
  0.3154596191733035  0.0005318211811272  0.1155021407362042
  0.3915989037092871  0.1049431625583281  0.2996444228684538
  0.4082122859028132  0.2145174331903661  0.3987161040674962
  0.4012526737993127  0.2998466630532093  0.5086139732290178
  0.3970200377056159  0.3902113781401724  0.6068915770372811
  0.4016457863977010  0.5082686105481429  0.7085583701748632
  0.4112303718716106  0.5938308479049823  0.8103855870292662
  0.3943179719093166  0.6920706353395829  0.9089097831927262
  0.3954709006928425  0.7972314827732490  0.0176639765282545
  0.3981947970966644  0.8982628071829168  0.1173146208229241
  0.3944142310411465  0.0190838412593664  0.2134548564830112
  0.5041031041146269  0.1195309643210649  0.4104295423481190
  0.5165039388226447  0.2108641528019959  0.5067282843945904
  0.5096326096997714  0.3134771423858211  0.6087707168779772
  0.5041436857237116  0.4022837196587616  0.6992857213555155
  0.5126701357402084  0.5053822712918858  0.7948469029551788
  0.5057254102842066  0.6026834783428399  0.9124246660696613
  0.4989268119903869  0.7135639477777289  0.9976249860960564
  0.4912047198001588  0.7869263623509468  0.1226331078851857
  0.4897538544563318  0.9051798722722353  0.2071620667389382
  0.4978445435264192  0.0150861323467026  0.3157581331008146
  0.6062634420511870  0.1072583348258505  0.5016986746476846
  0.6003636433048953  0.1941653113069677  0.6065937908281072
  0.5979018400339342  0.3040012673799311  0.7078386770042897
  0.6054169755384819  0.4063823278503094  0.7874977565160037
  0.5969339430645206  0.5169398058160937  0.8876719074327184
  0.6035301314983244  0.6012292802941062  0.9977176778055323
  0.5943523104114590  0.6880175760003766  0.1056428100108420
  0.6004610486873716  0.7956329971249474  0.2061507960597666
  0.5957466112079928  0.9042730565112862  0.2970240345006374
  0.5958706028184935  0.0128444459631396  0.3953781670358651
  0.6980011391808461  0.0954646359051736  0.5993751703822383
  0.6905542875995678  0.2011337870575503  0.7116558391855605
  0.6917812909459400  0.2997942923127681  0.8022896121035004
  0.7041466069661126  0.4052857585898124  0.8901028877786672
  0.6960939567328097  0.5208292284488820  0.9862751076966561
  0.7020365711457828  0.5847031559598435  0.0932407423292645
  0.6965086237451104  0.6866317782909945  0.1888909954281957
  0.7045716222840142  0.7997022048357465  0.2897498623745136
  0.7003507899325996  0.8929067092425882  0.3849208314087775
  0.7091793382664875  0.9922822189753475  0.4820804779186503
  0.7997475086015911  0.0826583692322203  0.7083324895131256
  0.8022850699910435  0.2019855813734281  0.7930562987227248
  0.7957240783334143  0.2885270509497104  0.8970605575717556
  0.7989127624075039  0.4043757675448916  0.9965089159636165
  0.8039576844040184  0.4752416566903932  0.1023945110053290
  0.8004024862138834  0.5961894070792297  0.1809333944478482
  0.8071609082339606  0.6883709893010348  0.2987594938021374
  0.7921136904369135  0.7904441730687637  0.3880673012207225
  0.7995671782061535  0.8967500226233653  0.4905429344393610
  0.7929275990950657  0.9800802964603861  0.6052902497996868
  0.8996082419757769  0.0879350487816382  0.8050595706273285
  0.8781020822925001  0.2015074751378592  0.8928857138143940
  0.9147478658622816  0.3001594009520687  0.9921545416411348
  0.9106155549795005  0.3919170551915911  0.0816399778479493
  0.9082601220719226  0.4792595437620761  0.1859495399915190
  0.9090312112928345  0.5954486458971573  0.2933382876938282
  0.8941117368148213  0.6932331705707711  0.3841511321110431
  0.8748809629071062  0.7993657425649232  0.4860624244709442
  0.8908823825234506  0.8942073549512202  0.5994850435971131
  0.9067838125088343  0.9898246745534252  0.7130890484045835
  0.9993810387896502  0.0987699382570568  0.9061587608992809
  0.0019423622566777  0.1987375213272387  0.9875228076542371
  0.0094524381392276  0.2889532073337406  0.0872684413442073
  0.0048425291040175  0.4094434123580157  0.1779332662487647
  0.0168399505113825  0.5062737116463225  0.3001568039779414
  0.0037030814912598  0.5942614511947966  0.4006593377951617
  0.0046143092802922  0.7036413588160428  0.4823975694018969
  0.0066082301927679  0.7957280902106803  0.5693948545977250
  0.9948163845029896  0.8933302578121314  0.7031255653485431
  0.0079060673045177  0.9888251647263999  0.8161781623226645
  0.1988431616156845  0.1815675887260184  0.9911260427958695
  0.1944907098081714  0.2849778135457441  0.0998964848941881
  0.1757683927982256  0.3931083221002041  0.1970391139180876
  0.2029993938822656  0.5031503812980134  0.2972664990337961
  0.2085810331338109  0.5994270994956850  0.4020232624782025
  0.1969088617617913  0.7026500952066712  0.5022291535089778
  0.1974470179573018  0.8123700018852773  0.5835760328981507
  0.1983047692887752  0.8894178649196363  0.6969379172361769
  0.1925338747230967  0.9954694287599537  0.8017863439694608
  0.2078866248762807  0.0813794339444769  0.8983888829712043
  0.3012514940849300  0.1999917518970662  0.1069059673846411
  0.2831405061978600  0.2949839152566369  0.2171161365885865
  0.2954187505302386  0.4030004675496031  0.3134142225573839
  0.3046794636376475  0.5076506009332107  0.4186299410849799
  0.3084920874770205  0.6162876466984031  0.5115407880473199
  0.2962020422302842  0.7135250426544744  0.5927089814771165
  0.3004743309610234  0.7959696139887811  0.7118994994579850
  0.2955629363246430  0.9003099915162380  0.8011192308054831
  0.2924556699816208  0.0024173705047872  0.8992698845265608
  0.3086555842013468  0.0937979813357188  0.0008333492011090
  0.4067467304519994  0.2089081910731991  0.1972883239854824
  0.4016398491775490  0.2963126228967354  0.2995295861808955
  0.4077052010180537  0.4111511099589933  0.4127655912711532
  0.4003919833152665  0.5027909087052862  0.5168493443936484
  0.4029913870952555  0.6204728019983961  0.5928245378705768
  0.3962497784795218  0.6903276551821662  0.6933803369939184
  0.3923726511759469  0.7960596738464432  0.7919351892350477
  0.4016750718763262  0.8959819390111718  0.8954853989725251
  0.3916984479426873  0.9971144167412902  0.0050830079653110
  0.4023203138992315  0.0993664330489707  0.1075149469764796
  0.5114518635999445  0.1994653315737409  0.3020508069001266
  0.5080856021115139  0.3057373450534939  0.4034220535419735
  0.5050461342319821  0.3967308361219750  0.5029104534100028
  0.4958237715039857  0.4983158193901147  0.6039750897864948
  0.5032140674930474  0.6012877305933912  0.6868548890041026
  0.4877302917471837  0.7065039034736316  0.8014656143658385
  0.4977604948861796  0.8026964141961628  0.8931143710232377
  0.4957880213979351  0.8895929259556041  0.0184536781825884
  0.4994029452797264  0.0048281566668251  0.0966366715369773
  0.4941079252486205  0.1127042847716453  0.1935447994532709
  0.6078901314983298  0.2147063929867556  0.4060858156195479
  0.6168737479379729  0.3153873804025054  0.5009440745628524
  0.6101407635386735  0.3996424876278439  0.6026640302587580
  0.6017299014940818  0.5043186638073252  0.6978023104114612
  0.5853560116887380  0.6075416048451743  0.7972061926756879
  0.5970115812791619  0.7042852481500717  0.9069505490879948
  0.6014150944996928  0.8018594306452371  0.0121005005420187
  0.5793756115379196  0.9019633671112786  0.1142125757647179
  0.5824273059339191  0.0037377423763942  0.1996922486685193
  0.5982576448131240  0.1137194061365889  0.2934550388839128
  0.6993082820379897  0.1993714563793176  0.4980324183437830
  0.6958539619173294  0.3025045586086605  0.6104017165480542
  0.7047580147994523  0.3986953942593203  0.6913212617240916
  0.7033468322571537  0.5076025682235965  0.7886078668049237
  0.6976356798793404  0.6033098510628250  0.8994849045576672
  0.7036320615544156  0.6997666093227153  0.0028433817222009
  0.7044416043738480  0.7890678913135716  0.1110104378564358
  0.7062562968374451  0.9072737592496551  0.1857583150303981
  0.6932303605599301  0.9943907871046775  0.2859958307017934
  0.7076975382947666  0.0933903341659956  0.3903009058773605
  0.7919782363199346  0.1841629481076481  0.6062905844370050
  0.7960991671772604  0.2949110048545975  0.6988057892256236
  0.7879273262006876  0.4051779243059812  0.8008148795777004
  0.7991866291181609  0.5026474793797462  0.8809465895272623
  0.8062179351463428  0.5891534849413205  0.0037527426120576
  0.8123352113870936  0.6860967337512349  0.0979260079181756
  0.8031730296460395  0.7938551703822441  0.1932624437950707
  0.7911047641042543  0.8948018098694419  0.2723726247820153
  0.8168134165998993  0.0041681962577158  0.3850623339774728
  0.8008735999434435  0.1000703926097017  0.4921539242117134
  0.8994277282367946  0.1900434788141609  0.6898839289249210
  0.9036477287081084  0.3076078182589441  0.7968090795117106
  0.9072077975208543  0.3996021643022090  0.8883781184898893
  0.9047775694018938  0.4804340740915336  0.9924291747183887
  0.8979392685111023  0.5818247659895377  0.0859788711881961
  0.9168284243766820  0.7048686788895679  0.1803526563604692
  0.8993454456332159  0.8000543861054794  0.2852158995145402
  0.8837232549370810  0.8946585464486034  0.3738079059244939
  0.8957650459537163  0.9908415322618680  0.4849130428430044
  0.8870942847716421  0.0925732181741026  0.5975105146816233
  0.9925907852193987  0.1921816868548802  0.8082218381486541
  0.0171489984446467  0.2917390502898627  0.8871379172361813
  0.0200158962152983  0.3959953650374715  0.9792569109676208
  0.0125379832210015  0.4999263566951058  0.0796866663524511
  0.0033096573502363  0.5828542395249059  0.2008662148277338
  0.0154061417731057  0.7025231441768369  0.3082144535042630
  0.9841003464203268  0.8211521181128347  0.3941517240891770
  0.9908147947400678  0.8975985704859326  0.4771714177310642
  0.0022230640524086  0.9910643182353738  0.5831762836404764
  0.9869487670264405  0.0724162751567121  0.7066078531366387
  0.1053521774991779  0.1890508526181804  0.9019037969552741
  0.1042165702031355  0.2990299137484058  0.9863395046425012
  0.0969770165433346  0.3947003629165309  0.0865136093698453
  0.1070128873073486  0.5079390672573894  0.1880333972757668
  0.1148605080831402  0.5929782834519486  0.3066788042607342
  0.1198196672479597  0.7019900471320142  0.3855137323844104
  0.0940692374039713  0.8103574228213191  0.4685780459065825
  0.0930966512702085  0.8960079502285936  0.5868490323796962
  0.1007299297732942  0.9979686666352450  0.7007633190366249
  0.0898731036433063  0.0943633968044466  0.8063143507564661
  0.2936984616109726  0.2949211896121042  0.0065560781448823
  0.2947455356553732  0.3964036169109662  0.1154830211622766
  0.2932205052552206  0.5005639831267388  0.2040216599896283
  0.3084451920629689  0.5955082773247895  0.2989774831503027
  0.3145747325258057  0.6872551694396023  0.3933997054248977
  0.2994706815289661  0.7933850110760261  0.4914642866569281
  0.2913169170947825  0.8910562515907046  0.5919340590092830
  0.2868073181882451  0.9984299146910516  0.6940123792242048
  0.3023018584154187  0.1007532695480009  0.7922658094923847
  0.3063752745439956  0.1954752759579605  0.9062844855540391
  0.3926732785030893  0.3043827685346656  0.1003287797520827
  0.3933377107979439  0.3968871018522862  0.2089913357213575
  0.4041727798463484  0.4975086925578580  0.3065432620068833
  0.4187132657774413  0.6012511486072469  0.4128453117782911
  0.4109208450770581  0.7070775123721518  0.5015606273271445
  0.4005706584342761  0.7938235019088467  0.6093272621011465
  0.3972067587312083  0.9177544021303703  0.6971672875524320
  0.3999948852335393  0.0018635815619561  0.7864227774897472
  0.3977275345242006  0.1043274595842973  0.9037033360041491
  0.4054563458547378  0.1953227595795823  0.0026729947683464
  0.5035079327897449  0.3103589814771155  0.2102454626007457
  0.5088248503558432  0.4074848838195777  0.3079736645143072
  0.5143517650940268  0.5025498845265588  0.4087763043785628
  0.5063781392279765  0.5932958307017984  0.5172933661686372
  0.5017450106047008  0.7096869166234612  0.6001122896733762
  0.5082032422114366  0.8065502040816313  0.6903486152613496
  0.4982190441627026  0.8968294150916734  0.7855331220247947
  0.4858888716595189  0.9919343917613261  0.8943203836546161
  0.4973211990385096  0.0966746250648072  0.0022453532544660
  0.5044461408304670  0.2203980713578702  0.0918342913701267
  0.5935163232313698  0.3020647518499331  0.3028365282556464
  0.6062700735259483  0.4014962058726468  0.4049015124664166
  0.5955830461422451  0.4896586770042859  0.5115123867653324
  0.6008135881604346  0.5988058358863171  0.6202213663571641
  0.5973215218928232  0.7157194697648137  0.6982353065937659
  0.6018885921666595  0.8012281415845806  0.8058681481830590
  0.5867164886647487  0.8976917627374306  0.8993217057076848
  0.5811924876278454  0.9996395032285434  0.9989967789979701
  0.5941925060093354  0.1076107508130306  0.1131841744827256
  0.5875359560729621  0.1935710303058897  0.2025158665221269
  0.7150098524767898  0.3140423641419616  0.4022664278644470
  0.7155296408540295  0.4052188499787874  0.5039208389498953
  0.6930389107790944  0.4946156888344220  0.6209641749540467
  0.6959655290568918  0.6089576886458943  0.7052085407927606
  0.6969404086345889  0.7018545595513004  0.8216432167601440
  0.6937811495498920  0.8057258099637110  0.9187015826931244
  0.6838062407503429  0.8981808917377592  0.0014109911863116
  0.6758661497855485  0.9954915482867506  0.0907163953433567
  0.6855085143988333  0.1053787632558780  0.2005164905500294
  0.6949512735070940  0.2172780911533181  0.2945842484799925
  0.7990960182872229  0.3087827360135762  0.5093351520007516
  0.7926643653673935  0.3953939096007915  0.6104369189800636
  0.8018310043832741  0.5115306735165177  0.6979016727152754
  0.7961218678418263  0.6129971093934117  0.8032247509072903
  0.8114384616109689  0.6994321506339247  0.9181334854126391
  0.7957524433237495  0.8124290022152039  0.0063585261818346
  0.7979546934062327  0.9057211099589964  0.0987975250978010
  0.8011657326672008  0.0063075901399827  0.2007725031814118
  0.8050658217467159  0.1039700777678263  0.2986514568506351
  0.8083831342791186  0.2194695381062388  0.3996369152094985
  0.8870288193429801  0.2927097238063823  0.6184374727812596
  0.9161390950652759  0.4063277602865654  0.7104583800725806
  0.8926989093651301  0.4997388721308411  0.8023967714568485
  0.8993165079888783  0.5969182198237277  0.9093643366168607
  0.9110212970730984  0.7008657029740277  0.0164075288683634
  0.9048104119338234  0.8004017217325696  0.1015452373097077
  0.8927177838525679  0.9103177056134228  0.1952041787246088
  0.8864098322100205  0.0099488198142978  0.2927066050808307
  0.9057885681293314  0.1042817518970622  0.4020972531460600
  0.8952246462742153  0.2023097916764840  0.5074957326672020
  0.9953766050808284  0.2904060856860085  0.6997309968421561
  0.0168039793561761  0.4097626488193455  0.8090888141584571
  0.0018156242635641  0.5067788297120259  0.8931360512796331
  0.0112120153650395  0.5956503492482454  0.9991995828816513
  0.0131825569119073  0.6954308771268316  0.1082331027006660
  0.9969035796766761  0.7929864599142178  0.1992723254937090
  0.0035471532261866  0.9120325512560683  0.2823286458971594
  0.9891899698355076  0.0013630117358687  0.3884620775792982
  0.9974651727388419  0.0975942546071522  0.4952848998444637
  0.9973583371824475  0.1889765442805285  0.6124365376820506
  0.0957790564170224  0.2884472536173845  0.8040076679078112
  0.1146603709289735  0.4022342852429688  0.9059187439317498
  0.1137893561766532  0.5035177254088694  0.9953624664184346
  0.0997143309610209  0.6027620115944785  0.0968690799830298
  0.0985766390158815  0.6971881387566583  0.2072198449356648
  0.1124901791016626  0.8043231545458838  0.3001633831361659
  0.1043867719281693  0.8989669892067695  0.3961519135598834
  0.0989421440354405  0.0021902992883085  0.5053223905358877
  0.1060488895696849  0.0999927261158504  0.5978656072960362
  0.0948572140264901  0.1904015101098153  0.6949040316727135
  0.2004096069189814  0.2990196366121509  0.8879616793137544
  0.2073311090163514  0.4018149201112351  0.9966419734175389
  0.1902476594240454  0.5070071555827909  0.1013375439506063
  0.1934193344959212  0.6089886157326703  0.1979066993448626
  0.2033132855728894  0.6980536418909367  0.2953989400009434
  0.2316993245981962  0.8033941136824225  0.3963568402695969
  0.2002589390583012  0.9022168459254374  0.4866607178206124
  0.1860973931281507  0.9846646057406829  0.5887655856153060
  0.1946573719187441  0.0888710265353225  0.6956983253994409
  0.2029492534288551  0.1850718419192177  0.8038986883159751
  0.3849322613941624  0.4099634354527026  0.9947726874675951
  0.3813713319507954  0.5033536682848663  0.1020649733704104
  0.4171182028562015  0.5861126667295125  0.2039079200640970
  0.4033442235000209  0.6915626827543946  0.2957814059480626
  0.4029294056652688  0.8011246316632921  0.3947707385587051
  0.3932651864071275  0.9020319729462258  0.4854690026865285
  0.3916977074987074  0.0008981486543789  0.5862260281849458
  0.3979440788047341  0.1023895579016809  0.6830251458735930
  0.4097647377103257  0.1881134104727309  0.8030438836781855
  0.4018537121176422  0.3021152142150143  0.9011392534288518
  0.4762196229438658  0.3893595668567684  0.1009987585426799
  0.4995069519724780  0.4872369123815830  0.2004834043455688
  0.5112469477305908  0.5838064236225691  0.2962457081585512
  0.5003951826365665  0.6869716538624715  0.3833037762171827
  0.5044660734316793  0.7970474902201090  0.4869667342225554
  0.4966559570155979  0.8995336216241725  0.5910538553989753
  0.5010982250082492  0.9963360361973912  0.6879960182872225
  0.4863944186265741  0.0874259164820685  0.7919546467455376
  0.4990825795352762  0.1897500240373304  0.8884104001508248
  0.5041700179101696  0.3078650864872543  0.9834923377480322
  0.6002099424989424  0.3868859725691678  0.1924482777961103
  0.6028543846915184  0.4874921628882518  0.2944698510628285
  0.6033143785643560  0.5867143894047260  0.4022939359947202
  0.5955827313003752  0.6996612966017821  0.4898316746005591
  0.5969464009992009  0.8031738535136910  0.6034938403167303
  0.5826230777206973  0.8913082386765296  0.6904724923410441
  0.6000642777018399  0.9927890220106548  0.7907056860065040
  0.5899523806381666  0.0818574176367974  0.9042260456237941
  0.5938301494084897  0.2001467375217985  0.9752673243154106
  0.5890213541028402  0.2990376165339086  0.0802112961304644
  0.7027224994108465  0.4011264500164984  0.2847172135551688
  0.6961663430268175  0.4825072932082790  0.4092753631521902
  0.6952413541028406  0.5650251868784437  0.4985086623933626
  0.6959809237875305  0.6990259273224311  0.5922079643681926
  0.6961680397794225  0.8038797652825593  0.7027441150963867
  0.7013901065183603  0.9011662006881238  0.8155002474430901
  0.6956641264080687  0.9844531903662173  0.9037044162699743
  0.6931209233162079  0.0995010076825196  0.9974369293491065
  0.6775283173870008  0.2000479054531752  0.1044914342272705
  0.6973232115756218  0.3017507164066515  0.1904269920346877
  0.8115608794834301  0.4193303369939230  0.3792886911438913
  0.7985908851392765  0.5038958971579390  0.5144630051373866
  0.7904115666682401  0.6074079554131089  0.6064187029268950
  0.7955278818871676  0.7062517622661062  0.7066802210491616
  0.7944808945656803  0.8008271541688288  0.8099392920771109
  0.7942928415892894  0.8906166856765765  0.8960753070650895
  0.8038848131215559  0.9939656365178848  0.0103942235000218
  0.7818767714568509  0.0895630984587825  0.1168127369562129
  0.8045713055568626  0.2055068402695923  0.1849460597633978
  0.8134781472404171  0.3036077518028009  0.2921613003723422
  0.8998084691520916  0.4079083673469412  0.5162886261017121
  0.9151576994862580  0.5100184781071775  0.5993839656878919
  0.9021764542583810  0.6139668506386400  0.7000190003299238
  0.9010625814205611  0.7115150629212437  0.8074355238723641
  0.9037819941556293  0.8025358094923902  0.9088840269595124
  0.8912629334967264  0.9009652269406629  0.0034774185794433
  0.9037482570580195  0.0181816128576173  0.1024947146156379
  0.9125144011877282  0.1135259584295625  0.1843114017061822
  0.8971404623650869  0.1989850977989320  0.2969350671631261
  0.8933421077437913  0.3171791464391731  0.4102680115002144
  0.0004954248951279  0.4110368907008564  0.6087011547344119
  0.9763503765848114  0.5267845845312706  0.7039896111608641
  0.9972237097610375  0.6241788740161169  0.7966727072630420
  0.0083401267851286  0.6941995442333990  0.9052789975020019
  0.9872966239336378  0.7901082268935298  0.0011092949050280
  0.9920639906678588  0.9074191822595097  0.0928791082622453
  0.0169042970259667  0.0122971456850607  0.1956418532309030
  0.9931516359523016  0.1019963840316720  0.3123734693877580
  0.9980633463731934  0.2230595626148855  0.3989248607248896
  0.9813786807748528  0.3004781642079450  0.5196603784700926
  0.0875054329075766  0.4033568492246786  0.7065759367488340
  0.0933720196069174  0.5133064999764372  0.7851785021445039
  0.1018444996936410  0.5995288184003371  0.8915193057453905
  0.1037568011500198  0.7084832949992901  0.0051168218881088
  0.1051560423245519  0.8019546245934848  0.1007230235188743
  0.0972125291040200  0.8946726549465041  0.1862453197907357
  0.1024883692322192  0.0138847942687477  0.3009704963001383
  0.0947903313380749  0.0928541678842407  0.3992681128340507
  0.0956295022859024  0.1957909525380614  0.5122869020125336
  0.1012062991940397  0.2928529683744188  0.6108484446434446
  0.2004258500259226  0.4017217815902328  0.7819657675448966
  0.1999776829900526  0.4955505212801086  0.8943742696894006
  0.1999349135127488  0.5883556548993738  0.0032982980628731
  0.1991994598670885  0.7004423735683645  0.1117992628552571
  0.2041469538577587  0.7901244563321868  0.2030391935711933
  0.1964285007305477  0.9092872441909776  0.2930395135975843
  0.1947937502945720  0.9949906244992235  0.4091447942687481