Li 
 1.0000000000000000
    21.2169999999999987    0.0000000000000006    0.0000000000000000
     0.0000000000000006   21.2169999999999987    0.0000000000000000
    -0.0000000000000006   -0.0000000000000006   21.2169999999999987
 Li 
 500
Cartesian
 -0.2126126700000000 -0.2057268900000000  0.0213382200000000
  0.0659428200000000  2.1970990399999999  2.1342568499999999
 -0.0206070300000000  4.3030028299999996  4.4016731499999997
 -0.2338726200000000  6.5828245599999997  6.4256139299999999
 -0.1509693900000000  8.5871023799999993  8.6758448200000000
  0.1078005500000000 10.6505298600000007 10.7488922799999997
 -0.2160641800000000 12.8470107099999993 12.4162012199999996
  0.2392409000000000 15.1259106899999995 14.5344722399999995
  0.0843603600000000 16.9363208199999988 17.1470236000000007
  0.1090856900000000 18.9913025900000001 19.4881185700000010
  2.2623433700000000 -0.3692858700000000  2.0209495799999999
  2.2161620000000002  2.2640697300000001  4.3228662499999997
  1.8715274600000000  4.5043559499999999  6.5600047999999997
  2.0049261899999999  6.6878892900000002  9.0478672899999992
  2.1193997499999999  8.3350302999999997 10.7319949399999999
  2.1196768300000000 10.6503056600000008 12.8990096199999993
  2.0991872499999999 12.9462982899999997 14.9320655700000007
  2.2375959499999998 14.7469667799999993 16.9533677199999993
  2.3520789600000001 16.5652472599999996 19.4125865200000014
  2.1991300200000001 18.6196279199999992 21.2194139899999996
  4.0870337900000004  0.5084767900000000  4.1395323599999996
  4.4522114300000002  2.2617542700000000  6.5083056499999996
  4.1114485900000002  4.2992173899999999  8.7384466700000001
  4.4613775400000000  6.6196224299999997 10.9645146600000007
  4.3125026000000002  8.4568394199999997 13.2115154900000000
  4.0965600799999997 10.9432217900000008 14.9019496799999995
  4.2994314899999999 12.9034729499999994 16.6521952999999989
  4.3311306399999996 14.7782475099999999 19.2400978699999996
  4.3911621900000002 17.2300654400000006  0.4135938300000000
  4.5792890999999996 19.0124689099999991  2.5580390899999998
  6.4260438400000002  0.0485677300000000  6.3739411099999996
  6.4575745199999997  1.8577397300000000  8.7077150400000001
  6.0208082400000000  4.4175550100000001 10.7356437899999992
  6.1560979600000003  6.5236579099999998 12.8138487600000008
  6.5449961200000004  8.4177298700000005 14.9100371299999992
  6.2039450000000000 10.5875308900000000 16.9603400800000017
  6.2442031599999996 12.5570117200000002 18.8173620100000001
  6.0630340399999998 14.9708610300000000  0.1598433500000000
  6.6354614200000004 16.8816259200000012  2.3118008699999999
  6.3227774700000001 19.2402744699999992  4.2739701900000000
  8.6207112899999991  0.0641715600000000  8.5680815900000002
  8.5039805899999994  2.1142236200000002 10.6900124699999992
  8.4579035800000000  4.8075406799999998 12.7277632399999998
  8.5387203100000004  6.4248700799999998 15.0906969100000001
  8.3764341000000009  8.6888592800000009 16.7366823199999999
  8.4792361500000002 10.6130699699999997 19.0295588100000010
  8.7192776599999995 12.6351722399999993 -0.1921605100000000
  8.7308190700000008 14.6597850100000002  2.3214718300000001
  8.3080076100000007 16.7394004400000007  4.6015715600000000
  8.5277439200000007 19.3245901000000018  6.6325292400000002
 10.7501188499999998 -0.0250162200000000 10.7473091699999994
 10.5775775599999999  2.1390401099999998 12.5325261900000005
 10.7257208199999994  4.3083263799999996 14.6872737499999992
 10.7269868000000006  6.4918870000000002 16.9758781700000014
 10.8085468700000007  8.4244657000000007 18.7781581300000013
 10.6889660699999993 10.6646231500000006  0.0791184700000000
 10.2150130600000004 12.6037637300000007  1.9295225800000000
 10.8551953599999997 14.8521128600000001  4.3209282699999996
 10.8153161099999995 17.0083275299999990  6.1729533099999996
 10.6702456399999992 19.3784312400000012  8.7184128300000001
 12.8801842499999992  0.2119287100000000 12.6681101199999997
 12.7862117699999995  1.9888649400000000 15.0126353199999993
 12.4742150299999999  4.0341519699999999 17.3230929700000011
 13.1360727300000004  6.7219542800000003 18.8635740399999996
 12.6427111799999992  8.7478879099999993 -0.1693313500000000
 12.5299769399999992 10.5249387700000003  2.0917274199999998
 12.6780900200000008 12.4261538100000006  4.3005433000000002
 12.7981095099999997 14.8120343900000009  6.4762163299999997
 12.5409423300000000 17.1097432800000000  8.2420605499999997
 12.8022441600000008 19.2709296499999994 10.5499954000000002
 14.7825052899999996 -0.2614923700000000 14.9230462900000003
 14.6138456100000003  1.8929788599999999 17.0204758699999985
 14.5716005099999997  3.9208496899999998 18.7888658100000008
 14.6007972499999994  6.3879748799999998 -0.3747134300000000
 14.6286422399999996  8.4711371199999999  2.0583475099999999
 15.2081167300000004 10.5872514599999992  3.7281260800000000
 14.6280916899999998 12.6704698199999992  6.0863291500000001
 14.8343578300000001 14.7287466899999995  8.4519880000000001
 15.0927195500000000 16.7671153400000001 10.4300529399999995
 14.8662149699999997 18.8345158899999987 12.4997910500000007
 16.8658311199999993 -0.1204703200000000 17.2225775399999996
 16.7393511299999993  2.1277585299999999 19.1690119099999983
 16.6852455800000001  4.3675778899999997  0.3236991700000000
 17.1580975000000002  6.5226809399999999  1.9271278500000000
 17.4569910300000011  8.1792124699999995  4.2772968999999996
 17.0643598300000008 10.7802207100000000  6.1386184799999999
 16.7410770400000004 12.6450742300000005  8.3199787399999998
 16.6959433799999992 14.7017314399999997 10.4100156100000003
 17.0228764999999989 16.9521135700000016 12.6479454400000009
 16.9809061700000008 18.9256439800000003 14.9706060300000008
 19.0711767999999999  0.1355981000000000 19.1958170199999998
 18.7927670000000013  2.2786936000000000 21.2717317000000001
 19.3021609900000009  4.0910077800000000  1.7614147400000000
 19.3686286400000007  6.2592865299999998  4.1875983500000000
 19.7400258700000002  8.4552187300000003  6.4715048700000004
 19.0639043999999984 10.5936176500000006  8.4805079499999998
 19.1020245099999997 12.9212914500000000 10.3942398899999997
 19.2282122899999983 14.6619442099999997 12.5944586199999993
 19.0684006199999985 17.0012542499999988 14.8894892500000005
 19.3219561999999989 19.0359515399999992 17.0581580700000011
  2.3554165600000001  1.6811247300000001 -0.1104081200000000
  1.9203451899999999  4.0883265299999998  1.9755641799999999
  1.8713678000000000  6.5138828000000002  4.0946465200000004
  1.8971204500000001  8.9321083300000002  6.2160577600000000
  2.0754162300000001 10.4231451600000007  8.7489992200000000
  2.2441627500000001 12.7659486100000006 10.4645981199999998
  2.3413442099999999 15.0126483600000000 12.7859349299999998
  2.0981526300000000 17.1833522599999995 14.6906005499999992
  2.3839308400000001 18.7907115699999991 17.3221227400000011
  2.3268735899999999 21.1320382100000010 19.6313899800000016
  4.7032648200000002  1.9775419100000000  2.0559049100000002
  4.2421924300000002  4.1711736500000001  4.1743597200000000
  4.0136662100000002  6.3925641999999998  6.7024258600000000
  4.1861965600000000  8.7333604200000003  8.7005181199999999
  4.5523819400000001 10.5875268499999997 10.9318117299999997
  4.2565071200000002 12.8479141600000002 12.7395318900000003
  4.1016325399999998 14.9326774199999992 14.6156507799999993
  4.3360686700000004 16.8776062600000003 17.2070329599999994
  4.4730669299999999 19.0120290400000016 19.2121153199999988
  4.3784388500000002 21.1516861499999997 21.4848513200000006
  6.2536604899999997  2.4187024500000001  4.6322560800000003
  6.2856399400000003  4.4198227599999997  6.6245612400000002
  6.5268458899999997  6.5765887899999997  8.7388478400000000
  6.3404611700000002  8.6232773999999992 10.9024008299999995
  6.6601777000000002 10.6763106000000008 13.0263452599999994
  6.3646873700000004 12.8724094499999993 14.9652849400000001
  6.6118633800000000 14.6632396400000005 16.9959299100000010
  6.2497525300000003 17.1126767499999985 19.6054639600000016
  6.4441522899999999 19.3549970500000015  0.3192957200000000
  6.6931067400000002 21.2282836500000016  2.4506089200000001
  8.3085539399999995  2.2265790800000000  6.3575557199999997
  8.6610400700000003  4.5514163800000000  8.4595595800000005
  8.5133779799999996  6.3618466500000004 10.7912626700000001
  8.4235741399999995  8.2791148099999994 12.8764185900000001
  8.5217186500000004 10.7839351099999998 15.0334829400000007
  8.7250747999999998 12.5993090999999993 17.1939509999999984
  8.3662444100000002 14.6836626700000004 19.2843388699999991
  8.3907060999999992 16.9148603699999995  0.3747765900000000
  8.4484990100000008 19.0584419800000013  2.4890643099999998
  8.3682867400000003 21.6219018600000012  4.5288716899999999
 10.6955555600000007  2.5360884700000002  8.7080836000000001
 10.9586640699999993  4.4739047300000001 10.7512540100000002
 10.8128750799999995  6.6510445300000001 12.9162882999999997
 10.6964165799999993  8.5352536800000003 14.8367451500000005
 10.8773222700000005 10.7226956500000004 16.8642667400000015
 10.7299760299999996 12.7871353600000006 19.3589141399999995
 10.5857301699999997 15.1396862799999994 -0.0503906700000000
 10.4218905399999997 16.6962166299999986  2.6019066500000001
 10.3911075299999993 19.2052013499999994  4.3953575699999998
 10.5627676800000003 21.5370824700000014  6.6994403100000000
 12.8630914500000006  2.2757000900000000 10.6445407799999998
 12.7379154200000002  4.1196054100000001 12.8701004599999997
 12.6856833400000006  6.4499948900000001 15.0182132100000008
 12.8451319700000006  8.6222138499999996 16.7083398999999986
 12.6651474700000009 10.9679118599999992 18.8337348599999999
 12.8050987999999997 12.7562816399999992 -0.0484240300000000
 12.6103729700000002 14.5976689099999994  2.2414234999999998
 12.7399820699999999 16.8809453000000005  4.3739014400000000
 12.6399558499999998 19.1859614399999998  6.3019589399999996
 12.6425865799999997 21.4895206099999996  8.3887385699999992
 14.8094901700000001  2.0254731800000001 12.7169429899999997
 14.6514903200000006  4.2674555600000001 15.0992019400000004
 14.6775236499999995  6.3607354999999997 17.0221787000000013
 14.9398785600000004  8.5989479400000004 18.8853129700000011
 14.7690254799999998 11.0504337400000008 -0.2912010400000000
 14.8951099300000003 12.4056468599999992  1.9782888300000001
 14.7778234699999995 14.5682664400000004  4.0077002500000001
 14.9488961099999997 16.9672816799999993  6.1476228300000004
 14.8593427100000000 18.9448016499999987  8.1668652799999997
 15.0466580200000006 21.0532518400000015 10.2283015000000006
 16.9682428899999991  1.7537626200000000 15.0286904299999993
 17.0220823299999999  4.2855280799999997 16.8262754900000004
 16.8828777700000003  6.1216784400000002 19.0329338499999992
 16.9505320799999986  8.5796406600000008 -0.0740703300000000
 17.0575701899999999 10.0832022299999995  2.1725043400000001
 16.9821395499999994 12.6493506500000006  3.8388638300000002
 17.1255329900000000 14.6051672799999999  6.3387801799999997
 16.8062761700000003 16.7708540200000016  8.2336239300000003
 16.9644168200000003 19.0263452300000004 10.4078494399999997
 16.8235448699999992 20.7943636500000011 12.8424432300000007
 19.0869880700000003  1.8657179300000000 17.0809489100000000
 18.6306918800000005  4.2753841000000001 18.9443561900000006
 19.4082054699999986  6.3684820100000001 -0.1664570900000000
 19.3205302299999992  8.3153041600000002  1.7321554100000001
 19.2705550099999989 10.1684497399999998  3.9452913900000000
 19.2869152100000001 12.6336339199999994  6.2237584500000001
 18.9703687199999997 14.7083281800000005  8.1505345699999996
 18.5623493900000014 16.9601429599999989 10.3127864599999999
 18.9018515100000002 18.9723974499999990 12.7192741700000003
 19.2392321499999994 21.0011101199999999 15.1296103399999993
 21.2038675000000012  2.0956017800000000 19.2259704300000003
 21.2582111000000005  4.2166139899999999 20.9522714100000016
 21.4175523800000001  6.1307201999999998  1.8515745200000000
 21.3197439399999986  8.6871608800000004  3.7752101100000002
 21.5742932299999985 10.7416093400000001  6.3684269100000002
 21.2955682800000012 12.6084452099999993  8.5007891699999991
 21.3149018000000012 14.9291587099999994 10.2350292300000003
 21.3572068199999983 16.8829628900000017 12.0808506300000005
 21.1070192299999988 18.9537880799999989 14.9182151199999993
 21.3847430299999992 20.9799035200000006 17.3168520699999995
  4.2188553600000001  3.8523195299999999 -0.1882787500000000
  4.1265093899999998  6.0463742700000003  2.1195037200000000
  3.7292779899999999  8.3405792699999992  4.1805788799999997
  4.3070381400000004 10.6753416399999992  6.3071033099999996
  4.4254637800000003 12.7180447700000006  8.5297275599999995
  4.1778153199999997 14.9081270700000008 10.6557959499999999
  4.1892333800000001 17.2360543300000018 12.3817326899999998
  4.2074322899999999 18.8707788399999998 14.7869317900000006
  4.0849912200000000 -0.0961251300000000 17.0115008600000017
  4.4107305200000004  1.7266274500000001 19.0611169300000007
  6.3916529500000001  4.2432249999999998  2.2682239100000001
  6.0073921199999996  6.2586737299999999  4.6065530700000004
  6.2678996299999996  8.5504609200000008  6.6497095599999998
  6.4643841799999997 10.7708227999999995  8.8820714600000006
  6.5452766200000001 13.0757750000000001 10.8533609000000002
  6.2845187300000003 15.1388608300000005 12.5755064599999997
  6.3751638799999997 16.8880872999999987 15.1043716799999999
  6.2709588199999997 19.1018770899999986 16.9973467199999995
  6.2050319500000004  0.0512893500000000 19.0798091399999983
  6.5487455299999997  1.9901117699999999 21.2346811700000018
  8.6299453800000006  4.4324050899999996  4.1858663700000003
  8.5215926799999995  6.2868649200000002  6.3551192299999997
  8.6502812500000008  8.7233930999999991  8.7576475499999997
  8.4951167099999996 10.6677147100000003 10.9659925400000002
  8.5502682599999993 13.1645714399999996 12.5779582199999993
  8.4072315500000006 14.6466818599999993 14.7114506100000000
  8.3249705400000007 16.8899980999999997 16.8024889100000010
  8.5223399999999998 19.0100487999999999 18.9995137099999987
  8.3106659700000005 -0.0612234200000000  0.1078461800000000
  8.5360300999999996  2.1082576099999999  2.2811446300000000
 10.8514741899999994  4.2320559400000004  6.4086119699999999
 10.7800522200000000  6.4868292500000004  8.5594057100000001
 10.7155638300000007  8.4174381500000006 10.6702510900000007
 10.5198929600000000 10.5727667400000005 12.8145394800000005
 10.6766928700000001 12.7575217799999994 14.5730001799999993
 10.3481736000000009 14.9898933200000002 17.0046959400000013
 10.5609844200000005 17.0308098200000018 18.9492076099999984
 10.5191344499999992 18.8744931099999995  0.3915316900000000
 10.5958322900000006  0.1024390000000000  2.0503402600000000
 10.4834878499999995  2.3912468100000002  4.1064400100000000
 12.8976049199999991  4.5554255399999999  8.6159227499999993
 13.0882103099999991  6.6915740499999998 10.6285304299999996
 12.9453565800000003  8.4792146600000002 12.7867227299999993
 12.7669033200000008 10.7001290900000008 14.8052716199999992
 12.4194984999999996 12.8902102299999992 16.9143237900000010
 12.6667947200000004 14.9428201099999995 19.2427698000000014
 12.7602240600000005 17.0130515399999993  0.2567363200000000
 12.2926123500000006 19.1369567600000003  2.4232482200000001
 12.3573601499999999  0.0793036800000000  4.2368704399999997
 12.6932324500000000  2.4127846399999999  6.2262355600000001
 14.8372238200000002  4.2300641900000002 10.5667538200000006
 14.7639335099999993  6.4182392200000002 12.9508932199999993
 14.9528508000000002  8.4591201799999993 14.6677632100000004
 14.9229097399999997 10.7698036899999998 16.7318931100000015
 14.8017362200000004 12.8004251100000008 19.0843712200000013
 14.9289614499999992 14.8469481499999993  0.0603280300000000
 14.9461375200000006 16.7416534500000012  2.3553084599999998
 14.9846398500000006 19.2496273500000008  3.9412341700000000
 14.7082685600000005 -0.1190106700000000  6.0679735399999997
 15.0152186699999994  1.9814627199999999  8.2810143200000006
 16.8034022400000005  3.9073852699999998 12.8636673300000002
 16.8908360299999991  6.2571267900000000 14.8265624299999992
 16.7174540799999995  8.5966600199999998 16.9908892999999992
 16.9563427100000013 10.6646715699999994 18.6910437899999984
 17.1055259299999989 12.5000694899999996  0.0796219400000000
 17.2353161800000017 14.5569144000000001  2.0776961100000002
 17.0409221700000018 16.8432251499999985  4.1004492700000004
 16.7848697800000011 18.9850099999999991  5.7789299800000000
 17.3303302600000002  0.0884366200000000  8.1698675400000003
 16.9921351700000010  2.1231935200000001 10.4420298099999993
 19.0831581099999994  4.0321524899999996 14.6372673199999994
 19.1726938599999990  6.5265150800000002 16.9058982399999991
 19.2482278399999984  8.4783591200000004 18.8487185400000001
 19.1966656899999997 10.1933697500000005 -0.1606302000000000
 19.0515774600000007 12.3445760599999996  1.8242137100000000
 19.4523486800000001 14.9551987600000000  3.8265423099999998
 19.0814123199999983 16.9747539100000004  6.0514257400000000
 18.7499563000000009 18.9819703799999999  7.9310823399999997
 19.0054469799999985 -0.1943152100000000 10.2884000300000000
 18.8214794400000009  1.9641259700000000 12.6773805900000003
 -0.1572013100000000  4.0775188499999997 17.1480427400000011
  0.3638503000000000  6.1898274300000002 18.8224051900000013
  0.4246772700000000  8.4018336599999994 -0.4401061200000000
  0.2660183900000000 10.6069375099999998  1.6907120000000000
  0.0702210000000000 12.3664184000000006  4.2617784800000003
  0.3268721100000000 14.9054335499999997  6.5393860600000000
 -0.3373429500000000 17.4223844899999989  8.3627171300000001
 -0.1948825000000000 19.0443488700000003 10.1241459700000007
  0.0471667500000000 -0.1895883600000000 12.3732512099999994
 -0.2769080100000000  1.5364561100000000 14.9920988200000007
  2.2352571499999998  4.0110919400000000 19.1356928599999989
  2.2111629700000002  6.3445176800000000 20.9271652699999997
  2.0575613599999998  8.3743575999999997  1.8355592500000000
  2.2704924300000000 10.7769431900000008  3.9895045900000001
  2.4369953999999998 12.5812202400000004  6.5068041900000004
  2.5422138799999998 14.8941228300000006  8.1794448600000003
  1.9958670100000000 17.1933534399999992  9.9418203999999992
  1.9752316500000000 19.0106006799999996 12.4511759200000007
  2.1371869200000000 -0.0430988000000000 14.8680953400000000
  1.9068376400000000  2.0021081900000000 17.1075715799999983
  6.2314002600000000  6.2573428800000004  0.1391003100000000
  6.2536160299999999  8.4104955399999994  2.4502032599999999
  6.2212594599999997 10.6204660299999993  4.3287275599999999
  6.5442816400000003 12.6348991200000000  6.3434052599999999
  6.6743321000000000 14.5814929299999996  8.3467615500000001
  6.3538694500000004 16.8332497799999992 10.4273977700000007
  6.1808710299999996 18.9055404899999999 12.5590649299999999
  6.0851908699999999 -0.0333125000000000 14.7248606500000001
  6.4139385300000002  2.1376821200000000 16.8095036799999988
  6.5003641999999999  4.1473989299999996 19.2286379300000014
  8.3313489500000006  6.4580891999999999  2.1286757199999999
  8.3454462100000004  8.4207536399999992  4.4341691699999997
  8.5753338699999997 10.5556419300000002  6.5039283899999996
  8.8838393599999996 12.7567456200000002  8.7593389800000008
  8.7185075699999999 15.0020635799999997 10.6416118300000004
  8.4989076600000004 16.8425532400000009 12.9280965200000004
  8.4275357999999994 19.4719951500000015 14.7917983399999997
  8.4866914799999993  0.0395396100000000 16.6855320700000007
  8.4385850999999992  2.2135157099999998 19.1738736799999998
  8.6025672899999996  4.1441629899999999 21.2737129299999985
 10.6829278100000007  6.5848865099999996  4.4607779799999996
 10.7957368500000008  8.6456067799999996  6.5342772399999998
 10.9130014000000006 10.6626008999999993  8.6730068500000002
 10.7438249799999994 12.5879576400000008 10.9754133500000002
 10.6455238899999998 15.0574273099999996 12.7325824500000007
 10.7825481900000000 17.1125756799999991 14.6471265699999993
 10.5707134600000003 19.0280297000000012 16.6666562499999991
 10.3091041899999993 -0.1711280100000000 18.9747955799999986
 10.5516638799999996  2.0511455199999999  0.0476396600000000
 10.7028337699999998  4.6761858800000002  1.9484481600000001
 12.5926358300000008  6.4089078400000004  6.4252826199999999
 12.8632321500000000  8.5185449999999996  8.5907953900000003
 12.6364854900000001 10.3890881499999992 10.8527583100000005
 12.7474618999999993 12.7048634200000006 13.1592367299999999
 12.6733707300000003 15.1854199899999998 14.8144585000000006
 12.7702702600000002 16.9996574799999998 17.0981045000000016
 12.4483637399999996 19.0463261300000006 19.0809086299999997
 12.3311610100000006 -0.0076486600000000 -0.0212853400000000
 12.6069823999999997  2.2831773000000002  2.4014286299999998
 12.4657503799999994  4.1069965499999999  4.2967791399999999
 15.1703640400000008  6.6630368400000002  8.5348868000000007
 15.1813923899999992  8.5975283400000002 10.6916884400000001
 14.7042065700000002 10.4942610700000003 13.1749969000000000
 14.7663006299999999 12.9202552799999992 14.9624096099999999
 14.7869846500000008 14.8912481900000007 17.4328041300000010
 14.7199546500000000 17.0950845099999995 19.4920914799999991
 14.5083170100000007 19.0567039800000018  0.0299370000000000
 14.3398520999999999 -0.0956558200000000  1.9247297600000000
 14.5444341500000007  2.2358212200000001  4.2543583800000002
 14.7447811699999995  4.6099892599999999  6.2501939999999996
 16.9544202199999994  6.5514433099999998 10.8065639200000003
 16.8179598400000003  8.3890725800000006 12.9516401099999996
 17.0124484199999984 10.8531463000000006 14.8073797900000006
 16.8913176699999994 13.0059596699999993 17.0420195399999983
 17.2162898400000017 14.8398519400000009 19.4800381599999994
 16.8834795900000003 17.2373061400000012  0.1349088500000000
 16.9302047299999998 19.2166847899999986  2.0961870899999999
 16.9983333499999993  0.1338281400000000  4.2597902000000003
 17.0810815399999996  2.2059331400000000  6.3364879600000004
 17.1514649599999984  4.6564851899999997  8.4790964300000002
 18.8200904599999994  6.2104222099999999 13.1213878600000005
 19.4377231799999990  8.6210560899999997 15.0737954500000004
 18.9403927600000017 10.6029596500000007 17.0244523000000001
 19.0807983499999985 12.6648138699999997 19.2939831300000009
 19.3291388600000005 14.8702676199999999  0.3481185400000000
 19.1973625100000014 16.9821233300000003  2.1544853000000002
 18.9407932199999998 19.3142107600000017  4.1416470600000004
 18.8069574099999990  0.2110841100000000  6.2103560399999997
 19.2181160499999990  2.2125459300000001  8.5312974199999996
 18.9939813199999996  4.2924068499999999 10.7675369599999993
 -0.0980945700000000  6.1615459200000000 14.8461925600000004
  0.3565300300000000  8.6939341199999998 17.1664373700000006
  0.0385221000000000 10.7523264300000001 18.9496676000000015
  0.2378853300000000 12.6379134600000000 -0.0169824500000000
  0.2796943100000000 14.7549569199999997  2.2963817400000002
 -0.0656967500000000 16.8247937199999988  4.2279609300000001
  0.0752599500000000 19.3505946400000006  5.9901668800000003
 -0.2293564100000000  0.0289190200000000  8.2419998999999997
 -0.0537814300000000  2.0706573000000001 10.5084597199999994
 -0.0560481600000000  4.0095153400000001 12.9940660200000000
  2.0321442400000000  6.1199853800000001 17.0586306900000011
  2.4327490900000002  8.5342048300000002 19.2208779900000017
  2.4142687700000001 10.6831355800000001 -0.0983945500000000
  2.1156389600000001 12.7888015999999993  2.0552712700000000
  2.0915005500000001 14.7922407400000004  4.3965834499999996
  2.3867041300000000 17.0653243699999990  6.3685665000000000
  2.2147741399999998 19.0733826099999995  8.4051551500000006
  2.0992554700000001  0.0464715800000000 10.7214251600000008
  2.2500392900000001  2.1215456700000002 12.6849145900000000
  2.0125855100000001  4.0397488399999997 14.7437788399999992
  4.2520906299999996  6.3442996300000001 18.8398829499999998
  4.3989441400000002  8.5253071600000006 21.1457527499999998
  4.0364845899999997 10.7571708200000007  2.1500786700000001
  4.1037780200000000 12.9209114599999992  4.1989864399999997
  4.3136979799999997 14.8106041200000007  6.2674793099999997
  4.9159645699999999 17.0456129099999991  8.4095030800000004
  4.2488939099999996 19.1423348199999985 10.3254804500000006
  3.9484283900000001 -0.3253710600000000 12.4918394300000006
  4.1300454599999998  1.8855765700000000 14.7606313700000005
  4.3059743099999999  3.9266692700000001 17.0563184700000008
  8.1671077899999993  8.6981942100000005 -0.1109078900000000
  8.0915555500000007 10.6796547799999999  2.1655125399999999
  8.8499969099999998 12.4355524499999994  4.3263143399999997
  8.5577543899999995 14.6728854399999999  6.2755940900000002
  8.5489531999999997 16.9974613099999985  8.3758507600000005
  8.3439074600000005 19.1384123700000011 10.3001958299999998
  8.3106502599999992  0.0190560200000000 12.4379576400000005
  8.4431795199999993  2.1723992499999998 14.4917445199999992
  8.6939784400000004  3.9912022299999999 17.0381820799999986
  8.5261302099999998  6.4099785000000002 19.1194715399999993
 10.1039517399999994  8.2610419299999993  2.1428906599999999
 10.5980390000000000 10.3377055700000007  4.2536563899999997
 10.8471264900000008 12.3866208899999997  6.2854451899999999
 10.6168845899999997 14.5754775799999994  8.1325562199999997
 10.7032566800000009 16.9109565999999987 10.3319732000000002
 10.5375494399999994 19.0854048499999998 12.5403896499999998
 10.6318010399999991 -0.0777383200000000 14.5972115200000001
 10.3198303800000009  1.8549156700000000 16.8029017399999994
 10.5890350899999994  4.0259262600000003 18.8494034600000013
 10.6969752699999994  6.5319735400000001 20.8667569300000011
 12.7346543499999996  8.2085596800000005  4.0831751100000000
 12.7907614800000005 10.3431212200000004  6.2477668299999998
 12.8005211699999997 12.4483192000000003  8.5354704399999992
 12.6364788099999998 14.8447137300000005 10.3927586400000003
 12.6654117900000003 17.0409396499999986 12.8043288099999995
 12.3615138400000006 18.9108869000000013 14.6497548700000007
 12.7315637800000001 -0.1529953200000000 16.7764025399999994
 12.5170196600000008  1.7367688299999999 19.1849640100000016
 12.5992942800000005  4.2465133300000000 -0.5247531800000000
 12.4972660700000002  6.3446811099999998  1.7018430700000000
 14.9096632699999994  8.5106998899999997  6.0408451200000002
 14.7705613000000007 10.2373572399999997  8.6835953799999999
 14.7509358099999996 11.9881393900000006 10.5768582900000006
 14.7666272599999999 14.8312331000000004 12.5648763799999994
 14.7705973000000004 17.0559169799999992 14.9101218899999992
 14.8813938900000000 19.1200432800000009 17.3024687499999992
 14.7599057699999996 -0.3298566600000000 19.1738965999999991
 14.7059466299999997  2.1111128799999999 -0.0543806700000000
 14.3751183099999995  4.2444164100000004  2.2169947600000000
 14.7951065800000006  6.4022449500000000  4.0402894900000001
 17.2188871799999994  8.8969317599999993  8.0473681599999995
 16.9437028100000013 10.6911592500000001 10.9153615800000008
 16.7701622099999987 12.8873745900000003 12.8663856200000009
 16.8787150699999984 14.9845436400000001 14.9936342499999995
 16.8565011399999989 16.9911497300000001 17.1844819599999994
 16.8525112200000002 18.8962142200000009 19.0120297899999997
 17.0560240800000003 -0.1280310900000000  0.2205342400000000
 16.5890794600000007  1.9002602600000000  2.4784158399999998
 17.0705893899999985  4.3602386299999996  3.9240005500000001
 17.2595658500000013  6.4416456699999998  6.1987863100000000
 19.0912362900000012  8.6545918299999993 10.9540957799999994
 19.4169009099999990 10.8210620500000001 12.7171295999999998
 19.1414778299999995 13.0265346700000002 14.8523031299999992
 19.1178447899999995 15.0962150899999994 17.1313595099999993
 19.1755425700000011 17.0274022699999996 19.2837923999999994
 18.9099256599999990 19.1157792200000003  0.0737803900000000
 19.1748267699999992  0.3857592800000000  2.1746303600000001
 19.3608180499999989  2.4086802600000001  3.9105350099999998
 19.0346291900000004  4.2218668199999998  6.3000713199999998
 18.9540395000000004  6.7295899500000003  8.7046563999999993
  0.0105114300000000  8.7209697100000003 12.9148124000000006
 -0.5017740600000000 11.1767885299999996 14.9365475799999992
 -0.0589045500000000 13.2432031699999992 16.9030048300000004
  0.1769524700000000 14.7288317299999996 19.2073044899999985
 -0.2695275300000000 16.7637262500000013  0.0235359100000000
 -0.1683783100000000 19.2527127900000004  1.9706160399999999
  0.3586584700000000  0.2609085400000000  4.1509331999999999
 -0.1453017400000000  2.1640572800000002  6.6276279000000002
 -0.0410899800000000  4.7326547400000001  8.4639887700000003
 -0.3950885300000000  6.3752452100000001 11.0256342499999995
  1.8566027700000001  8.5580222700000004 14.9914216499999995
  1.9810741400000000 10.8908240099999993 16.6591322800000015
  2.1608347499999998 12.7202029400000001 18.9153651099999998
  2.2014080499999999 15.0318900699999993  0.1085636100000000
  2.2310957500000002 17.0150712700000000  2.1370403900000001
  2.0625582300000000 18.9822697200000015  3.9515669500000001
  2.1744957299999998  0.2945936800000000  6.3856910200000003
  2.0111664600000001  1.9700868800000000  8.4712715500000009
  2.0289711499999998  4.1540966399999997 10.8691911999999995
  2.1472940500000002  6.2134614299999997 12.9603714500000002
  4.2524352600000004  8.5233310400000004 16.5909676899999994
  4.2429265000000003 10.5140954099999995 18.9759388800000011
  4.2420190599999996 12.4831419300000004  0.0699799900000000
  4.2264149399999997 14.8612858400000007  2.3720449600000002
  4.3313859199999998 16.7640705899999993  4.3078825700000003
  4.1676235000000004 19.2923474599999984  6.2174193600000001
  4.1329390000000004 -0.1062839200000000  8.6808250999999998