Li                                      
   1.00000000000000     
    22.0829999999999984   -0.0000000000000006    0.0000000000000000
    -0.0000000000000006   22.0829999999999984    0.0000000000000000
     0.0000000000000006    0.0000000000000006   22.0829999999999984
   Li
   500
Direct
  0.0137691821763326  0.9781276678893249  0.0191216415342126
  0.0001517026672104  0.0991891627043415  0.1108366304397066
  0.0055026500022635  0.2083199293574225  0.2038252651360750
  0.0022996377303812  0.2809464810034896  0.2959793538015703
  0.9904348661866607  0.3963606031789126  0.3950511076393610
  0.0011705284608041  0.5090956794819519  0.4856238568129356
  0.0063011637911501  0.6105428868360292  0.5903275442648166
  0.9794744024815500  0.6990290046642187  0.7184044622560322
  0.9897623696961446  0.7810657084635224  0.8181436729610994
  0.9982186043562891  0.8861769243309325  0.8967085472988288
  0.1222052728343073  0.0195540266268139  0.1102692908572180
  0.1010691291943999  0.0765560385817139  0.2181343073857747
  0.1226054064212292  0.2000468953493666  0.3053080374043375
  0.1111359049947893  0.3024595299551720  0.4136582842005154
  0.0971860675632854  0.4042494131232175  0.5112491405153321
  0.0901754476293988  0.4928898501109416  0.5976869161798675
  0.0970941040619451  0.6171143961418295  0.6966559869582909
  0.1005754086854154  0.6781480555178163  0.8391671231263871
  0.1072810238645090  0.7998447679210230  0.8985703636281315
  0.1120415210795613  0.8944051369832025  0.0051635493365936
  0.2222549327536996  0.0042066096091986  0.2089435180908410
  0.2076061875650979  0.1088926173979985  0.3053671027487184
  0.2061465656840085  0.2312521939953811  0.4209807820495399
  0.2011203541185509  0.3198701177376293  0.5177062206221947
  0.1860572757324661  0.3899102015124782  0.6085568514241757
  0.1995361853009072  0.5168415840239078  0.6995885486573385
  0.2002245732011048  0.6008416139111503  0.8034315355703470
  0.2221818122537726  0.6935606683874482  0.9291049318480304
  0.2231006611420554  0.7937411511117176  0.9955991536476034
  0.2175169750486816  0.9019917995743327  0.1148607784268449
  0.3161641325906785  0.0021804818185913  0.2942760032604284
  0.3078410836389978  0.1118530077435125  0.4017341611194141
  0.3243282452565310  0.2395560675632851  0.5159903373635828
  0.3058130539328872  0.3225673853190258  0.6336613385862435
  0.2766600353212851  0.4079314178327209  0.7015004378934009
  0.2981090417968559  0.5004527881175562  0.7993742698002961
  0.3135825453969119  0.5868554059683930  0.9141424385273709
  0.3119232794457290  0.6891219263686992  0.0074085993750828
  0.2841849834714480  0.7974718652356998  0.1054601824933172
  0.3314792523660728  0.8957013209255962  0.2077259222025987
  0.3950673146764458  0.0111704265724768  0.4084058760132194
  0.3986383100122239  0.1010979151383395  0.5203056568401010
  0.3789723398089038  0.2419973382239746  0.6189073644885212
  0.3910941185527363  0.3039027840420232  0.7250254385726578
  0.3899943277634392  0.4126074192817981  0.7940370162568513
  0.4066041864782832  0.4927216628175515  0.8948827926459302
  0.3926235497894339  0.5960047371281050  0.9902447697323709
  0.4093456188017939  0.6895403491373457  0.0840946855046880
  0.3897268772358800  0.8140996517683305  0.2000276941538743
  0.4024685251098106  0.9057934823167173  0.2960363424353574
  0.5045675895485218  0.9994211760177478  0.5091586759045441
  0.4831765792691201  0.1256503346465578  0.6031190105511044
  0.4921698002988748  0.1953672576189831  0.7087783272200312
  0.4948512611511120  0.3004862840193780  0.7890051252094352
  0.5113815074944554  0.4043433768056843  0.8835443621790517
  0.4917477942308537  0.4899026667572315  0.9802441869311238
  0.4995690984014871  0.5836582031426900  0.0986626549834710
  0.5066977349092028  0.7054126966444798  0.1927469863696061
  0.4685708852963799  0.8229494280668419  0.2943450024906014
  0.5051743898021073  0.9189606769913539  0.3872038233029969
  0.6113010890730450  0.0052225530951375  0.6131122370148958
  0.6156721120318807  0.0968207431055532  0.6940303681565041
  0.6037097993932008  0.1876566304397045  0.8013982538604338
  0.6025695947108645  0.3042260517139894  0.8826202105692147
  0.5899110655255200  0.3989780369515046  0.9993847584114448
  0.5947761717158002  0.5005169895394630  0.0811582570302960
  0.6045487270751266  0.5963530063850015  0.2139351781913703
  0.6123692836118266  0.7096677575510597  0.2918451297378084
  0.5844472825250193  0.7928169333876767  0.3792658986550776
  0.6091727582303150  0.9165361187338661  0.4889872395055050
  0.7140173726395886  0.0091961576778488  0.6968315038717563
  0.7256978155141951  0.0846149101118527  0.7960109844676921
  0.7161455649141857  0.2116910374496186  0.9119396454286104
  0.7077104279309907  0.3156997450527541  0.0087923973192048
  0.7128804881583122  0.4111580641217216  0.0763570696916176
  0.7007269601050581  0.4921233985418638  0.1914095159172220
  0.7132954616673430  0.5863827564189634  0.2983887655662727
  0.6921635199021878  0.6825898410542024  0.4290279092514595
  0.6890892387809657  0.7773868192727420  0.4861223787528886
  0.6943159040891160  0.9116467386677556  0.6078257759362415
  0.8049470701444577  0.9982021622967920  0.8159814028891006
  0.8144430883485043  0.0894598809038598  0.8885780143096511
  0.8025438097178821  0.1862782040483637  0.9841355304985768
  0.7931806154055181  0.2882604446859602  0.0879415346646724
  0.8095173975456262  0.3740580514422831  0.1970740012679428
  0.8049550224154345  0.4884290082869143  0.2874866870443356
  0.7925203432504659  0.5905999356971421  0.4056053806095221
  0.7801884780147645  0.6810847901100416  0.5035502608341247
  0.7703612724720372  0.8045006557080114  0.6114521627496288
  0.7886148811302789  0.8867991803649886  0.7062154109495964
  0.9012770388986979  0.9729329719693851  0.8943102196259574
  0.9059896173527164  0.0873887940950056  0.0014370973146782
  0.8940861037902437  0.2000433202010612  0.1017817411583550
  0.9025284245799909  0.2771219250101922  0.2050276760403946
  0.9018426445682195  0.3811550821899203  0.2974328089480593
  0.9154571267490823  0.5016572938459447  0.3972747371281073
  0.9192913023592837  0.6117501412851496  0.4905349535842021
  0.9113492279128721  0.7157529438934915  0.5865024190553854
  0.8734615084001263  0.7975486858669569  0.7068177598152445
  0.8898486020921084  0.8940015586650389  0.7876831503871742
  0.0784321745233925  0.0908008418240271  0.9931713127745354
  0.1016551224924171  0.1781894896526737  0.0920131517456895
  0.1123999601503414  0.3102255341212725  0.2037353534392992
  0.1073899587918277  0.4179996399945693  0.2987320146719199
  0.1101376194357684  0.4933022275053176  0.3881789077571014
  0.1119968505185014  0.5806581881990667  0.5108506733686582
  0.0956047851288346  0.7066882887288841  0.5939034836752271
  0.1078691568174648  0.7857463542091239  0.7141547135805837
  0.1040969374632041  0.9045743268577624  0.7883083543902529
  0.1073628891002159  0.9778211071865215  0.9077139786260915
  0.2029360553366857  0.1129382321242574  0.0945865987411096
  0.1986167712720217  0.1913128696282200  0.2017530426119620
  0.2073786111488474  0.3143466263641699  0.3132977593624062
  0.2113397296562951  0.4275731209527720  0.3975792256486912
  0.2078324072816216  0.4892022220712775  0.5049474251686803
  0.2164793913870398  0.6000727093239178  0.6038588615677227
  0.1911133360503570  0.7034454453652117  0.7049663442467065
  0.2037457723135461  0.8067400710954118  0.8205164330027657
  0.2152082891817244  0.9083341022505991  0.8916543390843614
  0.2123748299596997  0.9992755200833230  0.0156496436172660
  0.2967922016936129  0.1268143250464178  0.1938536163564706
  0.2982795784087315  0.2056216863650775  0.2948988719829728
  0.3215539270026753  0.3122114807770657  0.4124167368564073
  0.3193614450029401  0.3930318982928043  0.5007007508037873
  0.3094442584793740  0.4788455708010702  0.5985453158538263
  0.2975289322102981  0.6061531155187225  0.7009285146945601
  0.3090027310600902  0.7009750554725329  0.8154618498392452
  0.2932670968618396  0.8000287030747657  0.9097619150477740
  0.2825418059140503  0.8843064982112949  0.0030873219218392
  0.2988604845356164  0.0095081370284831  0.1051982823891677
  0.3842089951546441  0.1063885663179818  0.2914051926821557
  0.3892303731377069  0.1955207168410098  0.4087858578997441
  0.4176554702712494  0.2950008852963819  0.5038776977765735
  0.4008198582620111  0.4068822610152623  0.6147769736901694
  0.4011153452882326  0.5092368745188622  0.7004468527826830
  0.4025899135081303  0.5913356867273478  0.7971890639858685
  0.4100651550966816  0.7111755852918549  0.9077544101797770
  0.3969928909115623  0.7988520721822212  0.0101808785038244
  0.3920295313136819  0.8994727441923658  0.1018045790879896
  0.3962674469048579  0.0225054834035205  0.1973974437349995
  0.4789202739664020  0.1101598252049101  0.4081778259294495
  0.5007797627133996  0.1862757858986583  0.5102576620024450
  0.5163609034098613  0.3020244753883077  0.6110017932346139
  0.5045575302268688  0.3944910039396845  0.7026763537562815
  0.4896192795362921  0.5043647203731396  0.7995562201693645
  0.5243576801159264  0.6115539129647232  0.8907457211429630
  0.5129119078023834  0.6898662464339083  0.9955340592310833
  0.4868616537608119  0.8013425001132077  0.1205223515826646
  0.4886593420278018  0.9222357542000665  0.1997775764162455
  0.4805930611782827  0.0206561363945141  0.2905221115790440
  0.6029701145677677  0.0995241081374800  0.5112230648009799
  0.6178440687406592  0.2023903156274045  0.6109420454648387
  0.6090182266902175  0.3062193483675202  0.7203349395462553
  0.6174623701489850  0.4065747566001008  0.7897960376760409
  0.5990270909749569  0.5091345057283903  0.8951086858669584
  0.5914701865688556  0.5897977244939554  0.9927743979531769
  0.5921116424398889  0.6685596698818088  0.1110205026490974
  0.5871874500747154  0.8126038332654062  0.1997689906262750
  0.5766206697459566  0.9287647905628802  0.2785961825838896
  0.5868793492731967  0.0234124421500681  0.3928434786940187
  0.7166856011411511  0.1063021455418180  0.5942670696916181
  0.7088808160123179  0.1956740592310808  0.7218369302178118
  0.7087057193316113  0.2947296150885279  0.8124846619571642
  0.6800279966490095  0.4039892061766963  0.8969804858941259
  0.7023478069102964  0.5270414495313105  0.9849298052800819
  0.6973478096273169  0.6056495679934812  0.1059965779106093
  0.6978534669202574  0.7164664108137515  0.2171834537879818
  0.6841963555676287  0.8078095055019716  0.3050024503011386
  0.6752737232260131  0.8900152180410288  0.3870928555902751
  0.7001672517321040  0.9946202214373017  0.5039672390526633
  0.8114931204999323  0.0949189385500162  0.7114407915591201
  0.8047475768690830  0.2029614291536461  0.8111613517185177
  0.8024993637639781  0.3350089580220086  0.8971344572748237
  0.7909660621292431  0.4095198482995954  0.0005326228320399
  0.7975185862428091  0.5083483584657884  0.1061847162976051
  0.7989461911877953  0.6025455345741051  0.2016870488611175
  0.8016959117873483  0.7013052683059371  0.3265478829869153
  0.8009809423538456  0.7894160834125827  0.3969353090612699
  0.7963058203142666  0.8783432875967918  0.4883794747090491
  0.7900748965267397  0.9823316447040682  0.6132259158628841
  0.9035439623239583  0.0818168260652996  0.7978851605307256
  0.8960180813295295  0.1940940406647655  0.8844926282660879
  0.9061137689625482  0.2988825558121633  0.9968325290947817
  0.9005829968754213  0.3986946153149518  0.1235957609926217
  0.8963074174704531  0.5031879164968558  0.2200703337408854
  0.8775539437576398  0.6199067703663417  0.3009198528279668
  0.8965061151111726  0.6897806869537675  0.4188202952497377
  0.8849426522664459  0.7714513544355412  0.4890789707014420
  0.8875460037132612  0.8633204120816913  0.6027538889643651
  0.8981379327989885  0.9888666467418403  0.6977364035683564
  0.0024524127156624  0.0739446162206221  0.9120878784585429
  0.9979992618756484  0.2024762160938280  0.0208902803061193
  0.9989523701489844  0.2959014857582787  0.1012722637322838
  0.9985373662998711  0.3959832848797689  0.2040052107956356
  0.9853611176017765  0.5136264651541893  0.2962696078431364
  0.0153045175021518  0.6191366182131048  0.3960961300547936
  0.0223964927772471  0.7209010048453592  0.4942819576144544
  0.0027285101661931  0.7835258289181724  0.5960028116650804
  0.9997511719422150  0.8767804786487332  0.6954123606394091
  0.0112312045464833  0.0026369279536311  0.7962647176561148
  0.1930882280487225  0.1836723316578386  0.9917635783181638
  0.1776575841144776  0.2798451949463399  0.0926791187791522
  0.2124251369831995  0.4246145917674227  0.1792802567585952
  0.2143289100212868  0.5121648702621897  0.3000252823438814
  0.2012045415025128  0.5903547742607458  0.4144231358963921
  0.2040204007607684  0.6981920278041969  0.5046984105420478
  0.1904678857039386  0.8094380188380228  0.5978741905538172
  0.1887961975275090  0.8935151922293159  0.6885143576506820
  0.1953646927500827  0.9946337970384462  0.7988708685414139
  0.1946144260290694  0.0905921559570686  0.9009166381379359
  0.2934964139836040  0.1880306194810473  0.0882840103246849
  0.3011978607978989  0.3024175918127057  0.1923264819091628
  0.3171866458361663  0.4078244966716511  0.2904481003486836
  0.3229930285740181  0.5124431852556270  0.3943848657338194
  0.3213214839469245  0.6152770991260255  0.5049710578272908
  0.3051595195399202  0.6991240515328556  0.5990455680840441
  0.2918775496988602  0.7890403518543678  0.7059403903455177
  0.2975442426300745  0.8806946017298358  0.7918388239822463
  0.2924431979350643  0.0090509269573857  0.8987953566091562
  0.3168068541411913  0.1032615595707114  0.9772224240365901
  0.3826408051442272  0.2183454666485503  0.1829908409183503
  0.3954534334103172  0.2907573599601534  0.3058360911108124
  0.4050530774804173  0.3998143970474999  0.4094633863152666
  0.3922174523389046  0.5050469668976163  0.5108668450844576
  0.3931109514105842  0.5864980093284444  0.6013846438436801
  0.4057626608703515  0.6893739691165166  0.7025954005343493
  0.4123366277226808  0.8044682221618444  0.8161836639043614
  0.3859949916225176  0.8896481492550805  0.8925160118643305
  0.4174232495584818  0.9846109142779511  0.9834166548929062
  0.3962713512656819  0.0857883082008755  0.0911859625050937
  0.4870614047004480  0.1919804007607695  0.2693437381696313
  0.5016510895258790  0.2867222184485811  0.3955938450391727
  0.5090047185617905  0.3789378530996714  0.5067506208395613
  0.5015444423312019  0.4897441502513260  0.6019669714259805
  0.5145782135579395  0.5975872684870751  0.7107802042295006
  0.5172981895575788  0.7119656858216743  0.7915179472897691
  0.4897363193406719  0.8063337205089880  0.9084804827242650
  0.5101586002807608  0.8919062491509280  0.0040387352261888
  0.4899605597065602  0.0079886116016823  0.1016780532536359
  0.4831953212878659  0.0963622229769499  0.1969197681474455
  0.5983978150613609  0.1817958850699668  0.3864689575691713
  0.6098654191006645  0.2702193678395162  0.4773541076846470
  0.5952840714576837  0.3961876529457058  0.5962674944527464
  0.5877948707150296  0.4843276891726660  0.6992142254222671
  0.6191608363899803  0.6067854132137853  0.8025372616945177
  0.6177440030792951  0.7046904709505029  0.9006482443508617
  0.5934256871801864  0.7990985731105411  0.0111761345831667
  0.6013129420821457  0.9057647393922963  0.0844038876058519
  0.5949938622469801  0.0083100425666771  0.1930325789068519
  0.5939665104378946  0.1057590196078451  0.2972965344382530
  0.7234928614771547  0.2067777222297664  0.4925633514468117
  0.7047739007381253  0.3247354417425186  0.6125739383235995
  0.7052402762305832  0.3991125684916028  0.6914260761671898
  0.7234378386088878  0.4926170407100514  0.7956431467644762
  0.7273954218176897  0.6050849205271049  0.8888961164696809
  0.6897646053525364  0.6905892147806014  0.0133018616130087
  0.6924646393153111  0.8044590626273589  0.0985575492460242
  0.6915411307340520  0.8903223484128091  0.2105468025177757
  0.7008618321785960  0.0187432631435911  0.3040072177693247
  0.6939402110220527  0.0995340035321277  0.4126114418330857
  0.8099076117375361  0.2258672100710939  0.6075738540959108
  0.8031633464656096  0.3140194955395543  0.6917513005479350
  0.7806947606756296  0.3841564207761650  0.7813687732645036
  0.8039743630847269  0.5069846800706443  0.9111282583888070
  0.8027912756418942  0.6121393361409204  0.0210667866684773
  0.7906769913508143  0.7039752624190569  0.0955909980527991
  0.7994649671693139  0.7953725698501088  0.2202656423493181
  0.8067357786532625  0.9022888796812012  0.3019326029072147
  0.8096251469456135  0.9884912502830261  0.4229905864239427
  0.8084913222841124  0.1043905914051564  0.5165045899560781
  0.8903344667844024  0.2044814798713972  0.6962974419236545
  0.8949957895213529  0.3272691894217274  0.7902157021238025
  0.8954003971380686  0.4061182407281620  0.9014799492822547
  0.9166783308427284  0.5023592568944437  0.0069497667889351
  0.9012930761219025  0.6144100950957778  0.1136273662998661
  0.8931311896028618  0.6963048734320552  0.1861191694968980
  0.9137370148983379  0.8016742621020683  0.3105410650726839
  0.9118281954444569  0.8795679500067948  0.3975983435221693
  0.9027688565865120  0.9782835017887095  0.5173033799755444
  0.8833741674591309  0.1019821980709139  0.6107190567404785
  0.0010686220169376  0.1854949159987314  0.8013093121405603
  0.9872669533125062  0.2939148000724572  0.9046271127111325
  0.9902293565185900  0.4036429416293075  0.9983548213557967
  0.9912103251369828  0.5019046791649657  0.1016764800978152
  0.9862729330254041  0.6140119467463663  0.2045621899198480
  0.0079644020287120  0.6886698609790329  0.2924720780691032
  0.0174527772494670  0.7972153502694397  0.3963273721867466
  0.9993426694742595  0.8861469813884000  0.5056567721776943
  0.9915714223610905  0.9834447910157138  0.5973017936874498
  0.9895338572657693  0.1121119635013343  0.6839111139790788
  0.0857969528596669  0.1978778300049839  0.9029890907032581
  0.0911948263370022  0.2919573042611958  0.9961647371281046
  0.0992119689353785  0.3974606167640289  0.1042074514332327
  0.1085579047230922  0.5186296812027322  0.1781939836073008
  0.1089645768238015  0.5919767323280354  0.2914999112439460
  0.1121568401032462  0.6945347325997346  0.4029729851016626
  0.1217021776932512  0.7989796178055499  0.4958916478739326
  0.0960164280215565  0.8834055526875915  0.6174893972739213
  0.0801088135669943  0.0214393633111456  0.6971849775845698
  0.0808177090974951  0.1146724385273714  0.8173965407779775
  0.3006688516053089  0.2919325395100287  0.9841501784177851
  0.3066158026536243  0.3883739550785705  0.0857546157677831
  0.3246368985192234  0.5185509844676872  0.1862761449984163
  0.3009793343295755  0.5929655948014343  0.2881910374496215
  0.3040967277996671  0.6900213263596413  0.4085085885069972
  0.2791718647828674  0.7786342168183680  0.5119994479916699
  0.2771558624281099  0.8877429601956237  0.5874246913915684
  0.2771695471629769  0.9808436113752634  0.6858885676764928
  0.3006555599329772  0.1097162505094431  0.7852291119865953
  0.2738758262011487  0.2095377380790637  0.8861120866730090
  0.3940056917085570  0.2937758415976077  0.0886296037676075
  0.4099087845854257  0.3801730512158699  0.1825485495630090
  0.4063007639360592  0.4891917144409703  0.2907368917266666
  0.3991568659149607  0.6039445682198945  0.4038617465924048
  0.4366820201059625  0.7141805103473260  0.4963866675723381
  0.3935248050536586  0.8067046447493524  0.6023425250192460
  0.3713342951591727  0.8987863397183347  0.6962808327672860
  0.3607959421274316  0.9991085391477625  0.8180435819408629
  0.4001458393334261  0.0850357175202632  0.8895916573835052
  0.3918939632296343  0.1875650667934607  0.9782407684644312
  0.5150501403794792  0.2920957886156756  0.1740893578771008
  0.4877959090703285  0.3915992170447851  0.2983570475026056
  0.4938197554680102  0.5006084752977387  0.3944424810940532
  0.4986889276819255  0.6072238636054905  0.5062659439387787
  0.5046458502015128  0.7220530625367942  0.6254308775981556
  0.5066567169315732  0.8177114549653552  0.6991982008785058
  0.4779604849884507  0.9140056387266213  0.7977038799076226
  0.4837729937055641  0.9938246936557533  0.8907570746728268
  0.4652459117873491  0.0816811031109879  0.9770842693474648
  0.4733819956527654  0.1827827496264121  0.0827287873024503
  0.6063043916134561  0.2849774292442149  0.2765542222524147
  0.6070459493728180  0.3971007186523536  0.3989834995245189
  0.5901363741339480  0.5078469931621612  0.5082812054521568
  0.6024288144726739  0.5845695507856732  0.6195907942761423
  0.6058143848209028  0.6996965607028045  0.6971690531177828
  0.6052448996966007  0.8143212013766217  0.8036739781732578
  0.5781182968799499  0.8996108345786382  0.8723874355839314
  0.5820199239233830  0.9949340669293107  0.9933463270388998
  0.5874815052302651  0.1008283290313798  0.0784872476565681
  0.5827099443010439  0.2029873427523441  0.1890678689489675
  0.6893871081827641  0.2915547738079098  0.3853409332971083
  0.6975406634062438  0.3994560539781702  0.5046692170447855
  0.7001315450799268  0.4929135828465334  0.6042673101480744
  0.7038859883168058  0.6083389050400783  0.7069099578861540
  0.6966365000226418  0.7109110406194787  0.8012554467237223
  0.6893010320155781  0.8068676321151997  0.9066319091608932
  0.6964340755332188  0.9173492994611223  0.9827890956844598
  0.6999712140560632  0.0003547996196147  0.1029136842820293
  0.6939040180229128  0.1047319929357400  0.1855782217090081
  0.6935912969252342  0.1918231109903559  0.2975456088393784
  0.7959899547162976  0.2974120296155434  0.4969271149753212
  0.8092657569170854  0.4162820092378752  0.5910750749445270
  0.7835133052574363  0.5061734270705998  0.6775493053480020
  0.8141538436806570  0.5999612122447147  0.7864781202735145
  0.8093703917040287  0.7025639799846033  0.8896918163293037
  0.7818040456459698  0.8077492682153675  0.9891121283340141
  0.8087680609518628  0.8940965421364879  0.1076534193723688
  0.7918395829371008  0.9999305108001622  0.2106023538468520
  0.8091884128062290  0.0822618973871272  0.3210487393017232
  0.8083835724312820  0.1894405420459151  0.3874342168183702
  0.8998221740705503  0.3179993732735582  0.5850189353801554
  0.8909946723724147  0.3950538187746204  0.6811503876284917
  0.8936767613096066  0.4777708508807663  0.7941021709006932
  0.9106943630847226  0.6111622207127638  0.9006383657111812
  0.8877345075397400  0.7217732522755043  0.9874358157859007
  0.9097587972648640  0.8286669139156828  0.0991022881854846
  0.8875593492731966  0.8930388516053043  0.2029135325816256
  0.9185354507992542  0.9729312715663667  0.3065553009102047
  0.8902482728795889  0.0933808526921140  0.4125703835529606
  0.9033735420912024  0.1809268115745155  0.5035791794593152
  0.9733702472490151  0.3041074736222455  0.6987206122356540
  0.0122194067835011  0.4134752085314517  0.8142976506815174
  0.9998655730652573  0.5068251129828383  0.9072999334329594
  0.0060563487750755  0.6021791907802410  0.0357260489969633
  0.9886114287008141  0.7225796295793145  0.0957358316351957
  0.0148057437848124  0.8083344291989292  0.2022866965539123
  0.0118695666349709  0.8706546723724102  0.2897912729248731
  0.0030153425712101  0.9955983811076408  0.3998260272607865
  0.0036164723995853  0.1008179214780611  0.5066141887424749
  0.9855288294162960  0.2066678232124275  0.5877645410496797
  0.0884856482362011  0.3002915174568699  0.8008601870216907
  0.1000586559797156  0.4045492039125094  0.9083533115971534
  0.1017050581895589  0.4966855857446930  0.0028123207897508
  0.1030945609745046  0.6209949753203858  0.0989368111216749
  0.1052965009283184  0.7045100946429415  0.1961609844676886
  0.1160480568763305  0.7977796386360581  0.2983329529502328
  0.1062098120726347  0.8858768156500503  0.3892820196531304
  0.0972229135534093  0.9890291314585866  0.4892744215007028
  0.1095324561880204  0.0811421133903920  0.5860276248698071
  0.0975080550649849  0.2012031476701566  0.6896314291536498
  0.1858221754290597  0.3071280156681624  0.8845841824027545
  0.1977194661051485  0.3744933120499923  0.9775143558393324
  0.2113925318118035  0.5181612040936443  0.0816990766653092
  0.2099774337725862  0.6101345990128166  0.1969742172712046
  0.2135385133360472  0.7006497622605607  0.2970787279807965
  0.2058755486120560  0.8009874478105345  0.3815956509532228
  0.1897497178825347  0.8873457446904851  0.4898603056649904
  0.2024962228863814  0.9876702830231423  0.6018509228818516
  0.2089829538559087  0.1060251324548318  0.6936627781551437
  0.1984576185300924  0.1985287383960497  0.7820412217542909
  0.3914716632703872  0.3801391672327128  0.9750256509532207
  0.4051365557215973  0.5003386482814847  0.0903887202825686
  0.4154850418874219  0.6061949440746304  0.1776756486890392
  0.3874796205225763  0.6975382094824099  0.3001547534302418
  0.3835932377847229  0.7985612000181135  0.4091612136032268
  0.3931354698184109  0.8985191092695715  0.5094786247339584
  0.4040669818412326  0.9913630471403323  0.6242792609699777
  0.3751760562423598  0.0928047108635610  0.7066016596476956
  0.3822069107458219  0.1923248209029538  0.8096728682697076
  0.3800838613413049  0.3028785921296944  0.8780670307476370
  0.4836166123262231  0.3994804949508648  0.0878135289589252
  0.4862894022551316  0.4938831223112814  0.2131265960240896
  0.4943726934746167  0.5993371824480391  0.2943874804147981
  0.4945615636462435  0.7073555386496366  0.3854170619933868
  0.5109861436399044  0.8303335470724065  0.4973015736086595
  0.5108700095095742  0.8969366893085180  0.6019284318253852
  0.4782727079654023  0.9771558954852182  0.6861190549291294
  0.4916246868631973  0.0887322062219837  0.8064452261920962
  0.4846724167911987  0.2110291762894505  0.8927829638183198
  0.4953958520128623  0.3049258814472680  0.9803315038717599
  0.5794443273106040  0.4026943318389726  0.1712573106009145
  0.5990295639179450  0.4972055105737425  0.3127098759226570
  0.6006212887741711  0.5925880043472347  0.4060952121541490
  0.5839801086808833  0.6874677915138321  0.4946994507086870
  0.6269080609518625  0.8072129837431490  0.5993918833491847
  0.5912906833310672  0.9112686559797112  0.7024738676810216
  0.5879079106099709  0.0116338930398925  0.7948780745369746
  0.6048972630530258  0.0943437100937388  0.8993193053480084
  0.5909725902277785  0.2093165933070722  0.9777164665127032
  0.5945201385681287  0.3038276022279547  0.0876911031109913
  0.6944084218629740  0.3977361762441731  0.2913643209708852
  0.7020690481365790  0.5040774487162096  0.4086705800842267
  0.6941036190734948  0.5977763397183367  0.5115722895439916
  0.6933599116967812  0.6691334709957886  0.5883675270570095
  0.6926218285559003  0.7911727817778385  0.6979335774124920
  0.6993251374360341  0.9149903201557734  0.7866124697731323
  0.7102726128696304  0.0035412176787588  0.9018055617443252
  0.7165869913508160  0.1093807797853543  0.0156686749988708
  0.6803943993116874  0.2074684499388653  0.0940866299868688
  0.7218353932889556  0.3048974618484834  0.2033307929176260
  0.8003122478829852  0.3886013109631818  0.3972665136077538
  0.8189376198886009  0.5242340800615892  0.4943294167459129
  0.7976139827016269  0.5976371086356025  0.6015615871937712
  0.8033058031064613  0.7107230684236754  0.6898089412670387
  0.7906230996694319  0.8078368862926268  0.8038118303672519
  0.8084445324457761  0.8668111293755345  0.9026221890141741
  0.8081190073812436  0.9993169125571697  0.0024842557623543
  0.7939026024543736  0.1021754132137858  0.1062824104514775
  0.7978661712629602  0.1845452760041653  0.2203821382964293
  0.8110107612190376  0.2893326998143380  0.3083160467327843
  0.8905400824163365  0.4030755191776478  0.4753312213014524
  0.9066891414210048  0.5008977222297730  0.5691882108409203
  0.9087891083638979  0.6123624937734888  0.7026880301589458
  0.9136185029207979  0.6944444346329774  0.8160045342571181
  0.8843035919032758  0.8054934175610171  0.9129728632885019
  0.8938566028166477  0.8875731970293899  0.0183776493230070
  0.9003370357288389  0.0219249073948262  0.1154796821084076
  0.9004354177421519  0.0970684947697293  0.2160792546302588
  0.9191007313317954  0.1792835488837596  0.2996603880813282
  0.9111058452203054  0.3073998926776227  0.4120627319657686
  0.9927518222161851  0.3965123882624653  0.6009342480641209
  0.9973151175112065  0.4954745949372850  0.7053875275098491
  0.0023561345831666  0.5971875039623242  0.8175938133405793
  0.9866667540642098  0.6826678254766136  0.9085168292351611
  0.0081635402798526  0.8111756595571222  0.9896760435629233
  0.0180381945387822  0.8994648983380884  0.1167891726667563
  0.9998038980210993  0.9896502929855515  0.2199870515781370
  0.0083193180274392  0.1129594919168611  0.3082053561563214
  0.0124608400126789  0.2041426368699888  0.4073245949372790
  0.0113146012770002  0.3193911089978698  0.4885092962912623
  0.0834777516641765  0.4051775537743936  0.7011303301181897
  0.0865460132228435  0.5008237689625474  0.8036700851333620
  0.1160821296925221  0.6072115074944548  0.9219109006928434
  0.1007039740977191  0.7207895077661561  0.0095434429198917
  0.1275880170266745  0.8039024697731278  0.0898978087216378
  0.1247764873432047  0.9028289498709441  0.1992700158492937
  0.1050941425530922  0.0097893619526346  0.3108831218584456
  0.1182372616945173  0.1125741316850082  0.4081888375673586
  0.1025256803876289  0.1888769121043339  0.5073478263822864
  0.0974014178327209  0.3151022288638288  0.6107823814699103
  0.1738956577457742  0.4103304623466002  0.7923400837748460
  0.2041975266041760  0.5059061241679146  0.8986793044423322
  0.2069607902006041  0.6208201068695374  0.0108936054883841
  0.2101630951410556  0.6919458868813138  0.0908223959606929
  0.2203384789204392  0.8044010659783538  0.2133227564189681
  0.2040412317167082  0.9321189303989499  0.2789077996648999
  0.2001826980029904  0.9886557265770080  0.3986448661866575