Li 
 1.0000000000000000
    22.0829999999999984   -0.0000000000000006    0.0000000000000000
    -0.0000000000000006   22.0829999999999984    0.0000000000000000
     0.0000000000000006    0.0000000000000006   22.0829999999999984
 Li 
 500
Cartesian
  0.3040648500000000 -0.4830067100000000  0.4222632100000000
  0.0033500500000000  2.1903942800000000  2.4476053100000001
  0.1215150200000000  4.6003290000000003  4.5010733299999997
  0.0507829000000000  6.2041411399999999  6.5361120699999997
 -0.2112268500000000  8.7528311999999993  8.7239136100000003
  0.0258487800000000 11.2423598899999995 10.7240316300000007
  0.1391486000000000 13.4826185699999996 13.0362031599999995
 -0.4532667700000000 15.4366575099999999 15.8645257399999995
 -0.2260775900000000 17.2482740399999983 18.0670667300000005
 -0.0393385600000000 19.5694450199999999 19.8020148499999991
  2.6986590399999999  0.4318115700000000  2.4350767499999999
  2.2319095799999999  1.6905870000000001  4.8170599100000002
  2.7074951899999999  4.4176355899999997  6.7421173899999998
  2.4542141900000001  6.6792138000000003  9.1348158900000005
  2.1461599300000000  8.9270397900000003 11.2899147699999993
  1.9913444100000000 10.8844865599999991 13.1987201699999996
  2.1441290999999998 13.6277372099999994 15.3842541599999993
  2.2210067499999999 14.9755435099999996 18.5313275799999992
  2.3690868500000000 17.6629720100000007 19.8431293400000008
  2.4742129099999999 19.7511486400000003 22.1970266599999988
  4.9080556800000004  0.0928945600000000  4.6140997099999996
  4.5845674399999998  2.4046756700000000  6.7434217299999997
  4.5523346099999999  5.1067422000000002  9.2965186099999997
  4.4413407800000000  7.0636918099999999 11.4325064699999999
  4.1087028200000004  8.6103869799999995 13.4387609500000007
  4.4063575799999999 11.4134127000000003 15.4490139200000005
  4.4215592499999996 13.2683853599999999 17.7421785999999990
  4.9064409600000003 15.3159002399999995 20.5174242100000015
  4.9267319000000001 17.5281858399999990 -0.0971838900000000
  4.8034273599999997 19.9186849099999996  2.5364705700000001
  6.9818525400000002  0.0481515800000000  6.4984969799999996
  6.7980546500000001  2.4700499699999998  8.8714954800000001
  7.1621406399999996  5.2901166399999999 11.3946146200000005
  6.7532696699999999  7.1232555700000004 13.9931433399999996
  6.1094835600000001  9.0083494999999996 15.4912341700000002
  6.5831419699999998 11.0514989200000002 17.6525819999999989
  6.9248433499999997 12.9595279300000001 20.1870074700000011
  6.8882017800000002 15.2178795000000004  0.1636041000000000
  6.2756569899999999 17.6105711999999990  2.3288772099999999
  7.3200563299999999 19.7797722699999987  4.5872115400000002
  8.7242715099999995  0.2466765300000000  9.0188269600000002
  8.8031298000000007  2.2325452600000002 11.4899098199999994
  8.3688461800000002  5.3440272200000001 13.6673313299999997
  8.6365314200000007  6.7110851800000004 16.0107367600000003
  8.6122447399999995  9.1116096399999993 17.5347194299999991
  8.9790402500000006 10.8807724799999992 19.7616967099999989
  8.6703058500000001 13.1615726100000003 -0.2154247500000000
  9.0395792999999998 15.2271195299999995  1.8570629400000001
  8.6063386299999998 17.9777626099999992  4.4172115700000001
  8.8877124399999996 20.0026374699999998  6.5373705500000003
 11.1423660800000004 -0.0127821700000000 11.2437510399999994
 10.6699883999999994  2.7747363400000000 13.3186771099999994
 10.8685857000000006  4.3142951500000004 15.6519518000000009
 10.9278004000000006  6.6356386100000000 17.4236001800000011
 11.2928378299999999  8.9291147899999999 19.5113101499999999
 10.8592665400000001 10.8185205900000003 -0.4362676200000000
 11.0319844000000007 12.8889241000000005  2.1787674099999998
 11.1894060799999995 15.5776285800000007  4.2564317000000003
 10.3474508600000004 18.1731922200000007  6.5000206900000004
 11.1557660500000004 20.2934086299999983  8.5506220299999995
 13.4993619500000008  0.1153296400000000 13.5393575300000002
 13.5958872500000005  2.1380924700000001 15.3262726199999992
 13.3317235000000007  4.1440213699999999 17.6972776399999994
 13.3065443600000002  6.7182238999999999 19.4909021100000004
 13.0270060599999997  8.8106319899999992 -0.0135863800000000
 13.1344422000000005 11.0529166799999992  1.7922177900000000
 13.3502495400000001 13.1692634399999999  4.7243305400000004
 13.5229508900000006 15.6715930900000000  6.4448160000000003
 12.9063493400000002 17.5077763399999995  8.3753288399999999
 13.4523620200000007 20.2398671099999987 10.7983052100000005
 15.7676456399999996  0.2030787500000000 15.3881300999999997
 16.0255848599999986  1.8685510599999999 17.5783105699999993
 15.8146425100000005  4.6747731799999999 20.1383631899999997
 15.6283693800000005  6.9715974699999999  0.1941625100000000
 15.7425398199999993  9.0796035300000000  1.6861931699999999
 15.4741534600000001 10.8675610099999993  4.2268963399999997
 15.7517036800000003 12.9490904100000002  6.5893191099999999
 15.2850470099999995 15.0736314599999996  9.4742233200000001
 15.2171576599999998 17.1670331300000001 10.7350404899999994
 15.3325781100000000 20.1318949300000014 13.4226166100000004
 17.7756461500000000 -0.0397016500000000 18.0193173199999990
 17.9853467199999990  1.9755425499999999 19.6224682900000005
 17.7225749499999985  4.1135815800000000 -0.3503350800000000
 17.5158075300000000  6.3656553999999996  1.9420129100000001
 17.8765726899999997  8.2603239500000001  4.3519851699999998
 17.7758217599999995 10.7859777900000005  6.3485685099999998
 17.5012267399999999 13.0422183799999996  8.9569836200000008
 17.2289021600000005 15.0403954199999994 11.1199004099999996
 17.0118879800000009 17.7657879799999989 13.5026981100000008
 17.4149824200000012 19.5831863000000013 15.5953549200000001
 19.9029008500000018 -0.5977211800000000 19.7490525800000007
 20.0069687199999997  1.9298067400000001 22.1147354199999988
 19.7441034299999991  4.4175566399999999  2.2476461900000002
 19.9305352000000013  6.1196834700000000  4.5276261699999996
 19.9153911199999989  8.4170476799999996  6.5682087200000003
 20.2160397299999985 11.0780980200000005  8.7730180200000003
 20.3007098299999988 13.5092783700000005 10.8324833799999993
 20.1253250000000001 15.8059722600000008 12.9517329199999995
 19.2886504899999984 17.6122676300000016 15.6086565900000007
 19.6505266799999987 19.7422364200000011 17.3944070099999983
  1.7320177100000000  2.0051549899999999 -0.1507979000000000
  2.2448500700000000  3.9349585000000000  2.0319264300000000
  2.4821283200000002  6.8507104700000001  4.4990878099999998
  2.3714924599999998  9.2306860499999992  6.5968990800000000
  2.4321690500000002 10.8935930899999995  8.5721548199999997
  2.4732264499999999 12.8226747700000008 11.2811154200000008
  2.1112404699999998 15.6057974799999997 13.1151706299999997
  2.3820745900000002 17.3516367400000000 15.7706785400000005
  2.2987726700000000 19.9757148600000001 17.4082133900000002
  2.3708946800000001 21.5932235100000014 20.0450477900000017
  4.4814369100000002  2.4940149800000002  2.0887558600000000
  4.3860541599999996  4.2247621000000004  4.4553124400000002
  4.5795418699999999  6.9417165499999998  6.9185544200000004
  4.6670152500000004  9.4420972299999999  8.7797420400000004
  4.5895630499999998 10.8030526699999996 11.1507539900000001
  4.7805144000000004 13.2514056399999998 13.3350152400000006
  4.2203558000000001 15.5341857700000006 15.5677717799999993
  4.4993178900000004 17.8152409899999995 18.1194643900000010
  4.7524446500000002 20.0587419800000006 19.6904027699999986
  4.6898733699999999 22.0670013099999984 22.4285910800000003
  6.5540621899999998  2.8004407400000000  4.2808694100000002
  6.5869079299999997  4.5407437000000002  6.5122517899999997
  7.1008753699999998  6.8945661300000003  9.1073988000000003
  7.0524587900000002  8.6793234100000003 11.0569746799999997
  6.8334575600000003 10.5743467399999993 13.2176762100000005
  6.5703314099999997 13.3856792500000008 15.4786043899999992
  6.8237073099999996 15.4796321500000005 18.0078440300000011
  6.4762173000000001 17.6670338499999993 20.0902723700000010
  6.2393707000000003 19.5281404000000016  0.0681773300000000
  6.5997360799999996 22.2929681899999999  2.3230936700000000
  8.4844872400000000  2.3493787099999999  6.4351008700000003
  8.5953743300000003  4.3176839899999999  9.0272181000000007
  9.2230857499999992  6.5145045499999998 11.1271312000000009
  8.8513049299999995  8.9851809700000000 13.5761199099999992
  8.8578301699999997 11.2454778999999991 15.4679678500000009
  8.8903930599999992 13.0584659700000003 17.6043261000000015
  9.0554688199999998 15.7048904500000006 20.0459406400000013
  8.7667940099999999 17.6410503100000007  0.2248243400000000
  8.6571881400000006 19.8630566100000010  2.2481505199999998
  8.7507740300000005 22.5799885899999992  4.3591277499999999
 10.5759964100000001  2.4326594199999998  9.0137909300000008
 11.0587195000000005  4.1135281800000003 11.2680199499999993
 11.4027978300000008  6.6696064899999996 13.4927525999999993
 11.1421439400000004  8.7115448400000002 15.5172019199999998
 10.8122625499999998 11.1378861199999992 17.6566000099999982
 11.5793906500000006 13.5049450600000007 19.6703377599999989
 11.3266336600000006 15.2343163199999996 -0.0986213700000000
 10.7513658999999997 17.6960464299999991  2.6614950899999998
 10.7910642499999998 20.3657321600000003  4.4116882200000003
 10.6129365700000005 22.5391494600000009  6.4155997899999999
 13.3153890399999995  2.1977908799999999 11.2893389400000004
 13.6438505699999997  4.4693853399999997 13.4914331900000004
 13.4489494999999994  6.7622418700000004 15.9071564700000003
 13.6354215199999995  8.9783903499999997 17.4410659000000017
 13.2283152499999996 11.2432172900000005 19.7666851100000009
 13.0614361300000006 13.0245031499999993 -0.1595629700000000
 13.0756014000000000 14.7638031900000009  2.4516657600000000
 12.9668604599999995 17.9447304500000016  4.4114986199999997
 12.7335142500000007 20.5099128700000009  6.1522395000000003
 12.9600566700000002 22.6000169600000014  8.6751625400000005
 15.8265681300000001  2.3474702800000000 13.1231997000000007
 15.6542150600000003  4.3210702500000000 15.9403249299999992
 15.6503484000000004  6.5085140900000003 17.9420987899999993
 15.0170582499999998  8.9212936400000000 19.8080200700000013
 15.5099466199999991 11.6386563299999999 -0.3327951100000000
 15.3995316800000008 13.3745594099999998  2.3407224300000000
 15.4106981100000002 15.8217277500000009  4.7960622099999997
 15.1091081200000001 17.8388573100000016  6.7353691099999997
 14.9120696299999995 19.6542060599999999  8.5481715299999994
 15.4617934199999993 21.9641983500000002 11.1291085400000007
 17.9202025800000015  2.0960949200000001 15.7107469999999996
 17.7712407399999996  4.4819972400000001 17.9128761300000008
 17.7215934500000003  7.3980028200000003 19.8114202199999987
 17.4669035500000014  9.0434268099999997  0.0117619100000000
 17.6116029400000009 11.2258568000000007  2.3448770900000002
 17.6431287400000016 13.3060130399999998  4.4538551000000002
 17.7038508199999995 15.4869242400000005  7.2111568999999998
 17.6880621500000004 17.4326753699999983  8.7655224300000008
 17.5848214300000016 19.3964548199999989 10.7848839400000003
 17.4472239400000007 21.6928297100000016 13.5418678999999997
 19.9529613200000000  1.8067609700000000 17.6196979999999996
 19.7867672900000002  4.2861786999999998 19.5322507099999996
 20.0097103599999997  6.6002234800000004 -0.0699472600000000
 19.8875743199999988  8.8043731899999997  2.7293651900000002
 19.7931567000000008 11.1118987600000008  4.8598131799999997
 19.3790237400000009 13.6894012099999998  6.6452131100000003
 19.7975445400000005 15.2324269099999992  9.2488085800000004
 19.5421885899999985 17.0359602599999995 10.8003309099999996
 19.5996783999999984 19.0647046600000003 13.3106141299999994
 19.8335799699999988 21.8371421599999991 15.4081130000000002
 22.1371566299999998  1.6329189600000000 20.1416366199999999
 22.0388176999999992  4.4712822799999996 22.5443200600000004
 22.0598651900000000  6.5343925100000000  2.2363954000000001
 22.0507006600000004  8.7444988800000001  4.5050470699999998
 21.7597295600000002 11.3424132300000000  6.5425217499999997
 22.4209696600000008 13.6723939399999992  8.7469908400000005
 22.5775817500000002 15.9196568900000006 10.9152284700000006
 22.1432536900000017 17.3026008800000000 13.1615300899999994
 22.0775051299999987 19.3619433100000009 15.3567911600000002
 22.3310186900000005 22.1412312799999995 17.5839137600000015
  4.2639673399999998  4.0560361000000000 -0.1818849000000000
  3.9232124300000000  6.1798214400000004  2.0466329800000000
  4.6909843000000002  9.3767640300000004  3.9590459099999999
  4.7330253200000003 11.3101368299999994  6.6254583100000000
  4.4431998899999998 13.0368044800000007  9.1517061099999992
  4.5053825099999996 15.4181745499999998 11.1452550000000006
  4.2061023200000003 17.8748197699999984 13.2028557499999994
  4.1691864299999999 19.7314959899999991 15.2044625599999996
  4.3142385100000000 -0.1185018600000000 17.6414653900000005
  4.2976703699999996  2.0005465800000000 19.8949421199999996
  6.4812813100000000  4.1522801700000000  1.9495758000000001
  6.6513523599999997  6.6782876800000004  4.2471456999999999
  7.0044326999999997  9.0059883599999999  6.4139654000000004
  7.1326550500000003 11.3162828599999994  8.7092009899999994
  7.0957423300000002 13.5871641800000003 11.1512758699999992
  6.7388376699999997 15.4387564299999998 13.2287232800000005
  6.4455319299999996 17.4243780900000012 15.5892816399999994
  6.5706695100000001 19.4483788900000008 17.4861767499999985
  6.4580231399999999  0.1998716200000000 19.8480978599999993
  6.9960457600000003  2.2803250199999998 21.5800027900000018
  8.4498569000000003  4.8217229399999999  4.0409867400000001
  8.7327981700000006  6.4207947799999996  6.7537783999999998
  8.9447871100000000  8.8291013300000003  9.0421799600000003
  8.6613380000000006 11.1529521700000007 11.2814725399999993
  8.6810691400000000 12.9516355399999998 13.2803770900000000
  8.9604568400000009 15.2234453599999995 15.5154142299999993
  9.1056297500000003 17.7650717500000006 18.0237838500000009
  8.5239273999999998 19.6461000800000001 19.7094310899999989
  9.2179576200000000 -0.3398371800000000 -0.3662100100000000
  8.7508602500000006  1.8944632100000001  2.0136596099999999
 10.7557770000000001  4.2395031899999998  5.9479177700000001
 11.0779610099999992  6.3316867500000003  8.7358988800000006
 11.2403511999999992  8.3680846100000004 11.1905739600000000
 11.0756059199999992 10.8150200699999992 13.2932366300000009
 11.3634306899999995 13.1965196500000008 15.6961592499999991
 11.4234959200000006 15.7223382399999991 17.4790908300000005
 10.8148471399999995 17.8062675500000012 20.0619745000000016
 11.2658323700000000 19.6959656999999986  0.0891873900000000
 10.8197990399999995  0.1764125100000000  2.2453564500000001
 10.6704022799999994  2.1279669700000001  4.3485792400000003
 13.2144189500000007  4.0145985299999998  8.5343939899999999
 13.4676580500000007  5.9672542999999996 10.5414107599999998
 13.1456581499999992  8.7490119400000008 13.1673750799999993
 12.9802741299999997 10.6954083600000001 15.4407477400000008
 13.6729287500000005 13.3996422800000001 17.7224303499999998
 13.6416408199999992 15.5616796700000002 19.8890151800000012
 13.1046194499999995 17.6464937900000010  0.2468025800000000
 13.2787936999999996 20.0020027399999982  1.8638910500000001
 13.1392494600000003  0.1835106700000000  4.2627384399999997
 13.1165624500000000  2.3354764299999999  6.5651993700000002
 15.9768928599999995  4.5662724399999997 10.8772764899999999
 15.5635220499999996  7.1711327599999999 13.5274702799999993
 15.5738210200000005  8.8136028500000005 15.2687620400000004
 15.9756777900000007 10.8784621099999992 17.5701876100000014
 16.0630731000000004 13.3620903000000002 19.6294929399999987
 15.2320717800000001 15.2502816299999999  0.2937450100000000
 15.2916966300000006 17.7648694800000015  2.1764463599999999
 15.2713027900000000 19.6609884199999989  4.6495050400000002
 15.4771318400000002  0.4139074800000000  6.7133913900000000
 15.3242816800000003  2.1980094000000001  9.1116984700000003
 17.8851897899999983  4.9878255999999999 13.4170534200000002
 17.7362561800000016  6.9344925200000000 15.2759439700000001
 17.2400823999999986  8.4833262400000002 17.2549666200000011
 17.7541658600000005 11.1957426899999994 20.1204453299999990
 17.7280397399999998 13.5178729600000000  0.4652178500000000
 17.4605199999999989 15.5458857199999994  2.1109360100000001
 17.6545848700000008 17.5642124600000002  4.8641261800000004
 17.8151462000000009 19.9252453299999992  6.6675776700000000
 17.8789521200000010 -0.2541477200000000  9.3409011199999998
 17.8539138699999995  2.3052574300000002 11.4059708600000000
 19.6612560300000005  4.5155645199999999 15.3763364100000004
 19.7641920199999994  7.2270855100000002 17.4503333500000011
 19.7731269699999999  8.9683091099999999 19.9073817200000001
 20.2430075800000004 11.0935994699999991  0.1534717000000000
 19.9032550000000015 13.5680181300000005  2.5092331300000001
 19.7230160599999991 15.3765005200000004  4.1100696200000000
 20.1780544999999982 17.7033727300000017  6.8576783399999997
 20.1359020400000013 19.4234990399999994  8.7801642199999996
 19.9358446600000008 -0.4795654300000000 11.4236105400000003
 19.5075517400000003  2.2520728800000001 13.4865089299999994
  0.0235983800000000  4.0962842300000002 17.6953135400000008
 -0.2811838700000000  6.4905205300000004 19.9768805299999990
 -0.2157651200000000  8.9136470800000005 -0.0363304800000000
 -0.1941023900000000 11.0835610300000003  2.2453217099999998
 -0.3031348200000000 13.5592258200000000  4.5173468400000001
  0.1758778900000000 15.2078965400000001  6.4586608999999999
  0.3854096800000000 17.6049065800000015  8.7520973600000005
 -0.0145158300000000 19.5687837900000012 11.1664185000000007
 -0.1861282800000000 -0.3655886800000000 13.1902155099999998
 -0.2311238300000000  2.4757684900000001 15.1028091300000007
  1.8946541100000001  4.3697361199999998 19.9407080900000011
  2.0138553500000000  6.4472931500000001 21.9983058900000010
  2.1908979099999999  8.7771228000000008  2.3012131500000002
  2.3972842100000000 11.4528992499999998  3.9350577400000000
  2.4062647500000001 13.0726221799999998  6.4371925399999999
  2.4767595000000000 15.3374105000000007  8.8988524299999998
  2.6875491899999999 17.6438668999999990 10.9507752600000003
  2.1203307800000002 19.5082448200000016 13.6360183599999996
  1.7690429299999999  0.4734454600000000 15.3959358599999998
  1.7846974700000000  2.5323114599999998 18.0505678100000004
  6.6396702500000000  6.4467462700000002 -0.3500116100000000
  6.7709967700000000  8.5764620499999999  1.8937191799999999
  7.1689566300000003 11.4511613899999993  4.1135361100000001
  6.6465266400000003 13.0944592300000000  6.3641226800000004
  6.7153680400000004 15.2377409499999992  9.0210951599999998
  6.1649522899999996 17.1945794099999993 11.3064838099999996
  6.1204329099999999 19.6040277900000000 12.9720994600000008
  6.1207351100000000 -0.4230305300000000 15.1464772399999994
  6.6393767300000004  2.4228639599999999 17.3402144800000002
  6.0479998699999999  4.6272218699999996 19.5680132100000002
  8.7008276900000006  6.4874519099999999  1.9572075400000000
  9.0520156899999993  8.3953614900000009  4.0312196199999999
  8.9723397699999996 10.8028206299999994  6.4203427800000004
  8.8145810699999991 13.3369078999999999  8.9184789500000008
  9.6432490499999997 15.7712482099999995 10.9617067800000001
  8.6902082699999994 17.8144586700000005 13.3015299799999998
  8.2001752400000001 19.8478987400000015 15.3759696300000002
  7.9674567900000000 -0.0196861300000000 18.0648564200000017
  8.8364205699999996  1.8778437500000000 19.6448525700000012
  8.6541943900000007  4.1419993699999997 21.6024908899999986
 11.3738522500000006  6.4503513000000003  3.8444152900000002
 10.7719970600000003  8.6476855100000005  6.5886186799999997
 10.9050216599999992 11.0549369599999991  8.7104733099999994
 11.0125475900000005 13.4093245799999998 11.1798708399999995
 11.1440943099999998 15.9450977799999993 13.8113900699999999
 11.1885002799999995 18.0575220600000002 15.4403938699999994
 10.5548013899999997 20.1839865200000013 17.6156947799999983
 10.6831590199999997 -0.1363692900000000 19.6705884799999993
 10.2740254699999998  1.8037638000000000 -0.5060480800000000
 10.4536946099999994  4.0363914599999999  1.8268998100000000
 13.3890198799999993  6.2931565699999998  6.1071468900000001
 13.4053956999999997  8.7691751700000005  8.8107526200000006
 13.0319815499999994 11.2147851500000009 11.2243738600000000
 13.3034355099999999 12.9090493899999998 13.6824235099999996
 13.3781990600000000 15.4513991500000003 15.3955842000000001
 13.3656231200000004 17.9826550900000015 17.7475324599999986
 12.7665863500000007 19.8661060599999999 19.2649317400000015
 12.8527459799999999 -0.1118710000000000 -0.1469330600000000
 12.9733540800000000  2.2265919900000002  1.7332338899999999
 12.8679836999999999  4.4825694900000004  4.1751857499999998
 15.2237355099999991  6.4384040699999998  8.5094838300000006
 15.4037904700000006  8.8211880399999991 11.1446103200000000
 15.4610049099999998 10.8850106499999999 13.3440350100000007
 15.5439142799999992 13.4339480400000006 15.6106926000000001
 15.3838238300000008 15.6990485100000008 17.6941240300000011
 15.2218346899999997 17.8180579200000011 20.0211524499999989
 15.3793536900000003 20.2578245800000012 -0.3800684000000000
 15.4574643199999997  0.0078350400000000  2.2726428900000002
 15.3234824300000003  2.3127966000000000  4.0981238700000002
 15.3165766100000003  4.2360297600000001  6.5706996799999997
 17.5778461700000008  6.5677498500000002 10.9736414799999995
 17.8710157100000018  9.1927556100000007 13.0527108799999993
 17.3023243200000003 11.1778277900000003 14.9623213100000001
 17.9789593299999986 13.2489434500000005 17.3677963300000009
 17.8733263600000001 15.5147203699999991 19.6470643799999998
 17.2645787400000010 17.8375270899999983 -0.2404368700000000
 17.8600250900000006 19.7443339400000006  2.3773104599999999
 17.4861935099999997 -0.0015345300000000  4.6507317800000001
 17.8693077199999983  1.8165894800000000  7.0897193100000004
 17.8515344300000010  4.1834154899999998  8.5557098099999997
 19.8707730699999985  7.0223801600000000 12.9189731499999994
 19.6758353499999998  8.7239734799999997 15.0418440100000002
 19.7350639200000018 10.5506136999999995 17.5361582399999989
 20.1108636199999999 13.4962953199999998 19.8887970299999992
 19.6038411299999993 15.9389187299999993 -0.2774548800000000
 20.0902035199999993 18.2994514600000002  2.1884758299999998
 19.5999731100000005 19.7209769600000016  4.4809395399999996
 20.2840183600000010 -0.5977587300000000  6.7696607100000001
 19.6593526099999991  2.0621293700000001  9.1107917799999996
 19.9491979300000004  3.9954067800000002 11.1205390200000007
 -0.5880648300000000  6.7156053399999998 15.4298472800000006
  0.2698411600000000  9.1307730300000003 17.9821350200000012
 -0.0029685500000000 11.1922189700000008 20.0359044299999987
  0.1337423500000000 13.2979230699999995  0.7889383400000000
 -0.2514938200000000 15.9567259600000000  2.1141343699999999
  0.3269552400000000 17.8504491999999999  4.4670971200000000
  0.2621156400000000 19.2266671299999992  6.3994606799999998
  0.0665878100000000 -0.0972009500000000  8.8293581600000000
  0.0798625600000000  2.2263621599999999 11.1875611300000006
 -0.3195668600000000  4.5638455400000000 12.9796043599999997
  1.9540285700000000  6.6313375800000003 17.6853955099999993
  2.2095953000000002  8.9336600700000002 20.0591661799999983
  2.2459528000000000 10.9683077900000008  0.0621044800000000
  2.2766371900000002 13.7134320400000007  2.1848215999999998
  2.3252626300000001 15.5576964199999992  4.3318230199999999
  2.5626892400000001 17.6173677600000005  6.5880865999999996
  2.3454312800000001 19.5628177200000017  8.5965148399999993
  2.1469735999999999 -0.2422696900000000 10.8046470499999998
  2.4188052299999998  1.7918612899999999 12.9412480399999996
  2.1532703799999999  4.4431691100000004 15.2291308500000007
  4.1035111000000004  6.7823079699999997 19.5342725000000002
  4.3662389700000004  8.2699358099999998 21.5864495199999986
  4.6681812799999998 11.4425538699999993  1.8041607099999999
  4.6369316700000001 13.4736023500000002  4.3497816399999998
  4.7155709899999998 15.4724486999999993  6.5603895500000000
  4.5463497400000001 17.6882058099999995  8.4267767599999992
  4.1902430199999996 19.5952560799999986 10.8175851299999994
  4.4717240900000004 -0.2722771400000000 13.2906739300000005
  4.6149705699999997  2.3413529999999998 15.3181551299999992
  4.3825395900000004  4.3841101299999998 17.2698162999999987
  8.6448687399999997  8.3946132299999991 -0.5515085500000000
  8.9466305599999991 11.0489783700000004  1.9960541100000000
  9.1751561800000001 13.3866029500000003  3.9236113499999998
  8.5567124600000000 15.4037362800000004  6.6283174200000001
  8.4708894699999995 17.6346269800000002  9.0355070800000004
  8.6816105799999992 19.8419974900000007 11.2508164700000002
  8.9230111599999997 -0.1907298300000000 13.7859589200000006
  8.2850128499999993  2.0494064299999999 15.6038844500000007
  8.4402752099999994  4.2471090199999999 17.8800059500000010
  8.3933919100000001  6.6884679499999997 19.3903542400000006
 10.6797056500000007  8.8217277700000007  1.9391861600000000
 10.7387288699999992 10.9064209900000009  4.7064746199999998
 10.9172321900000000 13.2351630000000000  6.5009587299999998
 10.9214030100000006 15.6205323600000003  8.5111649800000002
 11.2841070099999996 18.3362557200000005 10.9819106499999997
 11.2815424199999992 19.8070529099999995 13.2923855599999996
 10.5616962099999991 -0.5044663600000000 15.1515670900000003
 10.8565479600000003  1.9594733099999999 17.8087299299999984
 10.7030209799999998  4.6601572999999998 19.7153261899999990
 10.9398266000000000  6.7336782399999997 21.6486605999999995
 12.7958690799999992  8.8926989299999999  3.7818751900000001
 13.2283698600000008 10.9797892899999994  6.9055721900000000
 13.2635199200000002 13.0861208999999992  8.9678005699999996
 12.8960327400000008 15.1813512399999997 10.9244479699999992
 13.8440107099999992 17.8256843200000006 13.2363709600000004
 13.0574721599999997 20.1235457300000000 15.5127304200000005
 12.9827703900000007  0.2569112600000000 17.5532925199999994
 13.3579462600000003  2.0833921499999999 19.8596682199999996
 13.0504477100000003  4.6223383299999998 -0.4920872700000000
 13.1287882200000006  6.7094249399999999  1.9364826300000000
 15.3346211799999992  8.7832079800000002  6.4341983000000003
 15.5037907900000000 11.1315422999999996  9.0246724199999999
 15.3278902200000005 13.2006949099999993 11.2970508699999996
 15.3114669299999999 14.7764744399999994 12.9929200999999992
 15.2951678399999995 17.4714685400000000 15.4124671899999992
 15.4431970100000004 20.2057312399999986 17.3707631700000000
 15.6849501100000008  0.0782007100000000 19.9145722200000002
 15.8243905300000005  2.4154557600000000  0.3460113500000000
 15.0251495199999994  4.5815257799999998  2.0777150500000001
 15.9402909899999994  6.7330506500000000  4.4901539000000001
 17.6732953700000017  8.5814827499999993  8.7728364200000009
 18.0845994599999997 11.5766611899999994 10.9162765099999994
 17.6137095799999983 13.1976202699999998 13.2842845300000008
 17.7394020499999989 15.6948975199999996 15.2330508499999997
 17.4593299100000010 17.8394619600000013 17.7505766499999993
 17.8528806099999997 19.1417901700000002 19.9326058000000010
 17.8456920399999994 -0.0150846200000000  0.0548598200000000
 17.5317511699999997  2.2563396500000001  2.3470344700000001
 17.6192786599999991  4.0753133300000002  4.8666987600000002
 17.9095506399999991  6.3893340099999998  6.8085432600000004
 19.6657966399999999  8.9011166900000003 10.4967393599999994
 20.0224163100000005 11.0613244000000002 12.5693832600000004
 20.0687898800000006 13.5228009500000006 15.5174597700000003
 20.1754373999999999 15.3354164500000003 18.0198281300000005
 19.5280762199999991 17.7877111399999990 20.1611797400000015
 19.7390353599999990 19.6002789100000001  0.4058336300000000
 19.8821427600000007  0.4841677300000000  2.5501378200000002
 19.8843153299999997  2.1435635700000000  4.7716781800000003
 20.2965014500000009  3.9591186100000000  6.6174003499999996
 20.1199503799999988  6.7883118299999996  9.0995813099999996
 -0.1600615100000000  8.7561830700000005 13.2704310000000003
 -0.0592902600000000 10.9415654799999995 15.5770727699999991
  0.0520305200000000 13.1876916499999997 18.0549241800000004
 -0.2944380700000000 15.0753535900000006 20.0627771400000015
  0.1802754600000000 17.9131920899999990 -0.2279839300000000
  0.3983374500000000 19.8628833500000006  2.5790552999999998
 -0.0043305200000000 -0.2285525800000000  4.8579740600000001
  0.1837155000000000  2.4944844599999998  6.8060988800000004
  0.2751727300000000  4.5080818499999999  8.9949490300000008
  0.2498603400000000  7.0531138599999998 10.7877507900000005
  1.8434391900000000  8.9475359200000000 15.4830610800000006
  1.9111956100000000 11.0596912900000000 17.7474464900000015
  2.5634416700000000 13.4090517200000008 20.3585584200000014
  2.2238458600000000 15.9171946999999996  0.2107478500000000
  2.8175261800000002 17.7525782399999983  1.9852133100000000
  2.7554391699999998 19.9371717000000004  4.4004797599999996
  2.3207939500000001  0.2161784800000000  6.8652319799999999
  2.6110334499999999  2.4859745499999999  9.0140340999999999
  2.2640745999999998  4.1709688500000004 11.2037620499999999
  2.1509155099999999  6.9584025199999999 13.4879073300000005
  3.8401378099999999  9.0613276000000003 17.4972460699999992
  4.5092939799999998 11.1719249400000002 19.8455350800000012
  4.5703151300000000 13.7095704200000004  0.2405634900000000
  4.6410316299999996 15.2802410200000001  2.0056309699999999
  4.8657346300000004 17.7635887399999994  4.7108064299999999
  4.5058425199999999 20.5839823399999986  6.1591209400000002
  4.4206345200000001 -0.2505155900000000  8.8032745800000001