Li 
 1.0000000000000000
   -10.8535000000000021   18.7988134399488125    0.0000000000000014
   -18.6059999999999981  -10.7421791085421763    0.0000000000000014
     0.0000000000000001    0.0000000000000001   22.7650000000000006
 Li 
 504
Cartesian
  0.0939839700000000 -0.0565137500000000  0.0556360200000000
 -11.0432645100000002 16.7923309600000010 15.2451139999999992
 -10.3424282800000000 15.7116261900000005  7.0932994400000000
 -10.5905862800000001 13.8416387400000005 -0.2545143200000000
 -11.0294444200000008 11.3590169499999991 14.7126297899999994
 -10.7121855299999993 10.2954539900000004  7.8690901200000001
 -10.7582399199999994  8.3344634099999997  0.6044276000000000
 -11.2694949500000003  5.9820570699999998 14.9298655900000004
 -10.4218999500000002  4.8733217199999999  7.4813423099999996
 -10.5275997700000001  2.9101612299999999  0.2884480600000000
 -10.8698045899999993  0.9064663900000000 14.9834750700000008
 -10.9006263899999993 -1.1548168400000001  7.9000499800000004
 -2.0556464600000002  0.3842246100000000 14.7382404000000005
 -1.1607368600000001 -0.4831381000000000  7.3377362000000002
 -12.1941460700000004 16.2504967299999983 -0.1794195200000000
 -12.6250992499999999 13.6880436000000003 14.5834469999999996
 -12.2287427599999994 12.5491117600000006  7.2966604999999998
 -12.1116490100000007 10.8971149500000006  0.2923355000000000
 -12.9151810499999993  9.0341282199999995 14.7927073599999996
 -12.3426437599999996  6.9336218299999999  7.5404356699999999
 -12.8295852400000001  5.5701676400000002  0.3615650300000000
 -12.2314565799999997  3.1937124600000000 15.2910939999999993
 -12.1961335000000002  1.9648738400000001  7.5806962699999998
 -12.4280274399999993 -0.3526203000000000  0.0583252600000000
 -3.6962355599999999  2.1837019500000001  7.8004064299999998
 -2.8497990899999999 -0.4287588100000000  0.1705291800000000
 -2.9950052700000001 -2.1326988800000000 15.7333015500000002
 -13.8661569599999996 15.4827268500000006  8.1280471999999993
 -13.4712137199999997 13.4197504700000003  0.0734124500000000
 -14.4862826299999998 11.8828508500000005 15.1127191799999991
 -13.7784183400000000  9.7630140000000001  7.3462537299999999
 -13.8531875600000003  7.8938770099999997 -0.5240949400000000
 -13.6509900799999997  6.1204566099999997 15.1762668200000004
 -13.8276246000000000  4.5360143199999996  7.4018834199999999
 -13.9320072499999998  2.7198519399999999 -0.1236131800000000
 -13.9629994400000008  0.8225154900000000 14.7622726699999998
 -4.9125646700000001  2.5491938500000000  0.3134636600000000
 -4.8160062999999997  0.3382444600000000 15.8710680800000006
 -4.5782671099999996 -0.2318800700000000  8.3228558100000001
 -4.4550169700000000 -2.7594302100000001 -0.2668199500000000
 -15.9681761299999998 14.1801682400000004 15.1583352399999995
 -15.0043534500000000 12.6443587999999991  8.2914101900000006
 -15.0971148500000005 10.3746012400000005 -0.2716761200000000
 -15.5028725400000003  8.9724573099999994 14.7846826000000000
 -15.8034578299999993  7.2620674699999999  7.7870752200000002
 -15.4511967000000006  5.3027294899999999  0.0020237000000000
 -15.1041484700000002  3.0971466699999999 15.1284737400000004
 -15.1262646699999994  1.7951572499999999  7.6932389299999997
 -5.9587574200000004  3.4407873599999999 15.5013827699999993
 -6.9256682999999999  1.6014070400000000  8.1213533099999999
 -6.7386172999999996 -0.0699217200000000 -0.2802843100000000
 -5.9508018399999996 -1.7853560100000001 15.5534026999999995
 -16.9381978400000008 15.0910555199999994  7.4366205399999998
 -16.2893652300000014 13.6273059799999992 -0.7749873800000000
 -17.1807177300000014 11.4788386199999994 14.5412170399999994
 -16.9191687100000010  9.9935218599999995  7.3325274800000004
 -16.2406987299999983  8.0165165199999997 -0.3145184300000000
 -16.7997875000000008  6.0068638200000004 15.3653847500000005
 -16.7596082799999984  4.1529836500000004  8.1045358800000002
 -17.0565223900000014  3.0966949300000000 -0.1126995900000000
 -7.8810752600000002  4.8156401200000003  7.8108866600000004
 -7.6324106499999997  2.8550229100000002  0.8383064099999999
 -7.7167342300000001  1.0868394800000001 15.6138782200000001
 -7.7497418900000001 -1.0781840100000000  7.6345092499999998
 -8.2535540800000007 -2.3600311399999998  0.1769090100000000
 -19.1712912099999997 13.8449693800000002 14.7032329700000002
 -18.3789893199999987 13.4675757199999993  7.4125687600000001
 -18.1659776800000010 10.7551125600000006 -0.4280261300000000
 -18.7532227099999993  8.7342379599999997 14.7558291900000000
 -18.5394632600000016  7.6791315400000002  7.2430212500000000
 -18.9733056900000001  5.8309241299999996 -0.4376265200000000
 -18.2979629899999985  3.7827433199999998 15.2511197599999999
 -9.5986300799999995  5.6139780699999999 -0.0089333700000000
 -9.1632604400000002  3.5197147000000002 15.8058687300000003
 -9.6491063500000003  1.6271813500000001  7.7991838199999997
 -9.4003542000000007  0.1321165500000000 -0.1226158800000000
 -9.4421809999999997 -1.5852131500000000 15.2588433499999994
 -9.8748556999999995 -3.3239180500000001  7.3287322000000001
 -19.9649827199999983 13.2977410999999996 -0.4933462900000000
 -20.3754252200000003 11.1570695799999999 14.7244549700000000
 -19.8724392700000010 10.5129118800000008  7.4354941800000001
 -20.0386542600000013  8.3347655799999991 -0.8795196800000000
 -20.4168704699999992  6.1910980699999998 15.3549237499999993
 -20.4438002300000008  4.7060565499999996  7.2331353199999997
 -10.2690365799999999 -2.4139877599999999 -0.0731790900000000
 -11.2292173099999992 -4.9954821599999999 14.9619645099999996
 -21.5895058300000002 12.0304666499999993  6.7649525600000002
 -20.9236057100000004 10.7108269299999996 -0.6669900500000000
 -21.1273621700000014  8.9236539300000004 14.7078406400000006
 -21.6473494399999993  7.7414946100000002  7.4396663700000003
 -21.5497711199999991  5.7823867299999998 -0.5088206600000000
 -12.8765104200000007 -1.6232029600000000 15.3968459600000003
 -12.7435381400000001 -3.8428019800000000  7.1438176799999997
 -12.0483718799999995 -5.9575253400000001  0.2117118700000000
 -23.2820157700000010 11.3178128900000008 15.3241645099999992
 -22.9987720600000003  9.8636836999999993  7.1990565599999998
 -22.9059385199999994  8.1610292199999996 -1.1542826100000001
 -23.4978523400000014  6.2967635499999997 14.6007900900000003
 -13.4691898699999992 -0.5037408200000000  7.4298089799999998
 -13.8380281099999998 -2.8234168400000001 -0.3921525100000000
 -13.9700962000000004 -4.5582895700000003 14.9730556499999992
 -13.6147495400000000 -6.1322420900000001  7.3310941900000000
 -25.2526187100000001 10.7410064999999992 -0.1400971800000000
 -24.1656135200000008  9.5268420400000000 15.2846542700000008
 -24.5232551299999990  7.4989315300000001  7.4401536500000001
 -15.0126085899999993  0.4495540600000000 -0.1521744900000000
 -15.5636277900000000 -1.9130919200000001 15.4438347999999994
 -15.6029233999999999 -3.4266144999999999  7.5099565300000002
 -15.6936438900000006 -5.5611663699999996  0.0579609200000000
 -15.6818382900000000 -7.3047702399999999 14.2783612200000007
 -26.0978163599999995  9.9237320100000002  7.3142828199999999
 -26.6411513900000010  7.9509935599999997 -0.5368521600000000
 -16.9178988200000013  1.2376549400000001 14.9939370899999993
 -16.9107455800000004 -1.0657747500000001  7.6788045199999999
 -16.7617008299999988 -2.6884334100000000 -0.1133202700000000
 -17.5806366099999991 -4.7827565400000003 15.3236293099999994
 -17.2355527500000001 -6.0905147599999996  7.8432568299999996
 -17.0747805399999990 -7.9962198200000003  0.6461374600000001
 -27.3190249499999993  8.7439464200000003 14.6000684799999991
 -27.5913535799999998  7.7592407200000002  7.7587869899999999
 -9.2818514200000006 16.0039016399999987 -0.4188877500000000
 -8.9873227199999999 14.4009108900000005 15.2950224400000003
 -9.4647119400000008 13.5359984600000001  7.3367060899999998
 -9.5012157800000008 11.1393014600000004 -0.3502645900000000
 -9.7848152299999995  9.1569597900000002 15.2713045800000007
 -9.6346686199999994  7.5059882499999997  7.9177169899999997
 -18.6918239700000015 -7.8380448600000001  8.1522518900000005
 -1.3562667300000000  2.9916362900000002  0.0351503900000000
 -2.7692781599999998  3.5821886500000000 15.7956186200000008
 -5.4062921099999999  4.6439105600000001  8.4981883800000002
 -6.5016649500000003  5.4814379500000001  0.3545635400000000
 -8.0764753900000006  5.7504175399999999 15.6045247099999997
 -26.1141920700000014  6.0809615399999997 14.3181409599999991
 -26.1266281099999986  4.6114308199999998  7.5148151500000004
 -7.7147584000000000 13.2316663999999999  0.1311077800000000
 -7.6321661399999998 11.5821605099999996 15.6989021799999993
 -8.4548187699999993 10.2871752300000008  8.2129070599999991
 -7.3717595500000002  8.5739667700000002 -0.0871614500000000
 -18.4409851200000006 -7.8565704399999996 15.1990127499999996
 -20.9797115299999994 -5.9834861200000002  7.6597237600000003
 -3.6455432600000002  5.6813958199999997  0.5493046300000000
 -4.7390900299999998  5.9751021599999996 16.1035825099999990
 -6.6384590499999998  7.1736256599999999  7.7223998600000003
 -24.8704153999999988  5.4717676099999997 -0.0964782300000000
 -24.8980045200000006  3.3418014199999999 15.9003813699999998
 -24.7598319199999999  1.8519279200000001  7.9140205500000000
 -5.5415593500000000 11.0138575900000006  0.2931812200000000
 -6.1800136300000004  8.5864897899999999 15.7355424799999994
 -19.0113447600000001 -5.3385982800000003 -0.0388184200000000
 -20.2748460799999997 -4.8603342100000004 15.1440293199999996
 -22.2857570100000011 -3.4456843500000001  8.4586849999999991
 -4.4270769599999999  7.9590693999999997 -0.2957572000000000
 -22.9250157399999992  4.6367675600000000  7.0654277700000003
 -22.8924583499999983  2.9949419100000001  0.3151546200000000
 -23.3833369399999995  0.5543673400000000 14.9402002899999999
 -24.0342601999999985 -0.8205453200000000  8.2170151899999997
 -18.9815714100000008 -3.1452441400000000  7.6215892500000004
 -19.9325101700000005 -2.6423368699999998  0.1091285900000000
 -21.5001212899999992 -2.1972117400000002 15.5810406300000004
 -21.9029101799999992  3.3385203799999998 14.8107969500000003
 -22.4034868100000004  1.4593637900000000  8.0103437399999997
 -21.4554764200000001  0.4053319000000000  0.3104062800000000
 -18.0186818299999985 -1.6530051299999999 15.2208858399999993
 -20.6924739600000009 -0.4339407000000000  7.7153987199999996
 -20.1015380400000012  2.9521512099999998 -0.0599991900000000
 -20.4883509699999991  0.7290506500000000 15.0584929800000005
 -18.4240419200000005  0.2408200400000000  0.3349823300000000
 -18.9246460600000006  2.1472558600000000  7.8283506999999997
  0.1257676100000000 -0.0782450000000000 17.3270725799999994
 -11.6159243599999993 17.0241409700000013 10.1054305800000002
 -10.5819658899999993 15.4986114900000000  2.0544746400000000
 -11.0863336399999994 13.3684978200000000 17.3934661800000008
 -10.7460384500000004 11.6712973600000005 10.6061248799999994
 -10.7509756799999998 10.1359536800000001  2.8263573499999999
 -11.1840179299999996  7.5914991199999999 17.2708098800000016
 -10.8275836499999993  6.4743062100000000 10.5406159899999992
 -10.7353216099999997  5.1863952299999996  2.7554136400000000
 -11.8854011400000008  2.2397012500000000 17.8472041600000004
 -11.2014994399999992  0.4831714300000000  9.8349759900000002
 -10.6054401899999995 -0.9477640000000001  3.1684080699999999
 -2.6412201700000000  1.2076491100000000 10.2454099999999997
 -0.9482150200000000 -0.2573718000000000  2.6208070399999999
 -12.2817708999999997 16.1223970399999992 17.7952693300000000
 -12.6074046000000006 13.7374106699999992 10.0199898199999993
 -11.9148873099999992 12.6649249200000007  2.7113076399999998
 -12.2179093299999995 10.2584647300000000 17.8921516800000013
 -12.6882681500000007  8.8446095000000007  9.7615482500000006
 -12.1028016800000007  7.1893999700000002  2.4995235500000001
 -12.7684922099999998  4.4408147600000003 17.9649714299999985
 -12.3223210400000003  3.8113855700000001  9.7219710799999994
 -12.1624597399999992  2.0946619300000000  2.5323120000000001
 -12.0607733400000008 -0.1262193200000000 17.3669322400000006
 -3.4692368299999998  1.9099592000000001  2.9821165299999999
 -2.7725568400000000  0.3374291400000000 17.7812074200000012
 -3.3778014999999999 -1.6028302299999999  9.7841303699999997
 -14.1620627100000007 15.6459158699999996  2.6635381400000000
 -13.2969800700000000 13.6870963700000008 17.7888879099999997
 -14.2170324099999998 11.5884925400000007 10.0736652499999995
 -13.0551265799999996  9.8539611800000007  2.9945435100000002
 -14.1701049500000007  7.5363611300000004 17.8835013499999995
 -14.0112636699999999  5.9374041300000000  9.8850875200000008
 -14.0677466199999994  4.7585730000000002  2.6987138900000001
 -13.6752670700000003  1.9873446400000001 17.8571920800000008
 -14.1000103100000000  0.4681629600000000 10.1842174399999994
 -4.7642093200000000  2.6109968700000001 18.1662209600000004
 -5.2839582399999996  1.8121636699999999 10.5041640199999993
 -4.6265316199999997 -0.7554420700000000  2.8081742099999998
 -4.5343618699999997 -2.7988939099999999 17.9519843200000011
 -15.7534338999999992 14.3461023900000004  9.7116064699999995
 -14.8856149900000005 12.3512627500000001  2.7473142199999998
 -15.3253448500000005 10.4964209999999998 16.9099165199999995
 -15.4630372299999994  9.0235217300000006  9.7607410399999992
 -15.3936933800000002  7.5557239599999999  2.3763756300000001
 -15.4497725599999995  4.7846746299999996 17.4628756100000011
 -15.7682117099999992  3.3021136400000000 10.4334493599999991
 -16.0840755999999985  2.5957396899999998  2.4924171899999998
 -6.5304023300000003  3.5958988900000000 11.2921393299999995
 -6.3333310000000003  1.3832184199999999  3.0038382000000001
 -6.3987303899999999  0.2923628800000000 18.5040106500000014
 -6.2065010599999999 -2.3377140900000000 10.3168649299999995
 -16.5042319000000006 15.6030575200000001  2.1750951199999999
 -16.8057931300000014 12.9287060900000004 17.6660461700000013
 -16.8981249399999989 11.4649321600000000 10.3502048000000002
 -16.4605792099999988  9.9121578199999991  2.4871767299999998
 -17.1367487800000013  8.1317602999999998 17.5661381299999988
 -16.9562177399999996  6.8792116600000002 10.2718468999999999
 -17.5485703899999983  5.0987958000000004  2.5745995000000002
 -17.1338893299999988  2.1573653099999999 17.9921135800000016
 -8.2537474700000004  4.1233724799999996  3.1903988000000001
 -8.4119647600000000  3.1316009999999999 17.6778202499999999
 -7.8834216899999996  0.9171197400000000 10.5601489900000001
 -7.6410447399999999 -0.8835420000000000  2.0609934999999999
 -7.5546056000000004 -3.1829798999999999 17.5322922500000011
 -19.0628519999999995 13.8391113000000008 10.0153566600000001
 -17.8790683500000007 12.8913259700000005  2.1205196599999998
 -18.8833528199999989 10.1131754600000008 17.2997540799999996
 -18.6937608900000001  8.9352105900000005  9.4646580900000004
 -18.9248734600000006  7.8786898299999999  2.2046101299999998
 -18.5322758400000005  5.8312500600000003 17.5148984100000007
 -18.8338583200000009  4.1379107099999999 10.6336579300000000
 -10.1668988999999996  5.3009469700000000 18.2850091799999994
 -9.5012592900000001  3.5518193800000000 10.2373472999999997
 -8.9265155000000007  1.7456646499999999  3.0416468100000000
 -9.2570428899999992  0.1476027300000000 18.1214360100000000
 -9.7243799899999992 -2.3248267000000000  9.9492250099999993
 -8.9486956699999993 -3.2198064799999999  2.8507196499999998
 -20.4177126499999986 12.9156596199999996 17.3885093700000013
 -20.7097623099999986 11.4705019400000001 10.0105406499999994
 -19.8024190500000010 10.5171888300000003  2.0671764700000002
 -19.6525124600000005  7.8644397399999999 17.2464441400000013
 -20.1772821499999999  6.4621581399999997  9.9902501899999994
 -20.2656808400000017  5.0181318499999996  2.5625157299999999
 -10.2625104000000000 -3.2786564100000000 17.2722691499999996
 -11.4229759699999995 -4.7510098500000000  9.8770852999999992
 -21.0627095299999993 13.0180945700000006  2.0763073900000002
 -21.8169739400000005 10.1320882799999996 17.0924255999999986
 -21.2867829200000003  9.0545494699999995 10.2116373899999999
 -21.3117596899999988  7.6686432900000003  2.2941724600000000
 -21.5059827699999992  5.1986762000000004 17.7670717799999984
 -12.9853102000000007 -2.5248164700000002  9.7010101100000004
 -11.9964169399999996 -2.9732576599999998  2.1033750800000002
 -12.5235071799999993 -5.2915366600000002 17.7775347199999985
 -23.5343211100000005 11.4441304499999994 10.0779284899999997
 -22.9439242999999991 10.1980902600000007  1.9097968999999999
 -23.2170535300000012  7.6334836700000004 17.2237372099999995
 -23.7885559899999990  6.2136441700000002  9.7952521000000008
 -14.0802768500000006 -0.3245365700000000  2.8673933300000001
 -13.8311910900000008 -3.0374777900000001 17.2515967400000001
 -14.2500524399999993 -4.6574971200000004 10.3738226099999995
 -14.1525499400000001 -5.5681699099999999  2.4783622500000000
 -24.6578505800000016 10.2550179999999997 17.3683405399999984
 -24.9900341300000015  8.5189685399999995  9.7315916700000002
 -24.6677643800000013  7.0872094700000003  1.9198274000000000
 -15.2512040700000000 -0.2591819700000000 17.8235569100000006
 -15.4343565399999996 -2.0503863600000001 10.5711641400000005
 -15.2882496900000007 -3.3953329600000002  2.5569386900000000
 -15.9421516299999997 -6.1628827900000003 17.4578069499999984
 -15.7107712100000008 -7.6522920699999997  9.6750083999999994
 -26.2759062499999985 10.7949178200000002  2.1627406800000002
 -25.9969572400000004  7.7351907200000003 17.2873543100000013
 -17.2095056399999997  1.3072375199999999  9.8977832100000001
 -16.6010740199999987 -0.7252519600000000  2.6234804299999999
 -16.7678123200000009 -3.2485529799999999 17.7117768399999989
 -17.2623545900000011 -4.2828535600000004 10.5033107399999999
 -16.8347677900000008 -5.4075248000000000  2.5257133600000001
 -16.5849527399999985 -8.0083312400000004 17.4146835799999984
 -28.8558155899999988  9.2036885000000002 10.0589244699999991
 -27.6789305900000002  7.8471311400000001  2.1384561700000000
 -9.6511887699999992 16.2910306100000000 17.5555053799999996
 -9.6108490500000006 14.6696375499999991  9.6583064600000004
 -9.1770373599999999 12.7367858300000005  2.4990389999999998
 -9.4575514799999993 10.6813984099999999 18.3028715899999987
 -9.7041066800000007  8.5454204499999999 10.4815260899999991
 -8.8834404800000009  7.2692014800000004  2.1902570600000000
 -18.9892708299999988 -8.0171492400000002  2.5115957600000001
 -1.3074447300000001  2.7212720899999998 17.9044047699999993
 -3.7736767000000002  3.8638204100000002 10.8908806699999996
 -5.1781376500000000  4.2274580000000004  3.0776102500000002
 -6.3331044199999997  5.7523335400000004 18.4115201000000006
 -8.1774615799999992  6.1443641800000002 10.8439893800000000
 -26.8139825499999986  6.1937733300000000  9.6293072199999994
 -25.9464278899999989  4.7640103600000003  1.6347713699999999
 -8.0519676100000002 13.6907219300000005 17.7608648699999989
 -8.1734609799999998 11.3931427999999997  9.9836042299999992
 -7.6020704099999996 10.1175770200000006  1.9949730699999999
 -7.7132981100000002  8.7984523800000005 17.6240166000000009
 -19.0032303800000015 -6.9040457899999996 10.2601007499999994
 -20.2809290500000010 -6.0339219799999997  2.8633344699999999
 -2.9769094200000001  5.7968319499999996 17.6312415599999994
 -4.8518547900000000  6.0217149200000000 10.6791757700000005
 -6.1445815000000001  7.4784827600000003  2.4441239900000000
 -24.4174761800000013  4.9738057199999997 17.1705648099999983
 -24.3149287299999983  3.3504634200000001 10.1694200400000003
 -25.0392307299999999  1.7091035900000000  2.7988367900000002
 -6.3239270999999997 11.5853543600000002 17.7112598199999987
 -6.5082209600000001  8.5537961100000004 10.1527376399999998
 -18.7518342800000006 -5.1228810700000000 17.5364183000000011
 -20.0713735799999995 -4.3227401499999996 10.1091909500000003
 -21.8775179299999998 -3.5523441899999999  3.1993807500000000
 -4.4798743700000001  8.4044409699999996 18.2447693499999986
 -23.1643618099999991  4.6255547799999999  2.0987711299999998
 -22.6834247699999985  2.5294452000000001 17.6056056900000009
 -23.3356923599999995  0.1700998400000000 10.6660584099999998
 -23.5255411199999998 -0.9180415100000000  2.2148118700000001
 -18.5168903299999990 -4.0092464100000003  2.5972385400000002
 -20.1416565500000004 -2.7002352400000000 17.7505246399999983
 -21.6431211499999989 -1.4731767099999999 10.6300888600000008
 -21.9874460999999997  3.6257354999999998  9.6875070000000001
 -21.2380700100000013  1.9213421900000001  2.5475798300000001
 -21.3017627800000007 -0.4917783400000000 17.6190146299999988
 -18.9634920499999993 -1.3460213100000000 10.1860134900000006
 -20.0724772499999986 -0.7911391000000000  2.9797697300000001
 -19.9689888599999996  2.5405460999999998 17.4884301099999995
 -20.1930367599999983  1.6125427800000001 10.0177323499999993
 -18.2615504299999998 -0.3771128800000000 17.8037832599999994
 -18.3220942499999992  1.9127622799999999  2.7706681299999998
  0.1502140800000000  0.6725602100000000  5.2825132799999999
 -10.2524809500000007 17.6044192700000011 20.2045165699999991
 -10.6036738899999996 14.9972375200000005 12.8986113699999994
 -10.9283530800000008 14.1556527299999999  4.3636054399999997
 -10.8337589899999998 11.4496363300000006 20.1005684799999997
 -11.1417915099999991  9.5009138600000007 12.5754254499999991
 -11.1232277499999999  8.4826603899999995  4.9385947200000002
 -11.4731623299999992  6.0021932600000003 20.2697446600000006
 -10.7615244699999995  4.0851221500000001 12.6407624100000007
 -10.8283403499999995  2.4735088699999999  4.8658998300000000
 -10.9335506200000001  0.9471909600000000 20.7019446999999985
 -11.1174883900000001 -0.5301242600000000 12.7078486000000002
 -0.9650151300000001  1.0960764700000001 20.5321227600000000
 -2.5533504599999999 -1.8170863500000001 13.1237851200000009
 -11.8813908200000000 16.1643032099999999  4.8097513400000000
 -12.4961196099999992 14.5128545300000003 20.4755109799999993
 -12.1819273399999997 12.0909310100000003 12.9501974499999992
 -12.4112017699999999 10.9131933199999995  5.0704079300000000
 -12.4661201899999998  9.0456535700000007 19.6965641900000001
 -12.4780393600000004  7.4548329799999999 13.0835165700000005
 -12.1701230700000007  5.5957298399999997  4.9558893399999997
 -12.3642991000000002  3.1335141499999999 20.4590906399999994
 -12.2090325400000008  2.2963103999999999 12.4362445699999995
 -12.5700268200000007  0.3135623500000000  5.1584142200000000
 -3.4017692899999998  1.3749871000000000 13.4184137799999998
 -3.6258095500000000  0.1252783600000000  5.0321409299999997
 -3.0924011299999998 -1.4130936599999999 20.1763554599999999
 -14.4973973500000000 14.8172762400000000 12.3122891800000005
 -13.9744613100000006 13.8247200200000009  5.4888405300000001
 -13.8208275700000005 11.7248302199999994 20.1577936000000015
 -14.0634186600000000  9.8719371299999992 12.5853793300000003
 -14.4893117000000000  7.8468498799999997  5.5944373699999996
 -14.5232216800000007  6.0683105700000004 20.3773501000000010
 -13.7413506600000002  4.5682955300000003 12.6716456799999992
 -14.1496595599999999  2.9564246900000000  5.0525608200000001
 -13.3614883599999992  0.5043725100000001 19.8693283299999983
 -5.4738783000000000  3.0790349500000000  5.3466150099999998
 -4.0193843300000003  0.6803222400000000 20.4475524899999996
 -5.1917702099999996 -1.3137693500000001 12.7488662700000006
 -4.5537306800000001 -2.5406244299999998  5.4294956399999998
 -14.9163524400000007 14.2994309200000007 20.0415050299999997
 -15.8432831200000006 12.2264335499999994 12.6294740000000001
 -14.7802443100000005 11.2240151299999997  4.9904758700000000
 -14.6417879699999993  8.9425902399999995 19.7881701300000010
 -15.2579249400000005  7.3444428100000003 12.2161904299999993
 -15.6332836799999999  4.9439751400000000  4.8503231500000004
 -15.4867962899999991  2.9115629400000000 19.7586511800000011
 -15.5010488899999999  1.6983251399999999 12.4173476800000007
 -5.9139705200000003  3.5491624700000002 20.5402920199999990
 -6.6079659900000003  1.5580331800000000 13.3440114300000001
 -6.0186548499999999 -0.4694833800000000  5.7740106800000000
 -6.4939550800000001 -1.9856234900000000 20.4980259199999999
 -17.3945844500000000 15.1453076099999997 12.8552801700000003
 -16.6256121899999982 12.7985394699999997  5.0714007700000003
 -16.4410163900000015 11.3922164000000006 19.9609455199999992
 -17.5015308999999988  9.6442455799999998 12.4159202700000009
 -17.0526602599999997  8.1456491999999994  4.4837452700000000
 -17.2550882500000000  6.1979476699999996 19.9657132299999986
 -16.8501501900000008  4.7677697999999999 13.0437767499999993
 -17.6300657600000008  2.5585851300000000  5.7005118399999999
 -7.8098187499999998  4.8026239100000003 13.3818206899999996
 -8.1773508899999996  2.2947046000000002  5.7625471800000003
 -7.8788996200000003  0.6575067500000000 20.8799915200000008
 -8.1044772399999996 -1.2099350300000000 12.7902980999999993
 -7.5014906200000002 -2.6581786200000002  4.8714046900000003
 -17.8947372300000005 13.7473431099999992 20.1659192800000007
 -18.9510077499999987 12.5309120600000004 12.6652723900000002
 -18.2616087100000009 10.7844868399999996  4.9632257700000002
 -17.9549460600000010  8.8509615200000002 20.2286618599999990
 -18.9303787999999997  7.1309807999999997 12.8530653200000007
 -18.1294221600000007  5.6569144099999997  5.5848588100000001
 -18.3055006300000009  2.8991213400000002 19.7958620699999983
 -9.1219440899999995  5.6710561000000004  4.8845370199999998
 -9.2618263899999995  3.4442655900000001 20.5386525099999986
 -9.3130330800000003  1.6662015600000000 12.5018955199999997
 -9.2534997600000004 -0.4713174200000000  5.4985825400000001
 -9.0302494899999992 -2.5431531000000001 19.9248553900000012
 -9.6913878600000007 -3.6962064699999999 12.8457208499999993
 -19.9190725499999992 13.6424395900000004  4.4823183100000001
 -19.2827027000000015 11.0945385699999992 20.2611074799999997
 -20.5313034399999985  9.3835402400000003 12.6153182200000007
 -20.1691832099999999  8.2524335499999992  4.9877106900000001
 -20.0592880499999993  6.2177626600000000 20.0255810799999985
 -20.5631112999999992  4.1829984700000002 12.9878542199999991
 -10.7452886500000009 -2.4469040199999998  4.7500405299999997
 -10.6856830899999995 -5.4277186400000001 20.4281736900000013
 -22.1071398499999994 12.4618674100000000 12.7257776499999995
 -21.2639400999999992 10.4734382900000007  4.4830844000000001
 -20.7544805799999992  8.2479309099999991 19.1470900999999998
 -22.0837332000000011  6.9159119699999998 12.2922504400000001
 -21.6878528199999998  5.7348503199999996  4.8934227999999997
 -11.6258432500000009 -2.5351135199999999 19.3160430599999984
 -13.0046392500000003 -3.8707469600000000 12.9138271299999996
 -12.1690702500000008 -5.6168143099999996  4.3798453799999999
 -22.9403091199999984 11.0885644400000007 19.9379028500000004
 -23.7821336000000016  9.5263043900000000 12.4541993099999999
 -23.4436729100000001  8.3707202800000005  4.4485199099999999
 -22.7384779700000017  5.2707131000000000 20.2890093699999987
 -13.8290977399999999 -1.2129731800000001 12.7407883500000008
 -14.0908410899999996 -2.4092416200000000  5.2012678000000001
 -14.0688711200000007 -4.9173663400000001 19.5684374000000005
 -14.1020724400000006 -6.4881468399999997 12.3152697500000006
 -24.4356332999999992 11.1531248400000003  4.8386359399999996
 -23.7819031999999986  8.9066413200000003 19.6907292100000006
 -25.1726508600000010  7.5001109499999998 12.2682605500000008
 -15.6276236199999996  0.0263589700000000  5.2016811499999998
 -14.8333092400000002 -1.8502902000000001 20.2243700900000007
 -16.0038617800000011 -3.7608175600000000 13.0496470000000002
 -15.0301710100000001 -5.1713845300000001  4.9931074100000004
 -15.0032238200000005 -7.8586988199999999 20.1924821200000011
 -26.2598993699999994  9.5155886699999996 11.8401783700000003
 -25.9110471000000011  8.9148311499999995  4.5582814999999997
 -16.1169052499999985  0.5063556600000000 20.4831189299999998
 -17.2155115899999984 -1.1218461399999999 13.0922470799999999
 -17.4257075199999996 -2.6938256799999998  4.9805089400000000
 -17.3555272599999988 -4.2045602000000004 20.3387842799999987
 -17.5857265500000004 -6.6444870399999996 12.3813494800000008
 -16.9764081500000010 -7.3544620299999997  5.6330362000000003
 -27.4632288699999982  9.2463552399999998 19.6482501300000010
 -28.8090967499999984  7.0518946600000003 12.4152702099999992
 -8.7599494900000003 16.9353870300000011  4.5746251999999998
 -9.2577966499999995 14.2767249799999991 20.0384539199999985
 -8.8885195299999999 12.6276621200000001 12.8146023200000005
 -9.2170151100000002 11.0534917799999999  5.3026047299999997
 -9.6474966099999993  8.3058490299999992 20.3629413399999990
 -9.4428412900000005  7.0320932100000002 12.9019865199999995
 -18.9888620599999989 -9.9365803499999998 12.8100462299999993
 -1.8321053599999999  2.9477964299999999  5.4774073300000001
 -2.7741860200000001  3.4605592299999999 20.7393273200000010
 -4.7575461700000004  4.4377599900000000 13.8761300799999994
 -6.2523527400000001  5.7749420300000001  5.0130477200000003
 -8.3370290899999997  6.1448592499999997 20.2383371600000004
 -25.8564324499999998  6.0453955700000002 19.5203459399999986
 -26.2707712399999984  4.2359608399999997 12.4556946800000006
 -7.6279209000000003 13.8274104900000001  4.9087689299999999
 -8.1143806299999994 11.2971609500000003 21.1706049699999994
 -7.8791178400000002 10.2245739899999997 13.0039172700000005
 -7.5053491299999999  8.1936673100000004  4.8301990400000001
 -18.1052422399999990 -6.9595755900000000 19.9200464000000004
 -20.2228241900000008 -6.6032504599999999 13.1861126599999992
 -3.3804791500000002  5.6054349099999996  5.3792182300000002
 -4.4774807799999996  6.4617387700000002 20.3560054100000016
 -6.1466334800000002  6.9002914000000004 12.5338004699999992
 -24.9055317400000007  5.5037554499999999  4.5348960800000002
 -24.7591897600000017  2.7643513300000002 20.0831662199999990
 -24.9355661499999997  1.8280772900000000 12.8952810000000007