hr9
1.0
0 -1.8440740802997406 -7.815983333333334
-1.597015 0.9220370401498703 -7.815983333333334
1.597015 0.9220370401498703 -7.815983333333334
Li
3
Direct
0.0 0.0 0.0
0.222239621 0.222239621 0.222239621
0.7777603790000001 0.7777603790000001 0.7777603790000001
