Li                                      
   1.00000000000000     
    20.2271999999999998    0.0000000000000000    0.0000000000000000
     0.0000000000000000   20.2271999999999998    0.0000000000000000
     0.0000000000000000    0.0000000000000000   20.2271999999999998
   Li
   432
Direct
  0.9989633127669677  0.0298169509373523  0.9913012433752542
  0.9337900772227528  0.0848142802760634  0.0880265380280036
  0.8386777482795438  0.1733598377432344  0.1862386603187787
  0.7413493251661123  0.2689979710488828  0.2786453063202003
  0.6694562796630308  0.3830407026182598  0.3301516794217676
  0.5743079234891653  0.4279896728167998  0.3989584272662583
  0.5020339686165158  0.5370620723580117  0.5146276489084016
  0.4064259091718085  0.6127221770685054  0.5849000054382216
  0.3253092795839265  0.6561423563320687  0.6615284013605418
  0.2259805104018326  0.7408309375494397  0.7530615809405177
  0.1309746806280643  0.8339255715076703  0.8660484234100636
  0.0616115502887169  0.9090441455070390  0.9425604072733762
  0.0743220544613195  0.9370121114143330  0.0824478108685369
  0.9839051341757639  0.9982087748180675  0.1848489143331733
  0.9118117979750053  0.0695194935532371  0.2657009714641703
  0.8363530805054609  0.1597432526498963  0.3574879320914448
  0.7579958615132085  0.2669895630635963  0.3941335419632992
  0.6767217182803336  0.3442039985761767  0.4703766809049199
  0.5879197273967733  0.4156183273018499  0.5972577385896187
  0.4914336502333470  0.5232429392105686  0.6609049537256766
  0.4060026578073064  0.5810302389851287  0.7583881555529217
  0.3125458714008857  0.6665723812490114  0.8187781749327669
  0.2341623749208992  0.7300849316761600  0.8870766354216073
  0.1563928512102493  0.8343747330327460  0.9905677241536139
  0.1831068956652402  0.8381764139376671  0.1566218784606832
  0.0752002249446306  0.9057144602317635  0.2503862037256752
  0.9775246306952994  0.0094123492129441  0.3542930346266431
  0.8903945078903632  0.0898819722947337  0.4453201051059992
  0.8020341994937539  0.1923646050862189  0.5135571468122109
  0.7459777893134003  0.2572882845870907  0.5876356322180030
  0.6651221815179582  0.3456152527289973  0.6838433589424113
  0.5578855323524792  0.3908577494660648  0.7578851457443463
  0.4920972383720965  0.5008439571468131  0.8146498966737852
  0.4153108996796391  0.5799545384432818  0.9135659849114077
  0.3325288458115807  0.6676077193086556  0.9825575279821237
  0.2477949068580898  0.7493567488332573  0.0821342128421136
  0.2181288893173559  0.7443879716421478  0.2476927503559594
  0.1241144800071226  0.8029589720772066  0.3523512755102018
  0.0561976521713348  0.9190334529742117  0.4222026938973258
  0.0066777888190188  0.0153921625336153  0.4872968428650495
  0.8876508360030044  0.1008633933515242  0.5928357746005375
  0.8099507405869346  0.1574574449256474  0.6944979062846102
  0.7447852688459093  0.2556772711991755  0.7705849880359139
  0.6821607009373523  0.3183935730106029  0.8384628930351212
  0.5811553774125926  0.3964726635421627  0.9162132306992561
  0.5161035823050142  0.4760546486908694  0.9800865240863814
  0.4366523498062023  0.5936844160338524  0.0399238559958874
  0.3452931834361621  0.6738356994542016  0.1460903585271325
  0.3120618652111986  0.6662736636805917  0.3070950072180025
  0.2456533504390137  0.7391859525787083  0.4280171541290940
  0.1594267575344119  0.8452105575660482  0.4952110143766788
  0.0538737897484580  0.9507624431458623  0.5811861503322291
  0.0055383330367036  0.0110779213138770  0.6638095040341696
  0.9042061387636480  0.0781129790578987  0.7413318309009682
  0.8375170488253474  0.1490746054817293  0.8339991091203913
  0.7694876240903312  0.2128954388150603  0.9110840140998278
  0.7094641784330022  0.3537778184820439  0.0084171976348699
  0.6015536198781817  0.4105322323406142  0.0815447763407704
  0.5131592637636473  0.5218242005813920  0.1479945751265603
  0.4201314166073402  0.5839850631822472  0.2578760945657308
  0.3956721785516564  0.5925466085271296  0.4346948050150274
  0.3345676361532952  0.6895169153417200  0.5131122948307194
  0.2261751631466566  0.7525523082779628  0.5798870787849992
  0.1460046155671577  0.8712250524046823  0.6732431577282085
  0.0641646090412920  0.9224113510520482  0.7500945078903669
  0.9639520912434776  0.0196156141235591  0.8205025994700179
  0.9026082127036830  0.0874611157253611  0.9105142936244235
  0.8322257954635361  0.1461827949493752  0.0021213217845286
  0.7418257628342033  0.2224704017362740  0.0999732142857113
  0.6831832745016584  0.3337339142343012  0.1931994546946711
  0.5782089097848413  0.4310852742841291  0.2521604947793037
  0.5269131367663320  0.5320328226348678  0.3563161075185874
  0.0977893544336368  0.0803316959341842  0.9183604542398385
  0.0073890222077182  0.1770120244027851  0.9991063024046838
  0.9322634447674432  0.2497321903179852  0.0916256090808432
  0.8195104735208005  0.3041011880042745  0.1832454313993068
  0.7476495955940550  0.4415405938538228  0.2558310744937486
  0.6907540524640083  0.5145767728603090  0.3166738391868407
  0.6006116649857631  0.5936883696211055  0.4261796373200468
  0.5112147029742147  0.6586378401360520  0.4982309064032577
  0.4080480457008377  0.7694697407451372  0.5536901998299300
  0.3068837496044949  0.8106036549794311  0.6692019098046202
  0.2415189353939269  0.9195533410457202  0.7553836215590906
  0.1439727658796102  0.9799258790143952  0.8559953878935289
  0.1600601872725846  0.9829572407451366  0.0062395744344244
  0.0714543985326657  0.0870570780928617  0.0889500276854918
  0.9913786055410512  0.1898168209144089  0.1743589661445952
  0.8925098046195217  0.2359168510718206  0.2949429619522235
  0.8201832720297446  0.3822785803274797  0.3463987867821530
  0.7620436674379079  0.4541745268747022  0.4187049972314512
  0.6514860208036737  0.4929983003084928  0.5311754083610154
  0.5939784072931502  0.6129606658360984  0.5875442972828679
  0.4834066717093819  0.6693572259136218  0.6578936847413388
  0.3898561827638005  0.7287191128777124  0.7314330490626517
  0.3041710676712555  0.8191882237778856  0.8186270432882452
  0.2568460745926302  0.9075312974608423  0.8946734852080382
  0.2631124728088921  0.9267987803551634  0.0804111270961840
  0.1719613332542309  0.0070116130754627  0.1495168466223689
  0.0849310131901575  0.0823015133088134  0.2703719857419742
  0.9956245604928000  0.1519983225557695  0.3613654539432076
  0.9040287894518286  0.2801414244186020  0.4124441771476057
  0.8226215907293124  0.3395393237818354  0.5338486206691968
  0.7397994512339849  0.4304524600537860  0.5905814230343296
  0.6306836546828052  0.5255269725913649  0.6815859189606073
  0.5897084846147749  0.6132045117465594  0.7594844753599119
  0.4983381387438683  0.6758047910734035  0.8404167304421790
  0.4037243978405343  0.7452438375059316  0.8861280636964111
  0.3303558826728334  0.8192676915242814  0.0091093992248048
  0.3428162236987831  0.8174830747706068  0.1827880255299803
  0.2544996742010781  0.9351629988332562  0.2566645937153922
  0.1571083585469069  0.9820057101328885  0.3405684766057604
  0.0996649531324181  0.0774332354453406  0.4222351180588504
  0.9637089513130803  0.1648951614657506  0.4866470574276249
  0.9253224633167250  0.2319638432407842  0.6152668797460876
  0.8173822447002053  0.3538400208629966  0.6713834074909002
  0.7622285496756831  0.4378602653852255  0.7606725765306095
  0.6521717088870460  0.4791241115923128  0.8317913833847470
  0.5979292274758734  0.5762899808179114  0.9078541409587118
  0.5031416454081636  0.6935686412355651  0.9592037681933263
  0.4305437529663010  0.7411036104848918  0.0673316549003289
  0.4534099262379385  0.7331269280968229  0.2530587392224319
  0.3223221973382380  0.8129436432130959  0.3214515330841650
  0.2321895907490870  0.9327286623951920  0.3928326594882137
  0.1854216708194940  0.0048630724964411  0.5313775658519191
  0.0576461047500416  0.0964842049319756  0.5797775703013741
  0.0022508844526214  0.1210345796748911  0.6789367149185281
  0.9218146248615753  0.2400499124940652  0.7567980012062989
  0.8373758720930198  0.3506389801850958  0.8167311175051424
  0.7804997631901571  0.4115053215472244  0.9053344071349443
  0.6856512596899194  0.4848013724094287  0.9907572184978619
  0.5861041775431133  0.6170840630438192  0.0276630457997129
  0.5254995283578552  0.6492470964839399  0.1600410842825468
  0.5094264149264376  0.6643718819213760  0.3342822901835163
  0.4002868884472406  0.7541231440832163  0.4001900762339829
  0.3158034750237277  0.8371472185967406  0.4831994329417810
  0.2479109896574911  0.9092352495649436  0.5711663942611906
  0.1595532574948564  0.0330269671531411  0.6514380280018983
  0.0779260283183021  0.0969863648947964  0.7542926302206894
  0.9729479700601189  0.1626397281877843  0.8590449884314211
  0.9087124530335373  0.2511472601249807  0.9429820662276569
  0.8320484357696571  0.3227821512616700  0.0076399432447403
  0.7705697338237627  0.4052470598995441  0.1135806804698589
  0.6676523982558109  0.5080613594565762  0.1521245975715857
  0.6099063439329200  0.5977513877353289  0.2314641092192673
  0.1696309597967058  0.1558567290579020  0.8506333130635966
  0.0981122078191774  0.2591325630833694  0.9081488179283355
  0.0166922272978951  0.3472280943482033  0.0082573420938132
  0.9112441712149959  0.3815880942493308  0.0880730150490407
  0.8412362244897977  0.5075874461121685  0.1604556468517657
  0.7554930331434875  0.5737134922282863  0.2303348174734978
  0.6912590140998276  0.6511992945143206  0.3094909661248195
  0.5737405424379034  0.7451931794810918  0.3882967647524111
  0.4734071824078470  0.8343449998022479  0.4680678823564293
  0.3777072812846072  0.8988185626285414  0.5776759625652588
  0.3447677928729647  0.0123507361374777  0.6922167304421762
  0.2231581637596918  0.0900107404880544  0.7549744680430308
  0.2342536940357505  0.0721710385026100  0.9440424230738813
  0.1686235534330010  0.1624215674932756  0.9871081593102389
  0.0868593547302652  0.2458284344842596  0.0628925550743560
  0.9945757746994133  0.3152776578073073  0.1924352159468441
  0.9141448935097287  0.4106846864617921  0.2397341846622396
  0.8628163028001907  0.5196759531719692  0.3265095010678678
  0.7401508824750849  0.5511344452025000  0.4249272425249160
  0.6595577890167661  0.6629026202341421  0.5010180435255478
  0.5892974366199937  0.7835917660378087  0.5710021060749852
  0.4975438251463373  0.8321390365448522  0.6684674225794964
  0.3982411505299766  0.9027270442770146  0.7634176124228773
  0.3283043540381243  0.0215656363708305  0.8307006288561922
  0.3164097314507188  0.0161979359476376  0.9945415336774275
  0.2260724331593096  0.1132156472472730  0.0823828369719948
  0.1403409542596137  0.1676013818027187  0.1792220623714584
  0.0756493647168170  0.2186733892975781  0.2751971098323054
  0.9946358892975766  0.3389205564784064  0.3279437139099812
  0.9223847195855086  0.4292926153891798  0.4175696285200132
  0.8426857681735456  0.5143867618849853  0.5150229186441990
  0.7401851843062772  0.5860372686283810  0.6111693491931689
  0.6981342167971860  0.7037997414372725  0.6762260708353125
  0.5977521080525250  0.7438972200798943  0.7428140380280013
  0.4971538843735175  0.8242984342865043  0.8347173207364307
  0.3912753579338712  0.9297187964720806  0.9164964058297755
  0.4034806438854588  0.9140856554540449  0.0926177810077533
  0.3455928571428544  0.0274883681379521  0.1805439037533603
  0.2264701253757337  0.0770045043308016  0.2512239978840398
  0.1676386108803953  0.1837672574553082  0.3473517525905692
  0.0540774778516067  0.2464798429837032  0.4182030172243287
  0.9843516586576513  0.3492602713178314  0.4985059617742422
  0.9130721864617968  0.4013875919553840  0.5885191232597720
  0.8174647296709381  0.5209644735801291  0.6775138467014727
  0.7464971053828506  0.6012056028516071  0.7755222838554019
  0.6491276696725237  0.6933164867109625  0.8153476487106488
  0.5851238935690546  0.7627778698979597  0.9120093285279225
  0.4861723377432341  0.8233746272346139  0.9990292428017753
  0.5054835523453534  0.8135912113391868  0.1548969565733245
  0.4272414555647828  0.9322699558020915  0.2516399862561300
  0.3663014515108358  0.0055807279307061  0.3332607701510852
  0.2656204205228576  0.0727465981450734  0.4301487412988436
  0.1751223456533779  0.1833041330485656  0.4961620980659731
  0.0398970247982930  0.2238340437628565  0.5614586823682970
  0.0077851210251509  0.3258894098046170  0.6645958091085262
  0.9678084218280318  0.4006774358289817  0.7381872246282200
  0.8665621524481892  0.5103743528516063  0.8293215116279100
  0.7647017085904153  0.5907546264435979  0.8786154366397696
  0.6859830989954148  0.6611368528516053  0.9690070558455943
  0.5971585790420804  0.7352907223936072  0.0627197911722845
  0.6062185492801788  0.7402212970653395  0.2549388738925771
  0.4806969733823792  0.8341344560789423  0.3273333002096166
  0.3961830698267690  0.9152102386885019  0.3895396209065041
  0.3324813874386976  0.9906151152903035  0.5018259141156491
  0.2538932645151064  0.0737100597215630  0.5548849435413672
  0.1715624693482027  0.1714292586220552  0.6431418337683894
  0.1072206158044580  0.2276222883048575  0.7722363540183537
  0.0222133631941119  0.3202999070558477  0.8209385950601202
  0.9181377783380782  0.3927316168327764  0.9131857904208189
  0.8168884042279672  0.4891565392145196  0.9869967682130962
  0.7778486701075806  0.5687796200166133  0.0433710834915360
  0.6895937297302623  0.6544753445855065  0.1479747849430453
  0.2618103588237588  0.2246512646337635  0.7614933979987342
  0.2031049171412747  0.3531906838316701  0.8381415534527790
  0.1090371549201095  0.4100799280177156  0.8984178250079111
  0.0023126478207587  0.4685249495728527  0.9901246697516228
  0.9525970841243492  0.5614127447199806  0.0814091416508447
  0.8509316766532180  0.6478338198069906  0.1414212713573804
  0.7793346103266856  0.7203692359792768  0.2451933366951451
  0.7084016626127223  0.8145413552048737  0.3504052498615735
  0.5952837965709534  0.8974894730857486  0.3983093319886066
  0.5010463890207220  0.9471564205624077  0.4784225088000298
  0.4301478454753962  0.0738016458036697  0.5639418520605943
  0.3390720544613188  0.1373427775470688  0.6471423864894774
  0.3367998739321294  0.1627695474410729  0.8560484016571763
  0.2553273873793671  0.2427999011232416  0.9335162835192250
  0.1676462080762562  0.3525069752610364  0.0079257959579166
  0.0941642867030552  0.3935975216540086  0.0812875820677093
  0.0104264104769811  0.4763265167694968  0.1789453938261332
  0.9341265365448521  0.5795769177147605  0.2265458733784200
  0.8249823050150269  0.6567005828785000  0.3397683905829751
  0.7657545735445339  0.7165394982993192  0.4279081598046162
  0.6793784700798895  0.8288578616911906  0.4781676559286510
  0.5815452257356455  0.9053881130359116  0.5783901405038776
  0.4681212669079287  0.9698804693679790  0.6527492272781217
  0.4334846483942414  0.0988927908954267  0.7540557462229103
  0.4283234392303399  0.1093557457285215  0.9151655849549130
  0.3488012003638659  0.1819914328231320  0.0063425733665525
  0.2666767580287939  0.2590938681577271  0.0895077583649737
  0.1617313004271494  0.3293628638664785  0.1732206499169422
  0.0853665089582378  0.3997814057308986  0.2736870886726805
  0.9975901143015378  0.4987712728405285  0.3439858759492154
  0.9196509907451329  0.5852356134314221  0.4167270576253728
  0.8313452588593577  0.6573313839780113  0.4930479799477965
  0.7604331123437760  0.7747528773137162  0.5720334272662555
  0.6817997973026451  0.8362409552483783  0.6846629315970603
  0.5812655261232393  0.9351350172045585  0.7428168001502939
  0.5063618622449013  0.9949644320518871  0.8285155780335387
  0.4779583768391049  0.0198727040816351  0.0045857479038105
  0.4232692770131337  0.0917203873991426  0.0736240384235103
  0.3340323905434275  0.1601616343339671  0.1711892941188111
  0.2736745792793869  0.2494563483823740  0.2644883364973865
  0.1818676529623460  0.3330359580169286  0.3131766611295674
  0.0792643119166243  0.4259702326570149  0.4199541572733736
  0.9819368029188453  0.5185482647128623  0.5077750988767633
  0.9022008088118980  0.6000658588435357  0.6123110707364319
  0.8095105417457660  0.6845645111532974  0.6879416192058230
  0.7582041073406103  0.7932351155869313  0.7774818348560331
  0.6629828730620133  0.8601634175763309  0.8247901479196358
  0.5682647904801428  0.9101296828033512  0.9389059983586492
  0.5823644740745166  0.9240645047263101  0.0895726674972295
  0.4942865389178905  0.9857607869601352  0.1715632534409082
  0.4323767427028926  0.0818530928650532  0.2406349994067369
  0.3435454981411183  0.1559616595475433  0.3102033005062523
  0.2433250568541396  0.2490032095396302  0.4095983260164502
  0.1299756451708589  0.3265605313637110  0.4979466322575519
  0.0779366195024522  0.4486648814467671  0.5908235020170878
  0.9843658563716176  0.4953404321903179  0.6598277092232223
  0.9148970455624124  0.5928338039867143  0.7480549512537564
  0.8596891754666984  0.6891410022148392  0.8259530552918832
  0.7600620377511476  0.7609862635461155  0.8971364706929279
  0.6766910551139063  0.8365085488846731  0.0069731297460862
  0.6771581049280186  0.8239295305331424  0.1775736290737200
  0.6041574464087986  0.9039111572535958  0.2556683119759526
  0.4905485015227029  0.9840251834163922  0.3298582458274026
  0.4155060621341562  0.0922318867663350  0.4348231252966315
  0.3482081088830853  0.1865164090927038  0.5158212060987211
  0.2510025618968541  0.2641534122369862  0.5933212199414655
  0.1548262631506105  0.3091489855244447  0.6327612917259913
  0.0800934232123112  0.4293967820558464  0.7402515854888492
  0.0102305924695472  0.4929935418644220  0.8310076698702744
  0.9347805341322584  0.5805097863273190  0.9164901711556723
  0.8381838415598821  0.6759700339147301  0.9954293886449932
  0.7412362813439302  0.7241385747903806  0.0539830861414359
  0.3425987566247457  0.3130571695538649  0.6715071942730546
  0.2636100829576051  0.3980437455505452  0.7184060126957732
  0.1822681844249345  0.4882375400450911  0.8370604745095704
  0.0823577578705894  0.5866372340215165  0.9193086195815567
  0.0279843043031178  0.6568911643727233  0.0127117386489459
  0.9353249604492930  0.7336801697713966  0.0581166800150328
  0.8320969046630253  0.8073504479117233  0.1634846444391727
  0.8050535689566516  0.9109208021871567  0.2616388585666840
  0.6711012577123867  0.0043859743315906  0.3285117564467654
  0.5771503208550897  0.0659268910180373  0.4119970786861273
  0.5289229028239220  0.1430589478523956  0.4734255902942550
  0.4208106856114568  0.2529175763328553  0.5767627224727079
  0.4004655241457016  0.2339196492841324  0.7588835953567497
  0.3264878015741175  0.3207778664372753  0.8361651637399135
  0.2813939230343294  0.4053961106826449  0.9096835800308511
  0.1724311906739473  0.5019528941227662  0.0160988451194441
  0.0790364879963619  0.5762105812964720  0.0761769458946375
  0.0007019325462778  0.6739292566445201  0.1574823099588656
  0.9087726798568241  0.7293385194193931  0.2471327346345547
  0.8398638664768256  0.8101850330248368  0.3527103034527741
  0.7666520991536174  0.9283866941544048  0.4004531902586592
  0.6762030849549134  0.9960627704279403  0.4824229809365619
  0.5715921422638814  0.0605095964839393  0.5972881535753842
  0.5056019473777909  0.1697719204833064  0.6464589498299347
  0.5337661559682019  0.1678018287256791  0.8422091287968669
  0.4168548212308210  0.2339281101684847  0.9032084678057259
  0.3429534176752114  0.3305884358685347  0.0093378445855095
  0.2554476037217199  0.4216787859911406  0.0928954393094443
  0.1567062618652102  0.4894983077242543  0.1536242539748471
  0.0654511029702576  0.5735405829773796  0.2287369729868658
  0.9997879518667929  0.6387679169632960  0.3369043787573176
  0.9048868370313272  0.7320355709144124  0.4320274847729806
  0.8298192330129694  0.8203064522029706  0.4756884358685340
  0.7353634017560537  0.9014874673706714  0.5668062786742638
  0.6767570598006643  0.9897705633997802  0.6616587861888945
  0.5762450072180059  0.0564060161564655  0.7363655305726908
  0.5746346152705257  0.0944747720890717  0.8987950225439008
  0.5198035650015811  0.1780349801257728  0.0100190565179545
  0.4036497463811131  0.2396114420186706  0.1183302231648469
  0.3307524155592461  0.3551826980501502  0.1661393366358155
  0.2493204249723178  0.4430014851289386  0.2474922970060121
  0.1470397271990223  0.5070236404445509  0.3324348154959651
  0.0870490265582973  0.5786296595673122  0.4397932037059036
  0.0198041117900658  0.6789662667101695  0.5192017303432976
  0.9047712387280527  0.7525815703607037  0.5850884249920867
  0.8017447995768094  0.8570842474489808  0.6691591416508444
  0.7605975350023755  0.9158059271673764  0.7725405201906312
  0.6532231737462411  0.9730178452776457  0.8536464958076238
  0.6691927775470674  0.0133627862482228  0.0032323796669829
  0.5791417368691683  0.0647144790183489  0.1071724287098590
  0.5018913235643083  0.1596529405948459  0.1517869265147951
  0.4173858685334579  0.2437311600221506  0.2592258533064395
  0.3276113599509571  0.3853989519063461  0.3338420952974204
  0.2232734214325234  0.4459409216302817  0.4187804263565909
  0.1694366966263274  0.5063798049161505  0.5076192557546264
  0.0652344397642750  0.5612938908993854  0.6034963761667456
  0.0063079131071007  0.6723705535121027  0.6787145892659368
  0.9264544529148893  0.7599076120273693  0.7255301984456608
  0.8678333506367650  0.8405363732993223  0.8256588825937357
  0.7624589859199489  0.9082579981411172  0.9319300590294262
  0.7540866936600210  0.9144048558376809  0.0918529796511649
  0.6842132791488709  0.0061928541765539  0.1850883681379543
  0.5783227554975454  0.0781467158084155  0.2563339913581686
  0.4944994438182277  0.1566108541963303  0.3393909067987693
  0.4131641151518721  0.2814580811975986  0.3976099588672710
  0.3413450111730754  0.3158052246479954  0.5077461976941962
  0.2412975434069011  0.3863624782471149  0.5772202024996034
  0.1559869655711097  0.4935645625692118  0.6541632608566701
  0.0834488589621927  0.5714562455505430  0.7496479557229847
  0.0029218636291759  0.6527588845712700  0.8083624797302633
  0.9269987590966622  0.7351805682447363  0.8968471034053138
  0.8477520600972923  0.8216179100419225  0.0066896485919941
  0.4197301490072789  0.4006940065851907  0.5660054466263276
  0.3579503510124979  0.5048627081355832  0.6527781363708272
  0.2501198910378122  0.5691641868375257  0.7246165307111241
  0.1401316341362104  0.6443212164807761  0.8198107607577896
  0.0631047307585817  0.7381921195222247  0.9171447516215778
  0.0100864044455022  0.8414435868533445  0.0109944455980084
  0.9293713801218146  0.9014162434741309  0.0970033281917395
  0.8554971221918990  0.0087108462861920  0.1605340927068468
  0.7598636687233054  0.0723524096266388  0.2477739978840390
  0.6642729626443611  0.1765701303195684  0.3249249624268344
  0.6066701115329849  0.2562960523453555  0.3897152008186993
  0.5111123269656730  0.3207340225043538  0.4669481416112973
  0.4899368632336660  0.3172894256248995  0.6523198569253310
  0.4186458150411312  0.3825737773888633  0.7313160318778671
  0.3413745402230646  0.4943383631941174  0.8233671467133377
  0.2406403194708133  0.5855716797183987  0.9136336131545661
  0.1479773334915393  0.6864249016176274  0.9788344728879892
  0.0849407836971992  0.7761742974806225  0.0708348357657016
  0.0031132292161047  0.8329366224687575  0.2012550061303600
  0.9177292269814927  0.9182794099034979  0.2640189709895608
  0.8393047361968016  0.0174936387636464  0.3583599450245245
  0.7434585399857596  0.0983730536109775  0.4206521614459717
  0.6696084490191438  0.1789397504350561  0.5018004241812974
  0.5930063350340120  0.2418899041884188  0.5836994294810935
  0.5699097438103138  0.2624649976269566  0.7466673805568718
  0.4778337431775057  0.2961484412078761  0.8485812247864288
  0.4142818803393453  0.4079729211161194  0.9253096558099969
  0.3299790326886551  0.5221356930272094  0.9890654796511598
  0.2571530305726952  0.5868453681181762  0.0786936110781511
  0.1466859486236345  0.6636794573643385  0.1509759996440465
  0.0636335993118209  0.7307530379884497  0.2503990848955837
  0.9788174591638992  0.8347911530019019  0.3361396846820099
  0.9330983596345490  0.9134645576253746  0.4221970055173259
  0.8443166899027048  0.0062196596661934  0.5008890627471914
  0.7478403254034163  0.0816791874307867  0.6056739677266236
  0.6566802632099353  0.1699050768272414  0.6911961507277340
  0.6511846424616365  0.1765942414174972  0.8355849529346600
  0.6195824943640247  0.2579793377234623  0.9408932531442815
  0.4967798157925927  0.2947730719031796  0.0173052370075908
  0.4123615557269389  0.4365904994265151  0.0840532599667796
  0.3417097947318481  0.5112328404326831  0.1460392728603068
  0.2605387849034955  0.5722440575067225  0.2359297450957101
  0.1469818496875490  0.6267237867821578  0.3414080085231745
  0.0471869225597246  0.7274897820756223  0.4311040618573045
  0.9902364924458169  0.8174919983981965  0.5109325744542019
  0.9177909438775487  0.9188771431537717  0.5755073776894477
  0.8256771708392634  0.0088386672401484  0.6754187376404062
  0.7489959574236664  0.0817572531047333  0.7795184706731533
  0.7442318338672678  0.0836458911762392  0.9110766364103782
  0.6748771134907443  0.1336961719862373  0.0081321705426376
  0.6049940046076543  0.2392141423429806  0.0971022825700061
  0.5054269903891822  0.3431824894201867  0.1711179861770304
  0.4222791310710363  0.4504834544573626  0.2287701530612267
  0.3593420943086514  0.5205507905196995  0.3224090225043525
  0.2741364667378576  0.5831033489558592  0.4165053344012009
  0.1568263308811879  0.6627930563795275  0.4990962698742294
  0.0890427340412927  0.7540949167457711  0.6010924512537557
  0.9906515306122472  0.8481011039590243  0.6464103420147111
  0.9234668609595005  0.9157283365962670  0.7316212283459862
  0.8494581474450271  0.9817063844723961  0.8526222630912841
  0.8249577469941443  0.0064920952974248  0.9938855521278285
  0.7605525174023100  0.0984628327202941  0.1066179753005869
  0.6755219244383781  0.1863453147247256  0.2050445207443445
  0.5597589102792284  0.2611422787138125  0.2689093018312008
  0.4893121302009149  0.3540676391195987  0.3196632658005072
  0.4252766373991435  0.4457383740705581  0.4147535378104763
  0.3549017056241084  0.5058659829338694  0.5148636059365614
  0.2409503327202955  0.5940933248299345  0.5715164773176724
  0.1551440817315282  0.6849998581118513  0.6750749115052983
  0.0908284626641347  0.7684149793347572  0.7542150490428696
  0.9899741313676600  0.8671711319411486  0.8122904203251053
  0.8988574271278296  0.9100648557388098  0.9131559429876575
 
  0.00000000E+00  0.00000000E+00  0.00000000E+00
  0.00000000E+00  0.00000000E+00  0.00000000E+00
  0.00000000E+00  0.00000000E+00  0.00000000E+00
  0.00000000E+00  0.00000000E+00  0.00000000E+00
  0.00000000E+00  0.00000000E+00  0.00000000E+00
  0.00000000E+00  0.00000000E+00  0.00000000E+00
  0.00000000E+00  0.00000000E+00  0.00000000E+00
  0.00000000E+00  0.00000000E+00  0.00000000E+00
  0.00000000E+00  0.00000000E+00  0.00000000E+00
  0.00000000E+00  0.00000000E+00  0.00000000E+00
  0.00000000E+00  0.00000000E+00  0.00000000E+00
  0.00000000E+00  0.00000000E+00  0.00000000E+00
  0.00000000E+00  0.00000000E+00  0.00000000E+00
  0.00000000E+00  0.00000000E+00  0.00000000E+00
  0.00000000E+00  0.00000000E+00  0.00000000E+00
  0.00000000E+00  0.00000000E+00  0.00000000E+00
  0.00000000E+00  0.00000000E+00  0.00000000E+00
  0.00000000E+00  0.00000000E+00  0.00000000E+00
  0.00000000E+00  0.00000000E+00  0.00000000E+00
  0.00000000E+00  0.00000000E+00  0.00000000E+00
  0.00000000E+00  0.00000000E+00  0.00000000E+00
  0.00000000E+00  0.00000000E+00  0.00000000E+00
  0.00000000E+00  0.00000000E+00  0.00000000E+00
  0.00000000E+00  0.00000000E+00  0.00000000E+00
  0.00000000E+00  0.00000000E+00  0.00000000E+00
  0.00000000E+00  0.00000000E+00  0.00000000E+00
  0.00000000E+00  0.00000000E+00  0.00000000E+00
  0.00000000E+00  0.00000000E+00  0.00000000E+00
  0.00000000E+00  0.00000000E+00  0.00000000E+00
  0.00000000E+00  0.00000000E+00  0.00000000E+00
  0.00000000E+00  0.00000000E+00  0.00000000E+00
  0.00000000E+00  0.00000000E+00  0.00000000E+00
  0.00000000E+00  0.00000000E+00  0.00000000E+00
  0.00000000E+00  0.00000000E+00  0.00000000E+00
  0.00000000E+00  0.00000000E+00  0.00000000E+00
  0.00000000E+00  0.00000000E+00  0.00000000E+00
  0.00000000E+00  0.00000000E+00  0.00000000E+00
  0.00000000E+00  0.00000000E+00  0.00000000E+00
  0.00000000E+00  0.00000000E+00  0.00000000E+00
  0.00000000E+00  0.00000000E+00  0.00000000E+00
  0.00000000E+00  0.00000000E+00  0.00000000E+00
  0.00000000E+00  0.00000000E+00  0.00000000E+00
  0.00000000E+00  0.00000000E+00  0.00000000E+00
  0.00000000E+00  0.00000000E+00  0.00000000E+00
  0.00000000E+00  0.00000000E+00  0.00000000E+00
  0.00000000E+00  0.00000000E+00  0.00000000E+00
  0.00000000E+00  0.00000000E+00  0.00000000E+00
  0.00000000E+00  0.00000000E+00  0.00000000E+00
  0.00000000E+00  0.00000000E+00  0.00000000E+00
  0.00000000E+00  0.00000000E+00  0.00000000E+00
  0.00000000E+00  0.00000000E+00  0.00000000E+00
  0.00000000E+00  0.00000000E+00  0.00000000E+00
  0.00000000E+00  0.00000000E+00  0.00000000E+00
  0.00000000E+00  0.00000000E+00  0.00000000E+00
  0.00000000E+00  0.00000000E+00  0.00000000E+00
  0.00000000E+00  0.00000000E+00  0.00000000E+00
  0.00000000E+00  0.00000000E+00  0.00000000E+00
  0.00000000E+00  0.00000000E+00  0.00000000E+00
  0.00000000E+00  0.00000000E+00  0.00000000E+00
  0.00000000E+00  0.00000000E+00  0.00000000E+00
  0.00000000E+00  0.00000000E+00  0.00000000E+00
  0.00000000E+00  0.00000000E+00  0.00000000E+00
  0.00000000E+00  0.00000000E+00  0.00000000E+00
  0.00000000E+00  0.00000000E+00  0.00000000E+00
  0.00000000E+00  0.00000000E+00  0.00000000E+00
  0.00000000E+00  0.00000000E+00  0.00000000E+00
  0.00000000E+00  0.00000000E+00  0.00000000E+00
  0.00000000E+00  0.00000000E+00  0.00000000E+00