Li 
 1.0000000000000000
    20.2271999999999998    0.0000000000000000    0.0000000000000000
     0.0000000000000000   20.2271999999999998    0.0000000000000000
     0.0000000000000000    0.0000000000000000   20.2271999999999998
 Li 
 432
Cartesian
 -0.0209692800000000  0.6031134300000000 -0.1759514900000000
 18.8879586500000016  1.7155554099999999  1.7805303900000000
 16.9641025499999998  3.5065841099999999  3.7670866300000001
 14.9954210700000008  5.4410757600000004  5.6362143400000004
 13.5412260599999996  7.7478408999999999  6.6780440499999996
 11.6166412300000008  8.6570327099999993  8.0698118999999995
 10.1547414899999993 10.8632619500000001 10.4094763799999992
  8.2208581499999998 12.3936540199999996 11.8308893899999994
  6.5800958600000001 13.2719226700000004 13.3808672800000004
  4.5709529800000004 14.9849355400000004 15.2323272099999993
  2.6492510600000001 16.8679793199999999 17.5177346699999994
  1.2462291500000000 18.3874177400000001 19.0653578699999997
  1.5033270599999999 18.9531313799999985  1.6676883600000001
 -0.3255540700000000 -0.0362314700000000  3.7389759599999999
 18.4433995999999993  1.4061847000000001  5.3743866899999997
 16.9170810299999985  3.2311587199999998  7.2309799000000003
 15.3321338899999997  5.4004512900000003  7.9722179799999999
 13.6881855399999992  6.9622831200000004  9.5144032000000003
 11.8919699100000003  8.4067950299999996 12.0808517299999991
  9.9403267300000007 10.5837395799999996 13.3682566800000000
  8.2122969599999998 11.7526148500000005 15.3400689000000003
  6.3219278499999998 13.4828928700000006 16.5615899000000013
  4.7364491900000001 14.7675739299999993 17.9430765200000018
  3.1633894800000002 16.8770646000000006 -0.1907885300000000
  3.7037398000000001 16.9539619600000009  3.1680220600000002
  1.5210899899999999 18.3200675299999993  5.0646118199999997
 -0.4546137900000000  0.1903854700000000  7.1663560700000000
 18.0101877899999998  1.8180606300000000  9.0075788299999999
 16.2229061600000009  3.8909973400000002 10.3878231200000002
 15.0890419399999995  5.2042215900000004 11.8862234600000001
 13.4535593900000006  6.9908288399999998 13.8322363900000003
 11.2844622399999999  7.9059578699999999 15.3298944200000005
  9.9537492600000004 10.1306708899999993 16.4780863900000014
  8.4005766299999998 11.7308564400000002 18.4788818900000003
  6.7261274699999998 13.5038348599999996 19.8743876300000011
  5.0121971399999996 15.1573888300000004  1.6613451500000000
  4.4121366699999998 15.0568843799999996  5.0101307999999998
  2.5104884099999998 16.2416117200000016  7.1270797200000002
  1.1367211500000001 18.5894734600000007  8.5399783300000003
  0.1350729700000000  0.3113403500000000  9.8566506999999994
 17.9546909899999996  2.0401840299999998 11.9914077799999994
 16.3830356200000011  3.1849232299999999 14.0477480499999992
 15.0649205899999998  5.1716353000000002 15.5867766700000008
 13.7982009300000001  6.4402104800000002 16.9597566300000011
 11.7551460500000005  8.0195318600000007 18.5324282599999997
 10.4393303799999995  9.6292525900000001 -0.4027938600000000
  8.8322544099999991 12.0085734199999994  0.8075478200000000
  6.9843142800000004 13.6298094600000006  2.9549989000000001
  6.3121377599999997 13.4768506499999994  6.2116721300000002
  4.9688794500000002 14.9516621000000001  8.6575885800000005
  3.2247569100000000 17.0962429900000004 10.0167322300000006
  1.0897159199999999 19.2312620900000013 11.7557685000000003
  0.1120249700000000  0.2240753300000000 13.4270075999999996
 18.2895584100000015  1.5800068500000000 14.9950672100000002
 16.9406248499999990  3.0153618600000001 16.8694667799999998
 15.5645800699999999  4.3062786199999996 18.4286785699999989
 14.3504738300000003  7.1559346899999996  0.1702563400000000
 12.1677453799999995  8.3039175699999994  1.6494225000000000
 10.3797750600000001 10.5550424700000001  2.9935158700000000
  8.4980821899999999 11.8123826699999999  5.2161113400000003
  8.0033402900000006 11.9855587600000000  8.7926587600000001
  6.7673664899999997 13.9469965499999997 10.3788250099999999
  4.5748902600000001 15.2220260500000002 11.7294919199999992
  2.9532645600000000 17.6224433800000000 13.6178240000000006
  1.2978703800000000 18.6577988800000014 15.1723116299999994
 -0.7291482600000000  0.3967689500000000 16.5964701800000007
 18.2572368400000009  1.7690934800000000 18.4171547199999992
 16.8335976100000018  2.9568686300000002 20.2701084000000016
 15.0050580700000005  4.4999533100000004  2.0221781999999999
 13.8188847300000006  6.7505026299999997  3.9078840100000001
 11.6955472599999997  8.7196480600000008  5.1005007600000001
 10.6579774000000000 10.7615343100000000  7.2072771700000002
  1.9780048299999999  1.6248852800000000 18.5758605800000005
  0.1494592300000000  3.5804576199999998 -0.0180770000000000
 18.8570791500000006  5.0513829599999998  1.8533295200000000
 16.5764022500000010  6.1511155500000001  3.7065419899999998
 15.1228578999999996  8.9311299000000002  5.1747463099999997
 13.9720203699999992 10.4084473000000006  6.4054250799999997
 12.1486922699999997 12.0086533899999992  8.6204207600000000
 10.3404420399999992 13.3223993200000006 10.0778161900000001
  8.2536694300000004 15.5642183400000000 11.1996024100000007
  6.2073989799999998 16.3962422500000002 13.5360808699999993
  4.8852518099999998 18.5999893400000005 15.2792955900000003
  2.9121659300000000 -0.4060432600000000 17.3143899099999992
  3.2375694199999998 -0.3447273000000000  0.1262091200000000
  1.4453224099999999  1.7609209299999999  1.7992100000000000
 -0.1743866700000000  3.8394628000000002  3.5267936799999999
 18.0529743200000006  4.7719373300000001  5.9658702799999999
 16.5900110800000000  7.7324253000000001  7.0066775400000001
 15.4140096700000004  9.1866789900000008  8.4692297199999995
 13.1777380399999995  9.9719752199999991 10.7441912199999994
 12.0145200400000007 12.3984779799999991 11.8843760100000004
  9.7779634299999998 13.5392224799999994 13.3073471399999992
  7.8856989799999999 14.7399472399999993 14.7948425700000001
  6.1525290200000002 16.5698840400000016 16.5585329299999984
  5.1952769200000004 18.3568170600000009 18.0967395199999999
  5.3220286100000003 18.7465442899999992  1.6264919499999999
  3.4782962799999999  0.1418253000000000  3.0243071600000002
  1.7179165900000000  1.6647291700000000  5.4688682300000000
 -0.0885028900000000  3.0745004699999998  7.3094113099999998
 18.2859711300000001  5.6664766200000001  8.3425908599999996
 16.6393314399999994  6.8679298099999997 10.7982628199999997
 14.9640714599999995  8.7068480000000008 11.9458085599999997
 12.7569644199999992 10.6299391799999992 13.7865746999999992
 11.9281514600000005 12.4034103000000009 15.3622443799999999
 10.0799851999999994 13.6696386699999994 16.9992772899999984
  8.1662141399999992 15.0741961500000006 17.9238895700000000
  6.6821745100000003 16.5714914499999999 20.4114576399999983
  6.9342123200000003 16.5353936499999996  3.6972899500000000
  5.1478158100000000 18.9157290099999997  5.1916060699999997
  3.1778621899999999 -0.3639741000000000  6.8887466899999996
  2.0159429400000000  1.5662575400000001  8.5406341799999996
 -0.7340662999999999  3.3353674099999999  9.8435073600000003
 18.7166825299999999  4.6919790499999996 12.4451262299999996
 16.5333541400000001  7.1571928700000003 13.5802064599999994
 15.4177493200000004  8.8566871599999999 15.3862763400000002
 13.1916075900000003  9.6913392300000005 16.8248106700000015
 12.0944340700000001 11.6567326999999992 18.3633472799999993
 10.1771466900000007 14.0289516200000008 19.4020064599999991
  8.7086945999999994 14.9904509499999996  1.3619308500000000
  9.1712132600000000 14.8291050000000002  5.1186697299999997
  6.5196755499999997 16.4435736599999984  6.5020644499999998
  4.6965452900000004 18.8664892000000002  7.9459047700000003
  3.7505612199999998  0.0983663400000000 10.7482802999999993
  1.1660192899999999  1.9516053099999999 11.7272768700000007
  0.0455290900000000  2.4481906499999999 13.7329887199999998
 18.6457287799999989  4.8555375900000000 15.3079045300000001
 16.9377692400000015  7.0924447800000001 16.5201836600000007
 15.7873248099999994  8.3236004399999999 18.3123801200000003
 13.8688051600000009  9.8061743200000002 20.0402444099999997
 11.8552464200000003 12.4818827599999995  0.5595459600000000
 10.6293840599999996 13.1324508699999996  3.2371830199999998
 10.3042699800000008 13.4383829299999995  6.7615947399999996
  8.0966829499999999 15.2537996600000003  8.0947247099999995
  6.3878200500000002 16.9331442199999991  9.7737715699999992
  5.0145451699999999 18.3912832399999999 11.5530968900000008
  3.2273156500000000  0.6680430700000000 13.1767672800000000
  1.5762253600000000  1.9617625999999999 15.2572278899999993
 -0.5471868200000000  3.2897463100000000 17.3760747900000005
 18.3807085299999997  5.0800058600000000 19.0738868500000009
 16.8300101200000007  6.5289791299999997 20.3817346599999993
 15.5864681199999993  8.1970133300000008  2.2974191400000001
 13.5047385900000005 10.2766587299999994  3.0770546599999999
 12.3366976000000008 12.0908368700000004  4.6818708300000003
  3.4311593500000002  3.1525452299999999 17.2059301500000004
  1.9845352500000000  5.2415261800000001 18.3693077699999989
  0.3376370200000000  7.0234521100000000  0.1670229100000000
 18.4319181000000007  7.7184587000000002  1.7814704900000000
 17.0158533600000013 10.2670727900000003  3.2455684599999999
 15.2815086800000000 11.6046175500000004  4.6590284200000003
 13.9822343300000007 13.1719383699999995  6.2601356700000004
 11.6051646999999996 15.0731714799999992  7.8541563200000004
  9.5757017599999994 16.8764631799999982  9.4677026699999995
  7.6399607200000004 18.1805828299999988 11.6847672300000003
  6.9736871000000002 20.4770208099999991 14.0016062500000000
  4.5138648100000003  1.8206652500000000 15.2710195599999992
  4.7382963199999999  1.4598180300000001 19.0953349000000010
  3.4107823399999999  3.2853335299999999 -0.2607658400000000
  1.7569215400000000  4.9724209100000003  1.2721402900000001
 -0.1097168900000000  6.3771842400000001  3.8924256000000002
 18.4905915900000011  8.3070012900000005  4.8491512999999999
 17.4523579200000007 10.5115894399999998  6.6043729799999999
 14.9711799299999999 11.1479066499999995  8.5950883200000003
 13.3410073100000002 13.4086638800000006 10.1341921700000004
 11.9198371099999996 15.8498673700000001 11.5497738000000005
 10.0639184600000000 16.8318427200000009 13.5212242499999995
  8.0553033999999997 18.2596404700000008 15.4418007300000006
  6.6406778299999996 20.6634124399999983 16.8027477599999990
  6.4000829200000000  0.3276388900000000 -0.1104094900000000
  4.5728123199999997  2.2900355399999999  1.6663741200000000
  2.8387045500000001  3.3901066700000002  3.6251604999999998
  1.5301748300000000  4.4231503800000000  5.5664669800000004
 -0.1085009400000000  6.8554138800000004  6.6333830899999997
 18.6572601999999996  8.6833875900000006  8.4462643899999996
 17.0451735699999993 10.4046039100000005 10.4174715800000008
 14.9718737599999994 11.8538930400000009 12.3622446600000000
 14.1213004299999998 14.2358981300000007 13.6781599800000002
 12.0908514399999998 15.0469578500000001 15.0250481100000002
 10.0560310499999996 16.6732492900000011 16.8839941899999992
  7.9144049200000000 18.8056080399999992 18.5381560999999984
  8.1612836800000004 18.4893933699999984  1.8733983800000000
  6.9903758399999996  0.5560127200000000  3.6518976500000000
  4.5808565200000002  1.5575855100000000  5.0815580499999999
  3.3908597100000000  3.7170970699999999  7.0259533699999999
  1.0938359600000001  4.9855970799999998  8.4590760700000001
 -0.3165221300000000  7.0645573600000002 10.0833797900000004
 18.4688937300000013  8.1189470999999998 11.9040940099999997
 16.5350225799999997 10.5376525999999995 13.7042080800000008
 15.0995462499999995 12.1607059700000004 15.6866443400000009
 13.1300352000000000 14.0238512400000008 16.4921999600000007
 11.8354180200000005 15.4288605299999997 18.4473950900000006
  9.8339051099999999 16.6545632599999998 20.2075643000000014
 10.2245169100000002 16.4566721499999993  3.1331317200000002
  8.6418983699999998 18.8572108500000013  5.0899723300000002
  7.4092527199999996  0.1128825000000000  6.7409322500000002
  5.3727573700000004  1.4714599900000001  8.7007046199999998
  3.5422347099999998  3.7077293600000001 10.0359699899999999
  0.8070051000000000  4.5275359699999997 11.3567370600000004
  0.1574712000000000  6.5918302700000000 13.4429123500000003
 19.5760545099999987  8.1045826299999995 14.9314606300000001
 17.5281259700000014 10.3234441100000005 16.7748520799999987
 15.4677743999999997 11.9493119799999992 17.7719301600000001
 13.8755173400000000 13.3729473500000005 19.6002995200000001
 12.0788460099999995 14.8728724999999997  1.2686457600000001
 12.2621038400000000 14.9726042199999991  5.1566995899999997
  9.7231538200000003 16.8722044699999998  6.6210361300000002
  8.0136741899999997 18.5121405400000008  7.8792958200000003
  6.7251675200000003 -0.1898299400000000 10.1505331299999995
  5.1355498400000004  1.4909481200000001 11.2237687299999997
  3.4702283800000000  3.4675338999999998 13.0089585000000003
  2.1687728399999999  4.6041615499999997 15.6201791799999992
  0.4493141400000000  6.4787702800000000 16.6052891500000008
 18.5713564700000013  7.9438609600000003 18.4711916199999990
 16.5233651299999984  9.8942671499999992 19.9641810299999989
 15.7337006200000005 11.5048191299999996  0.8772755800000001
 13.9485502900000000 13.2382036900000006  2.9931155700000001
  5.2956904900000001  4.5440660599999996 15.4028792600000006
  4.1082437799999996  7.1440586000000001 16.9532568300000008
  2.2055163400000000  8.2947687200000004 18.1724770299999996
  0.0467783900000000  9.4769478599999992 -0.1997502800000000
 19.2683717399999992 11.3558078699999996  1.6466789900000001
 17.2119652099999989 13.1038642400000001  2.8605563400000000
 15.7637570300000007 14.5710526100000006  4.9595746600000004
 14.3289821100000001 16.4758908999999996  7.0877170700000001
 12.0409244100000006 18.1536990699999983  8.0566825200000007
 10.1347655200000002 -1.0688776499999999  9.6771477699999995
  8.7006864999999998  1.4928006500000000 11.4069646299999992
  6.8584782600000000  2.7780598300000001 13.0898784799999994
  6.8125184100000000  3.2923721900000000 17.3154622300000014
  5.1645581299999996  4.9111621599999999 18.8824205700000007
  3.3910133800000000  7.1302290900000003  0.1603166600000000
  1.9046798599999999  7.9613757900000000  1.6442201800000000
  0.2108970900000000  9.6347517200000006  3.6195642700000001
 18.8947642800000004 11.7232182300000005  4.5823886900000002
 16.6870820799999997 13.2832140299999999  6.8725631900000002
 15.4890709100000006 14.4935877400000006  8.6553839299999993
 13.7419241900000006 16.7654737400000009  9.6719928100000008
 11.7630315900000006 18.3134664399999991 11.6992130499999991
  9.4687824900000006 19.6179662300000004 13.2032891699999997
  8.7681806800000004  2.0003242600000002 15.2524363899999997
  8.6637838699999996  2.2119605400000002 18.5112373199999993
  7.0552716400000000  3.6811771100000001  0.1282925000000000
  5.3941241199999999  5.2407434899999998  1.8104913300000001
  3.2713713599999998  6.6620885200000002  3.5037687300000000
  1.7267254500000000  8.0864584500000003  5.5359234800000001
 -0.0487452400000000 10.0887462899999996  6.9578711100000001
 18.6019645199999992 11.8376777999999998  8.4292215400000003
 16.8157868199999996 13.2959733700000005  9.9729800999999991
 15.3814326500000007 15.6710814000000003 11.5706345400000004
 13.7909008600000007 16.9148130499999994 13.8488140499999997
 11.7573740499999992 18.9151630200000014 15.0251039800000008
 10.2422826600000008 -0.1018554400000000 16.7585502999999996
  9.6677596799999996  0.4019691600000000  0.0927568400000000
  8.5615523200000005  1.8552466200000000  1.4892081500000001
  6.7565399700000004  3.2396214099999998  3.4626800900000001
  5.5356704499999996  5.0458034500000002  5.3498584800000000
  3.6786733900000002  6.7363849299999998  6.3346869600000000
  1.6032950900000000  8.6161850900000001  8.4944967299999998
 -0.3653679000000000 10.4887794599999999 10.2708684800000007
 18.2489962000000006 12.1376521400000001 12.3853384900000005
 16.3741316300000008 13.8468232800000006 13.9151327200000008
 15.3363461200000000 16.0449253300000017 15.7262805700000001
 13.4102871700000001 17.3986974799999992 16.6831952799999996
 11.4944055699999996 18.4093751200000000 18.9914394100000017
 11.7796026900000008 18.6912375500000003  1.8118042599999999
  9.9980326799999997 -0.2880194100000000  3.4702442400000000
  8.7457708499999995  1.6556588800000001  4.8673722599999998
  6.9489634999999996  3.1546676800000002  6.2745442000000002
  4.9217845899999997  5.0366377199999999  8.2850272599999997
  2.6290433700000002  6.6054051800000000 10.0720661200000006
  1.5764395899999999  9.0752342899999991 11.9507051400000002
 -0.3162349500000000 10.0193499900000003 13.3464670400000003
 18.5058055199999991 11.9913679200000001 15.1310571100000004
 17.3891048899999987 13.9393928799999998 16.7067176400000008
 15.3739268500000001 15.3926213500000006 18.1465588199999992
 13.6875653100000001 16.9202257200000012  0.1410468900000000
 13.6970124200000001 16.6657873999999993  3.5918173100000002
 12.2204134999999994 18.2835917600000002  5.1714540800000002
  9.9224226499999997 -0.3231258100000000  6.6721087099999998
  8.4045242200000008  1.8655928200000000  8.7952543199999997
  7.0432750600000000  3.7727047100000002 10.4336187000000002
  5.0770790200000002  5.3430838999999999 12.0012269800000002
  3.1317017900000002  6.2532183600000000 12.7989891999999994
  1.6200656899999999  8.6854945899999993 14.9732168699999999
  0.2069362400000000  9.9718789700000006 16.8089583400000002
 18.9079928200000005 11.7420875500000008 18.5380299899999983
 16.9541122000000009 13.6729810700000005 -0.0924506700000000
 14.9931345100000009 14.6472957800000003  1.0919266800000000
  6.9298135700000003  6.3322699800000004 13.5827103200000003
  5.3320938699999996  8.0513104500000008 14.5313420999999998
  3.6867750199999998  9.8756783699999993 16.9313896300000017
  1.6658668400000001 11.8660286599999996 18.5950393100000007
  0.5660441200000000 13.2870689599999992  0.2571228800000000
 18.9190050399999983 14.8402955300000006  1.1755377100000000
 16.8309905099999995 16.3304389800000003  3.3068366000000000
 16.2839795500000015 18.4253772500000004  5.2922215200000000
 13.5744993600000008  0.0887159800000000  6.6448729999999996
 11.6741349700000008  1.3335164100000001  8.3335473100000002
 10.6986293400000001  2.8936819499999999  9.5760740999999996
  8.5118218999999993  5.1158143999999997 11.6662949400000002
  8.1002962499999995  4.7315395300000000 15.3500902600000000
  6.6039340600000003  6.4884380600000000 16.9132800000000003
  5.6918111600000003  8.2000282099999993 18.4003517099999989
  3.4878001799999998 10.1531015799999995  0.3256345600000000
  1.5986868500000000 11.6551266699999996  1.5408463200000000
  0.0141981300000000 13.6317018599999997  3.1854261799999999
 18.3819267500000016 14.7524761000000009  4.9988032499999999
 16.9880944000000014 16.3877747000000014  7.1343418500000002
 15.5072253399999997 18.7786633400000014  8.1000467700000005
 13.6776950399999997 -0.0796391300000000  9.7580661200000005
 11.5617085799999995  1.2239397100000000 12.0814669400000003
 10.2269117099999995  3.4340105900000002 13.0760544700000008
 10.7965947900000003  3.3941611500000000 17.0355324900000014
  8.4318058400000009  4.7317106700000000 18.2693783200000013
  6.9369873699999998  6.6868784100000003  0.1888784500000000
  5.1669897699999998  8.5293811399999999  1.8790146299999999
  3.1697289000000000  9.9011801699999999  3.1073885099999998
  1.3238925500000001 11.6011200799999994  4.6267085000000003
 -0.0042891400000000 12.9204864100000005  6.8146322499999998
 18.3033270299999984 14.8070298999999999  8.7387063400000002
 16.7849195900000012 16.5925026699999982  9.6218451300000005
 14.8743426000000003 18.2345672999999984 11.4649039599999991
 13.6889003999999996 -0.2069128600000000 13.3835046000000002
 11.6558230100000007  1.1409357700000000 14.8946128600000005
 11.6232492900000004  1.9109601100000000 18.1801066800000015
 10.5141706700000004  3.6011491499999999  0.2026574600000000
  8.1647041500000004  4.8466685600000003  2.3934890900000001
  6.6901952600000003  7.1843514700000002  3.3605335900000002
  5.0430541000000000  8.9606796400000004  5.0060761899999999
  2.9742019700000002 10.2556685800000000  6.7242255000000002
  1.7607580700000001 11.7040578499999999  8.8957850900000004
  0.4005817300000000 13.7335864700000005 10.5019972399999997
 18.3009887999999989 15.2226179399999992 11.8347005900000006
 16.2170524100000009 17.3364144899999992 13.5352157900000005
 15.3847584600000005 18.5241896500000003 15.6263316099999994
 13.2128757799999992 -0.5457734400000001 17.2668783999999995
 13.5358961499999992  0.2702917500000000  0.0653819900000000
 11.7144157399999997  1.3089927100000001  2.1677981499999999
 10.1518561799999993  3.2293319600000001  3.0702245200000000
  8.4425474400000002  4.9299989200000001  5.2434131800000001
  6.6266604999999998  7.7955416800000004  6.7526908299999997
  4.5161961499999999  9.0201362100000004  8.4707554399999996
  3.4272299500000001 10.2426455900000004 10.2677162099999997
  1.3195100600000000 11.3534037899999998 12.2070419000000001
  0.1275914200000000 13.6001736599999994 13.7284957399999996
 18.7395795099999987 15.3708032499999998 14.6754444300000007
 17.5538387500000006 17.0016973299999989 16.7007673499999996
 15.4224104000000004 18.3715161800000004 18.8503356900000014
 15.2530623700000003 18.4958498999999996  1.8579285900000000
 13.8397188399999997  0.1252641000000000  3.7438194400000002
 11.6978500400000005  1.5806892500000000  5.1849189100000004
 10.0023391499999992  3.1677990700000001  6.8649277499999997
  8.3571531900000000  5.6931089000000004  8.0425361599999992
  6.9044538099999997  6.3878554400000001 10.2702838900000000
  4.8807736700000000  7.8150311200000004 11.6755484799999998
  3.1551795500000002  9.9834291200000003 13.2318911099999994
  1.6879367599999999 11.5589597699999995 15.1632791299999994
  0.0591011200000000 13.2034845099999991 16.3509095500000008
 18.7505893000000015 14.8706443900000007 18.1407057300000005
 17.1476504699999985 16.6190297899999990  0.1353128600000000
  8.4899656700000001  8.1049178099999999 11.4487053700000008
  7.2403333400000003 10.2119589699999995 13.2038739199999995
  5.0592250600000002 11.5125978399999997 14.6569634900000008
  2.8344705900000000 13.0328141100000003 16.5824762200000002
  1.2764320100000000 14.9315596399999997 18.5512703200000004
  0.2040197200000000 17.0200477200000009  0.2223868500000000
 18.7985807800000018 18.2331266399999983  1.9621057200000001
 17.3043113899999987 20.4033960299999997  3.2471551999999999
 15.3699144000000008  1.4634866600000001  5.0117742099999996
 13.4363820700000005  3.5715193400000000  6.5723222000000003
 12.2712376800000005  5.1841515100000004  7.8828473099999998
 10.3383712600000006  6.4875512200000003  9.4450534499999996
  9.9100509199999998  6.4178766700000001 13.1946042099999996
  8.4680326299999997  7.7383963099999997 14.7924756399999993
  6.9050510999999997  9.9990809400000007 16.6544119500000001
  4.8674798700000004 11.8444754799999998 18.4802498200000009
  2.9931671199999998 13.8844537700000004 -0.4281193500000000
  1.7181142199999999 15.6998327500000006  1.4327903900000001
  0.0629719100000000 16.8479756499999986  4.0708252600000003
 18.5630926199999990 18.5742212799999997  5.3403645300000004
 16.9767847600000010 20.5810473300000005  7.2486182799999996
 15.0380845799999996  1.9898114300000000  8.5086154000000001
 13.5443040200000002  3.6194501200000002 10.1500175400000003
 11.9948577400000005  4.8927554700000000 11.8066051000000005
 11.5276783700000003  5.3089320000000004 15.1029904399999992
  9.6652386900000007  5.9902537499999999 17.1644221500000000
  8.3797624499999994  8.2521498700000002 18.7164234699999987
  6.6745518900000000 10.5613430899999994 -0.2211747300000000
  5.2014857799999996 11.8702386299999993  1.5917514100000001
  2.9670460200000002 13.4243771200000008  3.0538217400000001
  1.2871295400000000 14.7810878500000005  5.0648723699999998
 -0.4284634900000000 16.8854876099999984  6.7991646299999999
 18.8739671400000013 18.4768302999999996  8.5398632699999997
 17.0781625499999983  0.1258063000000000 10.1315832500000003
 15.1267158300000002  1.6521412600000001 12.2510884799999999
 13.2828030199999993  3.4367039699999999 13.9809627800000005
 13.1716420000000003  3.5720070399999999 16.9015439600000015
 12.5324190299999998  5.2181996599999998 19.0316360099999997
 10.0484646899999994  5.9624338799999999  0.3500364900000000
  8.3409196600000008  8.8310033499999996  1.7001621000000000
  6.9118323600000000 10.3408089099999998  2.9539655800000002
  5.2699701100000000 11.5748949999999997  4.7721981400000004
  2.9730312699999999 12.6768673799999991  6.9057280700000003
  0.9544593200000000 14.7150813199999995  8.7200280800000005
 -0.1974884200000000 16.5355741499999986 10.3347353700000006
 18.5643409800000008 18.5863117500000001 11.6409028299999999
 16.7011372700000003 20.4059814899999985 13.6618298899999999
 15.1500910300000005  1.6537203100000000 15.7674760099999993
 15.0537261499999993  1.6919221700000000 18.4285293400000008
 13.6508743500000005  2.7042992099999998  0.1644910400000000
 12.2373347300000006  4.8386323000000004  1.9641072900000001
 10.2233728199999998  6.9416208499999996  3.4612377300000001
  8.5415244399999999  9.1120189299999996  4.6273796400000000
  7.2684844100000001 10.5292849499999992  6.5214317800000003
  5.5450131400000000 11.7945480600000003  8.4247367000000004
  3.1721575600000000 13.4064477100000001 10.0953200699999996
  1.8010851900000000 15.2532286999999993 12.1584172299999995
 -0.1890933600000000 17.1547106499999984 13.0750712700000005
 18.6791488900000004 18.5226202099999995 14.7986489100000007
 17.1821598400000006 19.8571713800000005 17.2461610400000005
 16.6865853400000006  0.1313169100000000 -0.1236781600000000
 15.3838478799999994  1.9916274100000000  2.1565831100000001
 13.6639170700000001  3.7692439499999999  4.1474765299999996
 11.3223554300000000  5.2821771000000002  5.4392822299999999
  9.8974143199999993  7.1617969500000003  6.4658928099999997
  8.6021555999999997  9.0160392399999996  8.3893027599999996
  7.1786677799999996 10.2322524099999992 10.4142491300000000
  4.8737505700000003 12.0168444999999995 11.5601780900000009
  3.1381303699999998 13.8556291300000005 13.6548752499999999
  1.8372054799999999 15.5428834699999996 15.2556586400000000
 -0.2027952500000000 17.5404439200000013 16.4303607900000017
 18.1813689499999995 18.4080638500000013 18.4705878900000009
