Li 
 1.0000000000000000
   -10.6364300000000007   18.4228371711498369    0.0000000000000014
   -18.2338799999999992  -10.5273355263713349    0.0000000000000078
    -0.0000000000000001    0.0000000000000000   22.3096999999999994
 Li 
 504
Cartesian
  0.1133044100000000 -0.1345397000000000  0.1717270700000000
 -10.6675826600000008 16.6281494700000003 14.5960345000000000
 -10.7525610000000000 14.9916777099999994  7.4388367600000000
 -10.7474611699999993 13.1682530700000004  0.3921526800000000
 -10.6219903999999996 11.4087299099999999 14.9925057000000006
 -10.4299240300000005  9.7819568199999996  7.1907069100000003
 -10.5796600499999993  7.8810336599999999 -0.4121618100000000
 -10.7639070700000001  6.2279093599999999 14.8916291300000001
 -10.5496940299999995  4.4332717400000003  7.2330722700000001
 -10.5350512900000002  2.6444785799999999 -0.0364117900000000
 -10.7117445399999998  1.0090070700000000 14.8464874400000006
 -10.6094866900000007 -0.7812545500000000  7.3922643099999998
 -1.4842618500000000  0.9978016800000000 15.2128499000000001
 -1.3417499799999999 -0.9089027400000000  7.4501804900000002
 -12.3313822200000001 15.9335206300000003  0.1097305200000000
 -12.2391223999999994 13.9471609300000008 14.6531063400000008
 -12.2274619500000004 12.3276742600000002  7.2814037699999998
 -12.1246256300000006 10.5559546399999995 -0.0613986000000000
 -12.2422530999999992  8.8068971699999992 15.3501106000000007
 -12.1904419799999992  7.1270722700000002  7.0981599700000002
 -12.1489921400000007  5.2638359200000000 -0.2462971500000000
 -12.0286440900000002  3.5677063300000000 15.4498549599999997
 -12.1679089499999993  1.8165607200000000  7.1910986599999998
 -12.1419367099999995 -0.0466186100000000  0.1070290200000000
 -3.0784521100000002  1.9627802700000001  7.2856288100000004
 -2.9873455700000000  0.0679732300000000 -0.0332973100000000
 -3.2440860699999998 -1.7781821600000001 14.5155122500000004
 -13.8226032599999993 14.9716798000000004  7.5068463899999998
 -13.9270039299999997 13.0072643600000006  0.2723422900000000
 -13.7047037700000001 11.2862356199999994 14.8061731999999999
 -13.8653680200000000  9.7227997100000003  6.9540471600000000
 -13.8819110000000006  8.0405846800000003  0.3110966700000000
 -13.7905010000000008  6.1423534999999996 15.0741357699999998
 -13.7550719400000006  4.2789092999999996  7.3012798700000001
 -13.6084973500000004  2.7307047700000000  0.3013355800000000
 -13.7970709500000002  0.9087011800000000 15.2793974400000003
 -4.4699085299999997  2.6719463200000000  0.0760972900000000
 -4.5338044799999997  0.9091826000000000 14.6890350099999996
 -4.7284655400000002 -0.9678234200000000  7.6218636000000002
 -4.5935330900000002 -2.6438494700000001  0.0934086300000000
 -15.4083843500000004 14.0800077600000009 14.5883889199999999
 -15.4080823099999993 12.4235769800000000  7.3024064800000001
 -15.1663484099999994 10.7168546899999999  0.4857966000000000
 -15.2427946799999994  8.7433446000000004 15.2188785600000003
 -15.2282533600000001  7.1105955400000003  7.0650791799999997
 -15.1468237400000003  5.4354659099999996  0.0506593900000000
 -14.9977298900000005  3.5395623700000001 14.8772738300000000
 -15.1996570000000002  1.9581207899999999  7.0912578999999996
 -6.0613327600000000  3.4764098400000001 14.2287362099999992
 -5.8752209200000003  1.7540768099999999  7.3666718900000001
 -5.9284173100000004  0.1402964600000000  0.1233480700000000
 -6.1910462400000004 -1.6489820600000000 15.0244881299999999
 -16.4990417100000002 15.0156092099999992  7.8143863800000002
 -16.5971469300000010 13.0771815599999996 -0.2179676800000000
 -16.8777693999999983 11.5505068699999995 15.0690619300000002
 -16.6002849700000006  9.7650761799999994  7.1826042899999996
 -16.9591439599999987  7.9525580299999996 -0.1887852000000000
 -16.8664555900000011  6.2577996400000000 15.0168202799999992
 -16.6516094000000017  4.4963234400000003  7.4596342800000004
 -16.8141968499999983  2.8281993100000000  0.3631567800000000
 -7.5335094700000003  4.4264866200000004  7.0065326900000002
 -7.3726048300000002  2.5134328699999999  0.1278909900000000
 -7.4072608300000002  0.8414397300000001 14.8259021999999998
 -7.6625147199999999 -0.9603946000000000  6.9939654300000003
 -7.4349934800000002 -2.6548969599999999 -0.1521300700000000
 -18.1737382399999987 14.0384692199999996 15.0044965599999998
 -18.1670636999999999 12.3114141200000002  7.2903484199999999
 -18.2852851399999992 10.6773498999999994  0.2134455500000000
 -18.1583338400000009  8.9234492200000002 14.9184316199999998
 -18.3724937200000014  7.0759069999999999  7.3644276700000004
 -18.3746858400000015  5.3967852100000000 -0.1599398000000000
 -18.3908479000000007  3.5802767300000000 15.0648828600000009
 -9.1892969999999998  5.3631271500000004  0.1517079500000000
 -8.9936230300000002  3.6085417299999998 14.5149889499999993
 -9.1396988599999993  1.9728890600000000  7.0476114499999998
 -9.2157638800000008 -0.0336888700000000 -0.1389185700000000
 -9.2286168499999999 -1.8510774500000000 15.1315501500000007
 -9.2913821999999993 -3.4773024800000001  7.5854822000000004
 -19.8860005499999986 13.0162250299999993 -0.2106160000000000
 -19.8056314100000002 11.3653094899999996 14.4111840499999992
 -19.9411847100000017  9.6542559400000005  7.8640752000000003
 -19.7550027399999983  8.0178827600000009 -0.0489065700000000
 -19.6895909799999984  6.0841131300000004 14.4944026400000006
 -19.8692757799999988  4.5182413099999996  7.4199316099999999
 -10.6281758600000007 -2.3861478300000001 -0.0782478200000000
 -10.7089426799999998 -4.4600993000000004 14.3989598000000001
 -21.2963785500000000 12.1928716099999992  7.3515869100000000
 -21.3131841100000017 10.6669112800000008 -0.3702974200000000
 -21.3638370500000008  8.7427763699999996 15.0066982200000005
 -21.0760575999999986  6.9952445900000004  7.8159497499999997
 -21.2878526299999997  5.1978768500000001 -0.0543449800000000
 -12.0505052300000006 -1.5102614000000001 15.1151487099999997
 -12.1558076300000000 -3.3078274400000001  7.5143557200000002
 -12.3588903800000001 -5.2529800499999997  0.2975962600000000
 -22.8771806499999997 11.3793714099999992 14.7974576700000000
 -22.8271020399999998  9.6877485500000002  7.3006578400000004
 -22.6302814499999982  7.9341444799999996 -0.2068299500000000
 -22.7082832400000001  6.0903563199999997 15.2022956899999997
 -13.7058195600000001 -0.8838431600000000  7.1112824100000003
 -13.5405983499999998 -2.3784404900000000 -0.0770786100000000
 -13.5441145299999999 -4.2946767399999999 14.8701971400000001
 -13.8794029699999992 -5.9376648100000002  7.5801161700000002
 -24.2235818800000011 10.5638289899999993  0.1047118100000000
 -24.4214378699999983  8.8107900000000008 14.9418366200000001
 -24.4550738699999997  6.6859401399999996  7.5204938500000003
 -15.4293182400000006  0.0467533700000000  0.2208876200000000
 -15.1249387199999994 -1.7180188100000000 15.0184040799999998
 -15.0671210799999997 -3.4713210100000000  7.9620380600000003
 -15.3169290000000000 -5.1228916599999996  0.1361029700000000
 -15.1979663499999997 -7.0533111799999997 14.5352548699999993
 -25.8265360800000003  9.5399673499999995  7.4409046500000002
 -25.8712877699999986  7.6564993499999998  0.3113741200000000
 -16.7896107999999984  0.9747002299999999 15.0074503499999992
 -16.7134610700000010 -1.0368463600000000  7.8825423900000002
 -16.6832206999999997 -2.7112908899999999 -0.0188956900000000
 -16.6270810000000004 -4.3665417499999997 14.8195504200000006
 -16.7811039700000002 -6.1352932800000000  7.4196004300000000
 -16.8097075800000013 -7.9280024600000001  0.2725169500000000
 -27.3581398600000014  8.7655476799999992 15.0402882000000009
 -27.1267884099999996  7.0776290800000004  7.3662169000000004
 -9.2915353500000002 15.7072785100000001  0.0242966300000000
 -9.3697274799999999 14.0794973900000002 14.7054404900000009
 -9.2129660999999992 12.2285293799999994  7.2579406000000004
 -9.0368946999999995 10.5936105000000005  0.4289401400000000
 -9.1123199800000005  9.0239887700000008 14.8076808100000008
 -9.2602121999999998  6.9522840199999996  7.5444829100000002
 -18.1584777499999994 -8.7022446200000001  7.0669923099999998
 -1.4141781099999999  2.7910373200000000 -0.0572311600000000
 -2.8334592199999999  3.7078313899999999 14.7272740199999994
 -4.5162908499999999  4.4790850899999999  7.4431919999999998
 -5.7885279000000001  5.2543236699999998  0.2952132800000000
 -7.5683964000000001  6.1355601399999999 14.7046043900000001
 -25.7957826600000004  5.9313951500000002 15.1550784000000007
 -25.9750950899999999  4.2025918600000001  7.3367965799999997
 -7.5758874299999999 13.2632278800000005  0.6621359200000000
 -7.6096950400000001 11.2290658600000004 14.3941804799999993
 -7.5869779199999998  9.7334011900000004  7.0090526200000003
 -7.7348567299999997  8.0607924200000003  0.1593216300000000
 -18.3093165199999994 -7.1607279600000000 15.4186123399999993
 -19.6864724500000001 -6.1796133099999997  6.9847859400000001
 -2.8666691399999999  5.0201814799999998 -0.1470293000000000
 -4.6003527000000002  6.1493163900000001 14.8772006599999997
 -5.9902501900000003  6.9689137600000004  6.8630163099999999
 -24.3048285600000007  5.1534721699999997  0.1371845900000000
 -24.3920054099999994  3.2970178699999999 14.9405589400000007
 -24.3757969000000010  1.6278461700000000  7.2226762300000003
 -5.9655261099999999 10.4623540700000000  0.2504295800000000
 -6.0109460099999996  8.8423708899999998 14.7511355099999992
 -18.1654829900000010 -5.1948754599999996 -0.0063892300000000
 -19.8343300800000009 -4.5723823599999998 15.3807848000000007
 -21.5669051299999985 -3.5767788299999999  7.0348749100000001
 -4.3564981899999999  7.9382375700000001  0.2760595200000000
 -22.8802574300000003  4.1454013900000000  7.3630894299999996
 -22.8974429899999983  2.3876882899999998  0.1145275800000000
 -22.9112687999999984  0.8386854600000000 14.7741639599999992
 -22.8070926199999988 -0.8927881600000001  6.9980349000000004
 -18.4212283399999990 -3.5001660200000000  7.7212964299999998
 -19.9043692199999995 -2.6584713000000000 -0.1411048400000000
 -21.3937649199999989 -1.7769128000000001 14.5001352200000007
 -21.4962550700000001  3.5010742900000000 14.8640787700000008
 -21.1899527700000014  1.7513260500000001  7.2642100999999997
 -21.1195922699999983 -0.0854365600000000 -0.0790596000000000
 -18.1932380999999985 -1.9441679500000000 14.6769532500000004
 -19.6028430699999987 -0.7919107100000000  7.7299279800000003
 -20.0002589300000011  2.6759154999999999  0.3654561200000000
 -19.5920166100000017  0.7602067100000000 14.3388346799999997
 -18.1460111300000015  0.0818471500000000  0.0650207300000000
 -18.2263414399999988  1.9500351300000001  7.6999984499999998
 -0.0628956700000000  0.0400081900000000 17.3460793399999993
 -10.7852907400000007 16.5843191400000016  9.6870054000000003
 -10.6052373200000005 14.7132158499999992  2.8859804100000002
 -10.5670020200000003 13.1510824100000008 17.5220475399999991
 -10.6194452300000002 11.4660785099999991  9.7051021800000008
 -10.5874697100000006  9.6552076299999996  2.5758635399999998
 -10.7131449900000000  7.9450289600000001 17.6877858000000003
 -10.3081347500000007  6.1418453399999997  9.6853005000000003
 -10.5763256699999992  4.2524843600000004  2.2892230200000001
 -10.5890015799999997  2.9401996900000000 17.3660081099999992
 -10.6118270799999994  0.9899639000000000  9.5642416099999998
 -10.5837250600000008 -1.1610538100000001  3.0939874199999999
 -1.8673297000000000  0.9839586600000000 10.0053173999999991
 -1.2675783000000000 -0.9165452900000000  2.1918767799999999
 -12.0979247399999998 16.0115930999999989 16.8791118699999991
 -12.1294152400000002 14.2823862100000003  9.8812357599999991
 -11.8461254199999999 12.0404309200000004  2.5056474400000002
 -11.9575278100000002 10.6339424900000008 17.5337809799999995
 -12.2849276399999994  8.9051033900000007  9.8533760299999997
 -11.9899618799999992  6.8872945699999999  2.2863490600000000
 -11.9570556299999993  5.3063483500000004 17.5696822700000013
 -12.1414920500000001  3.7386257000000001  9.4085205500000004
 -11.9114362400000005  1.6164914399999999  2.6588569500000001
 -12.5048741499999991 -0.0947123200000000 17.5994668700000005
 -2.8429258300000000  1.8092822200000001  2.3246297100000000
 -2.7530943099999998 -0.0859329000000000 16.9621409599999993
 -3.0946642000000000 -1.6948795299999999  9.8979105700000005
 -13.7750546299999996 14.8184876200000009  2.7035309800000000
 -13.6657164899999994 13.0652772299999995 17.2529729399999994
 -13.9126945800000001 11.2619608000000007  9.7831639799999994
 -13.7671016200000000  9.3450214000000003  2.6885588199999999
 -13.5246776799999999  7.8395550199999997 17.5698384200000000
 -13.4518184800000000  6.2403968599999997  9.7477434499999998
 -13.7326680200000002  4.2418704600000003  1.9828522600000000
 -13.3862666000000008  2.5533157499999999 17.8727027000000014
 -14.0336175099999991  1.1169962000000000  9.4710256800000003
 -4.7255947100000002  2.8108943300000000 17.0615842999999998
 -4.4726270399999999  0.8754134900000000  9.9035775099999999
 -4.5424005999999997 -0.9774546400000000  2.3520957700000000
 -4.5189157800000004 -2.3924112200000001 17.0853611299999990
 -15.1393930599999997 14.2444330600000004 10.0198116400000004
 -15.1831460600000003 11.9886500300000005  2.6429537800000000
 -15.1659012299999993 10.4578470600000006 17.4316677099999993
 -15.4552771999999994  8.6485816799999995  9.6723841600000000
 -15.0701994599999995  6.5532993299999998  2.5016272599999998
 -15.0280037300000000  5.3898681899999996 17.6756729399999983
 -14.9354344300000008  3.6545334700000001  9.8616337600000001
 -15.1114313500000002  1.6276113600000000  2.7282005100000002
 -5.9763676800000001  3.3398955199999998 10.1759638799999994
 -6.2428536499999998  1.8740056700000001  2.7380351300000001
 -6.4039836000000001  0.0594617400000000 17.2753164300000002
 -6.1423967299999997 -1.4768386499999999  9.9570809899999997
 -16.6450146799999992 14.9466498699999999  2.6327325799999999
 -16.2433084500000007 13.1381371199999997 17.1442003099999987
 -16.8893841199999990 11.7166754199999996  9.9788209800000001
 -16.7420378899999989  9.3892607300000002  2.2520536600000001
 -16.8472183400000013  7.9302340600000001 17.7587428100000011
 -16.4402391500000000  6.1534829100000001  9.6564543100000009
 -16.6719652600000003  4.5350227600000004  2.5465817999999998
 -16.8112627199999984  2.4515642199999998 17.6655108100000007
 -7.7327714900000002  4.6014241199999999  2.5025162399999998
 -7.5546602500000004  2.7187212800000000 16.8689271100000013
 -7.6433115300000001  0.7632705900000000  9.5390500899999999
 -7.8642470299999996 -0.7766426200000000  2.3242484900000000
 -7.5683270199999999 -2.6524194900000002 17.4210796499999994
 -18.3327491299999998 14.0508598800000009  9.6287582300000008
 -18.0610343200000010 12.2557938400000008  2.3383824099999999
 -18.2842948800000009 10.6431131499999996 17.6804150100000008
 -18.2922785800000014  8.8831533500000006  9.6468593100000000
 -18.1987994600000000  7.1331119599999999  2.7591627100000000
 -18.4359128900000009  5.1792680700000000 17.3438189899999990
 -18.2708981199999982  3.8303283600000002 10.0396206600000006
 -9.1128835600000002  5.2964152200000001 16.9610861100000001
 -9.0193188600000003  3.4650405900000001 10.2390011600000008
 -9.2541364700000006  1.8484132799999999  2.6941789699999998
 -9.5120060100000003 -0.1307163300000000 17.3973267999999983
 -9.2010979800000001 -1.7290251000000001  9.9759550499999996
 -8.7787267799999995 -3.8919012899999998  2.4092530000000001
 -19.7781855499999999 12.8957899099999995 17.3315790900000017
 -19.7465956799999987 11.6162055899999999 10.0695563600000000
 -19.8746041300000016  9.5245023100000008  2.0790094500000000
 -19.7810255899999987  8.0520738699999992 17.1237725999999988
 -19.9144570200000004  6.3994334899999998  9.9688945300000000
 -19.5146913300000016  4.3913384500000001  2.3693487300000000
 -10.3183895600000000 -2.4182389400000002 17.4668886699999995
 -10.8380658600000004 -4.3025892800000003  9.9843140199999993
 -21.2670540300000006 12.3662356199999994  2.5482689600000001
 -21.5642614200000011 10.5452059699999996 17.1906623399999994
 -21.1379229100000003  8.7830834600000003  9.9442134299999996
 -21.3945348600000003  6.6977212899999996  2.3507809599999998
 -21.5645784599999999  5.4273437700000002 17.2036435400000016
 -12.3538201300000008 -1.3533268500000000  9.8914135900000009
 -11.9515278200000008 -3.6273892000000001  2.5394216200000002
 -12.2324947500000007 -5.0452886499999998 17.0807595600000006
 -22.9040934699999994 11.5340751899999994  9.8542800800000006
 -23.0309482699999997  9.8023175800000004  2.2445745000000001
 -22.7460135200000018  7.9804067700000001 17.5919890300000006
 -23.0199930200000011  6.1846301800000001  9.8080453999999992
 -13.4411776100000004 -1.0166002000000001  2.5416542400000002
 -13.5844699500000008 -2.4171248500000000 17.7356099100000009
 -14.0275970300000008 -4.3300488699999997  9.6548636600000002
 -13.6268211600000004 -6.0283654499999999  2.3453103099999999
 -24.5078300800000015 10.2943861099999996 17.5156522999999993
 -24.4456886699999991  8.7399110600000007  9.9882167499999994
 -24.4022027600000015  6.7883576899999998  2.3498004199999998
 -15.2760184799999994 -0.3640520200000000 17.7315640799999983
 -15.2613552899999991 -1.7488072500000000 10.3578794500000004
 -15.0545378099999994 -3.4907322299999999  2.4737621299999999
 -15.1286228099999995 -5.1709835100000001 17.2367887000000017
 -15.5551623299999999 -6.9798014100000003  9.9490892199999994
 -25.8771858899999998  9.6259408000000004  2.6011793299999999
 -26.1113759399999985  7.8489542800000001 17.4418275600000001
 -16.6293657000000010  0.9482113599999999 10.0332841800000008
 -16.7152740599999987 -1.2509587700000000  2.3884169800000001
 -16.8498298400000017 -2.5641196399999999 17.6321533399999986
 -16.6903019700000002 -4.5204081399999998 10.0986120100000001
 -16.7730912600000011 -6.2898930599999998  2.0626294299999999
 -16.9789869799999984 -7.8345836899999997 17.6482238299999992
 -27.5304647299999985  8.9659485300000004 10.0161334400000008
 -27.1438522400000011  7.1023304400000002  2.1885520999999999
 -9.3321617499999991 15.8546372000000009 17.5018698899999983
 -9.1741152499999998 14.3169997400000000  9.9211448200000003
 -8.8521611199999999 12.4060987300000001  2.8213534000000000
 -8.9531823700000004 10.2426563399999999 17.2759172800000016
 -9.0881527500000008  8.9834166500000006  9.6761162699999996
 -9.1684624899999996  7.0618300200000004  2.3723440600000001
 -18.3227927699999995 -8.7508009100000006  2.4793280100000001
 -1.6603464500000000  2.7612466599999999 17.7324514800000017
 -2.9801045600000000  3.7093153700000001 10.1462950700000007
 -4.4091407599999997  4.4796425600000003  2.2698932100000002
 -6.3844303599999996  5.3545775100000004 17.3427501799999995
 -7.4121110899999998  6.0656382200000003  9.9799806600000007
 -25.5417902599999991  6.0740284400000002 10.3969312899999995
 -25.5197065499999987  4.8100865400000004  2.4125428000000002
 -7.1420515299999998 13.1158795799999996 17.4577805599999998
 -7.6836197500000001 11.3662693699999995  9.4329105299999991
 -7.6658600200000002  9.7059282800000002  2.4970698900000001
 -7.6416647299999996  7.8489698600000004 17.3945010899999986
 -18.2384958099999999 -6.9313624599999999  9.6716888099999991
 -19.5536661299999999 -5.9327032700000002  2.6148153900000000
 -3.1130357000000002  5.4338372200000000 17.6437435899999997
 -4.5291112499999997  6.2710655199999996  9.7793492000000004
 -6.0148294499999997  6.8143179099999998  2.7763389900000002
 -24.2202790199999995  5.5620540399999996 17.2905781400000009
 -24.4787475500000014  3.1989754200000000 10.0410900200000004
 -24.5803633899999987  2.1652191500000000  2.7549468300000002
 -24.0897459199999986 -0.3733667600000000 17.1769895999999989
 -5.9400745600000002  8.9082192100000004  9.5794853900000003
 -18.2630528699999992 -5.1182452899999999 17.2343233900000001
 -19.5454434399999997 -4.3261212100000002  9.9862716299999992
 -21.3565535799999999 -3.8790856499999999  2.4587044800000002
 -23.1160338799999998 -2.8023185900000001 17.3248761000000009
 -22.8964264799999988  4.1784219900000004  2.2714025100000002
 -22.6095526699999994  2.3087677200000001 17.6606765999999986
 -22.6671231300000002  0.8793273200000000  9.6016013200000003
 -22.9328824599999983 -1.0722284300000000  2.3095852600000000
 -18.2955020099999999 -3.6676783700000000  2.3743626700000000
 -19.8488916599999996 -2.5498224100000000 17.5506576599999988
 -21.1307702500000012 -1.8632274600000001  9.4811295199999996
 -21.2180221899999992  3.6482614899999999  9.6835322200000000
 -21.3699457499999994  1.7697629300000000  2.9191320599999999
 -21.2651175799999983 -0.1147818000000000 17.3613594599999992
 -18.0693865299999992 -1.6100328200000000 10.1200521600000002
 -19.6018496900000017 -0.8657060700000000  2.7060710200000000
 -19.9013542399999999  2.4896343700000001 16.8002733400000004
 -19.5378074800000014  1.1565247400000001  9.7971257999999999
 -17.7938117600000005 -0.0502016200000000 17.3815726300000009
 -17.8894052399999985  1.4798382100000000  2.3936075600000000
  0.1230976800000000  0.0628803200000000  4.2786947199999998
 -10.5285511700000001 16.8420571400000014 19.7630457899999996
 -10.7097801900000000 15.1927056799999995 12.2892474600000003
 -10.6354325799999998 12.9351121100000004  5.0587080699999998
 -10.5069581999999997 11.3981679899999993 20.1487254100000008
 -10.4776540899999997  9.5769740700000003 12.9537526900000000
 -10.7363807599999994  7.9462530300000003  4.7419370799999996
 -10.7934206800000005  6.2309313499999996 19.8365928800000013
 -10.7138897100000001  4.4160297599999998 12.4851748400000009
 -10.6698720300000005  2.3648983600000002  4.4153505099999997
 -10.8604200700000000  0.9866804500000000 19.9439251599999992
 -10.8541377600000004 -0.5817977800000000 12.3091556499999992
 -1.2871975300000000  1.0288600900000000 19.8102153600000008
 -1.5573470800000000 -0.8602009300000000 12.1700761499999999
 -12.0775909600000002 15.8090172700000000  5.4131359799999998
 -12.2187876499999994 14.0769591900000002 19.6272527900000000
 -12.3231026999999997 12.3087055400000001 11.8865679400000008
 -12.5051207000000009 10.2045431099999995  5.0740123600000002
 -12.2742534299999999  8.9134569399999997 19.8681061499999991
 -11.9747124500000002  7.0800473600000000 12.5377655000000008
 -12.1831460800000002  5.1659676299999999  4.6943237900000003
 -11.9344980199999995  3.3717340099999999 19.7805266400000015
 -12.0963808600000000  1.8145076899999999 12.4939319500000003
 -11.8414794600000004  0.0112115200000000  4.9032444000000002
 -2.8453219800000000  1.9745994000000000 12.7221421400000008
 -3.1074366300000000 -0.1433683700000000  5.1590944800000003
 -13.6271798700000009 16.9239783099999990 20.3448658599999987
 -13.5580775700000000 15.2192282199999998 12.0582711800000002
 -13.7325231500000005 13.0339621599999997  4.9063759400000002
 -13.5351300299999995 11.5434781100000006 19.7672714099999993
 -14.0003530299999994  9.7733478300000005 12.4588193599999997
 -13.5549854500000002  7.6284304399999998  4.5408799200000001
 -13.4682006800000007  5.9661818400000000 19.9937998400000012
 -13.6746126599999993  4.3133884599999996 12.3101126500000007
 -13.7687038200000007  2.3485537900000000  4.8210712200000003
 -13.7586885799999994  0.4523271400000000 20.1853709099999996
 -4.1431400099999998  2.8239391100000000  4.7296679700000004
 -4.3779404800000004  1.1009544300000000 19.3240071499999999
 -4.6996219600000000 -1.0606985099999999 12.3157799600000004
 -4.5511334100000003 -2.7514420999999998  4.9375937700000003
 -14.9720159000000006 14.1460364300000005 20.0035095200000015
 -15.3938626299999992 12.4066966099999991 12.2339203899999998
 -15.1915949900000005 10.1771811099999994  4.5504866699999997
 -15.2695291700000002  8.8756627899999998 20.3468024199999995
 -15.0662932400000003  7.0454005700000000 12.5894180400000000
 -15.3015711299999992  5.0806702000000001  4.4686007600000002
 -15.2703050499999993  3.4278356200000002 19.9106732800000010
 -15.3404178899999994  1.9959626600000000 12.6460069199999996
 -6.1753379099999997  3.4189078099999999 20.0419312800000000
 -5.6493569099999998  1.5177574700000001 12.0782624900000002
 -5.8469031500000002  0.1354615900000000  4.9211811799999996
 -5.9264563099999998 -1.5448967400000000 19.9074780400000009
 -16.8134527100000000 14.7289152199999993 12.2819603500000003
 -16.5221472799999987 12.8436455600000006  5.2173106899999997
 -16.5853859700000008 11.1206810199999993 19.8332926200000017
 -16.5730152000000004  9.9487341300000001 12.5501762800000005
 -16.5583502100000004  7.7637451000000004  4.9483697199999996
 -16.8724168900000002  6.1548630900000001 19.8693339199999990
 -16.7369846699999982  4.4240433000000001 12.3043921699999999
 -16.6430272899999991  2.4150012699999999  4.8219277399999996
 -7.7740870400000004  4.4606711499999996 12.3221032699999995
 -7.7987611100000001  2.7738181900000001  4.8157309200000000
 -7.6075220400000001  1.0657340200000001 19.8288656299999992
 -7.5293118600000000 -0.8347490900000000 12.1489197600000001
 -7.4229416500000003 -2.8293970499999999  4.7406565299999999
 -18.1264837700000001 13.9116536100000001 19.5256931800000011
 -18.3280081000000017 12.5002897999999991 12.1838260999999992
 -18.4544975099999995 10.4206995700000000  4.6323287000000004
 -18.2269681699999992  8.6999538300000001 20.1170207999999988
 -18.3206747400000012  6.9967094200000002 12.2485860800000008
 -17.9756655599999995  5.3050496999999996  5.0478478200000003
 -18.3979955900000007  3.5220661099999999 19.7980418200000017
 -9.1930260599999993  5.4378634699999999  4.9595106500000004
 -9.0780558899999999  3.6558587500000002 19.6886961599999992
 -8.9065917599999995  1.6961515100000000 12.4211714900000008
 -9.0094452199999999  0.0991493900000000  5.0680765299999999
 -8.9821930800000001 -1.8980301900000001 19.7445630700000017
 -9.3319944899999996 -3.3629502200000001 12.6813592699999997
 -19.6932565699999991 13.0712530600000001  5.4643874700000001
 -19.8668930699999997 11.1016155699999999 19.8129573299999997
 -19.7748897399999990  9.6946771599999995 12.3208945599999993
 -19.8711631799999999  7.6860110700000002  5.0499142800000003
 -19.5872977000000006  6.0939943000000003 20.0680110200000001
 -19.9088182799999984  4.4883628599999996 12.7078965900000007
 -10.7106524299999997 -3.1631751800000001  5.2300759799999996
 -10.6000698100000008 -4.5607422199999998 19.8451648200000008
 -21.3051012799999988 12.1919160899999994 12.2267067899999997
 -21.1849498700000005 10.4882710499999998  4.7248833699999997
 -21.4957490799999995  8.7377493800000003 19.9831647100000005
 -21.1784908300000012  7.2318878700000004 12.0736135800000000
 -20.9997635500000008  5.0612506000000002  4.7273112299999998
 -11.9191474199999998 -1.8272108400000000 20.0279518299999992
 -12.5725950599999994 -3.3706009400000001 12.3399711599999993
 -12.1112615800000007 -5.7117303399999999  4.9287607500000004
 -22.8391368999999997 11.1894570200000008 19.8075937700000004
 -22.6293674799999991  9.5562788600000008 12.1972746900000004
 -22.9304712100000003  7.5907741800000004  5.1359837199999996
 -22.7850907400000011  6.2343765900000001 19.8540072999999992
 -13.6398463400000001 -0.8147227300000000 12.7854472799999996
 -13.4922782500000000 -2.9612440499999999  5.0608870899999996
 -13.5543684800000008 -4.2771584499999999 19.7218352699999997
 -13.7765333600000002 -6.2539108499999996 12.3357442699999993
 -24.0481057800000002 10.6527915899999996  5.2521505199999998
 -24.4064575300000008  8.5610698200000002 19.7831588700000012
 -24.1728718499999999  7.0966347000000001 12.6824149899999998
 -15.0604906900000000 -0.0816835700000000  5.2051982900000002
 -15.2553259400000005 -1.7798579000000001 19.9759204600000011
 -15.3134194299999997 -3.6366865000000002 12.9056075099999994
 -15.1229908700000006 -5.4306593699999999  5.0792068700000002
 -15.0030296100000005 -7.1582717000000002 20.1048691099999992
 -25.7800687400000008  9.6178091999999999 12.2087099800000001
 -25.7022056700000014  7.9598940300000001  5.0094045600000001
 -16.6344422899999991  0.4585679600000000 20.2262806499999996
 -16.6209689199999993 -0.7218439600000000 12.6107848800000006
 -16.7931741300000006 -2.7999921500000000  5.5503226500000000
 -16.8113032699999998 -4.4086132899999999 20.0274080900000016
 -16.8524796700000010 -5.9347442700000004 12.5856126300000000
 -16.7415717199999996 -7.6464656399999997  4.6853793799999996
 -27.3790509299999982  8.7468090600000004 19.9971387500000013
 -27.1994159899999985  6.9475743699999999 12.1032884099999993
 -9.1458949000000000 15.8809320500000002  4.7666579000000002
 -9.0695461000000002 13.9223023799999996 19.9779239500000010
 -9.3427969799999993 12.1163032499999996 12.2696760400000002
 -9.2512787700000008 10.5403417800000003  4.8303224000000000
 -8.8615314800000000  8.6464416600000007 19.9566717500000017
 -9.0488795900000003  7.1244478000000004 12.0967611900000005
 -18.1206828800000004 -8.7573871000000008 12.7454955400000003
 -1.3804192900000001  2.5977689200000000  4.7389199199999998
 -2.8221581300000000  3.4291802200000001 19.9919719799999989
 -4.4783707100000001  4.3627965700000004 12.5963829900000004
 -6.0540259599999997  5.1114933400000000  4.3883845900000003
 -7.7516718700000000  6.0530151099999996 19.8195003499999984
 -26.1891342899999984  6.1879234800000003 19.8878657499999996
 -26.0949116799999992  4.0869165299999999 12.7767295900000004
 -7.7483922600000001 13.2707108799999993  5.2128770299999996
 -7.4177727000000004 11.1832721900000003 20.2586591899999995
 -7.3599717900000003  9.6903853400000006 12.0194810000000007
 -7.5234565199999999  7.9460139700000001  5.0318531599999998
 -18.2843492900000015 -6.7430889299999999 19.5844538800000016
 -19.8224328499999984 -6.0357293700000003 12.4423326700000008
 -2.9758225299999999  5.0962668600000001  4.9332409200000003
 -4.6250291900000002  6.1605369200000002 20.0036988600000001
 -5.9445257099999997  7.1999809499999996 12.6338449199999996
 -24.3285592999999984  5.1245222699999999  4.7628150099999997
 -24.2609747800000015  3.7553219599999998 19.8187461499999991
 -24.6011038699999993  1.5137576800000001 12.1190049799999997