Li                                      
   1.00000000000000     
    20.0207999999999977    0.0000000000000000    0.0000000000000000
     0.0000000000000000   20.0207999999999977    0.0000000000000000
     0.0000000000000000    0.0000000000000000   20.0207999999999977
   Li
   432
Direct
  0.0007308229441350  0.9713747967114230  0.0056202729161683
  0.9247163919523729  0.0830532980700056  0.0675082833852798
  0.8398615295093137  0.1458762027491431  0.1667413285183414
  0.7353812649844187  0.2434246129025794  0.2525266837489042
  0.6596700990969424  0.3304886048509559  0.3254051271677483
  0.5978703768081175  0.4181312275233751  0.4294398640413988
  0.5027255454327531  0.5019636533005709  0.4920422265843527
  0.4166409209422213  0.5754741698633410  0.5814132382322370
  0.3383300417565707  0.6637578333533156  0.6857990944417836
  0.2534314547870196  0.7200559348277764  0.7638537995484711
  0.1528370919243969  0.8069401432510190  0.8153825416566747
  0.0887748656397349  0.9235428084791835  0.9122679922880224
  0.1036601779149677  0.9195678834012639  0.0828879954846968
  0.9987773425637343  0.9901113112363120  0.1774694352872999
  0.9132356953768053  0.0779492857428252  0.2581888371094081
  0.7971092428873945  0.1644229006832916  0.3287631203548287
  0.7378335486094443  0.2284868746503648  0.4300478262606902
  0.6707855355430326  0.3333772476624333  0.5023931790937439
  0.6100467129185674  0.4278743826420524  0.6060145104091745
  0.5212387956525220  0.5143068818428844  0.6721170677495394
  0.4061138585870694  0.5734368851394578  0.7484193528730145
  0.3474413445017177  0.6448069392831428  0.8366360709861738
  0.2346248956085688  0.7228803149724286  0.8924521103052854
  0.1584034584032636  0.8256829257572136  0.9868695946215951
  0.1884394984216442  0.8501005454327526  0.1800839367058273
  0.0797760648925134  0.9345139529888939  0.2558912640853492
  0.9885176896028156  0.9797457948733310  0.3289997902181767
  0.9057059642971339  0.0772285767801506  0.4125139859546039
  0.8274859571046136  0.1448696415727611  0.4884718492767490
  0.7553641927395489  0.2480814627787069  0.5761613332134559
  0.6786567974306692  0.3271766532805884  0.6627756897826274
  0.5843370419763474  0.4110632637057492  0.7604692954327490
  0.5141551191760598  0.4973390838527934  0.8357246733397261
  0.4195792151162792  0.5738611074482520  0.9243531971749377
  0.3348128910932644  0.6824914334092540  0.9886437400103887
  0.2441634130504298  0.7653862468033239  0.0811219376848058
  0.2583262157356359  0.7537001178774076  0.2661787241269096
  0.1671229611204339  0.8668907581115661  0.3399098452609266
  0.0747493147126974  0.9107378706145610  0.4452564622792323
  0.9994991768560695  0.9995999475545432  0.5156023775273724
  0.9190672115999377  0.0842469571645523  0.5800958912730749
  0.8292562569927284  0.1803633646008151  0.6657867467833469
  0.7548699772236844  0.2673994146088035  0.7516556486254302
  0.6803080306481277  0.3363798589466924  0.8544095665507854
  0.5909936595940195  0.4229444752457425  0.9167816316031363
  0.5099159648965070  0.4943485250339634  0.0118102303604246
  0.4137683798849210  0.5842740944417812  0.0860803019859375
  0.3432328408455234  0.6811058708942710  0.1687780298489585
  0.3375009230400394  0.6665354446375744  0.3414064897506606
  0.2454455121673433  0.7491078917925336  0.4192761627906947
  0.1666489690721633  0.8164169658555096  0.5131082444257942
  0.0944853472388729  0.8961876818109147  0.5906723227843074
  0.0152924778230670  0.0084427725165810  0.6656809872732339
  0.9106912590905480  0.0965927880004784  0.7576044563653781
  0.8564857058659001  0.1697370150043938  0.8203644729481354
  0.7676467533764892  0.2636447234875732  0.9186441370974165
  0.6781966579757039  0.3099467948333725  0.0100528939902489
  0.5799441131223517  0.3821353277591300  0.0833529009829803
  0.5061475015983348  0.4892520523655435  0.1684038574882152
  0.4262593477783128  0.5714665962399081  0.2459724476544380
  0.4313252882002701  0.5787283490170196  0.4080691370974208
  0.3377801970950216  0.6546974446575575  0.4852721974146874
  0.2637465820546652  0.7410605760009616  0.5928605615160265
  0.1823319847358746  0.8229918474786189  0.6752727658235429
  0.0979734121513616  0.9114712783704917  0.7487499490529856
  0.9833240994365866  0.0185094576640310  0.8345327369535696
  0.9266066605730074  0.1019225220770394  0.9431291142212075
  0.8320080716055287  0.1816782541157167  0.9913874280748018
  0.7557374890114303  0.2457154933868750  0.1127738596859231
  0.6583676741189137  0.3217759879725079  0.1700493331934823
  0.5802400493486743  0.4081914748661362  0.2590242767521787
  0.5106642222089022  0.4808899084951648  0.3267708972668402
  0.0834087598897142  0.0774756273475603  0.9406264020418789
  0.0244660318268970  0.1680475220770390  0.0092214891512796
  0.9118489830576237  0.2662485380204558  0.1106449487532970
  0.8381194332893784  0.3464611968552731  0.1937961674858144
  0.7387478197674398  0.4397065516862497  0.2585418894349871
  0.6653084951650285  0.4886100635339261  0.3352334442180123
  0.5966945601574380  0.5929311665867516  0.4182486888635850
  0.4961797435666924  0.6555282471229944  0.4899467843442835
  0.4177477803084813  0.7561830021777354  0.5737324092943368
  0.3430087543954272  0.8362249945057130  0.6720718847398715
  0.2409853202669225  0.9127141597738344  0.7632913644809420
  0.1735433264405017  0.0060695256932775  0.8512241019339868
  0.2028042955326441  0.9822679573243818  0.9913914329097722
  0.0815160533045614  0.0652499965036384  0.0700045013186283
  0.9956137511987535  0.1487838627827074  0.1682235819747433
  0.9195293919323930  0.2275633845800371  0.2605714162271227
  0.8121669803404430  0.3175866309038611  0.3274505509270327
  0.7362444807400337  0.4001878321545576  0.4135148560497086
  0.6990218193079230  0.5059937894589623  0.5073717059258342
  0.5667830840925419  0.5833919828378455  0.5777302894989234
  0.4862428024854140  0.6631812514984432  0.6736948103971869
  0.4257060646927187  0.7475705471309837  0.7336094192040292
  0.3342086485055518  0.8086524114920479  0.8248120050147847
  0.2670069093143113  0.8920767766522815  0.8813946590545854
  0.2619064842563716  0.9185043789458973  0.0832884060576973
  0.1595059343283012  0.0007069952249665  0.1459716434907676
  0.1074846704427372  0.0592557430272507  0.2350557430272531
  0.0276605789978390  0.1581506693039216  0.3288354850955031
  0.9279362043474819  0.2370880269519731  0.3838237278230636
  0.8396301930991754  0.3382761038519959  0.4832133261408131
  0.7699611319227984  0.4193641412930589  0.5789260753816023
  0.6832549383641009  0.4986980954806981  0.6829558364301107
  0.5800546941181182  0.5994189393031277  0.7686344077159788
  0.4939566585750796  0.6575981444297909  0.8384945856309471
  0.4302528924918079  0.7564746663469961  0.9247802400503460
  0.3280137247262829  0.8165010668904316  0.9907376967953354
  0.3398882507192553  0.8336660468113166  0.1727985724846164
  0.2500859371253910  0.9488765239151249  0.2463781212538976
  0.1696491918404845  0.9881929793015232  0.3414438983457231
  0.0715510708862794  0.0667612577918959  0.4108517526772175
  0.9760855685087506  0.1674049098937118  0.4775858776872042
  0.9014992597698424  0.2448895184008606  0.5614354890913447
  0.8269027861024512  0.3365616723607445  0.6751218277990887
  0.7464648765284139  0.4292400333653035  0.7727259420203012
  0.6749089042395937  0.4963140678694131  0.8447681456285494
  0.5891320127067843  0.5697222623471561  0.9157716759570036
  0.5005425627347577  0.6553129515304050  0.9893008805841959
  0.4247669983217435  0.7618724201830105  0.0608766387956550
  0.4192017621673472  0.7549064982418301  0.2566256688044461
  0.3406420982178560  0.8636052675217769  0.3185503781067709
  0.2594606928794079  0.9281279624190830  0.4331205031766956
  0.1697202289618787  0.9893588223247818  0.5217128426436517
  0.0670223127946912  0.0644288350115900  0.5855563793654568
  0.0061301965955423  0.1793769010229340  0.6579574427595318
  0.9361940636737813  0.2472331610125451  0.7308886672860240
  0.8428381413330115  0.3343988906537234  0.8621069467753557
  0.7486321071086053  0.4402692794493746  0.9544900423559497
  0.6636947434667917  0.5054583178494383  0.0260669104131708
  0.5734052580316487  0.5846222878206646  0.0665061620914216
  0.5002851474466539  0.6678317714576849  0.1456913849596404
  0.4938139360065534  0.6521380169623612  0.3296113936506018
  0.4184781831894853  0.7584506513226259  0.4159967378925913
  0.3421831974746254  0.8335133491169202  0.5101472573523509
  0.2536292221090051  0.8906744121114016  0.5993396118037211
  0.1813625279709115  0.9912533979661120  0.6866466904419397
  0.0779190152241682  0.0902579182650030  0.7500019709502084
  0.0065448588468016  0.1715126703228620  0.8322319932270474
  0.9461240844521726  0.2427542016303050  0.9068078563294151
  0.8404110819747430  0.3236451495444754  0.0111844886318266
  0.7510765009390212  0.4307632322384691  0.1060142671621520
  0.6546753111763763  0.5040299973028084  0.1571989076360580
  0.5923885888675784  0.5780805891872447  0.2366586150403549
  0.1285398880164621  0.1763703967873411  0.8336380629145665
  0.0850399569447760  0.2474873736314223  0.9205592358946717
  0.9948737173339737  0.3043249815192226  0.9972505269519729
  0.8935553604251609  0.4218119420802395  0.0751051021937172
  0.8330042026292688  0.5070084916686639  0.1711856763965471
  0.7437584147486618  0.5872649624390647  0.2285643880364390
  0.6858591130224596  0.6436773365699651  0.3039137292216125
  0.5851272191920387  0.7223876853072824  0.4088086674858147
  0.5191465810557006  0.8247618281986746  0.5058388251218702
  0.4324246363781654  0.9209623931111679  0.5904964856549171
  0.3207581180572205  0.9929436176376569  0.6782755259530120
  0.2339516917405930  0.0956196335810731  0.7647412061456080
  0.2380439637776703  0.0894933798849209  0.8971161267282000
  0.1713330426356592  0.1774935007592120  0.9965558624030990
  0.0826322949132887  0.2525896787341182  0.1033217773515531
  0.9893122068049252  0.3451118311955597  0.1750708518141124
  0.9119554088747677  0.4227817979301562  0.2795277846040136
  0.8271752447454617  0.4841591225125867  0.3319478247622456
  0.7554834881723025  0.5752541796531574  0.3981525533445236
  0.6720141517821503  0.6390963742707569  0.5004300966994322
  0.5885565232158569  0.7266091779549271  0.5930492108207446
  0.5128082319387843  0.8305173524534482  0.6502749870135034
  0.4243167301006920  0.9272465550827107  0.7683618881363401
  0.3446526097858253  0.0188064702709170  0.8457877542355945
  0.3376772331774944  0.9880521757372307  0.9809164648765289
  0.2533256977743150  0.0953962978502361  0.0642946500639354
  0.1616315247142950  0.1645895258930707  0.1541415138256212
  0.0883772721369809  0.2471802285622928  0.2502936955566213
  0.0159630903860020  0.3358656057699960  0.3441633246423734
  0.9081369650563431  0.4221062614880537  0.3846291526812138
  0.8339412356149580  0.5155914279149698  0.4614188793654606
  0.7730845086110421  0.5729904364460978  0.5906675932030723
  0.6592886952569330  0.6483176716215127  0.6761289673739341
  0.5989579886917582  0.7202030078718167  0.7751447909174445
  0.5181735515064361  0.8087584641972327  0.8283713592863435
  0.4392359496124030  0.8957659863741725  0.8827181096659444
  0.4169667156157573  0.8960189812594876  0.0646324952049895
  0.3385883311356181  0.0139306606129637  0.1451435197394702
  0.2315676821106081  0.0713895134060607  0.2454330726044915
  0.1547783575081922  0.1539957798889162  0.3544585396187969
  0.0825189502916999  0.2502547325781208  0.4281975705266490
  0.9890110679892885  0.3612810132462272  0.4873819387836633
  0.8822496823303752  0.4310945676496445  0.5712152506393338
  0.8529349866139242  0.4941639859546072  0.6634777251658264
  0.7803800767202134  0.5967034943658618  0.7442097908175498
  0.6782276127827060  0.6384759964636757  0.8568248101973950
  0.5949012911571998  0.7341799203828003  0.9263100585391228
  0.5024199182849856  0.8521506118636637  0.9783208363302194
  0.5123494390833514  0.8359062994485740  0.1702406727003947
  0.4204036317230049  0.9290737727763130  0.2419647431671095
  0.3374621144010206  0.0159473422640488  0.3397116888436003
  0.2535257347358737  0.0844836909613988  0.4174201815112255
  0.1561816820506650  0.1608502921961161  0.5021382242467851
  0.0842711345201010  0.2596143760489085  0.5722713782666062
  0.9725918684568029  0.3709677820067157  0.6303827759130485
  0.9303235799768217  0.4223472818269016  0.7580883381283456
  0.8552168889355087  0.4938590046351763  0.8392275793175088
  0.7695566860465135  0.5774809807799883  0.9169529064772632
  0.6795703833013675  0.6516453852992896  0.0059908005674103
  0.5633477972908167  0.7538004440381982  0.0646974866139232
  0.5912200821146030  0.7471514140294104  0.2556917920362807
  0.4970437010509059  0.8375000759210423  0.3493969167066240
  0.4214572060057549  0.9243741348997077  0.4237665712658867
  0.3361184807799873  0.9863068738511913  0.5075848782266448
  0.2544758231439275  0.0863339901502442  0.5811861364181254
  0.1503622677415493  0.1588653835011584  0.6502518460800744
  0.0654492577719168  0.2613456909813792  0.7293953033844787
  0.0053908185487117  0.3242303424438617  0.8364532386318260
  0.9251401976943967  0.4021423479581259  0.9241739845560630
  0.8328114960441155  0.4956446620514683  0.0202850955006824
  0.7535060601973953  0.5950392851434501  0.0864135269319917
  0.6768946175976964  0.6737380494285929  0.1452154144689501
  0.2292083223447605  0.2381237907576121  0.7546521352793079
  0.1720547655438338  0.3360660647926181  0.8305671816311033
  0.0770468912331168  0.4037122327779130  0.9174714581834920
  0.9915453843003306  0.4944144414808633  0.9900184258371283
  0.9326774994006257  0.5647375314672729  0.1257292041277083
  0.8567215151242706  0.6800698193878389  0.1666721145009191
  0.7310072554543297  0.7538406961759776  0.2358066171182003
  0.6665643310956639  0.8375069382841858  0.3429530068728539
  0.5945352333573055  0.9176707913769704  0.4228569552665249
  0.5039431770958203  0.0130900018980284  0.5068611588947505
  0.4137564148285762  0.0650824517501789  0.5834813169303956
  0.3183980530248576  0.1642198718332963  0.6629951240709673
  0.3329503766083306  0.1645338897546580  0.8255331225525424
  0.2381391617717554  0.2584226559378280  0.9309872592503794
  0.1660380684088523  0.3419363571885228  0.0042278185686868
  0.0608760324262789  0.4032538904539251  0.0882495819347895
  0.9909005204587231  0.4568009535083490  0.1883759190441907
  0.9058869605610198  0.5608416941380980  0.2727071011148396
  0.8401122217893402  0.6840038325141862  0.3184613327139800
  0.7499151097858245  0.7437011567969307  0.4185568848397665
  0.6680148345720482  0.8348860470111106  0.5175093213058446
  0.6125963622832273  0.9133835001598314  0.5906706814912468
  0.5010414703708150  0.0007190816550775  0.6729856988731697
  0.4086760908654981  0.0877956120634522  0.7373216035323296
  0.3965663160313255  0.0766546636498049  0.9133865909454144
  0.3211145318868347  0.1580320931231540  0.9729625379605196
  0.2549000549428584  0.2600061181371345  0.0690095091105221
  0.1482327579317513  0.3404417475825170  0.1609711919603640
  0.1027223997043052  0.4007683868776439  0.2585071131023753
  0.0140366723607457  0.5147084502117778  0.3293518900343670
  0.9289477778110751  0.5780088248221844  0.3863818603652192
  0.8279543799448561  0.6574165258131544  0.4703610090505848
  0.7561212184328312  0.7309316880444356  0.5955777451450501
  0.6702622997083054  0.8268570956205537  0.6727752777111817
  0.5679639919483748  0.9043597183928682  0.7380619650563389
  0.5162316091265069  0.0405174928074814  0.8304037276232705
  0.4834781966754562  0.0147122712379115  0.9758391028330564
  0.4091854656157565  0.0806721624510516  0.0594940746623536
  0.3278699372652412  0.1622264959442177  0.1555317270039183
  0.2246976289658775  0.2315619960241335  0.2481208603052849
  0.1729410817749510  0.3268960670902246  0.3291786367178133
  0.1028226694238015  0.4426709157476196  0.4097611229321529
  0.9777168749500547  0.5124056176576346  0.4834182245464689
  0.8940356294453764  0.5792739061376153  0.5871196320826328
  0.8355378196675431  0.6729289249180823  0.6828786971549619
  0.7513836854671112  0.7529527116798533  0.7606016952369572
  0.6804394095141078  0.8417064532885803  0.8441146677455436
  0.5854033240429928  0.9141756598137931  0.8800090156237488
  0.5827025708263420  0.9180369345880308  0.0612018191081276
  0.4966339062375127  0.9928079337488995  0.1476968762487019
  0.4003280772996050  0.0629100865100298  0.2503909509110542
  0.3304752217693618  0.1785743391872430  0.3164871383760897
  0.2410801486454091  0.2463398185886660  0.4324695541636672
  0.1830748401662277  0.3439350345640548  0.4922713063414079
  0.1004542241069259  0.4104443813434031  0.5768545537640861
  0.9954449242787504  0.5212833947694406  0.6589820276912022
  0.9114696985135424  0.5898950536442129  0.7612929488332156
  0.8416554293534730  0.6785938848597439  0.8498015868496793
  0.7554649954047790  0.7525940606768984  0.9197295402781123
  0.6536387067449851  0.8183514649764234  0.9984462214297096
  0.6433577364540852  0.8376547395708442  0.1654446650483479
  0.5754226579357464  0.9280671691440929  0.2305253626228705
  0.4950165338048436  0.0095703133740912  0.3397706335411144
  0.4153438573883150  0.0975177510389216  0.4229224391632727
  0.3302041247102991  0.1800159434188444  0.4965853617238096
  0.2427708468193046  0.2397556516223105  0.5661597803284550
  0.1945246523615438  0.3217781312435051  0.6575648215855523
  0.0864627667226117  0.4080413105370440  0.7222982138575915
  0.9896859201430530  0.4898428684168437  0.8238238826620332
  0.9189814517901382  0.5878212324182854  0.9258282306401355
  0.8541302010908680  0.6595362782706005  0.0324201530408388
  0.7627440841524802  0.7605145094102141  0.1044439707703972
  0.3179714991408957  0.3357275933029626  0.6708431356389326
  0.2599097333772846  0.4027715730640153  0.7693298849196850
  0.1611347378726151  0.4812702354551277  0.8320983886757745
  0.0656703093782482  0.5761065501878022  0.9140936261288246
  0.0150908480180618  0.6645221444697498  0.0299624315711640
  0.9159416531806954  0.7468880719052180  0.0933474121913207
  0.8297638600855137  0.8227240994365843  0.1438553948893144
  0.7316165852513379  0.9158026157795902  0.2336521157995719
  0.6637634230400380  0.0119797995085094  0.3355783555102718
  0.5568350080915820  0.0802570576600345  0.4321042031287448
  0.4994406542196117  0.1626119011228297  0.5107471384759847
  0.4205058738911518  0.2598957943738540  0.5938605150643355
  0.4177327044873351  0.2658793469791405  0.7538496024134886
  0.3286613836609931  0.3174430372412687  0.8295938364101332
  0.2686717813474004  0.4210212678814003  0.9182585905658129
  0.1539308289379022  0.4849241733597083  0.0042134565052336
  0.0761637851634305  0.5699680257532194  0.1022325681291463
  0.0137120170023195  0.6741033714936435  0.1948794323903158
  0.9379430896867262  0.7808327214696718  0.2509279074762247
  0.8166571170982166  0.8269727103812059  0.3375656267481801
  0.7426414064373077  0.9341718357907780  0.4328852952928983
  0.6551611374170889  0.0142098872172909  0.4970060991568772
  0.5824704122712347  0.0861308434228434  0.5945591270079120
  0.4878444942260032  0.1835547730360432  0.6649681331415351
  0.4959889285143433  0.1964351164788596  0.8357325156836879
  0.4157572319787448  0.2694966829497289  0.9135877832054646
  0.3425604636178363  0.3348414129305510  0.0050170093103148
  0.2519965420962222  0.4311299383641014  0.0890176426516405
  0.1629044733477159  0.5075983117557712  0.1658087309198422
  0.1056615285103462  0.5798161047510604  0.2422381118636636
  0.0141648515543835  0.6707214916486848  0.3125094496723406
  0.9231983976664253  0.7592645578598294  0.4155049543474760
  0.8334683464197212  0.8384306880843937  0.5086533654998817
  0.7331304063773700  0.9266910642931379  0.5900138650803157
  0.6755902316590721  0.9875202644250010  0.6898000024973996
  0.5728503021857279  0.0929463772676442  0.7564516712618854
  0.6104681091664688  0.1046510114480910  0.9139423010069549
  0.5000942409893696  0.1607150648325728  0.9896712059458181
  0.4099153435427141  0.2337764644769464  0.0767406182570127
  0.3287513965475881  0.3288935786781764  0.1776098522536529
  0.2594122797290837  0.4028375809158504  0.2385191031327452
  0.1857056086669857  0.5036157346359786  0.3219141427914991
  0.0791897831255497  0.5808183858786862  0.4136129315511852
  0.9888219451770155  0.6637877782106614  0.4924694787421089
  0.9130076440501895  0.7502257806880834  0.5710392806481295
  0.8221021522616496  0.8404340675697242  0.6637541481858875
  0.7463246668464762  0.8964406722009102  0.7537325926036900
  0.6798628226644325  0.0084722858227408  0.8231932215495874
  0.6585090440941457  0.9985921516622724  0.9697545792375948
  0.5811983676975956  0.0646404828977865  0.0725033600055909
  0.4853916192160170  0.1543551935986542  0.1687337528969906
  0.4037140064333116  0.2435677540358014  0.2533092294014239
  0.3342591439902520  0.3166634100535433  0.3314802460441157
  0.2538176031926795  0.4106388860585000  0.4054161576959956
  0.1967101874050954  0.4973195187005501  0.4836633391273111
  0.0937092109206432  0.5639825241748611  0.5756877212698797
  0.9824910343243047  0.6675992997282805  0.6528974461559969
  0.9172517756533196  0.7582526532406320  0.7419045257931742
  0.8554639569847353  0.8444603402461439  0.8487836230320482
  0.7463348647406676  0.9196286801726217  0.9083037730759997
  0.7292846589546897  0.9279057625069953  0.0759964786621907
  0.6588930597178901  0.0150252677215690  0.1689742572724384
  0.5776077439462952  0.0797503930911887  0.2523129665148218
  0.4895162376128823  0.1653012457044696  0.3031717503796045
  0.4073145223967103  0.2423838433029673  0.4068295802365540
  0.3428791871453711  0.3564470595580573  0.5014938818628636
  0.2536603312554959  0.4252601639295150  0.6060115424958070
  0.1804096854271577  0.4873444732478234  0.6719721174978019
  0.0783440986374160  0.5990159559058554  0.7308120504675131
  0.0029879085750792  0.6711668329936842  0.8202423854191636
  0.9260829647166915  0.7435420362822640  0.9360275428554274
  0.8203083168504790  0.8293819168065184  0.0060334616998290
  0.4259788175297672  0.4403371153999842  0.5774335965595796
  0.3373871758371294  0.4884000559418240  0.6817389070366815
  0.2802408075601406  0.5631036202349549  0.7707092114201259
  0.1410860220370793  0.6488883755893866  0.8338014175257698
  0.0767714037401106  0.7574800257731980  0.9202888670782414
  0.9997422150962976  0.8274330226564359  0.0000686066490871
  0.9058657825861118  0.9160321076080891  0.0646711654878942
  0.8243021312834671  0.0053321870254948  0.1609765229161653
  0.7324043529729067  0.0890274089946459  0.2413273875169821
  0.6362626623311769  0.1715412161352177  0.3354947474626400
  0.5659699137896581  0.2657130709062585  0.4019961589946490
  0.4757579222608470  0.3524201340605799  0.4877225480500300
  0.4864794039199225  0.3569984606009768  0.6612008496163995
  0.4005542765523842  0.4342540283105549  0.7584042800487509
  0.3268372028090809  0.4910551551386533  0.8424360924638350
  0.2448126343602652  0.5813045522656424  0.9356825081914835
  0.1389782880803949  0.6682724091944365  0.0091789878526356
  0.0840331490250108  0.7562149359665966  0.1010617173139963
  0.9990963962479000  0.8665630464317076  0.1575799868137153
  0.8850060726844049  0.8875337404099710  0.2439385673899110
  0.8018240714656741  0.9978065651722190  0.3360149874130940
  0.7228913979461353  0.1082097418684569  0.4179148595460731
  0.6346878616239096  0.1982352353552272  0.5195543439822572
  0.5490482777910941  0.2781534269359867  0.5704081924798245
  0.5830639754655138  0.2700763660792802  0.7524430047750315
  0.5031874001038901  0.3339164948453615  0.8454067105210612
  0.4252058783864783  0.4300787640853514  0.9127714601814105
  0.3411471020139061  0.5004333478182659  0.0077014265164195
  0.2530544653560298  0.5679207269439814  0.0881512916566791
  0.1655637207304395  0.6820532186525980  0.1515156707024730
  0.0998348967074207  0.7802197709382241  0.2325836320226955
  0.0127635913649797  0.8333623616438928  0.3359055662111388
  0.9132198118956296  0.9110657805881885  0.3991052480420336
  0.8296259380244564  0.0066838023455631  0.5107926771158020
  0.7393960815751655  0.1095813054423402  0.5793406522216884
  0.6534160468113157  0.1814058708942667  0.6601527401502452
  0.6717759744865361  0.1999822829257596  0.8197861963557926
  0.5730405638136347  0.2516841379964845  0.9138470895268895
  0.5012300087908557  0.3283723452609308  0.9951881872852226
  0.4222368806441281  0.3934669628586249  0.0848901687245274
  0.3398185816750612  0.5006170407775912  0.1772807310397155
  0.2596418344921290  0.6065058663989475  0.2549954811995505
  0.1525726329617214  0.6747348652401470  0.3269733801846115
  0.0857297855230570  0.7430289688723732  0.4161418674578456
  0.9953439747662429  0.8279170128066795  0.5101074167865391
  0.9133169298929147  0.9196469976224719  0.5909689098337765
  0.8320356234516098  0.9969936256293437  0.6597255744026214
  0.7505983042635691  0.1130368127147747  0.7659741478861974
  0.7559707584112516  0.1236590011388188  0.9068844821385795
  0.6850044408814853  0.1783749555462322  0.0000389979421413
  0.5587096819307931  0.2483232218492759  0.0825530358427216
  0.4886203093782484  0.3304263915527841  0.1818464706705001
  0.4092884265363992  0.4237588358107587  0.2663715161232290
  0.3222725994965217  0.5126876548389703  0.3239819477743140
  0.2549958463198294  0.5928330231559187  0.3945136363182300
  0.1726985330256525  0.6540389429992786  0.5079392242068224
  0.0711389210221398  0.7357685182410307  0.5818284364261146
  0.9921328847998083  0.8406350565411955  0.6585733057620047
  0.9218783684967633  0.9368599521497671  0.7542284653959896
  0.8224443079197670  0.0094849541476876  0.8537491269080135
  0.8067256942779508  0.9864984955646108  0.9967570047150929
  0.7554234121513659  0.0948970365819548  0.0730876788140336
  0.6663574912091406  0.1567452789099306  0.1600073808239415
  0.5797480180612169  0.2468326650283714  0.2276434273355719
  0.4935031127627241  0.3379348907136546  0.3229427725165834
  0.4127424113921521  0.4322328103772080  0.4196595176016942
  0.3196887122392695  0.5077482058659015  0.4918340096299829
  0.2587210001598308  0.5871882262447059  0.6035919184048595
  0.1733549098937104  0.6656068633621004  0.6815379080756045
  0.0641754330496269  0.7393848482578136  0.7474412296211952
  0.9911974496523612  0.8427353712139407  0.8468191880444351
  0.9174687470031202  0.9240428564293168  0.9218176291656661
 
  0.00000000E+00  0.00000000E+00  0.00000000E+00
  0.00000000E+00  0.00000000E+00  0.00000000E+00
  0.00000000E+00  0.00000000E+00  0.00000000E+00
  0.00000000E+00  0.00000000E+00  0.00000000E+00
  0.00000000E+00  0.00000000E+00  0.00000000E+00
  0.00000000E+00  0.00000000E+00  0.00000000E+00
  0.00000000E+00  0.00000000E+00  0.00000000E+00
  0.00000000E+00  0.00000000E+00  0.00000000E+00
  0.00000000E+00  0.00000000E+00  0.00000000E+00
  0.00000000E+00  0.00000000E+00  0.00000000E+00
  0.00000000E+00  0.00000000E+00  0.00000000E+00
  0.00000000E+00  0.00000000E+00  0.00000000E+00
  0.00000000E+00  0.00000000E+00  0.00000000E+00
  0.00000000E+00  0.00000000E+00  0.00000000E+00
  0.00000000E+00  0.00000000E+00  0.00000000E+00
  0.00000000E+00  0.00000000E+00  0.00000000E+00
  0.00000000E+00  0.00000000E+00  0.00000000E+00
  0.00000000E+00  0.00000000E+00  0.00000000E+00
  0.00000000E+00  0.00000000E+00  0.00000000E+00
  0.00000000E+00  0.00000000E+00  0.00000000E+00
  0.00000000E+00  0.00000000E+00  0.00000000E+00
  0.00000000E+00  0.00000000E+00  0.00000000E+00
  0.00000000E+00  0.00000000E+00  0.00000000E+00
  0.00000000E+00  0.00000000E+00  0.00000000E+00
  0.00000000E+00  0.00000000E+00  0.00000000E+00
  0.00000000E+00  0.00000000E+00  0.00000000E+00
  0.00000000E+00  0.00000000E+00  0.00000000E+00
  0.00000000E+00  0.00000000E+00  0.00000000E+00
  0.00000000E+00  0.00000000E+00  0.00000000E+00
  0.00000000E+00  0.00000000E+00  0.00000000E+00
  0.00000000E+00  0.00000000E+00  0.00000000E+00
  0.00000000E+00  0.00000000E+00  0.00000000E+00
  0.00000000E+00  0.00000000E+00  0.00000000E+00
  0.00000000E+00  0.00000000E+00  0.00000000E+00
  0.00000000E+00  0.00000000E+00  0.00000000E+00
  0.00000000E+00  0.00000000E+00  0.00000000E+00
  0.00000000E+00  0.00000000E+00  0.00000000E+00
  0.00000000E+00  0.00000000E+00  0.00000000E+00
  0.00000000E+00  0.00000000E+00  0.00000000E+00
  0.00000000E+00  0.00000000E+00  0.00000000E+00
  0.00000000E+00  0.00000000E+00  0.00000000E+00
  0.00000000E+00  0.00000000E+00  0.00000000E+00
  0.00000000E+00  0.00000000E+00  0.00000000E+00
  0.00000000E+00  0.00000000E+00  0.00000000E+00
  0.00000000E+00  0.00000000E+00  0.00000000E+00
  0.00000000E+00  0.00000000E+00  0.00000000E+00
  0.00000000E+00  0.00000000E+00  0.00000000E+00
  0.00000000E+00  0.00000000E+00  0.00000000E+00
  0.00000000E+00  0.00000000E+00  0.00000000E+00
  0.00000000E+00  0.00000000E+00  0.00000000E+00
  0.00000000E+00  0.00000000E+00  0.00000000E+00
  0.00000000E+00  0.00000000E+00  0.00000000E+00
  0.00000000E+00  0.00000000E+00  0.00000000E+00
  0.00000000E+00  0.00000000E+00  0.00000000E+00
  0.00000000E+00  0.00000000E+00  0.00000000E+00
  0.00000000E+00  0.00000000E+00  0.00000000E+00
  0.00000000E+00  0.00000000E+00  0.00000000E+00
  0.00000000E+00  0.00000000E+00  0.00000000E+00
  0.00000000E+00  0.00000000E+00  0.00000000E+00
  0.00000000E+00  0.00000000E+00  0.00000000E+00
  0.00000000E+00  0.00000000E+00  0.00000000E+00
  0.00000000E+00  0.00000000E+00  0.00000000E+00
  0.00000000E+00  0.00000000E+00  0.00000000E+00
  0.00000000E+00  0.00000000E+00  0.00000000E+00
  0.00000000E+00  0.00000000E+00  0.00000000E+00
  0.00000000E+00  0.00000000E+00  0.00000000E+00
  0.00000000E+00  0.00000000E+00  0.00000000E+00
  0.00000000E+00  0.00000000E+00  0.00000000E+00