Li 
 1.0000000000000000
    20.0207999999999977    0.0000000000000000    0.0000000000000000
     0.0000000000000000   20.0207999999999977    0.0000000000000000
     0.0000000000000000    0.0000000000000000   20.0207999999999977
 Li 
 432
Cartesian
  0.0146316600000000 -0.5730994700000001  0.1125223600000000
 18.5135619399999989  1.6627934700000000  1.3515698400000000
 16.8146997099999993  2.9205582799999998  3.3382947900000000
 14.7229212300000007  4.8735554900000002  5.0557862299999998
 13.2071231200000003  6.6166462599999996  6.5148709699999996
 11.9698432399999994  8.3713216799999994  8.5977296299999999
 10.0649675999999992 10.0497139099999995  9.8510790099999994
  8.3414845500000006 11.5214532599999995 11.6403581599999999
  6.7736381000000003 13.2889628299999991 13.7302465100000006
  5.0739004699999999 14.4160958600000004 15.2929641499999995
  3.0599208500000001 16.1555872200000010 16.3246107900000013
  1.7773438300000000 18.4900658600000014 18.2643350200000008
  2.0753596900000000 18.4104846799999997  1.6594839800000001
 -0.0244785800000000 -0.1979794600000000  3.5530800700000000
 18.2837092100000014  1.5606070599999999  5.1691470700000002
 15.9587647300000004  3.2918780100000000  6.5821006799999999
 14.7720179100000006  4.5744900199999998  8.6099015199999993
 13.4296630500000003  6.6744792000000004 10.0583133599999996
 12.2136232299999996  8.5663874399999997 12.1328953100000003
 10.4356176800000000 10.2968352200000002 13.4563213899999994
  8.1307243400000004 11.4806651899999999 14.9839541799999996
  6.9560536700000002 12.9095507699999992 16.7501234500000002
  4.6973781099999998 14.4726422100000001 17.8676052100000007
  3.1713639599999999 16.5308327199999994 -0.2628812200000000
  3.7727095099999999 17.0196930000000002  3.6054244799999999
  1.5971806399999999 18.7097169500000007  5.1231478199999998
 -0.2298850400000000 -0.4055053900000000  6.5868390000000003
 18.1329579699999996  1.5461778900000001  8.2588600099999994
 16.5669308499999985  2.9004061200000000  9.7795971999999995
 15.1229954299999996  4.9667893500000000 11.5352108199999996
 13.5872520100000003  6.5503383399999997 13.2692995299999996
 11.6988950500000009  8.2298153900000006 15.2252036700000009
 10.2937968099999999  9.9571263299999995 16.7318765399999982
  8.4003115499999996 11.4891584600000005 18.5062904900000014
  6.7032219299999998 13.6640244899999992 19.7934385900000009
  4.8883468600000004 15.3236449700000001  1.6241260900000001
  5.1718975000000000 15.0896793200000001  5.3291110000000002
  3.3459353799999998 17.3558464900000011  6.8052670300000004
  1.4965410800000001 18.2337007600000014  8.9143905799999992
 -0.0100268800000000 -0.0080093700000000 10.3227720800000000
 18.4004608300000001  1.6866914799999999 11.6139838199999996
 16.6023736699999986  3.6110188499999998 13.3295832999999995
 15.1131008399999995  5.3535501999999999 15.0487474100000007
 13.6203110200000008  6.7345938800000003 17.1059630499999997
 11.8321658599999999  8.4676867500000004 18.3547016899999988
 10.2089255500000000  9.8972529500000004  0.2364502600000000
  8.2839739800000007 11.6976347900000004  1.7233965099999999
  6.8717960600000003 13.6362844200000008  3.3790711800000000
  6.7570384800000003 13.3445728300000006  6.8352310500000000
  4.9140155099999996 14.9977392799999993  8.3942441999999993
  3.3364456800000002 16.3453207899999988 10.2728375399999994
  1.8916722399999999 17.9423943399999999 11.8257324399999995
  0.3061676400000000  0.1690310600000000 13.3274659100000008
 18.2327675599999992  1.9338648899999999 15.1678473000000000
 17.1475290200000003  3.3982708300000000 16.4243530399999997
 15.3689021199999996  5.2783782800000001 18.3919905399999983
 13.5780396499999991  6.2053827899999998  0.2012669800000000
 11.6109451000000004  7.6506549699999997  1.6687917600000000
 10.1334779000000008  9.7952174900000006  3.3715799500000001
  8.5340531500000001 11.4412184299999993  4.9245651800000001
  8.6354773300000005 11.5866045300000007  8.1698705799999995
  6.7626297700000002 13.1075666000000002  9.7155376100000002
  5.2804175700000000 14.8366255799999998 11.8695427299999992
  3.6504322000000000 16.4769551800000009 13.5195009899999992
  1.9615060900000001 18.2483841700000013 14.9905729799999996
 -0.3338648700000000  0.3705741500000000 16.7080130199999992
 18.5514066299999989  2.0405704299999998 18.8821993699999986
 16.6574671999999993  3.6373439900000002 19.8483694200000009
 15.1304691200000008  4.9194207499999996  2.2578228899999999
 13.1810475300000007  6.4422126999999998  3.4045236900000000
 11.6168699800000006  8.1723198799999999  5.1858732400000003
 10.2239062599999997  9.6278006800000000  6.5422147800000001
  1.6699101000000001  1.5511240399999999 18.8320930699999991
  0.4898295300000000  3.3644458300000002  0.1846215900000000
 18.2559461200000008  5.3305087300000000  2.2152003900000001
 16.7798215500000012  6.9364303300000003  3.8799543100000000
 14.7903223500000003  8.8032769299999991  5.1762154599999999
 13.3200083199999995  9.7823643600000008  6.7116417400000001
 11.9463024499999992 11.8709562999999996  8.3736733500000007
  9.9339154099999991 13.1241999299999996  9.8091265799999992
  8.3636447599999997 15.1393886500000008 11.4865818199999996
  6.8673096700000000 16.7418933699999997 13.4554167899999992
  4.8247188999999997 18.2732676500000011 15.2817037500000001
  3.4744762300000001  0.1215167600000000 17.0421875000000007
  4.0603042399999998 -0.3550096800000000 -0.1723504000000000
  1.6320166000000000  1.3063571300000001  1.4015461199999999
 -0.0878162100000000  2.9787719600000000  3.3679706899999999
 18.4097140500000016  4.5560010100000001  5.2168482100000002
 16.2602326800000014  6.3583384199999999  6.5558219900000001
 14.7402034999999998  8.0120805500000003  8.2788982299999994
 13.9949760399999992 10.1304004600000006 10.1579874500000003
 11.3474507700000000 11.6799742099999992 11.5666225800000007
  9.7349698999999994 13.2774192000000006 13.4879090599999998
  8.5229759800000000 14.9669604100000004 14.6874474599999996
  6.6911245099999999 16.1898681999999994 16.5133961900000017
  5.3456919300000001 17.8600907299999996 17.6462261900000001
  5.2435773399999999 18.3891924700000011  1.6675005199999999
  3.1934364099999999  0.0141546100000000  2.9224690799999999
  2.1519290899999999  1.1863473800000000  4.7060040200000000
  0.5537869200000000  3.1663029200000001  6.5835494800000003
 18.5780251599999993  4.7466919699999996  7.6844580899999997
 16.8100681700000010  6.7725582199999996  9.6743173599999999
 15.4152378300000006  8.3960056000000005 11.5905631699999994
 13.6793104700000008  9.9843348299999999 13.6733222100000003
 11.6131590199999994 12.0008467000000003 15.3886757500000009
  9.8894074700000001 13.1656409300000004 16.7873324000000004
  8.6140071099999993 15.1452279999999995 18.5148402300000008
  6.5670971800000002 16.3470045599999985 19.8353612800000008
  6.8048346899999999 16.6906611900000001  3.4595656600000000
  5.0069205300000004 18.9972671099999992  4.9326870899999999
  3.3965125399999998 -0.2363860000000000  6.8359800000000002
  1.4325096799999999  1.3366137899999999  8.2255807700000005
 -0.4787860500000000  3.3515802200000002  9.5616513399999992
 18.0487363800000011  4.9028840699999998 11.2403876399999998
 16.5552552999999989  6.7382339299999998 13.5164790900000007
 14.9448240000000006  8.5937288600000006 15.4705915399999991
 13.5122161900000002  9.9366046899999994 16.9129340900000003
 11.7948941999999999 11.4062954699999999 18.3344815700000012
 10.0212625400000004 13.1198895400000008 19.8065950700000002
  8.5041751199999993 15.2532953500000001  1.2187990099999999
  8.3927546399999997 15.1138320200000003  5.1378511900000001
  6.8199273199999997 17.2900683400000013  6.3776334099999996
  5.1946106399999996 18.5818643100000003  8.6714189699999995
  3.3979347600000001 -0.2130448900000000 10.4451084800000000
  1.3418403200000000  1.2899168200000000 11.7233071599999992
  0.1227314400000000  3.5912690600000001 13.1728343700000003
 18.7433541099999985  4.9498056699999999 14.6329758299999995
 16.8742938600000016  6.6949333099999997 17.2600707600000014
 14.9882136900000003  8.8145431900000002 19.1096542400000011
 13.2876997200000009 10.1196798900000005 20.5426803999999983
 11.4800319900000005 11.7046059000000007  1.3315065699999999
 10.0161088800000009 13.3705263300000006  2.9168580799999999
  9.8865500500000003 13.0563248099999996  6.5990837899999999
  8.3782680099999993 15.1847887999999998  8.3285874900000003
  6.8507813600000000 16.6876040600000017 10.2135562100000001
  5.0778599299999998 17.8320142699999984 11.9992584999999998
  3.6310229000000001 -0.1751139700000000 13.7472160599999995
  1.5600010200000001  1.8070357300000000 15.0156394599999992
  0.1310333100000000  3.4338208699999999 16.6619502900000001
 18.9421610700000009  4.8601333200000001 18.1550187299999983
 16.8257021900000012  6.4796348100000003 20.2447224100000014
 15.0371524099999991  8.6242245200000003  2.1224904400000000
 13.1071234699999994 10.0910837699999991  3.1472478900000000
 11.8600934599999999 11.5736358599999996  4.7380947999999998
  2.5734713899999999  3.5310764400000001 16.6901009299999998
  1.7025679700000000  4.9548952100000001 18.4303323500000005
 -0.1026322800000000  6.0928295900000000 -0.0550466500000000
 17.8896931600000002  8.4450125299999996  1.5036642300000000
 16.6774105400000003 10.1507156100000007  3.4272741899999999
 14.8906384700000007 11.7575143600000001  4.5760418999999999
 13.7314481300000004 12.8869352199999998  6.0845959900000004
 11.7147150300000007 14.4627793699999998  8.1846765700000006
 10.3937298699999996 16.5123916100000017 10.1272979500000009
  8.6574871600000005 18.4384038799999992 11.8222120400000001
  6.4218341299999997 19.8795255799999993 13.5796186500000005
  4.6839000300000002  1.9143815600000000 15.3107307400000003
  4.7658305900000002  1.7917290600000000 17.9609825500000007
  3.4302245800000000  3.5535618800000002 -0.0689543900000000
  1.6543646500000000  5.0570474399999998  2.0685846400000001
 -0.2139781700000000  6.9094149500000004  3.5050585100000000
 18.2580768499999984  8.4644298199999994  5.5963698700000002
 16.5607101400000012  9.6932529600000006  6.6458610100000000
 15.1253838199999997 11.5170488800000008  7.9713326400000000
 13.4542609300000002 12.7952206900000007 10.0190108799999997
 11.7833724400000008 14.5472970299999993 11.8733196400000001
 10.2668310500000004 16.6276218100000008 13.0190254599999999
  8.4951603900000006 18.5642178300000005 15.3832196900000007
  6.9002209700000003 20.3973205799999988 16.9333474700000011
  6.7605683499999998 -0.2392050000000000 -0.3820676400000000
  5.0717831300000000  1.9099101999999999  1.2872303300000001
  3.2359924300000000  3.2952139800000002  3.0860364200000001
  1.7693836900000000  4.9487459200000004  5.0110800199999996
  0.3195938400000000  6.7242981200000003  6.8904250899999999
 18.1816285499999992  8.4509050400000003  7.7005833399999997
 16.6961706899999989 10.3225528600000001  9.2379750999999999
 15.4777703300000002 11.4717269300000009 11.8256377500000003
 13.1994871099999997 12.9798384400000000 13.5366428299999999
 11.9916181000000002 14.4190403800000002 15.5190188300000003
 10.3742490400000005 16.1919914600000006 16.5846573100000008
  8.7938551000000000 17.9339516600000017 17.6727227300000003
  8.3480072199999995 17.9390168199999991  1.2939942600000001
  6.7788092600000001  0.2789029700000000  2.9058893800000001
  4.6361702500000002  1.4292751699999999  4.9137664599999997
  3.0987865399999999  3.0831187099999999  7.0965435299999999
  1.6520954000000001  5.0102999500000003  8.5728579200000006
 -0.2200072100000000  7.2331349100000004  9.7577763199999996
 17.6633444399999995  8.6308581199999992 11.4361862900000002
 17.0764407799999987  9.8935583299999994 13.2833548399999994
 15.6238334400000003 11.9464813200000002 14.8996753799999997
 13.5786593900000003 12.7828002299999994 17.1543181599999990
 11.9103997699999997 14.6988693500000007 18.5454684199999988
 10.0588487000000004 17.0607369700000007 19.5867657999999984
 10.2576456500000006 16.7355128399999984  3.4083544600000000
  8.4168170300000007 18.6008001900000011  4.8443277299999998
  6.7562614999999999  0.3192785500000000  6.8012997799999999
  5.0757880300000000  1.6914310800000001  8.3570859700000000
  3.1268822200000002  3.2203515299999999 10.0532089599999992
  1.6871755300000000  5.1976874999999998 11.4573308100000002
 -0.5487327200000000  7.4270717700000004 12.6207674799999996
 18.6258223299999983  8.4557304599999998 15.1775350000000007
 17.1221262900000006  9.8874523599999993 16.8020075200000001
 15.4071405000000006 11.5616312200000007 18.3581307500000008
 13.6055427299999998 13.0464619299999995 20.1407406199999990
 11.2786735799999995 15.0916879300000009  1.2952954400000001
 11.8366990199999993 14.9585690299999996  5.1191542300000004
  9.9512125299999994 16.7674215199999992  6.9952057900000000
  8.4379104300000005 18.5067096800000002  8.4841457699999996
  6.7293608799999998 -0.2741473400000000 10.1622553300000007
  5.0948095599999998  1.7284755500000000 11.6358113999999997
  3.0103728900000002  3.1806120700000000 13.0185621600000001
  1.3103465000000001  5.2323498099999997 14.6030774900000004
  0.1079285000000000  6.4913508400000000 16.7464629999999985
 18.5220468700000005  8.0512115200000007 18.5027025099999989
 16.6735523999999984  9.9232026500000003 20.4269238400000006
 15.0857941300000000 11.9131625200000002  1.7300679400000001
 13.5519717600000007 13.4887747400000002  2.9073287699999999
  4.5889339800000002  4.7674287900000003 15.1087394699999997
  3.4446740500000002  6.7283114700000004 16.6286194300000005
  1.5425404000000000  8.0826418699999998 18.3685125700000000
 -0.1692681700000000  9.8985726500000002 -0.1998391000000000
 18.6729496799999986 11.3064971700000001  2.5171992500000000
 17.1522501100000007 13.6155418400000006  3.3369090699999999
 14.6353500600000004 15.0924938100000006  4.7210371200000001
 13.3451511600000003 16.7675589100000018  6.8661935600000001
 11.9030710000000006 18.3725033800000013  8.4659345300000002
 10.0893455599999999  0.2620723100000000 10.1477658900000005
  8.2837344300000009  1.3030027500000001 11.6817627500000008
  6.3745837400000003  3.2878132099999999 13.2736927799999993
  6.6659328999999996  3.2941001000000001 16.5278335399999996
  4.7677365299999996  5.1738283100000002 18.6391097200000004
  3.3242149599999999  6.8458394199999999  0.0846443100000000
  1.2187868700000000  8.0734654900000002  1.7668272300000001
 -0.1821788600000000  9.1455205300000006  3.7714365999999999
 18.1365816600000009 11.2284993899999996  5.4598143300000004
 16.8197187700000015 13.6943039300000002  6.3758506500000003
 15.0139004299999996 14.8894921199999999  8.3798436800000005
 13.3741914000000008 16.7150865700000004 10.3609506200000006
 12.2646692500000007 18.2866683799999983 11.8256995800000002
 10.0312510699999997 20.0351965900000017 13.4737120800000003
  8.1820222800000000  1.7577383900000001 14.7617683599999996
  7.9395749000000002  1.5346876899999999 18.2867302599999988
  6.4289698199999998  3.1639289300000000 -0.5413116200000000
  5.1033030200000002  5.2055304900000001  1.3816255799999999
  2.9677384000000000  6.8159161399999997  3.2227720400000002
  2.0565846200000002  8.0237037200000003  5.1755192100000000
  0.2810254100000000 10.3048749399999995  6.5938883199999996
 18.5982776700000016 11.5721990800000007  7.7356739499999998
 16.5763090499999990 13.1620047800000002  9.4170036899999996
 15.1381516900000008 14.6338371400000007 11.9239429200000000
 13.4191874500000008 16.5543405399999983 13.4694992800000009
 11.3710934899999998 18.1060050500000003 14.7765909900000008
 10.3353698000000005  0.8111926200000000 16.6253469500000008
  9.6796202800000000  0.2945514400000000 -0.4837204900000000
  8.1922203699999994  1.6151212300000000  1.1911189700000000
  6.5642184400000003  3.2479042300000001  3.1138696000000001
  4.4986262899999998  4.6360564100000001  4.9675781199999998
  3.4624188100000000  6.5447207799999996  6.5904196500000003
  2.0585920999999998  8.8626258700000005  8.2037454899999993
 -0.4461259900000000 10.2587703900000005  9.6784195900000007
 17.8993085299999990 11.5975270199999994 11.7546047300000005
 16.7281355800000000 13.4725754200000001 13.6717778200000009
 15.0433024900000003 15.0747156499999999 15.2278544199999999
 13.6229413299999997 16.8516365599999993 16.8998509400000003
 11.7202428699999999 18.3025280499999994 17.6184845000000010
 11.6661716299999991 18.3798338600000015  1.2253093799999999
  9.9430081099999992 -0.1439909200000000  2.9570096200000000
  8.0148883699999995  1.2595102600000001  5.0130271500000001
  6.6163783199999999  3.5752011299999999  6.3363256999999997
  4.8266174399999997  4.9319202400000002  8.6583864500000001
  3.6653047600000002  6.8858545400000004  9.8556653700000005
  2.0111739300000000  8.2174248700000003 11.5490896500000009
 -0.0911962600000000 10.4365105899999993 13.1933473800000005
 18.2483525399999991 11.8101708900000002 15.2416938700000006
 16.8506150199999993 13.5859924500000009 17.0137076100000009
 15.1250135799999992 15.0675351699999993 18.4137211799999996
 13.0863698199999998 16.3840510100000003 -0.0311078900000000
 12.8805365700000003 16.7705180100000000  3.3123345500000001
 11.5204219499999994 18.5806471799999997  4.6153021799999996
  9.9106270199999997  0.1916053300000000  6.8024798999999998
  8.3155163000000005  1.9523833900000001  8.4672455699999993
  6.6109507399999998  3.6040632000000001  9.9420362099999995
  4.8604665699999998  4.8000999499999999 11.3349717299999995
  3.8945391599999999  6.4422556100000001 13.1649737800000004
  1.7310537600000000  8.1693134700000005 14.4609880799999999
 -0.2064961300000000  9.8070461000000009 16.4936131900000014
 18.3987438499999989 11.7686513300000009 18.5358218400000005
 17.1003699299999994 13.2044439199999992  0.6490774000000000
 15.2707467599999998 15.2261088900000008  2.0910518499999999
  6.3660437900000000  6.7215350000000003 13.4308162499999995
  5.2036007900000003  8.0638091099999993 15.4025997599999993
  3.2260463599999998  9.6354151300000002 16.6592754200000002
  1.3147721299999999 11.5341140200000005 18.3008856699999995
  0.3021308500000000 13.3042649500000003  0.5998718500000000
 18.3378846499999995 14.9532967100000000  1.8688898700000001
 16.6125362900000013 16.4715946500000001  2.8801000900000000
 14.6475493300000004 18.3351010099999989  4.6779022799999996
 13.2890747400000002  0.2398451700000000  6.7185471400000001
 11.1482823300000007  1.6068104999999999  8.6510718299999994
  9.9992014499999993  3.2556203500000001 10.2255663099999996
  8.4188639999999992  5.2033217199999999 11.8895625999999996
  8.3633429300000000  5.3231172300000003 15.0926721199999996
  6.5800638300000003  6.3554635599999996 16.6091322800000007
  5.3790240000000002  8.4291826000000007 18.3842715900000009
  3.0818183399999999  9.7085698899999997  0.0843567700000000
  1.5248599100000000 11.4112158499999996  2.0467778000000001
  0.2745255500000000 13.4960887799999991  3.9016421399999999
 18.7783710100000008 15.6328957499999994  5.0237774499999999
 16.3501288100000011 16.5566552400000013  6.7583339000000002
 14.8682750699999993 18.7028674899999992  8.6667099200000006
 13.1168501000000006  0.2844933100000000  9.9504597100000005
 11.6615236299999996  1.7244083900000000 11.9035493700000004
  9.7670370500000008  3.6749133999999999 13.3131939999999993
  9.9300951400000006  3.9327881800000002 16.7320335500000006
  8.3237923899999995  5.3955391900000000 18.2907582899999994
  6.8583345299999996  6.7037929600000004  0.1004445400000000
  5.0451723700000004  8.6315662700000004  1.7822044200000000
  3.2614778800000002 10.1625242799999995  3.3196234400000000
  2.1154283299999999 11.6083822699999999  4.8498007899999998
  0.2835916600000000 13.4283808400000009  6.2566891900000003
 18.4831704799999983 15.2010838600000007  8.3187415900000001
 16.6867030700000001 16.7860531199999983 10.1836473000000005
 14.6778572399999998 18.5530964599999990 11.8125495899999997
 13.5258569099999999 -0.2498542900000000 13.8103478899999992
 11.4689213300000006  1.8608608300000000 15.1447676199999997
 12.2220599199999995  2.0951969699999999 18.2978560200000011
 10.0122867800000002  3.2176441699999998 -0.2067907200000000
  8.2068331099999998  4.6803918400000004  1.5364085700000001
  6.5818659600000000  6.5847125599999998  3.5558913300000001
  5.1936413699999999  8.0651306399999996  4.7753432599999996
  3.7179748500000001 10.0827898999999999  6.4449786700000002
  1.5854428100000000 11.6284487399999996  8.2808617800000004
 -0.2237936000000000 13.2895623500000006  9.8596329399999991
 18.2791434399999986 15.0201203099999994 11.4326632299999993
 16.4591427699999997 16.8261623799999995 13.2888890499999999
 14.9420168899999997 17.9474594100000004 15.0903294900000002
 13.6113976000000001  0.1696219400000000 16.4809868500000007
 13.1838778699999999 -0.0281862500000000 -0.6055375200000001
 11.6360562800000000  1.2941541800000000  1.4515752700000000
  9.7179285300000000  3.0903144600000001  3.3781847200000001
  8.0826773799999998  4.8764212899999997  5.0714534200000001
  6.6921354700000002  6.3398548000000003  6.6364997099999998
  5.0816314699999996  8.2213190100000002  8.1167558100000008
  3.9382953199999999  9.9567346200000006  9.6833269800000004
  1.8761333700000000 11.2913813199999993 11.5257287300000009
 -0.3505435000000000 13.3658720599999992 13.0715291899999997
 18.3641143500000013 15.1808247200000004 14.8535221300000000
 17.1270727899999997 16.9067715800000009 16.9933271599999998
 14.9422210599999996 18.4117018799999990 18.1849681799999985
 14.6008622999999993 18.5774156899999987  1.5215103000000001
 13.1915661699999998  0.3008178800000000  3.3829998099999998
 11.5641691200000007  1.5966666700000001  5.0515074400000000
  9.8005066900000006  3.3094631799999998  6.0697409799999997
  8.1547625900000007  4.8527184500000002  8.1450536600000003
  6.8647156300000001  7.1363552900000000 10.0403087099999997
  5.0784827600000000  8.5140486899999992 12.1328358900000008
  3.6119462300000000  9.7570262299999992 13.4534193700000007
  1.5685115300000001 11.9927786500000000 14.6314419000000004
  0.0598203200000000 13.4372969300000005 16.4219087500000001
 18.5409218200000012 14.8863064000000005 18.7400202299999989
 16.4232287499999998 16.6048894800000006  0.1207947300000000
  8.5284367099999994  8.8159013200000000 11.5606825499999992
  6.7547611700000001  9.7781598400000007 13.6489583099999994
  5.6106451599999998 11.2737849600000004 15.4302149800000006
  2.8246550300000002 12.9912643899999996 16.6933714199999983
  1.5370249199999999 15.1653561000000003 18.4249193499999997
 -0.0051610600000000 16.5658710599999992  0.0013735600000000
 18.1361576599999985 18.3396956200000005  1.2947684699999999
 16.5031881100000000 20.1275546500000004  3.2228787699999999
 14.6633210700000003  1.7823999500000001  4.8315673600000002
 12.7384875100000006  3.4343923799999998  6.7168732400000000
 11.3311704500000001  5.3197882500000002  8.0482847000000000
  9.5250542100000004  7.0557330199999999  9.7645955900000008
  9.7397068499999992  7.1473947799999999 13.2377699700000004
  8.0194170600000003  8.6941130500000003 15.1838604099999994
  6.5435422699999997  9.8313170499999991 16.8662445199999986
  4.9013447899999996 11.6381821799999994 18.7331123599999998
  2.7824565099999998 13.3793482499999996  0.1837706800000000
  1.6824108700000000 15.1400279900000001  2.0233364300000001
 -0.0180908700000000 17.3492854399999992  3.1548774000000002
 17.7185295799999984 17.7691355100000017  4.8838452700000001
 16.0531593699999995 19.9768856799999988  6.7272888599999998
 14.4728641000000007  2.1664455999999999  8.3669898200000006
 12.7069587399999993  3.9688279999999998 10.4018936100000001
 10.9923857599999995  5.5688541300000001 11.4200283400000000
 11.6734072399999995  5.4071449100000004 15.0645109099999992
 10.0742142999999995  6.6852753600000003 16.9257186699999984
  8.5129618499999999  8.6105209200000008 18.2744148499999994
  6.8300378999999998 10.0190759699999994  0.1541887200000000
  5.0663528400000004 11.3702272900000008  1.7648593800000001
  3.3147181400000001 13.6552510799999993  3.0334649400000000
  1.9987744999999999 15.6206239900000003  4.6565103800000003
  0.2555373100000000 16.6845811700000013  6.7250981599999999
 18.2833912100000013 18.2402657800000014  7.9904063499999998
 16.6097749800000010  0.1338150700000000 10.2264780300000009
 14.8033010699999998  2.1939053999999998 11.5988633300000004
 13.0819119900000000  3.6318906599999998 13.2167859799999992
 13.4494924299999994  4.0038052899999999 16.4127754800000005
 11.4727305200000007  5.0389177900000002 18.2959498099999998
 10.0350257599999999  6.5742770500000001 -0.0963363400000000
  8.4535201400000002  7.8775233699999996  1.6995690900000000
  6.8034398600000001 10.0227536500000003  3.5493020600000000
  5.1982372400000001 12.1427326499999992  5.1052135300000003
  3.0546261700000001 13.5087317900000006  6.5462686500000000
  1.7163788900000001 14.8760343800000001  8.3314930999999994
 -0.0932173500000000 16.5755609300000017 10.2127585700000001
 18.2853355899999990 18.4120686099999986 11.8316703499999996
 16.6580188100000015 19.9606099800000010 13.2082337800000005
 15.0275785299999995  2.2630874200000002 15.3354152199999998
 15.1351393600000002  2.4757521300000001 18.1565528399999998
 13.7143369100000001  3.5712093100000000  0.0007807700000000
 11.1858147999999993  4.9716295600000002  1.6527778200000001
  9.7825694900000002  6.6154007000000004  3.6407118199999999
  8.1942817300000002  8.4839909000000002  5.3329708499999997
  6.4521552599999996 10.2644169999999999  6.4863777799999998
  5.1052208400000003 11.8689913899999997  7.8984786099999997
  3.4575627899999999 13.0943828700000005 10.1693496200000002
  1.4242581100000000 14.7306743499999993 11.6486707599999999
 -0.1575059400000000 16.8301863400000009 13.1851644399999994
 18.4567424399999993 18.7566857300000009 15.1002572599999993
 16.4659930000000010 20.2106963700000009 17.0927405199999995
 16.1512937799999996 -0.2703109200000000 -0.0649273600000000
 15.1241810500000007  1.8999145900000001  1.4632738000000001
 13.3410100600000003  3.1381658799999999  3.2034757699999998
 11.6070191200000004  4.9417874199999998  4.5576035299999997
  9.8803271200000005  6.7657268600000000  6.4655726600000003
  8.2634332700000002  8.6536466500000007  8.4019192700000005
  6.4004237699999997 10.1655252800000007  9.8469103400000009
  5.1798013999999997 11.7559780400000005 12.0843930799999999
  3.4707039800000001 13.3259818899999996 13.6449341499999992
  1.2848435100000000 14.8030761700000006 14.9643713700000003
 -0.1762341000000000 16.8722363199999990 16.9539976000000010
 18.3684582899999995 18.5000772200000014 18.4555263899999993
