Li                                      
   1.00000000000000     
    22.0829999999999984   -0.0000000000000006    0.0000000000000000
    -0.0000000000000006   22.0829999999999984    0.0000000000000000
     0.0000000000000006    0.0000000000000006   22.0829999999999984
   Li
   500
Direct
  0.9937003332880465  0.0088885060906563  0.0017537866231976
  0.0052973694697300  0.0991292772721124  0.0946167708191794
  0.0040201453606841  0.1982391704025730  0.1962340719105171
  0.9906965937599068  0.2958898261105816  0.2990794629352891
  0.9995180297061097  0.3972492342525911  0.4009554757052953
  0.0038888239822512  0.5022082918987465  0.4984356034053334
  0.9949429103835499  0.5843432599737355  0.5998784259385062
  0.9961812027351371  0.6909645981071435  0.7148153457410658
  0.0063359158628842  0.7924244871620729  0.8101890744011229
  0.0016140320608642  0.8919894978037419  0.9060316351944948
  0.0926508889190814  0.9938706638590773  0.1058848376579249
  0.0980603355522334  0.0954312357922404  0.2025295435402796
  0.0947465661368483  0.2273007426527158  0.3010684454104933
  0.1041602006067990  0.3089723864511171  0.3934266938368864
  0.1050442639134204  0.4075170678802706  0.4931422832042784
  0.0994257428791343  0.5115324013947387  0.5961597695059524
  0.1110684426934725  0.5919779001947205  0.7110017588190019
  0.1058700344156165  0.6829111506588745  0.8046535072227528
  0.0967621509758629  0.7784566109677158  0.8924715935334859
  0.0938438857945059  0.9037390105510994  0.9942067744418779
  0.1978769419915807  0.0065027188334952  0.2124234003532095
  0.1823974722637303  0.1156387587737200  0.3007205031019353
  0.1977666150432427  0.2157265720237262  0.3944828845718433
  0.2031389417198781  0.2928969447086018  0.5037544527464561
  0.2073231105375157  0.4156623991305537  0.5919455436308496
  0.2005264592673086  0.4957929103835497  0.7045719965584354
  0.1949008572204889  0.5988083498618835  0.7908764701354016
  0.2139615106643120  0.6652594330480497  0.9002579572521867
  0.1903836842820255  0.8004054571389787  0.9839632640492653
  0.1955026599646814  0.9013460743558426  0.0956714576823785
  0.2918556237830003  0.0223339858714837  0.3078106226509050
  0.3024173201104929  0.1098440157587319  0.4044235158266574
  0.2933497486754533  0.2096988941719857  0.4978280419327064
  0.3004500031698569  0.3117112525472052  0.6130861631118947
  0.3145733890322902  0.4088472875062266  0.7169000153964618
  0.3062274124892426  0.5041389240592338  0.8051077489471510
  0.2984353652130594  0.6001388140198358  0.8977165579857811
  0.2893867563283976  0.7136010048453585  0.0037373771679583
  0.2881365330797436  0.8092358316351920  0.0879927822306783
  0.2877894824072840  0.9017473567902883  0.2116557324638890
  0.4109813720961810  0.9929512389620996  0.4120375573970918
  0.4051871543721433  0.1038214142100244  0.5013642009690713
  0.3909782221618414  0.2079185943938811  0.5999980441968944
  0.3988321269754991  0.2918683326540759  0.7193704021192744
  0.4043893461033363  0.4263354594031625  0.8106575220758074
  0.3830562459810736  0.5026546782592973  0.9086420970882614
  0.4059015292306327  0.6017039270026743  0.0061467187429258
  0.3970220219173086  0.7082188325861551  0.1084166820631225
  0.3879292736494122  0.8155294217271205  0.1970549114703601
  0.4037614753430248  0.9112824548295038  0.2914053027215502
  0.5029075284155198  0.9736140329665375  0.4962822741475321
  0.4989140424761160  0.0935171589005108  0.5923938273785296
  0.5001338939455664  0.1907300081510641  0.6928458864284721
  0.5156405895938079  0.3005254046098784  0.7888595974278871
  0.5035436023185227  0.4124890993071588  0.8942029321197325
  0.4937546673912081  0.5034778648734317  0.9900623665262884
  0.4798358515600256  0.5862969111986587  0.1089584177874414
  0.4803193017253093  0.7057990956844620  0.2012212756418990
  0.4831379989131932  0.8133358823529449  0.2778069057646135
  0.5032033238237545  0.8936043399900342  0.3934691210433385
  0.5953330634424674  0.9896507924647935  0.6003780129511398
  0.5997666077978536  0.0951588570393511  0.6910438722093915
  0.6238253276275856  0.2100809745052743  0.7931391178734799
  0.5999291509305777  0.2932967762532286  0.8967511814517977
  0.6013054195535048  0.4034785735633761  0.9976390485894129
  0.6104312421319591  0.4893730326495529  0.1033319449350145
  0.5820691907802384  0.5923378408730713  0.1969847389394559
  0.5919581094054251  0.7070364633428454  0.2998628696282211
  0.5983574428293252  0.8051647412036402  0.3818436326586081
  0.6141889000588705  0.8907983113707374  0.5006595806729166
  0.7094886763573811  0.9877987796042191  0.7000074681881969
  0.6982320558800907  0.0901299841507068  0.7977326934746216
  0.6966640442874592  0.1978538273785233  0.8959872173164882
  0.7016820712765508  0.2926338934927344  0.0073543884436020
  0.6939609396368240  0.4014743005932147  0.0928052723814687
  0.7065468912738311  0.5021910809219747  0.1924388380201947
  0.7019300403024928  0.6015649083005030  0.2982679450255858
  0.6922028596658052  0.6824624145270093  0.3931706362360217
  0.6907917474980749  0.7820600140379455  0.4885341584023877
  0.7007424620748992  0.8980276044921425  0.5949932812570751
  0.8214205284608056  0.9811416139111557  0.8032320984467702
  0.7987946048996974  0.0916933469184471  0.9027454249875504
  0.8077035063170754  0.2012265425893247  0.0027922361092223
  0.7982474011683180  0.2776599687542429  0.1055838314540622
  0.7989975791332711  0.3968456754064178  0.2038958850699615
  0.7991843734999762  0.5104866938368886  0.2878721387492646
  0.7969339817959522  0.5960220477290221  0.3827519657655216
  0.8113098496581088  0.6959877263053045  0.4929802454376642
  0.8097206674817770  0.7798996173527115  0.6092939854186454
  0.8093225082642732  0.8948689643617271  0.7083844907847663
  0.8971247371281095  0.9784155680840456  0.8998382561246174
  0.8952236222433569  0.0933072580718175  0.9969855173662978
  0.9152855164606279  0.1868865244758382  0.0968918874247180
  0.9087218521034259  0.3010025943033128  0.1971253991758388
  0.9062327478150607  0.4096546329755952  0.3109596857311061
  0.9044460485441306  0.4982503966852363  0.3928489453425712
  0.8922197020332376  0.5947099402255134  0.4976565163247741
  0.9006166567042513  0.6788841144771993  0.6093116899877771
  0.9089952257392540  0.8054975456233322  0.6954083471448627
  0.9198137359054499  0.8965319607843156  0.7947238785491137
  0.0980161622062212  0.1022050595480692  0.0150772200335112
  0.0980274921885638  0.2072239673051683  0.1061057202372879
  0.0968932780872152  0.3209091568174642  0.2020632631435930
  0.0884525965674925  0.4004056695195430  0.3034225376986797
  0.1020261726214713  0.5072685246569790  0.4033942371960322
  0.0923373160349570  0.6175638151519252  0.5016527804193274
  0.0931687334148421  0.6957673092424059  0.6028172897704138
  0.1126519888602076  0.7899360182040454  0.7033961622062250
  0.1043187098673215  0.8960292238373384  0.8069436738667761
  0.1061018113480969  0.0099434546936550  0.8982251093601406
  0.2053845777294754  0.0997584852601534  0.1111885885069981
  0.1897257677851769  0.2046530915183595  0.2156905538196838
  0.1981549531313647  0.3184128465335334  0.2939210057510309
  0.1911741334963537  0.4015627863062079  0.4014753742698005
  0.1934167984422430  0.5148720635783164  0.5071117257618951
  0.2080529058551832  0.6004513458316367  0.6137481483494085
  0.2036966159489211  0.7003400316985946  0.7054430906126896
  0.2044595947108618  0.7876921804102679  0.8070895190870786
  0.2112294796902603  0.9117274908300530  0.8999526201150232
  0.2055834705429547  0.0049520232758198  0.9942957578227620
  0.3070542824797329  0.0982776905311766  0.2168584390707764
  0.3015398510166207  0.1959836797536596  0.2959921464474959
  0.2968194661051484  0.3060365534574103  0.3968920350495893
  0.3016586614137537  0.3959783928814034  0.4964649173572440
  0.2985207838608872  0.5056773898473921  0.6166685672236554
  0.3030055621971641  0.6131596608250689  0.6968698759226584
  0.3003668699904907  0.6998092863288505  0.8019049246026384
  0.3158501005298220  0.8173212575284126  0.8941190934202794
  0.3028936657157075  0.9133345288230785  0.9899389150024902
  0.3013121428247985  0.9928210392609671  0.1038784141647398
  0.4093008522392765  0.0982974056966910  0.3081171108997864
  0.4039852012860550  0.2084157904270256  0.4266456083865435
  0.3945607109541243  0.3095319068967086  0.5049190757596307
  0.3959130308382015  0.4025040456459692  0.6085667210071080
  0.4188061128469869  0.5159417493094267  0.6973435199021907
  0.3927844310102770  0.6030231761988887  0.7879056545759155
  0.4042229887243565  0.7009996119186681  0.8924781551419656
  0.3961455640085134  0.7990093614997988  0.0075904080061591
  0.3973815065887791  0.8940039677580032  0.1022813598695862
  0.3915700384911460  0.9920375193587816  0.2085679590635365
  0.5123176511343601  0.0976107530679684  0.4022510872616962
  0.5044211995652788  0.2069946628628330  0.5216099610560150
  0.4978435380156654  0.3084210501290556  0.6044729959697506
  0.5037160843182562  0.4025491577231364  0.6891720825974730
  0.4965870334646567  0.5098582851061906  0.8099469560295276
  0.4869901865688533  0.6025258551827193  0.9123336747724480
  0.5011061214508885  0.6970725653217400  0.0134530009509604
  0.4869230629896322  0.7891781546891252  0.1020439256441605
  0.5111493569714227  0.9040663582846520  0.2006770284834474
  0.5207616936104671  0.9971010655255199  0.2868863379069850
  0.5922991042883652  0.0739739066250067  0.5126953751754755
  0.6140650504913268  0.2046295498799964  0.5957199800751738
  0.6054823814699120  0.3111976434361239  0.6883148693565175
  0.6024777050219612  0.4150663342842904  0.7897368518770094
  0.5976990766653074  0.5135666770819185  0.8997987700946410
  0.5822815577593659  0.5998523044876123  0.0114145079925763
  0.5860326794366699  0.6938973110537532  0.1088986360548816
  0.6036339650409843  0.8015108698999214  0.2066725345288205
  0.6001588769641799  0.9029881392926669  0.3016107381243458
  0.6169899800751679  0.9926621994294251  0.3839835774124865
  0.7018418942172744  0.0934406022732404  0.5898240556083891
  0.7096243816510466  0.1994917660643907  0.7074353905719306
  0.7169641910066602  0.3045048557714054  0.7809029393651201
  0.6922967300638518  0.4076979228365687  0.9087944921432793
  0.6866376067563280  0.5137847783362801  0.0022864986641338
  0.6930808368428174  0.6056142942534990  0.1044240076076619
  0.7123550921523361  0.7011449789430770  0.1983825363401692
  0.7047297835439039  0.7739737544717684  0.3037626291717643
  0.7100068754245328  0.9012574618484805  0.4005046592401413
  0.6952161119413134  0.0007631952180418  0.4976046320699155
  0.8145179712901296  0.0854914178327206  0.7045949531313696
  0.8168815717973104  0.1927308187293377  0.8038456862745065
  0.7941947366752728  0.3078484585427717  0.9013158180500866
  0.7897586727346848  0.3877880745369708  0.0075084585427732
  0.7965828818548175  0.5123330321967146  0.0942696033147641
  0.8070202907213684  0.6203933215595683  0.1841659158628843
  0.8074000683783922  0.7034749807544287  0.2863317751211341
  0.7947269881809547  0.7832081515192684  0.3945515736086591
  0.7918581374813201  0.8933805366118719  0.5033083063895276
  0.7907229063080194  0.9967361273377691  0.5938097609020545
  0.8965221668251573  0.0949804922338444  0.8132316990445148
  0.9057681356699732  0.1972720296155401  0.9113528343069319
  0.9081444246705601  0.2973241362133763  0.0165105189512289
  0.8988304786487333  0.4029389688900977  0.1008113091518368
  0.9010600878503823  0.5164132894081419  0.1951363437938696
  0.9064271783725033  0.6149626939274526  0.2892224190553847
  0.8976208191821797  0.6942731825386019  0.4057388769641790
  0.8933906385002075  0.7967243522166356  0.5079063827378505
  0.8856705823484106  0.9108745836163550  0.6027119530860858
  0.9012896277679658  0.9948111474890169  0.7043287180183881
  0.9987852370601829  0.1137806484626154  0.9035595865597941
  0.0063703554770669  0.1963446791649659  0.0189211153375908
  0.9865821849386407  0.3020872508264247  0.0944640139473805
  0.9934383036725052  0.3979647004483056  0.1925745759181297
  0.0054223927908339  0.5083931829914405  0.2871548299596967
  0.0039336648100345  0.6122132962007001  0.3993543404428763
  0.9792441651949488  0.6948595218041049  0.5084148313182055
  0.0013163388126642  0.8085443304804585  0.6095468038762846
  0.0076244699542656  0.8968844581805016  0.6985470384458665
  0.0122991070053899  0.0054285830729555  0.8075235357514856
  0.2085733745415013  0.1987141651949429  0.0133617524792840
  0.2092353620432021  0.2895138794547876  0.1104172779966461
  0.2123895023321083  0.3989536226961903  0.1823022818457645
  0.2067192165919494  0.4970780627632081  0.2862641905538226
  0.1964473377711329  0.6002445713897586  0.4039248843001388
  0.2056598890549282  0.7040843608205378  0.4988747724493976
  0.2106936602816631  0.8049363329257773  0.5974246076167162
  0.2045186206584262  0.8921216207037119  0.7130624018475729
  0.1965209269573904  0.0158299846035419  0.7871419114250813
  0.1996692206674808  0.1181638957569149  0.8948682624643425
  0.3094500054340443  0.1925986799800725  0.1140683697867146
  0.3035678340805177  0.2801390214191883  0.2004388950776601
  0.3048025979260061  0.4014691477607215  0.2885691636100134
  0.2958661318661413  0.5013682891817268  0.4112396988633762
  0.2895278485712964  0.6146147919213902  0.5154897378073642
  0.2975676724176992  0.7120422044106363  0.6070687302449826
  0.2976730752162311  0.8016684309197117  0.7158008694470865
  0.2973150355477046  0.8913782416338378  0.8086170067472693
  0.3032387134900176  0.0065712742833881  0.8965131096318402
  0.3044032599737321  0.0948913675678114  0.9998104170628963
  0.4174177389847387  0.2072697550151688  0.1862583235973361
  0.4104105556310316  0.2911306855952560  0.3007695725218511
  0.4022642661776032  0.4023253674772462  0.4058366010052978
  0.3910834420142209  0.4943790250418871  0.5269608748811336
  0.3901170207852189  0.6058427790608150  0.6085466150432453
  0.3961497201467168  0.7019805615179067  0.6975075913598729
  0.4098370117284773  0.7923770339174965  0.7941022909025008
  0.4064100276230604  0.9162860829597435  0.8973699207535191
  0.3990792926685671  0.9885985681293334  0.9998977000407550
  0.3961229615541342  0.0866804170629010  0.1030954716297572
  0.5154293542544011  0.1968266983652569  0.2892100566046309
  0.5023829131005755  0.3099677670606340  0.4012513068876515
  0.5063336344699536  0.4140388153783476  0.4977975890956827
  0.4995276470588266  0.5122413621337714  0.6100678598922258
  0.4996997196938793  0.6090587968120289  0.7020215790427002
  0.4988676986822469  0.7016791233075210  0.7826913566997220
  0.4957803831001257  0.8033349381877457  0.8987822850156206
  0.5052856645383343  0.8861890404383459  0.9921314554181961
  0.5035783543902568  0.9913091704025732  0.1057366521758851
  0.5143356636326573  0.0770879807997105  0.2029483811076389
  0.5814918856133673  0.1938601286057136  0.4133136118281016
  0.6019041040619513  0.3126561345831647  0.5128308907304273
  0.6115418271973923  0.4298084123533954  0.6031128374767931
  0.6066814300593251  0.5074384639768112  0.7183918045555373
  0.5954782715210811  0.6114330086491861  0.7984695616537607
  0.5916182588416419  0.6945086174885660  0.8925496517683271
  0.5880094692750077  0.7907531100846796  0.9911415070416183
  0.5956379771770131  0.8930497781098552  0.0938390839107015
  0.6134047262600220  0.9980929914413821  0.2035692546302599
  0.6150603065706619  0.1054111651496612  0.2988199909432581
  0.6973381501607605  0.1900453647602234  0.5040584617126314
  0.7008186383190704  0.3186375139247417  0.6074988497939557
  0.7002989697957673  0.4163635321287842  0.7052828424579971
  0.7169389688900978  0.5095985002037793  0.8101845175021509
  0.7073058895983309  0.6069394833129564  0.9092136697912423
  0.6883551292849717  0.6965099130552943  0.0038016075714324
  0.7046194833129533  0.7943412810759440  0.0887494651994771
  0.7026886822442577  0.8953382158221288  0.2123244427840447
  0.7162915278721158  0.0034974573201083  0.3050303649866422
  0.7032462600190215  0.1049566621382994  0.4169924575465274
  0.7966409174478102  0.1986824041117572  0.6118609853733616
  0.7967521650138139  0.3115987863967788  0.7027931571797339
  0.7938016157225007  0.4064797844495800  0.7987806022732400
  0.8052753027215473  0.4920362165466656  0.9087724928678185
  0.7900978712131490  0.6043392437621691  0.9988748897341821
  0.8060329669881838  0.7097415364760238  0.0796388516053099
  0.8198907729927996  0.8055185749218836  0.1847262423583729
  0.8139098428655558  0.9078911062808501  0.3120382371054689
  0.7999430077435150  0.0122930869899918  0.4071371421455439
  0.8123739442104778  0.0982281356699701  0.5060263709640935
  0.9050606905764624  0.2028689299461135  0.7135644930489491
  0.8819109613730021  0.3093518874247181  0.8089745188606656
  0.8967846252773626  0.4026608612960203  0.9002997817325564
  0.9036302870986717  0.5033574183761260  0.0017827949101132
  0.9059398360729958  0.6064783322012417  0.0991104700448275
  0.9000337087352293  0.7150232971063701  0.1955987746230150
  0.8933352243807420  0.7923707376715114  0.2901195372005603
  0.9012778164198707  0.8959010139020975  0.4127521382964261
  0.8999839174930955  0.9937102513245506  0.5019098600733614
  0.9016576552098883  0.1072109975999638  0.6002772290902527
  0.9853043096499547  0.2029132785400520  0.8107569216139083
  0.0047387700946402  0.3114977883439778  0.9193657664266652
  0.9987441221754310  0.4089355880088732  0.0150479183081984
  0.0068431775573998  0.5175361558665017  0.0917794756147288
  0.9954911850744921  0.6121804818185907  0.1818294262554900
  0.0016564796449785  0.7047642272336176  0.2937663197935052
  0.9975819711995655  0.7987194502558523  0.4066702970610905
  0.9913132703889858  0.8906765688538698  0.5199442154598586
  0.9991764438708515  0.9949835941674579  0.6003286985463916
  0.9976570239550782  0.1055795204455947  0.7051433442014243
  0.0878882185391490  0.1856777702304910  0.9087708676357380
  0.1062685785445794  0.2933634130326510  0.0124481320472754
  0.0965224675089402  0.3890191423266742  0.0844609944301027
  0.1039528773264493  0.4797759942036848  0.1933810732237475
  0.0971008545034664  0.5970531725761887  0.2868792808948086
  0.0904962699814362  0.6924469347461866  0.3990826318887812
  0.1082624978490259  0.8005708413711901  0.5041696562966962
  0.1053846429380059  0.8947393374994306  0.6049342045917641
  0.0926604596295775  0.9873352678530978  0.6954493003667963
  0.0955791110809230  0.1119116537608136  0.7905279626862267
  0.2971829977810998  0.2788406172168649  0.9915131897839942
  0.3122609640900222  0.3964857052936637  0.0896485160530744
  0.3051846605986483  0.4903287891137964  0.1900639790789285
  0.2802429615541371  0.5906299909432562  0.2871933093329702
  0.3022662020558826  0.6965189584748472  0.3924652415885532
  0.2993179767241756  0.7927390694199161  0.4779662138296459
  0.2993751301906471  0.8810295992392341  0.5972531431417849
  0.2970965290042145  0.9913493746320725  0.7035125069057671
  0.2984022877326424  0.1057130466874980  0.7893342765928537
  0.3003816591948549  0.1902249630937831  0.8866887103201577
  0.3950902784947701  0.3191333247294281  0.0860471584476770
  0.4031272399583372  0.3882512770004070  0.1872159466557974
  0.4069417040257193  0.5031411769234282  0.2823291015713423
  0.3911732690304746  0.6019799778109842  0.4038598985645052
  0.4012846320699168  0.7114316564778349  0.5015029819318002
  0.4054125390571954  0.7952150663406243  0.6023984051080049
  0.4068975863786619  0.8964560046189405  0.7005853267219138
  0.4125742059502784  0.0031797101843054  0.7915798175066797
  0.4067657872571644  0.0932837078295492  0.8985173187519848
  0.4014850033962745  0.1878042978761911  0.9977351673232775
  0.5063138676810226  0.3178341543268601  0.1858773576959649
  0.4974928406466503  0.3898147398451286  0.3023348756962392
  0.4918159892224807  0.4956204369877284  0.3915898904134423
  0.5112035923561109  0.5910721636552978  0.4909686858669531
  0.5009011017524827  0.6986255200833256  0.6060858316351911
  0.4971497849024118  0.8064124521124825  0.7036117733097882
  0.5011585554498907  0.8942178476656224  0.7896903015894594
  0.5018020608612943  0.9892039251913261  0.9017062527736286
  0.4970349227912862  0.0812654281574083  0.0005252968346667
  0.5104164370782982  0.1950644880677430  0.0982868591224033
  0.6013240705520104  0.2998106756328411  0.3047277561925483
  0.6066887682832984  0.3944707612190399  0.3938608246162190
  0.6141175125662244  0.5041104252139661  0.4959846293528969
  0.6050950436987748  0.5833120907485423  0.6096810043925203
  0.6053548625639635  0.7024880283475952  0.6981615278721165
  0.6027314862111126  0.7970639274555111  0.8092975438119794
  0.5974481587646636  0.8911743069329319  0.8971593461033365
  0.6015321758818999  0.9855629325725701  0.9894460969976890
  0.6069194941810423  0.1019336122809378  0.0869217298374281
  0.6009524783770317  0.2131677666077962  0.1893237259430336
  0.6911749214327756  0.3006969786713753  0.3945329633654850
  0.7016376601910963  0.4158984585427703  0.4996903165330764
  0.7049491228546856  0.5131518856133681  0.6062896005977478
  0.7040363188878302  0.6002207847665630  0.7075004682334836
  0.7144099769053085  0.7046933414844005  0.7968425884164319
  0.6991299456595570  0.7868591971199592  0.8912210324684153
  0.7036144341801389  0.8907676289453406  0.9808088099442998
  0.6939260009962425  0.9874098605261992  0.0802318539147748
  0.6939316569306726  0.1048776733233723  0.1968498396956946
  0.6933197292034592  0.1940112389620978  0.2949351464927759
  0.7832160906579730  0.3005302291355321  0.4932193773490923
  0.8052841778743840  0.4109701910972277  0.6116739097948667
  0.8046349603767595  0.4952586419417671  0.7030109278630619
  0.7990947851288297  0.6032301553230965  0.8006781786894877
  0.7983713091518396  0.6936606919349728  0.8997317465924013
  0.8016535289589299  0.7938787293393119  0.9923470864465855
  0.8128735937146203  0.8912344907847682  0.1009527600416575
  0.8023492487433757  0.0031107340488177  0.2048154177421537
  0.8140443975003393  0.1057377901553238  0.3024068853869508
  0.7848886759045399  0.2003695494271582  0.4022327260788856
  0.8844434795996889  0.3086891550061139  0.6005555621971652
  0.9022785432232965  0.4021282008785008  0.7098130403477825
  0.9038215233437512  0.4909776475116630  0.7986201521532408
  0.9023500158492936  0.6047817533849553  0.8982512299053553
  0.9088137535660934  0.6880810650726801  0.9892459874111310
  0.9117037916044026  0.7974081383869915  0.0782506443870830
  0.9061564253045304  0.9004615296834686  0.1994539238328130
  0.8966485540913851  0.0066015532309933  0.3013042516868154
  0.8920279604220411  0.1092481329529491  0.4208591260245456
  0.8751392424036624  0.2079799375084903  0.5035416913462853
  0.9799428682697098  0.3029462065842523  0.7034299696599220
  0.0048939451161516  0.3977718018385161  0.8051963080197453
  0.9988337993026306  0.4978975297740362  0.8823663329257769
  0.0039349984150689  0.5982896649006051  0.9837866390436076
  0.9901186233754444  0.7173180197436935  0.0896971724856215
  0.0022210668840259  0.8050740660236357  0.2116182733324266
  0.9985322365620632  0.8991318031970295  0.3217108187293363
  0.9861584173346003  0.0118185038264755  0.4177815527781519
  0.0019406575193557  0.1032015577593626  0.5103294882941611
  0.9891443725943034  0.2080688366616883  0.6024879866865902
  0.1043003206086155  0.3020488946248250  0.8168496363718702
  0.1075761934519761  0.3998924779241975  0.9070361060544343
  0.1098366322510529  0.5117844074627556  0.0024610107322403
  0.0995375288683604  0.6134006987275313  0.0924299873205641
  0.1004015174568664  0.7094295612009205  0.1935103726848695
  0.0843530163474142  0.8082266698365288  0.3057199832450337
  0.0853434275234335  0.9024720305212171  0.4068965783634440
  0.0953930847258064  0.9976970284834508  0.5060174763392666
  0.1025532631435979  0.1194942584793708  0.6089927627586817
  0.0828632604265707  0.2245992659511842  0.7010964719467481
  0.2052517714984390  0.2961430498573563  0.9039462432640519
  0.2079799692070807  0.3832342421772381  0.0013453978173246
  0.2008162998686771  0.4923081700855860  0.0914750998505625
  0.1942093393107811  0.5982472698455794  0.1828891486663977
  0.1791275922655444  0.6928061282434470  0.2960478263822850
  0.1918866304397042  0.7860699067155750  0.3963629805732936
  0.1951354417425151  0.8939480894805953  0.4949506951048335
  0.2047973998098058  0.9887859548068647  0.6147345401439992
  0.1969160657519353  0.0938510270343684  0.6913426694742597
  0.2050998229407242  0.2105442186297140  0.7914965258343543
  0.3914879477426041  0.3972554209120105  0.9907164474935470
  0.3899822995064071  0.5012398768283290  0.1017407598605260
  0.4128110501290578  0.5988815826653990  0.2034272245618780
  0.4046996114658370  0.6850181981614796  0.2926423049404505
  0.3840889965131566  0.7913951750215062  0.3744033111443201
  0.3917485246569754  0.8798595159172180  0.4944094058778248
  0.3946972440338712  0.9992656921613943  0.5987251759271857
  0.3981851478512866  0.0996757750305690  0.7015205633292609
  0.4028735674500723  0.2006940497215055  0.7991035873749013
  0.4057739319838802  0.3049979658560886  0.8904008780509898
  0.4845358642394615  0.4094615120228227  0.0982931675949814
  0.5052444350858138  0.4830192337997588  0.2060762020558826
  0.5059278784585430  0.5908062871892383  0.2897782873703747
  0.4863391848933603  0.6854632192184056  0.4041917388941698
  0.4921303360050686  0.8017391962142852  0.5017376778517431
  0.4873830530272159  0.8978787882081249  0.6019955744237677
  0.4975240451931384  0.0054171462210775  0.6957701163791157
  0.4955966521758839  0.1140393995381075  0.7986976769460696
  0.4967638092650475  0.1996779382330303  0.8990317402526813
  0.4988313086989962  0.3074181651043801  0.9991643893492750
  0.5946160648462637  0.3911688873794290  0.2021449187157529
  0.6092193420278065  0.5002811828103049  0.3036918081782360
  0.5985503803831023  0.5989394199157729  0.3926868731603506
  0.5806625648689021  0.6903436050355509  0.5026161386586949
  0.6029326359643150  0.7876813634922826  0.6032563483222404
  0.6095518009328416  0.8988184712222065  0.6910512570755785
  0.5895936331114413  0.9967606276321135  0.7842408785038231
  0.5866883045781819  0.0894965688538676  0.8886408218992017
  0.5803216750441536  0.1978954693655766  0.9954022397319235
  0.6031858655979718  0.3094028533260911  0.0827586881311433
  0.7134215985146923  0.3916070579178523  0.2976073844133467
  0.7103149150930577  0.4965071643345595  0.3995103083820126
  0.6926803600054328  0.6000681488022437  0.4926406996331991
  0.6997119471992050  0.6921459539011892  0.5914679337046564
  0.7080459923923357  0.7959536770366356  0.6883881134809613
  0.6950849137345472  0.8789116877235870  0.8008148689036787
  0.7039720101435520  0.9849509269573886  0.8822393528958941
  0.7060281891047424  0.0931656749535819  0.9806273228275160
  0.6900803151745691  0.1969998786396800  0.0864992944799141
  0.6923886917538411  0.2984555372911259  0.1861494167459128
  0.8039792559887715  0.4064159534483522  0.3870083928814054
  0.8083286356020452  0.5042941276094766  0.5045254286102434
  0.7982896572023748  0.6012805108001658  0.5874387678304558
  0.7996533591450472  0.6857247679210232  0.6961492220259942
  0.8032085500158459  0.7913796409002387  0.7937813589639120
  0.8147747973554331  0.8769562808495195  0.8910922832042729
  0.8147632875967972  0.9821211384322766  0.9947414110401667
  0.7969728460806991  0.0939912308110280  0.0928662074899265
  0.7931704369877295  0.1851989888149248  0.1963662713399472
  0.8089375093963653  0.2759245917674207  0.2905313865869701
  0.8951126631345403  0.4166989883620857  0.4943915935334857
  0.9054782194448237  0.5056988792283690  0.5971696680704639
  0.8984829556672551  0.5894560902051325  0.7081683195218034
  0.8971173622243356  0.7019467771589021  0.8070632785400562
  0.8968349218856133  0.7899073658470286  0.8994752139654949
  0.9038279481954419  0.8872667807815944  0.9967194221799573
  0.8970445025585292  0.0057111456776724  0.0926350160757110
  0.8963555689897191  0.1008527998913209  0.1944664674183727
  0.8986424584522013  0.2045261776026805  0.3027514395689010
  0.8868118629715198  0.2929290309287680  0.4030907720871255
  0.9948052601548696  0.4092255599329775  0.5897698401485272
  0.0054599954716323  0.5147280609518603  0.7114520092378740
  0.9901224498483003  0.5980605900466429  0.8007421070506737
  0.9938284001267945  0.6839660906579752  0.8929425372458439
  0.0061650676991363  0.7969759928451765  0.9970235036000545
  0.9956672381469929  0.9058160182040496  0.0969128501562295
  0.9964182783136337  0.9894578626092496  0.2092434990716825
  0.9922939111533751  0.1126426024543790  0.2945636756781269
  0.9801533917493117  0.2087078866096093  0.4170114934565063
  0.9869006860480880  0.3042057274826817  0.5044725105284584
  0.0985887655662694  0.4008621373907530  0.6987365883258647
  0.0917980288004330  0.4905614092288175  0.8094861200923802
  0.1130147873930198  0.5993184934112179  0.8951368038762837
  0.0835991681383845  0.6894588239822497  0.9941115382873704
  0.1081818702169102  0.7909029149119249  0.0891925136983218
  0.1009301322284131  0.8992525300004530  0.2031600887560572
  0.0867783312955694  0.0069238871530146  0.3105671362586619
  0.0863887252637809  0.1171920613141353  0.4108457809174482
  0.0981566259113364  0.1894071077299273  0.5187603622696173
  0.1035603355522312  0.2978243024045639  0.5970726001901951
  0.1952935579404951  0.4106525195851987  0.8082824788298666
  0.2017500969071264  0.5028331811800939  0.8975029851016600
  0.2017743313861331  0.6061591975727936  0.0062719820676520
  0.2105334755241586  0.7137183027668357  0.0848900090567426
  0.2092766476475134  0.8009628306842345  0.2069753615903664
  0.1944045913145871  0.9073272684870730  0.3202877027577742
  0.1847306176697003  0.0076823724131714  0.4071753620431977