Li 
 1.0000000000000000
    22.0829999999999984   -0.0000000000000006    0.0000000000000000
    -0.0000000000000006   22.0829999999999984    0.0000000000000000
     0.0000000000000006    0.0000000000000006   22.0829999999999984
 Li 
 500
Cartesian
 -0.1391155400000000  0.1962848800000000  0.0387288700000000
  0.1169818100000000  2.1890718300000001  2.0894221499999999
  0.0887768700000000  4.3777156000000002  4.3334370099999999
 -0.2054471200000000  6.5341350299999998  6.6045717799999997
 -0.0106433500000000  8.7724548400000000  8.8542997700000008
  0.0858769000000000 11.0902657100000006 11.0069534299999994
 -0.1116757100000000 12.9040522099999997 13.2471152799999992
 -0.0843305000000000 15.2585712200000003 15.7852672799999993
  0.1399160300000000 17.4991099500000011 17.8914053300000013
  0.0356426700000000 19.6978040800000009 20.0078965999999987
  2.0460095800000002 -0.1353541300000000  2.3382548700000001
  2.1654663900000002  2.1074079800000001  4.4724599100000004
  2.0922884200000000  5.0194823000000000  6.6484944800000001
  2.3001697100000000  6.8230372099999999  8.6880416799999995
  2.3196924800000001  8.9991994099999992 10.8900610400000009
  2.1956186799999999 11.2961700199999999 13.1649961900000001
  2.4527244200000000 13.0726479700000002 15.7010518399999999
  2.3379279700000000 15.0807269399999999 17.7691634000000001
  2.1367985799999998 17.1906573400000013 19.7084502000000015
  2.0723545300000001 19.9572685700000001 21.9550681999999995
  4.3697165099999999  0.1435995400000000  4.6909459499999997
  4.0278833799999996  2.5536507099999999  6.6408108700000001
  4.3672801600000000  4.7638898899999997  8.7113655399999992
  4.4859172500000000  6.4680432300000001 11.1244095800000000
  4.5783162500000003  9.1790727600000004 13.0719334400000005
  4.4282257999999999 10.9485948400000002 15.5590633999999994
  4.3039956300000002 13.2234847900000005 17.4649250900000013
  4.7249120400000004 14.6909240600000004 19.8803964700000009
  4.2042428999999997 17.6753537099999996 -0.3541392400000000
  4.3172852400000004 19.9044253600000012  2.1127128000000002
  6.4450477399999997  0.4932014100000000  6.7973819799999999
  6.6782816800000004  2.4256853999999999  8.9308844999999994
  6.4780424999999999  4.6307806800000000 10.9935366499999994
  6.6348374200000002  6.8835195899999997 13.5387817399999992
  6.9467241499999997  9.0285746499999995 15.8313030399999999
  6.7624199500000000 11.1328998600000002 17.7791944199999996
  6.5903481700000004 13.2528654299999999 19.8242747500000007
  6.3905277399999996 15.7584509900000000  0.0825325000000000
  6.3629190600000003 17.8703548699999999  1.9431446100000000
  6.3552551399999997 19.9132868800000011  4.6739935399999997
  9.0757016400000001 -0.1556577900000000  9.0990253800000005
  8.9477479300000002  2.2926882900000001 11.0716256499999997
  8.6339720799999995  4.5914663200000003 13.2497568099999992
  8.8074098599999999  6.4453283900000002 15.8858565899999995
  8.9301299299999997  9.4147659499999996 17.9017500600000012
  8.4590310800000008 11.1001232600000002 20.0655434300000017
  8.9635234700000002 13.2874278199999996  0.1357379900000000
  8.7674373100000000 15.6395964799999998  2.3941655900000001
  8.5666421499999998 18.0093362200000016  4.3515636100000004
  8.9162646599999995 20.1238504499999991  6.4351032999999997
 11.1057069500000001 -0.5826813100000000 10.9594014600000005
 11.0175187999999995  2.0651394199999999 13.0818328899999994
 11.0444567800000009  4.2118907700000001 15.3001157100000000
 11.3868911399999995  6.6365025099999997 17.4203864899999985
 11.1197533699999997  9.1089967800000000 19.7466833500000014
 10.9035843200000002 11.1183016899999991 -0.2194527600000000
 10.5962151099999993 12.9471946899999999  2.4061287400000002
 10.6068911400000001 15.5861614300000006  4.4435694300000002
 10.6691364300000000 17.9608962900000009  6.1348098999999996
 11.1122390000000006 19.7334646400000011  8.6889786000000004
 13.1467400399999992 -0.2285415500000000 13.2581476600000006
 13.2446459999999995  2.1013930400000000 15.2603218300000005
 13.7759347099999996  4.6392181600000004 17.5148911399999996
 13.2482354400000002  6.4768727100000003 19.8029563400000015
 13.2786275800000002  8.9100173399999996 -0.0521368900000000
 13.4801531200000007 10.8068246800000001  2.2818793400000001
 12.8538339399999995 13.0805965400000002  4.3500139899999999
 13.0722109300000007 15.6134862200000004  6.6218717500000004
 13.2135274099999993 17.7804529799999997  8.4322529399999997
 13.5631334799999994 19.6714991099999992 11.0560655200000006
 15.6676384399999993 -0.2694395500000000 15.4582649199999995
 15.4190584899999994  1.9903404400000000 17.6163310700000011
 15.3844320900000007  4.3692060699999997 19.7860857199999991
 15.4952451799999995  6.4622342699999997  0.1624069600000000
 15.3247394299999993  8.8657569800000005  2.0494188300000000
 15.6026749999999996 11.0898856400000003  4.2496268600000002
 15.5007210799999999 13.2843578699999991  6.5866510299999996
 15.2859157499999991 15.0708175000000004  8.6823871599999993
 15.2547541599999992 17.2702312900000017 10.7882998200000007
 15.4744957900000006 19.8311435899999999 13.1392366299999992
 18.1394295300000010 -0.4164497400000000 17.7377744300000018
 17.6397812599999995  2.0248641799999998 19.9353272200000013
 17.8365165300000008  4.4436857400000003  0.0616609500000000
 17.6276973599999991  6.1315650899999996  2.3316077499999999
 17.6442635400000007  8.7635430499999991  4.5026328299999996
 17.6483885200000010 11.2730776600000002  6.3570804399999998
 17.5986931200000001 13.1619548799999997  8.4523116599999994
 17.9161554099999982 15.3694969599999993 10.8864827599999998
 17.8810615000000013 17.2225232499999983 13.4550390800000006
 17.8722689499999987 19.7613913399999994 15.6432547100000008
 19.8112055699999985 -0.4766490100000000 19.8711282099999984
 19.7692232499999996  2.0605041800000001 22.0164311800000014
 20.2122500599999988  4.1270151200000003  2.1396635499999999
 20.0673046600000013  6.6470402899999996  4.3531201900000003
 20.0123377699999985  9.0464032599999999  6.8669227399999997
 19.9728820899999988 11.0028635099999992  8.6752832600000005
 19.7028876799999999 13.1329796099999996 10.9897488499999998
 19.8883176299999995 14.9917978999999999 13.4554300500000004
 20.0733415700000002 17.7878022999999992 15.3567025299999997
 20.3122467299999983 19.7981152899999984 17.5498874100000002
  2.1644909100000000  2.2569943299999999  0.3329502500000000
  2.1647411100000000  4.5761268700000004  2.3431326200000000
  2.1396942600000002  7.0866369100000002  4.4621630400000001
  1.9532986900000000  8.8421584000000006  6.7004799000000004
  2.2530439699999998 11.2020108300000008  8.9081549399999993
  2.0390849499999999 13.6376617299999996 11.0779983499999997
  2.0574451400000000 15.3646294900000004 13.3120142099999992
  2.4876938700000002 17.4441570900000009 15.5330974499999996
  2.3036700699999999 19.7870133499999987 17.8197371500000017
  2.3430463000000001 22.3025813100000008 19.8355050900000016
  4.5355076299999997  2.2029666300000001  2.4553775999999998
  4.1897141299999996  4.5193542200000003  4.7630945000000002
  4.3758558299999999  7.0315108899999998  6.4906575699999998
  4.2216983900000002  8.8677110100000007  8.8657806899999994
  4.2712231599999999 11.3699197800000000 11.1985482399999992
  4.5944323200000001 13.2597670700000005 13.5534003599999995
  4.4982323700000002 15.4656089199999993 15.5782997699999992
  4.5150812299999998 17.3946064199999988 17.8229578500000017
  4.6645805999999999 20.1336781800000004 19.8736537099999993
  4.5398997799999998 22.1923555300000004 21.9570332199999996
  6.7806797200000002  2.1702662400000001  4.7888849100000002
  6.6589045300000000  4.3279075999999996  6.5363945699999997
  6.5546642700000000  6.7582052099999999  8.7645668099999998
  6.6615282200000001  8.7443908500000003 10.9634347699999992
  6.5922344700000002 11.1668737999999994 13.6178919700000005
  6.6912718299999998 13.5404047900000002 15.3889774700000004
  6.6330015900000001 15.4538884700000008 17.7084664499999995
  6.9749177700000002 18.0489053300000002 19.7448319400000010
  6.6888008200000000 20.1691664000000017 -0.2221789400000000
  6.6538760500000000 21.9244670100000008  2.2939470200000001
  9.0385907200000002  2.1707016100000001  6.8041501599999998
  8.9212051999999993  4.6024459000000002  9.4216149700000003
  8.7130841799999992  6.8353931000000001 11.1501279499999999
  8.7429474599999999  8.8884968400000002 13.4389789000000004
  9.2484953900000004 11.3935416499999995 15.3994369500000001
  8.6738585900000000 13.3165607999999995 17.3993205700000004
  8.9264562600000001 15.4801744299999999 19.7085951000000001
  8.7480824899999998 17.6445237299999995  0.1676189800000000
  8.7753758099999999 19.7422896200000011  2.2586792700000000
  8.6470411600000006 21.9071645400000001  4.6058062399999997
 11.3135106899999993  2.1555382600000002  8.8829107599999997
 11.1391333499999998  4.5710631399999997 11.5187127700000005
 10.9938788499999998  6.8108620499999999 13.3485771700000004
 11.1235622900000006  8.8894930500000005 15.2189870999999997
 10.9661314599999997 11.2592005099999994 17.8860586300000008
 10.7542042900000006 13.3055784599999996 20.1470645399999988
 11.0659264799999999 15.3934534599999999  0.2970826200000000
 10.7527220000000003 17.4274211900000005  2.2534360100000002
 11.2877112499999992 19.9644973899999982  4.4315508200000000
 11.4999804799999996 22.0189828299999988  6.3353109999999999
 13.0797411199999996  1.6335657800000001 11.3218519700000009
 13.5603985100000006  4.5188343499999997 13.1552843199999998
 13.3708674300000006  6.8721775599999999 15.2000572599999995
 13.3045151599999993  9.1659098599999993 17.4397589000000011
 13.1989887100000001 11.3410929300000003 19.8702562399999998
 12.8585236399999996 13.2465384400000001  0.2520665800000000
 12.9413596599999998 15.3233343200000007  2.4048085800000001
 13.3300488500000007 17.6997645400000003  4.5639495800000001
 13.2533084799999994 19.9406870800000000  6.6604699299999996
 13.6249897299999994 21.9209593500000004  8.4795093399999999
 15.4987745500000003  2.0634488200000001 13.0250846199999994
 15.6706352199999994  4.4053766699999999 15.6222957299999994
 15.8327202299999996  6.7243807300000000 17.2446796099999986
 15.2879886900000006  9.0031932300000008 20.0689087700000002
 15.1630182700000002 11.3459092600000009  0.0504927500000000
 15.3053041200000006 13.3737804600000008  2.3059953599999998
 15.7309374999999996 15.4833845700000001  4.3808815499999998
 15.5625478099999999 17.0916624199999987  6.7079901399999997
 15.6790818299999994 19.9024685300000002  8.8443443899999998
 15.3524574000000005 22.0998536399999992 10.9886030899999998
 17.9870003599999997  1.8879069799999999 15.5595703499999996
 18.0391957500000011  4.2560746700000003 17.7513242899999995
 17.5382023700000005  6.7982175099999997 19.9037572099999984
 17.4402407699999991  8.5635240499999998  0.1658092900000000
 17.5909397799999994 11.3138503499999992  2.0817556499999998
 17.8214290800000015 13.7001457200000001  4.0669359199999997
 17.8298157099999983 15.5348380000000006  6.3230645900000004
 17.5499560800000012 17.2955856099999998  8.7128823999999998
 17.4866032500000017 19.7285223899999984 11.1145573300000002
 17.4615339399999989 22.0109239000000017 13.1131009499999998
 19.7978990099999983  2.0974542100000000 17.9585956099999997
 20.0020777400000007  4.3563582299999997 20.1254046399999993
 20.0545533300000010  6.5658089000000004  0.3646017900000000
 19.8488734600000001  8.8981012499999999  2.2262161400000000
 19.8981099199999996 11.4039546699999992  4.3091958799999999
 20.0166313799999998 13.5802211699999997  6.3868986799999998
 19.8221605499999995 15.3316346899999996  8.9599316200000008
 19.7287454699999998 17.5940638699999994 11.2160966500000008
 19.5582634700000000 20.1148434300000005 13.3096880599999992
 19.9031788499999998 21.9684145700000002 15.5536910800000001
 22.0561743899999989  2.5126180599999999 19.9533063499999983
 22.2236765600000012  4.3358795499999996 22.5008349900000013
 21.7866943900000010  6.6709927599999999  2.0860488199999998
 21.9380980600000015  8.7882544800000009  4.2526243600000004
 22.2027427000000017 11.2268466599999996  6.3412401100000002
 22.1698671199999993 13.5195062200000002  8.8189419000000004
 21.6246489000000004 15.3445828199999994 11.2273247200000004
 22.1120687099999991 17.8550844499999997 13.4606220699999994
 22.2513711699999988 19.8058994900000016 15.4260142499999997
 22.3546011799999995 22.2028794000000005 17.8325422399999987
  4.6059258300000003  4.3882049099999998  0.2950675800000000
  4.6205445000000003  6.3933350000000004  2.4383447500000002
  4.6901973799999999  8.8100928500000002  4.0257812900000003
  4.5649804600000001 10.9769748600000003  6.3215721199999999
  4.3381465600000002 13.2552008699999995  8.9198732199999995
  4.5415873299999996 15.5482949399999999 11.0166515999999994
  4.6527481000000002 17.7754090399999995 13.1929276099999999
  4.5163846999999997 19.7007217499999996 15.7465570199999991
  4.3397716300000004  0.3495735500000000 17.3824548300000004
  4.4092954000000004  2.6094133099999999 19.7613758399999995
  6.8335844699999999  4.2531566500000002  2.5189718100000000
  6.7036884800000003  6.1863100099999997  4.4262921200000003
  6.7309557699999996  8.8656431900000001  6.3724728400000004
  6.5336117900000001 11.0717159299999999  9.0814062700000004
  6.3936434799999997 13.5725384499999997 11.3835598800000000
  6.5711869099999998 15.7240280000000006 13.4058987700000003
  6.5735145199999998 17.7032439599999982 15.8070305999999992
  6.5656079299999996 19.6843057100000003 17.8566893600000007
  6.6964205100000003  0.1451134500000000 19.7976990000000015
  6.7221371899999998  2.0954860700000002 22.0788134400000011
  9.2178359299999997  4.5771379999999997  4.1131425600000000
  9.0630962999999998  6.4290389299999999  6.6418944700000004
  8.8832017899999993  8.8845510900000004  8.9620896600000002
  8.6362956499999992 10.9173720099999993 11.6368770000000001
  8.6149541700000007 13.3788260900000004 13.4385349000000005
  8.7481742699999998 15.5018367399999999 15.4030601399999991
  9.0504307300000004 17.4980620400000006 17.5361608900000014
  8.9747526400000002 20.2343455699999986 19.8166199600000006
  8.8128680199999998 -0.2517778200000000 -0.0022590900000000
  8.7475833600000001  1.9141636500000001  2.2766573000000001
 11.3822264299999993  4.3465239799999997  6.3866256799999999
 11.0941218700000004  6.8450182000000002  8.8608326099999992
 11.1813656500000000  9.1432191599999992 10.9928641599999999
 11.0310690299999994 11.3118259999999999 13.4721285500000008
 11.0348689100000001 13.4498454100000000 15.5027425300000008
 11.0164953899999993 15.4951800800000008 17.2841732300000004
 10.9483181999999992 17.7400454399999994 19.8478092000000004
 11.1582233300000002 19.5697125800000009 -0.1737610700000000
 11.1205207999999995 -0.1919195900000000  2.3349824899999998
 11.3580744599999992  1.7023338800000001  4.4817090999999998
 12.8410853100000004  4.2810132200000002  9.1272044900000004
 13.2918483300000005  6.9043854199999997 11.3248445600000007
 13.5046781700000000  9.4914591700000006 13.3185407900000001
 13.3973460200000005 11.2057635999999992 15.8642462200000001
 13.1499466700000003 13.5022751299999992 17.6326033299999985
 13.0647060100000001 15.3368338000000008 19.7101739599999988
 12.9850131100000006 17.4622009300000016 -0.1956221000000000
 13.1534734499999999 19.7212182499999997  2.0722484900000002
 13.5458165699999995 -0.0421124700000000  4.4954198500000002
 13.5823767499999999  2.3277947600000002  6.5988418600000003
 15.3993183699999996  4.1967717899999997 11.1311230099999996
 15.4761779900000001  7.0364722200000003 13.4153970999999999
 15.4647021500000008  9.1945558799999993 15.5747610099999996
 15.8321632500000007 11.2534636799999994 17.8913046999999992
 15.6194359600000006 13.4030446100000002 20.0781654699999983
 15.2009463199999999 15.3810284100000008  0.0839509000000000
 15.5601120500000007 17.5414385099999990  1.9598544400000000
 15.5174741699999998 19.7717538200000007  4.6887606699999997
 15.8178658100000007  0.0772343500000000  6.7359855499999997
 15.5297871599999997  2.3177579700000002  9.2084444399999992
 17.5922213800000016  4.3875035300000000 13.5117261400000004
 17.5946780599999997  6.8810359999999999 15.5197812899999992
 17.5295210799999985  8.9762930799999996 17.6394720400000011
 17.7828945099999984 10.8656357700000008 20.0684229599999995
 17.4477312900000001 13.3456235200000002 -0.0248458100000000
 17.7996260100000008 15.6732223499999996  1.7586647600000000
 18.1056479400000008 17.7882666900000004  4.0793096100000001
 17.9735710600000012 20.0489592999999999  6.8907403900000004
 17.6651414399999993  0.2714682400000000  8.9908095100000001
 17.9396538099999994  2.1691719200000001 11.1745803499999994
 19.9864552300000007  4.4799545800000002 15.7576447000000002
 19.4752397600000009  6.8314177300000001 17.8645843000000006
 19.8036948799999983  8.8919598000000004 19.8813200799999983
 19.9548676299999990 11.1156418699999993  0.0393694600000000
 20.0058694000000017 13.3928610100000007  2.1886565099999999
 19.8754443899999984 15.7898594699999997  4.3194077399999999
 19.7275217599999984 17.4979230000000001  6.4067097400000002
 19.9029180200000013 19.7841820900000016  9.1148054700000003
 19.8743448500000000 -0.1388965200000000 11.0836754400000004
 19.9113059999999997  2.3675404599999998 13.2559220500000006
 -0.3245249300000000  4.4809339300000000 17.9039451000000014
  0.1046462600000000  6.8788056600000003 20.3023542200000016
 -0.0277335500000000  9.0305245900000006  0.3323031800000000
  0.1511178900000000 11.4287509299999996  2.0267661600000002
 -0.0995681600000000 13.5187815800000006  4.0153392200000004
  0.0365800400000000 15.5633084299999993  6.4872416399999997
 -0.0533973300000000 17.6381216199999997  8.9805001699999991
 -0.1918290500000000 19.6688106699999992 11.4819281100000001
 -0.0181865900000000 -0.1107772900000000 13.2570586499999994
 -0.0517399400000000  2.3315125499999998 15.5716804700000004
  1.9408355300000000  4.1003221999999999 20.0683870700000000
  2.3467290200000002  6.4783442500000001 22.3578921000000008
  2.1315056499999998  8.5907097199999995  1.8651521400000000
  2.2955913899999998 10.5948932800000009  4.2704342400000002
  2.1442781700000002 13.1847252099999999  6.3351551600000002
  1.9984291300000001 15.2913056600000008  8.8129417599999993
  2.3907607400000002 17.6790058899999991 11.1335785200000004
  2.3272090699999999 19.7585287899999997 13.3587620400000002
  2.0462209300000000 -0.2796752800000000 15.3576069000000004
  2.1106735099999998  2.4713450500000000 17.4572290000000017
  6.5626921400000002  6.1576373499999999 -0.1874142300000000
  6.8956588700000001  8.7555938300000005  1.9797081800000000
  6.7393928599999997 10.8279306500000008  4.1971828499999999
  6.1886053199999997 13.0428820900000009  6.3420898499999998
  6.6749445400000003 15.3812281599999991  8.6668099299999994
  6.6098388799999999 17.5060568699999983 10.5549278999999991
  6.6111009999999997 19.4557766399999998 13.1891411600000001
  6.5607826500000002 -0.1910317600000000 15.5356666899999993
  6.5896177199999997  2.3344612100000002 17.4308688300000014
  6.6333281800000004  4.2007378600000003 19.5807467899999992
  8.7247786200000004  7.0474212100000004  1.9001794000000001
  8.9022588400000000  8.5737529499999994  4.1342897499999998
  8.9864936499999999 11.1108666100000004  6.2346735500000001
  8.6382793000000007 13.2935238499999997  8.9184381399999992
  8.8615685299999996 15.7105452700000008 11.0746903499999991
  8.9527251000000003 17.5607343100000008 13.3027639799999999
  8.9855193999999994 19.7964379500000014 15.4710257700000007
  9.1108761900000008  0.0702175400000000 17.4804571099999997
  8.9826088800000008  2.0599841200000002 19.8419579500000012
  8.8659933300000002  4.1472823099999996 22.0329857000000011
 11.1809291399999999  7.0187316300000004  4.1047296900000001
 10.9861343999999992  8.6082789000000002  6.6764610600000003
 10.8607724900000004 10.9447861100000008  8.6474795499999999
 11.2889089299999998 13.0526465900000002 10.8420614900000007
 11.0613990300000005 15.4277473599999997 13.3841934200000008
 10.9785587000000007 17.8080061799999996 15.5378587899999996
 11.0670843800000007 19.7470127300000016 17.4387309299999984
 11.0812949100000004 -0.2384097200000000 19.9123791799999985
 10.9760221999999992  1.7945844500000001  0.0116001300000000
 11.2715261800000004  4.3076090899999997  2.1704687100000002
 13.2790394500000009  6.6207191500000002  6.7293030399999996
 13.3975080700000007  8.7110978200000009  8.6976285900000008
 13.5615570299999995 11.1322705200000005 10.9528285699999994
 13.3623138499999996 12.8812809000000001 13.4635856199999999
 13.3680514299999995 15.5130431299999998 15.4175010199999996
 13.3101194100000004 17.6015627099999996 17.8717176600000016
 13.1934476899999993 19.6798022199999991 19.8119698399999997
 13.2836350400000001 -0.3188137600000000 -0.2330618400000000
 13.4026031900000007  2.2509999600000001  1.9194925599999999
 13.2708335799999997  4.7073837899999997  4.1808358400000003
 15.2632157900000003  6.6402913799999999  8.7124714300000008
 15.4942644499999993  9.1842856600000005 11.0346612600000000
 15.5673914799999995 11.3319330899999997 13.3886932499999993
 15.5472340300000003 13.2546755899999997 15.6237328400000006
 15.7763155200000007 15.5617430599999995 17.5966748799999984
 15.4388865899999992 17.3762116499999983 19.6808340599999987
 15.5379175499999995 19.6708215499999994 -0.4237990500000000
 15.3239678799999997 -0.2780280500000000  1.7717600300000000
 15.3240927800000009  2.3160136599999999  4.3470350099999999
 15.3105795800000006  4.2843501899999996  6.5130528400000003
 17.2957609300000001  6.6366090499999997 10.8917635100000005
 17.7830905000000001  9.0754547300000006 13.5075949499999997
 17.7687538300000014 10.9367965900000002 15.5245903199999997
 17.6464101400000004 13.3211315199999998 17.6813762200000006
 17.6304336200000016 15.3181090599999994 19.8687761599999995
 17.7029148800000016 17.5312239800000000 -0.1689992900000000
 17.9506875699999995 19.6811312600000008  2.2293398000000000
 17.7182784600000005  0.0686943400000000  4.5229388699999999
 17.9765424299999985  2.3350076199999998  6.6780512500000002
 17.3326966300000009  4.4247607599999998  8.8825052899999992
 19.5311653599999993  6.8167826099999997 13.2620684799999999
 19.9250170699999991  8.8801970600000004 15.6748013700000008
 19.9590907000000009 10.8422593900000006 17.6359288200000002
 19.9265954000000001 13.3553954600000004 19.8360819100000008
 20.0693341200000006 15.1948941600000005 -0.2374808600000000
 20.1331548299999987 17.6091639200000003  1.7280089800000000
 20.0106523400000000 19.8848919600000009  4.4045410000000000
 19.8006900200000011  0.1457821000000000  6.6537017900000004
 19.6986534499999983  2.4125265200000001  9.2938320799999996
 19.3256998899999992  4.5928209600000001 11.1197111700000004
 -0.4429216400000000  6.6899610799999998 15.5338440200000001
  0.1080729900000000  8.7839946999999992 17.7811500699999989
 -0.0257532100000000 10.9950711499999993 19.4852957300000007
  0.0868965700000000 13.2120306700000008 -0.3580396500000000
 -0.2182104400000000 15.8405338300000000  1.9807826600000000
  0.0490478200000000 17.7784505999999993  4.6731663299999999
 -0.0324126200000000 19.8555276099999993  7.1043400099999996
 -0.3056636700000000  0.2609880200000000  9.2258700299999994
  0.0428555400000000  2.2789999999999999 11.2696060899999999
 -0.2397248200000000  4.5947841199999999 13.3047422100000006
  2.3032639800000001  6.6701457399999997 18.0384905199999999
  2.3756050800000001  8.8308255899999999 20.0300783299999985
  2.4255223500000000 11.3017350699999994  0.0543465000000000
  2.1980872499999999 13.5457276300000000  2.0411314100000002
  2.2171667099999999 15.6663329999999998  4.2732895600000003
  1.8627676600000000 17.8480695500000017  6.7512143900000003
  1.8846389100000001 19.9292898500000000  8.9854971399999997
  2.1065654899999999 -0.0508565200000000 11.1743839299999994
  2.2646837099999999  2.6387917100000000 13.4483871799999992
  1.8298693800000001  4.9598255900000003 15.4823133899999998
  4.5325748700000004  6.5397269700000003 19.9618448899999983
  4.5928216600000003  8.4629617699999997 22.1127104199999991
  4.4346263500000003 10.8716413200000002  2.0200446300000001
  4.2887248400000004 13.2110944600000000  4.0387410700000004
  3.9556746199999999 15.2992377299999998  6.5376241500000001
  4.2374324600000000 17.3587817499999986  8.7528836999999999
  4.3091759600000001 19.7410556600000007 10.9299961999999997
  4.5225409799999996 -0.2476397600000000 13.5751828499999991
  4.3484974799999998  2.0725122300000001 15.2669201700000006
  4.5292193899999997  4.6494479799999997 17.4786177800000004
  8.6452283500000000  8.7725914599999992 -0.2050086900000000
  8.6119791200000009 11.0688802000000006  2.2467412000000002
  9.1161064199999995 13.2251019900000006  4.4922833999999998
  8.9369815199999998 15.1272568700000001  6.4624200199999997
  8.4818373099999995 17.4763796499999984  8.2679483200000004
  8.6509826699999994 19.4299376899999992 10.9180429100000005
  8.7160992400000001 -0.0162157200000000 13.2216480599999997
  8.7931226200000001  2.2011401400000001 15.4916786000000002
  8.8966569900000003  4.4319267000000000 17.6466045200000003
  8.9607057399999999  6.7352700800000003 19.6627225900000013
 10.7000054900000006  9.0421385700000005  2.1706080200000000
 11.1573128599999993 10.6665137399999992  4.5507807700000003
 11.1724053399999992 13.0467752400000006  6.3991739200000000
 10.7398282199999997 15.1370842700000008  8.9257661699999993
 10.8677142100000008 17.7048066700000000 11.0798731400000001
 10.7628799599999994 19.8278572799999999 13.2938682700000008
 10.9868234900000008  0.1196268400000000 15.3646914799999994
 10.9442608700000008  2.5183320600000001 17.6376407999999998
 10.9700351999999999  4.4094879100000002 19.8533179199999985
 11.0156917900000000  6.7887153400000004 22.0645472100000006
 13.1309065599999997  8.6381825400000007  4.4639662400000004
 13.4533907300000006 11.0477093600000007  6.7064262000000001
 13.2177880499999993 13.2263792099999993  8.6717042200000005
 12.8227714200000005 15.2448578300000008 11.0992721900000006
 13.3145614000000005 17.3943675499999983 13.3217099399999999
 13.4607324199999994 19.8486082999999986 15.2604849100000006
 13.0199961999999996 -0.0715350600000000 17.3183913199999999
 12.9558378300000001  1.9763527299999999 19.6238552700000000
 12.8152435499999999  4.3701256500000003 -0.1015323400000000
 13.3201534699999993  6.8325432099999999  1.8275601100000001
 15.7544891600000003  8.6478586600000007  6.5720638700000000
 15.6858842700000007 10.9643677099999994  8.8223861400000008
 15.2964603900000000 13.2513049299999999 10.8789845700000001
 15.4517389299999994 15.2846591000000007 13.0613863800000001
 15.6357796499999999 17.5770450499999988 15.2016747100000007
 15.3495601500000003 19.4090068000000002 17.6843947499999992
 15.5458139000000006 -0.3323286800000000 19.4824916299999984
 15.5912205000000004  2.0573776000000001 -0.4278068300000000
 15.2390436000000005  4.3503483200000002  1.9101639200000000
 15.2900194799999998  6.5907936300000003  4.1107375700000004
 17.7542739099999984  8.9748835000000007  8.5463063399999992
 17.8503212600000012 11.1363272200000001 11.1414350399999993
 17.6286304999999999 13.2780775200000001 12.9724103100000008
 17.6587451299999998 15.1428600499999995 15.3730632699999994
 17.7372544099999985 17.4760366100000013 17.5290737499999985
 17.9926718500000007 19.3658255500000003 19.6779908900000002
 17.9924176799999991 -0.3948189000000000 -0.1161254200000000
 17.5995513599999995  2.0756083500000000  2.0507644599999999
 17.5155827600000009  4.0897492700000004  4.3363563699999998
 17.8637670200000009  6.0932427599999999  6.4158046100000004
 19.7667729399999992  9.2019637599999999 10.9176495599999992
 19.9956755199999989 11.1673483499999993 13.1872977799999997
 19.8411991100000016 13.0169588399999991 15.6384810000000005
 19.8110427099999988 15.5010906800000008 17.8223783800000000
 19.8048055800000000 17.4435243600000014 19.8631111500000017
 19.9592325799999983 19.5935123199999985 -0.0724450000000000
 19.8094337500000002  0.1261192300000000  2.0456590600000002
 19.7942200300000017  2.2271323800000000  4.2944030000000000
 19.8447214099999982  4.5165515799999998  6.6856600400000001
 19.5834663700000000  6.4687517899999998  8.9014535200000005
 -0.1147154400000000  9.0369280399999994 13.0238873799999997
  0.1205730800000000 11.3667397700000006 15.7109947200000004
 -0.2181259400000000 13.2069720099999994 17.6827879500000016
 -0.1362874400000000 15.1040231800000004 19.7188500500000004
  0.1361431900000000 17.5996208500000009 -0.0657299700000000
 -0.0956803800000000 20.0031351300000004  2.1401264699999998
 -0.0790951600000000 -0.2328020200000000  4.6207241899999998
 -0.1701735600000000  2.4874865900000001  6.5048496499999997
 -0.4382726500000000  4.6088962599999999  9.2088648099999997
 -0.2892721500000000  6.7177750800000000 11.1402664500000004
  2.1771357099999999  8.8522385799999999 15.4302000800000005
  2.0271758700000002 10.8330675999999997 17.8758819899999999
  2.4957055499999998 13.2347502899999991 19.7673060400000011
  1.8461204300000000 15.2253192100000003 -0.1300349000000000
  2.3889802400000000 17.4655090699999995  1.9696382800000001
  2.2288401100000002 19.8581936200000015  4.4863842399999996
  1.9163258900000000  0.1529002000000000  6.8582540700000001
  1.9077222199999999  2.5879522900000000  9.0727073800000007
  2.1675927700000002  4.1826771599999999 11.4557850800000001
  2.2869228900000000  6.5768540700000004 13.1851542300000002
  4.3126676399999999  9.0684395900000005 17.8493019799999999
  4.4552473900000003 11.1040651399999994 19.8195584199999999
  4.4557825600000003 13.3858135600000008  0.1385041800000000
  4.6492107400000000 15.7610412800000006  1.8746260699999999
  4.6214562099999998 17.6876621900000011  4.5706369100000002
  4.2930365899999998 20.0365080700000000  7.0729133400000004
  4.0794062300000000  0.1696498300000000  8.9916535199999998