Li                                      
   1.00000000000000     
   -10.5278949999999991   18.2348490367503473   -0.0000000000000021
   -18.0478199999999980  -10.4199137352859115    0.0000000000000046
    -0.0000000000000002    0.0000000000000000   22.0820499999999988
   Li
   504
Direct
  0.9967631378015298  0.0118007662617927  0.0028060411057851
  0.9373965442622634  0.0286827798949716  0.6746496376015827
  0.8507089313217762  0.0829749850941610  0.3274773410983158
  0.7970400364012420  0.1178939481871808  0.9799508596348616
  0.7154912725751359  0.1587820988303648  0.6736519394711991
  0.6239144449040737  0.2218749630186139  0.3408086554463949
  0.5653270518023206  0.2315341419609425  0.9947815528902453
  0.5029566617828962  0.2898598132738002  0.6678596439189306
  0.4281731649559433  0.3445801602368732  0.3419065788728872
  0.3507876087559012  0.3667557205090048  0.0000618828414929
  0.2948621082254590  0.4081414921649085  0.6710099026132070
  0.2010232674980372  0.4718574280563388  0.3433967557359949
  0.0768732341970448  0.0250037185689536  0.6741898505799995
  0.9999263283738316  0.0878756391156799  0.3232168335820305
  0.9374769458444376  0.1341724728653659  0.9987923118551052
  0.8535958180548704  0.1703653164248777  0.6760451928149820
  0.7622575377315073  0.2196209974281729  0.3350580399011847
  0.7084490141472273  0.2399370049238385  0.9900268118222755
  0.6394897044892218  0.2811051920706475  0.6575037027812201
  0.5786677835765488  0.3400790962356339  0.3405984236065009
  0.4855783714870441  0.3644131934335206  0.9995220158454501
  0.4246178325242553  0.4227132187741773  0.6427274107250014
  0.3394517042949659  0.4539792711591488  0.3200990687005927
  0.2719040391148937  0.4872515814166221  0.0002341879490331
  0.1558282238598210  0.0918034450236789  0.3206314730742861
  0.0711978010804160  0.1390935185520732  0.9993597809080228
  0.0039829040881898  0.1577649380348660  0.6686517931985492
  0.9233162520642750  0.2051539613357036  0.3376802864770241
  0.8628158828620514  0.2522984975967191  0.9984817587135240
  0.7850061923892895  0.2898433219178713  0.6652908181079198
  0.7131867422051315  0.3403484394609606  0.3392704735294032
  0.6304273445905153  0.3722550940236715  0.9871962127610416
  0.5744267222338593  0.4337927834568305  0.6638414757687769
  0.4921291320095449  0.4673846110922213  0.3260491838393662
  0.4249834241324848  0.4952756878112012  0.9952947896594750
  0.3423103845593971  0.5351486248172392  0.6609040279321903
  0.2092278763067412  0.1325667048524224  0.9907378558603028
  0.1451816603381388  0.1526493961062556  0.6859567916022300
  0.0684671577426528  0.2179379621658981  0.3373212079494436
  0.9982128958817711  0.2727682808511389  0.9993462232899546
  0.9280336587432956  0.2948745341146335  0.6640414626359430
  0.8475579151347645  0.3329398189389252  0.3432840931888137
  0.7786303964214980  0.3530587457469139  0.0064021981654818
  0.7031867559061595  0.4254366620693943  0.6514339628793522
  0.6369951420481783  0.4721916003709410  0.3322674860350361
  0.5795824675031795  0.5096418026268879  0.9853034070659206
  0.4947954633314424  0.5440534798978618  0.6557198489270704
  0.4158584457109527  0.5846414147909229  0.3210849513518923
  0.2904898181725244  0.1696950604400129  0.6705600263562488
  0.2194151013357128  0.2196544325975793  0.3228670798227498
  0.1503828716324023  0.2629171067561344  0.0062415559243831
  0.0761528828456619  0.2896178566416125  0.6673562925543592
  0.9921794266921040  0.3273130037104366  0.3400771028957905
  0.9260672134497554  0.3664105655895469  0.0133941957381651
  0.8403120639029709  0.4046792445844574  0.6716900754232498
  0.7817433554937736  0.4663738593588533  0.3358338677794848
  0.7137586229805848  0.4880027184400006  0.9955496079394806
  0.6433156741194423  0.5533288131761225  0.6727700367493057
  0.5795978899202794  0.5946331248149477  0.3259332860853021
  0.5015134114938604  0.6276863700270070  0.9985056260627942
  0.3567837201220740  0.2106645199722408  0.3399672467003754
  0.2754748797652766  0.2528516053846701  0.9966381305177734
  0.2029998278576386  0.2893909855759134  0.6522155538095404
  0.1242229012240159  0.3409433399334745  0.3403345839720515
  0.0696299800650166  0.3857448091250575  0.0119115947115418
  0.9995686953072465  0.4138247312150938  0.6708320115206661
  0.9235886516824152  0.4432873988047277  0.3523689399308481
  0.8648816669893762  0.4901082630761451  0.0030906863266793
  0.7810181266311247  0.5556460735828921  0.6715754637816715
  0.7251644463736895  0.5914148939231794  0.3302516854187019
  0.6401775312664100  0.6302203335066565  0.9962590334683625
  0.5778080316361454  0.6824178500659954  0.6612491956136353
  0.4251665044678177  0.2467446640893911  0.9939429006817733
  0.3463740894201521  0.2955891717594739  0.6645753193204413
  0.2734061510846573  0.3479331386852564  0.3327892383180000
  0.2041532088921016  0.3828472908567875  0.0134167982592217
  0.1473108487686190  0.4174114747267623  0.6622795052995514
  0.0483374523923601  0.4642701072287778  0.3460975443856000
  0.0065020771257949  0.5052465630052652  0.9895633734186831
  0.9230618453216337  0.5444845202327855  0.6691072414019530
  0.8669208672962299  0.5795890681420985  0.3325801807350288
  0.7853000034562641  0.6319497213576355  0.0077909347184715
  0.7155039829040959  0.6698824808704842  0.6795007410996732
  0.6397239093662250  0.7290686838190368  0.3359431683199716
  0.1480713367552724  0.4950076692991630  0.0022434221460443
  0.0727018726602822  0.5359967524237916  0.6710205533453646
  0.9837997619395438  0.5847441472308290  0.3413847650014361
  0.9240416603675072  0.6344266716991456  0.9993889783783629
  0.8618914062623375  0.6781359058029039  0.6691390486843360
  0.7817279175719420  0.7062929791650134  0.3035113854918379
  0.7305595931350766  0.7471971103563320  0.0036619217871561
  0.2222647461810254  0.5284638637799191  0.6721099888823758
  0.1381298952006205  0.5820870047998525  0.3444134552724947
  0.0723757431795775  0.6220360921850130  0.0108425286601559
  0.9995269171729859  0.6763146156338635  0.6528565192090383
  0.9311294428092012  0.7058122811894307  0.3271895385618606
  0.8562599696879261  0.7439664694363302  0.9998646063205214
  0.7878673288584679  0.7974740687710522  0.6667826583129752
  0.2708586435170872  0.5881062195439526  0.3174565821560975
  0.2124147351213210  0.6227927440649310  0.9877963771479514
  0.1436673681967093  0.6535005896944170  0.6644276414553900
  0.0708448050274697  0.7251287646583009  0.3233147071943065
  0.0099673229080111  0.7438433927750481  0.0046167837678084
  0.9326607892479331  0.7929675661758964  0.6647813373305453
  0.8578484021787389  0.8521590394820251  0.3297162989849198
  0.3501475560654228  0.6013334145196865  0.0051022749246528
  0.2895733305115229  0.6599382386113319  0.6775049214180768
  0.2133579808619643  0.7170937487227391  0.3424883056600265
  0.1379701137583353  0.7600911799438492  0.0095344897778986
  0.0924303066843777  0.7859625786609712  0.6612357032069056
  0.0053416702774598  0.8402387687928083  0.3064180689745726
  0.9353683884705575  0.8705701724564392  0.9911592868415724
  0.4282943765177762  0.6683111785761611  0.6540043111939369
  0.3680349692891269  0.7018753581870740  0.3409887401758454
  0.2850490226754019  0.7428520430401448  0.0048618624629526
  0.2281826101124906  0.7828540931763399  0.6698448006412434
  0.1510923475540054  0.8419230111807394  0.3319782837191312
  0.0788473364311955  0.8677256411590264  0.0147709814079775
  0.0134116177173738  0.9092171894938730  0.6684051340342023
  0.9213893750967301  0.9726247804369734  0.3179991422897785
  0.8542718370611624  0.9914497156976836  0.9953026757026606
  0.7969185058782529  0.0436125845978594  0.6771732683333269
  0.7092754553222775  0.0897157507272297  0.3254490701723824
  0.6556067781276482  0.1141096103897183  0.9903658509966249
  0.5575010504216138  0.1567100125539582  0.6685405014480068
  0.4864669291104846  0.2168529434221114  0.3396480684537906
  0.0812499248796357  0.9574976230984831  0.3275195455132121
  0.1388181486165578  0.0144646604005629  0.9995682035861719
  0.2148379366821445  0.0354461497617820  0.6560906174924881
  0.2934315403681396  0.0824144962281324  0.3224713778838435
  0.3594885934789076  0.1243331418507267  0.0060985397641957
  0.4266905105665231  0.1673609647735432  0.6768851107573823
  0.8781407776250703  0.9177841195194176  0.6607194789433066
  0.7777566578532387  0.9523404267424098  0.3352978894622538
  0.7229195838737610  0.9911100480575143  0.0050953838072090
  0.6287922409903501  0.0341220003323883  0.6655743420561038
  0.5629727479825846  0.0914115323278892  0.3448752185598707
  0.5103204286466294  0.1080060550722095  0.9945360480571352
  0.1732160874978987  0.9133455446979895  0.6598484932331914
  0.2166959663246217  0.9718668071606942  0.3422346734112125
  0.2814483674609534  0.0047125680248215  0.9982084625295187
  0.3546279022155971  0.0416088896832889  0.6624643898551099
  0.4202534729373539  0.0875017461128422  0.3347928122615400
  0.7952885083092056  0.8747715059111911  0.9956260478533494
  0.7030543878557154  0.9364753341603489  0.6630249908862638
  0.6436392538017586  0.9531121081713323  0.3351983416394759
  0.5625349382877260  0.9994451122559624  0.0077822484778380
  0.4942783808944426  0.0398070855745090  0.6575547709565015
  0.2139055602610469  0.8884228905017650  0.9966180137260778
  0.2993809225398536  0.8917257055144248  0.6665115580301659
  0.3571847939019648  0.9596820510290698  0.3399838407213096
  0.4267441916053230  0.9947486936881731  0.9998905518282939
  0.7258292071526213  0.8405195879149900  0.3224939609320714
  0.6434600948494875  0.8822762735186060  0.9978419213795817
  0.5639908885706504  0.9198963882713542  0.6734010080585833
  0.4984979678128028  0.9686306887565053  0.3222726322963680
  0.2957172371161860  0.8414946734813782  0.3361542945514557
  0.3500887479596742  0.8738404577837713  0.0089292728709509
  0.4290556255466456  0.9115665313088002  0.6629132598649150
  0.6618177698367020  0.7999717583633412  0.6762850369417706
  0.5741626292537987  0.8414312219587785  0.3247449317432043
  0.4902358431295610  0.8721847169517147  0.0106952973116137
  0.3701894867793243  0.7699800958278260  0.6750145837909045
  0.4357601893957721  0.8308292342710217  0.3405162310564478
  0.5785255947047645  0.7496278339508962  0.0004246870195459
  0.4995087608948907  0.7875273774737579  0.6649149467553954
  0.4198563749532198  0.7496888355165297  0.0010121623671679
  0.5080926678345534  0.7070490238027602  0.3334084625295191
  0.9921068338992498  0.0001353511906856  0.7894775421666012
  0.9380090380816739  0.0417714143882790  0.4493509619804357
  0.8481140786181314  0.0791108545124288  0.1033730396407933
  0.8066058585738958  0.1122031317106007  0.7932224634941036
  0.6936598419035178  0.1740317267527729  0.4400586680131582
  0.6298962927231671  0.1883577029979904  0.0996750414929792
  0.5727721107547197  0.2430536208276664  0.7920984220215033
  0.4984320632608288  0.3084040866629110  0.4411716443899039
  0.4300720661144268  0.3164765692207894  0.1140958470794118
  0.3618891981933459  0.3825773733218867  0.7800976458254567
  0.2784989638918773  0.4304888396791142  0.4261806829528965
  0.1984267445307850  0.4582291766201152  0.1125818440769777
  0.0739503867155378  0.0320127590728063  0.4465097456984282
  0.9934374002265542  0.1012647993686713  0.1164352616718105
  0.9388514652585513  0.1333908861658557  0.7813492945627800
  0.8290478793653264  0.1626653394187869  0.4415667539924968
  0.7852303274896357  0.2103581657714599  0.1008782730770008
  0.7335254309406309  0.2380909468970387  0.7747145278631322
  0.6357170718232226  0.2961832087275695  0.4508661827140159
  0.5665778742334808  0.3222215259652828  0.1047078101897227
  0.5061214847917768  0.3903561682722909  0.7776247318523417
  0.4319198147126286  0.4379124859559766  0.4315623667186728
  0.3646170391341457  0.4485989081664599  0.1106605618590635
  0.2793614795338968  0.4917925614518808  0.7729485505195370
  0.1299166185465381  0.0900661099892943  0.1143963970736408
  0.0765950759520138  0.1089728212526566  0.7910539967983041
  0.0029136619845076  0.1641338517650084  0.4631806702729122
  0.9211802596717646  0.2338861225401700  0.1148315681741536
  0.8713480191086589  0.2620002973415083  0.7810506746429766
  0.7852969717758143  0.2930205918125424  0.4557630894776494
  0.6934729518196505  0.3252798270318848  0.1063990458313455
  0.6575070716302207  0.3611327211884614  0.7728166193808974
  0.5703060490585372  0.4245876071263410  0.4504173625184222
  0.4979061264189184  0.4522268695723284  0.0993174193519195
  0.4247931245289323  0.5119888295781720  0.7727884254405737
  0.3593593755921773  0.5658040703253917  0.4360491901793537
  0.2198424030286574  0.1270042367646980  0.7878578469843163
  0.1405104197668479  0.1674488394880242  0.4417786002658275
  0.0620688255099466  0.2247698476745654  0.1113920365183461
  0.0182158979220191  0.2510059585781690  0.7741980327913396
  0.9175228721011521  0.2819536576949844  0.4481710905463956
  0.8538275170345315  0.3467813609926154  0.1307301831125258
  0.7903085070347302  0.3653591857815286  0.7813961380397174
  0.7054546575058396  0.4212980436705109  0.4540229267663136
  0.6472615812941953  0.4616794307900207  0.1021683915216229
  0.5871784664500694  0.5251153169165406  0.7744975231013456
  0.5103611513785538  0.5431793499828501  0.4433773485704435
  0.4358833039421768  0.5768639422292381  0.1116415092801617
  0.2791050196891476  0.1604446602825007  0.4450879284305600
  0.2035999483679092  0.2134140146331944  0.1200085974807621
  0.1555758403661400  0.2499968732006721  0.7785261766910239
  0.0760727125427394  0.3009915829161045  0.4507114846674085
  0.0007179695311024  0.3555688134169870  0.1277329795014523
  0.9328985929871081  0.3743954459532475  0.7848704282437566
  0.8458614097494532  0.4303844615918067  0.4461195559289095
  0.7760764867115242  0.4657461020739433  0.1121197656014701
  0.7228446780472026  0.4989845188067150  0.7694483057506005
  0.6494093058233261  0.5453692582411094  0.4499968970272263
  0.5716503682392400  0.5931831072376568  0.1213666806297411
  0.5051142749671271  0.6260048438063421  0.7590737965904424
  0.3484487737716080  0.1999716628852539  0.1054256805867197
  0.2960893153214172  0.2387165335023411  0.7778260564576200
  0.2233399900216781  0.3056710797066202  0.4430909680034247
  0.1345521546328428  0.3437921319030082  0.1231952925566233
  0.0899259880093055  0.3739895871338916  0.7707787424627668
  0.9920948984530114  0.4107570448425903  0.4490977187353522
  0.9230151119034176  0.4611554995820839  0.1176932558344888
  0.8578934415389838  0.4939905105596694  0.7867721918934123
  0.7779111852714706  0.5503241910732939  0.4452107240949061
  0.7104384527909104  0.5788418781356910  0.0963167468600048
  0.6422500709036427  0.6464691347644163  0.7843357052447573
  0.5791432165007251  0.6616360306517990  0.4570003731537611
  0.4295736215571040  0.2425527181386542  0.7663620913819145
  0.3504771021645539  0.3006905525712966  0.4389981822339877
  0.2855601155083107  0.3356249567948169  0.1189538983020171
  0.2163709974865569  0.3590663790649700  0.7796438437554514
  0.1484315531943210  0.4331970666420233  0.4532393228889546
  0.0648043036313624  0.4605158886680485  0.1210088628546728
  0.0072714336041884  0.4994237392945848  0.7798838078892132
  0.9287835592596352  0.5333468291676411  0.4467863545277737
  0.8546669048282283  0.5868050188883416  0.1071786016243976
  0.7869296052819621  0.6211092931556337  0.7787278210129926
  0.7130113959671078  0.6731003638918622  0.4419694851700839
  0.6435278814830312  0.7216838373927814  0.1143337144875574
  0.1480434674492983  0.4916302677696223  0.7806809539875132
  0.0724931251369227  0.5397303236810131  0.4464129498846319
  0.9878754457956234  0.5860298641933213  0.1044679071915908
  0.9250594240597962  0.6218849802767323  0.7782325671755999
  0.8485066888834822  0.6670641192474775  0.4269480976630362
  0.7901522815031754  0.7028471602844064  0.1234311239219181
  0.7302101132673613  0.7428156813168059  0.7701960406755717
  0.2345084118060967  0.5575091996644872  0.4488263924771445
  0.1405423002403410  0.5854585933376555  0.1064886131495939
  0.0661942840435188  0.6065324298441439  0.7812496978314982
  0.0042477363447588  0.6674925613051741  0.4423571421131669
  0.9345074492088798  0.7222356721205685  0.1187123808704342
  0.8659768900460705  0.7583915020854803  0.7806380648535836
  0.7861876943020363  0.7917405700021405  0.4350159496061252
  0.2899845050631882  0.5795946728783790  0.1024942584587905
  0.2107798559191210  0.6216548934313622  0.7843409416245350
  0.1427155517557139  0.6711052518392151  0.4422795786623084
  0.0660008197528228  0.7076300046060027  0.1190523588163259
  0.0001310840265774  0.7355003591088547  0.7773576805595468
  0.9186940997747044  0.7985805853810817  0.4383847903614040
  0.8442483072896110  0.8347622431366943  0.1085642361103254
  0.3550059966568355  0.6165361940016325  0.7751689707250904
  0.3016899542550036  0.6698494986679009  0.4325071426792348
  0.2103942798221397  0.7098382432577424  0.1083166721386846
  0.1479890702161342  0.7451153849948042  0.7874324843028617
  0.0732582535735347  0.8034681656008544  0.4513252465237585
  0.9902964486681185  0.8364055580978302  0.1216622342581388
  0.9201419676195286  0.8737655467423835  0.7861405385822451
  0.4426243735543522  0.6726962132146141  0.4307597786437398
  0.3524465682674247  0.7111808354787570  0.1137844615875778
  0.2912739332569600  0.7458961733014675  0.7872869964518685
  0.2146492477358848  0.7910283163289336  0.4412652326210633
  0.1349795729502787  0.8360620977400401  0.1084681127884437
  0.0762922469191096  0.8722864609200229  0.7713880414182555
  0.0058490694702300  0.9087770240821129  0.4361175547560094
  0.9272291391780882  0.9628848587692431  0.1031144495189551
  0.8599954775330048  0.0051157664503378  0.7742204116012772
  0.7841386489828821  0.0552877310426609  0.4430357389825659
  0.7202768392363481  0.0805062354116970  0.1148524258390893
  0.6384456710540647  0.1193917033712850  0.7710763996096404
  0.5593586020667658  0.1637137532452329  0.4367852409536255
  0.5026669767492749  0.1977083408863933  0.1023292792109416
  0.0642756473326500  0.9779557206258076  0.1157358877459274
  0.1452852972728138  0.9966298015642892  0.7802453504090394
  0.2251716175759668  0.0554803080471800  0.4515845286103399
  0.2786333695110272  0.0826344124825980  0.1081258538043315
  0.3515020073449477  0.0806064446777057  0.7770534252933956
  0.4142313831857223  0.1727013950779650  0.4428415382629751
  0.8552248389566586  0.9224130002444824  0.4473081199435711
  0.7881688261582411  0.9422523659884021  0.1099960864140783
  0.7019078688984095  0.0109821760502840  0.7761433449340061
  0.6393609788798145  0.0410941137077003  0.4385692863660751
  0.5683542411459044  0.0830626921374034  0.1183948310958414
  0.4989685003426061  0.1151306717423779  0.7799229301627335
  0.1437109245890227  0.9128515059200382  0.4498263403986513
  0.2035519921322830  0.9611923728068277  0.0998132283913833
  0.2801250884770923  0.9934539601817534  0.7674978926322495
  0.3534346173137024  0.0379868011513977  0.4453867353800973
  0.4239247338238101  0.0771091790809066  0.1144995201985353
  0.7839399722492360  0.8901715650896946  0.7664950355605598
  0.7136974085726848  0.9153052535306045  0.4476378886923982
  0.6489063624535873  0.9720409540463422  0.1097196655201813
  0.5625354469024870  0.9907939330751603  0.7760290208563063
  0.5014511460480762  0.0377132687923663  0.4481572503458722
  0.2173466257213832  0.8593148538605249  0.7824820544288258
  0.2870206157802926  0.8963387170433705  0.4425609058035818
  0.3491166740890250  0.9618753861929861  0.1043700471650055
  0.4342265627929365  0.9867885916806074  0.7831081792677779
  0.7059659340328466  0.8306331791277444  0.1092681417712598
  0.6373963951214492  0.8779088631636895  0.7871473042584327
  0.5653825332602977  0.9170418080965774  0.4377675184142760
  0.4930537298474391  0.9645613011880556  0.1105103896603836
  0.2668145565871853  0.8351034376328315  0.1119195790245939
  0.3583450363027794  0.8657521520068983  0.7689880522868151
  0.4325931097846194  0.9123918280692109  0.4472505405974516
  0.6473370079721334  0.7884226726804258  0.4378862157272536
  0.5705757129128415  0.8406210398210661  0.1094478008155946
  0.5062181019100365  0.8533758756454688  0.7714244193813542
  0.3616058008294445  0.7870828547423798  0.4541731578363439
  0.4288666816460349  0.8390916075532715  0.1059424070681843
  0.5807114950584449  0.7591244186129771  0.7824715938964033
  0.5244720092136959  0.7909283340901681  0.4415198946655750
  0.4351479371670663  0.7301814301139160  0.7773501595187042
  0.4966910435550957  0.7105171276094069  0.1089080705822170
  0.0051945493183112  0.9918053066910275  0.2185350078457375
  0.9312563186947287  0.0487435096701674  0.8850968420051615
  0.8573096332831156  0.0703991107129198  0.5576608476115226
  0.7904455255293286  0.1333447526630565  0.2251902807936759
  0.7028425691031970  0.1603580621344491  0.8731989022758313
  0.6439754398208848  0.1906418036630981  0.5698342862188994
  0.5751875680863492  0.2626274440836411  0.2211039994022315
  0.5091818085852893  0.2934835056701530  0.8749553954456246
  0.4377064101189276  0.3398638751628198  0.5527927782973023
  0.3645311214344247  0.3767006818167573  0.2238545184889986
  0.2907365666362409  0.4233473380049873  0.8958706419920262
  0.2143464250932681  0.4583562210279553  0.5590533270235341
  0.0751009706678687  0.0298646045012987  0.8969267848773086
  0.0039076843664461  0.0763399568090151  0.5714772668298451
  0.9201143479334561  0.1331159745034611  0.2133050627093027
  0.8806017039283631  0.1679331506088317  0.8890145199381365
  0.7726302681241037  0.2019059345321210  0.5677972466324448
  0.7001489308771980  0.2469338214456158  0.2328206864851765
  0.6499376338194409  0.2879489026708200  0.8944197803193106
  0.5714724690234760  0.3335103475505647  0.5662752239941469
  0.5023842681612365  0.3863808435116596  0.2174027515561292
  0.4364853152021553  0.4322316896173533  0.8892820485416877
  0.3549710707316436  0.4651524427493001  0.5452889242620103
  0.2785498165852331  0.4796022771016908  0.2171485360281338
  0.1306212707281702  0.0809529526007680  0.5493034188401893
  0.0641804703685693  0.1298617476741839  0.2280324141101033
  0.9939073331293358  0.1601529723304154  0.8892091902699235
  0.9098750763278431  0.2007305033684688  0.5587146478701044
  0.8463979659023835  0.2668241641797238  0.2343024796157991
  0.7962428777933042  0.2679566140450333  0.8903264225921035
  0.7124330216109911  0.3366680432288618  0.5527232512379996
  0.6409398322872235  0.3876772443631680  0.2256590909811393
  0.5694145025240900  0.4177029295476800  0.8779648909408309
  0.4943136838690876  0.4675460753244991  0.5518544365219711
  0.4272262108570004  0.5013960395687462  0.2240318996651141
  0.3533601141130589  0.5344488033141772  0.8869576982209537
  0.2198745813678400  0.1241976950230210  0.2234628931643599
  0.1385572366894152  0.1563687747685663  0.8957884322334237
  0.0716062799128068  0.2000728439078685  0.5684691072613290
  0.9950738609251317  0.2532551856642868  0.2285400535729281
  0.9561689028029932  0.2950704760477976  0.8881668255438271
  0.8636336162127165  0.3482130866798485  0.5600632717523979
  0.7730525633690419  0.3724322368779127  0.2208561446967110
  0.7307771805487278  0.4036939982106986  0.8878849608618751
  0.6419658856373687  0.4586560937790694  0.5562567691858291
  0.5737710169583679  0.5100318381621207  0.2060455673273083
  0.5097662199837529  0.5446170275115847  0.8742061982469949
  0.4304994958633657  0.5801433026258849  0.5448635860348077
  0.2787588515950361  0.1647001011804718  0.8828447127870831
  0.2100311431822490  0.2062827969165966  0.5484357172454537
  0.1441711082151684  0.2585378278748962  0.2302019721900805
  0.0841145031355879  0.2882278963892233  0.8870905137883511
  0.9981734590906726  0.3259967592156059  0.5573557183323103
  0.9258216936225452  0.3854449806580362  0.2366545261875572
  0.8639035386683176  0.4011116076496535  0.8999155726030850
  0.7905561036408955  0.4890883978929068  0.5605325674020278
  0.7032571041107758  0.4993898797703906  0.2184327868110074
  0.6538885936312937  0.5344461089789263  0.8825532212815403
  0.5718059601916821  0.5792926348294571  0.5564861391945044
  0.4848874608705529  0.6321135065142585  0.2172251765574273
  0.3568967054099801  0.2152763796180253  0.5575930826168758
  0.2939652501290411  0.2641398209308790  0.2216024368208593
  0.2296607973620581  0.2815370831355821  0.8841553071386059
  0.1418430832833550  0.3196537250879388  0.5553994796678765
  0.0681077476895737  0.3861391283621884  0.2289177368043269
  0.0135881936618958  0.4102979780321334  0.8882780081559432
  0.9354867865031409  0.4614346241156824  0.5485359198987396
  0.8629954004805924  0.4999183063803514  0.2147111663092858
  0.7836804192838471  0.5317010648501395  0.8934257684408848
  0.7003221755147990  0.5865986651024144  0.5489593040501219
  0.6426460095527418  0.6455971612781894  0.2222049701001509
  0.5723363378071440  0.6479604744995129  0.8859679250794201
  0.4273591326448951  0.2589376819041576  0.2289904338591739
  0.3732597733369829  0.2881091854076843  0.8886229910719337
  0.2878165239880843  0.3488966288553641  0.5389951032626072
  0.2156954814128014  0.3871627188054632  0.2304925480197682
  0.1507963537597234  0.4120892845360160  0.8849809270425553
  0.0749265444076173  0.4541886752950646  0.5484353757916480
  0.0040911194896864  0.5126008821885506  0.2311851952151187
  0.9342097152498354  0.5360558194768004  0.8892342137618598
  0.8520175758909403  0.5881299067070529  0.5547547578236589
  0.7885802694214092  0.6259946638685250  0.2106243482828845
  0.7063251873165584  0.6647970969389050  0.8899640681005607
  0.6448979111810189  0.7158090387297165  0.5681599484649311
  0.1486852305774846  0.4944012354084535  0.2353824223747338
  0.0671207437903405  0.5422319851956274  0.8980927672023213
  0.0056202981894984  0.5998611566822092  0.5679842451221688
  0.9371403458614154  0.6281913698445223  0.2198788758290107
  0.8513445123729326  0.6519449847633396  0.9004338763837580
  0.7857057065939870  0.7164378301688359  0.5528215405725447
  0.7260490301979061  0.7456569062205105  0.2113288471858397
  0.2012933709756979  0.5424536013863062  0.8889600625847720
  0.1528377567158543  0.5728565497251168  0.5458693273495925
  0.0851990360792669  0.6212583333641604  0.2281352007626083
  0.9986648836366783  0.6516529583565145  0.8965751952377587
  0.9205731536678599  0.7131974220911985  0.5423732737676090
  0.8719008666278967  0.7463047617791219  0.2254473665262040
  0.7913159141235724  0.7760576565079873  0.8889069615366338
  0.2853108255083612  0.5794091290075301  0.5724288514879703
  0.2043326445355049  0.6222027869990896  0.2165067441655069
  0.1311624918221312  0.6747679929298016  0.8848947905651841
  0.0722271007589370  0.7133603048487558  0.5518463353719412
  0.0042019934373556  0.7442330233956724  0.2131925102062553
  0.9299330408638085  0.7800251049021512  0.8784789686645951
  0.8505930972828537  0.8406662130983875  0.5525815116803017
  0.3448977730939191  0.6159878832531263  0.2073476896393203
  0.2905053953611443  0.6508376413718864  0.8934457362427821
  0.2192394042976176  0.6935043939762338  0.5521457441677740
  0.1483664835980321  0.7534160828931533  0.2234518615798819
  0.0735749760724929  0.7990061091744778  0.8786405619043549
  0.0023509890112834  0.8255277332410813  0.5556963207673178
  0.9194456010218701  0.8689410202578429  0.2163615696912231
  0.4344784734266440  0.6515660335710365  0.8871512445628937
  0.3642920834330425  0.6991957248180469  0.5564038501860082
  0.2791332173590106  0.7627999656818503  0.2321365081593427
  0.2164597291144830  0.7997750648086210  0.9006778781861300
  0.1530739928899578  0.8212037296262835  0.5566957202795919
  0.0682650872917847  0.8798321170549244  0.2227658052581134
  0.9998378106466461  0.9051567880487639  0.8965184794889964
  0.9284748742678346  0.9525076626190909  0.5460413634603682
  0.8463633792023799  0.9996224680826913  0.2070394157245374
  0.7833095619567274  0.0315929718505359  0.9001045831342651
  0.7046658427852037  0.0731443823725471  0.5620884338184169
  0.6344751028451228  0.1293696140105780  0.2191542438315253
  0.5638588970524268  0.1555154809287913  0.8971667734653295
  0.4934711643082110  0.2120261675169317  0.5575456694464478
  0.0775373776792065  0.9422776700575426  0.5483624441571351
  0.1507294811498099  0.9979886584113942  0.2275610932861767
  0.2186980155416833  0.0341745111414440  0.8843017432711164
  0.2873582515544726  0.0838631075803562  0.5680297712395372
  0.3508825077311357  0.1407439769052417  0.2153602378402368
  0.4327562140673251  0.1473926639174010  0.8869042543604451
  0.8675181250123174  0.9077115623534269  0.8856272289031111
  0.7800909063961896  0.9540059606648441  0.5563693746730962
  0.7175060966805304  0.0057749485692753  0.2292468864983093
  0.6425871631432329  0.0157467765126356  0.8939770202494799
  0.5687940839879957  0.0856618631587196  0.5441612427288263
  0.4960683001414878  0.1259763236380849  0.2294351951019067
  0.1535275315491447  0.9177099776173208  0.8955094155660390
  0.2178053328464387  0.9430553643239250  0.5385660615748975
  0.2903492051093295  0.0085638850163363  0.2187986586390309
  0.3666969874084529  0.0370522738894508  0.8972205112297118
  0.4113610027195662  0.0830644740624464  0.5487466408236585
  0.7856238511597056  0.8725212383265699  0.2166978663665731
  0.7405448895003559  0.8941905549010158  0.8823100341680217
  0.6442293765455105  0.9637143858822554  0.5548064912451522
  0.5608973427462587  0.0090214086681044  0.2160796180608244
  0.5150848362610105  0.0369417789933593  0.8879440581830025
  0.2151515088067910  0.8932588205218437  0.2326192350800795
  0.2823819349517791  0.9168185032281357  0.8881492705613852
  0.3447686699041697  0.9364866606581401  0.5492882603743752