Li                                      
   1.00000000000000     
    20.2271999999999998    0.0000000000000000    0.0000000000000000
     0.0000000000000000   20.2271999999999998    0.0000000000000000
     0.0000000000000000    0.0000000000000000   20.2271999999999998
   Li
   432
Direct
  0.9953086403456766  0.0090625642698967  0.0018511113747834
  0.8935895996479957  0.0611506901597849  0.0714622656620776
  0.8292640320953950  0.1447056132336684  0.1697856470495154
  0.7442101665084664  0.2603871751898410  0.2493007193284313
  0.6506603103741497  0.3524702059602944  0.3268545305331401
  0.5856380161366843  0.4106396268391066  0.4109321601605771
  0.5248026444589442  0.5119668846899259  0.4865932121104279
  0.4046943046986229  0.5745409082819180  0.5656185299992060
  0.3328169143529536  0.6702085923904448  0.6672641008147480
  0.2476608616120899  0.7657321280256255  0.7444311224489795
  0.1737174680628044  0.8307433510322753  0.8346870674141726
  0.0798153980778338  0.9118026424814119  0.9207716510441415
  0.0843906877867440  0.9225915208234454  0.0648711868177472
  0.9969379083610193  0.9917226333847466  0.1691673024442366
  0.9394663121934812  0.0870781872923558  0.2577214967963926
  0.8278881135302925  0.1625730491615229  0.3347877412592979
  0.7548003193719381  0.2772569589463671  0.4138267377590594
  0.6687003979789594  0.3297938958432240  0.4874544840610682
  0.5756401676949849  0.4011426796590740  0.5611399966381896
  0.4869191909903492  0.4967982024205000  0.6577878925407390
  0.4236150609080838  0.5835298192532861  0.7376203320281576
  0.3556081830406583  0.6718097354057875  0.8105946962505897
  0.2437751794613163  0.7451058114815723  0.9009746074592613
  0.1812598065970548  0.8173453478484447  0.0108690219110912
  0.1599752417536777  0.8296977391828833  0.1690412973619715
  0.0698352723065980  0.9027632910140824  0.2554164318343624
  0.9986247364934329  0.9915767001858882  0.3512857419712105
  0.9043567028555586  0.0709806676158848  0.3971685685611419
  0.8274624648987512  0.1646683881110604  0.4935743034132258
  0.7380900544810913  0.2489228345989574  0.5858641591520310
  0.6519574083412465  0.3349639693086530  0.6537949602515454
  0.5940532846859696  0.4152519973105555  0.7386502303828522
  0.5089688033934507  0.4972994497508338  0.8218779499881350
  0.4099705436244250  0.5809060453251078  0.8976179609634585
  0.3309439235287144  0.6825679629409933  0.9799550313439340
  0.2560974969348209  0.7607589083016961  0.0867984560393893
  0.2604707824118009  0.7521472363945563  0.2470595603939216
  0.1642574612403109  0.8260435547183960  0.3536220351803507
  0.0809787934068993  0.9209499925842408  0.4274899294019932
  0.9850115122211704  0.9894017115567166  0.4762403970890716
  0.9111527472907781  0.0637079378262939  0.5603935581790864
  0.8503526479196353  0.1554218003480443  0.6582055455030869
  0.7599112319055550  0.2398303245135267  0.7350288927780397
  0.6534924932763815  0.3291948865883541  0.8185542324197144
  0.5853698930153470  0.4062013071507664  0.9253065174616353
  0.5187596508661585  0.5221848560354374  0.9706549107142877
  0.4053290509808605  0.5842675175011891  0.0589125360900198
  0.3253267214443909  0.6823739400411313  0.1669047268035087
  0.3294215249762686  0.6632050387596919  0.3297308282906215
  0.2703947956217405  0.7469683431221341  0.4172998081790880
  0.1773951426791669  0.8187397044573643  0.4961985415677930
  0.0769558030770483  0.9013051099509539  0.5746691049675690
  0.9840548756130332  0.9957112655236529  0.6389802098164878
  0.9081617109634550  0.0800069633958245  0.7572715071784515
  0.8487154999208997  0.1687190639337146  0.8419203740507797
  0.7450233690278409  0.2280933263130862  0.9213441519340293
  0.6786647954239839  0.3178621994146482  0.0095719308653699
  0.5858723342825485  0.4380821571942732  0.0689550120629647
  0.4969680188063563  0.5083154766848565  0.1639020818501820
  0.4135624377076397  0.5898536356984678  0.2276842855165313
  0.4223665198346751  0.5803019196922961  0.4291868750988783
  0.3168289486434119  0.6892238238609423  0.5063343013368140
  0.2305452796234775  0.7571051865804463  0.5906178645586166
  0.1632187455505445  0.8349657372251258  0.6664525525035572
  0.0719662197437145  0.9303653946171480  0.7402063330564772
  0.0133217395388385  0.0010534962822319  0.8375151296274339
  0.9014870362679943  0.0753301712545493  0.9224545799715216
  0.8148007643173543  0.1630482088474920  0.0101001146970390
  0.7599159962822313  0.2343761509254847  0.0854538354295187
  0.6592379029227970  0.3549048296353448  0.1507130017995593
  0.5708349272267057  0.4243112071863635  0.2563154638308802
  0.5066578023651331  0.5087105817908579  0.3447630893054878
  0.0737454136014861  0.0859424705347251  0.9277219165282418
  0.9694022835587717  0.1663713519419403  0.0345857226902382
  0.8963965749090335  0.2415417398354691  0.0926998274600521
  0.8345405671570987  0.3532563231688002  0.1839125494383822
  0.7614448974647985  0.4182852372053460  0.2641221503717759
  0.6662591752689480  0.5176771016255373  0.3464139262972665
  0.5848985405790188  0.5923991091203931  0.3963660155632027
  0.5217865913225737  0.6623177439289663  0.5183557126048086
  0.4374641927701290  0.7580392886805853  0.5913860959500070
  0.3402629474173366  0.8207894908835627  0.6645269572654655
  0.2394529574038913  0.8937154623477284  0.7672254370352789
  0.1691173390286380  0.9868308851447551  0.8512153876957740
  0.1678655226625523  0.9926470163937680  0.9953100883958257
  0.0840695672164244  0.0641550303551668  0.0726888803195678
  0.0097748353701945  0.1679191924734980  0.1350839409310254
  0.9269525900767306  0.2256986597255164  0.2515049107142886
  0.8483100918565114  0.3231170666231620  0.3448224994067388
  0.7723867391433288  0.4316184499090312  0.4193560527408664
  0.6643131244067391  0.5216337585033983  0.5090096271357396
  0.5747846241694319  0.5996464874030991  0.5951903085943684
  0.4918532490903331  0.6585217929322909  0.6592982449375100
  0.4359815495965833  0.7712736023770006  0.7595056567394423
  0.3512234169830748  0.8344525762339856  0.8368724296986230
  0.2653471429560170  0.8962388041844633  0.9219209747271009
  0.2458339285714288  0.9113874826965684  0.0834796996124041
  0.1643874248536648  0.0136114123556368  0.1688671200166141
  0.0697489316366102  0.0702714696052809  0.2513340590887552
  0.0079478499248538  0.1408704393094453  0.3330707730185125
  0.9233978988688492  0.2431027032906172  0.4195113673667166
  0.8489146565021386  0.3297744749644025  0.5208430464918550
  0.7311230427345379  0.4098556320202533  0.5924875904722384
  0.6527504291251418  0.4974728464641700  0.6761767224331621
  0.5901381451708616  0.5851893183436161  0.7448322511271925
  0.5141664372725856  0.6592441356193675  0.8251631046313861
  0.4458984154999186  0.7371364217489287  0.9129388259373528
  0.3539274294019918  0.8367979438577748  0.9866553719743720
  0.3439046481964851  0.8349788156541678  0.1618667403298559
  0.2673541379924060  0.9209290608685308  0.2547236453883883
  0.1742021209065001  0.9917059508978028  0.3283001359555442
  0.1074587698742278  0.0812993088514489  0.4282370288522372
  0.0082118152784361  0.1493427676593910  0.4836597210686620
  0.9188843774719189  0.2321052251423836  0.5967302043782610
  0.8487804505813941  0.3305454066801161  0.6882220396298067
  0.7536180855481760  0.3982088786386626  0.7593121262458453
  0.6681401587960778  0.5079969031798797  0.8416960330643874
  0.6060451604769810  0.5891177819965208  0.9087763768588815
  0.5255617688063623  0.6490971375177992  0.9810610499723111
  0.4284598985524468  0.7489609313202052  0.0851149580762538
  0.4370369398631553  0.7653945355758580  0.2584604581949037
  0.3454295888704308  0.8226820029465287  0.3397999609436795
  0.2653999841797159  0.9067171378144252  0.4303684899541196
  0.1744822427226680  0.9772551346701448  0.5146196339582332
  0.0857843507751923  0.0764410847769312  0.5733757791488685
  0.9892321670819513  0.1539497997745585  0.6796571982281279
  0.9172636741615250  0.2362578369720012  0.7541583812885619
  0.8478826318027188  0.3157875187865855  0.8557628544731841
  0.7358253089898739  0.4198460706375542  0.9151517570400287
  0.6604611112759073  0.4914575180944496  0.0033462051099491
  0.5988300254113241  0.5733728884867872  0.0963108759492144
  0.4985004152823933  0.6645193452380980  0.1543145076926109
  0.4980901657174499  0.6601186016848573  0.3356119922678360
  0.4154638773532682  0.7543766868375243  0.4217353395427921
  0.3199932823129217  0.8400553952104133  0.5064700912632460
  0.2465335226823271  0.9161457176475238  0.5958691000237337
  0.1722674201075804  0.9970632420700838  0.6763356356786900
  0.0764308767402326  0.0836147365923097  0.7647656195617785
  0.9937510698465459  0.1563408168209151  0.8533434855046664
  0.9258191469901931  0.2699374213929744  0.9595080762537549
  0.8005608892975786  0.3431817948109455  0.9981864568501848
  0.7406616916824902  0.4262734515899353  0.0818392516018065
  0.6749122211675385  0.4931430173232059  0.2001873818422695
  0.5907024921887327  0.5770743409863925  0.2620379691702297
  0.1629036114736593  0.1666418228919468  0.8513159156976755
  0.0645689863154573  0.2378395081869940  0.9225835305924690
  0.9927889618928987  0.3284631318224953  0.0410592528872016
  0.8984996949651958  0.4259716287968658  0.0949123343814264
  0.8180955253322253  0.5323746074592606  0.1990617969862356
  0.7362535699454185  0.6086638788364169  0.2463999515503872
  0.6697390706573358  0.6621695978682141  0.3378078522978925
  0.5776841871341531  0.7463788309800634  0.4068283232479004
  0.5222184202460056  0.8318903926396146  0.4921876122251234
  0.4229786876087616  0.9321326303195718  0.5732936995728508
  0.3098223402151561  0.9931177241536133  0.6687473001700681
  0.2618878979789585  0.0758008098006613  0.7645027893133971
  0.2530147716935645  0.0716088203013783  0.9145311644716045
  0.1561778214483454  0.1658206276696745  0.0005394602317637
  0.1096955287929120  0.2604637418921030  0.0844636850379672
  0.9958557981332063  0.3415768959618717  0.1581016784329989
  0.9109366906937169  0.4339884249920871  0.2621895867940225
  0.8331929095475417  0.5376600701036196  0.3265725434068969
  0.7349704981411165  0.6040291983072308  0.4391352372053490
  0.6364191588554036  0.6586149022108856  0.5162405295839250
  0.5738318477100108  0.7628347848441734  0.5869088662790674
  0.4957542729591822  0.8490789837446613  0.6720825635777601
  0.4125538858566671  0.9362923162869805  0.7265979809365604
  0.3226815837090626  0.9908052602436328  0.8261508893964589
  0.3385661530018993  0.9912190100458815  0.9926562579101414
  0.2345735989163131  0.0947430919751611  0.0655061006960906
  0.1885373744265166  0.1637261830604331  0.1629290934978656
  0.0723539783064382  0.2594324365211236  0.2231902314704968
  0.9940430657728214  0.3289409537652261  0.3386621989202681
  0.9141518262537573  0.4019829808376869  0.4188726531601006
  0.8407887463415591  0.4924993108289826  0.5212470450680300
  0.7585249980224660  0.5741106683080233  0.5952334322100938
  0.6737158583491549  0.6660815772820783  0.6846039585310848
  0.5794021223896522  0.7493822906779002  0.7388155503480434
  0.4890414397445042  0.8364742193679788  0.8318168149818064
  0.4318280127748793  0.9201615339740528  0.9203594822812846
  0.4271057412790711  0.9180381782945730  0.0884570884749252
  0.3284123912355668  0.0187743380200942  0.1462319475755436
  0.2658887700719816  0.0845570909468449  0.2560553917497259
  0.1651568027210857  0.1578362709618730  0.3063422806913465
  0.0799398191544043  0.2113130418446474  0.3924743073682961
  0.9913505359120407  0.3190198613747839  0.5258810166508496
  0.9124322318462248  0.3985151019419391  0.5887042675209599
  0.8110663329576013  0.4937611710963452  0.6965946655987949
  0.7379071211042572  0.5772971325739604  0.7585049171412734
  0.6829948327005226  0.6772103667339024  0.8290380571705427
  0.5727792798805567  0.7687536144399587  0.9085279569095093
  0.4910843374268339  0.8547388600498351  0.0014011840492003
  0.4847827247468786  0.8486378693046959  0.1821780898987484
  0.3944664936323363  0.9326334534685969  0.2571885139811769
  0.3385613975241242  0.0141104710488875  0.3420957502768545
  0.2447545231173862  0.0941087901439630  0.4121715111335220
  0.1730335993118146  0.1593880284962808  0.4884143371302017
  0.0837752343379208  0.2295604730264174  0.5642740151874719
  0.9925580515345658  0.3208678759294443  0.6817881664293637
  0.9137745713692453  0.4061850137438725  0.7702499817077992
  0.8430323732399927  0.5079617786940389  0.8409771263447254
  0.7583332295127363  0.6005891947476698  0.9286284824394855
  0.6630293762854009  0.6918619897959175  0.0047274788403726
  0.5664826135105230  0.7630085810196192  0.0811230457008350
  0.5748099712268626  0.7444898339859165  0.2463130675526060
  0.5080282490903372  0.8578572743632336  0.3502150599193143
  0.4070412029346642  0.9262537904405974  0.4325618261548811
  0.3291853024640119  0.0126205337367509  0.5098679965590875
  0.2229160694510384  0.0781716218754909  0.5915291894083197
  0.1847288626206307  0.1676229997231431  0.6798359021515594
  0.0594364588277188  0.2236790346661905  0.7614635510599612
  0.9767268138941603  0.3295038245530790  0.8444671496796374
  0.9118633419356144  0.4234484624663821  0.9400676050071226
  0.8119751320004767  0.5011919435215972  0.9692383177108042
  0.7476732632297072  0.5955273695815535  0.0847930143569045
  0.6629099573841160  0.6826907347532014  0.1617907065733277
  0.2353278115606727  0.2414934024481852  0.7453935819095108
  0.1411739380635950  0.3479328794890080  0.8338897118731197
  0.0542683475715862  0.4315584801653216  0.9538510382059826
  0.9790757410813171  0.5255123922243286  0.0175921936797963
  0.8694185962466392  0.6006619032787555  0.0918261118691674
  0.8325204669949358  0.6983337748180674  0.1817105130715078
  0.7256852589582365  0.7629357523532647  0.2409590590887518
  0.6360422450957159  0.8303899140760933  0.3233200897800970
  0.6075892110623329  0.9357342929322883  0.4216822511271943
  0.5124447802958372  0.9912692438894197  0.4918554347611135
  0.4248782515622551  0.0843676702657774  0.5624906867979718
  0.3257040781719667  0.1449300392540707  0.6806101818343606
  0.3227809588079396  0.1712868642224308  0.8563661376759981
  0.2239059202460041  0.2561865339740521  0.9221644369957289
  0.1616956869957278  0.3531663487778829  0.9977465749090300
  0.0801338544138588  0.4372183688300879  0.0921126819332372
  0.9734021382099343  0.5153923054105363  0.1695091021001431
  0.9337894839621868  0.6050108957245683  0.2476467385500740
  0.8340692359792783  0.6646300788047768  0.3198975058337297
  0.7328464048410055  0.7294810230778381  0.4147480343300103
  0.6718153219427307  0.8376515647247302  0.5004462975597193
  0.5818516260283175  0.9273657861691191  0.5804815916192041
  0.5102986641749752  0.0388155938538191  0.6555735237699736
  0.3997055405592462  0.0952017234219298  0.7493489899738961
  0.4175347546867556  0.0998022019854474  0.9252020254904281
  0.3247559395269732  0.1840206993553224  0.9974033880121809
  0.2421559044257222  0.2823229819253257  0.0691129879568138
  0.1723364400411356  0.3489381960923907  0.1562168570044307
  0.0565451416903997  0.4085661604176565  0.2574494008068342
  0.9821793011390625  0.5193589354928037  0.3445094145507070
  0.9030948401162817  0.5784560131901628  0.4263890711517178
  0.8262729112284433  0.6600880611256130  0.5066154297184013
  0.7370832774679670  0.7530044039708912  0.5947754765859798
  0.6549339651558270  0.8483549883325452  0.6632674052760663
  0.5730482508701158  0.9176452796234784  0.7503358250276833
  0.4867076550387566  0.0276166330485665  0.8354246618414791
  0.5121007272385683  0.0006699785437405  0.9958653550664422
  0.4257638175328253  0.0877844639890810  0.0743801050071227
  0.3305900940317983  0.1801257460251549  0.1410509783855431
  0.2707985504667008  0.2754005789234313  0.2451738164451811
  0.1672017234219254  0.3174560992129400  0.3405486834559426
  0.0692449765662104  0.4243064556636611  0.4278619611216570
  0.9908652616279099  0.4954505423390287  0.4961736429164674
  0.9253929080643886  0.5812047258147430  0.6061645596029095
  0.8299805593458345  0.6635622023809518  0.6851772825700024
  0.7661677360188293  0.7548499401795610  0.7578053927384900
  0.6650377659784823  0.8340162098560384  0.8184464330208812
  0.5877766591520341  0.9186194515306099  0.9163502264277810
  0.5961682205149472  0.9111837693798464  0.0956601759017559
  0.5029814304500846  0.0104998951906339  0.1814586304579962
  0.4158739242208540  0.0992202756684080  0.2575340956731509
  0.3284701975557667  0.1785308307625399  0.3504649640088573
  0.2433182630319592  0.2476711383681405  0.4156643222986887
  0.1457342217410229  0.3203987571191291  0.5012363100181929
  0.0831785818106283  0.4008079610623341  0.5919358413423481
  0.9866694535081493  0.4846071819134607  0.6688414372725831
  0.9364731475439001  0.5866297159270673  0.7432155463929746
  0.8543708872211653  0.6661016813993044  0.8459994927622176
  0.7547644369957283  0.7523014678255038  0.9044005225636766
  0.6765598866872296  0.8280721741021964  0.9962949943640211
  0.6681393499841803  0.8386967444826752  0.1791095381466548
  0.5671362225122607  0.9295354809365577  0.2441804995253918
  0.5101749401795601  0.0047916493632343  0.3207371227851610
  0.4236625810789434  0.0773163754746093  0.4304648127274149
  0.3138568467212437  0.1623628262933110  0.4943709450640696
  0.2464034898552470  0.2514079200284769  0.5896120842232264
  0.1552173484219281  0.3098538655869305  0.6819996079536494
  0.0804283365962633  0.4108787978563484  0.7471798004666965
  0.9929061817750338  0.4964991813004289  0.8462307857736135
  0.9206522766373979  0.5947089592232260  0.9206266458036723
  0.8375967771120045  0.6792442626760007  0.9866365735247555
  0.7455883182051863  0.7535359654326825  0.0640008379805437
  0.3328587585033986  0.3127407490903309  0.6693689334163864
  0.2574130240468264  0.4044693244739790  0.7416775871104235
  0.1669817483388698  0.4817667403298529  0.8280573900490396
  0.0744065669000165  0.5786827662751151  0.9393568981371629
  0.9975139529939909  0.6764293728247139  0.0110888818027206
  0.9003544207799408  0.7627880250355972  0.0736538191148526
  0.8349322980936549  0.8585490171650036  0.1712001750118617
  0.7446814111691182  0.8994494754587876  0.2658830322535977
  0.6709835320756241  0.9978006515978493  0.3095982810275260
  0.5953839735603523  0.0745637334875795  0.4035179575027712
  0.4996280493592806  0.1616895388387931  0.4896292833412446
  0.4055998012577149  0.2228534097650723  0.5755061125613068
  0.3951994457957611  0.2378244907846891  0.7485439324276228
  0.3290905928650503  0.3263923227139713  0.8208568511707028
  0.2731677790302172  0.4248698584084778  0.9066910664847327
  0.1571277027962381  0.5046029934939114  0.0055659522820761
  0.0924512117346907  0.5834355748694833  0.0933227742841325
  0.9925284839226407  0.6935601319015987  0.1585175155236485
  0.9351755532154726  0.7556538532273365  0.2311348856984665
  0.8266774610425571  0.8080940070795748  0.3206332191306771
  0.7478940540460357  0.8998074221839900  0.3970287998338904
  0.6922928695024524  0.0194749896179403  0.5057129755972127
  0.5876761000039536  0.0765144290855844  0.5732389925446952
  0.4973394745688964  0.1556173939052385  0.6784895818501795
  0.4844969822812857  0.1628557748971673  0.8167965244818873
  0.4233355555885154  0.2625668001502959  0.9115020714681208
  0.3652913650925456  0.3196368474133848  0.9826894167259894
  0.2583482360386000  0.4143727268232880  0.0592834366595483
  0.1798225132494835  0.4960365888506573  0.1709030666627100
  0.0947077010164534  0.5911344718992240  0.2442361191860485
  0.0203891373991425  0.6666824785437413  0.3270388724094317
  0.9171431552562908  0.7137025925486498  0.4016506209460502
  0.8353925179955723  0.8257862590966596  0.4807042793861740
  0.7719900678294564  0.9238116007158652  0.5622169326451498
  0.6551473624624293  0.0045865062885611  0.6731160190238867
  0.5844133711042545  0.0886152838751784  0.7420644434227199
  0.5717933184029391  0.1010475631822487  0.9108165351605777
  0.5143269063439320  0.1576857459262797  0.0153083007039996
  0.4127900094921699  0.2502861725795000  0.0913077282075605
  0.3367080653773158  0.3514830218715375  0.1548978968913133
  0.2559022860306897  0.4112427315693736  0.2637565545404215
  0.1616980298805544  0.4874236839503254  0.3463432783578568
  0.0847185685611436  0.5979373210330650  0.4226709569292808
  0.9914875845396267  0.6634414199691534  0.5231845020566368
  0.9026990745135279  0.7628203438933738  0.5857244171214973
  0.8214644107933893  0.8530057328745428  0.6690009947002054
  0.7338034082819149  0.9302704363431431  0.7386524773572205
  0.6593324182289209  0.9977115690753067  0.8355246168525525
  0.6607282223936082  0.9786107731173885  0.9949863342430021
  0.5955273685927835  0.0659056582225901  0.0789382331711721
  0.5026938577756681  0.1492144404564186  0.1519629711477606
  0.4249374011232376  0.2477887295325090  0.2524822926554364
  0.3411820059128274  0.3700302726032305  0.3415389356905578
  0.2401320410140784  0.4306525045483340  0.4325572046551187
  0.1669783563716152  0.5139123862917288  0.5153168634314227
  0.0757578171966458  0.5689739227376975  0.5743109985563990
  0.0219282446408826  0.6791416839701014  0.6589454407925928
  0.9216128940238875  0.7600944638902050  0.7353832967489353
  0.8508279025272927  0.8586802340412945  0.8384944124742901
  0.7457098901479213  0.9168732775668431  0.9068421392975807
  0.7411955989954109  0.9185691642936220  0.0789609866911860
  0.6705584262774877  0.9796030473817439  0.1864944455980080
  0.6163835474015187  0.1039108522187959  0.2425810695499138
  0.5143647262102533  0.1428401360544242  0.3419241190080697
  0.4199095984614800  0.2379846587762984  0.4054851749129895
  0.3179358586457823  0.3197655770447696  0.4981437969664597
  0.2422016784329983  0.4156381585192221  0.5931642857142876
  0.1492317869008062  0.4808823430825839  0.6569554298172733
  0.0840761647682342  0.5572014989716791  0.7379494764475538
  0.0177737892540719  0.6645520586141416  0.8385269849509598
  0.9360962179639287  0.7481685052800202  0.9237986542872960
  0.8311890914214501  0.8448126937984526  0.9884875360900196
  0.4050085305924682  0.4082609782866626  0.5901352836774265
  0.3457276162790706  0.4778673024442313  0.6723478207562081
  0.2797103667339016  0.5734876957759880  0.7355860272306600
  0.1685211922559731  0.6455317092825510  0.8197507203171952
  0.0910786900806855  0.7502375929441527  0.9206184874822014
  0.9917564645625703  0.8445763328587219  0.0040831612877739
  0.9210835118058824  0.9270400846385058  0.0795561728761243
  0.8397215857854761  0.9783945864973873  0.1971757480026923
  0.7662317166983073  0.0669785768667950  0.2853251942928310
  0.6897555895032426  0.1758305247389629  0.3336606742406261
  0.5658110435453239  0.2491884235089401  0.4120541632059798
  0.4823963682566017  0.3256802266255363  0.5036245644478754
  0.5000273849074546  0.3181740898394239  0.6762520685018174
  0.4224883364973877  0.3832258251265657  0.7514369888071499
  0.3383993068739102  0.4915715571112145  0.8100648671096380
  0.2701389628816671  0.5719014401400102  0.9048927117940195
  0.1685204313993012  0.6573507405869350  0.9983980788245503
  0.0871889431063124  0.7399859278595144  0.0849062796630307
  0.9974937999327622  0.8333902566840692  0.1555584633562717
  0.9432559217291541  0.9002598861928490  0.2691502338435399
  0.8544814185848750  0.9901857414768216  0.3267383399580766
  0.7488026241892101  0.0721223041251378  0.3876533346187330
  0.6641311170107542  0.1723693437549443  0.4845858190950807
  0.5726839404366402  0.2549138600498324  0.5657039867109646
  0.5622770645467483  0.2435064719783284  0.7530887102515393
  0.5077983354097455  0.3333158143489925  0.8292263081395319
  0.4295790445538685  0.4151999693482011  0.9100021312885644
  0.3493932961556681  0.4906553037494064  0.9681686486513215
  0.2703626606747349  0.5810293125098909  0.0519595514950169
  0.1789195518905231  0.6615681122449004  0.1615319169237495
  0.0960811911683308  0.7317508651716480  0.2509736701075767
  0.0115296180390771  0.8072282614499287  0.3252280196962474
  0.9096835553116591  0.9027554876601798  0.3954127056636594
  0.8273187114380605  0.0054401864815716  0.4829187549438387
  0.7453000004943817  0.1001103296551165  0.5645336210647045
  0.6652304762893522  0.1811337229077665  0.6451652883246339
  0.6670646920977674  0.1708580020961890  0.8248893386133531
  0.5880433075264975  0.2315027898077844  0.8901590907293127
  0.5052406215393148  0.3337090353583321  0.9918234807585833
  0.4308276756051228  0.4318027734931178  0.0633583768391048
  0.3414073435769680  0.5060391359159908  0.1489790643292181
  0.2593613589621881  0.5886461146377187  0.2589449167457687
  0.1825578275787052  0.6651124995056179  0.3238734520843209
  0.0792880907886442  0.7375361493434553  0.4460862086695130
  0.9865896851763978  0.8396564353939269  0.4880509408123714
  0.8813223950917575  0.9199708125692112  0.5784896174458183
  0.8185283712031293  0.0104099356312304  0.6653811343141882
  0.7430246653021655  0.1002243226941957  0.7491022667497234
  0.7604283440120270  0.0980527146614492  0.9127691558891016
  0.6866394963217815  0.1615584697832588  0.0008238910971343
  0.5911094723936117  0.2392430628065156  0.0899386227456134
  0.5059614390523635  0.3448593537414979  0.1581335043901291
  0.4206634264752438  0.4243342227297902  0.2218138902072440
  0.3602987635461190  0.4943397603227311  0.3274322066326505
  0.2592347690238910  0.5872058406502134  0.4188709500079071
  0.1839417526894493  0.6599242777052652  0.5170138541172307
  0.0799680899976281  0.7612617861097917  0.5866140479156812
  0.9908358314546746  0.8550788250474639  0.6698142323208387
  0.9033190520685039  0.9299307778634684  0.7523068378223385
  0.8183366140642292  0.0104428472551845  0.8431229023295330
  0.8172801401083660  0.9922133429243800  0.9875234599944633
  0.7505773680984049  0.0460437386291730  0.0971496010322710
  0.6811161361928484  0.1632852357221992  0.1577720465511803
  0.6029127358210715  0.2532250613035885  0.2430702929718365
  0.4866368785595654  0.3194875074157579  0.3180750499327658
  0.4316880957324756  0.4206676312094615  0.4279871208076287
  0.3241361429164655  0.4854042922401547  0.4990843230897042
  0.2659075843418748  0.5653027487739308  0.6050892501186524
  0.1845655028872031  0.6489001606747351  0.6631032703488344
  0.0840325383641840  0.7363723061026732  0.7508106243078601
  0.0130295132297107  0.8340559256842255  0.8264372809879745
  0.9342693610583765  0.9308813775510174  0.9188840422797000
 
  0.00000000E+00  0.00000000E+00  0.00000000E+00
  0.00000000E+00  0.00000000E+00  0.00000000E+00
  0.00000000E+00  0.00000000E+00  0.00000000E+00
  0.00000000E+00  0.00000000E+00  0.00000000E+00
  0.00000000E+00  0.00000000E+00  0.00000000E+00
  0.00000000E+00  0.00000000E+00  0.00000000E+00
  0.00000000E+00  0.00000000E+00  0.00000000E+00
  0.00000000E+00  0.00000000E+00  0.00000000E+00
  0.00000000E+00  0.00000000E+00  0.00000000E+00
  0.00000000E+00  0.00000000E+00  0.00000000E+00
  0.00000000E+00  0.00000000E+00  0.00000000E+00
  0.00000000E+00  0.00000000E+00  0.00000000E+00
  0.00000000E+00  0.00000000E+00  0.00000000E+00
  0.00000000E+00  0.00000000E+00  0.00000000E+00
  0.00000000E+00  0.00000000E+00  0.00000000E+00
  0.00000000E+00  0.00000000E+00  0.00000000E+00
  0.00000000E+00  0.00000000E+00  0.00000000E+00
  0.00000000E+00  0.00000000E+00  0.00000000E+00
  0.00000000E+00  0.00000000E+00  0.00000000E+00
  0.00000000E+00  0.00000000E+00  0.00000000E+00
  0.00000000E+00  0.00000000E+00  0.00000000E+00
  0.00000000E+00  0.00000000E+00  0.00000000E+00
  0.00000000E+00  0.00000000E+00  0.00000000E+00
  0.00000000E+00  0.00000000E+00  0.00000000E+00
  0.00000000E+00  0.00000000E+00  0.00000000E+00
  0.00000000E+00  0.00000000E+00  0.00000000E+00
  0.00000000E+00  0.00000000E+00  0.00000000E+00
  0.00000000E+00  0.00000000E+00  0.00000000E+00
  0.00000000E+00  0.00000000E+00  0.00000000E+00
  0.00000000E+00  0.00000000E+00  0.00000000E+00
  0.00000000E+00  0.00000000E+00  0.00000000E+00
  0.00000000E+00  0.00000000E+00  0.00000000E+00
  0.00000000E+00  0.00000000E+00  0.00000000E+00
  0.00000000E+00  0.00000000E+00  0.00000000E+00
  0.00000000E+00  0.00000000E+00  0.00000000E+00
  0.00000000E+00  0.00000000E+00  0.00000000E+00
  0.00000000E+00  0.00000000E+00  0.00000000E+00
  0.00000000E+00  0.00000000E+00  0.00000000E+00
  0.00000000E+00  0.00000000E+00  0.00000000E+00
  0.00000000E+00  0.00000000E+00  0.00000000E+00
  0.00000000E+00  0.00000000E+00  0.00000000E+00
  0.00000000E+00  0.00000000E+00  0.00000000E+00
  0.00000000E+00  0.00000000E+00  0.00000000E+00
  0.00000000E+00  0.00000000E+00  0.00000000E+00
  0.00000000E+00  0.00000000E+00  0.00000000E+00
  0.00000000E+00  0.00000000E+00  0.00000000E+00
  0.00000000E+00  0.00000000E+00  0.00000000E+00
  0.00000000E+00  0.00000000E+00  0.00000000E+00
  0.00000000E+00  0.00000000E+00  0.00000000E+00
  0.00000000E+00  0.00000000E+00  0.00000000E+00
  0.00000000E+00  0.00000000E+00  0.00000000E+00
  0.00000000E+00  0.00000000E+00  0.00000000E+00
  0.00000000E+00  0.00000000E+00  0.00000000E+00
  0.00000000E+00  0.00000000E+00  0.00000000E+00
  0.00000000E+00  0.00000000E+00  0.00000000E+00
  0.00000000E+00  0.00000000E+00  0.00000000E+00
  0.00000000E+00  0.00000000E+00  0.00000000E+00
  0.00000000E+00  0.00000000E+00  0.00000000E+00
  0.00000000E+00  0.00000000E+00  0.00000000E+00
  0.00000000E+00  0.00000000E+00  0.00000000E+00
  0.00000000E+00  0.00000000E+00  0.00000000E+00
  0.00000000E+00  0.00000000E+00  0.00000000E+00
  0.00000000E+00  0.00000000E+00  0.00000000E+00
  0.00000000E+00  0.00000000E+00  0.00000000E+00
  0.00000000E+00  0.00000000E+00  0.00000000E+00
  0.00000000E+00  0.00000000E+00  0.00000000E+00
  0.00000000E+00  0.00000000E+00  0.00000000E+00
  0.00000000E+00  0.00000000E+00  0.00000000E+00