Li 
 1.0000000000000000
    20.2271999999999998    0.0000000000000000    0.0000000000000000
     0.0000000000000000   20.2271999999999998    0.0000000000000000
     0.0000000000000000    0.0000000000000000   20.2271999999999998
 Li 
 432
Cartesian
 -0.0948930700000000  0.1833103000000000  0.0374428000000000
 18.0748155500000003  1.2369072400000001  1.4454815400000001
 16.7736894300000010  2.9269893800000002  3.4342882399999999
 15.0532878799999992  5.2669034699999999  5.0426555100000003
 13.1610362300000006  7.1294853500000004  6.6113519600000004
 11.8458172800000003  8.3060898600000002  8.3120069900000004
 10.6152880500000002 10.3556565700000007  9.8424182200000008
  8.1858326399999992 11.6213538599999993 11.4408791300000008
  6.7319542900000000 13.5564432400000001 13.4968844200000007
  5.0094857800000003 15.4886169000000002 15.0577571999999993
  3.5138179699999998 16.8036119100000008 16.8833822500000004
  1.6144420200000000 18.4432144099999995 18.6246323400000016
  1.7069873200000001 18.6614432100000016  1.3121624700000001
 -0.0619375400000000 -0.1674279500000000  3.4217808600000001
 19.0027729900000004  1.7613479100000000  5.2129842599999998
 16.7458584500000001  3.2883975799999998  6.7718185999999996
 15.2674970200000004  5.6081319599999997  8.3705561900000003
 13.5259366900000000  6.6708070900000003  9.8598393400000006
 11.6435887999999998  8.1139932100000003 11.3502909400000007
  9.8490118599999992 10.0488365999999996 13.3052072599999995
  8.5685465599999997 11.8031743599999999 14.9199939799999992
  7.1929578400000000 13.5888298800000005 16.3960610399999993
  4.9308893100000004 15.0714042700000004 18.2241935800000014
  3.6663783599999999 16.5326078199999991  0.2198498800000000
  3.2358512099999999 16.7824621100000009  3.4192321300000001
  1.4125720200000000 18.2603736400000010  5.1663592500000002
 -0.0278177300000000 -0.1703797700000000  7.1055269599999997
 18.2926038999999996  1.4357401599999999  8.0336080699999997
 16.7372487700000008  3.3307804200000000  9.9836261499999992
 14.9294951499999993  5.0350119600000003 11.8503915200000005
 13.1872728899999991  6.7753832000000003 13.2244414199999998
 12.0160345999999993  8.3993851999999993 14.9408259399999999
 10.2950137799999997 10.0589754300000003 16.6242896699999996
  8.2925561800000001 11.7501027600000008 18.1562980200000013
  6.6940689300000003 13.8064386999999993 19.8217464099999994
  5.1801352899999999 15.3880225900000003  1.7556897300000001
  5.2685946100000001 15.2138325800000000  4.9973231399999998
  3.3224685200000001 16.7085481899999984  7.1527836300000001
  1.6379742500000001 18.6282396900000009  8.6469243000000002
 -0.3031751400000000 -0.2143737000000000  9.6330097600000002
 18.4300688500000014  1.2886332000000000 11.3351925799999993
 17.2002530799999995  3.1437478400000001 13.3136552100000003
 15.3708764700000007  4.8510959400000004 14.8675764200000007
 13.2183233599999994  6.6586908100000004 16.5570601699999997
 11.8403939000000005  8.2163150799999993 18.7163599900000008
 10.4930552099999996 10.5623375199999998 -0.5935689900000000
  8.1986717799999997 11.8180959300000001  1.1916356500000000
  6.5804486600000001 13.8025141599999994  3.3760152899999998
  6.6632750700000001 13.4147809599999999  6.6695314100000003
  5.4693296100000000 15.1090780700000007  8.4408066799999997
  3.5882070300000000 16.5608117499999992 10.0367071400000007
  1.5566004200000001 18.2308787199999998 11.6239469199999998
 -0.3225252200000000 -0.0867490900000000 12.9247805000000007
 18.3695685600000012  1.6183168500000000 15.3174822299999995
 17.1671381600000004  3.4127142500000001 17.0296917900000011
 15.0697366899999992  4.6136893299999997 18.6362124300000005
 13.7274885500000003  6.4294622800000001  0.1936133600000000
 11.8505568799999992  8.8611754099999995  1.3947668200000001
 10.0522715100000006 10.2817988099999997  3.3152801900000002
  8.3652101400000003 11.9310874600000005  4.6054155799999998
  8.5432920699999997 11.7378829899999992  8.6812487600000008
  6.4085625100000003 13.9410681299999997 10.2417251799999995
  4.6632854799999999 15.3141180299999995 11.9465456700000008
  3.3014582099999998 16.8890189600000014 13.4804690699999998
  1.4556751200000000 18.8186869100000003 14.9723015400000001
  0.2694614900000000  0.0213092800000000 16.9405860299999986
 18.2345585800000016  1.5237184399999999 18.6586732799999986
 16.4811380199999995  3.2980087299999998 20.4314970400000000
 15.3709728400000003  4.7407732800000000  1.7284918199999999
 13.3345369100000006  7.1787309700000002  3.0485020299999999
 11.5463922399999994  8.5826276499999992  5.1845441499999998
 10.2482687000000006 10.2897906799999994  6.9735919600000003
  1.4916632299999999  1.7383755400000001 18.7652167500000004
 -0.6189061300000001  3.3652266100000001  0.6995723300000000
 18.1315928000000000  4.8857130800000004  1.8750579500000000
 16.8804189600000001  7.1453863000000002  3.7200359199999999
 15.4018982300000005  8.4607391500000002  5.3424515599999998
 13.4765575900000005 10.4711582700000001  7.0069837699999997
 11.8308597599999992 11.9825752600000008  8.0173746700000006
 10.5542817400000004 13.3968334700000007 10.4848846699999996
  8.8486757199999992 15.3330123000000000 11.9620848399999993
  6.8825666900000000 16.6022731899999982 13.4415196699999999
  4.8434628599999998 18.0773614000000009 15.5188223599999997
  3.4207702400000000 -0.2663743200000000 17.2177038899999992
  3.3954494999999998 -0.1487302700000000 -0.0948637800000000
  1.7004919500000000  1.2976766300000000  1.4702925200000001
  0.1977175500000000  3.3965350900000000  2.7323698900000002
 18.7496554300000007  4.5652519299999996  5.0872401299999996
 17.1589378900000007  6.5357535300000000  6.9747936599999996
 15.6232210499999997  8.7304327100000005  8.4823987499999998
 13.4371944299999999 10.5511903599999997 10.2958395300000003
 11.6262835500000001 12.1291694299999993 12.0390334100000000
  9.9488140400000002 13.3200520099999995 13.3357574600000000
  8.8186859999999996 15.6007054099999998 15.3626728200000002
  7.1042662999999999 16.8786391500000015 16.9275860099999989
  5.3672297300000000 18.1284015399999987 18.6478799399999993
  4.9725320399999999 18.4348168900000005  1.6885605800000001
  3.3250973199999998  0.2753207600000000  3.4157090100000000
  1.4108255900000000  1.4213950700000000  5.0837842799999997
  0.1607627500000000  2.8494145500000001  6.7370891400000001
 18.6777539799999985  4.9172870000000000  8.4855403299999992
 17.1711665400000015  6.6704142600000003 10.5351964700000007
 14.7885720099999993  8.2902318400000006 11.9843649899999996
 13.2033134800000003 10.0624827600000000 13.6771618000000004
 11.9368422899999995 11.8367413799999994 15.0658709099999992
 10.4001473600000001 13.3346629799999992 16.6907391499999989
  9.0192764299999997 14.9102058300000007 18.4661962200000005
  7.1589609000000003 16.9260793700000001 19.9572755400000013
  6.9562280999999997 16.8892835000000012  3.2741109300000000
  5.4078256199999997 18.6278162999999992  5.1523461199999998
  3.5236211399999999 -0.1677653900000000  6.6405925100000003
  2.1735900300000002  1.6444573800000000  8.6620360299999994
  0.1661020300000000  3.0207860300000000  9.7830819099999999
 18.5864580799999999  4.6948388100000003 12.0701811899999996
 17.1684519299999998  6.6860080499999999 13.9208048400000006
 15.2435837400000000  8.0546506299999994 15.3587582400000002
 13.5146046200000001 10.2753549599999996 17.0251540000000006
 12.2585966699999993 11.9162032000000000 18.3820015300000001
 10.6306430100000000 13.1294176199999999 19.8441180700000004
  8.6665440599999997 15.1493825500000003  1.7216372799999999
  8.8400335900000009 15.4817883500000004  5.2279313800000002
  6.9870733800000000 16.6405534099999990  6.8732017699999997
  5.3682985600000004 18.3403488900000013  8.7051495200000009
  3.5292872200000001 -0.4600649400000000 10.4093142600000004
  1.7351772200000000  1.5461891100000000 11.5977865599999994
 -0.2178031100000000  3.1139733900000000 13.7475620799999998
 18.5536757899999998  4.7788345200000002 15.2545124100000002
 17.1502915700000003  6.3874972999999997 17.3096864100000012
 14.8836856900000001  8.4923104400000007 18.5109576199999992
 13.3592789900000000  9.9408095099999993 20.2948843600000011
 12.1126546899999994 11.5977280900000004  1.9480993499999999
 10.0832675999999992 13.4413657000000004  3.1213504099999998
 10.0749694000000005 13.3523509800000006  6.7884908900000003
  8.4036709399999996 15.2589281200000002  8.5305250600000004
  6.4725681200000000 16.9919684900000014 10.2444718300000002
  4.9866828700000001 18.5310626599999999 12.0527634599999995
  3.4844875599999998 -0.0594023900000000 13.6803761700000006
  1.5459826299999999  1.6912920000000000 15.4690671399999999
 -0.1263983600000000  3.1623369700000001 17.2607493500000011
 18.7267290499999994  5.4600782099999998 19.4081617599999987
 16.1931052199999996  6.9416067999999997 20.1905171000000010
 14.9815121700000002  8.6223183599999995  1.6553789100000000
 13.6515844800000004  9.9749024399999993  4.0492302100000002
 11.9482574499999998 11.6725981099999991  5.3002944100000002
  3.2950839300000001  3.3706974800000000 17.2197372900000012
  1.3060498000000000  4.8108272999999997 18.6612815900000015
 -0.1458591100000000  6.6438894599999996  0.8305137200000000
 18.1741330300000001  8.6162133300000008  1.9198107700000000
 16.5477818100000000 10.7684476599999996  4.0264627800000001
 14.8923482099999998 12.3115660099999999  4.9839811000000003
 13.5469461300000003 13.3938368899999993  6.8329069899999997
 11.6849335900000000 15.0971538899999995  8.2289978599999998
 10.5630164299999993 16.8268133499999983  9.9555772699999991
  8.5556745099999993 18.8544331400000011 11.5961263199999998
  6.2668384399999999 20.0879908299999990 13.5268853900000003
  5.2972588900000002  1.5332381399999999 15.4637508199999996
  5.1177803900000001  1.4484459300000001 18.4984047700000005
  3.1590400299999999  3.3540869999999998  0.0109117700000000
  2.2188333999999998  5.2684521999999996  1.7084638500000000
 -0.0838256000000000  6.9091441900000001  3.1979542699999999
 18.4256986299999994  8.7783706699999993  5.3033612100000003
 16.8531596199999996 10.8753577700000008  6.6056481500000004
 14.8663952599999991 12.2178193999999998  8.8824762699999997
 12.8729776099999995 13.3219353500000004 10.4421004400000008
 11.6070115499999993 15.4300117599999993 11.8715230199999997
 10.0277208299999998 17.1744904200000015 13.5943484300000001
  8.3448099599999992 18.9385719399999992 14.6970426799999991
  6.5269449300000000 20.0412161600000012 16.7107192699999985
  6.8482452900000004 -0.1776148400000000 -0.1485433400000000
  4.7447670999999998  1.9163874700000001  1.3250050000000000
  3.8135831800000002  3.3117222499999999  3.2955993600000002
  1.4635183899999999  5.2475917799999996  4.5145134499999999
 -0.1204921000000000  6.6535544599999996  6.8501880300000000
 18.4907318200000006  8.1309901500000006  8.4726209299999997
 17.0068021300000005  9.9618820600000006 10.5433682300000005
 15.3428368400000004 11.6126513100000004 12.0399056800000004
 13.6273854100000005 13.4729652800000004 13.8476211899999999
 11.7196826099999996 15.1579054699999993 14.9441699000000003
  9.8919390099999998 16.9195313300000016 16.8253250799999989
  8.7346715800000005 18.6122913799999985 18.6162953199999990
  8.6391532499999997 18.5693418399999999  1.7892392200000000
  6.6428631200000003  0.3797522900000000  2.9578628500000002
  5.3781853300000000  1.7103531900000000  5.1792836199999996
  3.3406596799999999  3.1925858200000001  6.1964465799999999
  1.6169587100000000  4.2742711599999996  7.9386563099999998
 -0.1749544400000000  6.4528785400000004 10.6371005000000007
 18.4559492399999989  8.0608446699999998 11.9078389599999994
 16.4056009299999985  9.9874059600000002 14.0901596199999997
 14.9257949199999995 11.6771045600000001 15.3424306599999998
 13.8150730799999995 13.6980695299999997 16.7691185900000015
 11.5857210500000001 15.5497331100000000 18.3769766899999993
  9.9332611100000001 17.2889738699999995 20.2555420300000009
  9.8057971300000002 17.1655679100000000  3.6849526600000000
  7.9789526600000000 18.8645633900000007  5.2022035100000004
  6.8481490999999997  0.2854153200000000  6.9196391600000000
  4.9506986900000003  1.9035573200000000  8.3370755899999995
  3.4999852200000001  3.2239735299999999  9.8792544800000002
  1.6945384200000000  4.6433656000000001 11.4136833600000003
 -0.1505297800000000  6.4902587000000000 13.7906656000000005
 18.4831010099999986  8.2159855099999994 15.5800004300000001
 17.0521844199999997 10.2746444900000000 17.0106125299999995
 15.3389579000000005 12.1482377600000007 18.7835540399999985
 13.4112278000000007 13.9944308399999997 20.3228236600000010
 11.4583571200000005 15.4335271699999996  1.6408920700000000
 11.6267962499999999 15.0589447700000001  4.9822236799999997
 10.2759889999999992 17.3520506599999997  7.0838700599999997
  8.2333038199999997 18.7355206699999997  8.7495145700000005
  6.6584969500000000  0.2552780600000000 10.3132019400000008
  4.5089679199999999  1.5811930300000001 11.9649792200000000
  3.7365476499999999  3.3905439400000001 13.7511767599999999
  1.2022331399999999  4.5244005700000001 15.4022755399999998
 -0.4707513900000000  6.6649397600000002 17.0812059299999994
 18.4444421900000002  8.5651767400000001 19.0149354600000002
 16.4239833900000001 10.1377096800000004 19.6049773000000016
 15.1233366300000007 12.0458512100000004  1.7151252600000000
 13.4088122900000002 13.8089220299999997  3.2725729800000001
  4.7600227100000003  4.8847353499999997 15.0772250600000000
  2.8555534800000002  7.0377079399999998 16.8672539800000010
  1.0976967200000001  8.7292196900000008 19.2937357200000008
 -0.4232391700000000 10.6296442599999992  0.3558408200000000
 17.5859038299999995 12.1497084500000003  1.8573851299999999
 16.8395579899999994 14.1253369299999996  3.6754948900000000
 14.6785808699999993 15.4320540499999996  4.8739270799999996
 12.8653537000000000 16.7964628699999992  6.5398601200000002
 12.2898284899999997 18.9272846900000005  8.5294512299999994
 10.3653230599999997 -0.1765987500000000  9.9488582500000007
  8.5940973700000001  1.7065217399999999 11.3776116199999997
  6.5880815300000002  2.9315288900000001 13.7668382699999992
  6.5289550099999998  3.4646536600000002 17.3218891399999997
  4.5289898300000004  5.1819362599999996 18.6528044999999985
  3.2706510000000000  7.1435663700000003 -0.0455804800000000
  1.6208834999999999  8.8437033899999999  1.8631816400000001
 -0.5380002699999999 10.4249432399999993  3.4286945100000001
 18.8879466499999999 12.2376763900000007  5.0092001100000001
 16.8708852500000006 13.4436055299999992  6.4706308300000002
 14.8234308000000006 14.7553585500000004  8.3891914399999994
 13.5889428799999994 16.9433457300000008 10.1226273500000001
 11.7692292100000007 18.7580132299999995 11.7415172499999994
 10.3219131399999995 21.0123307799999992 13.2604167799999999
  8.0849239100000005  1.9256643000000000 15.1572318900000003
  8.4455589900000003  2.0187191000000002 18.7142464100000012
  6.5689033400000003  3.7222234900000002 -0.0525221900000000
  4.8981359099999997  5.7106034200000000  1.3979622300000001
  3.4858836400000000  7.0580426799999998  3.1598296100000001
  1.1437498900000000  8.2641494400000006  5.2074805199999998
 -0.3604628400000000 10.5051770599999994  6.9684608299999997
 18.2670799499999994 11.7005454699999998  8.6246570200000008
 16.7131874300000014 13.3517332300000007 10.2474116199999994
 14.9091308700000003 15.2311706800000000 12.0306425200000007
 13.2474802999999994 17.1598460199999998 13.4160424599999999
 11.5911615799999996 18.5613945999999999 15.1771928000000003
  9.8447330799999992  0.5586071600000000 16.8983017199999992
 10.3583638300000000  0.0135517900000000 -0.0836322900000000
  8.6120098899999995  1.7756339100000000  1.5045012600000001
  6.6869119499999998  3.6434394900000000  2.8530663500000002
  5.4774964400000004  5.5705825899999999  4.9591798200000001
  3.3820226999999998  6.4212480100000002  6.8883463300000001
  1.4006319899999999  8.5825315399999997  8.6544494600000004
 -0.1847701800000000 10.0215772100000002 10.0362035100000000
 18.7181074299999999 11.7561442300000003 12.2610117800000005
 16.7881827699999988 13.4220053799999999 13.8592179299999998
 15.4974280300000000 15.2685007099999996 15.3282812400000008
 13.4518518999999994 16.8698126799999990 16.5548796899999999
 11.8890760400000008 18.5810993700000004 18.5351992999999986
 12.0588138300000001 18.4306963400000008  1.9349375099999999
 10.1739059899999997  0.2123834800000000  3.6704000099999998
  8.4119650400000001  2.0069483600000000  5.2091936600000004
  6.6440323799999996  3.6111788200000001  7.0889249200000002
  4.9216471700000000  5.0096936500000000  8.4077253800000005
  2.9477952500000000  6.4807697400000004 10.1386070900000007
  1.6824698100000000  8.1072227899999998 11.9732046499999996
 -0.2696396300000000  9.8022463900000005 13.5287895200000001
 18.9422296500000016 11.8658765899999992 15.0331694999999996
 17.2815308099999996 13.4733719300000008 17.1122009400000010
 15.2667712200000008 15.2169522500000003 18.2934902500000014
 13.6849121399999998 16.7495814799999998 -0.0749418900000000
 13.5145882600000000 16.9644867899999987  3.6228844499999999
 11.4715778000000004 18.8019000799999993  4.9390878000000003
 10.3194105500000006  0.0969216500000000  6.4876139300000002
  8.5695077600000005  1.5638937900000001  8.7070978599999993
  6.3484452100000004  3.2841453600000001  9.9997399799999993
  4.9840526699999996  5.0852782799999998 11.9262015500000000
  3.1396123500000002  6.2674761099999996 13.7949424700000005
  1.6268400500000000  8.3109276199999993 15.1133552600000005
 -0.1434880800000000 10.0427882400000001 17.1168793500000014
 18.6222177299999991 12.0292970599999993 18.6216992899999987
 16.9422375299999999 13.7392095500000000 -0.2703047000000000
 15.0811640300000001 15.2419226800000001  1.2945577500000001
  6.7328006800000004  6.3258696800000003 13.5394592899999999
  5.2067447199999997  8.1812819200000000 15.0020608899999992
  3.3775732199999999  9.7447922100000000 16.7492824400000018
  1.5050365100000000 11.7051320499999996 19.0005598499999984
 -0.0502857700000000 13.6822722100000007  0.2242970300000000
 18.2116489399999999 15.4290659399999992  1.4898105300000000
 16.8883425799999998 17.3660426799999996  3.4629001800000001
 15.0628198399999995 18.1933444299999998  5.3780692700000001
 13.5721181000000009 -0.0444866600000000  6.2623063500000002
 12.0429507099999995  1.5082155500000001  8.1620384300000008
 10.1060764800000005  3.2705266399999999  9.9038294400000009
  8.2041482999999999  4.5077004900000004 11.6408772400000000
  7.9937782300000002  4.8105235400000002 15.1409478300000000
  6.6565812400000004  6.6020027900000002 16.6036357000000017
  5.5254193000000003  8.5939276000000007 18.3398215399999991
  3.1782534700000000 10.2067056699999998  0.1125836300000000
  1.8700291499999999 11.8012680599999999  1.8876584199999999
 -0.1511278500000000 14.0287795000000006  3.2063654900000000
 18.9159829500000001 15.2847616199999994  4.6752115600000002
 16.7213703400000000 16.3454790999999986  6.4855122500000002
 15.1278026099999998 18.2005846899999995  8.0307809399999996
 14.0031463299999999  0.3939245100000000 10.2291574999999995
 11.8870420100000000  1.5476726599999999 11.5950197500000005
 10.0597850199999996  3.1477041500000000 13.7239444699999993
  9.8000173600000000  3.2941163300000000 16.5215066600000000
  8.5628929500000002  5.3109911800000003 18.4371347000000014
  7.3888214999999997  6.4653584400000002 -0.3501446300000000
  5.2256614399999997  8.3816000200000005  1.1991379300000000
  3.6373059400000001 10.0334312899999993  3.4568905100000000
  1.9156716100000000 11.9569951900000007  4.9402128300000001
  0.4124151600000000 13.4851198300000004  6.6150806800000002
 18.5512380300000004 14.4362050800000006  8.1242674400000006
 16.8976515399999982 16.7033438200000006  9.7233015999999992
 15.6151975000000007 18.6861220099999983 11.3720743399999993
 13.2517967300000006  0.0927721800000000 13.6152523399999996
 11.8210461400000000  1.7924390699999999 15.0098859099999995
 11.5657778100000002  2.0439092699999999 18.4232682200000006
 10.4033932000000000  3.1895411199999999  0.3096440600000000
  8.3495860799999999  5.0625884699999997  1.8468996799999999
  6.8106613800000000  7.1095173799999998  3.1331507400000000
  5.1761867199999996  8.3182889800000002  5.3350565799999998
  3.2706983900000002  9.8592163399999997  7.0055547599999999
  1.7136194300000001 12.0945977800000009  8.5494499800000003
 -0.1721823300000000 13.4195622900000000 10.5825575599999997
 18.2590747200000010 15.4297196599999999 11.8475649300000008
 16.6159249299999985 17.2539175600000014 13.5320169200000002
 14.8427883000000005 18.8167661700000011 14.9408713899999999
 13.3364486899999992 -0.0462885500000000 16.9003235300000014
 13.3646819000000008 -0.4326441700000000 -0.1014124200000000
 12.0458511900000005  1.3330869299999999  1.5966994299999999
 10.1680892000000007  3.0181903299999999  3.0737854100000002
  8.5952938000000003  5.0120721899999996  5.1070098300000000
  6.9011566699999998  7.4846763300000001  6.9083763600000001
  4.8571988199999998  8.7108943399999994  8.7494210900000002
  3.3775046099999999 10.3950086200000005 10.4234172600000008
  1.5323685199999999 11.5087493300000006 11.6167034299999994
  0.4435469900000000 13.7371346699999997 13.3286212200000005
 18.6416483299999989 15.3745827399999992 14.8747450200000007
 17.2098661499999999 17.3686968300000011 16.9603941800000015
 15.0836230899999997 18.5457791599999986 18.3428773199999995
 14.9923116200000006 18.5800821999999997  1.5971596699999999
 13.5635194000000006 -0.4125732400000000  3.7722604500000001
 12.4677132900000007  2.1018255899999998  4.9067358099999998
 10.4041581900000004  2.8892560000000000  6.9161675400000000
  8.4935954299999992  4.8137632899999998  8.2018297300000000
  6.4309522000000001  6.4679622800000001 10.0760542100000006
  4.8990617900000002  8.4071961599999998 11.9980526399999992
  3.0185412000000000  9.7269033300000007 13.2883688699999993
  1.7006254000000001 11.2706261600000008 14.9266516500000002
  0.3595139900000000 13.4420274000000006 16.9610530299999986
 18.9346054200000005 15.1333539899999998 18.6858601399999991
 16.8126279899999993 17.0881953200000005 -0.2328649100000000
  8.1921885499999991  8.2579764600000001 11.9367844099999996
  6.9931016399999999  9.6659175000000008 13.5997138399999997
  5.6577575299999996 11.6000503199999994 14.8788456900000003
  3.4087118599999999 13.0572989899999996 16.5812617700000011
  1.8422668799999999 15.1752058400000003 18.6215342700000015
 -0.1667436400000000 17.0834143999999988  0.0825909200000000
 18.6309404100000009 18.7514251999999999  1.6091986199999999
 16.9852164600000002 19.7901829800000009  3.9883132899999998
 15.4987221799999997  1.3547890700000000  5.7713297700000004
 13.9518242600000004  3.5565591900000002  6.7490211899999997
 11.4447731400000006  5.0403840799999999  8.3347019699999993
  9.7575278200000000  6.5875990800000004 10.1869147899999994
 10.1141539199999997  6.4357709500000002 13.6786858400000000
  8.5457560800000003  7.7515854099999997 15.1994662599999995
  6.8448704600000001  9.9431162000000004 16.3853440799999994
  5.4641548300000000 11.5679648099999994 18.3034458600000001
  3.4086964700000002 13.2963649000000004 -0.0324023800000000
  1.7635881900000001 14.9678433599999998  1.7174163000000000
 -0.0506934100000000 16.8571513999999993  3.1465121500000000
 19.0794261799999987 18.2097367699999992  5.4441556100000001
 17.2837665499999993 20.0286850299999983  6.6090017500000000
 15.1461804400000002  1.4588322700000000  7.8411415299999998
 13.4335129299999991  3.4865491899999999  9.8018142800000003
 11.5837926000000007  5.1561936299999998 11.4426076800000001
 11.3732906400000005  4.9254541100000004 15.2328759599999994
 10.2713384899999998  6.7420456399999997 16.7729263800000012
  8.6891812500000007  8.3983328200000003 18.4067951100000009
  7.0672480799999997  9.9245829600000004 -0.6438591100000000
  5.4686796099999997 11.7525961100000007  1.0509962399999999
  3.6190415599999999 13.3816705200000001  3.2673383899999999
  1.9434534699999999 14.8012710999999992  5.0764946200000001
  0.2332118900000000 16.3279674899999989  6.5784522000000001
 18.4003512100000002 18.2602158000000010  7.9980918799999996
 16.7343410400000003  0.1100397400000000  9.7680942399999999
 15.0753321699999994  2.0249516600000002 11.4189344599999991
 13.4557498899999999  3.6638280399999998 13.0498873199999998
 13.4928509400000003  3.4559789799999998 16.6852016300000017
 11.8944695899999999  4.6826532299999997 18.0054259600000002
 10.2196031000000005  6.7499994000000001 -0.1653880900000000
  8.7144375600000004  8.7341610599999999  1.2815625600000000
  6.9057146200000004 10.2357548099999995  3.0134293300000001
  5.2461540800000002 11.9066626899999992  5.2377306199999998
  3.6926336900000001 13.4533635500000006  6.5510530899999999
  1.6037760700000001 14.9182912000000005  9.0230749600000006
 -0.2712531200000000 16.9838986500000004  9.8719039899999999
 17.8266843500000007 18.6084336199999996 11.7012251900000006
 16.5565370700000010 20.4377638499999996 13.4587972800000006
 15.0293085099999999  2.0272574200000002 15.1522413700000005
 15.3813361999999998  1.9833318700000000 18.4627642700000010
 13.8887944200000000  3.2678754799999998  0.0166650100000000
 11.9564895199999999  4.8392172799999997  1.8192065100000001
 10.2341832200000002  6.9755391199999996  3.1985980199999999
  8.5088432600000008  8.5830931899999996  4.4866739200000003
  7.2878351500000003  9.9991091999999995  6.6230367299999999
  5.2435935200000001 11.8775299800000003  8.4725864800000004
  3.7206266200000000 13.3484203499999996 10.4577426300000003
  1.6175305499999999 15.3981943999999995 11.8655596699999997
 -0.1853654700000000 17.2958504099999999 13.5484664400000003
 18.2716151300000007 18.8098958299999985 15.2170608699999992
 16.5526583599999988 20.4384295599999994 17.0540155700000007
 16.5312888499999993 -0.1575022700000000 -0.2523654700000000
 15.1820785399999991  0.9313359100000000  1.9650644100000001
 13.7770723099999994  3.3028031200000001  3.1912867399999998
 12.1952364899999992  5.1220339600000004  4.9166314299999998
  9.8433014700000001  6.4623377099999999  6.4337676500000001
  8.7318414499999992  8.5089283099999999  8.6569810900000004
  6.5563665899999997  9.8183696999999999 10.0950784200000001
  5.3785658900000000 11.4344917600000002 12.2392612799999991
  3.7332433400000000 13.1254333299999999 13.4127224700000003
  1.6997429600000000 14.8947499099999998 15.1867966600000006
  0.2635505700000000 16.8706160199999999 16.7165121700000014
 18.8976532199999987 18.8291238000000014 18.5864513000000002
