Li                                      
   1.00000000000000     
    21.0527999999999977    0.0000000000000000    0.0000000000000000
     0.0000000000000000   21.0527999999999977    0.0000000000000000
     0.0000000000000000    0.0000000000000000   21.0527999999999977
   Li
   432
Direct
  0.9986474939200463  0.9904461392308832  0.9954956875094965
  0.9038656696496403  0.0811033164234658  0.0845480135658931
  0.8351405466256239  0.1620815620725011  0.1561660733964132
  0.7552817834207346  0.2243782128742993  0.2367903409522754
  0.6598280304757580  0.3262716099521228  0.3197105444406461
  0.5867602451930409  0.4035205697104445  0.4164193185704548
  0.5015480168908653  0.4972069320945423  0.5007508763679880
  0.4126049551603614  0.5699485802363569  0.5736082312091497
  0.3273850979442159  0.6555870387786911  0.6697924513603866
  0.2440307906786714  0.7529073800159622  0.7331602352181150
  0.1641064532983734  0.8233411555707590  0.8237870815283443
  0.0908922271621861  0.9117874753001942  0.9067577642878888
  0.0707916994414077  0.9134765727124190  0.0728445774433837
  0.0176441204970388  0.0129886518657827  0.1559017327861412
  0.9156706808595558  0.0520316983964122  0.2634754545713633
  0.8345843906748769  0.1534789519683812  0.3342197227922199
  0.7648400578545349  0.2336751980734135  0.4036992951056391
  0.6852797594619275  0.3367910301717600  0.5211628305973548
  0.5836131170200645  0.4109997910016716  0.5830658401732762
  0.4930505011209902  0.4756821211430307  0.6639164068437466
  0.4324384138926902  0.5791277402530781  0.7331493734800105
  0.3483608607881123  0.6796308092035233  0.8225071729176179
  0.2430616108071106  0.7593056182550555  0.9119657313991496
  0.1589077894626811  0.8430535505965935  0.9971416115671090
  0.1703416376918980  0.8405354475414200  0.1600455169858606
  0.0796657252241957  0.9323847815967454  0.2391510962912307
  0.9979238742590084  0.0107517114113094  0.3281587071553460
  0.9094583081585341  0.0605307422290622  0.4159272552819573
  0.8308925059849486  0.1593249035757722  0.5045910111719110
  0.7672278537771717  0.2589569981190181  0.5888359576873370
  0.6793455426356587  0.3245159950220398  0.6698211268809828
  0.5790739982330138  0.4171837883796954  0.7505872458770355
  0.5093073690910472  0.5023481294649628  0.8400049755851953
  0.4184840287277680  0.5770947921416649  0.9207109614873090
  0.3355551218840276  0.6765640009879945  0.0037898241564065
  0.2487345835233299  0.7517789358185141  0.0758555983052105
  0.2621075291647657  0.7678643410852715  0.2572985783363748
  0.1499773797309629  0.8585724953450367  0.3211931120801026
  0.0802297380870982  0.9152727466180295  0.4103337000303995
  0.9960768244604026  0.9933633644930850  0.5001084530323752
  0.9157800895842811  0.0597180498556042  0.5934119029297733
  0.8406710979062169  0.1589048416362644  0.6691534356475159
  0.7530668428902558  0.2339087247301990  0.7473930261057902
  0.6573663455692369  0.3380032484990139  0.8305264691632459
  0.5787285287467725  0.4155658491982095  0.9165523322313405
  0.5041187941746443  0.4900668390902894  0.9984178983318159
  0.4171232197142416  0.5896600879692997  0.0689996860275102
  0.3440173872359011  0.6744530352257172  0.1772764145386816
  0.3384849297955626  0.6846002745478046  0.3397590016529861
  0.2486746171530640  0.7622824678902589  0.4279053004825997
  0.1677045191138475  0.8129254574213434  0.4849295110389136
  0.0890057807037579  0.8974881711696341  0.5764094329495393
  0.0092047879616928  0.9878869599293196  0.6697364203336349
  0.9355873095265252  0.0730068076455410  0.7488953369623061
  0.8425464380034953  0.1559840691024448  0.8314009352675171
  0.7412422884366947  0.2433615519075829  0.9148599307455569
  0.6806248784009696  0.3404251947484411  0.0019554320565405
  0.5842724967700264  0.4227658833979362  0.0782017166362650
  0.4961771051831576  0.5034391268619842  0.1693516244870068
  0.4130917611909126  0.5960717358261149  0.2628581423848644
  0.3966466337019270  0.5882054890560866  0.4210172309621498
  0.3145263299893628  0.6758543191404485  0.4976423307113578
  0.2367866573567383  0.7568104755661977  0.5898826792635674
  0.1587872135772912  0.8403792540659651  0.6714152754027936
  0.0845921326379369  0.9005149053807600  0.7338589171036602
  0.0061409726972173  0.9927450605145154  0.8240666999164006
  0.9100578345873203  0.0794403818019447  0.9159462803047589
  0.8192706324099390  0.1679092629008991  0.9985574892650888
  0.7496544165146659  0.2466949227656201  0.0952936469258248
  0.6739878704970366  0.3396899524053794  0.1732248180764557
  0.5728541148920812  0.4216487569349425  0.2421907769987826
  0.4903650407546749  0.5051127664728696  0.3358579082117359
  0.0800084824821425  0.0820333499582020  0.9119781995744063
  0.9963545205388371  0.1764837518049873  0.0005764544383666
  0.9104672000873961  0.2617389354385153  0.0754670105639121
  0.8308186820755452  0.3325414657432759  0.1725616198320381
  0.7450105050159621  0.4130393638850904  0.2459228169174636
  0.6429222041723648  0.4896719376994980  0.3275521574327414
  0.5820621442278480  0.5814414771431800  0.4088378253723945
  0.5012626814485515  0.6463415018429828  0.4880773645310867
  0.4253414168186680  0.7344664149186784  0.5789601216940241
  0.3359378994718014  0.8391132609439111  0.6544973162714669
  0.2532665141928874  0.9078916980164138  0.7579098100965211
  0.1557316793965668  0.9906264777131781  0.8344345203488359
  0.1691905105259153  0.0015371318779458  0.9994646132580911
  0.0898136010411932  0.0897037044953635  0.0774734657622744
  0.9705430698054442  0.1619785178218578  0.1541912030703756
  0.9062903718270263  0.2482453673620597  0.2526788184944522
  0.8264224065207486  0.3297293162904680  0.3469248765009851
  0.7484275231798136  0.4168025255547931  0.4133393900098810
  0.6680455350357164  0.4913128951968417  0.4862631136950881
  0.5857531663246718  0.5652937822997401  0.5789533734230119
  0.5057817197712424  0.6627842496010032  0.6414669283895762
  0.4276748655760727  0.7456519664842673  0.7162315349977177
  0.3469187039253683  0.8291002241982071  0.8200259243426018
  0.2477657774737807  0.9086906819995448  0.9096817867457077
  0.2648916794915621  0.9205272096823194  0.0842715078279355
  0.1772693969448227  0.0267257006193944  0.1660363253343959
  0.0921294464394293  0.1036640679624554  0.2574651709036360
  0.9871563198244431  0.1710114664082667  0.3431470706984356
  0.9186628856969179  0.2550482064143509  0.4184915616925053
  0.8324591199270372  0.3307110322617390  0.5127808149034792
  0.7525744661042708  0.4273355088159292  0.5932471186730481
  0.6676376500987971  0.4899242585309338  0.6770428869319076
  0.5749517266111894  0.5895806358299112  0.7398114578583375
  0.4836788298943588  0.6842324740652046  0.8267485465116309
  0.4277107206642370  0.7428985493616054  0.9316294212646312
  0.3453173829609355  0.8290906283249768  0.0061546069881473
  0.3296427605829138  0.8426197465420273  0.1571772856817120
  0.2584907779487793  0.9311270130338940  0.2406334535073711
  0.1649326574137433  0.0094654616013088  0.3243424371105021
  0.0827443494452069  0.0906324422404623  0.4154078141624851
  0.9891098172214612  0.1603734847621254  0.4947335409066724
  0.9150307284541697  0.2434300207098374  0.5892176693836433
  0.8419953944368430  0.3296089603283150  0.6806506008701945
  0.7453703763869868  0.4089890000379981  0.7521312395500814
  0.6598510022419788  0.4948158572731387  0.8192270367837082
  0.5834735944862430  0.5780361168110630  0.9232148322313449
  0.5040931348799234  0.6715483835879326  0.0052997259271947
  0.4217885017669829  0.7534835955312360  0.0749832734838094
  0.4257656724996224  0.7682636414158708  0.2583435053769563
  0.3402303304073584  0.8435337836297307  0.3360237749848025
  0.2465294393144859  0.9132974212456304  0.4130223547461611
  0.1611165198928433  0.9893912021203803  0.5035379241716100
  0.0897143971348200  0.0905333551831617  0.5856728169174659
  0.0015264739132093  0.1734700282147728  0.6529281064751515
  0.9264764007637964  0.2462221979974188  0.7494298682360565
  0.8369721514477888  0.3209485175368627  0.8213057788037688
  0.7583820365937086  0.4028849763451916  0.9126111676356601
  0.6705638152644795  0.4828130676204623  0.9964240647324800
  0.6002788298943642  0.5876757837437268  0.0899022182322540
  0.4977630566955469  0.6759380281957732  0.1690892698358439
  0.4899834563573506  0.6667447398920814  0.3209288189694490
  0.4233528314523483  0.7559810813763477  0.4260706034351713
  0.3358085888812923  0.8324041557417559  0.5054582886836911
  0.2544547366621046  0.9035741521317817  0.5775860080369384
  0.1779681040051670  0.9939618473552230  0.6535430294307645
  0.0901722478720188  0.0774711952804381  0.7528058804529536
  0.0036142451360419  0.1703167165412651  0.8201155627754986
  0.9217703621371029  0.2452445650934791  0.9189577258131933
  0.8342260293167669  0.3296885706414372  0.0189276652036767
  0.7580711525307819  0.4237175691594501  0.0809453288873669
  0.6611844096747248  0.4941849511703893  0.1822367675558567
  0.5776239849331191  0.5728751006991928  0.2520271213330290
  0.1689175420846638  0.1648200286897676  0.8363341056771532
  0.0998781235750101  0.2454214237536121  0.9132873456262374
  0.0090607140142893  0.3224363177344571  0.0143500166248671
  0.9183867423810597  0.4205883226934191  0.0771316290469670
  0.8447299247605997  0.4901427121333057  0.1696037201702367
  0.7357186621257057  0.5826777863277073  0.2522585266567887
  0.6439536840705244  0.6721554577063387  0.3208992086563285
  0.5838837313801477  0.7403610099369189  0.4204861500607961
  0.5012754626462979  0.8376777640028905  0.4944391881364965
  0.4111095806733545  0.9292478240424060  0.5840045153138789
  0.3350505975452194  0.9973700016149891  0.6678077011133894
  0.2397824018657886  0.0971947408420704  0.7487666011171896
  0.2452882713938322  0.0894841275269798  0.9014982439390451
  0.1726837560799481  0.1780584383074952  0.9892052292331641
  0.0833520705084325  0.2494823344163279  0.0907939604233192
  0.9863364949080378  0.3453261988904117  0.1564499795751644
  0.9206294944140438  0.4077285263717911  0.2609382642688871
  0.8314856527397794  0.5060727751178007  0.3336120183538540
  0.7399076046891651  0.5856994038797723  0.4147470640484912
  0.6844895073339430  0.6543218716750232  0.5017229917160648
  0.5933921392878858  0.7355775991792086  0.5699691831965339
  0.5106873047765603  0.8249209824821406  0.6421470830483358
  0.4264197109173153  0.9127916823415418  0.7334518258853961
  0.3341267964356263  0.0136159266225846  0.8175817264211886
  0.3339222830217352  0.0012691133720963  0.9970220298487646
  0.2510876961734283  0.0935264720132238  0.0863323206414321
  0.1627981109401091  0.1749552610579101  0.1558492400060771
  0.0769829747111999  0.2384372321021431  0.2468052354081181
  0.0002869437794502  0.3147974478454145  0.3535889036137689
  0.9153169293395678  0.4278413441442481  0.4166948733660121
  0.8345319259195918  0.4956600984192150  0.5025821087931277
  0.7562475703944358  0.5768116977314151  0.5942992642308838
  0.6584857111643103  0.6593157252241966  0.6612915982672121
  0.5696262967396279  0.7389443052705573  0.7452486937604519
  0.4946153908268727  0.8296965363277096  0.8310120967282231
  0.4242367077063349  0.9117886946154456  0.8990306766795868
  0.4133049143106859  0.9320038488942117  0.0994718821249450
  0.3486521427078557  0.0229105325657386  0.1638972150972791
  0.2478706290849644  0.0989865053579564  0.2631771384328943
  0.1695282556239519  0.1665706053351599  0.3418744062547532
  0.0716996641776859  0.2362443921948625  0.4426342980506135
  0.9853831642346833  0.3374539666932677  0.5091301299589617
  0.9210795219638257  0.4315759951170364  0.5879248565511475
  0.8462499458504311  0.5044426185590538  0.6734943413702723
  0.7476268819349414  0.5691614540583672  0.7586308339033252
  0.6614467382010929  0.6452994822541385  0.8419205545105655
  0.5915321458428338  0.7437797152872747  0.9191529122017030
  0.4946737531349754  0.8278183362783125  0.9935067031463731
  0.4947294663892663  0.8339656582497312  0.1650179909560734
  0.4204682503039976  0.9171234291875692  0.2508014724882202
  0.3397774718802253  0.9943407461240312  0.3473788279943761
  0.2558774362555098  0.0727646460328302  0.4108133378932948
  0.1712685657014745  0.1611331642346840  0.5206255937452511
  0.0707008801679621  0.2523000650744791  0.5639145486586088
  0.9944362892346845  0.3291402203032376  0.6659240291077637
  0.9233144954590387  0.4188943622701018  0.7531125061749506
  0.8224425273597831  0.4923012967396261  0.8330362597849188
  0.7293221661726719  0.5629856342149253  0.9171037562699524
  0.6680170024889804  0.6561049185856547  0.0018317819957474
  0.5757220284237761  0.7634464992780039  0.0767802772077815
  0.5785477295181636  0.7579876439238475  0.2627827965876293
  0.5156143078355342  0.8439425729594134  0.3517447907166726
  0.4120539923430613  0.9109234828621382  0.4159712427800599
  0.3344183144284827  0.0069101288189728  0.5026763337893314
  0.2546099535453692  0.0717177506079949  0.5801939589983292
  0.1702605382656941  0.1834241108071168  0.6521254664462717
  0.0803457174342626  0.2533300819843447  0.7521150336297282
  0.0024207929586595  0.3164693822199425  0.8444824702652411
  0.9234041158420752  0.4113437941746483  0.9270292398160791
  0.8359789719182231  0.5128666875665004  0.0109716303769574
  0.7460525526295783  0.5828288560191552  0.0972884143676822
  0.6559804871560999  0.6766809403024752  0.1855840273027809
  0.2382511670656626  0.2569261043661655  0.7540929895310811
  0.1552097834967299  0.3380327248632042  0.8419714038037682
  0.0708737583599302  0.4187160377716950  0.9249052468080237
  0.0084563820489407  0.5125219205996387  0.0109664305935553
  0.9309946163930718  0.5829224402454756  0.1057011271659860
  0.8250768230354169  0.6699228753419959  0.1788125341997286
  0.7521030105259143  0.7578400678294557  0.2526079001368018
  0.6756527179282585  0.8299728226174210  0.3362060642764888
  0.5846820270937840  0.9066946040431674  0.4108302895576870
  0.5114972269721818  0.9900889530133767  0.5032721067981427
  0.4199163602941169  0.0792390712874322  0.5977255182208552
  0.3256044027397778  0.1717191817715431  0.6709674119357061
  0.3254924428104573  0.1781090410776685  0.8290643391852868
  0.2488856769645835  0.2643125170998601  0.9119222511969909
  0.1623860963862285  0.3380918333903296  0.0122696615177063
  0.0810478454172383  0.4181944472944181  0.0778309084777291
  0.0036987270101818  0.4971964503533997  0.1674490884822930
  0.9132911617457040  0.5735022030323762  0.2425512326151420
  0.8360570717434257  0.6495000683994547  0.3268981251899987
  0.7621471115481100  0.7486870948282416  0.3919111861605131
  0.6743977893676885  0.8127453835119312  0.5056653979518160
  0.6020603900668817  0.9209157565739474  0.5886786199460374
  0.5026958157584716  0.9892624753002011  0.6699084074327430
  0.4144955511855883  0.0859366174570582  0.7568282741488090
  0.4211506322199412  0.0786251025991760  0.9266068252203965
  0.3405699018657842  0.1786814604233200  0.0008567601459220
  0.2640098998707998  0.2554781492248068  0.0781917588159260
  0.1605800302097578  0.3382691204970385  0.1581908273483847
  0.0656185353017165  0.4104344338995318  0.2579144522343810
  0.0104207587589329  0.5091369257295923  0.3349073994908025
  0.9285122705768387  0.5653751610237094  0.4141105107159149
  0.8477297908116768  0.6472326911384698  0.4798591379768951
  0.7809154487764118  0.7308934312775506  0.5873048216864234
  0.6742622891016907  0.8113468175254610  0.6662359709872305
  0.5796078326873371  0.9066871209530305  0.7564537543699643
  0.5119041642916855  0.9907006032451733  0.8251195090439296
  0.4957846504977965  0.9954582839337291  0.9998695023939774
  0.4156404141016878  0.0844391373119038  0.0674855458656296
  0.3409042037163701  0.1712038484192107  0.1589281278499755
  0.2368468536251740  0.2479283135734889  0.2482224573453422
  0.1501944976440157  0.3323529202766409  0.3233337551299584
  0.0820506193950479  0.4252176546587663  0.4374967025763823
  0.9945992100813186  0.5128917212912327  0.5013192967206237
  0.9188655765503881  0.5922691048221580  0.5812829623612998
  0.8342382557189509  0.6713631431448519  0.6750718564751494
  0.7360629916210684  0.7462225338197328  0.7617766943114432
  0.6681785372967042  0.8376799157356771  0.8325896959074299
  0.5793240229328163  0.9148078977618184  0.9178248142764858
  0.5739410767213897  0.9222283396982860  0.0758060661764688
  0.4786549143106882  0.0131640826873394  0.1602135668414633
  0.4222764354385191  0.0962254897210855  0.2621283016985885
  0.3303493777549775  0.1821225627944969  0.3447879236966074
  0.2408780342757240  0.2534094595493244  0.4230973537961731
  0.1700474630452931  0.3438190862973087  0.4946941955464368
  0.0938608033135750  0.4322883051185613  0.5907514948130412
  0.9918315948472411  0.5177782484990132  0.6569032722488188
  0.9199831286099709  0.5891377070983452  0.7542483132884925
  0.8233299366355098  0.6501391510867904  0.8445016254369975
  0.7447167654658742  0.7477072593669263  0.9007318546701626
  0.6741681586297332  0.8395692387710909  0.9939104252165976
  0.6670087104803173  0.8528797461620314  0.1610521626576968
  0.5826208257333931  0.9221021531577733  0.2353128272723808
  0.4916023669060650  0.0025865609325137  0.3353228173924592
  0.4158780547005634  0.0860024068057470  0.4059821515427871
  0.3351130239208118  0.1679588054795573  0.5151190938972476
  0.2416962831547380  0.2678132219942242  0.5961251149490820
  0.1315367656558735  0.3407159199726379  0.6824233626880982
  0.0692319691442478  0.4173594068247439  0.7672577201132356
  0.9973160206718319  0.5088913004445956  0.8350359994870047
  0.9144263499391982  0.5809165194178476  0.9105815729974154
  0.8202600665944644  0.6604454234116162  0.9958746204780340
  0.7391135107919169  0.7476814471234263  0.0842264568133473
  0.3292622511019943  0.3410750265997891  0.6775647548069585
  0.2540997805517549  0.4078419469144237  0.7546414890180912
  0.1717521085081302  0.5173311393258828  0.8557091066271454
  0.0787378519721855  0.5955004835461324  0.9163567639458918
  0.9986277207782308  0.6782763603891198  0.0035565145728853
  0.9108686616507100  0.7473194458694365  0.0715966075771419
  0.8327860412866670  0.8277508141434851  0.1691410163968712
  0.7516589945280430  0.9099032085993315  0.2404491198320429
  0.6833967320261465  0.9975069287695675  0.3314565748974019
  0.5889450073149405  0.0766950942392484  0.4063216907014748
  0.5065393942848431  0.1491354556163529  0.5113296616127059
  0.4162916956414335  0.2604299789101674  0.5948672129122983
  0.4117163104195143  0.2549016297119593  0.7462962717548294
  0.3473131507447960  0.3332646237080112  0.8392196876424975
  0.2581686041761699  0.4210976454438367  0.9182206794345618
  0.1663652796777626  0.5086667455160381  0.0007479974160205
  0.0841251173240636  0.5853556714546286  0.1126361989854061
  0.9879393881098935  0.6702340857273157  0.1766153751519965
  0.9048091598267192  0.7545593270253832  0.2516821938174516
  0.8318655029259787  0.8553493521051863  0.3217683918528635
  0.7568798910358723  0.9024214617533062  0.4380754892460885
  0.6714339009537937  0.0017008473932236  0.5037484909370704
  0.5951398654810731  0.0792994091047277  0.5934985892612872
  0.5122072403670757  0.1677909840971239  0.6730791006421981
  0.4959586373309008  0.1574971818475461  0.8446552149832769
  0.4301062523749835  0.2557033943228433  0.9166163531691751
  0.3406702718878236  0.3496296772875809  0.9968137573149392
  0.2522547518619831  0.4362384794421672  0.1037306353549141
  0.1605415740424050  0.5036821515427903  0.1886550501595963
  0.0821970445736468  0.5921388157394745  0.2521901960784305
  0.9866626092491231  0.6789237536099719  0.3349930413056725
  0.9085745231038160  0.7464060742514036  0.4048128562471476
  0.8363143092605227  0.8211409636722919  0.5014479043167626
  0.7646707264591868  0.9124642902606794  0.5838740913322695
  0.6683314803731548  0.0048039453184359  0.6928233997378044
  0.5890268144854858  0.0862092866507069  0.7444947650668823
  0.5770013646640848  0.0858494594543231  0.9236393135354888
  0.5281151291039663  0.1677252631478936  0.0006654388014908
  0.4257541429168583  0.2512609258625957  0.0752737293851666
  0.3465878676470595  0.3501541851915206  0.1717431405798777
  0.2576834677572606  0.4287999130756930  0.2528587860047153
  0.1666814005737933  0.4895170176888612  0.3400256022951851
  0.0791592880756937  0.5916796939124467  0.4227445380186978
  0.0069824626652988  0.6754049736852110  0.5014441817715465
  0.9119238733090143  0.7377400483546097  0.5839059673772624
  0.8222499525003784  0.8302733303883585  0.6754839337285290
  0.7623244746541999  0.8922957212342268  0.7612578721120258
  0.6676199911650684  0.0020151248290006  0.8227982634138939
  0.6768100746694046  0.9922150326797379  0.9862003956718368
  0.5971510706414378  0.0747452984876134  0.0838759381174938
  0.5151648084815292  0.1423432270291869  0.1578561317259428
  0.4217091417768657  0.2309292341161253  0.2443948700410417
  0.3446197755167972  0.2944034280475734  0.3238920680384538
  0.2652034389724918  0.4045645928332604  0.4049125954742365
  0.1734592591009303  0.4945065150478811  0.5027110194368447
  0.0897214104537198  0.5838058291533699  0.5707237488600114
  0.0016881075201383  0.6629500769493859  0.6618171758625948
  0.9150782332991341  0.7393032689238481  0.7530303437072519
  0.8443852641928871  0.8195078018125841  0.8259286033211737
  0.7522737189352497  0.9158076018391839  0.8973287453450354
  0.7407168671150615  0.9164269109097134  0.0735121185780514
  0.6590377469980240  0.9929057683538502  0.1719257998936001
  0.5987645852333188  0.0809496770025859  0.2674026105791185
  0.5060368321553455  0.1583732106893123  0.3378326835385295
  0.4413691356969167  0.2425084264325861  0.4272380813953518
  0.3349942449460386  0.3268254911460673  0.5029484063877518
  0.2516395211088280  0.4104008853929173  0.5998236970854265
  0.1739838548791610  0.5086568366203039  0.6751435025269785
  0.0796851463938282  0.5937663607691164  0.7533784650972777
  0.9907132048943623  0.6709060053769562  0.8302370411536728
  0.9073317373460981  0.7379191846215249  0.9132129431714517
  0.8367458680080588  0.8177249178256574  0.9855449987650076
  0.4045106821895459  0.4327791733166109  0.5800894840591297
  0.3397610094619239  0.4972645334587327  0.6712199317905458
  0.2540961017061889  0.5878562072503399  0.7562268282603739
  0.1758233379882981  0.6702624624753000  0.8353817378210948
  0.0684527583029322  0.7643546563877521  0.9060844110997124
  0.9921665612175090  0.8378629483964133  0.9945039624182996
  0.8948675031349751  0.9110294739892097  0.0803293039405659
  0.8302856631896915  0.9972482700638423  0.1580967059013503
  0.7604783686730485  0.0975395733584108  0.2340989982330157
  0.6706936478758152  0.1752272025573802  0.3246977233432133
  0.5736747121523038  0.2540752579229348  0.4225721096481223
  0.4888140076379415  0.3345480221158255  0.5095332943836439
  0.4963901101041159  0.3366831309849516  0.6665214199536393
  0.4203716664766688  0.4119253244224055  0.7462882737688119
  0.3475337712798279  0.5059563915488710  0.8220924200106410
  0.2469053171074620  0.5883781131250956  0.9375608004635936
  0.1667492115063069  0.6676129127716948  0.9926232163892692
  0.0693163531691781  0.7650205853853151  0.0852707549589624
  0.9856589812281484  0.8380488609591126  0.1585196653176766
  0.9244141477618157  0.9435759029677797  0.2358924760601937
  0.8173775825543430  0.9964797361871121  0.3331176218840284
  0.7371090752773952  0.0921214104537142  0.4247937348001187
  0.6710912372701046  0.1777354161916733  0.4981588605791174
  0.5881855501406008  0.2595794089147319  0.5796226055441522
  0.5745128396222796  0.2488429482064163  0.7427775806543551
  0.5061401989284064  0.3338271868825018  0.8384238723590229
  0.4286955929852567  0.4189175924342621  0.9109226862935103
  0.3369818218954279  0.5079481655646774  0.0064690748974030
  0.2516608531881772  0.5884136214660316  0.1053123793509627
  0.1693890190378511  0.6892501743236039  0.1812176114341071
  0.0700950405646736  0.7761092752507963  0.2502947218422236
  0.9871190411726687  0.8311092101763222  0.3267632281691775
  0.9041831723096223  0.9267882675938566  0.4201858636380891
  0.8187583642080867  0.0170509637672893  0.5075736453108348
  0.7340204234116143  0.0987947085423286  0.5962702490880076
  0.6561915189428476  0.1838903143524817  0.6546303959568291
  0.6646698781159728  0.1578632813687477  0.8207049694102437
  0.5933174014857912  0.2473036992704039  0.9256057370041049
  0.4966371670276644  0.3336339470284244  0.0077954319615472
  0.4150506925444617  0.4328391653366808  0.0867734087627312
  0.3340147044573669  0.5225200296397645  0.1821063820489428
  0.2442003989968100  0.5870029953260385  0.2565115305327552
  0.1581016377868991  0.6877847008473950  0.3156699474654232
  0.0784599217206292  0.7480462532299725  0.4053891434868504
  0.9959985241868097  0.8296751477238189  0.4852606071401411
  0.9215965239778114  0.9045793253153960  0.5805736590857293
  0.8331244784541738  0.9926617756307934  0.6717509732672156
  0.7542342239512081  0.0938828554871591  0.7418805147058833
  0.7486045219638271  0.0783506901694793  0.9136105396906800
  0.6711182978036163  0.1584538816689474  0.0054548905608769
  0.5970405276257793  0.2621985237118096  0.0841401979784138
  0.4872336273559839  0.3225816171720624  0.1631887345151242
  0.4114818256953967  0.4205760853663136  0.2611032228492149
  0.3334582734838136  0.5054282774737828  0.3334830602105185
  0.2430752137482912  0.5982260730164128  0.4165233246884057
  0.1667845241488095  0.6624498817259479  0.4962765684374517
  0.0848055408306720  0.7538395804833584  0.5773453963368311
  0.9816139753381989  0.8154894560343493  0.6713218441252451
  0.9201228501671963  0.9143341631516932  0.7514735436616533
  0.8469868744300015  0.9981193817449494  0.8291131312699491
  0.8209711306809524  0.0000688207744304  0.9830601036441706
  0.7526282807987528  0.0717573695660434  0.0845201555137578
  0.6690682403290751  0.1462845075239372  0.1592168409902754
  0.5821165906672761  0.2409966318019485  0.2333273597811214
  0.4957079637862876  0.3371289329685396  0.3312970094239276
  0.3954601264439859  0.4158093175254578  0.4175937822997398
  0.3263375921492653  0.5046197541419701  0.4988419792141627
  0.2435507685438552  0.5890623299513607  0.5921831010601935
  0.1660875935742538  0.6641420651884786  0.6619853938668498
  0.0898895291837647  0.7375777013033868  0.7308106052401584
  0.9927035824213419  0.8303999534503745  0.8247932056543519
  0.9081647690568460  0.9090935020519808  0.9187279487764073
 
  0.00000000E+00  0.00000000E+00  0.00000000E+00
  0.00000000E+00  0.00000000E+00  0.00000000E+00
  0.00000000E+00  0.00000000E+00  0.00000000E+00
  0.00000000E+00  0.00000000E+00  0.00000000E+00
  0.00000000E+00  0.00000000E+00  0.00000000E+00
  0.00000000E+00  0.00000000E+00  0.00000000E+00
  0.00000000E+00  0.00000000E+00  0.00000000E+00
  0.00000000E+00  0.00000000E+00  0.00000000E+00
  0.00000000E+00  0.00000000E+00  0.00000000E+00
  0.00000000E+00  0.00000000E+00  0.00000000E+00
  0.00000000E+00  0.00000000E+00  0.00000000E+00
  0.00000000E+00  0.00000000E+00  0.00000000E+00
  0.00000000E+00  0.00000000E+00  0.00000000E+00
  0.00000000E+00  0.00000000E+00  0.00000000E+00
  0.00000000E+00  0.00000000E+00  0.00000000E+00
  0.00000000E+00  0.00000000E+00  0.00000000E+00
  0.00000000E+00  0.00000000E+00  0.00000000E+00
  0.00000000E+00  0.00000000E+00  0.00000000E+00
  0.00000000E+00  0.00000000E+00  0.00000000E+00
  0.00000000E+00  0.00000000E+00  0.00000000E+00
  0.00000000E+00  0.00000000E+00  0.00000000E+00
  0.00000000E+00  0.00000000E+00  0.00000000E+00
  0.00000000E+00  0.00000000E+00  0.00000000E+00
  0.00000000E+00  0.00000000E+00  0.00000000E+00
  0.00000000E+00  0.00000000E+00  0.00000000E+00
  0.00000000E+00  0.00000000E+00  0.00000000E+00
  0.00000000E+00  0.00000000E+00  0.00000000E+00
  0.00000000E+00  0.00000000E+00  0.00000000E+00
  0.00000000E+00  0.00000000E+00  0.00000000E+00
  0.00000000E+00  0.00000000E+00  0.00000000E+00
  0.00000000E+00  0.00000000E+00  0.00000000E+00
  0.00000000E+00  0.00000000E+00  0.00000000E+00
  0.00000000E+00  0.00000000E+00  0.00000000E+00
  0.00000000E+00  0.00000000E+00  0.00000000E+00
  0.00000000E+00  0.00000000E+00  0.00000000E+00
  0.00000000E+00  0.00000000E+00  0.00000000E+00
  0.00000000E+00  0.00000000E+00  0.00000000E+00
  0.00000000E+00  0.00000000E+00  0.00000000E+00
  0.00000000E+00  0.00000000E+00  0.00000000E+00
  0.00000000E+00  0.00000000E+00  0.00000000E+00
  0.00000000E+00  0.00000000E+00  0.00000000E+00
  0.00000000E+00  0.00000000E+00  0.00000000E+00
  0.00000000E+00  0.00000000E+00  0.00000000E+00
  0.00000000E+00  0.00000000E+00  0.00000000E+00
  0.00000000E+00  0.00000000E+00  0.00000000E+00
  0.00000000E+00  0.00000000E+00  0.00000000E+00
  0.00000000E+00  0.00000000E+00  0.00000000E+00
  0.00000000E+00  0.00000000E+00  0.00000000E+00
  0.00000000E+00  0.00000000E+00  0.00000000E+00
  0.00000000E+00  0.00000000E+00  0.00000000E+00
  0.00000000E+00  0.00000000E+00  0.00000000E+00
  0.00000000E+00  0.00000000E+00  0.00000000E+00
  0.00000000E+00  0.00000000E+00  0.00000000E+00
  0.00000000E+00  0.00000000E+00  0.00000000E+00
  0.00000000E+00  0.00000000E+00  0.00000000E+00
  0.00000000E+00  0.00000000E+00  0.00000000E+00
  0.00000000E+00  0.00000000E+00  0.00000000E+00
  0.00000000E+00  0.00000000E+00  0.00000000E+00
  0.00000000E+00  0.00000000E+00  0.00000000E+00
  0.00000000E+00  0.00000000E+00  0.00000000E+00
  0.00000000E+00  0.00000000E+00  0.00000000E+00
  0.00000000E+00  0.00000000E+00  0.00000000E+00
  0.00000000E+00  0.00000000E+00  0.00000000E+00
  0.00000000E+00  0.00000000E+00  0.00000000E+00
  0.00000000E+00  0.00000000E+00  0.00000000E+00
  0.00000000E+00  0.00000000E+00  0.00000000E+00
  0.00000000E+00  0.00000000E+00  0.00000000E+00
  0.00000000E+00  0.00000000E+00  0.00000000E+00