Li 
 1.0000000000000000
    21.0527999999999977    0.0000000000000000    0.0000000000000000
     0.0000000000000000   21.0527999999999977    0.0000000000000000
     0.0000000000000000    0.0000000000000000   21.0527999999999977
 Li 
 432
Cartesian
 -0.0284740400000000 -0.2011355200000000 -0.0948283900000000
 19.0289031699999995  1.7074518999999999  1.7799724200000000
 17.5820469000000017  3.4122707100000000  3.2877331100000000
 15.9007963300000004  4.7237896399999997  4.9850996900000002
 13.8912275600000008  6.8689309500000002  6.7308021499999997
 12.3529460899999997  8.4952378500000005  8.7667926299999994
 10.5589900900000000 10.4675981000000000 10.5422080499999993
  8.6864895999999998 11.9990134699999995 12.0760593699999994
  6.8923729900000001 13.8019428099999999 14.1010065200000003
  5.1375314300000001 15.8508084900000004 15.4350757999999999
  3.4549003400000000 17.3336366800000015 17.3430246699999984
  1.9135358800000000 19.1956793599999997 19.0897898599999998
  1.4903634900000000 19.2312395900000013  1.5335823200000001
  0.3714581400000000  0.2734474900000000  3.2821680000000000
 19.2774317099999983  1.0954129399999999  5.5468960500000000
 17.5703382599999998  3.2311616800000000  7.0362609799999998
 16.1020247699999999  4.9195172100000004  8.4990005199999992
 14.4270577200000005  7.0903942000000004 10.9719368399999997
 12.2866902299999996  8.6526964000000000 12.2751685199999994
 10.3800935899999995 10.0144405600000006 13.9772993299999992
  9.1040394399999993 12.1922604900000007 15.4348471299999996
  7.3339715300000003 14.3081315000000000 17.3160790099999993
  5.1171274799999997 15.9855093200000002 19.1994321499999998
  3.3454539099999998 17.7486377900000001 -0.0601770800000000
  3.5861684299999999 17.6956246700000008  3.3694062599999999
  1.6771865800000001 19.6293103299999991  5.0348002000000003
 -0.0437082600000000  0.2263536300000000  6.9086596299999998
 19.1466438699999983  1.2743416100000000  8.7564333199999993
 17.4926137500000003  3.3542353299999998 10.6230536400000002
 16.1522945600000014  5.4517698899999996 12.3966456500000000
 14.3021258400000004  6.8319703399999998 14.1016102199999995
 12.1911290700000006  8.7828868599999996 15.8019631700000005
 10.7223461800000006 10.5758346999999997 17.6844567499999989
  8.8102605599999997 12.1494612400000008 19.3835437299999995
  7.0643748700000000 14.2435665999999994 21.1325864099999983
  5.2365594399999997 15.8270515799999991  1.5969727400000000
  5.5180973900000003 16.1656943999999996  5.4168555100000004
  3.1574437799999999 18.0753550300000008  6.7620143500000003
  1.6890606300000000 19.2690540800000001  8.6386733200000005
 -0.0825938300000000 -0.1397197600000000 10.5286832399999994
 19.2797350700000010  1.2572321600000000 12.4929821099999998
 17.6984804900000015  3.3453918499999999 14.0875534499999997
 15.8541656300000007  4.9244336000000004 15.7347158999999994
 13.8394022000000003  7.1159147899999997 17.4849076500000002
 12.1838559699999998  8.7488247099999992 19.2959929400000014
 10.6131121499999992 10.3172791499999992 -0.0333076700000000
  8.7816117200000008 12.4139958999999998  1.4526365900000000
  7.2425292499999996 14.1991248599999995  3.7321648999999999
  7.1260555300000004 14.4127526600000007  7.1528783100000002
  5.2352969800000002 16.0481803399999983  9.0086047100000002
  3.5306497000000001 17.1143570700000005 10.2091240100000000
  1.8738208999999999 18.8946389699999990 12.1350325100000003
  0.1937865600000000 -0.2550134100000000 14.0998269100000009
 19.6967325100000004  1.5369977200000000 15.7663437500000008
 17.7379616499999990  3.2839014099999999 17.5033176099999999
 15.6052256499999995  5.1234420800000002 19.2603631499999999
 14.3290594400000000  7.1669035399999999  0.0411673200000000
 12.3005720200000006  8.9004055900000001  1.6463650999999999
 10.4459173599999993 10.5988032499999996  3.5653258800000001
  8.6967382299999993 12.5489790400000008  5.5338998999999998
  8.3505222499999991 12.3833725200000000  8.8635915599999997
  6.6216599199999999 14.2286258100000005 10.4767644600000001
  4.9850221399999999 15.9329795799999996 12.4186820699999991
  3.3429154500000000 17.6923363599999988 14.1351715099999993
  1.7809012500000001 18.9583602000000013 15.4497850099999994
  0.1292846700000000 -0.1527367900000000 17.3489114200000003
 19.1592655799999996  1.6724424700000000 19.2832338499999985
 17.2479407699999996  3.5349601300000000 21.0224311099999994
 15.7823244999999996  5.1936188699999999  2.0061980899999998
 14.1893318399999995  7.1514246300000002  3.6468674499999998
 12.0601831100000005  8.8768869499999994  5.0987939899999999
 10.3235571299999993 10.6340380499999991  7.0707493699999997
  1.6844025800000000  1.7270317100000001 19.1996946400000006
 -0.0767475500000000  3.7154771300000000  0.0121359800000000
 19.1678838700000007  5.5103374599999997  1.5887918800000000
 17.4910595499999992  7.0009289700000004  3.6329052700000002
 15.6845571600000007  8.6956351200000004  5.1773638799999997
 13.5353125799999994 10.3089653699999992  6.8958900600000002
 12.2540379099999992 12.2409711300000001  8.6071809699999999
 10.5529829799999995 13.6072983700000005 10.2753951400000005
  8.9546277799999991 15.4625745400000003 12.1887316499999994
  7.0724334100000004 17.6656836599999991 13.7790011000000003
  5.3319692700000001 19.1136623400000012 15.9561236500000003
  3.2785879000000002 -0.1973388900000000 17.5671830699999987
  3.5619339800000001  0.0323609300000000 -0.0112713900000000
  1.8908277800000000  1.8885141500000000  1.6310333800000001
 -0.6201508600000000  3.4101013400000002  3.2461565600000002
 19.0799499399999988  5.2262600700000004  5.3195966300000004
 17.3985056399999998  6.9417253499999996  7.3037400400000001
 15.7564949599999995  8.7748602099999999  8.7019515100000007
 14.0642290400000007 10.3435121199999998 10.2372000799999991
 12.3317442600000007 11.9010169399999999 12.1885895800000004
 10.6481213900000000 13.9534642499999997 13.5046749500000001
  9.0037534099999998 15.6980617200000001 15.0786792599999995
  7.3036100900000003 17.4548811999999991 17.2638417799999999
  5.2161633600000004 19.1304831899999996 19.1513487200000014
  5.5767115499999997 19.3796752400000010  1.7741511999999999
  3.7320171599999998  0.5626508300000000  3.4955295500000001
  1.9395828100000001  2.1824188900000001  5.4203627499999998
 -0.2703954300000000  3.6002702000000002  7.2242066500000002
 19.3404260000000008  5.3694788800000000  8.8104191499999995
 17.5255953600000005  6.9623932200000000 10.7954719400000005
 15.8437997199999998  8.9966089999999994 12.4895129399999991
 14.0556419199999993 10.3142774300000006 14.2536484899999998
 12.1043437100000002 12.4123232100000003 15.5751026600000007
 10.1827936700000006 14.4050094299999998 17.4053718000000011
  9.0045082599999997 15.6400945799999995 19.6134078800000005
  7.2698977999999999 17.4546791799999994 21.1823717100000017
  6.9399031100000004 17.7395050000000012  3.3090219599999999
  5.4419546499999996 19.6028307800000015  5.0660079700000002
  3.4722942500000000  0.1992744700000000  6.8283164599999999
  1.7420002400000001  1.9080666799999999  8.7454976299999991
 -0.2292688400000000  3.3763109000000000 10.4155262900000007
 19.2639589200000003  5.1248835399999999 12.4046817500000000
 17.7263606399999993  6.9391915199999996 14.3296009699999995
 15.6921334600000009  8.6103636199999993 15.8344685599999995
 13.8917111799999997 10.4172592799999997 17.2470229599999989
 12.2837528900000006 12.1692787599999992 19.4362572200000017
 10.6125719499999995 14.1379738100000001 21.1643740700000009
  8.8798289700000002 15.8629394399999999  1.5786078600000000
  8.9635595499999994 16.1741007900000007  5.4388541500000001
  7.1628011000000003 17.7587480400000004  7.0742413300000004
  5.1901349799999998 19.2274679500000012  8.6952770299999997
  3.3919538700000000 -0.2233449000000000 10.6008832099999992
  1.8887392599999999  1.9059806200000000 12.3300526799999997
  0.0321365500000000  3.6520298100000002 13.7459648399999992
 19.5049223699999992  5.1836666899999999 15.7775971300000002
 17.6206073100000005  6.7568649499999998 17.2907863000000006
 15.9660653400000001  8.4818568299999999 19.2130203900000005
 14.1172458899999995 10.1645669499999993 20.9775165500000007
 12.6375501499999991 12.3722207399999995  1.8926934200000001
 10.4793060800000006 14.2303881200000006  3.5598025799999999
 10.3155237100000008 14.0368436600000006  6.7564502400000004
  8.9127624900000004 15.9155185100000001  8.9699791999999992
  7.0697110600000004 17.5244382099999996 10.6413122599999994
  5.3569846800000001 19.0227659100000004 12.1598027099999992
  3.7467269000000001 -0.1271200200000000 13.7589106900000004
  1.8983783000000001  1.6309855799999999 15.8486716399999992
  0.0760899800000000  3.5856437699999999 17.2657289200000008
 19.4058470800000009  5.1630847800000002 19.3466332100000002
 17.5627937500000009  6.9408675400000002 21.4512803500000011
 15.9595203600000008  8.9204412400000006  1.7041258200000000
 13.9197831399999998 10.4039769399999997  3.8365942199999998
 12.1606022300000003 12.0606249200000004  5.3058765799999996
  3.5561872299999999  3.4699230999999999 17.6071746599999983
  2.1027141600000001  5.1668081499999996 19.2272558300000007
  0.1907534000000000  6.7881873099999996  0.3021080300000000
 19.3346124099999983  8.8545618400000006  1.6238367600000001
 17.7839301600000006 10.3188764899999992  3.5706332000000001
 15.4889378499999992 12.2669989000000008  5.3107483100000001
 13.5570281200000000 14.1507544200000002  6.7558268600000000
 12.2923874200000007 15.5866722699999993  8.8524108199999993
 10.5532520600000002 17.6354624300000005 10.4093293399999993
  8.6550077800000000 19.5632685899999998 12.2949302599999992
  7.0537532199999999 20.9974311699999987 14.0592219699999994
  5.0480909499999997  2.0462214400000001 15.7636334999999992
  5.1640049200000000  1.8838914400000000 18.9790622300000003
  3.6354765800000002  3.7486286899999999 -0.2272601500000000
  1.7547944700000000  5.2523016900000004  1.9114670899999999
 -0.2876550400000000  7.2700833999999999  3.2937101300000000
 19.3818286200000003  8.5838271200000005  5.4934810900000004
 17.5051011500000016 10.6542489200000006  7.0234671000000004
 15.5771268200000002 12.3306124100000005  8.7315869900000003
 14.4104206999999995 13.7753075000000003 10.5626738000000007
 12.4925660300000008 15.4859680799999992 11.9994472200000004
 10.7513976899999992 17.3668964599999995 13.5189941099999995
  8.9773288900000008 19.2168207299999985 15.4412146000000003
  7.0343046200000003 21.3394533799999984 17.2123845700000011
  7.0299990399999999  0.0267183900000000 -0.0626946100000000
  5.2860990499999998  1.9689941099999999  1.8175370799999999
  3.4273560700000001  3.6832981199999999  3.2810628799999999
  1.6207071700000000  5.0197713600000000  5.1959412599999997
  0.0060409700000000  6.6273677099999997  7.4440364700000003
 19.2699842500000003  9.0072582499999996  8.7725938299999999
 17.5692337300000005 10.4350329199999994 10.5807606199999995
 15.9211288500000006 12.1435013099999995 12.5116635499999997
 13.8629679800000005 13.8804420999999998 13.9220397600000005
 11.9922284999999995 15.5568466700000005 15.6895717000000001
 10.4130389000000001 17.4674352400000004 17.4951314700000005
  8.9313705599999995 19.1957050299999992 18.9271130300000010
  8.7012257000000002 19.6212906300000007  2.0941616399999998
  7.3401038300000003  0.4823308600000000  3.4504952900000001
  5.2183707799999999  2.0839430999999999  5.5406156600000003
  3.5690444600000002  3.5067776400000001  7.1974134999999997
  1.5094786899999999  4.9736059399999997  9.3186913499999999
 -0.3077253200000000  7.1043508700000002 10.7186147999999992
 19.3913029600000009  9.0858831099999993 12.3774644200000008
 17.8159308600000017 10.6199295599999992 14.1789416700000004
 15.7396392200000008 11.9824422599999991 15.9713032199999994
 13.9253058900000006 13.5853609399999993 17.7247850500000013
 12.4534079599999998 15.6586455900000008 19.3507424300000004
 10.4142675899999997 17.4278938699999983 20.9160979199999986
 10.4154405099999998 17.5573122099999992  3.4740907600000002
  8.8520339799999999 19.3080161299999986  5.2800732400000001
  7.1532671600000004 -0.1191431400000000  7.3132969900000004
  5.3869364900000001  1.5318995399999999  8.6487710399999997
  3.6056828599999999  3.3923042799999998 10.9606265000000000
  1.4884514900000001  5.3116228100000002 11.8719802100000003
 -0.1171316900000000  6.9293232299999996 14.0195653999999994
 19.4383554099999998  8.8188992299999995 15.8551269700000006
 17.3147180399999989 10.3643207400000001 17.5377457700000008
 15.3542737000000002 11.8524239599999994 19.3076019599999995
 14.0636283500000001 13.8128456300000000 21.0913641399999996
 12.1205607200000003 16.0726864599999999  1.6164398200000001
 12.1800496400000000 15.9577622699999999  5.5323136599999998
 10.8551248999999999 17.7673541999999998  7.4052127299999997
  8.6748902900000004 19.1774899000000012  8.7573593800000005
  7.0404418900000003  0.1454775600000000 10.5827443199999998
  5.3602524300000001  1.5098594599999999 12.2147073800000001
  3.5844610600000002  3.8615911199999999 13.7290670200000005
  1.6915023199999999  5.3333075499999998 15.8341273800000000
  0.0509644700000000  6.6625666099999998 17.7787205499999992
 19.4402421700000012  8.6599386299999992 19.5165611800000001
 17.5996981000000012 10.7972798000000001 21.2837835400000017
 15.7064951799999992 12.2701793400000003  2.0481935299999998
 13.8102260000000001 14.2460284999999995  3.9070634100000001
  5.0158541699999999  5.4090138899999998 15.8757688899999998
  3.2676005300000002  7.1165353500000004 17.7258555700000002
  1.4920910599999999  8.8151449999999993 19.4718451799999990
  0.1780305200000000 10.7900214900000009  0.2308740700000000
 19.6000434599999984 12.2721495500000000  2.2253046900000002
 17.3701773400000015 14.1037523100000008  3.7645045200000000
 15.8338742600000000 15.9546553800000002  5.3181035999999997
 14.2243815399999995 17.4732518399999996  7.0780790299999996
 12.3091937799999993 19.0884601600000003  8.6491279199999997
 10.7684488199999997 -0.2086552900000000 10.5952870099999998
  8.8404151500000001  1.6682043200000001 12.5837957899999999
  6.8548843699999997  3.6151695899999998 14.1257427300000007
  6.8525273000000002  3.7496940200000002 17.4541257200000004
  5.2397403799999998  5.5645185599999998 19.1985167700000012
  3.4186820099999999  7.1177797500000004  0.2583107300000000
  1.7062840800000001  8.8041640599999997  1.6385585499999999
  0.0778685600000000 10.4673774300000009  3.5252721700000000
 19.2273361700000009 12.0738271800000003  5.1063825899999999
 17.6013423200000005 13.6737950399999999  6.8821208499999997
 16.0453307100000018 15.7619596699999995  8.2508278199999996
 14.1979617800000000 17.1105660099999994 10.6456724900000008
 12.6750569800000008 19.3878552400000004 12.3933332499999995
 10.5831544700000002 20.8267450399999987 14.1034477200000001
  8.7262919399999994  1.8092064200000000 15.9333542900000005
  8.8664000299999994  1.6552785600000000 19.5076681699999988
  7.1699500299999999  3.7617450500000000  0.0180372000000000
  5.5581476199999997  5.3785303799999999  1.6461554599999999
  3.3806592599999998  7.1215121400000001  3.3303598499999998
  1.3814538999999999  8.6407940500000002  5.4298213799999999
  0.2193861500000000 10.7187578699999992  7.0507384999999996
 19.5477831299999991 11.9027301899999998  8.7181857600000008
 17.8470857400000007 13.6260604000000001 10.1023784600000006
 16.4404567600000000 15.3873532300000004 12.3644109499999999
 14.1951091199999997 17.0811222799999989 14.0261326499999992
 12.2023677799999994 19.0883026200000003 15.9254695999999996
 10.7770159900000007 -0.1957783400000000 17.3710759999999986
 10.4376550899999998 -0.0956158400000000 -0.0027473400000000
  8.7503945099999996  1.7776802700000001  1.4207597000000001
  7.1769880199999996  3.6043203799999999  3.3458820899999999
  4.9862894400000002  5.2195852000000000  5.2257777499999998
  3.1620147200000002  6.9969595599999996  6.8070808800000000
  1.7273952800000001  8.9520222399999998  9.2105305800000004
 -0.1137017500000000 10.7978068300000007 10.5541748900000005
 19.3446932099999991 12.4689230099999993 12.2376339499999993
 17.5630511499999997 14.1340739800000001 14.2121527800000003
 15.4961869500000002 15.7100737600000002 16.0375323899999991
 14.0670291100000000 17.6355077300000005 17.5283443500000011
 12.1963927900000009 19.2592677099999996 19.3227822499999995
 12.0830666999999998 19.4154887900000013  1.5959299499999999
 10.0770261800000007  0.2771408000000000  3.3729441800000002
  8.8901013399999993  2.0258159899999999  5.5185347100000000
  6.9547793799999997  3.8341898900000002  7.2587511999999998
  5.0711570799999999  5.3349786699999999  8.9073839699999997
  3.5799752300000001  7.2383544600000000 10.4146979599999998
  1.9760327200000001  9.1008792300000003 12.4369730700000005
 -0.1719678000000000 10.9006819099999994 13.8296532100000000
 19.3682208100000004 12.4029983200000000 15.8790388900000004
 17.3334004899999989 13.6872495199999999 17.7791238199999988
 15.6783731199999998 15.7413313899999991 18.9629275899999996
 14.1931274100000007 17.6752832700000013 -0.1282026000000000
 14.0424009800000000 17.9555067199999989  3.3905989700000001
 12.2657997200000004 19.4128322100000013  4.9539938899999996
 10.3496063100000004  0.0544543500000000  7.0594842099999999
  8.7553975099999999  1.8105914700000001  8.5470610400000009
  7.0550674700000000  3.5360031400000000 10.8446992600000005
  5.0883835099999999  5.6382181999999998 12.5501028199999993
  2.7692172199999998  7.1730241200000000 14.3669225699999998
  1.4575267999999999  8.7865841200000006 16.1529233300000001
 -0.0565052800000000 10.7135867699999991 17.5798458900000014
 19.2512350599999991 12.2299193000000006 19.1702917399999997
 17.2687711300000011 13.9042254100000005 -0.0868507900000000
 15.5604089200000004 15.7407879699999995  1.7732027500000000
  6.9318923200000002  7.1805843200000004 14.2646352699999994
  5.3495118599999998  8.5862149399999996 15.8873163399999999
  3.6158627900000000 10.8912690100000003 18.0150726799999994
  1.6576522499999999 12.5369525799999995 19.2918756800000004
 -0.0288903200000000 14.2796165599999991  0.0748745900000000
 19.1763357600000006 15.7331668300000000  1.5073090600000001
 17.5324779699999986 17.4264723400000001  3.5608919900000000
 15.8245264799999994 19.1560102699999995  5.0621272299999998
 14.3874147200000007 -0.0524861300000000  6.9780889799999999
 12.3989414500000006  1.6146464800000000  8.5542092899999993
 10.6640725599999993  3.1397189200000000 10.7649211000000005
  8.7641058100000002  5.4827802600000002 12.5236204600000001
  8.6677811400000007  5.3663930300000002 15.7116261500000007
  7.3119142999999998  7.0161534699999999 17.6679242400000014
  5.4351719899999997  8.8652845100000004 19.3311163199999996
  3.5024549600000001 10.7088592600000005  0.0157474400000000
  1.7710692699999999 12.3233758800000004  2.3713073699999998
 -0.2539096500000000 14.1103041600000001  3.7182481699999999
 19.0487662799999988 15.8855865999999999  5.2986148899999996
 17.5130980600000008 18.0074988400000002  6.7741255999999996
 15.9344409700000007 18.9984985500000008  9.2227156600000004
 14.1355636300000000  0.0358076000000000 10.6053162299999997
 12.5293605600000006  1.6694746000000000 12.4948070999999992
 10.7833965900000006  3.5324700299999998 14.1701996900000005
 10.4413180000000008  3.3157566699999999 17.7823573099999983
  9.0549409099999991  5.3832724199999999 19.2973407600000009
  7.1720630999999999  7.3606836700000002 -0.0670793300000000
  5.3106688399999999  9.1840414599999995  2.1838203200000001
  3.3798496500000001 10.6039195999999993  3.9717170400000001
  1.7304779400000001 12.4661800599999992  5.3093097599999997
 -0.2807894200000000 14.2932459999999999  7.0525415000000002
 19.1280377199999982 15.7139378000000001  8.5224440999999995
 17.6067578900000008 17.2873164800000012 10.5568824400000008
 16.0984598699999992 19.2099282100000011 12.2921844700000005
 14.0702489899999996  0.1011365000000000 14.5858724700000000
 12.4006637200000007  1.8149468700000000 15.6736993899999995
 12.1474943300000007  1.8073714999999999 19.4451937400000006
 11.1183021899999996  3.5310864199999998  0.0140093500000000
  8.9633168199999993  5.2897460199999999  1.5847227699999999
  7.2966450600000003  7.3717260299999996  3.6156739899999999
  5.4249585099999997  9.0274388099999996  5.3233854500000000
  3.5091101899999999 10.3057038700000003  7.1584909999999997
  1.6665246600000001 12.4565142600000005  8.8999562099999991
  0.1470003900000000 14.2191658299999997 10.5568040700000001
 19.1985509199999989 15.5314936899999996 12.2928555500000005
 17.3106638000000004 17.4795783699999987 14.2208281599999999
 16.0490646999999989 18.7853233599999996 16.0266097300000006
 14.0552701500000001  0.0424240200000000 17.3222072800000007
 14.2487471400000008 -0.1638953600000000 -0.2905203100000000
 12.5717020599999998  1.5735978200000000  1.7658233500000000
 10.8456616799999992  2.9967234899999999  3.3233135699999998
  8.8781582199999995  4.8617069800000001  5.1451963200000002
  7.2552112099999997  6.1980164899999997  6.8188349300000004
  5.5832749599999998  8.5172174599999995  8.5245438900000003
  3.6518030900000000 10.4107467600000003 10.5834745500000000
  1.8888869100000001 12.2907473599999992 12.0153329400000004
  0.0355393900000000 13.9569553800000001 13.9331046399999998
 19.2649590300000000 15.5644038600000005 15.8533972199999997
 17.7766740900000002 17.2529338500000016 17.3881097000000011
 15.8374681499999994 19.2803142799999989 18.8912826100000011
 15.5941640600000007 19.2933524699999985  1.5476359300000000
 13.8745898800000003 -0.1493534400000000  3.6195194800000001
 12.6056710600000006  1.7042173599999999  5.6295736800000000
 10.6534922200000004  3.3341995299999998  7.1123239199999997
  9.2920561399999997  5.1054814000000004  8.9945578800000003
  7.0525668399999999  6.8805917000000001 10.5884722100000008
  5.2977165099999999  8.6400877600000001 12.6279683299999999
  3.6628473000000001 10.7086506499999992 14.2136611300000002
  1.6775954500000001 12.5004444400000008 15.8607261499999996
 -0.1955130400000000 14.1244499500000007 17.4788143799999993
 19.1018736000000011 15.5352650099999998 19.2256894500000008
 17.6158434100000001 17.2153991499999997 -0.3043182500000000
  8.5160824900000005  9.1112133800000006 12.2125078899999995
  7.1529205800000000 10.4688107699999993 14.1310589800000006
  5.3494344099999998 12.3760191600000002 15.9206921700000006
  3.7015735699999999 14.1109015699999993 17.5871246499999998
  1.4411222299999999 16.0918057099999992 19.0756138899999996
 -0.1649158200000000 17.6393610800000005 -0.1157069800000000
 18.8394665699999990 19.1797213100000015  1.6911567700000001
 17.4798380100000017 20.9948683799999998  3.3283783300000001
 16.0101990000000001  2.0534811300000002  4.9284393900000003
 14.1199792300000002  3.6890232500000000  6.8357962299999997
 12.0774589799999994  5.3489955900000004  8.8963261100000004
 10.2909035400000004  7.0431726000000001 10.7271025400000006
 10.4504017099999995  7.0881226200000000 14.0321421500000003
  8.8500006199999994  8.6721814699999999 15.7114577700000009
  7.3165589799999999 10.6517987200000004 17.3073473000000000
  5.1980482600000002 12.3870067400000003 19.7382800200000013
  3.5105377999999998 14.0551211299999999 -0.1553019500000000
  1.4593033200000001 16.1058253799999989  1.7951881500000000
 -0.3019186000000000 17.6432750600000006  3.3372828100000000
 19.4615061699999998 19.8649147699999986  4.9661971200000004
 17.2080867700000013 20.9786885900000009  7.0130586700000004
 15.5182099400000002  1.9394136300000000  8.9430975400000001
 14.1283496000000000  3.7418281699999998 10.4876388600000006
 12.3829527499999994  5.4648733800000002 12.2026787900000002
 12.0951039100000006  5.2388408200000001 15.6375478500000007
 10.6556683799999998  7.0279970000000000 17.6511701000000016
  9.0252425800000005  8.8193882899999991 19.1774731299999992
  7.0944108999999997 10.6937311400000006  0.1361921400000000
  5.2981656099999999 12.3877542900000002  2.2171204599999998
  3.5661131400000001 14.5106460700000000  3.8151381299999998
  1.4756968699999999 16.3392733499999991  5.2694047199999998
 -0.2711802500000000 17.4971759800000015  6.8792808900000004
 19.0355874900000011 19.5114880399999997  8.8460889500000004
 17.2371560899999992  0.3589705300000000 10.6858464400000006
 15.4531851699999994  2.0799052400000000 12.5531582999999998
 13.8146688100000006  3.8714060099999998 13.7818027999999995
 13.9931620100000007  3.3234640899999999 17.2781375799999992
 12.4909925899999994  5.2064353199999998 19.4865924600000007
 10.4556029499999994  7.0239287600000004  0.1641156700000000
  8.7379792199999997  9.1124763800000004  1.8268232200000001
  7.0319447700000000 11.0005096800000004  3.8338492400000002
  5.1411021600000000 12.3580566600000008  5.4002859499999998
  3.3284821600000001 14.4797937500000007  6.6457362699999996
  1.6518010400000001 15.7484681599999998  8.5345765599999996
 -0.0842422700000000 17.4669849500000005 10.2160945099999996
 19.4021873000000014 19.0439276200000016 12.2227011300000008
 17.5396030200000013 20.8983098299999988 14.1422388899999998
 15.8787422700000000  1.9764969800000001 15.6186620999999999
 15.7602212799999997  1.6495014100000001 19.2340599700000006
 14.1289192999999997  3.3358978800000001  0.1148407200000000
 12.5693748200000002  5.5200130800000000  1.7713867599999999
 10.2576321099999994  6.7912462700000003  3.4355797899999998
  8.6628445799999998  8.8543042100000005  5.4969539300000001
  7.0202303400000003 10.6406804400000006  7.0207521699999997
  5.1174138600000001 12.5943338699999998  8.7689822500000005
  3.5112812299999998 13.9464248699999995 10.4480113400000008
  1.7853940900000000 15.8704339200000000 12.1547371599999998
 -0.3870773000000000 17.1683364199999993 14.1332045199999996
 19.3711623400000015 19.2492942700000000 15.8206222200000006
 17.8314452699999997 21.0132077200000005 17.4551529300000006
 17.2837410200000008  0.0014488700000000 -0.3566322500000000
 15.8449326700000004  1.5106935500000001  1.7793859299999999
 14.0857598500000005  3.0796984799999998  3.3519603099999999
 12.2551841600000007  5.0736538900000001  4.9121942399999998
 10.4360406200000000  7.0975080000000004  6.9747296800000003
  8.3255429500000009  8.7539504000000008  8.7915183799999994
  6.8703200600000001 10.6236587599999996 10.5020204199999991
  5.1274256200000004 12.4014114200000005 12.4671123900000005
  3.4966088900000001 13.9820500699999997 13.9366461000000008
  1.8924262800000000 15.5280758300000006 15.3856095100000001
 -0.1536100200000000 17.4822441399999988 17.3642064000000005
 19.1194112499999989 19.1389636799999998 19.3417957600000001
