Li                                      
   1.00000000000000     
   -11.1791050000000016   19.3627778431472777   -0.0000000000000023
   -19.1641800000000018  -11.0644444817984429   -0.0000000000000019
     0.0000000000000000   -0.0000000000000001   23.4479499999999987
   Li
   504
Direct
  0.0056238407326674  0.0086934042545153  0.9929936233231444
  0.9316181814474263  0.0489628243780942  0.6854357208199460
  0.8477698006829399  0.0910293747155535  0.3347881605854681
  0.7915251058715214  0.1220110060188446  0.9846800044353543
  0.7182651925165899  0.1799521004818274  0.6573370648606840
  0.6366304285231337  0.2096349509003161  0.3407079642356763
  0.5786139872662304  0.2374432875229786  0.9931508246989580
  0.4970016867696359  0.2974359674363924  0.6771867306097121
  0.4224431957194454  0.3241571916208699  0.3304534805814612
  0.3569483405962757  0.3681842849993302  0.9985940144021086
  0.2822786558067492  0.4039808297290861  0.6668894624050310
  0.2143603392171443  0.4722745100523937  0.3211033992310632
  0.0786740719551844  0.0439983071978816  0.6620141138137896
  0.0011021633917991  0.0852093285345887  0.3322708403079986
  0.9333844128994997  0.1238194001952166  0.0044479274307534
  0.8631212942457154  0.1678512685589126  0.6858683027727395
  0.7764515658057647  0.2135312702366079  0.3380958838619179
  0.7138901633326142  0.2446631009329678  0.0078933574150426
  0.6558721298799384  0.3063497855634054  0.6805137775370582
  0.5696916557958502  0.3241223304223979  0.3372260632592585
  0.4982683995915167  0.3725722004690297  0.9860300410057192
  0.4399366802820737  0.4216522458970502  0.6493023091570933
  0.3574540114371985  0.4503285240209749  0.3178534225806544
  0.2863608113456735  0.4869981680448419  0.9858289692702371
  0.1361260626472287  0.0837357258400857  0.3344629466541846
  0.0661045982885042  0.1334831824137552  0.0129635298608193
  0.0005126142860519  0.1587408874823595  0.6768668736499350
  0.9270902414264839  0.2133296966850651  0.3336040097321913
  0.8642637999070359  0.2429299491624590  0.9915562750688238
  0.7876253150642043  0.2913200138090559  0.6603460673534371
  0.7144455465781974  0.3325079840629712  0.3338899856917124
  0.6493753069613604  0.3769825084648417  0.9953181668333499
  0.5713354503324553  0.4270735314796212  0.6746695212161384
  0.5073797034788967  0.4569124449854129  0.3208580613657048
  0.4199476890659994  0.4973544273443409  0.9885636352005207
  0.3626733969027995  0.5475583581096046  0.6514886141432399
  0.2189994907623785  0.1236167635568464  0.0198953580163703
  0.1461288984756663  0.1596654952315291  0.6732187611283749
  0.0687346239243851  0.2123552571523462  0.3498985254574478
  0.0046163933898455  0.2422768421906696  0.0331197341345373
  0.9214462667497472  0.2954623147009983  0.6670428638750963
  0.8583842748719235  0.3363893347306259  0.3357200416241071
  0.7923487061959307  0.3773393313369837  0.9772900048831588
  0.7121317997086720  0.4139657630651428  0.6687688902441380
  0.6498333085963921  0.4536657441488998  0.3471788715004962
  0.5646428065527687  0.5038255823130413  0.9970001394578176
  0.5103288830309083  0.5358461709326861  0.6544319469292645
  0.4321401245105179  0.5771747256279056  0.3136913806963904
  0.2892691637280862  0.1738119421452708  0.6712893869186871
  0.2061220744800139  0.2091477155072710  0.3363342394537696
  0.1526061799670586  0.2403256706261061  0.0184440516121853
  0.0644267885646315  0.2849122402222903  0.6612509758848830
  0.0105714533063477  0.3276976689576969  0.3467213295831826
  0.9265276470921364  0.3824479126033111  0.9900990005522843
  0.8572019154611752  0.4121383973046804  0.6604522966826494
  0.7957340122278396  0.4578230185290337  0.3125253798306460
  0.7139863217356037  0.4968899541099034  0.0032981275548636
  0.6402046098268102  0.5482972167482245  0.6730235884160436
  0.5791057330600466  0.5842481407511144  0.3262142609481842
  0.4932336516246991  0.6190151093839731  0.9911946366313487
  0.3484042605531243  0.2084709467782702  0.3222657085160989
  0.2913974918775040  0.2599884462348356  0.9968657055307588
  0.2133969139553997  0.2893411741184124  0.6627692386754518
  0.1489782457394284  0.3438569032519538  0.3246705959369578
  0.0594412400311768  0.3666196068060970  0.0250211609117201
  0.9935892820341650  0.4145009397357740  0.6419564533360074
  0.9378388817470125  0.4577812657712244  0.3279321846899208
  0.8513369797973098  0.4944955219823157  0.9783106395228600
  0.7867342630051652  0.5404478332371951  0.6450823445119909
  0.7199160555478414  0.5998443916642842  0.3105333037642950
  0.6338460691306551  0.6240220035165152  0.9787653440919115
  0.5837522334822367  0.6595797398019414  0.6826303843193102
  0.4329578490425661  0.2553417273777967  0.9943434406845810
  0.3557022759755810  0.2769119997897107  0.6822367716580757
  0.2840570830974158  0.3322298106185784  0.3384465558822853
  0.2204739268053686  0.3657217017623751  0.0020512778302546
  0.1368756790548389  0.4056149943227254  0.6610976076799915
  0.0828707713734218  0.4655601656520361  0.3300253915587490
  0.9944254471303751  0.4925184444029185  0.9964976652543172
  0.9258952670526455  0.5407177948973256  0.6649395981311770
  0.8640163718131433  0.5980331069621485  0.3163419062220783
  0.7759741118637251  0.6333198256431345  0.0182919176303287
  0.7189936963187478  0.6698119055714713  0.6717883802208746
  0.6557831576972362  0.7136261652140092  0.3267800332225193
  0.1373728196731960  0.4929527657706885  0.0046001100309425
  0.0708897089648630  0.5352517874525446  0.6607015662350051
  0.0090995033673309  0.5986248316603522  0.3164840913597970
  0.9237453160450713  0.6229321968732293  0.9998404367972498
  0.8576476369746686  0.6631540349369658  0.6678009979550481
  0.7964290788596387  0.7223931210401275  0.3258332442708181
  0.7091954446942452  0.7549194120615326  0.9963590923726784
  0.2203257698276246  0.5335684086087227  0.6622187137894784
  0.1445553475196064  0.5797378965218911  0.3134582085001014
  0.0671606254804047  0.6336320492652874  0.0009221296531265
  0.0041769493403763  0.6570528911095721  0.6709943159210070
  0.9340854971495176  0.7156301928070121  0.3229531532607339
  0.8513709587228817  0.7617153558610994  0.0268825168085058
  0.7882549627582591  0.7821950448469153  0.6715232018150843
  0.2889188737871891  0.5939792113960181  0.3268917956580424
  0.2044432606242168  0.6131851805263508  0.9993313423988042
  0.1487417328214278  0.6624067996077727  0.6882740819559956
  0.0811248663575768  0.7220671826750547  0.3566691813143592
  0.0092848006083415  0.7513402420085455  0.0077845427851884
  0.9270143014213374  0.7915492928948282  0.6866850023136379
  0.8730156359968930  0.8458007511173946  0.3286150298853414
  0.3477571341373817  0.6233677716958965  0.9864366552299870
  0.2767617464650982  0.6702629575741454  0.6565519744796475
  0.2264715068051117  0.7145244704400326  0.3510593544424978
  0.1358909686442331  0.7624092308136525  0.0041208028846853
  0.0799483114008623  0.7753705544550868  0.6893976876443375
  0.0096535546547400  0.8347703016195567  0.3392885429216648
  0.9356812770873475  0.8848009284460119  0.0072623384986770
  0.4329760059351955  0.6706926838074878  0.6485821208250613
  0.3750327252309091  0.7007191445815835  0.3176161029002529
  0.2845268550002729  0.7467230214197613  0.0068228591412023
  0.2272609780099231  0.7822148390603871  0.6883586667491173
  0.1463808841270193  0.8284146280378906  0.3554198883058035
  0.0707508530156673  0.8762162542461169  0.0043419906644289
  0.0130686821208528  0.9183577466063966  0.6569889073458484
  0.9326625181113926  0.9674997871272524  0.3278796406508917
  0.8685286701377919  0.9945191347096127  0.9999981094296118
  0.7848775147364506  0.0366804851875813  0.6711194437040362
  0.6997489751411337  0.0907028964064693  0.3333068511319723
  0.6404716184032537  0.1186097353682811  0.0006654065707252
  0.5650238710161020  0.1779186622336297  0.6643656507285272
  0.4920600174069207  0.1909409601196685  0.3399448301450647
  0.0773265391870623  0.9447433304811952  0.3356258359472761
  0.1376920798955297  0.0040694572467785  0.0014213144432702
  0.2229990181635060  0.0527668134537080  0.6917788868536476
  0.2778782686996664  0.0826777382068116  0.3319937162950310
  0.3613876634478572  0.1382835130233460  0.0169964218620393
  0.4265985214509556  0.1678196977827895  0.6739849654234149
  0.8625358354986901  0.9213988873355063  0.6604992747766829
  0.7830433512607087  0.9591816371326445  0.3396143505082563
  0.7125460233461922  0.0013058308615612  0.9921871894984449
  0.6414320501124990  0.0460592475872730  0.6596186101556825
  0.5817159802097365  0.0726416625734814  0.3396507072046830
  0.5098439623876274  0.1192256846289652  0.0014755174759387
  0.1565441188413104  0.9121000328915940  0.6577145046795110
  0.2113800544586653  0.9520210510598872  0.3281482769282604
  0.2930513504153041  0.9960410569779441  0.0056649284905532
  0.3588057870227530  0.0522742857907303  0.6794499408263803
  0.4275298167885140  0.0713636861838296  0.3206394819163307
  0.7987701977042718  0.8781688336778899  0.9998390166304532
  0.7134638858070375  0.9177906352818184  0.6548203676654012
  0.6420266361702787  0.9538648192333667  0.3467876965790211
  0.5773459259852771  0.0078678801852377  0.0005554059096866
  0.4904481426509264  0.0401145760606667  0.6653736011037239
  0.2202211790894495  0.8716117400136696  0.0039797995133881
  0.2912275306005441  0.9162943818376661  0.6669206378382739
  0.3577208012360487  0.9612666710653954  0.3418403672815771
  0.4336104380253687  0.0023030421452148  0.0131334440750663
  0.7168104090209582  0.8524555933236755  0.3278427227113667
  0.6455925809577678  0.8783757212806478  0.0091841819860576
  0.5720323082833332  0.9165731610905468  0.6590923786514367
  0.5014560262352958  0.9665686661173538  0.3379847402438187
  0.2897752374716731  0.8340024709590637  0.3234629922871690
  0.3683461312963630  0.8758831404158300  0.0007877025496867
  0.4383908934730982  0.9139151093769939  0.6695962717423072
  0.6423682333463177  0.7916116150420720  0.6848555199921549
  0.5765147101117023  0.8440536152142570  0.3528880119583988
  0.4920087784625693  0.8771297438578216  0.0031731136410613
  0.3582422441671511  0.7931078792319752  0.6466184698449098
  0.4343764563119095  0.8314602453828570  0.3474076556799233
  0.5568790236174053  0.7460198063618435  0.0185980458846089
  0.5029162039498019  0.7958176133726411  0.6732317068229818
  0.4181794474533049  0.7454988628826058  0.0031631839883630
  0.5131105245490843  0.7125211608042008  0.3440230361289593
  0.9777435967424566  0.9821780305204015  0.7419590765930479
  0.9267174237837281  0.0484046217574772  0.4516074232502234
  0.8678315294149286  0.0798595077044766  0.0998238212722242
  0.7879126710142188  0.1223767330457974  0.7705836360961200
  0.7090187814302382  0.1677217843612056  0.4622347194530860
  0.6352876671006200  0.1975196864294304  0.1252861333293538
  0.5728596911341981  0.2352311459474521  0.7771033169210924
  0.4867698268095637  0.3162471024204621  0.4610132843169694
  0.4230239372534612  0.3392275812442875  0.0970930384106055
  0.3477158817404487  0.3763681147774633  0.7639553530265957
  0.2742409191129340  0.4238879195426080  0.4307280273968530
  0.2098989865464418  0.4493539259182384  0.1196674306282617
  0.0829922778228038  0.0469308711371781  0.4548905435229926
  0.0022591340412177  0.0669307376232240  0.1225620261046245
  0.9235563958415440  0.1135255005675120  0.7893615062297528
  0.8578607158310660  0.1541105704678927  0.4677769485178871
  0.7817989462264521  0.2065584763472899  0.1014052243373058
  0.7026121533418461  0.2224848323025270  0.7620550623828493
  0.6342981893597823  0.3010072202325986  0.4357024255851769
  0.5702365424611813  0.3191622024521479  0.1017390637561064
  0.4846959045189223  0.3530478215250028  0.7717881008787586
  0.4417221525612476  0.4218879986355688  0.4398436822835237
  0.3477647061462861  0.4603814963487380  0.1143248079256409
  0.2833275305516025  0.5121782589483530  0.7825900835680741
  0.1452920613271758  0.0771919988623040  0.1219130051880839
  0.0527637124538742  0.1169720707219568  0.7750842811418508
  0.0060023283384041  0.1532025148616043  0.4573851185284852
  0.9414417841180054  0.1985247656804248  0.1149819118515722
  0.8610384186917273  0.2462221795250912  0.7894194089461948
  0.7848181910358605  0.2832050344183870  0.4600490533287527
  0.7094488800404335  0.3406501565887794  0.1029541516422512
  0.6423436376691924  0.3479958014595042  0.7813028465174980
  0.5912119764276298  0.4186354520912445  0.4453240777978493
  0.4906609453369413  0.4537591768955949  0.0915931964201562
  0.4274081405485006  0.4942015916649467  0.7510468130476227
  0.3558743226000658  0.5400378472154799  0.4388903784765859
  0.2105134068858661  0.1375905950849514  0.7935017449286619
  0.1434777607972961  0.1780973731660893  0.4479704652219070
  0.0677517891134656  0.1985928986036782  0.1209755390130027
  0.0169940482022071  0.2630125604524949  0.7825063321100600
  0.9261393722652826  0.3003644749116532  0.4491476210073770
  0.8566392002454890  0.3355252441450460  0.1056027008757709
  0.7777818688508660  0.3758383526464470  0.7769581178738463
  0.7107663777729059  0.4232394765863674  0.4488907678496403
  0.6473359470158400  0.4596458548205788  0.0985776504982283
  0.5530980852521097  0.4997957637460999  0.7648739250126368
  0.5056253987357309  0.5466261977745148  0.4333774841723894
  0.4487971248293192  0.5957167814033753  0.1025564183649337
  0.3050426511515951  0.1756117200578302  0.4410887177770348
  0.2130590677879241  0.2094042119201873  0.1167258148366912
  0.1509723443588484  0.2578652736676545  0.7807736663546265
  0.0745728354983086  0.3069072995461681  0.4390292166266150
  0.9994701375790100  0.3342634653629730  0.1208534345219974
  0.9338075690686409  0.3769093608798784  0.7674955576073828
  0.8711054020414721  0.4012143470010798  0.4364490520493263
  0.7837583093610405  0.4471793504877581  0.0961773958917505
  0.7035286273281258  0.4876909867572223  0.7678543041076082
  0.6336401480643588  0.5394076909407559  0.4278080510236535
  0.5718579384231575  0.5653166021861651  0.1076554103876859
  0.4926685795019949  0.6218485940721834  0.7640036455212496
  0.3441867519576292  0.2035046294835823  0.0946728456005772
  0.2777328859321955  0.2565260682278634  0.8023358076079177
  0.2191185469243990  0.3036944386081046  0.4216091939807072
  0.1417377975939971  0.3239448381421965  0.1024300533735385
  0.0739075622647007  0.4011526431680821  0.7785864589441758
  0.0004684624828215  0.4146990556713632  0.4362651135813564
  0.9292664268261674  0.4497066235829266  0.1052946649920372
  0.8529385379523902  0.4802261706832098  0.7700262641296973
  0.7870888589044256  0.5385887124822091  0.4217747180457110
  0.7060814936713413  0.5766814178165305  0.0966844410705434
  0.6448136544137881  0.6142028650260301  0.7736850142549798
  0.5794959444135444  0.6709480186643404  0.4360074467064265
  0.4309083460899714  0.2485659899710697  0.7914294853068213
  0.3613683251023048  0.3052389890935743  0.4498665068801344
  0.2907385389077035  0.3411762520496140  0.1144888133077728
  0.2057683911498955  0.3735525793252918  0.7813840570284398
  0.1276322516211010  0.4109936067048636  0.4588339441187799
  0.0727363972144488  0.4651129940450360  0.1113575472482680
  0.0055656711014009  0.5076148156801850  0.7686428144038189
  0.9185159620578887  0.5347018884178070  0.4354556010226887
  0.8566964942513451  0.5777595095450110  0.0991696378574645
  0.8002622013600913  0.6217606353866643  0.7929280555443015
  0.7228895623845659  0.6581641295739686  0.4634019805569380
  0.6343303769773598  0.6828816052176805  0.1061416345565362
  0.1519168011336376  0.5005549722901250  0.7883315842109866
  0.0562832495937471  0.5474562539618333  0.4441463390189782
  0.0029210702951445  0.5687610416129587  0.1106045688429020
  0.9272976147885501  0.6261844633075455  0.7597514963994740
  0.8569853184730221  0.6638219621883934  0.4337328320812688
  0.7857762925522280  0.6947810393686495  0.1069449401760068
  0.6962517306497276  0.7425249922843022  0.7880983484696955
  0.1920633566689531  0.5428789350311547  0.4405740071093618
  0.1585590453903478  0.5847865811572177  0.1117925106459197
  0.0680781051076025  0.6262298587678146  0.7892869794587583
  0.9882247539377360  0.6543272580476156  0.4357980906646404
  0.9243325664968225  0.6961225663823072  0.1143877392266717
  0.8528126177937310  0.7598393696134664  0.7748502154772581
  0.8037528468301716  0.7752866082053416  0.4396522267405061
  0.2901677977713533  0.5607600477085555  0.1080861043289474
  0.2123725242402230  0.6341805635515598  0.7914786746815849
  0.1342505719855609  0.6613665442227799  0.4428259783904380
  0.0884648420193983  0.6955601743594926  0.1194204802552008
  0.9969171712633269  0.7569397812034850  0.7886499212084672
  0.9392264243849482  0.7837734243273715  0.4431028780767647
  0.8454812190930312  0.8177751527188235  0.1087454161237957
  0.3607315019275603  0.6359372153227625  0.7580342618437896
  0.2885640660222464  0.6689501281406436  0.4489281451043681
  0.2269522584091135  0.6939878629431249  0.1090598235666675
  0.1381568247866554  0.7548042623917794  0.7925759130329126
  0.0634733849603677  0.7910331934276655  0.4505407287204193
  0.9978680138505709  0.8144238306581855  0.1219550280514952
  0.9123289276974944  0.8742874875278943  0.7824518676472820
  0.4323000431799429  0.6793646169983205  0.4211874590316000
  0.3623589214113920  0.6974192357750368  0.1167891598199446
  0.2829387875204432  0.7584949429475358  0.7719058173529021
  0.1984720913057885  0.8003652471289158  0.4645900942299832
  0.1490422788283894  0.8047434038679526  0.1257934791740851
  0.0733988902626734  0.8724291338773753  0.7887890079943034
  0.9978661354446459  0.9125158027069276  0.4437307709202756
  0.9336149955317978  0.9438766091413981  0.1043172541736084
  0.8442210031780704  0.9969675228612473  0.7840301996549783
  0.7793395379185952  0.0521805010679586  0.4484974686486467
  0.7306918422065323  0.0760324518622681  0.1025443175202980
  0.6320749308095586  0.1182607077689823  0.7809397525156783
  0.5596816144371886  0.1898996959764077  0.4417317914785741
  0.4940261866290712  0.2002960260717686  0.1151465172861563
  0.0782358221749888  0.9497900008841782  0.1136115417339241
  0.1242998089682388  0.0073930595550706  0.7645511590565519
  0.2262100324045804  0.0563287469485161  0.4598322002563151
  0.2831432633962834  0.0717734313939005  0.1204318019272463
  0.3472075147078968  0.1240886892260136  0.7989853765467743
  0.4315627927518833  0.1681185516799317  0.4442641830096008
  0.8593091234243460  0.9196174911622279  0.4389842864728024
  0.7911324315869166  0.9522378185961813  0.1079003554681748
  0.6830048401268627  0.9967713639046210  0.7678073665288423
  0.6370687199023735  0.0695146245754188  0.4295186227367438
  0.5858809723148184  0.0741106289437141  0.1072691834467392
  0.4875456332391579  0.1239137434384361  0.7777241234308363
  0.1343733060218781  0.9296577256519356  0.4416011561778319
  0.2129017881634994  0.9584862334538968  0.1191060126791470
  0.2771110999107123  0.0134053675885255  0.7662464893519498
  0.3566982570112245  0.0353639749550752  0.4589643687401264
  0.4329556416332352  0.0730639063001775  0.1205186931053674
  0.7589743610836592  0.8779021520950963  0.7734987203572175
  0.7276720432744384  0.9145898615370172  0.4410504965252855
  0.6460252066985177  0.9488570344084906  0.1169763574214358
  0.5464813065223382  0.0012489938964038  0.7696440951127954
  0.4932272214091995  0.0391084916238711  0.4579088658070347
  0.1981898805144198  0.8890077376538841  0.7860180953985321
  0.2820160221277774  0.9153449042406905  0.4622710650611239
  0.3675440379470629  0.9547871564379875  0.1094773888548914
  0.3996086030478452  0.9977343720224354  0.7873030623146136
  0.7094795294124765  0.8136154505617981  0.1243690672318891
  0.6288143763230423  0.8790296710621135  0.7801760767998900
  0.5752596008497406  0.9070735272702848  0.4519880560987204
  0.5040447712335236  0.9435058258521636  0.1054813503952374
  0.2864371952812519  0.8406568331149771  0.1170851413449796
  0.3323870968114591  0.8878354452994870  0.7804872067707436
  0.4327553562619073  0.9179282141492990  0.4482262133789945
  0.6525326205928934  0.7867748861922053  0.4564573039434165
  0.5609186058543045  0.8212798381512343  0.1184417733746415
  0.4870850999701872  0.8812461969934446  0.7760800922895186
  0.3684052976106713  0.7925936849609059  0.4359585712183787
  0.4211760092369232  0.8210453606290216  0.1412087730483904
  0.5824287507862849  0.7563637238818117  0.7768365174780740
  0.5049502951964158  0.7891600976518802  0.4522149079130600
  0.4303049595671737  0.7534242302554972  0.7616481329924341
  0.5134968819739427  0.7051425330611920  0.1162716032744839
  0.0009007071871849  0.9833110386032828  0.2188261216865470
  0.9271641072584771  0.0266202160867977  0.8711691951748435
  0.8579963555142953  0.0846258385220935  0.5690321541968473
  0.8120303816548713  0.1269842868460884  0.2162343249623078
  0.7001528830311941  0.1422547478964162  0.8825566913099010
  0.6489330361435179  0.2208418414449653  0.5603234154798216
  0.5838786631077539  0.2572996552870421  0.2329721570542418
  0.4960674623410100  0.2825379677818844  0.9019396992061175
  0.4328697276769020  0.3317659045666730  0.5637288624378698
  0.3729284764802685  0.3845741092985477  0.2163083975358191
  0.2976311272068557  0.4139776409784375  0.8549303853855008
  0.2240885666545225  0.4706921926254921  0.5682748436430458
  0.0535180328050657  0.0371543072481444  0.8587080776784290
  0.9920251051642808  0.0992539277304019  0.5782614121916865
  0.9457957160522383  0.1232210859896909  0.2180570365426391
  0.8491601559788364  0.1559745115364279  0.8662915146100190
  0.7874274494912612  0.2125179873208793  0.5559281463837991
  0.7270281965017773  0.2529655979721568  0.2206270663320282
  0.6268837414983608  0.2814557717051827  0.8705219330474492
  0.5585710435779561  0.3472770587566174  0.5515800012367791
  0.5042515664791978  0.3743476001537545  0.2135470537936186
  0.4262551482189423  0.4152525096962094  0.8626868054563417
  0.3539314946619427  0.4678271305303596  0.5532547011572433
  0.2814394199670929  0.5158229782358958  0.2424195142858991
  0.1343858805884253  0.1016681183533308  0.5679939491512087
  0.0459146829018025  0.1162261844127457  0.2374516863947562
  0.9908238169637542  0.1709461418991793  0.9045392415968152
  0.9255779528878563  0.2247898683367424  0.5574271115385372
  0.8639034965711900  0.2539581663271520  0.2155029420482393
  0.7533007134190015  0.2843154853541421  0.8901290287637096
  0.7082215469900461  0.3479639438231032  0.5582538546013609
  0.6619210942828317  0.3706113095001911  0.2010762548538381
  0.5661555765910862  0.4036549219926329  0.9086093837627587
  0.4945768244497586  0.4672301141457424  0.5534733475634326
  0.4271256490804447  0.5091085588184114  0.1943900567000512
  0.3753893829392396  0.5359374125184075  0.8735576223081338
  0.2188489177649302  0.1255369809284588  0.2432366279354881
  0.1329163018203090  0.1872750879891072  0.9124123085386984
  0.0686959611661848  0.2233245996983584  0.5721259359560236
  0.9975154962978152  0.2569794881784446  0.2280380805145015
  0.9301873172843003  0.2865111025053224  0.8889337315202397
  0.8590628519317249  0.3348418667877198  0.5569471710746541
  0.7959424927546124  0.3871561731070372  0.2147496847272379
  0.7098174502808732  0.4166163359182491  0.8728016777586092
  0.6394385610124118  0.4782665699963857  0.5506698184702685
  0.5664095321402058  0.4967696758851048  0.2070370433236164
  0.5005297583723589  0.5389047507136127  0.8790024168424111
  0.4199544917411302  0.5710253332834654  0.5449396928089669
  0.2804311511013324  0.1556823645241963  0.9088167080704252
  0.2171231310755672  0.2166369351455373  0.5421286760676338
  0.1445732763768746  0.2544051106381247  0.2407064668766381
  0.0618089996334064  0.2908295905774878  0.8905089741320680
  0.0065962954425345  0.3337765002539541  0.5470263344983266
  0.9351064621744740  0.3810484921960153  0.2136778515819060
  0.8497480413636325  0.3958284362832956  0.8674625368102511
  0.7944451662962848  0.4407680396046842  0.5490076266795185
  0.7264161220349479  0.5174228351058332  0.2060630920826796
  0.6374984454608708  0.5439464036998274  0.8882054397079457
  0.5735074833955451  0.5839862229866029  0.5830602722199600
  0.5027383731052382  0.6343763677614902  0.2128402175883153
  0.3690620764742789  0.2238524781950488  0.5611190078450363
  0.3000267488185884  0.2525004159921451  0.2317013414818803
  0.2135500473456347  0.2860718683485644  0.8944464364688614
  0.1453681213140996  0.3466155300240814  0.5465391810371472
  0.0775329289534668  0.3719717095263988  0.2271959570026354
  0.9692746085786510  0.4194674041292288  0.8795351465693173
  0.9488667650054907  0.4500532296708428  0.5418484204376099
  0.8683859262565221  0.4912617502995715  0.1948050238933448
  0.7956659821352616  0.5394811017628598  0.8901579178563566
  0.7218564072690370  0.5682380158304028  0.5621627221143015
  0.6340900399267397  0.6123037705868342  0.1988090481257458
  0.5836878782615145  0.6819556172863770  0.8933252749174230
  0.4237393413503057  0.2601383842363205  0.2035004185866995
  0.3579324881431702  0.2936479735702875  0.8864971632914589
  0.2938743966471336  0.3457664315963456  0.5575474742994615
  0.2174399183279405  0.3766028090855187  0.2148032318390278
  0.1354651538362361  0.4310019980726310  0.9025290176753202
  0.0902189480034821  0.4639431338716022  0.5199916402073512
  0.0078467319470548  0.4935792347836951  0.2165301968828857
  0.9340807673329223  0.5433927266131207  0.8734773888548872
  0.8625692471586106  0.5948611110020323  0.5310570932640175
  0.7842480050644838  0.6228077087223980  0.2067552003480060
  0.7225550856010088  0.6684824542340095  0.8937031949488130
  0.6387792958412390  0.6947164992170158  0.5652158994709566
  0.1447187995844175  0.5116562323027551  0.2173412596836855
  0.0744887852398861  0.5360858559291799  0.9049663983418625
  0.0121997195089136  0.5878033797761901  0.5512587407427958
  0.9305501584120606  0.6251522189493599  0.2009172008640405
  0.8762333001117995  0.6576020405544938  0.9073140880119581
  0.7887892823464639  0.7110293166613033  0.5576220880716676
  0.7080409515109523  0.7388461039689247  0.2149769178115761
  0.2207302268578673  0.5478101440960188  0.8983805304941370
  0.1429703345327482  0.5922069432855110  0.5621255504212499
  0.0666828720284371  0.6352596579604537  0.2122821965246402
  0.0216362199088493  0.6692140590328393  0.8875707492552678
  0.9260450680891026  0.7172497163510130  0.5425102126198666
  0.8589470419165153  0.7580383882313697  0.2112880179290713
  0.7934226903101660  0.7920376737037600  0.8935456105970871
  0.2684846753916688  0.6019059397743902  0.5551346134736761
  0.2122860230924317  0.6312694176227325  0.2313423847287268
  0.1596651048255708  0.6649352614262085  0.8999052437419905
  0.0738564695411341  0.7145170193595760  0.5553367936216205
  0.0106011234755883  0.7363653272693327  0.2189925294108903
  0.9295699592932252  0.7883646662792430  0.9142670783586624
  0.8704949730486788  0.8394395165520621  0.5443477011849680
  0.3358990026302635  0.6197758004882559  0.2112190545442161
  0.3145633993711670  0.6522217235108840  0.8829180823910008
  0.2036117733376486  0.7119447123029659  0.5815643666077435
  0.1438806976297258  0.7453237338474210  0.2412532507106135
  0.0722846272098820  0.7909306149563875  0.9014643774828954
  0.9923742533729722  0.8490967947622536  0.5553497725814012
  0.9285935921805901  0.8607874211516489  0.2166944564450191
  0.4520043425526907  0.6430042972956542  0.8797898532707578
  0.3519966482720918  0.7062567221408997  0.5425615522892215
  0.2815527423441395  0.7537959845032205  0.2295154860019721
  0.2177932681489096  0.7992600271480512  0.9033070195902013
  0.1403088870848492  0.8539599476129638  0.5620791548941355
  0.0637980296402318  0.8656218276940990  0.2105874364283480
  0.9819540753200044  0.9052618591987667  0.8987999300578551
  0.9150484765361426  0.9664752183872451  0.5610021379267707
  0.8700961917574688  0.0082250178323875  0.2279550506547494
  0.7593898651858169  0.0297915079670474  0.8638720753839877
  0.7280313161798375  0.0786954590875979  0.5516508070001862
  0.6803701719068158  0.1195245113219343  0.2208737714810880
  0.5460976267564774  0.1714425365571870  0.8812751221322088
  0.5026282013970800  0.2140493248665436  0.5539884433393993
  0.0793755046130613  0.9641981049803618  0.5567367381796728
  0.1338064398204679  0.0003610428189873  0.2280417520508209
  0.1935592674939741  0.0406364835313511  0.9177175113389424
  0.2887461859506999  0.0874256419480304  0.5702412496614855
  0.3680011115469171  0.1208063180318817  0.2247625519501710
  0.4049175761072306  0.1739254604346101  0.9158948142588130
  0.8527368255865753  0.9136903483165426  0.8823967975878517
  0.7854869120132335  0.9587584287184896  0.5530943003546156
  0.7249717377924654  0.0115009372269270  0.2259146765495501
  0.6169144683447811  0.0406040311849765  0.8845577771191060
  0.5733717547752732  0.0945163429550817  0.5371221552417182
  0.5230650598399578  0.1337007993150650  0.2137584296281787
  0.1359329736306307  0.9190769004894008  0.9016679867536368
  0.2105932657343175  0.9668500363732306  0.5452830870076042
  0.2896317020235486  0.0142438748618545  0.2240540716779051
  0.3561467699929821  0.0454630530937195  0.9034419469505863
  0.4323882491149718  0.0837249119126184  0.5659476299633894
  0.7720078506331589  0.8949483863618255  0.2071214379082207
  0.6878440460548418  0.9175064388629224  0.8942161638863979
  0.6395741155608619  0.9640614258926306  0.5425690446286353
  0.5728047046271669  0.0128737708829121  0.2210185849935726
  0.4714444591128597  0.0199974989751226  0.8925542847029249
  0.2104260870625509  0.8713960716288724  0.2264105736322364
  0.2815802429198300  0.9291491855364384  0.8975610298554884
  0.3478793980485477  0.9562982215716218  0.5579936548824094