Li 
 1.0000000000000000
   -11.1791050000000016   19.3627778431472777   -0.0000000000000023
   -19.1641800000000018  -11.0644444817984429   -0.0000000000000019
     0.0000000000000000   -0.0000000000000001   23.4479499999999987
 Li 
 504
Cartesian
 -0.2294714700000000  0.0127054900000000 -0.1642851700000000
 -11.3529898500000002 17.4969694300000000 16.0720625099999985
 -11.2218109399999992 15.4079888500000006  7.8500960500000003
 -11.1867831500000001 13.9761407799999997 -0.3592224900000000
 -11.4781964500000004 11.9165393300000009 15.4132066299999995
 -11.1344403399999994 10.0074392799999998  7.9889033100000004
 -11.0187924200000005  8.5763960200000007 -0.1605991200000000
 -11.2561504600000006  6.3323695000000004 15.8786406000000007
 -10.9347436099999999  4.5930545000000000  7.7484566900000003
 -11.0463128899999994  2.8377568399999999 -0.0329674800000000
 -10.8975840700000006  0.9958754399999999 15.6371907700000001
 -11.4471104599999993 -1.0748434700000000  7.5292164499999998
 -1.7226971900000001  1.0365317500000000 15.5228738400000008
 -1.6452881100000001 -0.9214529400000000  7.7910700500000001
 -12.8072996299999993 16.7029221499999991  0.1042947800000000
 -12.8656555000000008 14.8552448300000002 16.0822056700000005
 -12.7721852800000004 12.6716542899999993  7.9276553800000000
 -12.6694207999999993 11.1158353400000003  0.1850830500000000
 -13.2030058399999994  9.3099161499999994 15.9566530300000000
 -12.5801815200000000  7.4445794400000000  7.9072598699999999
 -12.7102354700000006  5.5255558999999996 -0.3275669000000000
 -12.9987178799999992  3.8530483400000000 15.2248080800000007
 -12.6261928200000000  1.9386676599999999  7.4530111600000000
 -12.5341781300000008  0.1563765800000000 -0.3322816200000000
 -3.1264940700000001  1.7092894199999999  7.8424704500000004
 -3.2970859799999999 -0.1969486100000000  0.3039682000000000
 -3.0478695099999999 -1.7464541000000000 15.8711406099999994
 -14.4523278600000005 15.5906678000000003  7.8223301400000000
 -14.3172490400000001 14.0466630200000004 -0.1979880400000000
 -14.3878552800000001 12.0273198800000003 15.4837615700000004
 -14.3591046400000000 10.1546342700000007  7.8290356900000004
 -14.4839953900000005  8.4026077699999995 -0.1097793900000000
 -14.5715330200000004  6.3373100200000003 15.8196171999999997
 -14.4284033199999993  4.7687980999999997  7.5234637800000002
 -14.2260290800000000  2.6284033600000001 -0.2681593100000000
 -14.5478709199999994  0.9639353600000000 15.2760724499999991
 -4.8172322100000002  2.8726876699999999  0.4665053600000000
 -4.6934485900000000  1.0628513900000001 15.7855998500000005
 -4.8380059500000003 -1.0186997000000000  8.2044031299999993
 -4.6946441600000002 -2.5912724699999998  0.7765898700000000
 -15.9632375500000006 14.5726329799999998 15.6407877200000005
 -16.0425937000000012 12.8987429000000002  7.8719467500000002
 -16.0891482500000009 11.1670218899999991 -0.5325028300000000
 -15.8943105599999992  9.2085486299999992 15.6812594999999995
 -15.9586867699999999  7.5630185499999998  8.1406328200000004
 -15.9676053699999994  5.3585030400000004 -0.0703405800000000
 -15.9740726399999993  3.9525445800000001 15.3450875700000005
 -15.8920201599999995  1.9813155200000001  7.3554198099999999
 -6.5647336999999997  3.6779219699999999 15.7403599799999991
 -6.3124047799999996  1.6769926500000001  7.8863484300000000
 -6.3116449200000000  0.2958095200000000  0.4324752000000000
 -6.1803432899999997 -1.9049140700000000 15.5049798200000009
 -17.5773414999999993 15.9416778800000003  8.1299043999999991
 -17.6870504900000007 13.7085752999999997 -0.2321581400000000
 -17.4810446500000012 12.0377278400000005 15.4862524300000004
 -17.6693968099999985 10.3420635300000008  7.3280794800000004
 -17.5042165800000014  8.3269472199999992  0.0773343300000000
 -17.6645811100000003  6.3295355200000003 15.7810234499999993
 -17.6705203299999987  4.7487145399999999  7.6490556800000000
 -17.3768277600000012  2.7013153100000000 -0.2064677200000000
 -7.8900225600000002  4.4394590799999998  7.5564702199999996
 -8.2400285400000008  2.7656371700000002 -0.0734927800000000
 -7.9305728499999999  0.9305576800000001 15.5405799699999996
 -8.2551790399999998 -0.9199529400000001  7.6128599000000001
 -7.6904640000000004 -2.9054947599999998  0.5866949299999999
 -19.0510095300000017 14.6524259000000008 15.0525628200000003
 -19.2572019099999991 13.0940705200000007  7.6893374699999999
 -18.9937866799999995 11.0129305599999991 -0.5085710400000000
 -19.1522244899999983  9.2536057100000004 15.1258585599999993
 -19.5435430699999984  7.3026296799999999  7.2813693800000001
 -19.0447017599999988  5.3685638100000004 -0.4979091500000000
 -19.1661323699999997  4.0051813999999997 16.0062831199999991
 -9.7334960800000001  5.5580522800000001 -0.1326347200000000
 -9.2832244999999993  3.8235066999999998 15.9970537099999994
 -9.5424158499999994  1.8241959000000001  7.9358779200000003
 -9.4734577000000009  0.2224802000000000  0.0480982600000000
 -9.3034263500000005 -1.8376112200000001 15.5013836499999993
 -9.8484998699999995 -3.5465562700000000  7.7384188800000002
 -20.5554986100000008 13.8053960300000007 -0.0821225700000000
 -20.7130935600000008 11.9451623399999995 15.5914704499999992
 -21.1197438499999990 10.1128529500000006  7.4175692000000000
 -20.8117512100000006  8.0176822899999998  0.4289079700000000
 -20.8741019500000000  6.5106185700000001 15.7520603500000007
 -21.0071290600000005  4.8019065100000002  7.6623218800000004
 -10.9827407099999999 -2.7943291200000000  0.1078631500000000
 -11.0501450999999999 -4.5496420000000004 15.4920972900000002
 -22.7529833299999993 12.9155182899999996  7.4209031500000000
 -22.2646306299999992 10.9938766300000008 -0.0037414300000000
 -22.2965362800000015  9.2690096600000000 15.6585644100000003
 -22.7474361000000016  7.4282007400000003  7.6401216200000004
 -22.3955818399999984  5.3792299200000002 -0.0853718200000000
 -12.6884459399999994 -1.6375191000000000 15.5276712900000007
 -12.7262008099999999 -3.6154846900000002  7.3499524000000003
 -12.8938343300000007 -5.7103703599999998  0.0216220500000000
 -23.8176794299999983 12.1737299500000002 15.7334411700000008
 -24.1567056800000017 10.1684394299999994  7.5725893900000001
 -24.1152155300000004  8.0569494699999993  0.6303399100000000
 -23.8021116299999989  6.6082520799999998 15.7458424600000004
 -14.6129789500000005 -0.9777780400000000  7.6649424799999997
 -14.0366838499999993 -2.8259639499999998 -0.0156786500000000
 -14.3572825900000005 -4.4491101300000002 16.1386162599999992
 -14.7447288600000004 -6.4184694899999997  8.3631611299999999
 -25.6817203999999997 11.2293949800000004  0.1825315700000000
 -25.5325833399999986  9.1915187700000001 16.1013556000000015
 -25.9686112999999992  7.5456923600000003  7.7053487900000004
 -15.8339456999999992 -0.1636739700000000 -0.3180326300000000
 -15.9389885899999992 -2.0572110700000001 15.3947978699999997
 -16.2250243199999993 -3.5206988600000000  8.2316221899999995
 -16.1300871400000005 -5.8044079699999998  0.0966243800000000
 -15.7530914400000004 -7.0310230599999999 16.1649625099999987
 -27.2847114200000007 10.3134278199999994  7.9556207900000002
 -27.4165634999999988  8.3275579499999992  0.1702869500000000
 -17.6935595499999998  0.9627762500000000 15.2079211399999998
 -17.6212380300000007 -0.4913927300000000  7.4474464999999999
 -17.4910899800000017 -2.7528451299999999  0.1599820600000000
 -17.5310803100000001 -4.2543688299999998 16.1405996000000016
 -17.5122943199999987 -6.3316071200000001  8.3338677699999995
 -17.5828972300000004 -8.3249130499999993  0.1018107800000000
 -28.9247743300000018  9.4547055300000000 15.4050430499999997
 -28.9676722899999994  7.3540894600000000  7.6881054200000003
 -9.6043369100000007 16.8777704200000009 -0.0000443300000000
 -9.4771795700000006 14.7915597600000002 15.7363751599999997
 -9.5608138999999994 12.5455067899999992  7.8153623799999998
 -9.4329577899999997 11.0889588299999993  0.0156024200000000
 -9.7261264500000006  8.9718605300000007 15.5780125599999995
 -9.1600175299999993  7.4149931499999999  7.9710093799999999
 -18.9696727400000000 -8.9558035300000007  7.8697378200000001
 -1.6172620300000000  2.6210748700000002  0.0333269100000000
 -3.5041621500000000  3.7340449699999998 16.2207967500000017
 -4.6908814000000003  4.4657119400000003  7.7845720600000003
 -6.6900807699999998  5.4674387900000001  0.3985312500000000
 -7.9851165599999998  6.4033006700000001 15.8035657700000005
 -27.3002327999999999  6.5063229299999996 15.4873539699999991
 -27.1356533900000017  4.5490824800000000  7.9632603099999999
 -7.9906519899999999 13.7824220600000000 -0.1831943900000000
 -8.0533239499999993 11.9102862999999992 15.4667041899999997
 -7.8951819199999997 10.4598976500000003  7.9641127999999997
 -7.9844616700000000  8.5528294099999993  0.0345978600000000
 -19.2296723500000013 -7.0607511799999996 15.4220568199999999
 -20.6077426099999990 -6.4406790300000001  7.6944043899999999
 -3.2001819199999999  5.7180917000000004  0.1328309600000000
 -5.0129213899999998  6.3690908100000003 15.9317082400000007
 -6.1470272399999999  7.4885653200000002  7.5183385400000002
 -25.7589215100000004  5.7499595799999996 -0.0037747300000000
 -25.5645926299999999  3.6597991900000002 15.3541952399999992
 -25.4573202700000003  1.8774347899999999  8.1314605699999998
 -6.6049921999999999 11.0919671799999993  0.0130231300000000
 -6.2515342399999998  9.0525929299999994 15.6016469299999994
 -19.1655999600000015 -5.3798059399999998  0.0933181400000000
 -20.8156936100000003 -4.4993143399999997 15.6379217700000002
 -22.4208859099999991 -3.7094133100000000  8.0154558399999996
 -4.8915125300000000  8.3704207000000004  0.3079523400000000
 -24.3499112599999989  4.4474931199999999  7.6872397699999997
 -24.0504976799999994  2.7817263200000002  0.2153502400000000
 -23.9601822800000015  0.9347616500000000 15.4543651400000002
 -24.1293254700000013 -0.9849637100000000  7.9250492899999996
 -19.2224012799999997 -3.6169204900000000  7.5845440699999997
 -20.9033622399999999 -2.5589560699999998  0.0184700100000000
 -22.4152514899999993 -1.6234975100000000 15.7006598999999998
 -22.3516894099999988  3.6792906300000001 16.0584579900000008
 -22.6205138900000016  1.8239418900000000  8.2745004600000005
 -22.3096900900000001 -0.1782966800000000  0.0744030100000000
 -19.2040898200000001 -1.8387331099999999 15.1618775499999998
 -20.7901938199999989 -0.7889109000000000  8.1459973399999992
 -20.5222669300000007  2.5284300900000001  0.4360860500000000
 -20.8733450400000002  0.9325749300000000 15.7859034000000005
 -18.9617463499999985 -0.1514150400000000  0.0741701800000000
 -19.3910002100000014  2.0515942699999998  8.0666349499999992
  0.5903501000000000 -0.2337556000000000 17.3974193300000017
 -11.2875062699999997 17.4082533499999990 10.5892682800000006
 -11.2320217699999993 15.9200280200000002  2.3406639700000000
 -11.1534082199999993 13.9021474400000002 18.0686065700000000
 -11.1404458700000006 11.8728247800000002 10.8384565899999998
 -10.8872503599999995 10.1154883600000005  2.9377029900000000
 -10.9120706599999995  8.4894529799999994 18.2214797200000014
 -11.5022673999999991  5.9261175100000001 10.8098164400000005
 -11.2300474399999999  4.4375537800000000  2.2766327099999999
 -11.0999386500000004  2.5684412600000002 17.9131869200000011
 -11.1892324199999997  0.6199816400000000 10.0996892500000008
 -10.9579823300000001 -0.9076241200000000  2.8059559300000001
 -1.8271710500000000  1.0876970200000000 10.6662507200000007
 -1.3079278000000001 -0.6968083200000000  2.8738282599999998
 -12.5001570500000003 16.6265207199999985 18.5089091299999993
 -12.5435177299999996 14.9054186099999999 10.9684104999999992
 -12.6983363300000001 12.8523445200000008  2.3777446300000000
 -12.1183144100000000 11.1428519599999998 17.8686289999999985
 -12.8594426100000003  8.9512972499999997 10.2163286899999992
 -12.4912160799999992  7.5100110200000003  2.3855724800000000
 -12.1843384100000005  5.4787811000000000 18.0968488000000001
 -13.0231958700000003  3.8850115700000001 10.3134326699999992
 -12.7105320299999995  1.6398252400000000  2.6806823799999999
 -12.9828245599999992 -0.1809598800000000 18.3501331500000013
 -3.1035565699999998  1.9591713200000000  2.8586100499999998
 -2.8315248999999998 -0.2725789400000000 18.1741374700000016
 -3.0031012300000000 -1.5788789700000001 10.7247433900000004
 -14.3290409000000007 16.0323618699999990  2.6960901200000000
 -14.3442850600000007 13.9477839800000005 18.5102668299999991
 -14.2009572199999994 12.0627539000000006 10.7872071999999992
 -14.4592844399999993  9.9677963100000007  2.4140638000000001
 -13.8498811499999999  8.5871769300000000 18.3199500800000017
 -14.6320259200000002  6.8155374399999999 10.4419367100000002
 -14.1810727700000001  4.4799656600000004  2.1476726899999998
 -14.2490087400000007  2.8077428000000002 17.6105081199999987
 -14.3277389300000007  0.9154966700000000 10.2910796500000004
 -4.9901624099999999  2.5537608299999999 18.6059892399999995
 -5.0170430699999997  0.8075795099999999 10.5039890699999994
 -4.5632744199999999 -0.8854572600000000  2.8366283900000000
 -16.4095033000000008 16.7817419500000007 18.3481693499999992
 -16.1096481500000017 14.6092648599999997 10.5315909600000008
 -16.0065257400000007 12.8745140899999999  2.4761668499999998
 -15.8975390200000000 10.9015749500000005 18.2180751000000001
 -16.0567694799999998  9.0795017799999993 10.5255682799999999
 -16.0453724199999996  7.4484960899999999  2.3114438200000000
 -15.7613175499999993  5.1795528700000002 17.9347255499999996
 -16.1280822700000002  3.7421970500000001 10.1618135800000005
 -16.4335738099999986  2.0986837700000001  2.4047377700000001
 -6.7755584400000002  3.9634269600000001 10.3426261999999998
 -6.3948697000000001  1.8084741200000001  2.7369810700000001
 -6.6295122099999997  0.0701079600000000 18.3075418899999995
 -6.7152842899999996 -1.9518215299999999 10.2943351199999995
 -17.5790668299999986 15.6540786799999996  2.8337652900000001
 -17.6622917000000008 13.9108158100000008 17.9961974600000012
 -17.4271227199999998 12.4278065099999999 10.2338355500000002
 -17.3315419999999989 10.2279469299999999  2.2551627700000001
 -17.2110182499999986  8.2262386700000008 18.0046093300000010
 -17.4208358300000015  6.3007869699999999 10.0312217900000000
 -17.2266890600000018  4.8178440599999997  2.5242986799999998
 -17.4248121699999992  2.6590230099999999 17.9143192800000008
 -7.7476991899999996  4.4127459399999998  2.2198841499999999
 -8.0209168399999999  2.5393617300000000 18.8131298999999999
 -8.2696041299999994  0.8825334900000000  9.8858712999999998
 -7.7926389100000000 -0.8398321900000000  2.4017747699999998
 -8.5139818599999995 -3.0074754399999999 18.2562563599999983
 -19.1317093400000005 14.7834339000000003 10.2295225700000003
 -19.0066256399999993 13.0174254099999995  2.4689440399999998
 -18.7382302500000009 11.2018236200000008 18.0555373400000008
 -19.1205600300000000  9.2810418099999996  9.8897525000000002
 -18.9449856499999996  7.2910395699999997  2.2670519400000000
 -18.9791338100000004  5.6895700400000004 18.1413275300000016
 -19.3364146099999985  3.7969841299999998 10.2234808099999999
 -9.5807330200000003  5.5933379800000003 18.5573990000000002
 -9.8894293799999993  3.6197947500000001 10.5484473600000008
 -9.7885597600000001  1.8545800400000001  2.6845279700000000
 -9.4591353199999997 -0.1489041300000000 18.3218542999999983
 -9.3031697999999992 -2.0761010099999999 10.7587153799999999
 -9.7266369600000004 -3.7378382000000001  2.6111062000000000
 -20.9693459199999985 13.8540687499999997 18.0230982799999992
 -20.5153096200000000 11.8688411600000006 10.2105411600000000
 -20.6493873000000008 10.1954358799999998  2.3253247099999999
 -20.8617479099999983  8.6158631900000007 18.5925374000000012
 -20.6944341700000010  6.7149295300000000 10.8658264700000000
 -20.1781118900000003  4.7266925600000000  2.4888037399999998
 -11.2910194599999993 -2.5968314299999999 18.4847595700000014
 -11.1207465499999998 -4.9674992700000002 10.4143211499999992
 -22.1115989299999995 13.1263129099999993  2.5934504000000000
 -22.3666691700000015 11.0266744800000005 17.8146151000000010
 -22.3019324300000008  9.2487950899999998 10.1701457600000005
 -22.0991845799999993  7.5274455500000004  2.5076396100000000
 -22.0133538100000017  5.2657410300000000 18.4792906700000010
 -12.5509260600000001 -2.2877737300000001 10.3305572899999998
 -12.9795035199999997 -3.4001950900000000  2.6213052000000001
 -12.7622340199999993 -5.6107042800000002 18.5071616299999988
 -23.5871136399999983 11.8950087500000006 10.2185718399999992
 -23.6738289799999997 10.1954366499999995  2.6821579899999999
 -24.0953802500000016  8.1056207400000009 18.1686491100000005
 -23.8429695799999983  6.9847721800000002 10.3089434299999994
 -13.9903227700000006 -0.5860438100000001  2.5343975699999999
 -14.5276852200000004 -2.9047336300000000 18.5585523899999991
 -14.1753487400000004 -4.7181894099999999 10.3833614000000001
 -14.3187981400000002 -5.9830618500000003  2.8001654500000002
 -25.6507719499999993 10.9279675300000001 18.4922239200000007
 -25.5200858000000004  9.5140150600000002 10.3898541299999998
 -25.1237135500000015  7.3226372399999997  2.5498570800000002
 -16.2198706000000001 -0.0515280800000000 17.7743494700000007
 -16.0457686600000002 -1.8141596499999999 10.5264447000000008
 -15.8368314500000000 -3.2841640200000000  2.5572292900000000
 -16.0096744000000015 -5.6763899499999999 18.5842803799999992
 -15.8690781399999992 -7.5233217999999997 10.5642564799999992
 -26.7630361900000011 10.3103494100000006  2.8595953999999999
 -26.9540236600000007  7.9917169799999996 18.3468922700000014
 -17.8521933799999992  0.8537376100000000  9.8759824799999993
 -17.4163162000000007 -0.7002811200000000  2.7384663800000002
 -17.6989360299999987 -2.9138443000000001 18.0996090100000018
 -17.5570840100000005 -5.0126258300000002 10.8936852999999996
 -17.0884067299999991 -6.0181661799999997  2.9495992100000001
 -17.5399228600000008 -8.2317373099999998 18.4954852199999991
 -28.6428674000000001  9.2249798599999995 10.4045769299999993
 -28.5256013000000017  7.6339094100000002  2.4460257599999999
 -9.3795202999999994 16.3800164099999996 18.3839009199999985
 -9.7123150400000000 14.5128300800000005 10.5163462200000009
 -9.6255804200000004 13.3069669699999995  2.4044540300000001
 -9.3324015100000004 10.9302374300000000 18.3114362700000015
 -9.8960114899999994  8.7358561199999993 10.3577049599999995
 -9.3612797099999998  7.3495550400000003  2.6999497799999999
 -19.0765530100000014 -8.9940358899999993  2.6639577499999998
 -1.5312425400000000  2.3249894900000001 17.9271573500000017
 -3.6083199499999998  3.7568083099999998 10.7821224400000002
 -4.5407672300000002  4.6883069600000002  2.8238788700000002
 -6.2595272399999997  5.3499295599999996 18.7345691599999995
 -8.0463399599999992  6.4961161000000001 10.4170843499999997
 -27.2300220499999988  6.4635549799999996 10.2932816000000003
 -27.0930094799999992  4.7825390399999996  2.5300421399999999
 -7.5735086599999999 13.2605940499999999 18.0035087400000009
 -8.4540488899999993 11.5662793900000000 10.0713311900000004
 -7.9698943399999997 10.5242901700000004  2.5152424500000001
 -7.8250291100000000  8.0692010500000002 18.2360363599999999
 -19.3183012900000008 -7.6843058199999996 10.3546418300000003
 -20.7486541500000001 -6.4827476900000001  2.7927918300000001
 -3.3547569600000000  5.2173177199999996 17.9669093699999998
 -4.6652888499999996  6.5153863699999999 10.7617735700000008
 -6.2402664300000001  7.5748123700000001  2.8259162899999999
 -25.3089289400000013  4.9823523200000004 18.1369593199999990
 -25.6620869099999993  3.9703233700000000 10.3417299899999993
 -25.4060506199999985  2.0102665800000001  2.7428557800000002
 -6.1331078500000000 10.5675767100000009 18.0465762599999984
 -6.2633210699999999  9.1175353799999996 10.7370241899999996
 -19.2526897900000016 -5.9988701300000002 18.4305130000000013
 -20.6945212299999994 -4.6671692900000004 10.8393088199999994
 -22.4065263200000011 -3.4475159299999998  2.5670203400000000
 -4.4238476300000000  7.7626005200000003 18.4606428399999984
 -23.5236191000000012  4.7352915299999996  2.9161996700000001
 -23.8754647800000015  2.4496180800000000 18.2935296399999991
 -23.8142078300000009  1.1023591699999999 10.5981933399999999
 -23.7162849000000016 -0.6796609000000000  2.4733214299999999
 -19.3126103499999999 -3.7551810799999998  2.7454065399999998
 -20.7304285399999983 -3.3874684799999999 18.3008249999999997
 -22.4291590899999989 -1.7770199400000000 10.5099858400000006
 -22.3726262200000008  3.9296171200000001 10.7029880399999993
 -22.0097226399999997  1.7739371799999999  2.7772167799999998
 -22.3335362199999992 -0.3191790400000000 18.1974872000000012
 -19.3078495500000002 -1.6362588899999999 10.2223347800000006
 -20.4430319099999984 -0.9292733100000000  3.3110562500000000
 -21.0061227099999996  2.9086940800000001 18.2152238199999985
 -20.7684985299999987  1.0456223000000000 10.6035125499999996
 -19.2491818899999991 -0.0043212300000000 17.8590873399999985
 -19.2539139900000009  2.1407156399999998  2.7263307399999999
  0.3097611600000000  0.2020942800000000  5.1310239600000003
 -10.8750195200000004 17.6579347300000009 20.4271317299999993
 -11.2134161500000005 15.6768549299999993 13.3426375000000004
 -11.5113226300000004 14.3181532899999997  5.0702516400000004
 -10.5532781900000003 11.9829349700000005 20.6941451699999988
 -11.4867433499999994 10.1216539200000000 13.1384354299999995
 -11.4581777900000006  8.4586350899999996  5.4627194899999996
 -10.9601987199999993  6.4791184099999999 21.1486369699999983
 -11.1971176499999991  4.7107549400000002 13.2182861799999998
 -11.5390540500000007  2.9658323599999998  5.0719884899999998
 -11.2607916499999998  1.1825327699999999 20.0463649299999993
 -11.5255395200000006 -0.8689705000000000 13.3248801199999996
 -1.3103155399999999  0.6251660100000000 20.1349440699999995
 -1.8129679500000000 -1.2526056900000000 13.5590446799999995
 -12.9345806900000007 16.9498594699999998  5.1129904899999996
 -12.4819741600000000 14.7163281300000008 20.3127601200000001
 -12.8754670999999998 12.8953892999999997 13.0353753799999996
 -12.9754027999999995 11.2783616400000000  5.1732524199999999
 -12.4018682400000007  9.0240588600000002 20.4119547600000004
 -12.8996044100000002  6.9730592900000001 12.9334202900000008
 -12.8111460000000008  5.6217628199999998  5.0072406400000000
 -12.7231249000000002  3.6589453999999999 20.2282370799999995
 -12.9221606799999993  1.6768495900000000 12.9726885700000008
 -13.0315652300000000 -0.2578457400000000  5.6842406499999996
 -3.4506999899999999  1.4771827000000000 13.3182937199999998
 -2.7406645799999998 -0.3969423600000000  5.5677552700000001
 -3.1734611199999998 -2.0691004899999998 21.2095909099999993
 -14.6550466200000002 15.4345852600000004 13.0705230399999994
 -14.5245679100000000 13.9176654499999994  5.0531022099999996
 -13.8699009100000001 11.4402014600000008 20.8717009599999983
 -14.5857266899999996  9.8631087399999995 13.0899084699999992
 -14.5021472599999992  8.7160228400000008  4.7148259699999997
 -14.0648282200000008  6.4961271800000002 21.3050274000000002
 -14.4830082600000001  4.4067395200000004 12.9778153799999991
 -14.5315305400000003  2.6373356700000001  4.5580483300000001
 -14.4673183699999992  1.3387314800000001 20.4831354499999989
 -4.8523483299999999  2.8485260200000000  5.7034002900000003
 -5.0748587900000004  0.5015340100000000 21.3941981900000009
 -5.0477921900000000 -1.1408180000000001 13.4151803399999991
 -16.0761316399999998 16.4713356699999984  5.3470255099999999
 -15.8894120300000008 14.8409241900000008 20.8436736899999993
 -16.0205236299999996 12.9290039100000005 13.0592694199999997
 -16.3174552900000016 11.1279896800000007  5.0354398700000003
 -15.9192342599999996  9.1344092799999999 20.4654100999999997
 -16.3139374500000010  7.0895528900000002 12.9120783699999997
 -15.8521351199999998  5.4707814399999997  4.8545942399999999
 -15.9231423700000008  3.7289648199999998 20.6108047200000009
 -15.6379476299999993  1.8134074300000000 12.7777186700000005
 -6.1184941400000001  3.7073871999999999 21.3098887300000008
 -6.5789115000000002  1.8071396099999999 12.7118060899999996
 -6.4916651700000001 -0.0155109900000000  5.6440732000000002
 -6.2644799200000003 -2.0210739300000000 20.8806098999999996
 -17.6493986099999987 15.7974488900000001 12.8266461399999994
 -17.7561352200000009 13.8901687999999996  5.0103075800000001
 -17.0851499800000006 12.0738607899999995 20.3402181900000016
 -17.3281439800000001 10.5058117600000003 12.8731033799999999
 -18.0366664499999985  8.3404377600000004  4.8317570800000000
 -17.5509488500000010  6.3252759899999997 20.8265967399999994
 -17.6029174700000013  4.6432148499999997 13.6715681100000008
 -17.7774679599999992  2.7153893299999998  4.9906667799999997
 -8.4157328899999992  4.6692636800000002 13.1570904399999993
 -8.1929939500000000  3.0155744499999999  5.4329214700000001
 -7.8696311799999998  0.9696958200000000 20.9729353200000013
 -8.2676879000000003 -1.0203776499999999 12.8152233899999999
 -7.9952815499999996 -2.6144074499999999  5.3272794399999999
 -18.8743714599999990 14.1266751100000008 20.6232961400000008
 -19.2323823000000012 13.3931073999999999 12.7052346699999994
 -19.1224060599999994 11.3788254099999993  4.5677784600000004
 -19.2335464999999992  9.4372449500000002 20.8723783500000017
 -18.9595241899999998  7.6899072700000000 13.1815633999999999
 -18.8228588099999996  5.5029434999999998  4.6616646199999998
 -19.5942282799999994  3.7563586500000001 20.9466463800000007
 -9.7223654100000001  5.3264840199999997  4.7716676400000004
 -9.6288874900000003  3.6815155499999999 20.7865411599999987
 -9.9115828700000002  1.8645111700000001 13.0733452999999997
 -9.6480677000000004  0.0433399600000000  5.0366954399999999
 -9.7741790500000008 -2.1458159999999999 21.1624552799999996
 -9.8996568200000006 -3.3863835999999998 12.1927379800000004
 -20.7258657399999997 14.0535323299999995  5.0771892300000001
 -20.8558629999999994 12.0740597300000001 20.4812541400000008
 -21.0427775900000000 10.1199289700000001 12.4522001699999993
 -20.7027898300000004  8.2941985799999998  4.8479856000000003
 -20.8884372499999991  6.5942866000000002 20.9555078299999984
 -20.4546528599999995  4.6818894599999998 13.2531541500000003
 -11.4232987900000005 -2.8590340099999998  5.0962069899999998
 -11.1063637899999996 -4.4891823899999999 21.2196068599999990
 -22.5802567200000013 13.0952804399999998 12.9258873899999998
 -22.3832475799999990 11.1010739699999998  4.7110964800000001
 -22.3979079399999996  9.6903094599999999 21.2746553700000014
 -22.4442520200000004  7.4060072400000001 13.0750948400000002
 -22.0746438699999992  5.5347179500000001  5.0407680199999998
 -12.9658985900000001 -1.7872645800000000 21.0651817600000015
 -12.9474408400000005 -3.7841380199999999 13.1806918000000000
 -12.9196852599999996 -5.7376295800000001  4.9775823299999997
 -24.2459172599999988 12.3772333600000000 20.8117145500000014
 -24.0978577200000004  9.9948352600000003 12.7207523400000007
 -24.1294432900000011  8.2443270900000005  4.9542708800000002
 -24.0485081100000002  6.5994104199999999 20.9518127999999990
 -14.5364521500000006 -1.4611457299999999 13.0167686600000003
 -14.4709284900000004 -2.8741983200000001  5.4245046700000001
 -14.5278520100000001 -4.2655793299999996 21.1009331600000003
 -14.5187819999999999 -6.4756674800000003 13.0215093700000004
 -25.4094537500000008 11.4205717599999996  5.1349258799999999
 -25.5001225500000004  9.2762395299999998 21.4376887399999987
 -25.8185247000000011  7.5672688499999996 12.7638376800000000
 -15.6325452200000008 -0.3535371700000000  4.9526538300000000
 -16.0158317799999992 -1.1256498300000000 20.7026190499999991
 -15.9200340100000002 -3.9347832100000000 13.6364921900000002
 -15.8919756200000002 -5.4606630899999997  5.6568941600000002
 -15.9656141100000006 -7.3515766999999999 21.1374916500000012
 -27.3660997899999998  9.8203378600000004 13.0218136999999992
 -26.8771303500000016  8.4560168000000004  5.0810407800000004
 -17.3756540999999984  1.6375743199999999 20.6292684900000012
 -17.4698384400000002 -0.9987053900000000 12.7219561500000005
 -17.5933895999999983 -2.8886906200000002  5.3816676399999999
 -17.7518968400000006 -4.6262855299999996 21.1806978299999997
 -17.9339699299999999 -6.7318226200000000 13.1796039199999999
 -17.3021373899999986 -8.3423175799999996  4.9378436800000003
 -28.3259689299999984  8.9971390299999996 21.0750158200000008
 -28.7511280499999984  7.0243689700000003 13.1543500800000004
 -9.8845224100000006 16.7564740100000016  5.3450786299999997
 -9.0602288600000005 14.3742707700000008 20.2560292299999993
 -9.6468724699999999 13.2259870999999993 12.9350805399999995
 -9.8965188400000006 11.8513841699999993  5.1790371500000001
 -9.3904383399999993  8.6770505999999994 20.6640949999999997
 -9.7210132300000005  7.3639413300000003 12.9898933200000002
 -19.3654131400000011 -9.1313861400000000 13.0543352000000006
 -1.5027553300000001  2.5868696299999998  5.3471115999999999
 -2.9425842599999998  3.2982249800000001 21.5185943199999983
 -4.9033646700000002  4.6236120900000000 13.3709883099999995
 -6.4290770899999998  5.7888689700000002  5.2702210799999998
 -7.8597549300000003  5.9159404699999998 21.4758558099999988
 -27.0429608100000003  6.4018775799999998 20.6903959899999990
 -27.1548597700000016  4.6010791700000002 12.9689274999999995
 -8.3249412100000004 13.9102152199999995  5.2972360399999996
 -7.6746945799999997 11.4959167499999992 20.7410665300000012
 -8.2211112600000007 10.0562990800000005 12.5944134400000003
 -8.4096654100000006  8.6486674800000003  5.0121969699999998
 -19.1329641399999986 -7.5370353699999999 21.1422658699999992
 -20.8831323600000012 -6.6199879299999997 12.7857705599999996
 -3.5107953900000002  5.4504737399999996  5.2536086700000002
 -4.8526642700000000  6.3929673600000001 21.1838616000000002
 -6.4382329199999999  7.4458679700000001 13.2703117299999995
 -25.7813087900000006  5.0461097700000002  4.8565731200000002
 -25.2727393599999992  3.1668723999999999 20.9675359000000014
 -25.6253128900000000  1.7171273899999999 12.7221318300000004