Li                                      
   1.00000000000000     
    20.2271999999999998    0.0000000000000000    0.0000000000000000
     0.0000000000000000   20.2271999999999998    0.0000000000000000
     0.0000000000000000    0.0000000000000000   20.2271999999999998
   Li
   432
Direct
  0.9995792180825802  0.9881523147049549  0.0031264465670020
  0.9150832062766980  0.0887165534527767  0.0922906853148220
  0.8399172965116293  0.1891374589661439  0.2079997444035726
  0.7731805633009046  0.2560232622409444  0.2543169924655899
  0.6789760451273565  0.3322157555173249  0.3376346014277800
  0.5702914970930237  0.4088453765226987  0.4111788472947353
  0.4802765864776148  0.4801209663225734  0.4998586457838954
  0.4013207636252147  0.5673047945340954  0.5687290213178287
  0.3409303077044754  0.6568840714483457  0.6452332369284903
  0.2675988278160091  0.7584426346701463  0.7778915672955264
  0.1749384808574561  0.8471261830604320  0.8533001626522676
  0.0992866966263222  0.9381482014317370  0.9153140765899366
  0.0712307615488044  0.9189334376483131  0.0993737220178801
  0.9981831934227188  0.0051284676079746  0.1858456321191255
  0.9277464948188552  0.0766383107894342  0.2687848298330948
  0.8362935542240137  0.1453053798845119  0.3266353830485684
  0.7433950438024013  0.2308820711714930  0.3893332408835661
  0.6578877293940835  0.3400197743632347  0.4711589666389813
  0.5909875978879953  0.4121120011667472  0.5934719862363522
  0.4998157372251200  0.4797481599034938  0.6628533736750484
  0.4339841367070107  0.5821923103543725  0.7415717647524147
  0.3601427261311514  0.6497507316880231  0.8401993390088620
  0.2620754835073598  0.7371716896060718  0.9476300031640577
  0.1667270531759186  0.8367479211161211  0.9974990764910601
  0.1717895521871569  0.8034586047500412  0.1677582789511121
  0.0929301267600096  0.9341472892936267  0.2548750741575674
  0.9890787751146988  0.9779042754311007  0.3570395511983833
  0.9117028333135551  0.0803766868375249  0.4257244408519227
  0.8464778565495976  0.1719347255181134  0.5033095836299637
  0.7433174121974346  0.2589323831276715  0.5550249184266747
  0.6483702272187912  0.3232523626601775  0.6800165376324969
  0.5910278204595798  0.3976689828547677  0.7543598362600861
  0.5124405493592761  0.4948930633008999  0.8322312213257419
  0.4498694984970726  0.5933097067315316  0.9324097299675671
  0.3394019389732605  0.6682993207166561  0.0004239786030666
  0.2735867658400579  0.7412220005734866  0.0756008290816297
  0.2603770235128948  0.7684801114341084  0.2465197634867877
  0.1516111928492307  0.8384391784329992  0.3037062005616207
  0.0786228776103499  0.8932936694154421  0.4331183945380488
  0.9945656259887699  0.0162578958036690  0.4930790811382693
  0.8999810270329078  0.0647468927978139  0.5763718196290171
  0.8455542957008362  0.1772998477297918  0.6643243889416226
  0.7594586007949715  0.2431960909072899  0.7456558332344585
  0.6994104112284418  0.3177152497626992  0.8356856000830533
  0.6084344892026579  0.4100531343932943  0.9232772731767156
  0.5335793861730735  0.4940214196725208  0.0183177948504962
  0.4070603682170528  0.5738023725478598  0.0570731534765088
  0.3366968745056127  0.6692773794692286  0.1634573791725984
  0.3201796328705910  0.6496255502491692  0.3162857795443728
  0.2410674759729474  0.7511912014515119  0.3855327563874411
  0.1856730961279851  0.8129967395388391  0.5154092078982728
  0.1066978197674402  0.8840955935571913  0.5656432056834362
  0.0105186733705125  0.0144741457047957  0.6786427518391065
  0.9219776429757971  0.0826147267046338  0.7542780449098245
  0.8310513565891497  0.1581683515266548  0.8489471127986050
  0.7604521362324022  0.2337897578508148  0.8974797940397110
  0.7033934934148078  0.3300139880952386  0.0073141556913470
  0.6024611562648303  0.3870252926752116  0.0923297668486001
  0.5099920211398512  0.4958935176396153  0.1693562579101382
  0.4128754395071965  0.6026180731885802  0.2502198025431071
  0.4174283370906480  0.5892253890800490  0.4114560631229267
  0.3300408267085899  0.6831439986750496  0.4759466139653554
  0.2522111003994638  0.7298433539985751  0.5742508661604191
  0.1902209307269445  0.8280367796828045  0.6474401494027830
  0.1287365087604826  0.9191491442216417  0.7367701535556108
  0.0071765785674742  0.0065552528278729  0.8374541473856993
  0.9274889762300234  0.0643299225794962  0.9150325205663634
  0.8334943111256123  0.1510331499169411  0.0044240715472199
  0.7614557674814080  0.2318491971207095  0.0844204536465725
  0.6856769814902677  0.3006627120906487  0.1445237986473629
  0.5988145205465898  0.4036225448900481  0.2186638071507687
  0.4914697857340613  0.5023017253994624  0.3425231875889878
  0.0677692122488551  0.0711921135896247  0.9355717963929777
  0.9682657767758300  0.1644722032708401  0.0074020744344239
  0.9100074162513820  0.2476888541172286  0.0981297307585791
  0.8309581855125785  0.3627601877669662  0.1669375291686421
  0.7359926776815371  0.4345338015147888  0.2635205831751293
  0.6447487996361332  0.4944556335033994  0.3295443798449611
  0.5610687865844000  0.6030714542793874  0.4471245199533271
  0.4720081499169453  0.6761011262062979  0.4784514510164541
  0.4081815955742769  0.7618247478642601  0.5833590511786113
  0.3391123141116879  0.8291047866239509  0.6363630977100172
  0.2492109174774555  0.9015814433040674  0.7651179273453579
  0.1875562633483625  0.0116003124505610  0.8421759566326514
  0.1688073949928821  0.0055789333175156  0.0107410803274774
  0.0761511860267348  0.0949443145863000  0.1075632109239066
  0.9963602732953660  0.1742108645783915  0.1720370085824996
  0.9299092736513188  0.2725893440515748  0.2562297119719972
  0.8205101076767889  0.3404682155711143  0.3541184049201078
  0.7673634862956789  0.4434841530216715  0.4173552533222562
  0.6615807778634704  0.5334645981648478  0.5058004429678817
  0.5718487679955686  0.5985245253915537  0.5937299997033705
  0.4792282159666215  0.6777494799082433  0.6428218097413350
  0.3970995263803161  0.7186107182407824  0.7443996504706547
  0.3397596602594533  0.8376657678769206  0.8466337842113560
  0.2520396569965229  0.9067470633602284  0.9344702687470345
  0.2087215729314948  0.9180105130715077  0.0727887448584070
  0.1649775633800061  0.0145800481529790  0.1508108883088113
  0.0723476566207850  0.0856899768628381  0.2797723154959684
  0.9859493123121368  0.1724986656581251  0.3433569006090806
  0.9035314452816010  0.2507670666231618  0.4297398315139986
  0.8287561896851798  0.3366029865725366  0.4883734357696596
  0.7370920364657465  0.4073976002610351  0.5580275871104234
  0.6849910941702291  0.5095866343339637  0.6686652205940504
  0.5648613831869937  0.5831556038403747  0.7424657782589748
  0.4827326515780754  0.6947522618058883  0.8287484021515610
  0.4222920527804135  0.7434317295522845  0.9021043540381299
  0.3295144201866762  0.8504516660734041  0.0135098174734978
  0.3289696997112799  0.8513551643331780  0.1383378114617955
  0.2324059726506889  0.9051775673350733  0.2430790405988006
  0.1816499767639641  0.9853270047263081  0.3420819441148524
  0.0910240156818531  0.0844755556873906  0.4404219071349473
  0.9981767392422114  0.1787954788601454  0.5021409003717778
  0.9231151217172950  0.2728100953171975  0.5945224000355935
  0.8252217795839272  0.3503994008068361  0.6467816109001774
  0.7667284473382381  0.4284909171808238  0.7520299290064898
  0.6582598901479173  0.5081165895427944  0.8080785244621111
  0.5697211789076064  0.5792076194431246  0.9117401820321120
  0.5002454818264539  0.6737682037059045  0.0226443501819347
  0.4154722457878535  0.7604182976388216  0.0818863871420632
  0.3662369655711117  0.7598405547974991  0.2657901058970111
  0.3321026123240003  0.8530278298528700  0.3366636726783767
  0.2341325398473373  0.9360706024560983  0.4259874609436807
  0.1825547436125632  0.0097259813518420  0.5009220964839400
  0.0819375014831536  0.0912799606470500  0.5867755136647688
  0.9773205871302011  0.1628345332028189  0.6660065406976727
  0.8833360282194249  0.2643092543703531  0.7466594827756694
  0.8338906754271491  0.3637782683713056  0.8335477876324973
  0.7710504172599286  0.4352782733151415  0.8959062119324486
  0.6580772771317811  0.4991681433910742  0.9945271545245973
  0.5914924641077377  0.6182879370352765  0.1105933006051245
  0.4642711220534750  0.6766072659587081  0.1810338173350701
  0.4947726862838167  0.6863098323050139  0.3206318373279515
  0.4119073910378077  0.7863517807704454  0.4146613851645284
  0.3345455475794950  0.8623064892817567  0.4891640039155192
  0.2461461072219606  0.9354677172322425  0.5862491793228912
  0.1864787182605596  0.0285812841124837  0.6848054258622085
  0.0725524907055828  0.0934692933277930  0.7626421729156760
  0.9872306695934157  0.1741774699414620  0.8292808302681536
  0.8915759773967693  0.2612527927740871  0.9207647716935625
  0.8253741407609567  0.3370097294731877  0.0143821136884981
  0.7483940738213875  0.4707993553235212  0.0663482464206595
  0.6751881481371598  0.5223303264910584  0.1499483660615439
  0.5574418718359411  0.5877497809879770  0.2554651770882757
  0.1524758982953642  0.1627852367109668  0.8529269078270829
  0.0725542665321939  0.2394423108487587  0.9364272336260058
  0.9973852490705610  0.3245240621539338  0.0111928655473790
  0.9242720984614792  0.4573235613431450  0.0657407752926744
  0.8160935290104447  0.5469398488174306  0.1509792101724443
  0.7387013378025600  0.6132893430628030  0.2471117945143178
  0.6228237897484590  0.6650997701115315  0.3400362655236506
  0.5650963618296174  0.7712157115171649  0.4280344002135763
  0.4714836586378723  0.8670908677424478  0.4987117440871671
  0.3863825176000617  0.9527774832898288  0.6084202687470324
  0.3296150752452149  0.9994816371025124  0.6940986023769966
  0.2531136464760309  0.0920751270566385  0.7623846409784818
  0.2448504063834847  0.0822864296590708  0.9247455060512593
  0.1526278461675403  0.1664687771911062  0.9909975088000351
  0.0759969723936109  0.2406832601645306  0.0917565619561813
  0.0066286648671081  0.3521512048133175  0.1574728385540283
  0.9009785165519730  0.3984761029702568  0.2565170537691799
  0.8320493034132284  0.5242855926672974  0.3218188755734843
  0.7352034161920571  0.5869090501898455  0.4043849435413733
  0.6619399521436478  0.6883779816286975  0.5029573930153433
  0.5630554406937165  0.7763484090729307  0.5919984787810506
  0.4714388699375078  0.8342579496915050  0.6785822555766501
  0.4012031872923600  0.9330452301850940  0.7662064848323027
  0.3329395862996378  0.0058340640325909  0.8338762591955415
  0.3357299388941613  0.9998243157728197  0.0087710266373975
  0.2496324780493566  0.0869299230738818  0.0662243721325737
  0.1372170344882164  0.1438616669632964  0.1548817424062676
  0.0619497345158990  0.2596525653575412  0.2692679575027697
  0.9939056587169759  0.3498301109397275  0.3510346207087451
  0.9212268845910430  0.4177945850142351  0.4479256189685188
  0.8424886252175270  0.5065136711952221  0.5100295419039682
  0.7372293782629313  0.5840925446922967  0.5753165267560547
  0.6579080505457995  0.6791874614380617  0.6641739415242824
  0.5593138907016311  0.7385708100972934  0.7164289486434114
  0.4840198203409258  0.8145337436718876  0.8394138897128585
  0.4258397647721850  0.9260993058851454  0.9288459267718707
  0.4234693299121943  0.9145707843893405  0.0767606816563813
  0.3190075185888332  0.9673223451589905  0.1465139752412625
  0.2255364281759213  0.0764482978365777  0.2556464216500558
  0.1693157204160727  0.1670906423034353  0.3444087461438059
  0.0975658573603866  0.2487545814546763  0.4083348782827088
  0.0162183035714278  0.3274355817908585  0.4893578740507820
  0.9272225528001883  0.4222896925921518  0.6020613461082078
  0.8510898359634567  0.5184099534290425  0.6500768915124198
  0.7463427923785773  0.5919458274007283  0.7479538947555753
  0.6314579081632630  0.6597474549121998  0.8018925768272425
  0.5605445454635358  0.7385500118652146  0.9083914916548039
  0.4723881441820907  0.8041396426593863  0.9849967009769003
  0.4676113307823115  0.8528806755260234  0.1845443541370031
  0.4148002150569496  0.9323840358527136  0.2367422010955522
  0.3232078527922795  0.0006895492208514  0.3276279890444584
  0.2468005635975317  0.0979445301376387  0.4030945617781967
  0.1778513130833730  0.1700372177068488  0.4907578527922780
  0.1075523606826465  0.2646744640879604  0.5723048622646729
  0.0151833877155525  0.3290196497785161  0.6666706934227165
  0.9310684024481901  0.4089598505972134  0.7442745926277468
  0.8426152512458458  0.5314344115843994  0.8124788047777258
  0.7363467578310363  0.5922906467528861  0.8989306725597217
  0.6489900648631561  0.6856707868612588  0.0100613698386312
  0.5535236671412775  0.7843441761588323  0.0784147390642289
  0.5482442384511970  0.7717089305489608  0.2355222319451045
  0.4850377976190501  0.8455974054738178  0.3263877318659993
  0.4263506169909803  0.9337751295285557  0.4107064185848728
  0.3414032194273062  0.0180819782273360  0.4972288957443425
  0.2416194678452754  0.0961195558455969  0.5676813755734855
  0.1771886830604359  0.1645158207759820  0.6689723683950319
  0.0972570073959815  0.2455105199928838  0.7345180173232109
  0.9954687287414998  0.3431611266018066  0.8520656828429054
  0.8967482864657512  0.4381847240349614  0.9265324004310997
  0.8117947812846040  0.5497066153496277  0.9909043688696428
  0.7521534339898750  0.6106349687549439  0.0997083941425387
  0.6617657164610051  0.7048049557032101  0.1605669909824385
  0.2359995886726765  0.2497914392501173  0.7616830836695172
  0.1896905424379085  0.3157305969190034  0.8613041251384246
  0.0784488505576633  0.4280491244462894  0.9352411292714748
  0.0152021223896526  0.5297610801297239  0.9917370130319583
  0.9080142021634217  0.5815239870075928  0.0983356490270495
  0.8279837570202488  0.6688494097057429  0.1363350241259269
  0.7425132371262464  0.7482350943284288  0.2695272024798285
  0.6589819391710208  0.8281093794494510  0.3345348214285693
  0.5774453725676310  0.8907091688419584  0.4246853899699445
  0.4891094377867446  0.9947621974371117  0.4959996905157382
  0.4008613950522104  0.1085233077242549  0.5942558569648781
  0.3300223105521312  0.1568572926554310  0.6802143099390889
  0.3053047104888478  0.1777742969862359  0.8577740928057267
  0.2556563493711437  0.2284142150174020  0.9414657031126410
  0.1570572348125268  0.3465742955030819  0.0046536490468299
  0.0773249733032770  0.4051059385382061  0.0650705574671733
  0.0044348654287276  0.5122042561501345  0.1825983413423486
  0.9119956439843406  0.5853313908993840  0.2482012997350083
  0.8198195390365441  0.6705001601803531  0.3823684192572401
  0.7162735445340900  0.7539620125375706  0.4340930272108849
  0.6669372379765832  0.8311843309998395  0.5557472032708404
  0.5574590600775196  0.9112862551415901  0.5976341634037325
  0.4866774269300720  0.9891009595989573  0.6910279440555271
  0.4003002229670969  0.0890084074909012  0.7559710009294420
  0.4013873803591181  0.0529136969031825  0.9059024709302292
  0.3442970564388546  0.1617405602357209  0.9992146021199204
  0.2490569975083048  0.2499763417576304  0.0653896861651617
  0.1657661614064239  0.3345147089068163  0.1557989059286484
  0.0679991743790538  0.4381415326886540  0.2637844832700509
  0.9977857820162939  0.4567156566405615  0.3509703785002358
  0.9228876448544554  0.5849296837921187  0.4009109772978974
  0.8310867638625226  0.6588768460291092  0.5025701604769850
  0.7559811679322905  0.7240643643213076  0.5964578849272257
  0.6687614553670329  0.8286127832819190  0.6768407565060883
  0.5654202578705920  0.9175650030651781  0.7340429817275762
  0.4886610351408009  0.0184387240942883  0.8165632900253144
  0.4997224682605577  0.0008249530335362  0.9997349119008092
  0.3983873403140308  0.0733220416073408  0.0938998502017085
  0.3133231282629296  0.1685671976348644  0.1583158791132746
  0.2184687806517971  0.2242403085943678  0.2300886444984940
  0.1599888432407823  0.3397441272148427  0.3283016878262899
  0.1089650712901431  0.4218571151716475  0.4250600419237429
  0.0102119457957599  0.5036654756960957  0.5053248096622340
  0.9416031225280790  0.5942290791607334  0.6059367930311623
  0.8445387458471743  0.6507191885184298  0.6828892451748132
  0.7678035210014258  0.7374424794336321  0.7428829862759088
  0.6346536411366870  0.8342188562925159  0.7981792299477917
  0.5701506511034680  0.9280338524363216  0.9167086813795251
  0.5819917971839885  0.8908066326530601  0.0816037350696064
  0.5183460656937200  0.0039214948188544  0.1725958076253775
  0.4130814685176389  0.0804410966421472  0.2291416790262630
  0.3141949093300127  0.1611599984179719  0.3007619977060614
  0.2543259788799261  0.2457707191306753  0.4175955332423698
  0.1793536955189055  0.3307600631822467  0.5077865730303728
  0.0846936244265137  0.3779198539590283  0.6122736671412738
  0.0406013778476506  0.4874145497152327  0.6969675160180344
  0.9382920344882137  0.5724509383404524  0.7406504039115660
  0.8513589122567637  0.6353402077400716  0.8500974296986215
  0.7454865443561118  0.7387140667022649  0.8777913838791349
  0.6709589295601930  0.8419439334163883  0.9733859402191101
  0.6836484421966489  0.8372190352594515  0.1841324300941309
  0.5899941578666343  0.9227290485089412  0.2519859723540563
  0.5101355501502951  0.0075369853464622  0.3356943032154689
  0.4065747691227628  0.0914338865488062  0.4204858274996042
  0.3169797535002346  0.1606004088554016  0.5034474593616522
  0.2680042581276680  0.2614959292437931  0.5911316667655413
  0.2089429036149326  0.3320026533578542  0.6960814729670943
  0.1118994418406913  0.3932521050862192  0.7565380294850499
  0.0242864746480009  0.4886422806913444  0.8265375425170092
  0.9492314091915830  0.5736745140207233  0.8994497982914069
  0.8380872537968642  0.6543275391551973  0.9768262137122292
  0.7556873848085743  0.7513345277645911  0.0707987526696741
  0.3419327929718392  0.3526778254034184  0.6901508419356119
  0.2673097195855121  0.4434602391828832  0.7837749011232376
  0.1526308717963900  0.5009986043545354  0.8374196651044130
  0.1069082799398799  0.6273454580960305  0.8917351798568234
  0.9986431898631523  0.6767291078349942  0.9729101368454351
  0.8993858912751165  0.7534381061145368  0.0717729196329699
  0.8217223941029914  0.8240955411525093  0.1763295765108381
  0.7711651291330455  0.8944404153812684  0.2624948940041136
  0.6939054313004291  0.9949946893292179  0.3418823613747790
  0.5758505448109474  0.0827246297065329  0.4126188879330783
  0.5019414006881817  0.1646209252887232  0.5122534241021981
  0.4115076347690234  0.2497177246480007  0.5993432388071511
  0.4082765953765204  0.2534717311343115  0.7612507405869309
  0.3270901454477126  0.3231722546867601  0.8621415297223507
  0.2449058436165146  0.4389939082028178  0.9329704946804327
  0.1635010584757168  0.5165897756486331  0.0133437059998442
  0.0733111078152220  0.5795968433594396  0.0839680509413085
  0.0161748576174645  0.6448878178887867  0.1616359698821412
  0.9181682289194768  0.7296938206968804  0.2677227376997280
  0.8259016097136538  0.8164844343260569  0.3559039318343622
  0.7355762913304886  0.8847023987501998  0.4208564007870592
  0.6517085231767155  0.9915219961240282  0.4916300792991635
  0.5300443190357527  0.0829633612165779  0.5909548548489170
  0.4865199839819638  0.1760360840847994  0.7102058020882751
  0.4878745417062191  0.1446273527725026  0.8177590383246311
  0.4291014173983569  0.2740644142540702  0.9238332166587568
  0.3450435962466400  0.3385300659507990  0.9810184855046700
  0.2634961062331911  0.4113427548054105  0.0705323020487256
  0.1761899501661119  0.4934556730541075  0.1566948885658945
  0.1115922821744988  0.5732548637478274  0.2513703157134941
  0.0120227816998906  0.6625356208471729  0.3344206741417466
  0.9178817799794317  0.7320843062806546  0.4048454912197457
  0.8469861918604664  0.8113212041211852  0.5204835123002667
  0.7225439447872191  0.9223805138625210  0.5905745926277461
  0.6561254029227968  0.9829766991971240  0.6556855209816490
  0.6030644236473677  0.0833043871618386  0.7438295468478060
  0.5945190570123415  0.0712936002017059  0.9168873813478911
  0.4979142773097607  0.1420013135777580  0.9739811002017120
  0.4132839384591023  0.2311640746124013  0.0605693847887991
  0.3340142011746536  0.3276800867149205  0.1658646609515912
  0.2465254325858268  0.4136521747943362  0.2315359308258209
  0.1989045982637236  0.4989219773374458  0.3170875563597519
  0.1146852836774244  0.5821482246677760  0.3904836739637716
  0.9965269226585960  0.6477974252491663  0.4795301539511172
  0.9363281427978194  0.7244415316998882  0.5988292729591862
  0.8446983418367324  0.8375010866555925  0.6486420952974186
  0.7520997612126266  0.9288790050031608  0.7379709727495651
  0.6554660017204554  0.9769587209302344  0.8286108304659052
  0.6702241575700043  0.9778295250949185  0.0109404401004554
  0.5941555193007417  0.0820491847611109  0.0802938266294859
  0.4915460256486313  0.1600906462585030  0.1598571918011373
  0.3988087990428753  0.2496183362007613  0.2520771278278744
  0.3334152418525562  0.3283277611335222  0.3085807561105867
  0.2543213440318013  0.4175357221958578  0.3851518979394086
  0.1639961922559721  0.4811414753401380  0.5083288799240648
  0.0823383711042567  0.5674769137596911  0.5780757939803820
  0.0357937495056149  0.6466196161604145  0.6786516200957138
  0.9046128000909661  0.7691922717924413  0.7544504474173408
  0.8423582586813794  0.8414730704200295  0.8405150455821868
  0.7601471068660004  0.9110455465907279  0.8944130932605603
  0.7608468690673931  0.9178631071033081  0.0868239380635956
  0.6459940110346452  0.9994614143331759  0.1490601843062791
  0.6073036455861427  0.0951902487739247  0.2612999327638050
  0.4879494645823428  0.1592110568936889  0.3120414980817898
  0.4135330782312892  0.2520194381822520  0.4063869977060577
  0.3513020111533010  0.3362716574711300  0.5003307457285260
  0.2668495451669060  0.4238722527092236  0.5843380042714728
  0.1747957665915223  0.4839857113194128  0.6730344278990685
  0.1138268989281741  0.5951736102871408  0.7638172322417347
  0.9981846360346438  0.6810554748062003  0.8337873605837700
  0.9138236147365930  0.7684715136054407  0.9040874293031180
  0.8278661925526052  0.8454453374663800  0.9956176094565734
  0.4071725542833420  0.4016416246440428  0.5788204862759088
  0.3541946908123705  0.4892375365844046  0.6538290860821050
  0.2659386158242398  0.5760231979710468  0.7658657916073395
  0.1959270823445678  0.7079409325067232  0.8423649120985601
  0.1020010199137786  0.7435331395348825  0.9275119116832755
  0.9707293555212786  0.8612362808495462  0.9978204665005563
  0.9109531961912651  0.9083069090136036  0.0839634418011386
  0.8329225725755407  0.0048345712703650  0.1562214142342953
  0.7408873472354074  0.0664170433871192  0.2319638175328294
  0.6578122711002976  0.1544113391868365  0.3163203152191087
  0.5664986266018062  0.2176614884907480  0.3997047920621739
  0.4928559009650400  0.3184843354492983  0.5066721627313697
  0.5023097729789612  0.3359021436481555  0.6873063711240306
  0.4120614899738939  0.4035508987897458  0.7604306414135422
  0.3572871366279102  0.5074088479868664  0.8445175975913628
  0.2593213158519205  0.5773267773097643  0.9315517639614015
  0.1652301094565729  0.6563832972433161  0.0194879044059491
  0.0619403288641038  0.7772787864855246  0.0807497290776809
  0.9749754385184275  0.8431494917734526  0.1866412810473008
  0.9025220707759871  0.8822374228761305  0.2320286658558786
  0.8394516418485978  0.9936753856193619  0.3605686511232378
  0.7539949454200254  0.0831476022385687  0.4133790331830411
  0.6547956266809081  0.1394324300941321  0.5249813078429071
  0.5742540890484094  0.2709370476388244  0.5868623665163710
  0.5878429738174304  0.2310188676633445  0.7538035818106295
  0.5161414812727401  0.3270748136173083  0.8261797159270685
  0.4228355066445175  0.4351952830841626  0.9286237501977510
  0.3669315125177945  0.4923873333926565  0.9937324493751021
  0.2634383162276563  0.5679018287256739  0.0843361621974381
  0.1527597438103143  0.6576810151676966  0.1410606584203435
  0.0805446918011370  0.7385859654326836  0.2156064250118632
  0.0161879924062660  0.8363578354888475  0.3315262720495156
  0.9176159567315310  0.8781347695182760  0.4367335053788963
  0.8272010555094127  0.9610861730738804  0.5020058539985754
  0.7549142135342493  0.0600943887438703  0.5908398532668855
  0.6549349722156279  0.1585698435769629  0.6442129498892584
  0.6772977114973884  0.1599319465867737  0.8382045132297122
  0.5914937411010897  0.2318250212585014  0.9088800639732639
  0.5091719501463388  0.3268542853187810  0.9892826026340771
  0.4147936595277670  0.4059042343972479  0.0997480081276692
  0.3519811708985898  0.4866932417734517  0.1701655879212183
  0.2542493390088580  0.5880948440713496  0.2292659142145226
  0.1810732459262780  0.6691158890009490  0.3241461868177495
  0.0911118577954468  0.7866986933436166  0.4122524640088585
  0.0045153812687886  0.8289327667694977  0.5074057986275875
  0.9309747226506886  0.9028821675763297  0.5912771021199177
  0.8712295517916502  0.9686188409666201  0.6795965042121495
  0.7363389104769809  0.0648701169712069  0.7287507480026889
  0.7403119373912332  0.0613461363906040  0.9067848990468264
  0.6815186244265163  0.1507915979473182  0.9634778876957739
  0.5853306191662710  0.2089038131822463  0.0510105244423329
  0.5176714419197879  0.2995821631268782  0.1313770165915216
  0.4520150193798429  0.3815895042319255  0.2409687470336976
  0.3354223738332536  0.4971186521120075  0.3194189754390138
  0.2451561150332253  0.5830655983032784  0.3982661979908215
  0.1608432071665860  0.6464894809958892  0.4721620629647205
  0.0836950527013158  0.7225311689210585  0.5750439536861265
  0.0319530468873594  0.8187588573801605  0.6707313829892456
  0.9440625449889239  0.9025486893885457  0.7507958555806056
  0.8362533039669344  0.0050795616793238  0.8266037306201568
  0.8314238545127353  0.0048970945064042  0.9894378920463538
  0.7631204032194248  0.0883835567948097  0.0964304204239852
  0.6761249204042059  0.1577878940238904  0.1546877402705249
  0.5878746737066933  0.2520847625969012  0.2592774224806220
  0.5229887735326670  0.3435520299398860  0.3344741911881002
  0.4264678793901311  0.4061263644992863  0.3927452914886871
  0.3194327954437597  0.4775302058614130  0.4842684202460035
  0.2655039451827221  0.5833163992050316  0.5631430049636137
  0.1897516324553052  0.6894939937312117  0.6662342622804971
  0.1184069895981636  0.7417382450363874  0.7574354665994321
  0.0280552676593899  0.8315392313320658  0.8414948737343764
  0.9112872152349283  0.9387924102199037  0.9100814744502443
 
  0.00000000E+00  0.00000000E+00  0.00000000E+00
  0.00000000E+00  0.00000000E+00  0.00000000E+00
  0.00000000E+00  0.00000000E+00  0.00000000E+00
  0.00000000E+00  0.00000000E+00  0.00000000E+00
  0.00000000E+00  0.00000000E+00  0.00000000E+00
  0.00000000E+00  0.00000000E+00  0.00000000E+00
  0.00000000E+00  0.00000000E+00  0.00000000E+00
  0.00000000E+00  0.00000000E+00  0.00000000E+00
  0.00000000E+00  0.00000000E+00  0.00000000E+00
  0.00000000E+00  0.00000000E+00  0.00000000E+00
  0.00000000E+00  0.00000000E+00  0.00000000E+00
  0.00000000E+00  0.00000000E+00  0.00000000E+00
  0.00000000E+00  0.00000000E+00  0.00000000E+00
  0.00000000E+00  0.00000000E+00  0.00000000E+00
  0.00000000E+00  0.00000000E+00  0.00000000E+00
  0.00000000E+00  0.00000000E+00  0.00000000E+00
  0.00000000E+00  0.00000000E+00  0.00000000E+00
  0.00000000E+00  0.00000000E+00  0.00000000E+00
  0.00000000E+00  0.00000000E+00  0.00000000E+00
  0.00000000E+00  0.00000000E+00  0.00000000E+00
  0.00000000E+00  0.00000000E+00  0.00000000E+00
  0.00000000E+00  0.00000000E+00  0.00000000E+00
  0.00000000E+00  0.00000000E+00  0.00000000E+00
  0.00000000E+00  0.00000000E+00  0.00000000E+00
  0.00000000E+00  0.00000000E+00  0.00000000E+00
  0.00000000E+00  0.00000000E+00  0.00000000E+00
  0.00000000E+00  0.00000000E+00  0.00000000E+00
  0.00000000E+00  0.00000000E+00  0.00000000E+00
  0.00000000E+00  0.00000000E+00  0.00000000E+00
  0.00000000E+00  0.00000000E+00  0.00000000E+00
  0.00000000E+00  0.00000000E+00  0.00000000E+00
  0.00000000E+00  0.00000000E+00  0.00000000E+00
  0.00000000E+00  0.00000000E+00  0.00000000E+00
  0.00000000E+00  0.00000000E+00  0.00000000E+00
  0.00000000E+00  0.00000000E+00  0.00000000E+00
  0.00000000E+00  0.00000000E+00  0.00000000E+00
  0.00000000E+00  0.00000000E+00  0.00000000E+00
  0.00000000E+00  0.00000000E+00  0.00000000E+00
  0.00000000E+00  0.00000000E+00  0.00000000E+00
  0.00000000E+00  0.00000000E+00  0.00000000E+00
  0.00000000E+00  0.00000000E+00  0.00000000E+00
  0.00000000E+00  0.00000000E+00  0.00000000E+00
  0.00000000E+00  0.00000000E+00  0.00000000E+00
  0.00000000E+00  0.00000000E+00  0.00000000E+00
  0.00000000E+00  0.00000000E+00  0.00000000E+00
  0.00000000E+00  0.00000000E+00  0.00000000E+00
  0.00000000E+00  0.00000000E+00  0.00000000E+00
  0.00000000E+00  0.00000000E+00  0.00000000E+00
  0.00000000E+00  0.00000000E+00  0.00000000E+00
  0.00000000E+00  0.00000000E+00  0.00000000E+00
  0.00000000E+00  0.00000000E+00  0.00000000E+00
  0.00000000E+00  0.00000000E+00  0.00000000E+00
  0.00000000E+00  0.00000000E+00  0.00000000E+00
  0.00000000E+00  0.00000000E+00  0.00000000E+00
  0.00000000E+00  0.00000000E+00  0.00000000E+00
  0.00000000E+00  0.00000000E+00  0.00000000E+00
  0.00000000E+00  0.00000000E+00  0.00000000E+00
  0.00000000E+00  0.00000000E+00  0.00000000E+00
  0.00000000E+00  0.00000000E+00  0.00000000E+00
  0.00000000E+00  0.00000000E+00  0.00000000E+00
  0.00000000E+00  0.00000000E+00  0.00000000E+00
  0.00000000E+00  0.00000000E+00  0.00000000E+00
  0.00000000E+00  0.00000000E+00  0.00000000E+00
  0.00000000E+00  0.00000000E+00  0.00000000E+00
  0.00000000E+00  0.00000000E+00  0.00000000E+00
  0.00000000E+00  0.00000000E+00  0.00000000E+00
  0.00000000E+00  0.00000000E+00  0.00000000E+00
  0.00000000E+00  0.00000000E+00  0.00000000E+00