Li 
 1.0000000000000000
    20.2271999999999998    0.0000000000000000    0.0000000000000000
     0.0000000000000000   20.2271999999999998    0.0000000000000000
     0.0000000000000000    0.0000000000000000   20.2271999999999998
 Li 
 432
Cartesian
 -0.0085112400000000 -0.2396455000000000  0.0632392600000000
 18.5095710300000000  1.7944874700000000  1.8667821499999999
 16.9891751400000004  3.8257212100000002  4.2072524299999996
 15.6392778900000007  5.1786337299999996  5.1441206700000004
 13.7337842600000002  6.7197945299999997  6.8294026099999998
 11.5354001700000008  8.2697971999999993  8.3169967800000002
  9.7146505699999999  9.7115028100000007 10.1107408000000003
  8.1175953500000002 11.4749875400000008 11.5037956599999998
  6.8960655199999996 13.2869254899999998 13.0512617300000002
  5.4127750099999998 15.3411708600000001 15.7345683100000002
  3.5385156400000000 17.1349907299999984 17.2598730499999995
  2.0082918699999999 18.9761112999999995 18.5142408900000000
  1.4407988599999999 18.5874504300000005  2.0100521499999999
 -0.0367489100000000  0.1037345400000000  3.7591367700000000
 18.7657139000000015  1.5501784400000000  5.4367645099999997
 16.9158769800000002  2.9391209800000002  6.6069192200000000
 15.0368002300000008  4.6700978299999996  7.8751213299999998
 13.3072266799999994  6.8776479799999999  9.5302266499999995
 11.9540243400000001  8.3358718700000001 12.0042765599999992
 10.1098728799999993  9.7039619800000008 13.4076677600000007
  8.7782839300000006 11.7761203000000005 14.9999204000000006
  7.2846789500000000 13.1426379999999998 16.9948800700000007
  5.3010532200000000 14.9109192000000004 19.1679016000000004
  3.3724214500000000 16.9250675500000014 -0.0505866800000000
  3.4748216300000001 16.2517178899999983  3.3932802600000000
  1.8797162599999999 18.8951840500000010  5.1554091000000000
 -0.2209058000000000 -0.4469346400000000  7.2219104099999996
 18.4411955499999998  1.6257953199999999  8.6112134099999995
 17.1218769000000002  3.4777580800000001 10.1805436100000009
 15.0352299600000006  5.2374771000000004 11.2266000300000002
 13.1147142599999995  6.5384901900000001 13.7548305099999997
 11.9548379300000001  8.0437300500000006 15.2585872800000004
 10.3652374799999993 10.0103009699999994 16.8337073599999982
  9.0996003200000004 12.0009940999999998 18.8600380899999998
  6.8651508999999997 13.5178240200000008 20.2357759000000001
  5.5338942299999996 14.9928456499999996  1.5291930899999999
  5.2666981300000000 15.5442009100000007  4.9864045600000004
  3.0666699199999998 16.9592769499999996  6.1431260600000002
  1.5903206700000001 18.0688297099999993  8.7607723899999996
 -0.1099221700000000  0.3288517100000000  9.9736091899999995
 18.2040962300000011  1.3096483500000000 11.6583880700000009
 17.1031958499999988  3.5862794800000000 13.4374222799999998
 15.3617210100000001  4.9191759700000004 15.0825296699999996
 14.1471142699999994  6.4264899000000000 16.9035797700000003
 12.3069261000000001  8.2942267600000008 18.6753140600000016
 10.7928169599999997  9.9926700600000000  0.3705177000000000
  8.2336914799999992 11.6064153500000007  1.1544300900000000
  6.8104350199999999 13.5376074099999997  3.3062851000000002
  6.4763374699999998 13.1401059300000007  6.3975757199999999
  4.8761200499999999 15.1944946699999992  7.7982481699999999
  3.7556468500000002 16.4446476500000003 10.4252851300000007
  2.1581981400000001 17.8827783899999986 11.4413782499999996
  0.2127633100000000  0.2927714400000000 13.7270426699999994
 18.6490261799999999  1.6710646000000000 15.2569328700000000
 16.8098419999999997  3.1993028799999998 17.1718230399999996
 15.3818174499999998  4.7289121900000000 18.1535032899999997
 14.2276808700000004  6.6752589400000000  0.1479448900000000
 12.1861022999999999  7.8284380000000002  1.8675726600000000
 10.3157106100000000 10.0305373600000003  3.4256028999999999
  8.3513140900000007 12.1892762900000005  5.0612459899999998
  8.4434064600000003 11.9183797899999995  8.3226040799999996
  6.6758018100000003 13.8180902900000007  9.6270673500000008
  5.1015243699999999 14.7626874899999994 11.6154871199999992
  3.8476368100000000 16.7488655500000014 13.0959013899999999
  2.6039791100000000 18.5918135699999993 14.9027972500000008
  0.1451620900000000  0.1325944100000000 16.9393525300000007
 18.7605050200000001  1.3012142099999999 18.5085458000000003
 16.8592561299999986  3.0549777300000001 20.3166865799999989
 15.4021180999999991  4.6896600800000003  1.7075894000000000
 13.8693254400000008  6.0815648099999997  2.9233117800000001
 12.1123410699999994  8.1641539400000003  4.4229565600000003
  9.9410576499999994 10.1601574600000006  6.9282850199999997
  1.3707814100000000  1.4400171200000000 18.9239978399999984
 -0.6418944800000000  3.3268121499999999  0.1497232400000000
 18.4069020099999996  5.0100519900000000  1.9848896899999999
 16.8079574100000002  7.3376228699999997  3.3766787900000002
 14.8870710899999992  8.7894021099999993  5.3302835399999999
 13.0414629200000007 10.0014529900000007  6.6657600800000001
 11.3488505600000007 12.1984469200000003  9.0440770900000000
  9.5474032500000003 13.6756326999999995  9.6777331899999997
  8.2563707700000002 15.4095815399999996 11.7997201999999994
  6.8592925999999999 16.7704683400000008 12.8718436500000006
  5.0408390699999996 18.2364681699999984 15.4761933400000000
  3.7937380500000000  0.2346418400000000 17.0348615099999989
  3.4145009399999999  0.1128462000000000  0.2172619800000000
  1.5403252700000001  1.9204576400000000  2.1757025799999998
 -0.0736214800000000  3.5237980000000002  3.4798269799999999
 18.8094608600000015  5.5137191799999998  5.1828096300000004
 16.5966220500000006  6.8867186900000004  7.1628238000000000
 15.5216147099999997  8.9704426599999998  8.4419281799999997
 13.3819267100000001 10.7904951199999992 10.2309267199999994
 11.5668994000000005 12.1064752799999997 12.0094954499999993
  9.6934449699999998 13.7089742799999996 13.0024853100000009
  8.0322115400000005 14.5354827199999992 15.0571206100000001
  6.8723865999999996 16.9436330200000000 17.1250308800000006
  5.0980565499999999 18.3409541999999988 18.9017170199999995
  4.2218530000000003 18.5687822500000017  1.4723124999999999
  3.3370341699999999  0.2949135500000000  3.0504820000000001
  1.4633905199999999  1.7332683000000000  5.6590105800000003
 -0.2842060700000000  3.4891650099999998  6.9451486999999998
 18.2759112500000001  5.0723156100000004  8.6924335199999998
 16.7634171999999992  6.8085359299999997  9.8784271599999993
 14.9093080400000009  8.2405127399999998 11.2873356099999995
 13.8554518600000005 10.3075107700000004 13.5252251500000007
 11.4255641699999995 11.7956050300000008 15.0180037899999999
  9.7643298900000008 14.0528929500000004 16.7632596800000009
  8.5417858100000004 15.0375422800000003 18.2470451900000015
  6.6651540799999998 17.2022559400000006 20.5004657799999990
  6.6541359099999999 17.2205311799999983  2.7981865799999999
  4.7009220899999997 18.3092076900000009  4.9168083700000000
  3.6742704100000001 -0.2967936100000000  6.9193598999999999
  1.8411609700000000  1.7087039600000000  8.9085020000000004
 -0.0368794600000000  3.6165319100000000 10.1569044200000000
 18.6720341900000015  5.5181843600000002 12.0255234899999994
 16.6919259800000006  7.0875987599999997 13.0825809999999993
 15.5087696499999996  8.6671714800000004 15.2114597800000002
 13.3147544500000006 10.2777758800000001 16.3451659300000003
 11.5238642299999992 11.7157483599999992 18.4419510100000004
 10.1185654100000004 13.6284442099999996 20.6852318000000004
  8.4038402100000003 15.3811329899999993  1.6563323299999999
  7.4079483499999998 15.3694468700000009  5.3761896299999998
  6.7175059600000004 17.2543645199999993  6.8097634400000002
  4.7358457100000004 18.9340872900000008  8.6165335699999996
  3.6925713099999999  0.1967293700000000 10.1322514300000002
  1.6573662300000001  1.8463380199999999 11.8688256699999997
 -0.4587410200000000  3.2936866700000000 13.4714475000000000
 17.8674145099999997  5.3462361500000002 15.1028306899999993
 16.8672734700000007  7.3582157900000000 16.8603378100000008
 15.5961909999999992  8.8044606900000009 18.1216741299999988
 13.3110607000000005 10.0967738699999998 20.1164996599999988
 11.9642363700000001 12.5062337600000006  2.2369928099999998
  9.3909048399999993 13.6858704899999992  3.6618072300000000
 10.0078660799999994 13.8821262399999998  6.4854843000000004
  8.3317331800000005 15.9056947399999995  8.3874387699999993
  6.7669196999999999 17.4420458200000006  9.8944181400000009
  4.9788465400000002 18.9218926100000004 11.8581793999999991
  3.7719423299999999  0.5781193500000000 13.8516963099999995
  1.4675337399999999  1.8906220899999999 15.4261157600000001
 -0.2582878000000000  3.5231225199999998 16.7740292099999984
 18.0340856100000018  5.2844124900000002 18.6244931899999990
 16.6950078200000007  6.8167631999999996 20.5181098900000016
 15.1379166099999996  9.5229527199999993  1.3420392500000000
 13.6571657099999992 10.5652799799999997  3.0330355899999999
 11.2754882300000006 11.8885323700000001  5.1673452299999996
  3.0841604899999999  3.2926895400000000 17.2523231499999987
  1.4675696600000001  4.8432475100000003 18.9413009400000014
 -0.0528890900000000  6.5642131099999999  0.2264003300000000
 18.6954365899999999  9.2503751399999992  1.3297518100000001
 16.5072870300000005 11.0630617099999995  3.0538866800000002
 14.9418597000000002 12.4051261999999998  4.9983796900000002
 12.5979813600000004 13.4531060700000005  6.8779815500000003
 11.4303171300000006 15.5995344399999993  8.6579374199999997
  9.5367942600000006 17.5388203999999988 10.0875421900000006
  7.8154364599999999 19.2720207099999996 12.3066384600000003
  6.6671900500000003 20.2167149700000017 14.0396712499999996
  5.1197803500000001  1.8624220100000000 15.4209066099999994
  4.9526381400000004  1.6644240699999999 18.7050122999999999
  3.0872339700000002  3.3671972499999998 -0.1820951900000000
  1.5372059600000001  4.8683484400000001  1.8559783299999999
  0.1340793300000000  7.1230328500000004  3.1852345999999998
 18.2242726499999996  8.0600558299999996  5.1886217500000003
 16.8300276699999998 10.6048295400000008  6.5094947599999999
 14.8711065399999995 11.8715267400000002  8.1795751299999999
 13.3891918000000008 13.9239591100000002 10.1734197799999997
 11.3890350100000006 15.7033545399999994 11.9744716300000000
  9.5358883100000007 16.8747024000000003 13.7258189999999995
  8.1152171099999997 18.8728924800000009 15.4982118100000008
  6.7344356000000003 20.3452067800000016 16.8669818700000000
  6.7908766199999997 -0.0035536000000000  0.1774133100000000
  5.0493660599999997  1.7583489400000001  1.3395336200000001
  2.7755163999999999  2.9099187099999999  3.1328239800000000
  1.2530696699999999  5.2520443700000001  5.4465368300000003
 -0.1232714600000000  7.0760836200000004  7.1004474799999997
 18.6338404400000002  8.4508146300000000  9.0602810799999993
 17.0411859200000002 10.2453533300000004 10.3164695500000008
 14.9120860799999999 11.8145567200000006 11.6370424499999991
 13.3076377200000007 13.7380606200000006 13.4343791499999998
 11.3133539299999999 14.9392194899999993 14.4913516300000005
  9.7903657099999997 16.4757369400000009 16.9789926300000005
  8.6135460899999998 18.7323958799999986 18.7879523299999995
  8.5655988300000008 18.4992061700000008  1.5526536600000000
  6.4526288799999998 -0.6609774600000000  2.9635674800000000
  4.5619704399999996  1.5463350100000000  5.1710113000000000
  3.4247829400000001  3.3797758400000002  6.9664245899999999
  1.9734841100000000  5.0316086699999998  8.2594712500000007
  0.3280508700000000  6.6231049999999998  9.8983395900000009
 18.7551160199999991  8.5417380699999992 12.1780152600000005
 17.2151643300000003 10.4859818100000002 13.1492353000000008
 15.0964249299999995 11.9734066400000003 15.1290130200000004
 12.7726254000000008 13.3448437200000001 16.2200415299999996
 11.3382466300000004 14.9387988000000007 18.3742163800000000
  9.5550894700000004 16.2654933799999988 19.9237252699999985
  9.4584679099999995 17.2513879999999986  3.7328155600000001
  8.3902469100000001 18.8595183700000000  4.7886318499999998
  6.5375898799999996  0.0139476500000000  6.6269968600000002
  4.9920843599999998  1.9811436000000000  8.1534743200000008
  3.5974340800000002  3.4393768100000002  9.9266572400000008
  2.1754831100000001  5.3536233199999996 11.5761249100000008
  0.3071174200000000  6.6551462600000004 13.4848814499999996
 18.8329067899999991  8.2721126900000002 15.0545910400000000
 17.0437472099999994 10.7494301300000004 16.4341712800000010
 14.8942331400000008 11.9803813699999999 18.1828505000000007
 13.1272518399999996 13.8692001400000002 20.4307133400000005
 11.1962339199999992 15.8650865200000002  1.5861106100000000
 11.0894458599999997 15.6095108800000002  4.7639552900000002
  9.8109565399999994 17.1040678399999990  6.6019099299999997
  8.6238791999999993 18.8876562999999997  8.3074408700000006
  6.9056312000000002  0.3657477900000000 10.0575483200000004
  4.8872853000000003  1.9442294800000000 11.4826047199999994
  3.5840309299999999  3.3276944099999999 13.5314378899999994
  1.9672369400000000  4.9659903900000000 14.8572428399999996
 -0.0916549300000000  6.9411887400000003 17.2349029800000011
 18.1387069399999987  8.8632500499999995 18.7411561700000000
 16.4203353999999990 11.1190256499999993 20.0432208500000009
 15.2139579400000002 12.3514356400000000  2.0168216299999999
 13.3856675000000003 14.2562308000000009  3.2478206400000000
  4.7736108799999997  5.0525814000000002 15.4067160699999999
  3.8369085400000000  6.3863459300000001 17.4217708000000009
  1.5868005900000000  8.6582352500000006 18.9173093700000017
  0.3074963700000000 10.7155833200000004 -0.1671370900000000
 18.3665848700000005 11.7626019900000003  1.9890548400000001
 16.7477930499999985 13.5289507800000006  2.7576757999999999
 15.0189637499999993 15.1347009000000003  5.4517806300000000
 13.3293594800000008 16.7503340399999985  6.7667027400000004
 11.6801030400000005 18.0165524999999995  8.5901963200000004
  9.8933144199999994 -0.1059460800000000 10.0326849399999993
  8.1083036100000001  2.1951226500000001 12.0201320700000007
  6.6754272800000001  3.1727838300000002 13.7588308900000005
  6.1754594400000000  3.5958762599999998 17.3503681299999997
  5.1712121099999999  4.6201800100000003 19.0432150699999987
  3.1768280999999998  7.0102275900000004  0.0941302900000000
  1.5640677000000001  8.1941588400000001  1.3161951800000000
  0.0897049100000000 10.3604579300000008  3.6934531700000002
 18.4471182899999988 11.8396151100000004  5.0204173299999999
 16.5826537800000011 13.5623408399999992  7.7342424899999997
 14.4882082400000005 15.2505404200000001  8.7804864800000004
 13.4902729000000008 16.8125317000000010 11.2412098300000007
 11.2758359000000006 18.4327693400000001 12.0884657499999992
  9.8441216499999999 20.0067429300000015 13.9775604300000005
  8.0969526700000003  1.8003908600000000 15.2911766300000007
  8.1189428199999991  1.0702959299999999 18.3238704599999984
  6.9641654199999996  3.2715586600000002 -0.0158864000000000
  5.0377257000000002  5.0563214600000004  1.3226502600000001
  3.3529852999999998  6.7662959200000001  3.1513756300000000
  1.3754329000000001  8.8623764099999995  5.3356215000000002
 -0.0447874300000000  9.2380789300000004  7.0991480400000002
 18.6674329700000001 11.8314897000000006  8.1093065200000005
 16.8105581899999983 13.3272337400000005 10.1655871500000003
 15.2913822800000005 14.6457947100000005 12.0646729300000004
 13.5271717099999993 16.7605164900000005 13.6905933500000003
 11.4368686400000001 18.5597708300000015 14.8476341999999999
  9.8842444900000004  0.3729637600000000 16.5167889800000012
 10.1079863099999994  0.0166864900000000 -0.0053619900000000
  8.0582604100000008  1.4830996000000001  1.8993310500000000
  6.3376495799999999  3.4096424200000000  3.2022869500000000
  4.4190117200000003  4.5357535699999998  4.6540490300000004
  3.2361263299999998  6.8720724100000004  6.6406238999999996
  2.2040582899999999  8.5329882399999999  8.5977744800000000
  0.2065590700000000 10.1877423100000009 10.2213059899999994
 19.0459946799999997 12.0195904299999992 12.2564046999999992
 17.0826541200000008 13.1622271699999995 13.8129373399999995
 15.5305153800000006 14.9163965199999993 15.0264427400000002
 12.8372661299999997 16.8739116500000002 16.1449309200000002
 11.5325512499999991 18.7715263400000012 18.5424498399999997
 11.7720644799999992 18.0185239199999998  1.6506150700000000
 10.4846895399999998  0.0793208600000000  3.4911299200000001
  8.3554814799999999  1.6270981499999999  4.6348945700000002
  6.3552832700000002  3.2598155200000001  6.0835730799999999
  5.1443024399999997  4.9712534899999996  8.4467883700000002
  3.6278230699999998  6.6903499499999999 10.2711005699999998
  1.7131148800000000  7.6442604699999999 12.3845819200000005
  0.8212521900000000  9.8590315799999999 14.0977013400000004
 18.9790206400000017 11.5790796199999999 14.9812838500000005
 17.2206069900000003 12.8511534500000000 17.1950907300000004
 15.0791054300000003 14.9421171699999995 17.7552618799999991
 13.5716204600000001 17.0301683299999986 -0.5383279100000000
 13.8282937700000002 16.9345968700000000  3.7244834899999999
 11.9339298300000003 18.6642250099999991  5.0969706600000002
 10.3186137999999996  0.1524521100000000  6.7901558099999999
  8.2238691700000004  1.8494515100000000  8.5052509300000008
  6.4116128699999999  3.2484965899999998 10.1833324500000000
  5.4209757300000003  5.2893304600000004 11.9569384500000009
  4.2263298999999996  6.7154840699999996 14.0797791700000001
  2.2634123900000001  7.9543889800000001 15.3026460300000000
  0.4912473800000000  9.8838651399999993 16.7185401800000015
 19.2002935599999986 11.6038291299999994 18.1933509600000001
 16.9521584999999995 13.2352139999999991 -0.4687408100000000
 15.2854398699999994 15.1973937600000006  1.4320605300000000
  6.9163429900000004  7.1336849100000004 13.9598191099999998
  5.4069271600000004  8.9699589500000005 15.8535716799999999
  3.0872951700000000 10.1337989700000008 16.9386550500000013
  2.1624551599999999 12.6894420500000003 18.0373058300000011
 -0.0274444700000000 13.6883350099999994 -0.5479520800000000
 18.1920582999999993 15.2399432600000004  1.4517652000000001
 16.6211432099999996 16.6691453299999992  3.5666536099999999
 15.5985113000000002 18.0920251699999994  5.3095367199999997
 14.0357639400000007 -0.1012434200000000  6.9153228999999996
 11.6478441400000001  1.6732876299999999  8.3461247699999994
 10.1528691000000002  3.3298203800000001 10.3614524600000006
  8.3236472300000006  5.0510903599999999 12.1230355599999999
  8.2582923499999996  5.1270233999999997 15.3979709800000002
  6.6161177899999997  6.5368698299999997 17.4387091500000011
  4.9537594800000004  8.8796175799999997 18.8713807899999999
  3.3071686100000002 10.4491647099999998  0.2699058100000000
  1.4828784399999999 11.7236212700000006  1.6984385600000000
  0.3271720800000000 13.0442748700000006  3.2694430900000002
 18.5719723999999999 14.7596628499999998  5.4152813599999998
 16.7056770400000012 16.5151939500000005  7.1989400100000003
 14.8786487600000008 17.8950523600000011  8.5127465900000008
 13.1822386399999996 -0.1714862800000000  9.9442999400000005
 10.7213124499999992  1.6781165000000000 11.9533620400000000
  9.8409370200000001  3.5607170799999999 14.3654747999999994
  9.8683359300000006  2.9254063900000000 16.5409756200000011
  8.6795201899999999  5.5435557199999996 18.6865592400000011
  6.9792658300000001  6.8475153500000001 -0.3839428900000000
  5.3297884399999997  8.3203121699999993  1.4266709799999999
  3.5638293600000002  9.9812265900000003  3.1694988500000001
  2.2571994100000001 11.5953407800000008  5.0845176500000004
  0.2431872100000000 13.4012405099999992  6.7643938600000002
 18.5661783400000004 14.8080156800000005  8.1888907199999998
 17.1321590999999991 16.4107562599999994 10.5279240999999999
 14.6150408800000005 18.6571751299999988 11.9456703999999991
 13.2715797500000008 -0.3443337100000000 13.2626821699999997
 12.1983047100000004  1.6850145000000001 15.0455890100000005
 12.0254558700000000  1.4420699100000001 18.5460644399999985
 10.0714116699999998  2.8722889700000001 -0.5262894900000000
  8.3595768800000005  4.6758019700000002  1.2251490599999999
  6.7561720500000000  6.6280506499999996  3.3549776699999998
  4.9865192299999999  8.3670252699999992  4.6833235799999997
  4.0232830899999996 10.0917946199999999  6.4137934200000002
  2.3197621700000002 11.7752285699999995  7.8983913699999997
 -0.0702506300000000 13.1031280799999994  9.6995523299999995
 18.9392966099999995 14.6534237500000000 12.1126394699999995
 17.0858823000000015 16.9403019800000010 13.1202133900000000
 15.2128722900000000 18.7886214100000011 14.9270864599999999
 13.2582419100000006 -0.4660605600000000 16.7604769900000008
 13.5567580799999998 -0.4484466300000000  0.2212944700000000
 12.0181025199999993  1.6596252700000000  1.6241192900000001
  9.9425997699999993  3.2381855200000000  3.2334633899999998
  8.0667853399999991  5.0490800100000000  5.0988144799999997
  6.7440567800000002  6.6411512899999998  6.2417246700000000
  5.1442086900000001  8.4455785599999995  7.7905444700000004
  3.3171837800000001  9.7321448499999992 10.2820699199999996
  1.6654747000000001 11.4784690299999994 11.6928546999999998
  0.7240073299999999 13.0793043000000004 13.7272220500000000
 18.2977840299999990 15.5586059199999998 15.2604200900000002
 17.0385489700000008 17.0206440900000011 17.0012659299999989
 15.3756475600000009 18.4279004800000017 18.0914725199999999
 15.3898017899999999 18.5658006399999991  1.7562051599999999
 13.0666500600000006 -0.0108940800000000  3.0150701600000001
 12.2840523000000008  1.9254321999999999  5.2853659999999998
  9.8698514100000008  3.2203938900000000  6.3117257899999997
  8.3646162799999999  5.0976475800000003  8.2200710800000003
  7.1058560399999999  6.8018340700000000 10.1202900600000003
  5.3976191199999999  8.5737488299999995 11.8195216799999994
  3.5356289300000001  9.7896757799999996 13.6136019800000003
  2.3023994499999998 12.0386956499999993 15.4498839199999995
 -0.0367197300000000 13.7758453000000003 16.8651836999999993
 18.4840930199999995 15.5440269999999998 18.2871572499999999
 16.7454150499999983 17.1009919299999993 -0.0886434900000000
  8.2359606900000006  8.1240854700000007 11.7079177399999992
  7.1643668500000004  9.8959054999999996 13.2251316899999996
  5.3791935700000000 11.6513364300000006 15.4913205400000002
  3.9630562800000000 14.3196628300000004 17.0386835499999982
  2.0631950300000002 15.0395935200000004 18.7609689400000015
 -0.5920631800000000 17.4203985000000010 -0.0440858600000000
 18.4260324900000008 18.3725055099999999  1.6983453300000000
 16.8476914600000001 20.3249898400000006  3.1599217899999998
 14.9860765499999999  1.3434308200000000  4.6919785300000001
 13.3057003700000003  3.1233090400000001  6.3982742799999999
 11.4586810200000002  4.4026824600000003  8.0849087700000002
  9.9690948800000001  6.4420463500000000 10.2485591700000001
 10.1603202400000008  6.7943598400000003 13.9022834300000007
  8.3348501699999993  8.1627047400000006 15.3813826700000007
  7.2269183699999999 10.2634602499999996 17.0822263499999991
  5.2453441200000004 11.6777041900000000 18.8426838399999994
  3.3421424700000002 13.2767962300000004  0.3941857400000000
  1.2528794200000000 15.7221734699999995  1.6333409200000000
 -0.5061768100000000 17.0545533999999996  3.7752305200000000
 18.2554944299999988 17.8451927999999995  4.6932902299999997
 16.9797562500000012 20.0992707599999996  7.2932942199999999
 15.2512065600000000  1.6818431800000000  8.3615003800000007
 13.2446821000000003  2.8203276499999999 10.6189019099999999
 11.6155523100000000  5.4802978500000004 11.8705824599999996
 11.8904174000000005  4.6728648399999999 15.2473358099999992
 10.4400969700000008  6.6158076699999997 16.7113023500000004
  8.5527783599999996  8.8027820299999995 18.7834583200000012
  7.4219970899999996  9.9596170700000002 -0.1267750000000000
  5.3286195100000002 11.4870638700000001  1.7058844200000001
  3.0899018900000002 13.3030454299999992  2.8532621499999999
  1.6291935900000001 14.9395260400000005  4.3611142799999998
  0.3274377600000000 16.9171772099999984  6.7058482100000001
 18.5608014799999985 17.7622076100000008  8.8338959599999995
 16.7319611899999998 -0.7871177600000000 10.1541728100000004
 15.2698007800000006  1.2155412200000000 11.9510358799999992
 13.2475006700000009  3.2074239400000000 13.0306241800000002
 13.6998362700000005  3.2349754700000002 16.9545303300000008
 11.9642622000000003  4.6891710700000004 18.3840988299999992
 10.2991228699999997  6.6113470000000003 -0.2167829400000000
  8.3901143099999995  8.2103061299999993  2.0176229100000000
  7.1195935400000003  9.8444415400000000  3.4419733799999999
  5.1427522300000001 11.8955120300000008  4.6374075000000001
  3.6626047599999998 13.5343409099999992  6.5565697500000004
  1.8429377700000000 15.9127118099999993  8.3387130400000000
  0.0913335200000000 16.7669888600000014 10.2633985699999997
 18.8310119100000009 18.2627781800000015 11.9598802000000006
 17.6225343899999984 19.5924470200000016 13.7463344099999993
 14.8940744100000000  1.3121408299999999 14.7405871299999998
 14.9744376199999998  1.2408605699999999 18.3417195100000008
 13.7852135199999992  3.0500918100000001 -0.7387400700000000
 11.8395995000000003  4.2255392100000000  1.0318000800000000
 10.4710437899999995  6.0597083300000003  2.6573891900000000
  9.1429981999999992  7.7184872200000001  4.8741230399999997
  6.7846554399999999 10.0553184000000009  6.4609515000000002
  4.9588217700000001 11.7937844700000003  8.0558100400000008
  3.2534077199999998 13.0766720299999992  9.5505164800000006
  1.6929165700000000 14.6147824600000007 11.6315290600000001
  0.6463206700000000 16.5611991600000010 13.5670178299999993
 19.0957419100000010 18.2560328500000004 15.1864979299999998
 16.9150628300000001 20.3299453099999994 16.7198789800000007
 16.8173765899999985  0.0990545100000000 -0.2136418700000000
 15.4357890199999996  1.7877518800000001  1.9505174000000001
 13.6761139899999993  3.1916072899999999  3.1288998600000002
 11.8910585999999991  5.0989689100000000  5.2444562799999996
 10.5785985199999999  6.9490956199999996  6.7654763600000001
  8.6262510900000002  8.2147991999999999  7.9441375599999997
  6.4612310400000004  9.6590989799999996  9.7953941899999997
  5.3704014000000004 11.7988574699999997 11.3908061899999993
  3.8381442200000002 13.9465329100000002 13.4760536700000007
  2.3950418600000001 15.0032878299999997 15.3207986700000003
  0.5674795100000000 16.8197103400000003 17.0210851100000014
 18.4327887600000011 18.9891418399999985 18.4084000000000003
