Li                                      
   1.00000000000000     
    20.0207999999999977    0.0000000000000000    0.0000000000000000
     0.0000000000000000   20.0207999999999977    0.0000000000000000
     0.0000000000000000    0.0000000000000000   20.0207999999999977
   Li
   432
Direct
  0.0000604136697859  0.9967157676016924  0.0050357658035622
  0.9191911197354727  0.0702677040877475  0.0808371548589477
  0.8561308589067380  0.1341079337489006  0.1600926051905986
  0.7741075901062899  0.2453286676856052  0.2454669548669415
  0.6912644225006019  0.3575660528050832  0.3256236154399446
  0.5953500939023399  0.4103402596299830  0.4405448243826413
  0.5096037585910622  0.4953321980140686  0.5042275608367319
  0.4312571845280928  0.5783394519699527  0.5601910108487189
  0.3388245419763436  0.6498722408694988  0.6443119375849093
  0.2785273970071103  0.7646737712778702  0.7310196345800364
  0.1835073943099204  0.8127555727043898  0.8311463363102405
  0.0868874375649327  0.9108986049508516  0.9034423964077334
  0.0848349181850878  0.9236803439423014  0.0896154928873969
  0.9898562789698744  0.0106561311236320  0.1862173639415019
  0.9165025343642625  0.0797841969351865  0.2555964511907618
  0.8529492632662041  0.1650318428834012  0.3547407306401311
  0.7547114880524290  0.2697435117477838  0.3989157016702620
  0.6757331260489110  0.3386785857708006  0.5013572764325076
  0.6032881608127525  0.4218924083952658  0.5929928434428220
  0.5011604456365362  0.4896756553184716  0.6643179773036039
  0.4025820241948352  0.5795234456165588  0.7515531432310425
  0.3434764634779839  0.6764996044114113  0.8471792325981014
  0.2575411237313219  0.7590977583313361  0.9236994151082882
  0.1581036312235256  0.8600748007072667  0.0097126013945470
  0.1623115449932087  0.8335898071006156  0.1656335231359378
  0.0928307570127060  0.9118599636378164  0.2370877512387111
  0.0182189762646843  0.0104853527331557  0.3441663839606832
  0.9194081665068339  0.0542454312515019  0.4394159079557269
  0.8429338972468656  0.1534556456285472  0.5082603896947191
  0.7515207339367080  0.2506496468672594  0.5673779184647998
  0.6687630759010617  0.3366753056820926  0.6762191221130038
  0.6004276986933590  0.4305203897946157  0.7375181301446503
  0.4905710830736041  0.4938099791217141  0.8506867652641219
  0.4389280133661018  0.5780740025373632  0.9381706974746251
  0.3393533759889706  0.6731863791656707  0.9975796526612299
  0.2642806516223146  0.7616312929553288  0.0958030927835054
  0.2562008675976983  0.7534799573443607  0.2510915777591336
  0.1816686965555832  0.8440975410573017  0.3329756083672990
  0.0929232658035630  0.9388670662510989  0.4091702494405851
  0.0122897941141247  0.9899601204747057  0.5276015898465616
  0.9174698438623849  0.0703217478822040  0.5827041137217321
  0.8325928409454164  0.1726250889075374  0.6688158370294914
  0.7425675037960531  0.2496161796731400  0.7623794543674549
  0.6544648155917869  0.3218773080995732  0.8318357598097990
  0.5889013351114869  0.4109334212419071  0.9319917590705700
  0.4928655917845433  0.4823874530488297  0.0261579337488982
  0.3920017401902030  0.5757184383241452  0.0945236588947509
  0.3108289498921124  0.6519003826020935  0.1695196930192608
  0.3262273490569783  0.6539645943219057  0.3274734071565604
  0.2520627212698798  0.7600343377887029  0.4098698448613476
  0.1744015943418873  0.8225795887277201  0.4825153115759591
  0.0936085850715287  0.9132257112602886  0.5854140638735714
  0.9891685527051877  0.9682124605410394  0.6560357747942120
  0.9369161941580728  0.0833175722248853  0.7387229591225122
  0.8328775103891957  0.1463117972308794  0.8534294813394041
  0.7502030743027248  0.2411849711300249  0.9153977093822405
  0.6931536846679478  0.3240211854671173  0.0111324787221321
  0.6074423209861735  0.4011938389075382  0.0800554807999703
  0.5086274839167260  0.4910805017781499  0.1776099691320994
  0.4014240399984033  0.5643754090745645  0.2623592134180441
  0.4215655248541523  0.5516510199392641  0.4095903025853147
  0.3311058853792090  0.6501798299768211  0.4767249950051919
  0.2589751503436446  0.7301053494365846  0.5775912266243139
  0.1670876228722165  0.8107579387437056  0.6650464956445319
  0.0922770693478796  0.8945081660073555  0.7415703573283778
  0.0037210551026945  0.9833617842443871  0.8249871153999848
  0.9289945821345782  0.0742879350475505  0.8964028475385604
  0.8361404808998643  0.1475278045832340  0.0010738531926791
  0.7728758416247103  0.2568183559098571  0.0978293509749832
  0.6808445211979546  0.3183572574522486  0.1683287725765226
  0.5906191935387213  0.4130376313633803  0.2520823153919949
  0.5196656881842898  0.4772785303284550  0.3370853722128970
  0.0924681800927019  0.0636945206984763  0.8974642766522791
  0.0001620204986779  0.1493933419244016  0.9793819922280846
  0.9112998076999901  0.2383294388835608  0.0491925167825471
  0.8643813603852024  0.3296569762447064  0.1750073263805660
  0.7673924418604656  0.4180895728442451  0.2442483407256475
  0.6669790183209443  0.4855871453688181  0.3381044059178464
  0.5932456290457893  0.5912868127147775  0.4282584142491785
  0.4966304033804860  0.6685352068848402  0.4849409479141684
  0.4074020553624251  0.7339806166586769  0.5651093003276628
  0.3533519145089130  0.8277830341444883  0.6443217903380472
  0.2717590425956971  0.8969403999840182  0.7360685262327209
  0.1969392846439675  0.9969797061056482  0.8050651557380348
  0.1567133401262666  0.0091891947374734  0.9678126378566319
  0.0698880749021029  0.0825207828858012  0.0818514110325239
  0.9960568903340530  0.1595316830496287  0.1662070007192540
  0.9234723522536541  0.2491624880124661  0.2628773145928207
  0.8417737448054012  0.3318132692000333  0.3343559053584286
  0.7579902436466099  0.4043975510469124  0.4142666262087431
  0.6908194153080771  0.4923927515384037  0.4985740120274897
  0.5586228906936768  0.5937135643930347  0.5809969022216919
  0.4984269125109861  0.6840765548829211  0.6462294593622602
  0.4169789374050978  0.7452746193958291  0.7451411946575561
  0.3574638890553814  0.8397134370254946  0.8394255744026182
  0.2455142057260460  0.9294482323383662  0.9002674253776064
  0.2488040228162731  0.9258293120155017  0.0707366433908732
  0.1808938513945506  0.0154310442140186  0.1501418664588812
  0.0946841340006372  0.0770325066930369  0.2664112043474773
  0.0005524214816575  0.1520069347878206  0.3476046941181181
  0.9259181186565968  0.2560521402741145  0.4437221809318288
  0.8162884190441915  0.3333229960840711  0.5186982118596646
  0.7637739111324251  0.4396790148245842  0.6144312594901322
  0.6682689972428690  0.5418313528929914  0.6642819063174272
  0.5434954092743567  0.5924538684767811  0.7547458712938564
  0.4783932275433571  0.6714782441261065  0.8432096040118253
  0.4228937634859733  0.7634215900463488  0.9283384505114682
  0.3389762526971936  0.8519019040198188  0.0058524924078966
  0.3475324362662846  0.8327216699632416  0.1564037965515865
  0.2427655753016893  0.9226782990689699  0.2211131268480813
  0.1778648105969793  0.9970857273435598  0.3363699747262814
  0.1035624800207771  0.0845559163470000  0.4473215351034909
  0.0141848567489831  0.1432526267681595  0.5276227583313329
  0.9196681016742616  0.2608097463637833  0.5752044603612276
  0.8274679513306182  0.3206395378806022  0.6652069527691182
  0.7592709017621644  0.4202400338647792  0.7483330041756560
  0.6666628641213137  0.4999277521377792  0.8220143186086446
  0.5829163534923651  0.5876010244345906  0.9400262282226493
  0.4818273400663315  0.6841915512866592  0.0117683978662200
  0.4093822294813378  0.7514315327059862  0.0899630199592423
  0.3701041177175739  0.7410268920322878  0.2540995734436180
  0.3048723717333957  0.8372178614241221  0.3413487772716408
  0.2387877552345543  0.9339214576840078  0.4210748002077835
  0.1882307889794603  0.0039718522736365  0.4972655003796049
  0.0883656592144177  0.0723439927475411  0.6129991413929545
  0.9860965865499907  0.1645196855270541  0.6512303888955486
  0.9057751768161140  0.2364064008431228  0.7686505349436601
  0.8331506548189864  0.3559219726484457  0.8522353127747166
  0.7326550437544981  0.4171649909094555  0.9044060432150545
  0.6917371453688190  0.5025199062974508  0.9940790303084768
  0.5737029978822008  0.5949085276312616  0.0874129929872964
  0.4874242537760765  0.6581924773235812  0.1900426866059277
  0.4796822259849733  0.6358926396547560  0.3260594266962329
  0.3957231439303115  0.7513942040278110  0.4174993461799730
  0.3352287905578208  0.8362396732398309  0.5057168160113505
  0.2366156981738996  0.9072022636458072  0.5701571550587374
  0.1668935147446646  0.9960787580915849  0.6693837234276359
  0.0750596744385845  0.0693188678774064  0.7325053089786593
  0.0175188573883176  0.1536864590825573  0.8260497392711557
  0.9099744895308888  0.2391277136777745  0.9219334771837282
  0.8231185557020666  0.3497249155877853  0.9942938573883140
  0.7602694512706805  0.3997224022017107  0.0971606164588863
  0.6774183604051771  0.5142418494765479  0.1753685402181731
  0.5737692814472979  0.5793790447934128  0.2628376193758513
  0.1705120664508897  0.1534499330696093  0.8352806036721816
  0.0606354181651056  0.2436888475984986  0.9134501793135144
  0.9845773550507460  0.3334605275513454  0.9909544039199218
  0.8959671881243523  0.4449602927954928  0.0719720925237723
  0.8520417780508254  0.5161125489490956  0.1526751623311782
  0.7671510424158896  0.5824110879685094  0.2622443628626243
  0.6715475620354852  0.6885716050307664  0.3097957788899564
  0.5857493771477635  0.7379863866578731  0.4236495219971204
  0.4819167680612182  0.8235603532326365  0.4993633496164023
  0.4419782311396148  0.9264587029489348  0.5770329402421481
  0.3232420437744778  0.9819445891273091  0.6309299528490371
  0.2695655837928541  0.0899253481379390  0.7498702419483720
  0.2498180022776282  0.0784723622432679  0.8950860440142279
  0.1626813983457183  0.1475322519579620  0.9807672970111057
  0.0764398205865930  0.2232461160393200  0.0720411302245694
  0.9868652696195923  0.3398380983776903  0.1504836460081549
  0.9229454267561721  0.4401377787101382  0.2537141662670805
  0.8336437240270129  0.4815243192080203  0.3471939368057235
  0.7781593527731161  0.5684841869455752  0.4081077284623973
  0.6785960995564579  0.6599712683808860  0.5103663504954881
  0.5962047640453960  0.7532411162391099  0.5727779799009056
  0.5029775063933499  0.8092672950131856  0.6443587928554280
  0.4353084517102204  0.9112188074402638  0.7542202044873321
  0.3313407805881852  0.9983826715216182  0.8214608602053843
  0.3193291242108174  0.0184902101814117  0.9719452104811026
  0.2685840700671278  0.0806404254575241  0.0831191016343027
  0.1697772351754168  0.1573942195117084  0.1596382517182136
  0.0622994116119244  0.2490682804882951  0.2368682205506261
  0.9945009105530218  0.3471518066211132  0.3152750894070167
  0.9035918065212201  0.4068291521817287  0.4388550117877443
  0.8467469771437734  0.4960806885838736  0.5175040522856236
  0.7750667480819970  0.5841539369056150  0.5751297510588955
  0.6627918914329101  0.6561013366099289  0.6540479156677037
  0.5800389315112255  0.7559593073203885  0.7503451710221398
  0.4993125209781795  0.8346008616039313  0.8316458398265780
  0.4379146477663198  0.9184783844801387  0.9236769304922916
  0.4293385733836814  0.9379336400143856  0.0741169044194052
  0.3504317849436589  0.0076011183369289  0.1701022002117796
  0.2697147806281492  0.0830633431231504  0.2456115270119099
  0.1615451720210999  0.1702312140374005  0.3487006483257389
  0.0581245434747828  0.2553716714616812  0.4581372152960910
  0.9984871648485552  0.3446227033884739  0.5279763845600556
  0.9240993716534831  0.4184660393191066  0.6064788809637989
  0.8516597213897512  0.5055104960840708  0.6605756997722381
  0.7692747597498624  0.5682420437744753  0.7662315152241703
  0.6680573433629036  0.6434927855030779  0.8262093612642829
  0.5885702594301918  0.7418112862622905  0.9071133900743220
  0.5237900338647776  0.8304056740989338  0.0158649010029563
  0.4681383790857510  0.8298767476824125  0.1636948663390072
  0.3961930172620498  0.9215160932630084  0.2704794333892764
  0.3061828713138368  0.0021603367497818  0.3289336060497092
  0.2521961305242542  0.0987708598058035  0.4009639779629168
  0.1735471979141678  0.1729224871134036  0.5147061226324610
  0.0927357777910984  0.2523806496243921  0.5824925257731977
  0.9848727123791292  0.3394095200990961  0.6822589531886862
  0.9162734016622736  0.4379430707064671  0.7535851299648400
  0.8531404988811602  0.5025296621513604  0.8626725190801565
  0.7394880079717083  0.5779068124150868  0.9140486304243609
  0.6465249475545463  0.6582731464277174  0.0079546726404516
  0.5850892212099410  0.7455174338687769  0.1017669219012234
  0.5650990464916461  0.7589228807040698  0.2467205571205966
  0.4971052590306115  0.8217903025853133  0.3332559193438840
  0.4029461245304873  0.9171054503316540  0.4222597158954713
  0.3397469981219530  0.0109736923599471  0.5083336365180244
  0.2581759510109478  0.0913893041237088  0.5877695621553585
  0.1804973407656050  0.1586153410453122  0.6694093133141550
  0.0798332099616417  0.2581990165228163  0.7387222049068995
  0.9693417106209523  0.3174633690961386  0.8349931151602306
  0.9271648865180211  0.4393720860305308  0.9417794463757687
  0.8016713677775087  0.5085572819267981  0.9979551636298254
  0.7364818873371703  0.5891745674498523  0.0981588198273826
  0.6846812145368801  0.6613953778070822  0.1949057784903729
  0.2408462414089314  0.2665378945896251  0.7531602813074372
  0.1549386842683589  0.3190753001878051  0.8192649814193231
  0.0920837628865954  0.3986062519979257  0.9185679518300987
  0.0144240090306056  0.5192931466275041  0.0012265418964290
  0.9353226654279538  0.6055764305122651  0.0838588173299755
  0.8465892896387786  0.6723810826740220  0.1733330036761771
  0.7724631468272989  0.7711474071965156  0.2679070142052282
  0.6677237443059241  0.8310603122752340  0.3505086495045120
  0.5660875139854582  0.9228959931671028  0.4402156322424702
  0.4877309098537523  0.0104019679533280  0.4732457763925524
  0.4213022067050289  0.0912088967473821  0.5813630754015833
  0.3374567824462531  0.1773730730040768  0.6801398880164626
  0.3311118456804891  0.1797969227003904  0.8388269949252773
  0.2558306676056930  0.2546892561735774  0.9281913370095083
  0.1497680956804928  0.3089609166466900  0.9953645238951481
  0.0891737273235833  0.4153506468272994  0.0999430272516548
  0.0097645728442401  0.5023351958962650  0.1565042845440772
  0.9383939033405255  0.5766298794253970  0.2406025318668554
  0.8603768985255300  0.6854051566370956  0.3269790837528959
  0.7559139659753882  0.7431067309997630  0.4015951410533063
  0.6731612183329361  0.8477873961080462  0.4849470955206598
  0.5683012721769387  0.9148975810157438  0.5882585281307442
  0.4923815596779377  0.9977696131023706  0.6755054248581445
  0.4059693958283361  0.1019698044034172  0.7447310951610291
  0.4228456819907294  0.0824835820746443  0.8895646053104755
  0.3364743836410113  0.1624935916646706  0.9800919054183623
  0.2416764300127880  0.2207748231838877  0.0644488606848910
  0.1589536916606704  0.3103503965875518  0.1567577704187642
  0.0779183434228372  0.4169698758291389  0.2367437829657177
  0.0044897646447666  0.4766988696755377  0.3565953912930553
  0.9153851874051000  0.5873218512746732  0.4139635174418572
  0.8416644699512474  0.6553261498042033  0.4836415348038017
  0.7456804623191857  0.7275746149005045  0.5687790013386049
  0.6685732183529112  0.8178984645968228  0.6725200291696609
  0.5817611234316331  0.9054871403740137  0.7448646837289203
  0.4997345995165006  0.9996461984536111  0.8192514484935671
  0.4970425677295580  0.0077120299888094  0.9967138046431714
  0.4084914593822404  0.0742837728762069  0.0745193428833986
  0.3380088393071219  0.1829782656037722  0.1652543110165396
  0.2243958238432029  0.2453643246024129  0.2399389275153823
  0.1417336205346444  0.2976349726284653  0.3502857018700567
  0.0867886108447209  0.4083623806241476  0.4368889390034383
  0.9996466854471322  0.4970153250619376  0.4915905358427253
  0.9308504819987249  0.6135535068528739  0.5877939937465015
  0.8032994325901086  0.6708691965356053  0.6665466085271348
  0.7462747772316760  0.7523330726044932  0.7511602038879559
  0.6681609725885096  0.8270434043594648  0.8370190047350761
  0.5851946575561442  0.9091192305002807  0.9083719092144165
  0.5788503266602731  0.9303514135299267  0.0871864026412510
  0.4978589846559558  0.9916660098497587  0.1767811915607780
  0.4085230495284904  0.0874059787820656  0.2557111454087746
  0.3349266323024054  0.1911243676576362  0.3174061136418160
  0.2621194557660047  0.2519441990330051  0.4316166596739421
  0.1655162535962589  0.3491754360465151  0.5264894115120242
  0.0720487158355283  0.4389375944018212  0.5947498281786920
  0.9857654649164900  0.5145944977223706  0.6743484091544758
  0.9183629550267725  0.6011649179852938  0.7748283060616927
  0.8298894709502136  0.6944804053784068  0.8410919448773271
  0.7298299808199502  0.7486368187085404  0.9297475115879479
  0.6498158440222142  0.8358876628306575  0.9890281781946797
  0.6485191026332586  0.8276807954727090  0.1715705616159227
  0.5665033355310456  0.9152198223847208  0.2456305057739954
  0.4909088932510173  0.9990526647286799  0.3385996368776460
  0.3903804827978874  0.0748672041077256  0.3750120055142645
  0.3427940761607928  0.1613021877247647  0.5158744675537434
  0.2475429348477576  0.2572075056940761  0.5793675577399497
  0.1634916991329050  0.3481297580516269  0.6562366054303510
  0.0694628791057283  0.4130465695676477  0.7570979031806928
  0.9855041242108200  0.5143080186605928  0.8529380349436622
  0.9072035173419621  0.6149292640653741  0.9269608487173358
  0.8075747517581746  0.6530374330696063  0.0112856174578440
  0.7475214367058243  0.7444173005074717  0.0809969476744214
  0.3340768106169563  0.3439279394429775  0.6513109036601961
  0.2578964222208882  0.4195588777671233  0.7376321945177011
  0.1697550092903413  0.5081873196875222  0.8183705606169553
  0.0866445531647102  0.5891752901981917  0.9239576710221371
  0.0058851764165269  0.6716610934628022  0.0115166531806921
  0.9073067349956077  0.7529020698473587  0.0810164074362660
  0.8332012816670655  0.8469873386677875  0.1554582464237200
  0.7450191071285843  0.9025047980100709  0.2526542315991378
  0.6816761308239450  0.9922702259649938  0.3468951345600573
  0.5790340795572604  0.1048722888196281  0.4037012851634287
  0.4962983452209713  0.1712152271637493  0.4899392661631907
  0.3980397261847699  0.2460590076320628  0.5855764909494141
  0.4304093462798662  0.2795861733796841  0.7458816945376796
  0.3435461739790640  0.3322734171461690  0.7981599996004149
  0.2170861733796841  0.3798251388555869  0.9138757557140593
  0.1549965700671336  0.4902962364141317  0.0061131473267793
  0.0859538425037982  0.5931987043474791  0.0950136248301732
  0.0107196600535460  0.6959603142731581  0.1810683084592029
  0.9031292485814788  0.7866131343402856  0.2337895233956715
  0.8396190961400123  0.8712244485734857  0.3593092793494748
  0.7539838737712756  0.9273466659673915  0.4200279419403827
  0.6661560482098636  0.0115013306161558  0.5130496014145294
  0.5748587459042582  0.0821198024055008  0.5740002387517009
  0.5065371054103736  0.1791523565491886  0.6606692085231387
  0.4836187934548093  0.1838003411452078  0.8372202859026601
  0.4181989800607369  0.2516614371054118  0.9099044633581101
  0.3344250249740242  0.3323058019659584  0.9985948133940710
  0.2401165892471795  0.4022915407975702  0.0566050287700790
  0.1830507287421099  0.4894831465276113  0.1624672895189008
  0.0778347903180716  0.5928976409534101  0.2667271157995685
  0.9840789204227605  0.6838814098337735  0.3180384020618590
  0.9368943973267818  0.7525641627707174  0.4274335301286669
  0.8278097158954694  0.8283605934827776  0.5002013051426530
  0.7483979671142009  0.9133932165547805  0.5860977373531497
  0.6668052755134681  0.0207895563613860  0.6705702434468179
  0.5817914968432802  0.0907265254135723  0.7366344281946766
  0.5718466185167443  0.0734163270198991  0.9114304158674997
  0.4864008496164018  0.1729113576880010  0.0008814223207878
  0.4108476489450936  0.2506492442859454  0.0681563429033787
  0.3286979496323852  0.3285585081515237  0.1519803639215240
  0.2405959227403471  0.4031023730320484  0.2562033530128645
  0.1440884849756259  0.4846547790298104  0.3369248296771374
  0.0656527221689416  0.5998611908615032  0.4077362912570948
  0.0312116149204797  0.6845503646207973  0.4922221904219626
  0.9127153625229738  0.7308838927515353  0.5841273250819157
  0.8396254260568980  0.8061509170462742  0.6711651392551730
  0.7491847623471557  0.9200862223287771  0.7425840665707639
  0.6690947384719905  0.9884908420242979  0.8359148740310047
  0.6737375519459761  0.9981017077239684  0.0028037870614526
  0.5883715725645331  0.0730004115719680  0.0864174998002056
  0.4888015364021427  0.1677125194797426  0.1470531906816888
  0.4203057754934889  0.2561171052105777  0.2342606424318703
  0.3122198813234220  0.3088910782785916  0.3182905083712910
  0.2490876888036411  0.4146136218332970  0.4201991503836027
  0.1338100955006780  0.5128662835650957  0.4974103177695213
  0.0822929897906164  0.5901534109526096  0.5959706884839733
  0.0004821106049704  0.6732744630584193  0.6837256023735350
  0.8990469976224702  0.7495723842204143  0.7536316850475515
  0.8122982473227864  0.8408938289179275  0.8413123042036261
  0.7334390628746092  0.9222633546112036  0.9228235320266904
  0.7336990834532102  0.9201642501798162  0.0730767082234465
  0.6629239096339816  0.0074641907416293  0.1884620974186859
  0.5950294878326545  0.0638665462918553  0.2580464586829692
  0.4900417301006925  0.1683407890793589  0.3287199652361537
  0.4252031177575333  0.2569440451930021  0.4014451445496690
  0.3280758815831533  0.3284126898026045  0.4867901976943969
  0.2535484900703295  0.4272677375529454  0.5466437589906477
  0.1634101234715928  0.5087024354671144  0.6619282920762402
  0.0767181985734808  0.5919942314992426  0.7581108137536958
  0.0033720011188336  0.6840664184248411  0.8500510678893960
  0.9176800457524195  0.7601790507871797  0.9407139265164233
  0.8158614106329409  0.8478964152281634  0.9906777531367368
  0.4090251318628617  0.4314541132222516  0.5454042076240739
  0.3528571190961429  0.5140145528650208  0.6499905628146720
  0.2594560327259643  0.5825246968153124  0.7607357777910977
  0.1696925342643638  0.6780923025053909  0.8346466804523303
  0.0992697404699143  0.7748265493886350  0.9228999470550647
  0.0184531826900027  0.8495123391672692  0.0130786936585920
  0.9133765623751273  0.9193861384160442  0.0974466060297274
  0.8186434573044039  0.0002203788060413  0.1850821051106877
  0.7492888076400561  0.0991474936066510  0.2503775858107602
  0.6694497767322005  0.1754729391432903  0.3218174818189112
  0.6043551126828106  0.2600941570766437  0.4074560112482999
  0.5019253106768957  0.3145299543474778  0.4957497013106362
  0.4988244450771191  0.3461926351594329  0.6417616029329523
  0.4367209227403492  0.4265456705026764  0.7429248731319404
  0.3171831290457945  0.4827581744985210  0.8364964636777756
  0.2551613267202129  0.5832331035722831  0.9149866089267178
  0.1685951405538262  0.6817370964197238  0.0061505074722277
  0.0719774524494525  0.7500542750539410  0.0798272891193150
  0.0046018425837104  0.8487417580716041  0.1615837953528327
  0.9293901672260816  0.9187131428314572  0.2550265239151273
  0.8250865065332036  0.0037778305562242  0.3294665143251052
  0.7703337329177629  0.0905299128905952  0.4259757427275659
  0.6753822439662756  0.1650167296012128  0.4873124080955833
  0.5871558504155701  0.2582101059897681  0.5866223068009262
  0.5856483961679828  0.2778705321465651  0.7323643685567021
  0.5303414104331523  0.3557573128945890  0.8344210700871102
  0.3987732613082429  0.4056486923599465  0.9347602108806825
  0.3118091160193401  0.4992618836410117  0.9920178844002265
  0.2338663365100331  0.5867769589626803  0.0631533115559790
  0.1786652631263479  0.6715658255414354  0.1696453977863044
  0.0803539708702914  0.7495022097019088  0.2474913604850926
  0.0098842224086937  0.8259128271597547  0.3291484551066901
  0.9133324627387509  0.9133304803004876  0.4188429193638612
  0.8289714157276435  0.9826950711260309  0.5041339367058271
  0.7647929613202251  0.0634803774074939  0.6082978347518591
  0.6756049568448788  0.1661541526812087  0.6582553754095741
  0.6426174108926688  0.1724405603172698  0.8218337314193249
  0.6024235475105897  0.2451630289498894  0.9343808379285576
  0.4998119011228326  0.3457520228961855  0.0131172290817574
  0.3879885818748505  0.4175584741868477  0.0916586500039926
  0.3066590475905073  0.4894389809598039  0.1621261538000454
  0.2390513525933002  0.5779278675177792  0.2687659823783264
  0.1565210620954218  0.6751511478062824  0.3539028420442705
  0.0680876658275409  0.7612859790817552  0.4050669423799249
  0.0114190566810493  0.8397319837369110  0.5085057145568612
  0.9119721579557236  0.9060797165947392  0.5800579722089054
  0.8353495404778997  0.9870476914009458  0.6828273790258166
  0.7513175607368368  0.0758233771877244  0.7634856798929093
  0.7520526307640054  0.0731051126828106  0.9254436775753234
  0.6776760848717345  0.1513491913410050  0.9887424268760512
  0.5827793384879740  0.2349036267282045  0.0586330476304653
  0.4785343178094763  0.3193496049108902  0.1452960196395736
  0.4148175522456654  0.4091080721050133  0.2364817629665126
  0.3352263151322603  0.4783839881523235  0.3432394045193021
  0.2337285293294968  0.5775487388116360  0.4218912356149573
  0.1526595750419588  0.6753608816830479  0.4961884615000400
  0.0938220380803969  0.7371942309997621  0.6008666137217276
  0.9854783290378037  0.8516596539598851  0.6665370949212814
  0.8991030453328506  0.9004416167186093  0.7676390773595472
  0.8385265094301957  0.9933667216095259  0.8342519824382677
  0.8364385494086122  0.9972184173459624  0.9948719052185737
  0.7473445072124960  0.0773107218492797  0.0965612767721566
  0.6551556970750454  0.1659910483097562  0.1547842533764907
  0.5806915417965328  0.2526284314313116  0.2392655248541544
  0.4982492822464621  0.3526614630783982  0.3303272916167188
  0.4126216060297310  0.4026932704986805  0.3935138376088858
  0.3235860000599402  0.5023523285782758  0.4678106863861586
  0.2313760534044604  0.5926525718253046  0.5681925247742328
  0.1762953448413640  0.6550882956724990  0.6712446755374444
  0.0976046541596745  0.7553941306041736  0.7438361259290360
  0.0126870464716689  0.7981706105650090  0.8384140284104546
  0.9109748441620695  0.8983721459681959  0.9172692075241784
 
  0.00000000E+00  0.00000000E+00  0.00000000E+00
  0.00000000E+00  0.00000000E+00  0.00000000E+00
  0.00000000E+00  0.00000000E+00  0.00000000E+00
  0.00000000E+00  0.00000000E+00  0.00000000E+00
  0.00000000E+00  0.00000000E+00  0.00000000E+00
  0.00000000E+00  0.00000000E+00  0.00000000E+00
  0.00000000E+00  0.00000000E+00  0.00000000E+00
  0.00000000E+00  0.00000000E+00  0.00000000E+00
  0.00000000E+00  0.00000000E+00  0.00000000E+00
  0.00000000E+00  0.00000000E+00  0.00000000E+00
  0.00000000E+00  0.00000000E+00  0.00000000E+00
  0.00000000E+00  0.00000000E+00  0.00000000E+00
  0.00000000E+00  0.00000000E+00  0.00000000E+00
  0.00000000E+00  0.00000000E+00  0.00000000E+00
  0.00000000E+00  0.00000000E+00  0.00000000E+00
  0.00000000E+00  0.00000000E+00  0.00000000E+00
  0.00000000E+00  0.00000000E+00  0.00000000E+00
  0.00000000E+00  0.00000000E+00  0.00000000E+00
  0.00000000E+00  0.00000000E+00  0.00000000E+00
  0.00000000E+00  0.00000000E+00  0.00000000E+00
  0.00000000E+00  0.00000000E+00  0.00000000E+00
  0.00000000E+00  0.00000000E+00  0.00000000E+00
  0.00000000E+00  0.00000000E+00  0.00000000E+00
  0.00000000E+00  0.00000000E+00  0.00000000E+00
  0.00000000E+00  0.00000000E+00  0.00000000E+00
  0.00000000E+00  0.00000000E+00  0.00000000E+00
  0.00000000E+00  0.00000000E+00  0.00000000E+00
  0.00000000E+00  0.00000000E+00  0.00000000E+00
  0.00000000E+00  0.00000000E+00  0.00000000E+00
  0.00000000E+00  0.00000000E+00  0.00000000E+00
  0.00000000E+00  0.00000000E+00  0.00000000E+00
  0.00000000E+00  0.00000000E+00  0.00000000E+00
  0.00000000E+00  0.00000000E+00  0.00000000E+00
  0.00000000E+00  0.00000000E+00  0.00000000E+00
  0.00000000E+00  0.00000000E+00  0.00000000E+00
  0.00000000E+00  0.00000000E+00  0.00000000E+00
  0.00000000E+00  0.00000000E+00  0.00000000E+00
  0.00000000E+00  0.00000000E+00  0.00000000E+00
  0.00000000E+00  0.00000000E+00  0.00000000E+00
  0.00000000E+00  0.00000000E+00  0.00000000E+00
  0.00000000E+00  0.00000000E+00  0.00000000E+00
  0.00000000E+00  0.00000000E+00  0.00000000E+00
  0.00000000E+00  0.00000000E+00  0.00000000E+00
  0.00000000E+00  0.00000000E+00  0.00000000E+00
  0.00000000E+00  0.00000000E+00  0.00000000E+00
  0.00000000E+00  0.00000000E+00  0.00000000E+00
  0.00000000E+00  0.00000000E+00  0.00000000E+00
  0.00000000E+00  0.00000000E+00  0.00000000E+00
  0.00000000E+00  0.00000000E+00  0.00000000E+00
  0.00000000E+00  0.00000000E+00  0.00000000E+00
  0.00000000E+00  0.00000000E+00  0.00000000E+00
  0.00000000E+00  0.00000000E+00  0.00000000E+00
  0.00000000E+00  0.00000000E+00  0.00000000E+00
  0.00000000E+00  0.00000000E+00  0.00000000E+00
  0.00000000E+00  0.00000000E+00  0.00000000E+00
  0.00000000E+00  0.00000000E+00  0.00000000E+00
  0.00000000E+00  0.00000000E+00  0.00000000E+00
  0.00000000E+00  0.00000000E+00  0.00000000E+00
  0.00000000E+00  0.00000000E+00  0.00000000E+00
  0.00000000E+00  0.00000000E+00  0.00000000E+00
  0.00000000E+00  0.00000000E+00  0.00000000E+00
  0.00000000E+00  0.00000000E+00  0.00000000E+00
  0.00000000E+00  0.00000000E+00  0.00000000E+00
  0.00000000E+00  0.00000000E+00  0.00000000E+00
  0.00000000E+00  0.00000000E+00  0.00000000E+00
  0.00000000E+00  0.00000000E+00  0.00000000E+00
  0.00000000E+00  0.00000000E+00  0.00000000E+00
  0.00000000E+00  0.00000000E+00  0.00000000E+00