Li 
 1.0000000000000000
    20.0207999999999977    0.0000000000000000    0.0000000000000000
     0.0000000000000000   20.0207999999999977    0.0000000000000000
     0.0000000000000000    0.0000000000000000   20.0207999999999977
 Li 
 432
Cartesian
  0.0012095300000000 -0.0657529600000000  0.1008200600000000
 18.4029415699999994  1.4068156500000000  1.6184245100000001
 17.1404247000000005  2.6849481200000000  3.2051820300000000
 15.4982532400000004  4.9116761899999997  4.9144448100000000
 13.8396667499999992  7.1587584299999998  6.5192452799999998
 11.9193851599999991  8.2153402700000004  8.8200598200000009
 10.2026749300000006  9.9169468700000003 10.0950391499999999
  8.6341138399999995 11.5788185000000006 11.2154721899999998
  6.7835383900000004 13.0109621600000001 12.8996404400000007
  5.5763413100000001 15.3093806400000005 14.6355979000000005
  3.6739648400000000 16.2720167700000005 16.6402145700000013
  1.7395560100000000 18.2369187900000007 18.0876395300000006
  1.6984629300000000 18.4928194300000008  1.7941738599999999
 -0.2030854100000000  0.2133442700000000  3.7282206000000002
 18.3491139399999987  1.5973434500000001  5.1172454299999997
 17.0767266100000015  3.3040695200000001  7.1021932200000002
 15.1099277599999997  5.4004808999999998  7.9866114799999997
 13.5287177700000001  6.7806162299999997 10.0375737600000008
 12.0783116100000001  8.4466235300000001 11.8721911200000001
 10.0336330500000006  9.8036983600000003 13.3001773599999993
  8.0600141900000004 11.6025229999999997 15.0466951699999996
  6.8766735800000003 13.5440632799999996 16.9612059799999990
  5.1561793299999996 15.1977443999999995 18.4932012499999985
  3.1653611800000001 17.2193855700000000  0.1944540500000000
  3.2496069799999998 16.6891348099999988  3.3161156400000000
  1.8585460199999999 18.2561659600000006  4.7466864500000003
  0.3647584800000000  0.2099251500000000  6.8904863399999998
 18.4072870199999983  1.0860369299999999  8.7974580099999997
 16.8762109699999989  3.0723047900000000 10.1757796099999993
 15.0460463099999995  5.0182064500000001 11.3593598300000007
 13.3891717900000007  6.7405089599999997 13.5384478000000001
 12.0210428700000005  8.6193626200000004 14.7657029800000004
  9.8216255399999994  9.8864708300000004 17.0314295899999983
  8.7876899700000006 11.5735039900000007 18.7829279000000007
  6.7941260699999999 13.4777298600000002 19.9723427099999995
  5.2911100700000002 15.2484677899999994  1.9180545600000001
  5.1293463299999997 15.0852715300000000  5.0270542599999999
  3.6371526400000000 16.8995080500000014  6.6664380599999999
  1.8603981199999999 18.7968697599999999  8.1919157299999998
  0.2460515100000000 -0.2010064200000000 10.5630059099999993
 18.3684802500000011  1.4078976500000000 11.6662025200000006
 16.6691747499999998  3.4560923799999999 13.3902281100000007
 14.8667954800000004  4.9975156099999998 15.2634465800000001
 13.1029091799999993  6.4442412100000004 16.6540173799999991
 11.7902758500000004  8.2272158399999995 18.6592206099999984
  9.8675634399999996  9.6577827200000002  0.5237027600000000
  7.8481884400000004 11.5263437100000008  1.8924392699999999
  6.2230442400000001 13.0515671799999993  3.3939198699999999
  6.5313325100000004 13.0928943499999999  6.5562795899999999
  5.0464973300000002 15.2164954699999999  8.2059221900000008
  3.4916594399999998 16.4687014299999994  9.6603425499999993
  1.8741187600000000 18.2835093200000003 11.7204578900000005
 -0.2168542400000000 -0.6364119700000000 13.1343610399999999
 18.7578117400000011  1.6680844500000001 14.7898246199999992
 16.6748740600000005  2.9292792300000001 17.0863409600000011
 15.0196657099999999  4.8287160699999996 18.3269944600000017
 13.8774912900000000  6.4871633500000003  0.2228811300000000
 12.1614812200000006  8.0322216100000006  1.6027747699999999
 10.1831291299999993  9.8318245100000006  3.5558936700000001
  8.0368304199999994 11.2992471900000009  5.2526413400000003
  8.4400790600000004 11.0444947399999993  8.2003255300000006
  6.6290047100000002 13.0171203400000000  9.5444157799999996
  5.1848896900000003 14.6172931800000008 11.5638384300000006
  3.3452278799999999 16.2320225399999991 13.3147628800000000
  1.8474607500000000 17.9087690899999998 14.8468318099999994
  0.0744985000000000 -0.3331103900000000 16.5169020400000015
 18.5992147299999999  1.4873038900000000 17.9467021299999985
 16.7402013399999987  2.9536246700000000 20.0422994000000010
 15.4735926500000005  5.1417089400000000  1.9586218700000000
 13.6310519899999996  6.3737669800000001  3.3700766899999999
 11.8246687500000007  8.2693438100000005  5.0468896200000000
 10.4041228100000005  9.5554980000000000  6.7487188199999997
  1.8512869400000000  1.2752152600000000 17.9679527899999982
  0.0032437800000000  2.9909742200000000 -0.4127890100000000
 18.2449511899999983  4.7715460299999997  0.9848735400000000
 17.3056063400000006  6.5999963900000003  3.5037866800000002
 15.3638106000000008  8.3704877199999999  4.8900471799999998
 13.3534535299999995  9.7218431200000008  6.7691206900000003
 11.8772520900000007 11.8380350199999995  8.5740760599999994
  9.9429379800000000 13.3846096699999997  9.7089057299999997
  8.1565150699999993 14.6948791300000003 11.3139402800000006
  7.0743880099999998 16.5728785700000003 12.8998377000000009
  5.4408334399999996 17.9574643599999995 14.7366807499999997
  3.9428820299999998 -0.0604687000000000 16.1180484700000015
  3.1375264399999998  0.1839750300000000 -0.6444167400000000
  1.3992151700000000  1.6521320900000001  1.6387307300000000
 -0.0789442100000000  3.1939519199999999  3.3275971200000001
 18.4886552699999989  4.9884323400000001  5.2630141400000001
 16.8529837899999997  6.6431671000000003  6.6940727100000004
 15.1755710700000002  8.0963624900000006  8.2939492700000006
 13.8307573500000007  9.8580968000000002  9.9818505799999997
 11.1840771700000001 11.8866205300000001 11.6320227799999998
  9.9789055300000005 13.6957598899999997 12.9380307600000002
  8.3482519100000001 14.9209940999999997 14.9183228299999993
  7.1567130299999997 16.8117347799999983 16.8059715400000016
  4.9153908099999999 18.6082971700000002 18.0240740700000011
  4.9812555800000000 18.5358434900000013  1.4162041900000000
  3.6216396199999998  0.3089418500000000  3.0059602800000000
  1.8956521099999999  1.5422524099999999  5.3337654399999996
  0.0110599200000000  3.0433004399999999  6.9593240600000001
 18.5376214700000013  5.1263686899999996  8.8836730399999997
 16.3427471799999999  6.6733930399999997 10.3847531600000007
 15.2913647200000007  8.8027256200000004 12.3014053600000004
 13.3792799400000000 10.8478971499999997 13.2994551899999998
 10.8812128900000005 11.8614004099999999 15.1106161399999994
  9.5778151299999994 13.4435316300000007 16.8817308399999995
  8.4666714600000006 15.2843109699999999 18.5860784499999987
  6.7865757599999998 17.0557576399999995 20.1379715799999985
  6.9578774000000001 16.6717540100000008  3.1313291300000001
  4.8603610300000000 18.4727576900000017  4.4268616900000000
  3.5609958000000002 -0.0583460700000000  6.7343959900000003
  2.0734037000000001  1.6928770900000001  8.9557349899999998
  0.2839921800000000  2.8680321900000001 10.5634297200000002
 18.4124911299999994  5.2216197700000002 11.5160534600000002
 16.5665703600000001  6.4194600599999996 13.3179753600000002
 15.2012108700000006  8.4135416700000007 14.9822254099999999
 13.3471238700000008 10.0089535400000003 16.4573842699999986
 11.6704517299999999 11.7642425900000003 18.8200771099999997
  9.6465688099999998 13.6980622099999998 20.2564127399999983
  8.1961597400000006 15.0442604299999996  1.8011316300000000
  7.4097805200000000 14.8359512000000002  5.0872767400000001
  6.1037887800000004 16.7617713600000009  6.8340756000000003
  4.7807218899999997 18.6978547199999987  8.4302543599999993
  3.7685309800000000  0.0795196600000000  9.9556531300000000
  1.7691511900000001  1.4483846100000000 12.2727332100000002
 -0.2783574600000000  3.2938157200000000 13.0381533699999999
 18.1343436599999990  4.7330452699999999 15.3889986299999997
 16.6803426299999984  7.1258426300000002 17.0624327499999993
 14.6683401000000000  8.3519768499999998 18.1069325100000000
 13.8491310399999996 10.0608505400000006 19.9022574500000005
 11.4859929800000007 11.9105446500000003  1.7500780499999999
  9.7586235000000006 13.1775399499999999  3.8048066199999999
  9.6036219099999993 12.7310793600000007  6.5279705699999999
  7.9226939200000004 15.0435130800000003  8.3586709100000007
  6.7115485699999997 16.7421872500000006 10.1248552299999997
  4.7372355700000002 18.1629150800000012 11.4150023699999998
  3.3413416800000002 -0.0785064000000000 13.4015976499999994
  1.5027547299999999  1.3878191900000001 14.6653422899999999
  0.3507415400000000  3.0769258599999998 16.5381766200000015
 18.2184172599999989  4.7875281300000001 18.4578457600000014
 16.4794919799999988  7.0017725899999999 19.9065584599999994
 15.2212026300000005  8.0027622699999998  1.9452332699999999
 13.5624575099999998 10.2955332199999994  3.5110184699999998
 11.4873200299999993 11.5996319799999998  5.2622194100000002
  3.4137879799999999  3.0721904200000001 16.7229859099999985
  1.2139695800000001  4.8788456800000004 18.2880033500000003
 -0.3087736900000000  6.6761465299999996 -0.1811000700000000
 17.9379798800000003  8.9084610299999998  1.4409388700000001
 17.0585580300000004 10.3329861199999993  3.0566788900000001
 15.3589775900000003 11.6603359100000006  5.2503419400000002
 13.4449194300000006 13.7857543899999992  6.2023593300000002
 11.7271711300000003 14.7750778500000006  8.4818023500000006
  9.6483592300000005 16.4883371200000006  9.9976537499999996
  8.8487577700000006 18.5484444000000011 11.5526610900000009
  6.4715643099999998 19.6593162300000017 12.6317223999999992
  5.3969186400000000  1.8003774100000001 15.0130021399999993
  5.0015562600000001  1.5710794699999999 17.9203386699999996
  3.2570117399999998  2.9537137100000002 -0.3850541000000000
  1.5303863600000001  4.4695658399999996  1.4423210600000000
 -0.2629678100000000  6.8038306000000004  3.0128029800000000
 18.4781058000000016  8.8119104400000001  5.0795605799999999
 16.6902142699999985  9.6405020900000000  6.9511003699999998
 15.5793727700000009 11.3815082099999998  8.1706432099999997
 13.5860367899999996 13.2131527700000007 10.2179426299999996
 11.9364963399999997 15.0804897400000009 11.4674733799999995
 10.0700120599999998 16.2021786600000013 12.9005785199999998
  8.7152234499999999 18.2433295000000015 15.1000918700000000
  6.6337074999999999 19.9884197899999982 16.4463035899999994
  6.3932245300000003  0.3701888000000000 -0.5616793300000000
  5.3772679500000002  1.6144858300000000  1.6641109100000000
  3.3990760700000000  3.1511581899999999  3.1960855100000001
  1.2472840599999999  4.9865462300000001  4.7422912699999999
 -0.1100961700000000  6.9502568900000004  6.3120595100000001
 18.0906308399999993  8.1450450900000000  8.7862284200000005
 16.9525518800000015  9.9319322499999991 10.3608451299999995
 15.5174563499999998 11.6952291400000004 11.5145577200000009
 13.2696238999999991 13.1356736400000003 13.0945625099999994
 11.6128434400000007 15.1349101000000008 15.0225106000000004
  9.9966361199999998 16.7093769300000012 16.6502150299999983
  8.7674015799999996 18.3886720399999994 18.4927510899999987
  8.5957017100000002 18.7781818200000004  1.4838797200000000
  7.0159246800000004  0.1521804700000000  3.4055821300000000
  5.3999056799999998  1.6629945799999999  4.9173392600000003
  3.2342635799999999  3.4081650899999998  6.9812659400000001
  1.1636998599999999  5.1127451600000002  9.1722735600000007
 -0.0302881700000000  6.8996222200000004 10.5705095999999994
 18.5012086999999994  8.3780248799999999 12.1421923799999991
 17.0509089500000002 10.1207245399999994 13.2252539700000007
 15.4014961100000001 11.3766603100000001 15.3405679199999998
 13.3750424599999995 12.8832403600000003 16.5413723799999985
 11.7836474500000001 14.8516554000000003 18.1611357600000005
 10.4866955100000006 16.6253859199999994 20.3384280100000012
  9.3725048599999994 16.6147963899999986  3.2773021800000000
  7.9321011600000002 18.4494894000000009  5.4152146400000003
  6.1300260299999998  0.0432516700000000  6.5855139400000002
  5.0491682899999999  1.9774716299999999  8.0276196100000003
  3.4745537400000002  3.4620465299999998 10.3048283400000003
  1.8566444600000001  5.0528625099999998 11.6619663599999992
 -0.3028604000000000  6.7952501200000004 13.6593700499999997
 18.3445265199999987  8.7679706300000007 15.0873771699999999
 17.0805553000000003 10.0610458600000001 17.2713939699999983
 14.8051415100000003 11.5701567099999991 18.2999848199999988
 12.9439466700000008 13.1791550100000006 20.1800589099999996
 11.7139542799999994 14.9258554399999994  2.0374551900000002
 11.3137349900000004 15.1942432099999998  4.9395429300000000
  9.9524449700000002 16.4528992900000013  6.6720501099999998
  8.0673037700000005 18.3611848000000002  8.4539773199999999
  6.8020066999999997  0.2197021000000000 10.1772460700000007
  5.1688890799999996  1.8296869800000000 11.7676168499999996
  3.6137011600000002  3.1756060200000000 13.4021099800000005
  1.5983247300000001  5.1693508699999997 14.7898095200000004
 -0.6138034800000000  6.3558706200000001 16.7172301599999997
 18.5625827600000015  8.7965806600000001 18.8551779400000008
 16.0501021199999983 10.1817236300000005 19.9798607399999995
 14.7449565699999994 11.7957461800000001  1.9652181000000000
 13.7078656599999995 13.2416645800000001  3.9021696100000001
  4.8219344299999998  5.3363018799999997 15.0788713600000008
  3.1019964099999999  6.3881427700000000 16.4023403399999985
  1.8435906000000000  7.9804160499999997 18.3904652499999983
  0.2887802000000000 10.3966642300000007  0.0245563500000000
 18.7259080199999985 12.1241246000000000  1.6789206100000000
 16.9493948500000009 13.4616071799999997  3.4702654000000002
 15.4653301699999997 15.4389880099999992  5.3637127500000004
 13.3683635400000007 16.6384922999999993  7.0174635700000003
 11.3335249000000005 18.4771160999999999  8.8134691299999997
  9.7647630000000003  0.2082557200000000  9.4747590400000004
  8.4348072199999997  1.8260750800000001 11.6393538599999999
  6.7561547500000003  3.5511508200000002 13.6169446700000005
  6.6291240399999998  3.5996782299999999 16.7939875000000001
  5.1219346300000002  5.0990826599999997 18.5831331199999994
  2.9984770900000002  6.1856447200000000 -0.0928059400000000
  1.7853293600000000  8.3156522299999995  2.0009393599999998
  0.1954945600000000 10.0571524900000000  3.1333409799999998
 18.7873966599999989 11.5445914900000002  4.8170551699999997
 17.2254338099999984 13.7223595599999992  6.5463828399999997
 15.1340023299999995 14.8775912399999992  8.0402559999999994
 13.4772261199999992 16.9733818999999997  9.7090288099999995
 11.3778461100000001 18.3169814899999999 11.7774063400000006
  9.8578727300000004 19.9761458699999999 13.5241590100000000
  8.1278320799999992  2.0415170599999999 14.9101123100000006
  8.4657088300000005  1.6513872999999999 17.8097950500000017
  6.7364863399999999  3.2532516999999999 -0.3985759800000000
  4.8385554700000002  4.4200885799999998  1.2903177500000000
  3.1823800699999998  6.2134632200000004  3.1384159700000001
  1.5599875700000001  8.3480704899999996  4.7397999300000002
  0.0898886800000000  9.5438927299999996  7.1393250100000003
 18.3267437599999994 11.7586533200000005  8.2878807900000009
 16.8507960200000007 13.1201537800000008  9.6828904399999995
 14.9291193999999994 14.5666258499999994 11.3874106299999998
 13.3853706900000002 16.3749815800000000 13.4643890000000006
 11.6473230999999995 18.1285769399999985 14.9127868600000006
 10.0050864700000002 -0.0070833900000000 16.4020693999999985
  9.9511898399999996  0.1544010100000000 -0.0657922600000000
  8.1783258100000005  1.4872205599999999  1.4919368600000000
  6.7672073700000004  3.6633712599999999  3.3085235100000001
  4.4925839099999996  4.9123900699999998  4.8037692800000000
  2.8376204700000001  5.9588902600000004  7.0129999800000000
  1.7375774200000000  8.1757415499999997  8.7468660699999994
 -0.0070736400000000  9.9506444199999997  9.8420357999999997
 18.6363713299999993 12.2838320499999991 11.7681059900000005
 16.0826972800000014 13.4313380099999993 13.3447963400000003
 14.9410180599999993 15.0623099800000002 15.0388282100000001
 13.3771172000000007 16.5580705899999998 16.7577900900000003
 11.7160651999999992 18.2012942899999999 18.1863323200000018
 11.5890466199999995 18.6263795799999983  1.7455415299999999
  9.9675351600000006 -0.1668531500000000  3.5393008799999999
  8.1789582700000008  1.7499376200000001  5.1195417000000001
  6.7054991199999998  3.8264627400000002  6.3547243199999999
  5.2478411999999999  5.0441244200000002  8.6413108199999993
  3.3137678099999999  6.9907715699999997 10.5407392099999999
  1.4424729300000001  8.7878817900000001 11.9073673600000003
 -0.2849867800000000 10.3025935200000003 13.5009946299999992
 18.3863610500000014 12.0358025899999994 15.5126825499999992
 16.6150511200000004 13.9040532999999993 16.8393336100000006
 14.6117800800000008 14.9883080199999998 18.6142889800000013
 13.0098330499999992 16.7351397199999994 -0.2196646500000000
 12.9838712500000000 16.5708316700000005  3.4349799000000001
 11.3418499799999992 18.3234330199999995  4.9177192300000003
  9.8283887700000001 -0.0189664100000000  6.7790356100000002
  7.8157295700000002  1.4989013200000001  7.5080403599999999
  6.8630116399999999  3.2293988400000000 10.3282195399999992
  4.9560075899999996  5.1495000299999996 11.5994019999999995
  3.2732346099999998  6.9698362600000001 13.1383818300000001
  1.3907024100000001  8.2695227599999992 15.1577056999999993
 -0.2902190300000000 10.2968579800000004 17.0765018099999999
 18.1629401799999997 12.3113758099999995 18.5584977600000016
 16.1682925900000001 13.0743318399999993  0.2259470900000000
 14.9659771799999994 14.9038298900000008  1.6216236900000001
  6.6884850100000000  6.8857124900000004 13.0397653400000006
  5.1632926899999996  8.3999043800000006 14.7679866400000002
  3.3986310899999999 10.1743166899999995 16.3844333199999994
  1.7346932700000000 11.7957606500000001 18.4983717399999996
  0.1178259400000000 13.4471924200000004  0.2305726100000000
 18.1650066800000012 15.0737017600000005  1.6220132899999999
 16.6813562200000014 16.9573641100000003  3.1123984600000001
 14.9158785399999996 18.0688680599999998  5.0583398400000004
 13.6477014800000003 -0.1547562600000000  6.9451181100000001
 11.5927255000000002  2.0996271200000001  8.0824226899999996
  9.9362899099999993  3.4278658200000001  9.8089760600000009
  7.9690737499999997  4.9262981799999999 11.7237098100000008
  8.6171394400000008  5.5975388600000002 14.9331482300000005
  6.8780692400000003  6.6523796300000004 15.9798017199999993
  4.3462388599999997  7.6044031399999996 18.2965237300000005
  3.1031553299999999  9.8161228900000008  0.1223901000000000
  1.7208646900000000 11.8763126200000002  1.9022487800000001
  0.2146161700000000 13.9336822599999994  3.6251323900000001
 18.0813700600000011 15.7486242399999998  4.6806532900000004
 16.8098460000000003 17.4426104399999993  7.1936592199999998
 15.0953603399999992 18.5662221299999999  8.4092954199999994
 13.3369770100000000  0.2302658400000000 10.2716634599999992
 11.5091319799999994  1.6441041400000000 11.4919439800000003
 10.1412780799999993  3.5867735000000001 13.2271260900000005
  9.6824351400000008  3.6798298699999998 16.7618198999999990
  8.3726781399999997  5.0384633000000001 18.2170152799999983
  6.6954565400000003  6.6530279999999999 -0.0281329600000000
  4.8073262100000003  8.0541984800000002  1.1332779600000000
  3.6648220299999998  9.7998441799999991  3.2527251100000001
  1.5583147700000000 11.8702850899999994  5.3400902400000003
 -0.3187527500000000 13.6918529299999996  6.3673832399999997
 18.7573753500000002 15.0669365899999992  8.5575612200000002
 16.5734127600000001 16.5844417700000015 10.0144302900000000
 14.9835260199999993 18.2868629100000000 11.7341455799999999
 13.3499750600000002  0.4162235500000000 13.4253527300000002
 11.6479312000000004  1.8164176200000000 14.7480105600000009
 11.4488267799999992  1.4698536000000000 18.2475660700000013
  9.7381341300000006  3.4618237100000000  0.0176467800000000
  8.2254986100000007  5.0181983900000002  1.3645445100000000
  6.5807959100000000  6.5780041799999998  3.0427684699999999
  4.8169228500000001  8.0704319899999994  5.1293960900000002
  2.8847667399999999  9.7031764000000003  6.7455046300000001
  1.3144200200000000 12.0097009299999993  8.1632067399999997
  0.6248815000000000 13.7052459399999993  9.8546820299999993
 18.2732917300000004 14.6328802400000004 11.6946963499999992
 16.8099727299999984 16.1397862799999992 13.4372630199999996
 14.9992782899999995 18.4208622400000017 14.8671270799999995
 13.3958119399999998 -0.2304225500000000 16.7356845099999987
 13.4887647800000003 -0.0380053300000000  0.0561340600000000
 11.7796695800000002  1.4615266400000000  1.7301474800000001
  9.7861978000000001  3.3577388099999999  2.9441225200000001
  8.4148578700000005  5.1276693399999997  4.6900854699999996
  6.2508917999999998  6.1842465000000004  6.3724306100000003
  4.9869348000000002  8.3008963999999992  8.4127231499999997
  2.6789851599999999 10.2679932899999997  9.9585524900000006
  1.6475714900000000 11.8153434100000005 11.9318099600000007
  0.0096522400000000 13.4794933700000001 13.6887335399999994
 17.9996401299999995 15.0070387899999993 15.0883092399999992
 16.2628607500000015 16.8353671700000014 16.8437453800000014
 14.6840367900000004 18.4644501699999992 18.4756653700000015
 14.6892426100000009 18.4224244199999987  1.4630541600000000
 13.2722670100000002  0.1494390700000000  3.7731619599999999
 11.9129663699999995  1.2786593500000001  5.1662965400000003
  9.8110274700000009  3.3703172700000001  6.5812366800000000
  8.5129065799999992  5.1442253400000002  8.0372529499999992
  6.5683416100000001  6.5750847800000001  9.7459291900000000
  5.0762436099999997  8.5542419200000008 10.9442453700000009
  3.2716014000000002 10.1846297200000002 13.2523339500000006
  1.5359597100000000 11.8521981099999998 15.1779849799999997
  0.0675101600000000 13.6955569500000003 17.0187024200000003
 18.3726886600000014 15.2193927400000000 18.8338453799999996
 16.3341981300000008 16.9755645500000014 -0.1866388400000000
  8.1890103599999993  8.6380565100000002 10.9194285600000001
  7.0644818100000002 10.2909825599999998 13.0133310600000005
  5.1945173400000000 11.6626104500000007 15.2305388599999993
  3.3973802900000001 13.5759503699999993 16.7102942600000013
  1.9874596200000001 15.5126473800000007 18.4771952599999985
  0.3694474800000000 17.0079166400000013  0.2618459100000000
 18.2865294799999987 18.4068460000000016  1.9509590100000000
 16.3898969299999990 20.0252121599999988  3.7054918099999998
 15.0013613600000006  1.9850121400000000  5.0127595700000001
 13.4029200900000003  3.5131086200000001  6.4430434400000003
 12.0996728400000002  5.2072931000000002  8.1575953099999996
 10.0489462599999992  6.2971413099999998  9.9253056199999996
  9.9868644500000006  6.9310535099999999 12.8485806999999994
  8.7435022500000006  8.5397855600000003 14.8739503000000006
  6.3502599899999996  9.6652048599999993 16.7473284000000007
  5.1085338900000004 11.6767933199999998 18.3187639000000004
  3.3754095899999998 13.6489220600000003  0.1231380800000000
  1.4410461800000001 15.0166866300000006  1.5982061900000000
  0.0921325700000000 16.9924889899999982  3.2350368500000002
 18.6071346599999998 18.3933720899999997  5.1058350299999997
 16.5188919299999988 20.0964351900000011  6.5961831899999996
 15.4226975999999993  1.8124812800000001  8.5283751500000005
 13.5216928299999992  3.3037669400000000  9.7563842600000008
 11.7553298500000007  5.1695728900000004 11.7446478800000005
 11.7251494100000002  5.5631903500000002 14.6625205500000000
 10.6178593100000001  7.1225460099999998 16.7057773599999990
  7.9837597100000002  8.1214113399999999 18.7146472300000006
  6.2426679500000004  9.9956223200000007 -0.1598083400000000
  4.6821911500000004 11.7477441400000000  1.2643798200000000
  3.5770214999999999 13.4452850799999997  3.3964365800000000
  1.6087507800000000 15.0056338399999998  4.9549750299999999
  0.1978900400000000 16.5354355300000009  6.5898153900000001
 18.2856465700000008 18.2856068799999996  8.3855703199999994
 16.5966709200000011 -0.3464585200000000 10.0931647200000008
 15.3117669200000002  1.2709279400000000 12.1786092900000007
 13.5261517199999997  3.3265390600000000 13.1787992200000001
 12.8657146600000001  3.4523979699999998 16.4537687699999999
 12.0610013600000006  4.9083599700000002 18.7070518800000016
 10.0066341100000002  6.9222321000000004  0.2626174200000000
  7.7678418000000002  8.3598546999999996  1.8350795000000000
  6.1395594600000001  9.7989599500000004  3.2458952999999999
  4.7859993200000002 11.5705782500000005  5.3809099800000002
  3.1336768799999999 13.5170660999999992  7.0854180199999997
  1.3631695399999999 15.2415543299999996  8.1097642400000005
  0.2286186500000000 16.8121061000000012 10.1806912100000009
 18.2584121800000005 18.1404407899999995 11.6132246499999994
 16.7243660799999994 19.7614844199999986 13.6707503900000003
 15.0419786200000001  1.5180446700000001 15.2855941000000009
 15.0566953100000003  1.4636228400000000 18.5281227800000003
 13.5676173599999998  3.0301318899999998 -0.2253856200000000
 11.6677085799999993  4.7029585300000001  1.1738805200000000
  9.5806398700000006  6.3936345699999997  2.9089425499999999
  8.3049792500000006  8.1906708899999998  4.7345540799999997
  6.7114990099999998  9.5776301499999992  6.8719274700000001
  4.6794321400000003 11.5629877899999993  8.4466000500000007
  3.0563668200000000 13.5212651400000006  9.9340899500000006
  1.8783922600000000 14.7592182600000008 12.0298303000000004
 -0.2907354700000000 17.0509075999999986 13.3446058700000005
 18.0007622500000011 18.0275615199999990 15.3687484399999992
 16.7879715400000009 19.8879964600000001 16.7023920900000000
 16.7461689100000015 -0.0556895100000000 -0.1026685600000000
 14.9624349100000007  1.5478225000000001  1.9332340100000001
 13.1167411800000000  3.3232735799999999  3.0989045800000001
 11.6259092200000005  5.0578232999999999  4.7902872199999997
  9.9753492300000008  7.0605646200000001  6.6134166399999996
  8.2610146499999999  8.0622414300000003  7.8784618399999999
  6.4784505899999996 10.0574954999999999  9.3659441900000004
  4.6323336900000003 11.8653786100000005 11.3756689000000009
  3.5295738399999999 13.1153917500000006 13.4388553999999996
  1.9541232600000000 15.1235948100000002 14.8921943100000007
  0.2540048200000000 15.9800141599999996 16.7857195799999985
 18.2384451600000013 17.9861290599999997 18.3644633500000012
