Li                                      
   1.00000000000000     
   -11.0705700000000018   19.1747897087477881    0.0000000000000013
   -18.9781199999999970  -10.9570226907130195    0.0000000000000076
     0.0000000000000001    0.0000000000000001   23.2203000000000017
   Li
   504
Direct
  0.9962787632041241  0.9942453379173131  0.9980498572369854
  0.9223641811070848  0.0308651535326661  0.6534439331102533
  0.8365657886255420  0.0905655753792090  0.3280051157823110
  0.7621474072195440  0.1293572634200615  0.0032917585044103
  0.7056952769431462  0.1641943057548119  0.6644418982528251
  0.6514715480418118  0.1861946965450088  0.3448588278359850
  0.5588961022003005  0.2421658002934137  0.9878977446458492
  0.4844976164460562  0.3171021488061356  0.6694552710343942
  0.4410611768312336  0.3488384438293934  0.3188272399581393
  0.3701129287421665  0.3758042785299551  0.0202980306025324
  0.2899869656846192  0.4346147151193449  0.6586065421204736
  0.2351591491918015  0.4643938666070042  0.3472001860441054
  0.0843575613119540  0.0412065358669196  0.6768921400670962
  0.0050818976165985  0.0883127484019823  0.3081705283738785
  0.9101769132464668  0.1393317219788415  0.0152719181061372
  0.8592205244968767  0.1569676552851718  0.6648078603635597
  0.8026720232509774  0.2204613122668846  0.3482278786234474
  0.6932038595358847  0.2288549154888813  0.9866773250130265
  0.6349099313136506  0.3200286451817718  0.6571243786686622
  0.5899213808467394  0.3007354858563218  0.3469112130334224
  0.5160982344425733  0.3706474276022647  0.0079903076187620
  0.4434750960148079  0.4217393554425470  0.6599137173077025
  0.3703482990875813  0.4636335432893262  0.3187240298359626
  0.2850355168721634  0.5026913771216783  0.9977050985560041
  0.1487569371279562  0.0845648807436845  0.3312192228351947
  0.0436449259323410  0.1178685034303300  0.9837978970986612
  0.9736933015105649  0.1646088156833301  0.6456041455106103
  0.9432837574653519  0.1977572627381861  0.3501797517689269
  0.8410107204041708  0.2718493116818266  0.0185893717996777
  0.7779987950668357  0.3043747278074420  0.6725277050684113
  0.7101036375005094  0.3313586010519458  0.2995570922856317
  0.6372657710246372  0.3506384696307023  0.0088065869088680
  0.5706264696638215  0.4542841316070181  0.6727814670783729
  0.4940529677069989  0.4564870697040533  0.3126929841561079
  0.4145539146075237  0.4972516776984932  0.9937599074947343
  0.3481178297357701  0.5466177855162684  0.6721071790631470
  0.1961116952486464  0.1095359213626637  0.0374619440747992
  0.1337087239363370  0.1669588806505615  0.6565419292601717
  0.0954009401774201  0.1866712184188941  0.3406800088715443
  0.9924954557681076  0.2743481315450254  0.0214501061571113
  0.9144326207662417  0.2810530627651175  0.6672464210195415
  0.8662295681332282  0.3105383272901321  0.3154177211319436
  0.7841915837545912  0.3622408177750955  0.9872446927903624
  0.7110721514801313  0.4428345764484902  0.6665734314371505
  0.6567383778183071  0.4198945578738034  0.3516977515363706
  0.5454292202778959  0.5160198969586105  0.9846638019319300
  0.4850672363778941  0.5454703445321272  0.6623234406962837
  0.4277011337795997  0.6129949857738026  0.3382795273962884
  0.2533473876237977  0.1754617723459191  0.6806649009702710
  0.2240462472465339  0.2290897853222518  0.3154827646499001
  0.1574061330557939  0.2307673107545156  0.0132488925638370
  0.0690846517843084  0.2851562982263900  0.6811327394564231
  0.0259616514046712  0.3179094315353126  0.3459283148796501
  0.9032483956135593  0.3700784560837604  0.0038929652071644
  0.8743947966362668  0.4203902481490545  0.6791556612102312
  0.8040764931606503  0.4574300060865113  0.3467301111527377
  0.7184784123574488  0.4851925634629808  0.0109350589785677
  0.6484030468106639  0.5555790063541224  0.6892685464873409
  0.5820551501487756  0.5694833970075805  0.3259193322222345
  0.4819620980100439  0.6427446620968240  0.0004094662859657
  0.3497569626445980  0.2102197104905841  0.3322389409266862
  0.2870173160027605  0.2337416157121623  0.0133690641378479
  0.2015895999681376  0.3071002271184256  0.6489704017605291
  0.1576037866162068  0.3309387593713282  0.3146214975689361
  0.0686386894882745  0.3644702917523830  0.9898445248338703
  0.0005350231998804  0.4124596155053339  0.6707666063745918
  0.9506013806460345  0.4496699358767557  0.3313263566792841
  0.8471595224221886  0.4952918074002355  0.9940386721963108
  0.7770970643106239  0.5559293572152981  0.6838870087811060
  0.7166674004570837  0.5652697114636140  0.3265009241913290
  0.6488055887090809  0.6081248039218323  0.9911624496668878
  0.5693966497954790  0.6440944762006851  0.6626998354887732
  0.4323667502714201  0.2730455469481541  0.9915510118301682
  0.3441223901293142  0.2931632164569535  0.6819099628342471
  0.3127143870985734  0.3641378633720365  0.3262370361278712
  0.2099178260471106  0.3591265347936243  0.0228464253261151
  0.1401368333292936  0.4270611507910047  0.6616167883274571
  0.1069797094996687  0.4688927848176903  0.3218982562671471
  0.9727216709917315  0.5028287201666473  0.9894774847870167
  0.9053954835539386  0.5506284864692716  0.6638242791867484
  0.8636723006388323  0.5683829656845205  0.3288571181250859
  0.8049070731218038  0.6349270872726080  0.0199916219859375
  0.7102596829359840  0.6761241578132839  0.6811196664125774
  0.6757042823829025  0.7061550850442657  0.3516061467767457
  0.1371119732255011  0.4737508563845623  0.9747085240070135
  0.0399977582808546  0.5389427676244409  0.6291645383565267
  0.0343365869992880  0.5867524148895313  0.3293174162263171
  0.9396082673530941  0.6175717196270654  0.9846038401743300
  0.8513756082141199  0.6855935341842567  0.6580609242774642
  0.7870347018244530  0.6977032535900918  0.3514984130265333
  0.6961861943970504  0.7729520933524441  0.0091742570078779
  0.1843549152199060  0.5526327563643818  0.6516959643070948
  0.1540302872545922  0.5840656141297416  0.3342218097957357
  0.0754474811123202  0.6388672381153881  0.9824301055541937
  0.9739368686964482  0.6798814155203559  0.6792292227059917
  0.9287757769010128  0.6999350129260975  0.3360116742677732
  0.8393936683610335  0.7533335739710978  0.9898922154321852
  0.7777672632432200  0.8079842786618201  0.6590673316020883
  0.3051295320350178  0.5849335564607614  0.3230589062156852
  0.1838406980702061  0.5948984189774791  0.0063541129959575
  0.1212995760093207  0.6704952357145260  0.6453731881155704
  0.0638515125554378  0.6978769910111779  0.3445004379788372
  0.9895358962840390  0.7338499615702077  0.9912354612128169
  0.9179833705272173  0.8087682198101049  0.6362257873498649
  0.8578271511521223  0.8367313930605249  0.3326426544876711
  0.3296339796371512  0.5923679217988038  0.9842107319888171
  0.2709648632484942  0.6627916502723750  0.6680037531814804
  0.2137057717728510  0.6970219254691514  0.3479831199424623
  0.1233904643812025  0.7687004685783094  0.0086653992411811
  0.0596153493354876  0.8138181701932012  0.6704415967924646
  0.0213546736257300  0.8316377808128053  0.3382373896978095
  0.9168946349860505  0.8557828094016955  0.0003202469390970
  0.4338686301319257  0.6900373018676476  0.6400113396467759
  0.3673416038460360  0.7313559952571822  0.3516889661201645
  0.2830788858624871  0.7394585843348764  0.0024489136660577
  0.2143737543226223  0.7864458321798296  0.6678939613183275
  0.1401361525012561  0.8147217877326227  0.3364168003858694
  0.0541550086890226  0.8773143886463757  0.9798834330305795
  0.0032983228230847  0.8849542160290085  0.6590181862422071
  0.9427384414401203  0.9524178254930575  0.3223770825527694
  0.8606350494618624  0.9975383905507513  0.0153818348600154
  0.7725720647692924  0.0516970688839038  0.6553885569953906
  0.7071193098365001  0.0955852045462535  0.3415548330555609
  0.6021941945754463  0.1193080302663745  0.9797675620039357
  0.5845671674330504  0.1888317743396470  0.6650427410498594
  0.4959930986385146  0.1970991321587903  0.3251285551866232
  0.0781817016237980  0.9541659858539546  0.3291222615556180
  0.1375651431454017  0.0234978413693625  0.9896640060636628
  0.1908689095121119  0.0545519406781310  0.6434166526702896
  0.2863739940546637  0.0852241535325007  0.3453807788874386
  0.3511337388111357  0.0841207440531306  0.0266749986003632
  0.4364695290924985  0.1907259283487761  0.6624096566366475
  0.8415156480794863  0.9417888590566790  0.6724638148516604
  0.7825362084384437  0.9784873089087611  0.3283070291942849
  0.7006571728937487  0.0013602644243846  0.9770073465889766
  0.6124418288992572  0.0605272378003079  0.6415768715305177
  0.5582138365122944  0.0721373059039578  0.3222739852628962
  0.4910103499483540  0.1378952757265850  0.0129921064757994
  0.1653539403153630  0.9243973311878619  0.6705205931878595
  0.2051947180858065  0.9437619753590383  0.3417472763056466
  0.2708242484849137  0.9978037813782592  0.0010698311391337
  0.3441903940105675  0.0857463584263627  0.6865683699177012
  0.3979796132934297  0.0802997363522877  0.3210303661020717
  0.7802487524109480  0.8742483454115586  0.0179098039215688
  0.6972379316665638  0.9264216487634229  0.6630080136776897
  0.6342615906269842  0.9851274105471290  0.3355808551138466
  0.5794430747449724  0.9926795219979923  0.0123039844446424
  0.4893757796049982  0.0762190520229780  0.6847478271167873
  0.2097338107584577  0.9064167033737647  0.0105122578088981
  0.2717576137710296  0.9238325521028870  0.6949248816768119
  0.3458650805164254  0.9411100823257144  0.3288282166897076
  0.4201989530426573  0.9911560063069729  0.0032934126604758
  0.7306320918883458  0.8509203694835747  0.3224328682230606
  0.6505886425567553  0.8840081225838219  0.0115417858511719
  0.5634652736337884  0.9433447362366749  0.6507352282270276
  0.4732622924087693  0.9735159253671242  0.3340258071601170
  0.3158614845739933  0.8145835749125681  0.3623319074258262
  0.3366310511204418  0.8623984590885527  0.0013989268011159
  0.3984990278482314  0.9139063056442964  0.6897835923739137
  0.6524796125661609  0.8041647890050996  0.6803377897787684
  0.5882538806874322  0.8619971559921709  0.3173353526870883
  0.5041238552843055  0.8790665762154148  0.0004347756058252
  0.3405469325600237  0.7814337160271378  0.6797115076032583
  0.4364423268041975  0.8562929046792433  0.3297208123926012
  0.5622856947600212  0.7406452064883453  0.9938705662717524
  0.5001435033002224  0.7933406816201867  0.6699990267136968
  0.4368638125280953  0.7495441826134979  0.9965972868567619
  0.5295653214248119  0.7221937262275802  0.3119157379534272
  0.9784107826947661  0.9829014233982463  0.7813038901306157
  0.9422477219623744  0.0238787770693349  0.4199682333992243
  0.8609066039523867  0.0487584843747868  0.1161358647390429
  0.7995612991161991  0.1468108942742035  0.7683193081054043
  0.7585818901780073  0.1730262019658468  0.4516461199898387
  0.6292086323570274  0.2098915182793277  0.1143434374232868
  0.5907387818909768  0.2518330310568828  0.7661330258437644
  0.4975319040120922  0.2999303803222233  0.4232719650478245
  0.4228040084458087  0.3402065556662137  0.1101278743168663
  0.3570735419480613  0.3701425461908840  0.7723070912089867
  0.2782722766011219  0.4206502236695684  0.4274941361653362
  0.2286639665953203  0.4447950461546668  0.1181456268868217
  0.0813465357009093  0.0140903373076782  0.4218352833512071
  0.9905074232159734  0.0706236637647990  0.1137243760847184
  0.9223528465290869  0.1366227744265771  0.7787713548059259
  0.8623082617480904  0.1435159940362567  0.4551000981899449
  0.7667648148189627  0.1934699635163923  0.1061786264604692
  0.6976741423644697  0.2425859168223283  0.7734705774688493
  0.6505438312746605  0.2802415243346417  0.4515779753060869
  0.5521493266505928  0.3072951988322217  0.1074987717643623
  0.4736738255818764  0.4129691827603637  0.7719049146651855
  0.4154869615903181  0.3983263335687113  0.4358895169313044
  0.3781874604709614  0.4960439061263173  0.1273379159614620
  0.2669541939994886  0.5126034927872283  0.7717144166957368
  0.1476203325984926  0.0851458676910610  0.1195413806023211
  0.0735196052963900  0.1058722577997173  0.7751313889140121
  0.0002533027971907  0.1558120226688686  0.4284047759934211
  0.9378961889502833  0.1971615422124344  0.1242641899544807
  0.8550296583117927  0.2797166492562582  0.7747283368431965
  0.7949361289812060  0.2908015840654699  0.4372379418009231
  0.7220778889765285  0.3416402612394194  0.1200829674896511
  0.6156927736090836  0.4179801519468995  0.7891467474580409
  0.5766423651996746  0.4125535227457462  0.4409425033268306
  0.4919323941480940  0.4769885028293572  0.1143992799404003
  0.4098502085328875  0.4961668725312123  0.7666305758323517
  0.3672952301664623  0.5458945023941340  0.4323715697040953
  0.2102695512162427  0.1132259767770449  0.7897690555246939
  0.1361601196479469  0.1616975113567136  0.4477736105907297
  0.1009287265200243  0.1914376328134324  0.1005730770058975
  0.9809670853194206  0.2358291450510066  0.7719643979621296
  0.9109994519233240  0.2733307523359088  0.4571558610353890
  0.8592951052196867  0.3430716734327746  0.1132965052131141
  0.7669143931153215  0.3760678780094864  0.7710372139894801
  0.7330836174185222  0.3952956487531409  0.4624548520044982
  0.6334337605686571  0.4590501284248063  0.0965261796789889
  0.5638744741399648  0.5425679020271943  0.7744222619862811
  0.5173080679765789  0.5460968948399767  0.4171395636576634
  0.4182582089197169  0.6060630188912128  0.0781095059064683
  0.2796359064156562  0.1629293988820848  0.4438737595982829
  0.2358630404755147  0.2439136147312269  0.1214567813508012
  0.1583757040666285  0.2398091666524991  0.7862548037708379
  0.0715163629069551  0.2778397148027878  0.4393934083538937
  0.0058056547390066  0.3299782066303720  0.1094789666800153
  0.9261037346651761  0.4027822133134222  0.7795169842766896
  0.8773146915497776  0.3993215495091036  0.4406861590935520
  0.8078364076615898  0.4469775014824364  0.0791828395843268
  0.7280306846812863  0.5331607905887381  0.7717878662205067
  0.6825850022783797  0.5190325654662828  0.4402484080739697
  0.5629132876326395  0.5826922253275200  0.0918620879144569
  0.4851951598817905  0.6391176185453276  0.7899016218567354
  0.3767393979107894  0.1966917857865127  0.1117761510402531
  0.2778332989372245  0.2234789313053440  0.7868386928678817
  0.2083367451519820  0.2703844210713626  0.4274062910470562
  0.1512495230023418  0.3376175199722624  0.1368522951899820
  0.0836453965740063  0.3706927715732462  0.7671275556302035
  0.0156816601308236  0.4112496086970410  0.4492558196922545
  0.9151350489956300  0.4532934137122382  0.0960950340865523
  0.8595795725275792  0.5047726382678235  0.7667130381605745
  0.7901859524393586  0.5303469996239585  0.4616671653682332
  0.7282784633782171  0.5844841829263885  0.1238667011192760
  0.6556028701869110  0.6299825448144958  0.8125135131759720
  0.5969707562232642  0.6612002582593774  0.4618509317278381
  0.4212179019286779  0.2669469447682644  0.7841310435265711
  0.3450650940986435  0.2844135768571618  0.4487541909449888
  0.3153875199805896  0.3252346493187162  0.1316138266947462
  0.2165146906075961  0.3572879806640614  0.7773333910414593
  0.1171300262067518  0.4068880339979017  0.4432180953734459
  0.0758328890586739  0.4542007049894181  0.0925708879730252
  0.0052720125339221  0.5267938703202617  0.7738394870006005
  0.9451956981177361  0.5236122108137522  0.4277991309328470
  0.8749361476347630  0.5803637237028241  0.1107461062087935
  0.7818276006586018  0.6178153146347967  0.7823738724305898
  0.7379452870732663  0.6493372485412294  0.4573160622386467
  0.6780960979039605  0.6982986287064961  0.1043126682256457
  0.1487717685339618  0.4955393823213754  0.7577738250582442
  0.0832559456279114  0.5380403578441886  0.4524114098439753
  0.0269387224520088  0.5932179908960649  0.1100265065481523
  0.9270845800431360  0.6456233426025264  0.7711168253640110
  0.8956238829421608  0.6570070033394799  0.4551287687928252
  0.8175216140739821  0.7096866741743142  0.1183853658221494
  0.7151665687282005  0.7360610860946508  0.7939409133387585
  0.1973670073676814  0.5368237027295422  0.4178537305719559
  0.1340289063929134  0.5734843061248327  0.0983965366511228
  0.0794149579696466  0.6202551980254043  0.7569754615573459
  0.0175068900682760  0.6400457662833219  0.4431218575987401
  0.9519380106751072  0.7175573047889046  0.1177214997222222
  0.8276335790719074  0.7464750822807531  0.7766298105536933
  0.8014383683143436  0.7927898391879822  0.4505409249665178
  0.2447847905616740  0.5861817114209202  0.1263776040791882
  0.2007674349217154  0.6410845704410519  0.7710913390438563
  0.1426024510069226  0.6726940025648602  0.4543042161384676
  0.0933601665925536  0.7170019122297404  0.1238060154261547
  0.9856457398531902  0.7791399981533189  0.7699445829726557
  0.9435016995794712  0.7657404895577926  0.4413162336403929
  0.8949281869354451  0.8330025762066029  0.0992709865936234
  0.3398022266568788  0.6315368283918090  0.7682467534872472
  0.2910410946711082  0.6521356255818205  0.4401178649715973
  0.2125109950598087  0.7193058318432364  0.0853638863408293
  0.1404539194024181  0.7502558706279245  0.7474451570393157
  0.0823587799276879  0.7792453494706493  0.4403585069960343
  0.0011367600780190  0.8571360349699049  0.1158404663161079
  0.9304667492388532  0.8845491107590675  0.7769095554320984
  0.4386678383489340  0.6992729136926883  0.4503341683785322
  0.3269951545540266  0.6945085831393669  0.0950733216194450
  0.2504042985853161  0.7408233957952817  0.8031324797698574
  0.2400325428814796  0.7837526657936920  0.4766681399465114
  0.1515793951017770  0.8228210600400914  0.1217165639548128
  0.0618133902141622  0.9106328543974200  0.7753359241698021
  0.0155763891973493  0.8921489543244263  0.4170109516242277
  0.9388038004377961  0.9556772863164156  0.1302301232111560
  0.8414551054565251  0.9959805994053212  0.7905535716592809
  0.7856153693973553  0.0159378268242989  0.4525435145110066
  0.6996646993866875  0.0680398068360191  0.1036146518348176
  0.6602544094856810  0.1176279964495990  0.7566693535397917
  0.5820256226173655  0.1412426069084205  0.4435692691308901
  0.5025583169387033  0.1988533386472398  0.1037547486466579
  0.1013647615565603  0.9668522230681873  0.0769847094998752
  0.1393915858550372  0.9882068087555993  0.7660463241215680
  0.2088114813058795  0.0224720957291638  0.4349104714409364
  0.3045407237137709  0.0827114582622528  0.1572804640766918
  0.3398620963601360  0.1467231238867868  0.7978967963376888
  0.4143104530347728  0.1745402820693940  0.4509544876681204
  0.8587850235359227  0.8860756261417890  0.4157341266047396
  0.7775838205492533  0.9385619415275102  0.0770198412595846
  0.7096723039934787  0.0133648086100635  0.7770489860165455
  0.6401034664968250  0.0460413121481125  0.4123220234019342
  0.5622119714489386  0.0821719056069057  0.1363971262214534
  0.5176539506296649  0.1125319222229422  0.8194962218403745
  0.1094821842364269  0.8855645957374989  0.4335982007123107
  0.2212514506879231  0.9506828509651015  0.1375132388470419
  0.2618962262630404  0.9960059318003687  0.7968056730533206
  0.3639524957197366  0.0408222600268076  0.4560018931710630
  0.4120983341297446  0.0540466724382256  0.1352232878128206
  0.7847100895438643  0.9112983564229964  0.7631542865509928
  0.7248219314635946  0.9069588657989840  0.4108867008608854
  0.6509886494200501  0.9507498423126179  0.1230118697863531
  0.5655979396475317  0.9977027575585069  0.7561794989728838
  0.5175367286569283  0.0181007901642758  0.4599606309995963
  0.2021293867838310  0.8966617623111546  0.7759262916499807
  0.2442091563509052  0.9112031671196306  0.4718018483826683
  0.3550563303696208  0.9163303146307413  0.0876398991399796
  0.3972543305317373  0.9959881819719385  0.7877666218782693
  0.7255728747932295  0.8181022687969275  0.1126770838447371
  0.6358205723862369  0.8514655058540086  0.7980219260733037
  0.5666958902064039  0.9094092122274304  0.4575319044112263
  0.5039037207564050  0.9465713772547417  0.0985051472203224
  0.2646944113233971  0.8286670202757449  0.1014509347424450
  0.3321882289336529  0.8745238468517442  0.8095355744757811
  0.3880478076892402  0.9064524268805201  0.4561890892882516
  0.6756303314166558  0.8047650000067819  0.4390713759081493
  0.5726982296431515  0.8188721264202883  0.1020979276753522
  0.4835059240641328  0.8809187412785562  0.7630802590836439
  0.3588835007108955  0.7772663648209104  0.4630472534807879
  0.4284782996119176  0.8112808908714513  0.0917535208416780
  0.5847270289365909  0.7323762525089634  0.7740457263687404
  0.5357897946072399  0.8153416810260907  0.4327602912107054
  0.3938149256466659  0.7681493550775187  0.7670005469352219
  0.5106813339216174  0.7176133223484413  0.1096862710645397
  0.9917935193870093  0.0090881403468686  0.2298646748750031
  0.9263442771635582  0.0498470704981031  0.9148504592963889
  0.8375734970745157  0.0680347173741040  0.5501432836785085
  0.7620500282996261  0.1162461533706747  0.2104668031851418
  0.7017531567854647  0.1691668002460460  0.8765781880509707
  0.6619644487299254  0.2246948745620685  0.5632072165303654
  0.5810415749704987  0.2181249724092211  0.2313758202951703
  0.5097886049772100  0.2861800659600391  0.8762083978243140
  0.4277725933571830  0.2829914839382255  0.5245946800859613
  0.3746501777255418  0.3908246339456696  0.2155309634242428
  0.2937091096480628  0.4110081890094222  0.8915283135876777
  0.2158033210470123  0.4790665865805792  0.5533759723173262
  0.0626188395064489  0.0268792406163030  0.8813988936404797
  0.9912188253983487  0.1189996078700020  0.5385975284557034
  0.9253527067657643  0.1198758198947090  0.2312150829231285
  0.8454722936657504  0.1620288152837475  0.8873584402440997
  0.7998985452079381  0.2101837522566683  0.5729686270203231
  0.7081199348895240  0.2684501495622413  0.2402981550625967
  0.6204619395885942  0.2926423531650499  0.8763959966064192
  0.5573383561500478  0.3616897260927843  0.5508007463297204
  0.5130162161340905  0.3640856922683824  0.2406600190350687
  0.4411615248085781  0.4133518824994198  0.8966270668337586
  0.3669188707130289  0.4370022524596990  0.5414936426316643
  0.2950144201767912  0.4916840477572819  0.2309851535079233
  0.1107278196109718  0.0753159876768308  0.5429798456522974
  0.0837900822389912  0.1332041292429125  0.2203256555686153
  0.0112864023787225  0.1764539360283379  0.8852481858546213
  0.9316076100725894  0.2304858231562790  0.5713946421880820
  0.8534718324901078  0.2086016726308983  0.2127654410149731
  0.7751897633783500  0.2691760928498965  0.9011912335327281
  0.7077909676938603  0.3454458843540564  0.5600116036399214
  0.6272124815141851  0.3707064218438703  0.2261744490811921
  0.5773392842460012  0.4074997544543280  0.8692338910350017
  0.5000815277558601  0.4620564102909981  0.5527279570031425
  0.4334414768239725  0.5422544314145341  0.2118335094723136
  0.3603023172717386  0.5278940482766998  0.8601315521332609
  0.2457327158140004  0.1741632452682893  0.2340377768590400
  0.1599118803582797  0.1586628372389924  0.9069839476664825
  0.0840883602561107  0.2387589182489904  0.5427443637679090
  0.0249850209662554  0.2323386703446673  0.2308386433422456
  0.9194243612470885  0.3026278108215621  0.9005479222921338
  0.8373691190074908  0.3527794798530763  0.5571283575147632
  0.8051922096202588  0.3788574690192874  0.2328416588071676
  0.7261728485853780  0.4086291659888417  0.8779156763693834
  0.6646062215002928  0.4715531529174370  0.5496428650792637
  0.5636434910964994  0.4900722672620788  0.2298398048259500
  0.4928249347649540  0.5350207034173664  0.8770531840673925
  0.4468724668130264  0.6088052618001001  0.5539828628398453
  0.2830457207263066  0.2025107974603912  0.9095231629220990
  0.2170324734907112  0.2012149396224672  0.5460659883808532
  0.1407083234527633  0.2761899585224228  0.2194860897576660
  0.0580390303379943  0.2777706022467541  0.8853025081501968
  0.0042779867770477  0.3463960833805260  0.5702273484838685
  0.9585150053730302  0.3569040688417786  0.1996436673944757
  0.8694108052723521  0.4189519289305821  0.8807564678320290
  0.8008937923336035  0.4896837241731760  0.5507668518494597
  0.7254839467503515  0.4664887388015231  0.2102276318566112
  0.6539371143270145  0.5272212500629578  0.8871490816225460
  0.5722190190327510  0.5712526042867552  0.5798463275668269
  0.5294329699821319  0.6120891608602363  0.2067709728125848
  0.3479343532667230  0.1808917451652761  0.5764636447418852
  0.3096786164882062  0.2550674628816836  0.2227482978256106
  0.2127068377244399  0.2972292204650913  0.9174540475359905
  0.1517322888201633  0.3483172261191427  0.5653399990525543
  0.0875679455034160  0.3961815543135074  0.2334069051648768
  0.0193578452028405  0.3985564065161782  0.8893592205957717
  0.9277262929966454  0.5000949062678544  0.5432195514269864
  0.8676691877199048  0.4648403398494523  0.2029362519002760
  0.7817457604698745  0.5318852171087016  0.9147549562236463
  0.7279001305093331  0.6347632343028309  0.5731953734447899
  0.6594559372143962  0.6313732811865691  0.2292146023091846
  0.5613262420662295  0.6436874202696998  0.8934140286731846
  0.4193227722000898  0.2462337227167311  0.2032967881551926
  0.3498225580394845  0.2908127888138949  0.9044977218209951
  0.2918198650829495  0.3417192554483108  0.5549014224622439
  0.2492299145384038  0.3755216609974283  0.2469095192568602
  0.1630728101416707  0.4022515628644925  0.8807662566805803
  0.0558773867289730  0.4581699656657179  0.5415894363983256
  0.0112927393983071  0.4933721289568851  0.2103362320900217
  0.9085939783819867  0.5627193463179552  0.8779155127194755
  0.8671937600986013  0.6036636861430580  0.5574642545531248
  0.8015845196242353  0.6152612263271351  0.2340680809464146
  0.7218799051025613  0.6443705598325238  0.9211652287007510
  0.6623382611435957  0.7251097572536978  0.5915719116462768
  0.1677669973771572  0.5023684106669322  0.2106614307308661
  0.0656506011328375  0.5379812059685989  0.8742932434120121
  0.0101648586917307  0.5931012429214846  0.5382732708018381
  0.9226608594936323  0.6309100563551908  0.2349854114718610
  0.8642305690033396  0.6548203178032779  0.8631814123848542
  0.7993113485381329  0.7671496251585594  0.5474423091002265
  0.7130265475769733  0.7422877889480475  0.2387604260065572
  0.2367617286768180  0.5243164343655877  0.8938323307623079
  0.1275854227083002  0.5829906490699912  0.5121591826979000
  0.0742466602005081  0.6094769888157501  0.2337593209390079
  0.0112327449061382  0.6760857451225135  0.8801350740515872
  0.9321953671567584  0.7419841440677715  0.5556569066721764
  0.8490624942037357  0.7843485167942319  0.2370276779369789
  0.7859681996567289  0.7980679581500283  0.8878565849709119
  0.2686902534438502  0.5747075327235862  0.5564139080890413
  0.2192942768233266  0.6272740712898823  0.2270851543692345
  0.1247736591861681  0.6754589823345682  0.8822220010077402
  0.0665229921370525  0.7151806358552548  0.5726452759008254
  0.0109231721306173  0.7667972253471831  0.2278034220057421
  0.9135087553348669  0.7908356791111260  0.8834789434245067
  0.8614854488437160  0.8619879200149541  0.5649415386536774
  0.3559593463813115  0.6109928801552229  0.2240951008384897
  0.2564361614469703  0.6409310218383055  0.8973427358819634
  0.2287394246069852  0.6983317303362284  0.5461622515643612
  0.1526224206861713  0.7436014820342720  0.2334320400683865
  0.0445074809284236  0.7894104503954154  0.8644337652829606
  0.0026383328661339  0.8405566563664948  0.5352058931193824
  0.9574001607604359  0.8710526307289825  0.2364988286111753
  0.4090378448893546  0.6620327833053636  0.8910231198563352
  0.3504507370017436  0.7057665903930754  0.5681130334233373
  0.3173302945040319  0.7410580469283872  0.2162316292209852
  0.2207833175903460  0.8005486137606823  0.9004464231728235
  0.1303074300114488  0.8178803203129803  0.5918951042837506
  0.0959357155971361  0.8963523786856555  0.2155883550169477
  0.9827495459894635  0.9261956315301703  0.9084946215165175
  0.9442549525494925  0.9659993919289249  0.5556192254191359
  0.8627171621240279  0.9849090092435162  0.2324549743112740
  0.7728500960422551  0.0539613182052534  0.8894567735989654
  0.7014320733918424  0.1093748006267461  0.5243753465717518
  0.6306398641492521  0.1160237678518854  0.2339610487375268
  0.5787173947792823  0.1536731394299480  0.8947201263549545
  0.5192214310279724  0.2134848542587306  0.5483651429998773
  0.0704136244801887  0.9643625143712029  0.5493144756958372
  0.1683474416190336  0.0336178669560283  0.2300266159351949
  0.2077573853014272  0.0545831427456207  0.8924868386713314
  0.2716137864004722  0.0825552206798434  0.5519520225836843
  0.3345086579949808  0.1219998443502561  0.2469318647907244
  0.4356252568584651  0.1639592399131402  0.9240796535789784
  0.8619795230129128  0.9311969368893713  0.8875947141079124
  0.7798968096800323  0.9713248206703611  0.5332281981714289
  0.7296828787208085  0.9639660911259753  0.2344321890759389
  0.6126594186578984  0.0451950287799008  0.8539802280762956
  0.5553152824500316  0.1049073945979444  0.5682149197038768
  0.4647205731898936  0.1074576303691401  0.2237356334758829
  0.1366579655865579  0.9165908491418762  0.9003139632132218
  0.1879647054420843  0.9573738985143976  0.5620239152810242
  0.2918537518064426  0.9945467043555496  0.2415732759697349
  0.3523603929137735  0.0404442692437712  0.9055282373612741
  0.4193823298534411  0.0811510012896122  0.5451205204067122
  0.8186367320482901  0.8523257410791061  0.2220448749585486
  0.7154956244932578  0.9075351733656305  0.8666139985271499
  0.6539002622598602  0.9917153049740364  0.5221949281447706
  0.5496076418649025  0.9907881311847362  0.2187956550948940
  0.4792627487049685  0.9952112138646640  0.9057239953833474
  0.2244093747917191  0.8499243675196553  0.2329123870061949
  0.2790375554978155  0.9477470760661504  0.8946819046265517
  0.3286831387688167  0.9604970231213699  0.6001648815906790