Li 
 1.0000000000000000
   -11.0705700000000018   19.1747897087477881    0.0000000000000013
   -18.9781199999999970  -10.9570226907130195    0.0000000000000076
     0.0000000000000001    0.0000000000000001   23.2203000000000017
 Li 
 504
Cartesian
  0.1504088800000000 -0.0082999700000000 -0.0452829000000000
 -10.7968598199999999 17.3479490200000015 15.1731641600000007
 -10.9800244800000009 15.0486440100000003  7.6163771899999997
 -10.8923638900000004 13.1966457899999998  0.0764356200000000
 -10.9285481999999998 11.7324777999999998 15.4285402099999995
 -10.7457866699999993 10.4516904200000003  8.0077254399999998
 -10.7831500400000007  8.0632990600000003 -0.2810180000000000
 -11.3816674100000004  5.8156444699999996 15.5449522299999998
 -11.5030964800000000  4.6350245699999997  7.4032641600000000
 -11.2294197800000006  2.9791415699999999  0.4713263600000000
 -11.4584912200000009  0.7983557900000000 15.2930414900000002
 -11.4166683500000001 -0.5792469000000000  8.0620924800000004
 -1.7159088700000000  1.1660375500000000 15.7176385599999993
 -1.7322694400000000 -0.8702004700000000  7.1558121200000002
 -12.7204313700000000 15.9257900699999997  0.3546185200000000
 -12.4910119599999998 14.7554747099999997 15.4370379599999996
 -13.0699780600000004 12.9754676500000006  8.0859558099999997
 -12.0173979000000006 10.7844697299999996 -0.3093565100000000
 -13.1023568699999995  8.6677032900000004 15.2586252099999999
 -12.2381600800000001  8.0164528799999992  8.0553824400000007
 -12.7476929899999991  5.8348828399999997  0.1855373400000000
 -12.9133421899999998  3.8825340200000000 15.3233944900000001
 -12.8988597899999995  2.0213074999999998  7.4008675899999998
 -12.6956429199999992 -0.0425047300000000 -0.0532883000000000
 -3.2517065399999998  1.9258036700000001  7.6910097200000003
 -2.7200968099999998 -0.4546055900000000 -0.3762176900000000
 -2.8327357100000001 -2.3080479399999998 14.9911219399999993
 -14.1957499299999998 15.9204368699999996  8.1312788900000008
 -14.4696569099999994 13.1475446300000005  0.4316507900000000
 -14.3893502299999998 11.5829224899999996 15.6162950699999996
 -14.1498153200000001  9.9853842099999994  6.9558055500000000
 -13.7093542799999994  8.3774834800000004  0.2044915900000000
 -14.9386190400000007  5.9640410199999998 15.6221875000000008
 -14.1327143500000005  4.4716225800000000  7.2608249000000002
 -14.0262501400000001  2.5005862200000002 -0.1448968200000000
 -14.2276407299999992  0.6857827000000000 15.6065303300000000
 -4.2498541100000002  2.5602129400000000  0.8698775800000000
 -4.6487974599999999  0.7344644200000000 15.2451005599999991
 -4.5988115699999996 -0.2160678100000000  7.9106920100000000
 -5.1235321799999998 -3.1499367600000001  0.4980779000000000
 -15.4571490899999997 14.4545484200000001 15.4936620699999992
 -15.4830887100000005 13.2071943100000002  7.3240941099999999
 -15.5560975300000006 11.0676278499999992 -0.2961820600000000
 -16.2761417600000016  8.7825104700000001 15.4780350500000008
 -15.2392774899999992  7.9920260900000004  8.1665273000000003
 -15.8312998900000004  4.8044488799999998 -0.3561111200000000
 -15.7219724500000009  3.3243313099999998 15.3793489900000004
 -16.3683877399999993  1.4844793300000001  7.8549521100000002
 -6.1346345600000003  2.9353442599999999 15.8052431999999996
 -6.8280130999999997  1.7858977000000000  7.3256044400000002
 -6.1221053300000001  0.4897068400000000  0.3076432600000000
 -6.1765369200000002 -1.7997803600000000 15.8161065500000007
 -17.3913036199999986 16.1892580600000002  8.0325592500000003
 -17.0228679400000011 13.2646400000000000  0.0903958200000000
 -17.6582653799999996 12.1601108599999996 15.7701981999999994
 -17.5827466500000007 10.4059267099999992  8.0511771999999997
 -17.1620082499999995  8.4604065399999993  0.2539153500000000
 -17.7220363700000014  6.3455002900000004 16.0050224300000004
 -17.2514065300000006  4.9209426000000001  7.5679446700000002
 -17.5336804700000002  2.1989540299999999  0.0095079300000000
 -7.8615838299999998  4.4031340700000001  7.7146878799999996
 -7.6134217199999998  2.9423844899999998  0.3104336800000000
 -8.0598967399999992  0.5005340300000000 15.0692874200000002
 -8.0253592400000002 -0.6040840300000000  7.3056055600000001
 -7.6768303500000004 -2.6773768200000001 -0.2358131800000000
 -18.9042010900000008 14.6657192999999992 15.5754018300000006
 -19.0575891300000002 13.3005378800000003  7.6934974000000000
 -18.7782461500000011 10.8171821200000000 -0.1384238200000000
 -19.1534015000000011  8.8093422100000005 15.8800615100000009
 -18.6616730400000002  7.5482736399999997  7.5814494100000003
 -18.7237131900000016  5.7774734499999996 -0.2052105700000000
 -18.5272477299999991  3.8607032299999999 15.3880889900000000
 -9.9684375299999992  5.2987752600000002 -0.1961880400000000
 -9.3733177100000002  3.3862784499999998 15.8341539099999995
 -10.3725785800000008  2.0063657799999999  7.5753218499999999
 -9.1394564599999999  0.0901725800000000  0.5305008500000000
 -9.6562123900000003 -1.9922244099999999 15.3629403100000008
 -10.0830298999999997 -3.0863554500000001  7.4745740800000000
 -20.3113271399999995 13.1422277899999997 -0.2443359600000000
 -20.4731375699999987 11.3275191799999995 15.4141989099999996
 -20.3481847900000012 10.3329496899999995  7.6361609399999999
 -20.9605025500000011  8.4770133600000008  0.4642114600000000
 -20.6945449400000001  6.2107723200000002 15.8158029899999999
 -20.8819274999999998  5.2191302300000002  8.1644002100000002
 -10.5088083000000001 -2.5618056299999998 -0.5872756600000000
 -10.6709185000000009 -5.1382595300000000 14.6093893300000008
 -22.5861533299999984 13.4041270200000007  7.6468492000000001
 -22.1223492999999998 11.2500435900000006 -0.3575034500000000
 -22.4364896300000005  8.8128843400000001 15.2803720799999994
 -21.9540188299999990  7.4464745199999998  8.1618986000000007
 -22.3763555799999985  4.8799702500000004  0.2130290000000000
 -12.5288447600000001 -2.5202429199999998 15.1325757999999997
 -12.7896703899999995 -3.4461218200000001  7.7607306899999999
 -12.9597457299999999 -5.5533932400000001 -0.4079782200000000
 -23.6849073700000012 11.2255585500000006 15.7719063199999994
 -23.5655279200000010 10.1398763899999995  7.8022918800000003
 -23.5894213300000004  7.8409040100000000 -0.2347057900000000
 -23.9443495300000002  6.0604216400000004 15.3037411599999995
 -14.4788970700000004 -0.5583356400000000  7.5015247199999999
 -13.3252749000000001 -2.9932087500000000  0.1475444100000000
 -14.0675944899999994 -5.0207376500000001 14.9857590399999996
 -13.9512659200000009 -6.4223147000000003  7.9994035200000004
 -24.8818190399999999 10.9333320399999998 -0.2035152200000000
 -25.5114994899999985  8.7404463499999991 14.7733536500000007
 -25.3762243100000013  7.2805703700000004  7.7240622300000004
 -14.8912655500000000 -0.1699265200000000 -0.3666315400000000
 -15.5782749599999999 -2.0665288799999999 15.5112475500000002
 -15.5940104500000007 -3.5395218200000000  8.0802724399999999
 -15.9544925099999997 -6.0566822699999996  0.2012131700000000
 -16.1047147899999992 -7.7739123699999997 15.5678550100000006
 -27.0899000100000009 10.4719870499999992  7.8539736600000003
 -26.3916950899999989  8.2044301500000003  0.0074362300000000
 -17.8987837600000006  0.7585853700000000 14.8612553100000007
 -17.9464427800000017 -0.9697862300000000  8.1663233000000002
 -17.1673783700000016 -2.6742863799999999  0.0568645100000000
 -17.2985030299999991 -4.5065331700000000 15.5086981500000007
 -17.0132749399999987 -6.2398438599999997  7.8116990299999998
 -17.2493045599999988 -8.5743427600000004 -0.4671127200000000
 -27.9018516199999986  9.5415709300000007 15.3025999899999992
 -28.5117516900000005  7.6411476399999998  7.4856925700000003
 -9.4810038399999996 16.5294680000000014  0.3571708200000000
 -9.5339262999999992 14.2474609200000000 15.2183189100000007
 -9.6422413000000002 12.5115348100000006  7.9310056900000001
 -8.9308750999999997 10.2396862500000001 -0.4698032800000000
 -10.0551638200000006  9.1399184699999996 15.4424919599999999
 -9.2314972999999991  7.3509437000000002  7.5495825900000000
 -18.9737925800000014 -8.9557006700000006  7.6423176499999999
 -1.9688694000000000  2.3803163100000000 -0.2400048800000000
 -3.1483208999999999  3.0621443500000001 14.9403276999999992
 -4.7877175599999999  4.5573581299999999  8.0198453000000001
 -5.4837042100000000  5.8112026999999999  0.6194014700000000
 -8.4515860299999996  6.2794231099999998 15.3813509499999999
 -27.1894398700000011  5.8166836899999996 15.6148115199999999
 -27.2329714400000000  4.2836595900000001  7.6233877100000003
 -7.7824895400000003 13.4200494999999993 -0.5338963100000000
 -7.9287733200000003 11.0802449599999999 14.8976074300000008
 -7.5487757999999996  9.9132228300000005  7.4832986200000002
 -8.0527575400000000  7.9040985399999997  0.3016806100000000
 -19.3738858500000006 -6.9580155000000001 15.5696893299999992
 -20.1824505099999989 -6.4062558100000002  7.9354742800000002
 -2.9564987000000000  5.2170620300000001  0.0248418000000000
 -5.4376885300000000  5.6602536299999997 15.9423235200000004
 -5.9297991999999997  6.7513293599999997  7.4544214100000001
 -25.2293884400000010  5.3819467899999998  0.4158710200000000
 -25.3005625499999987  3.2185676900000000 15.3952449799999993
 -25.7175035500000000  1.3677692299999999  7.7922881300000002
 -6.2758362099999996 11.1909097499999994  0.2857022100000000
 -6.8641631399999996  8.5485437799999993 15.9000499699999995
 -19.5239578000000016 -5.9100266699999997  0.2440977800000000
 -20.5411167200000015 -4.9115591399999996 16.1363642300000016
 -21.6894236599999992 -3.6798743400000000  7.6354898400000000
 -4.4839995500000001  8.1541303999999997  0.0764740300000000
 -24.2373826000000001  4.6861629200000001  7.4869879299999997
 -23.9791993400000010  2.7888033499999998  0.2680037300000000
 -24.1407913600000015  0.4680784500000000 15.1102672200000008
 -23.7147853899999994 -1.5921311499999999  7.7561794500000003
 -18.9560315099999990 -2.8688331699999998  8.4134555899999999
 -20.0933990599999994 -2.9944898700000002  0.0324835000000000
 -21.7558349200000016 -2.3725570700000000 16.0169819500000017
 -22.4848570899999984  3.6999075200000000 15.7976475799999996
 -22.8713912300000004  1.8347220600000000  7.3686220899999997
 -22.2639694000000006  0.0345164900000000  0.0100956200000000
 -18.6001914900000003 -2.0322711400000002 15.7831051200000001
 -21.0824948300000017 -1.0137309500000000  7.6562161800000004
 -20.2808767500000009  2.6664436199999999 -0.1423272900000000
 -20.5929883199999999  0.8974946499999999 15.5575784000000006
 -19.0612708600000005  0.1639991200000000 -0.0790120200000000
 -19.5684691599999994  2.2412106299999999  7.2427770100000002
  0.5635037800000000 -0.2266192100000000 18.1421107200000016
 -10.8843936600000006 17.8057616199999984  9.7517883699999999
 -10.4560711899999994 15.9734552700000005  2.6967096200000000
 -11.6377941000000007 13.7228094699999996 17.8406048300000002
 -11.6816459399999992 12.6497962000000008 10.4873583999999997
 -10.9490446299999995  9.7651570799999998  2.6550889199999999
 -11.3191325200000001  8.5679516800000002 17.7898387000000007
 -11.2000765199999996  6.2537256499999998  9.8285020099999993
 -11.1371622099999996  4.3795270000000004  2.5572022799999998
 -10.9776173000000004  2.7911497999999999 17.9332023499999984
 -11.0637831400000000  0.7267383400000000  9.9265420899999999
 -10.9728142099999992 -0.4890459400000000  2.7433768999999999
 -1.1679606300000001  1.4054145700000000  9.7951418300000004
 -1.2352161300000000 -0.9558432500000000  2.6407141300000001
 -12.8038151599999992 16.1889430300000008 18.0833044899999997
 -12.2699077299999999 14.9620715799999999 10.5675608099999998
 -12.1602197400000005 12.5826992999999998  2.4654995600000000
 -12.3274750700000002 10.7197355699999992 17.9602188500000004
 -12.5203483000000002  9.4034284199999991 10.4857760599999992
 -11.9444929299999991  7.2203067599999997  2.4961537300000001
 -13.0812179499999992  4.5576832899999999 17.9238636900000010
 -12.1591624500000002  3.6024044399999999 10.1214853500000004
 -13.6007315299999991  1.8165006900000000  2.9568246100000000
 -12.6835856899999992 -0.4978175700000000 17.9194402699999991
 -3.2501497200000000  1.8976436299999999  2.7757867200000002
 -2.8231603500000002  0.2496782400000000 17.9987833899999998
 -2.9598234699999999 -1.7023788399999999  9.9476874199999994
 -14.1248008200000008 15.8236586999999993  2.8854517700000000
 -14.7741618199999998 13.3301522200000004 17.9894244000000008
 -14.3192634200000004 12.0564135500000003 10.1527961799999993
 -14.4775036900000007 10.1023315799999995  2.7883625300000001
 -14.7485474300000003  7.2259614499999998 18.3242242200000014
 -14.2132499299999999  6.5366377800000004 10.2388172100000006
 -14.4983170500000007  4.2063263600000003  2.6563856000000001
 -13.9535898700000001  2.4222798800000001 17.8013919600000001
 -14.4262189299999992  1.0614303500000000 10.0397975600000002
 -4.4766199599999998  2.7912548300000002 18.3386743999999986
 -4.5760849099999996  0.8391183600000000 10.3974375699999992
 -4.7504648999999999 -0.1622993800000000  2.3353370199999999
 -4.2648885999999999 -2.9489374300000000 17.9252449100000000
 -15.2725870199999996 14.4733316599999995 10.6152962399999993
 -16.0237419999999986 12.7177588299999993  2.6307788400000001
 -15.6272407900000001 10.5848379399999999 17.9037154200000010
 -15.6176217600000005  9.7254608099999995 10.7383404000000002
 -15.7243812100000007  7.1161364799999998  2.2413668499999999
 -16.5393305899999987  4.8672456500000001 17.9823172500000013
 -16.0907875800000006  3.9356773500000002  9.6861058100000008
 -16.1322934800000013  1.3793669500000001  1.8137261600000001
 -6.1878225599999999  3.5767385799999998 10.3068818600000007
 -7.2401601500000003  1.8500571900000000  2.8202628999999999
 -6.3044364599999998  0.4092263400000000 18.2570724200000001
 -6.0646023500000004 -1.6729848400000000 10.2028467599999999
 -17.3972079099999988 15.6705332199999994  2.5421344499999998
 -17.8965454000000008 13.3445505099999995 18.1006182299999985
 -17.2907459900000013 12.4469494399999991 10.2328648199999996
 -17.4260021599999995 10.5925506100000000  1.8386492900000000
 -18.1781041200000004  8.1179804000000004 17.9211457900000006
 -17.4068673599999997  7.4013722800000004 10.2227001099999999
 -17.2901739300000017  4.4091719800000000  2.1330652400000001
 -17.5006378399999996  2.3006889099999999 18.3417526299999984
 -7.9035601900000003  5.0687423699999998  2.5954757599999998
 -7.3169829599999998  2.8787313600000002 18.2706304999999993
 -7.4377945099999998  1.0322050400000000  9.9245023000000003
 -8.0817642400000000 -0.7991050300000000  3.1777513499999999
 -7.9610541200000000 -2.4578062200000002 17.8129319799999983
 -19.0489193400000012 14.9694109500000003 10.4318549100000002
 -18.7337234200000005 12.5807759000000008  2.2313555200000001
 -19.0956715300000006 10.9514522900000006 17.8033067600000017
 -18.8127978999999996  9.3406253600000007 10.7200500800000000
 -19.1548686699999990  7.5603799299999999  2.8762219600000001
 -19.2137817999999996  5.6683141299999997 18.8668075299999991
 -19.1571443899999991  4.2020024800000000 10.7243171900000007
 -9.7292734200000002  5.1518209600000002 18.2077580700000006
 -9.2177022700000002  3.5002246000000001 10.4202069399999999
 -9.6638618199999993  2.4838859400000000  3.0561125400000000
 -9.1775952099999998  0.2368111500000000 18.0499145399999996
 -9.0186660900000000 -2.2123377999999998 10.2916571399999999
 -9.4593887900000002 -3.5226077299999998  2.1495237899999999
 -21.1264914700000013 13.5037870499999997 17.9687850400000002
 -20.4010305099999982 12.3866978700000008  9.9336241600000008
 -20.7002542600000012 10.4176581499999994  2.5715578099999998
 -20.3802503600000016  8.2219634100000007 18.1669560300000015
 -20.4926751799999991  7.0351427299999996 10.6190161599999993
 -20.7593054899999991  5.3510761599999999  2.4221714500000000
 -11.0513941399999993 -2.5769688799999999 17.5957355500000006
 -11.1326852499999998 -4.2989051600000003 10.5051286600000005
 -22.6269592300000006 13.1914310599999993  2.5548484899999999
 -22.5160720099999985 10.7025422500000005 17.9055640199999999
 -22.3838246400000003  9.9745589700000004 10.5682265500000003
 -22.5189491199999985  7.8997520400000001  2.7489437099999998
 -21.8863571800000010  5.6481305400000004 18.4355461900000002
 -12.3728699199999994 -2.0975186300000002  9.7026889799999996
 -12.3674303699999992 -3.7137044600000002  2.2847971000000000
 -12.6504464300000006 -5.2733851600000001 17.5771973099999990
 -23.4112466099999992 12.4974846599999996 10.2894224699999999
 -24.1563850199999983 10.3909195000000008  2.7335285400000000
 -23.3290691599999995  7.6905554199999999 18.0335771899999990
 -23.9180402600000015  6.6807959200000004 10.4616954399999997
 -13.8345340199999995 -1.7291094300000001  2.9345258799999998
 -14.3891898499999993 -3.1747048400000000 17.9049722200000012
 -14.3451579200000001 -4.6363514400000003 10.5490801899999997
 -14.6408985900000008 -6.0660446600000002  2.8748128199999998
 -25.6982725400000014 10.3624951500000009 17.8783442000000008
 -24.9774165100000012  9.7012107600000004 10.2474953400000004
 -25.7161879900000017  8.0328316599999994  2.3051020900000001
 -15.7471860499999998 -0.4041271200000000 17.8389200899999985
 -15.5982989700000001 -1.5648130600000001 10.2196688600000005
 -16.0036902400000010 -3.8065966800000002  1.9821750499999999
 -15.7933508899999993 -5.5273962299999999 17.3559007799999989
 -15.7003703899999998 -6.9589966900000002 10.2252566399999996
 -27.3499851099999987  9.8049278599999994  2.6898503800000002
 -27.0878764499999996  8.1494795700000005 18.0400729499999990
 -18.1271882799999986  0.7494143700000000 10.4568944899999998
 -16.8004899799999983 -1.3396829800000001  2.2076310499999998
 -16.8315536200000011 -3.3157689900000000 18.6489771200000014
 -17.5314492100000017 -3.9850222099999999 11.0683772099999995
 -17.2936671199999985 -6.1091660000000001  2.8262951300000001
 -17.9664090499999993 -8.7925660899999993 18.0035327599999988
 -28.1743194199999998  9.6981673599999993  9.6831194000000007
 -28.5300514099999987  7.5299877400000002  3.0239825300000001
 -9.2391069800000007 16.1787653599999999 18.3568910999999986
 -8.9996799299999992 14.8893783699999993 10.5081961699999997
 -9.0369546500000002 12.6704097699999991  2.4059632999999998
 -9.5417508899999994 11.3713868300000005 17.5700893899999997
 -9.1238745399999992  9.6126204699999995 10.2998115000000006
 -9.3374695499999998  7.4576095000000002  2.4092163900000001
 -19.4712032000000015 -8.6501737599999995  1.7876080500000000
 -1.3193317099999999  2.8020226099999999 17.7878254600000005
 -2.7381402499999998  3.7576889800000002 10.0987516199999998
 -4.9411473800000003  4.9332330100000004  3.6520995599999999
 -6.5469961799999998  4.9091356299999998 18.5274029800000015
 -7.8990992899999997  6.0318739800000003 10.4712984900000006
 -26.3232892800000009  6.7582714900000003  9.6534711400000006
 -26.4204372700000008  4.6261617499999996  1.7884238200000000
 -8.1101158600000005 13.4613786799999993 18.0433105699999992
 -7.9600877800000003 11.7693736599999994  9.5742410800000002
 -7.7834752700000003  9.8799368899999997  3.1671821900000001
 -7.8663686200000003  8.6928908200000006 19.0289481199999990
 -18.0183813499999985 -7.6038535100000004 10.0682802999999996
 -20.4915528999999985 -6.1742035299999998  3.1930986600000000
 -2.8235405999999998  5.0655681599999998 18.5020667699999990
 -4.8038913299999999  6.5314221400000001 10.5885007600000005
 -5.5878676900000004  7.3097082799999997  3.1399253100000002
 -25.9819175400000013  5.0615341799999998 17.7206714800000000
 -25.2365661199999991  3.9607392400000001  9.5409124599999995
 -25.2502600100000016  2.0651828600000002  2.8563725199999999
 -6.2178942399999997 10.8703924900000004 17.5587148199999987
 -6.0729455500000000  9.7253271699999999 10.6804238399999996
 -19.2546420500000011 -5.9489547900000002 18.0172412699999995
 -19.9964576100000002 -5.3014145600000004 10.9553804600000007
 -21.3209026299999991 -3.2321215799999998  2.0350247499999998
 -4.3216951100000003  7.6612258300000002 18.2921772900000015
 -23.5585483300000007  4.9487421700000001  2.6163956900000001
 -23.1981107000000009  2.8621989000000001 18.5303085299999992
 -23.5325236800000006  0.9018571500000000 10.6240280800000004
 -23.5426466000000012 -0.7093561800000000  2.2873190700000001
 -18.6568601600000008 -4.0042636700000003  2.3557211400000000
 -20.2743315499999994 -3.2125382000000000 18.7976588999999983
 -21.4986733500000007 -2.4912847000000000 10.5928475100000004
 -22.7525396200000003  4.1372411600000003 10.1953690699999999
 -21.8807493199999996  2.0089676500000002  2.3707445100000002
 -22.0708677599999987 -0.3811222200000000 17.7189525400000001
 -18.7240992599999991 -1.6350095400000000 10.7520961400000008
 -20.1400851100000011 -0.6732418400000000  2.1305442800000001
 -20.3723859099999984  3.1873545999999999 17.9735739800000012
 -21.4051506899999993  1.3399393399999999 10.0488237900000001
 -18.9377863399999988 -0.8653115300000001 17.8099828000000002
 -19.2724851999999984  1.9293017299999999  2.5469481200000001
 -0.0816254000000000 -0.2569365000000000  5.3375267099999997
 -11.2011628499999993 17.2162812299999999 21.2431021199999996
 -10.5635870599999997 15.3148377300000007 12.7744920900000007
 -10.6424616299999997 13.3384373000000007  4.8871023100000004
 -10.9792752799999995 11.6024047400000008 20.3544085000000017
 -11.5926100600000002 10.2310422600000006 13.0778405299999996
 -10.5720633300000006  8.7513497400000002  5.3726159600000001
 -11.0748100699999998  6.6394078199999997 20.3458218600000009
 -10.1063327800000007  5.1017054100000001 12.1812458499999998
 -11.5647078200000006  2.9015639900000001  5.0046936300000002
 -11.0516899899999999  1.1283843600000001 20.7015549000000014
 -11.4808489399999996 -1.1111601600000001 12.8495560900000001
 -1.2033437000000000  0.9061866300000000 20.4663467300000015
 -2.1611762300000001 -1.4722585800000001 12.5063961900000002
 -12.5191996099999994 16.4299614799999993  5.3688835900000003
 -12.4348625100000003 14.4364000299999997 20.6047291900000005
 -12.8442253100000006 13.0348982499999995 13.3045034100000006
 -12.9339704599999994 10.6366364600000001  5.5797952500000001
 -12.4226690299999998  8.6907383100000004 20.3501779599999999
 -13.0342443100000001  6.7238032399999996 12.7897585700000000
 -12.5890438899999992  5.8476828699999999  5.5881978400000003
 -12.7285511699999994  3.9300735100000002 20.8199494799999982
 -12.3554822299999998  2.2473485900000001 12.5736448299999992
 -12.5972166500000000  0.2694462000000000  5.3635445600000002
 -2.6551759300000000  1.2979436700000000 12.6081549099999997
 -3.4555679200000000  0.1471365400000000  5.1160278200000002
 -14.5442808800000005 17.4577943200000014 20.5557284500000002
 -14.6876148700000009 15.3379416200000005 13.2679550099999997
 -13.4072872400000005 14.0794896499999993  4.9404773700000000
 -13.6902487300000004 11.9147321399999999 20.9259307999999997
 -14.3915629000000003  9.7866845700000002 13.0036374400000003
 -13.9789106400000005  7.9648287599999996  5.2518385600000004
 -14.1250541999999992  6.6053753100000003 20.1838717199999991
 -14.3051495600000003  4.5261955599999997 12.8345089800000007
 -15.0894138800000004  2.3696550599999999  4.9188376399999996
 -14.0071886200000009  1.1245741000000000 19.9725126800000012
 -6.0256921999999999  2.8035625199999998  5.4344273899999997
 -4.7814380300000003  1.3278043700000000 21.0604393600000002
 -5.4621014800000003 -1.0037102600000001 12.6026869500000007
 -4.6859495899999999 -2.0666575599999999  5.3601425500000000
 -15.9218586599999998 14.3138689899999996 20.9109929200000018
 -15.9652447500000001 12.1909639999999992 12.9366876000000008
 -16.1039392300000017 11.2882414099999995  5.4066531700000002
 -15.7941607000000008  9.4468526199999996 20.3854653799999994
 -16.3067620200000007  7.5768659400000002 12.7628722200000002
 -15.5405050199999994  5.4380124600000004  5.3369492200000002
 -15.6095400499999997  3.5875805000000001 20.3654380500000016
 -16.5011122400000012  1.8979925099999999 12.8636482700000006
 -6.9767516799999996  3.2084267700000000 21.1194006999999999
 -6.2213544599999997  1.9568353800000000 12.6798160699999993
 -6.7992875200000000 -0.3281671300000000  5.0965328500000000
 -5.9140889699999999 -1.9306525900000000 20.5569898299999991
 -17.6918761899999986 15.4613494599999992 13.2408500999999994
 -17.3846757099999998 14.4687176799999992  4.6357858500000004
 -17.5757931599999999 12.0803035699999999 20.4514294099999994
 -18.1596272700000014  9.9914943699999998 12.7889715299999995
 -16.8846000799999985  8.7996744200000006  4.8815486799999999
 -17.2451247499999987  6.7623314499999996 20.5998678200000001
 -17.1760911800000002  4.7129516100000002 13.4642056799999992
 -17.4774263000000012  3.4450910399999999  4.8012840199999998
 -7.2848168600000003  4.6895331000000002 13.3856587699999992
 -8.2690197199999993  3.1432423699999998  5.1722823000000000
 -7.9956377500000002  0.8218615700000000 21.3035582199999993
 -8.2901690400000003 -0.9070850200000000 13.1273643799999995
 -8.4882081500000002 -2.6618733400000001  5.4197783599999996
 -18.8487236899999999 15.1789807299999993 20.6511879100000009
 -19.7613200099999986 12.3094053399999996 12.6137209499999994
 -18.4273882299999983 11.5441080599999992  4.7122406500000000
 -18.7485526399999998  9.1619321700000000 21.2408845100000008
 -20.1048821800000006  7.0022167700000004 13.3097685299999995
 -19.2828310099999989  5.7269575499999998  5.3224318300000002
 -18.4301785600000017  3.7104149799999999 20.7453417699999996
 -9.3151952399999995  5.3424374900000000  4.7206124100000002
 -9.3918151200000004  3.5213316600000000 21.0027084500000001
 -9.7158012800000009  1.8513589100000001 12.8849774999999998
 -9.8858123599999992  0.6643318400000000  5.7333131100000001
 -9.4392873900000005 -1.2805926599999999 20.4516567100000017
 -9.3137991099999997 -3.9487415700000001 12.5758691900000006
 -20.5588625299999990 13.9854360000000000  4.8840704099999996
 -20.7380085200000011 11.2563698199999997 20.3854615800000012
 -21.0567311000000004 10.0139012800000007 12.9444872300000000
 -20.5504989199999990  8.6287833799999998  5.4351310599999998
 -20.2205638299999997  6.7815125299999996 21.3897329599999999
 -21.0936820699999998  4.7551528100000002 13.7364772599999991
 -11.3912842699999999 -2.2875651800000001  4.8916216199999996
 -10.9366614599999998 -4.6358358099999997 20.3013514000000015
 -22.4390473399999983 12.8710749599999996 12.4988668300000008
 -22.1878683899999984 10.7789321499999993  5.4564317500000001
 -21.9947835800000000  9.3965583400000003 20.0433313499999990
 -23.4078898799999990  6.9209511700000004 12.7117746500000006
 -21.9808370400000008  5.5388699600000004  5.5440887200000004
 -12.5716275000000000 -1.2050907099999999 20.7550548699999986
 -12.4765098499999993 -3.9414181199999998 11.8924898700000004
 -12.3886802800000009 -5.2543891000000000  5.4279615600000000
 -24.0257592899999999 11.9822883800000000 20.4370004600000001
 -24.4013981899999983  9.7447130299999998 12.9025200699999996
 -24.2850660500000011  7.6864702800000000  5.5038537900000000
 -23.8469454499999998  6.3263262200000003 20.6162962599999986
 -13.8814227799999994 -1.1450043700000001 12.9200978699999993
 -14.3321952400000008 -2.6681345900000002  5.2729854100000004
 -14.2002571500000005 -5.0085107200000003 20.4854595300000000
 -14.3092313699999991 -6.5606860700000000 13.2969951000000002
 -25.7438654999999983 10.9824246399999996  5.2896637999999996
 -25.1216370399999995  8.8511337999999995 20.5146461100000010
 -25.8960451499999991  7.0739811200000000 13.1181120100000008
 -15.5361690600000006  0.1307827600000000  5.2035554700000004
 -15.0025603200000006 -2.1055862799999998 20.8365675299999999
 -15.7852991899999999 -3.2656062499999998 12.6820513300000002
 -15.8017753499999998 -5.2211554900000001  5.4203619999999999
 -15.4742494399999995 -7.7961666300000001 20.0724113600000003
 -27.0519629399999992 10.0153808299999998 12.4276414000000006
 -27.1299068500000011  8.8138033100000008  5.4915737499999997
 -17.0924197000000007  0.5893064300000000 20.6898241499999997
 -17.2738124599999985 -1.0132813599999999 13.1917550699999993
 -17.5769157800000002 -2.0350481700000000  5.0209633000000000
 -17.6371048299999984 -4.5381556400000003 20.9086360800000008
 -16.9644083899999991 -6.4629156600000002 13.7439818900000006
 -18.0731460599999991 -7.9818061800000004  5.0060262800000004
 -28.4570494799999985  8.6956693299999994 21.0955176599999987
 -28.7862929299999983  7.5214128899999997 12.9016450999999996
 -9.2643720999999992 16.7077724900000000  5.3976742399999997
 -9.5799754600000000 14.2279826800000002 20.6534531200000018
 -9.8409809599999996 12.2513903299999996 12.1761528600000002
 -9.1834557500000003 10.8211117199999993  5.4326457399999999
 -9.3231587099999995  9.4129842700000008 20.7756697499999987
 -9.7996183800000001  7.6168033599999996 12.7332031299999997
 -19.0813064799999985 -9.2163755100000007 12.7552469199999994
 -2.5017060500000001  2.8596750599999998  5.3412870300000002
 -3.3358781099999999  3.3856354400000002 20.7238121399999997
 -4.5736623200000004  4.3035778100000002 12.8164915500000003
 -6.0185291999999997  5.0773781099999997  5.7338319799999997
 -7.9342580299999996  6.5565175800000004 21.4574067799999995
 -27.2149718599999986  6.3251301199999999 20.6102155399999987
 -27.0678212299999998  4.3115292199999997 12.3817187299999993
 -26.3722695400000013  3.4293174199999998  5.4435857600000004
 -7.6402056600000003 11.2524125599999998 19.8296770900000006
 -8.1386018300000007  9.4985810599999994 13.1941208999999997
 -7.1840654400000004  7.7335035699999999  5.1952085300000004
 -18.9080526999999989 -7.4227189800000000 20.9055603199999993
 -20.2500331600000010 -6.8857838300000003 13.0503639200000006
 -22.1056140899999995 -5.3010364900000004  5.6094039400000000
 -4.6683865899999999  6.3132876600000003 21.0266373299999998
 -6.1828948800000001  7.1523946199999999 12.6578620199999996
 -25.2383154400000009  6.3582346999999997  5.1559486100000003
 -25.1442558200000015  3.7755946499999999 20.1230370299999990