Li                                      
   1.00000000000000     
    20.0207999999999977    0.0000000000000000    0.0000000000000000
     0.0000000000000000   20.0207999999999977    0.0000000000000000
     0.0000000000000000    0.0000000000000000   20.0207999999999977
   Li
   432
Direct
  0.9986591185167413  0.0100894294933269  0.0054762646847308
  0.9165561431111655  0.0870472039079360  0.0800866274074963
  0.8391790727643240  0.1520169224007049  0.1720728147726334
  0.7394982987692771  0.2448223437624861  0.2491826085870699
  0.6463251648285819  0.3450966374970008  0.3030308499160839
  0.6028426990929461  0.4316219526692251  0.4043933159514097
  0.5158261118436798  0.4977149419603606  0.5276709047590487
  0.4028985235355265  0.5726545792375930  0.5818005868896350
  0.3257538864580809  0.6624135773795246  0.6683999410612955
  0.2478905852912945  0.7610515393990269  0.7611209751858041
  0.1737291187165368  0.8284332604091773  0.8167966954367429
  0.1021334062574937  0.9229618686565999  0.9176238581874827
  0.0790754680132650  0.9364492208103599  0.1072789863541885
  0.9883518750499505  0.0048308394269938  0.1808777291616721
  0.9256454072764342  0.0823821655478270  0.2491805022776319
  0.8329537915567826  0.1699514415008423  0.3361411177375544
  0.7492270608567111  0.2634517456844847  0.4318949972029102
  0.6535661172380713  0.3578352118796460  0.5072506742987315
  0.5971169149084972  0.4173957019699515  0.6051608342324002
  0.5169352028889946  0.4943177490409951  0.6730330226564405
  0.4056952029888947  0.5910006293454799  0.7286646982138549
  0.3462453203668190  0.6676236633900743  0.8253330466315063
  0.2710768236034511  0.7615684588028486  0.9103037351154768
  0.1718960900663333  0.8318574117917379  0.0073767991289060
  0.1701052525373612  0.8291508940701675  0.1629242442859393
  0.0942270618556691  0.9228477663230237  0.2594221579557257
  0.9889695786382191  0.9933913115360014  0.3255334137497030
  0.9138007816870442  0.0803843657596133  0.3963641987333162
  0.8613728047830236  0.1621741368976259  0.5126568164109315
  0.7486507507192499  0.2409198303764057  0.5813499730280540
  0.6639801701230752  0.3308209007632072  0.6586620529649139
  0.5977539079357470  0.4067592114201233  0.7561477203708122
  0.5129651522416694  0.5259225530448361  0.8426655163629846
  0.4127180317469836  0.5850387736753788  0.9010980570206968
  0.3302321955166647  0.6561138655797976  0.0086763101374601
  0.2537098547510581  0.7353219391832511  0.0960406936785745
  0.2459212608886787  0.7182949962039515  0.2347791571765399
  0.1652458468193103  0.8165577589307134  0.3262768375889067
  0.1105667026292636  0.9179712294214042  0.4066980430352416
  0.0001861214337069  0.0108892187125420  0.4634288180292501
  0.9162849416606704  0.0425936166386975  0.5755007407296446
  0.8423387646847260  0.1514528780068716  0.6490976894030211
  0.7432886842683644  0.2334577329577243  0.7457069762447048
  0.6858792560736831  0.3207718018260977  0.8325311151402559
  0.5850836365180214  0.4171980295492688  0.8902039678734113
  0.5186155033764877  0.5065859166466851  0.9710910458123578
  0.4187081285463137  0.5713890703668199  0.0698213842603721
  0.3355603672180933  0.6455147851234742  0.1646483512147370
  0.3336981709022595  0.6349986543994248  0.3394947154958814
  0.2451344241988309  0.7276407785902634  0.4098201370574586
  0.1795037106409367  0.8083968607648018  0.4840471894230021
  0.0867867048269773  0.9249911696835298  0.5593958792855460
  0.0147285563014492  0.9927269699512493  0.6686841914409030
  0.9150174208822790  0.0868734700911062  0.7543731639095341
  0.8277639664748691  0.1546276347598479  0.8464434672940158
  0.7541341135219355  0.2324211245304895  0.9218722873211860
  0.6676307799888122  0.3220309922680400  0.9930964596819294
  0.5841537146367770  0.4050038180292503  0.0499619380843939
  0.5024239066370981  0.4844898310756847  0.1559896058099568
  0.4405792191121236  0.5683724166866426  0.2536969831375373
  0.4343794159074577  0.5680541052305585  0.4052253006872846
  0.3454725650323667  0.6546801736194325  0.4866674783225449
  0.2387318239031373  0.7279013950491517  0.5920068303963859
  0.1614828593262985  0.8454277721169987  0.6641922480620153
  0.0992819687524999  0.9288739206225500  0.7600130309478175
  0.0010810781786930  0.9888225415567788  0.8446106983736925
  0.9065737203308544  0.0834899714297137  0.9264570162031518
  0.8220348432630047  0.1505533664988405  0.9989672960121467
  0.7616937200311682  0.2257737652841030  0.0978383611044507
  0.6708778879964825  0.3328812475025984  0.1507229131703056
  0.5855772586510000  0.4294641382961686  0.2348300937025485
  0.5046526627307628  0.4859013286182403  0.3409093862383088
  0.0758881008750905  0.0930553394469769  0.9213839461959594
  0.9908030568209085  0.1644563429033781  0.0104103851993926
  0.9155632741948381  0.2553634185447109  0.0783305667106191
  0.8359731763965499  0.3251160153440438  0.1684631762966546
  0.7515447699392652  0.4212825261727815  0.2545651297650409
  0.6771078213657802  0.5012403575281681  0.3377401117837451
  0.5859368032246479  0.5595615504874942  0.4258783610045569
  0.4957062789698696  0.6872787925557446  0.4884444118117131
  0.4210346849276760  0.7380529069767476  0.5859284973627439
  0.3224260299288773  0.8205303704147724  0.6783083767881379
  0.2579367507791872  0.9284448673379657  0.7561445361823687
  0.1687351524414638  0.0149752877007927  0.8380957219491734
  0.1902101564373027  0.9950670602573339  0.0035627577319559
  0.0853364201230704  0.0820524030008798  0.0806554743067238
  0.0062800927035909  0.1607168879365446  0.1657489575841140
  0.9203048764285171  0.2545599861144439  0.2411114650763224
  0.8404300042955342  0.3315201670262908  0.3400985834731856
  0.7425124720290910  0.4058495010189418  0.4264194612602878
  0.6783941710620951  0.4978621653480388  0.5204136368177075
  0.5738910258331344  0.5942306980740000  0.5774456200551441
  0.5123827604291549  0.6674026956964738  0.6583545627547380
  0.4253189427994855  0.7294834042595681  0.7361368112163333
  0.3680747657436285  0.8323813154319524  0.8245082539159299
  0.2643977878006893  0.9104925717254062  0.9181629225605406
  0.2606255284504115  0.9120317709582011  0.0874954282546128
  0.1503997597498596  0.0067673854191668  0.1735553439422972
  0.0968137347158944  0.1083691515823517  0.2688453203668217
  0.0123409983617009  0.1848197060057544  0.3305245234955621
  0.9006121653480363  0.2283029464357043  0.4236435751818135
  0.8177260723847226  0.3233238357108590  0.5010966584751841
  0.7610808644010234  0.4054591589746650  0.6038788544913274
  0.6819129180652155  0.5151242792495836  0.6656640349036991
  0.5862551626308630  0.5988983941700639  0.7433338408055619
  0.4864364540877517  0.6684992497802256  0.8178046221929165
  0.4157577724166899  0.7372716419923293  0.9262498531527186
  0.3583050702269617  0.8206242143171067  0.0266482213497952
  0.3425390628746072  0.8141867143171098  0.1808677615280132
  0.2325424218812415  0.9228764874530455  0.2283178009869715
  0.1763538844601626  0.0305385084512082  0.3281647216894399
  0.0907075501478474  0.0712346834292319  0.4282545787381125
  0.9873483117557740  0.1645234296331850  0.5145538829617209
  0.9005517521777335  0.2628781392351982  0.5839857108607021
  0.8316812944537659  0.3283518395868299  0.6772113132342383
  0.7401792380923808  0.4210224186845650  0.7655626868057226
  0.6765968812435048  0.5205403240629778  0.8356429713098379
  0.5758548819228011  0.5953505823943104  0.9050960126468510
  0.5075034933668974  0.6626850270718450  0.9802392232078674
  0.4312005674098955  0.7248964436985545  0.0984879854950833
  0.4184497902181761  0.7151775148845232  0.2479791327019925
  0.3060248521537616  0.7911126913010449  0.3156845455726014
  0.2549735410173426  0.9046655398385681  0.3923268380883869
  0.2080807215495852  0.0056097004115685  0.4764691600735205
  0.0881369910293301  0.0801809198433645  0.5619654274554478
  0.9947125659314295  0.1553498546511634  0.6649216964357052
  0.8869506807919763  0.2307284524094939  0.7327968532725961
  0.8375507322384692  0.3128745779389419  0.8260937460041546
  0.7587398525533473  0.3992777576320634  0.9153123671381778
  0.6771315841524839  0.5054997737353162  0.9800273225845118
  0.5813024114920466  0.5703959592024290  0.0638000404579273
  0.5161826210740799  0.6373016318029272  0.1404857917765554
  0.5105324857148545  0.6704106434308343  0.3389535368217054
  0.4138188419044226  0.7374858362303200  0.3971482752936950
  0.3129892811476083  0.8072373146927205  0.4885209741868479
  0.2435136677854999  0.8893450916047314  0.5674299888116394
  0.1800667221090038  0.9953140643730549  0.6464311376168794
  0.0870984446175953  0.0672384934667960  0.7612276981938777
  0.9832628181691021  0.1657454167665620  0.8339096809318320
  0.9139108936705824  0.2435031467274058  0.9238261338208247
  0.8220555911851690  0.3383385334252367  0.0117104476344636
  0.7745863846599548  0.4274874525493502  0.0787993821425701
  0.6623375354631165  0.5148174538479964  0.1447644719491734
  0.5735389355070737  0.5753023430632140  0.2539466010349258
  0.1597955131663085  0.1600251143810425  0.8443409284344270
  0.0921224771237945  0.2370535897666457  0.9309264370055175
  0.9969150273715357  0.3385363422041081  0.0138051556381384
  0.9081609466155172  0.4280504010828707  0.0938397386717824
  0.8360520303883945  0.5068117987293235  0.1830769135099501
  0.7614752772117015  0.5824755614161248  0.2699819657556120
  0.6524773006073659  0.6611178749100901  0.3526045437744756
  0.5895647201909995  0.7697459347278865  0.4193478881962776
  0.4894151387556960  0.8441130903859957  0.4785243871373766
  0.4135763470990170  0.8991777706185573  0.5735434198433609
  0.3295139225205759  0.9892350470510678  0.6527400323663386
  0.2434238906537232  0.0877103052825063  0.7304888366099291
  0.2381634440182196  0.0868728577279612  0.9099446820306909
  0.1760666946375764  0.1588763221249891  0.0113657541157224
  0.0897735909653932  0.2573625754215598  0.0894934852753124
  0.0157423534524099  0.3353339886518043  0.1627225405578230
  0.9305502971909192  0.4222281257492213  0.2484523090985391
  0.8393239715695699  0.5071838213258246  0.3563577684208425
  0.7710435591984321  0.5834833453208645  0.4298593907336397
  0.6506494550667341  0.6558719227003920  0.4905391113242246
  0.6027299198833234  0.7676534344281976  0.5647061735794807
  0.5109638236234346  0.8468983532126586  0.6638696031127651
  0.4140331640094317  0.9267468642611689  0.7652088877567351
  0.3300386722808284  0.0139299038999425  0.8321749815192234
  0.3181665477902982  0.9867482513186303  0.9975260234356256
  0.2414069317909409  0.0835460491089250  0.0790216794533691
  0.1536049303724099  0.1771459277351539  0.1567017037281246
  0.1016598887157372  0.2686184962638833  0.2276305217573693
  0.0000085411172392  0.3287102967913356  0.3535769210021584
  0.9124172595500681  0.4128314572844261  0.4431524954047816
  0.8405165527851040  0.4950547490609765  0.5030187709781799
  0.7440567724566449  0.6005157446255893  0.5988273990050317
  0.6756913020458697  0.6895040827539347  0.6743873941101270
  0.5903798454607241  0.7637351069887330  0.7541547970111111
  0.5058441700631349  0.8221089946455677  0.8315975915048384
  0.4125264135299318  0.9167820616558799  0.9280591529809001
  0.4221243391872420  0.9189316930392408  0.0987322734356297
  0.3241868152121796  0.0007755089706691  0.1728581814912502
  0.2637418419843343  0.1139921266882453  0.2254517726564345
  0.1768608077599296  0.1714791541796501  0.3337755853911943
  0.0990130783984640  0.2442396752377505  0.4230929877926926
  0.0027261747782319  0.3329073833213485  0.4926594037201326
  0.9251303494365857  0.4053438164309142  0.5816604551266664
  0.8210422290817547  0.5000678968872379  0.6761749795212992
  0.7478422315791562  0.5936682769919273  0.7728711819707499
  0.6518230470310868  0.6810294728482376  0.8410948083992622
  0.5656968013266237  0.7389610709861714  0.9146090910453140
  0.4861498861184401  0.8271347643450824  0.0158025883081621
  0.4862248671381764  0.8175105804962826  0.1646912740749613
  0.4127343412850664  0.9138369535682926  0.2637976324622429
  0.3253872712379149  0.0154905518260975  0.3313831944777448
  0.2611670432749946  0.1130497252857054  0.4176915218173107
  0.1769187504994818  0.1645620859306334  0.4843036856669087
  0.0739498541516852  0.2511113586869627  0.5749463073403689
  0.0092365794573652  0.3204945766402929  0.6555445971189968
  0.9313442394909330  0.3917636827699198  0.7566885758810855
  0.8552336375169816  0.5094523200871066  0.8325148051026900
  0.7660188144329894  0.5922954692120186  0.9170257012706813
  0.6578142651642267  0.6698746928194694  0.0044598962079405
  0.5863479291536819  0.7398444557660042  0.0972011198353684
  0.5536809992607701  0.7542113047430661  0.2517691715615769
  0.4806678908934714  0.8317248456605100  0.3463813848597468
  0.3794074917086263  0.9079818204067749  0.4037850415567803
  0.3214843173099950  0.9991128411452124  0.5218798364700703
  0.2608666986334214  0.0795130803963886  0.5784804143690536
  0.1536584332294382  0.1515964666746612  0.6515180182610081
  0.0850437999480533  0.2245361229321503  0.7396297975105881
  0.0077276852073851  0.3210073163909541  0.8320487767721545
  0.9023168389874527  0.4140831615120248  0.9303457029689142
  0.8229107093622616  0.5182963133341332  0.0140435671901216
  0.7446578593263027  0.5901684153480389  0.0865979186645873
  0.6567328937904549  0.6567054653160724  0.1702662021497616
  0.2370856514225181  0.2300684258371319  0.7294312549948074
  0.1773954622192946  0.3313802115799547  0.8471830766003379
  0.0803510863701717  0.4013096384759862  0.9077281692040273
  0.0006586669863324  0.5079363926516436  0.0044528250619322
  0.9078716484855747  0.5699109820786390  0.0990424933069605
  0.8356235480100693  0.6542144284943632  0.1807687844641563
  0.7386181925797146  0.7384295762407120  0.2429533719931243
  0.6640905787980529  0.8425317574722300  0.3370988267202080
  0.5731561406137615  0.9036794243986250  0.4285365010389199
  0.4928388121353819  0.0009338467993274  0.4925982528170678
  0.4125374830176582  0.0705575156836886  0.5922653300567404
  0.3404911846679468  0.1723408834811764  0.6661323613442036
  0.3149970750419584  0.1509524734276368  0.8232718402861039
  0.2636273056021707  0.2150458098577488  0.9391716245105073
  0.1844613971469684  0.3372073034044618  0.9914439053384498
  0.0884620194997225  0.4241689398026054  0.0689997597498575
  0.9976567729561268  0.5040237158355296  0.1807444297930161
  0.9258137162351190  0.5812008451210744  0.2654521118037252
  0.8241626853072788  0.6984001153800037  0.3375683364301096
  0.7338198788260186  0.7679485784783822  0.4352451145808374
  0.6699621493646575  0.8502376093862409  0.4943408465196200
  0.5746647491608741  0.9312756213537909  0.5930180442340003
  0.5139203513346118  0.0011722863222232  0.6545482178534314
  0.4066341824502544  0.0785869680532230  0.7285382212498988
  0.4076278680172649  0.0678983557100636  0.9200051471469664
  0.3324378461400173  0.1622652091824506  0.0051212798689377
  0.2619709192439856  0.2680671481659047  0.0825771602533365
  0.1744180192599671  0.3686260678893944  0.1497434273355722
  0.0756065352033914  0.3989438429033783  0.2561077968912358
  0.9897466699632389  0.5053132522176966  0.3631456405338440
  0.8978031537201332  0.6005014020418784  0.4445248956085663
  0.8450646717413903  0.6894564338088358  0.5087484591025344
  0.7431874585431189  0.7549038250219766  0.5993699897107021
  0.6657014894509743  0.8336317250059935  0.6649301806121599
  0.5708247577519359  0.9350554967833489  0.7406841584751831
  0.4830738297170925  0.9979032636058491  0.8358549728282583
  0.4829694382841865  0.0056438733716959  0.0132289349076942
  0.4098377062854652  0.0881345945216978  0.0943674293734489
  0.3377407386318225  0.1879535078518373  0.1619172001118869
  0.2603810591984370  0.2643094716494829  0.2340513326140794
  0.1657082074642346  0.3348655203588251  0.3255523775273730
  0.0779071131023770  0.4094348392671634  0.4122433599056947
  0.9851187869615572  0.5188692964317099  0.4947754145688492
  0.9115354166666663  0.5851720270918221  0.5986879595220955
  0.8445735215375976  0.6856601849076966  0.6978674828178697
  0.7541960286302256  0.7534028690162202  0.7584892606689024
  0.6577011088468012  0.8272185417166185  0.8591419523695336
  0.5706878386478067  0.9267697214896486  0.9263773445616579
  0.5681705955805967  0.9024884215415980  0.0810601444497721
  0.4985601429513338  0.0036129080756027  0.1943261348197893
  0.4153794373851198  0.0828265304083757  0.2614885603971899
  0.3389271627507426  0.1728804213617821  0.3286335785782768
  0.2662269929273577  0.2642781851874076  0.4112710256333401
  0.1721328847998080  0.3487158515144273  0.5010173714337114
  0.0829192739550848  0.4081607643051228  0.5847050372612514
  0.0048710176416549  0.4910224386637907  0.6548547720370834
  0.9356651267681642  0.5791346829297552  0.7544223907136569
  0.8556235220370780  0.6779274449572412  0.8337846584552082
  0.7499498017062223  0.7738125109885701  0.8962770858307394
  0.6578073638416058  0.8330091414928447  0.0058417271038138
  0.6692777925957003  0.8248296626508420  0.1713004785023600
  0.5751436116438882  0.8945422480620167  0.2607528555302494
  0.4878676166786562  0.9992874590425984  0.3674429618197053
  0.4188836315232152  0.1008105345440740  0.4237405478302563
  0.3510995924238784  0.1825507082634061  0.5136335356229509
  0.2591958033644985  0.2451809907695974  0.5919935671901229
  0.1705027900982969  0.3138520179013824  0.6572604331495242
  0.0932167570726463  0.3878719466754603  0.7424261143410860
  0.0125351494445809  0.4864176446495634  0.8458219781427303
  0.9300288375089920  0.5762796476664249  0.9190596564572857
  0.8381630948813239  0.6783268345920277  0.0036043404858930
  0.7512870160033600  0.7403590605769992  0.0880597328778094
  0.3334506258491174  0.3490976759170437  0.6719340700671310
  0.2522962494006222  0.4182259120514686  0.7379503771078078
  0.1527025283704972  0.4894608996643512  0.8295548015064327
  0.0783792710580968  0.5818629250579406  0.9258982003716127
  0.9999471459681928  0.6555247547550564  0.0101823528530360
  0.9381112697794265  0.7479377522376751  0.0791353397466636
  0.8343515408974653  0.8183627122792316  0.1551262412091390
  0.7438677974906085  0.9129452419483712  0.2336333058619005
  0.6624603846999122  0.9930739041396919  0.3363776227723179
  0.5717922130983766  0.0884901602333557  0.4127739455965767
  0.5077252087828654  0.1817016377966922  0.5031559598018092
  0.4136188059418231  0.2542503516342975  0.5721264684727885
  0.4111607168544680  0.2400836530008803  0.7585458398265814
  0.3247321305841950  0.3300631453288574  0.8230290647726335
  0.2452853427435500  0.4186979731079674  0.8978220146048130
  0.1733369935267319  0.5004059702908989  0.9890003481379352
  0.0658070766402972  0.5690909763845582  0.0906038724726272
  0.0125288120354838  0.6698492587708813  0.1976661596939167
  0.9171284938663788  0.7788617028290545  0.2494428184687933
  0.8079366054303492  0.8300072784304291  0.3367049029009834
  0.7486171896227916  0.9437021562574941  0.4011434053584253
  0.6525328798050012  0.0065389200231749  0.4940005269519716
  0.5827771322824233  0.0970498821225902  0.5687574237792674
  0.5012195281906813  0.1865706500239739  0.6658084736873633
  0.5066056905817931  0.1539043719531676  0.8401624585431122
  0.4174366438903547  0.2211564113322169  0.9259747008111532
  0.3290570082114570  0.3320345495684478  0.9737041192160163
  0.2719241948373678  0.4264763371094062  0.0739970410772770
  0.1342027541356998  0.4812566865459900  0.1512976464476949
  0.0729449592423848  0.5689792870414792  0.2631284369255980
  0.9845307675017949  0.6707254844961241  0.3348798025053910
  0.9233521242907372  0.7864304932869786  0.4005028835011615
  0.8340269634580011  0.8493420567609675  0.5030416342004287
  0.7518750109885701  0.9236934328298574  0.5837610070526651
  0.6731358836809704  0.0099040732638045  0.6493722198913119
  0.5877963912531001  0.0892407915767635  0.7365195971189991
  0.5767200211779766  0.0864568179093723  0.9045808544114138
  0.5038378606249481  0.1488832883800839  0.9991505334452171
  0.4297351244705538  0.2570184133501172  0.0719497607488222
  0.3517568288979476  0.3455393755494285  0.1496252847039088
  0.2491984161472089  0.4124715920442767  0.2401948548509552
  0.1671845945217001  0.4890588467993311  0.3328330571205953
  0.0763780333453212  0.5864737083433198  0.3980566216135202
  0.9936167360944594  0.6799862313194254  0.5148044613601854
  0.9190653969871363  0.7616878181691078  0.6081615774594411
  0.8399670327858999  0.8530077414488915  0.6786559742867411
  0.7277135289299110  0.9187690476904038  0.7541346599536496
  0.6537910563014435  0.0078753061815746  0.8300988402061833
  0.6462482333373316  0.0106275203788044  0.0133406577159789
  0.5767746538599852  0.0790017122192950  0.0953208358307336
  0.4834744680532239  0.1726574957044704  0.1842351684248413
  0.4179361628905909  0.2558489850555432  0.2485825126868093
  0.3366587489011437  0.3224305032765926  0.3372876148805233
  0.2500756623111968  0.4160805012786710  0.4034336574962012
  0.1416230250539456  0.5051996084072599  0.5139975880084720
  0.0614970066131235  0.6123369990210179  0.5887212883601052
  0.0027026582354353  0.6781921616518787  0.6697523625429582
  0.9264762252257626  0.7869160802765123  0.7812500669303901
  0.8109712494006232  0.8560254610205362  0.8370296586549983
  0.7629813793654634  0.9411087319188027  0.9210056900823176
  0.7380769614600808  0.9235142037281250  0.0865458148525562
  0.6478849491528820  0.9889201695236949  0.1741890563813655
  0.5671602463438035  0.0874156122632428  0.2667304748062023
  0.4850883660992551  0.1718009090545820  0.3286846309837799
  0.4415569542675613  0.2514047545552600  0.4108292161152391
  0.3487358217453860  0.3550389170262918  0.4960448578478349
  0.2458372282825891  0.4141901847079055  0.5717473347718354
  0.1536714606808900  0.5023639854551263  0.6595337863621822
  0.0737627567329966  0.5842506143610677  0.7634294383840796
  0.9951604481339373  0.6751262172340802  0.8456382152561304
  0.9228795672500567  0.7742867173139913  0.9324738906537178
  0.8203085131463297  0.8439880419363845  0.0019890064333126
  0.4234633805841952  0.4211617442859392  0.6100908909733889
  0.3151279389434976  0.4946395159034580  0.6491611079477337
  0.2466303289578846  0.5623840545832337  0.7509261178374516
  0.1632097363741707  0.6644252747142971  0.8286473857188525
  0.1068783300367642  0.7455890438943484  0.9260529973827190
  0.0173140408974675  0.8640803224646376  0.9927898875169845
  0.9266983002677236  0.9115983257412310  0.0668251133820803
  0.8191573118956299  0.0200282181531222  0.1563918170103094
  0.7286000709262339  0.0706507736953554  0.2557170687485026
  0.6486574357668005  0.1679887956525192  0.3420326735195403
  0.5772737947534594  0.2451233507152537  0.4200885319267940
  0.5060922595500656  0.3506304892911345  0.4994182345360798
  0.5070856704027804  0.3242961270278926  0.6789337648845191
  0.4232317889395034  0.4435083238432043  0.7492280758011702
  0.3358972268840432  0.5032042455845911  0.8174316181171548
  0.2379926746183969  0.5978158744905286  0.9204675662311175
  0.1827636008551110  0.6491967179133695  0.0072101993926310
  0.0778867617677648  0.7340362108407277  0.1002496768360928
  0.0051882452249643  0.8577602788100407  0.1845296416726612
  0.8863013376088844  0.9229937010509062  0.2341366823503535
  0.8136589686725841  0.0246293050227777  0.3210274199832170
  0.7479286437105443  0.1006723882162532  0.4350051191760542
  0.6620824212818661  0.1674453288579869  0.5021228292575728
  0.5846921132022729  0.2691178844002238  0.5720754080755981
  0.5925095385798755  0.2336765968392882  0.7582499865140235
  0.4985041816510858  0.3280493511747764  0.8115932799888128
  0.4141952144769405  0.4148992462838663  0.8999985290298085
  0.3510547046072077  0.5009737582913800  0.9850778515344061
  0.2659444203028869  0.5429276227723179  0.0883356968752480
  0.1620507627067838  0.6375657486214337  0.1393216634699925
  0.0830083193478757  0.7369154649164855  0.2370890104291519
  0.0126191395948183  0.8672516043314928  0.3117393081195559
  0.9010111558978693  0.9140347533565105  0.4117355085710841
  0.8353487862622870  0.0006456670063102  0.4879683619036186
  0.7613435047550539  0.0840650943019270  0.5661854671142024
  0.6658916916406952  0.1694224411611955  0.6493320541636720
  0.6617422760329248  0.1657354950851087  0.8469245190002397
  0.5755041237113403  0.2472980480300464  0.9089572594501689
  0.5116395024174878  0.3134661766762576  0.9706861484056546
  0.4398555482298434  0.4057608012666805  0.0630993222049057
  0.3525492098217882  0.4722062739750683  0.1718185966594774
  0.2388772611484029  0.5664944802405500  0.2271674348677379
  0.1534433958682939  0.6456496104051794  0.3157900073923088
  0.0767731319427796  0.7582331260489070  0.3988656097658421
  0.9949078663190249  0.8512102813074378  0.4858205206585140
  0.9158102543354900  0.9119830621154037  0.5857462598897172
  0.8082037805682063  0.9966574872132981  0.6802143950291679
  0.7419917620674497  0.0863723352713208  0.7611024274754286
  0.7656228492367916  0.0792806671062110  0.9281381263485997
  0.6495177550347648  0.1534380499280772  0.0069326795133051
  0.5838436356189547  0.2535160373211838  0.0826202963917524
  0.5268166317030278  0.3445583393271008  0.1609612408095558
  0.4230247122992097  0.4078773955086703  0.2462576430512300
  0.3320435387197307  0.5007480135658895  0.3374623581475262
  0.2451116758571104  0.5631827179733051  0.4422526002956957
  0.1670386852673218  0.6858275928034843  0.4941653210660917
  0.0877280348437637  0.7746255254535299  0.5645807600095907
  0.0136552205706053  0.8493523855190617  0.6827182115599797
  0.9167633880764043  0.9252970750419536  0.7613876593342894
  0.8219529574242799  0.0010441670662544  0.8181517861424084
  0.8330921481659104  0.0016499999999979  0.0036918369895318
  0.7328766672660407  0.0839662026492434  0.0883538599856166
  0.6533806376368574  0.1436805926836087  0.1875825186805713
  0.5601827854031782  0.2480548015064343  0.2487211919603638
  0.4994567070246916  0.3525534948653402  0.3149548679373453
  0.4250722623471574  0.4455055357428250  0.4048817030288490
  0.3559059617997278  0.4879655248541539  0.4927285882682000
  0.2250441495844342  0.5965059053584270  0.5812011078478392
  0.1467804018820402  0.6762918529729092  0.6692860325261734
  0.0857183883760868  0.7540571086070500  0.7502229266562779
  0.0310116194158070  0.8384806151602362  0.8549421142012292
  0.9086283085591020  0.9264122907176571  0.9147373062015518
 
  0.00000000E+00  0.00000000E+00  0.00000000E+00
  0.00000000E+00  0.00000000E+00  0.00000000E+00
  0.00000000E+00  0.00000000E+00  0.00000000E+00
  0.00000000E+00  0.00000000E+00  0.00000000E+00
  0.00000000E+00  0.00000000E+00  0.00000000E+00
  0.00000000E+00  0.00000000E+00  0.00000000E+00
  0.00000000E+00  0.00000000E+00  0.00000000E+00
  0.00000000E+00  0.00000000E+00  0.00000000E+00
  0.00000000E+00  0.00000000E+00  0.00000000E+00
  0.00000000E+00  0.00000000E+00  0.00000000E+00
  0.00000000E+00  0.00000000E+00  0.00000000E+00
  0.00000000E+00  0.00000000E+00  0.00000000E+00
  0.00000000E+00  0.00000000E+00  0.00000000E+00
  0.00000000E+00  0.00000000E+00  0.00000000E+00
  0.00000000E+00  0.00000000E+00  0.00000000E+00
  0.00000000E+00  0.00000000E+00  0.00000000E+00
  0.00000000E+00  0.00000000E+00  0.00000000E+00
  0.00000000E+00  0.00000000E+00  0.00000000E+00
  0.00000000E+00  0.00000000E+00  0.00000000E+00
  0.00000000E+00  0.00000000E+00  0.00000000E+00
  0.00000000E+00  0.00000000E+00  0.00000000E+00
  0.00000000E+00  0.00000000E+00  0.00000000E+00
  0.00000000E+00  0.00000000E+00  0.00000000E+00
  0.00000000E+00  0.00000000E+00  0.00000000E+00
  0.00000000E+00  0.00000000E+00  0.00000000E+00
  0.00000000E+00  0.00000000E+00  0.00000000E+00
  0.00000000E+00  0.00000000E+00  0.00000000E+00
  0.00000000E+00  0.00000000E+00  0.00000000E+00
  0.00000000E+00  0.00000000E+00  0.00000000E+00
  0.00000000E+00  0.00000000E+00  0.00000000E+00
  0.00000000E+00  0.00000000E+00  0.00000000E+00
  0.00000000E+00  0.00000000E+00  0.00000000E+00
  0.00000000E+00  0.00000000E+00  0.00000000E+00
  0.00000000E+00  0.00000000E+00  0.00000000E+00
  0.00000000E+00  0.00000000E+00  0.00000000E+00
  0.00000000E+00  0.00000000E+00  0.00000000E+00
  0.00000000E+00  0.00000000E+00  0.00000000E+00
  0.00000000E+00  0.00000000E+00  0.00000000E+00
  0.00000000E+00  0.00000000E+00  0.00000000E+00
  0.00000000E+00  0.00000000E+00  0.00000000E+00
  0.00000000E+00  0.00000000E+00  0.00000000E+00
  0.00000000E+00  0.00000000E+00  0.00000000E+00
  0.00000000E+00  0.00000000E+00  0.00000000E+00
  0.00000000E+00  0.00000000E+00  0.00000000E+00
  0.00000000E+00  0.00000000E+00  0.00000000E+00
  0.00000000E+00  0.00000000E+00  0.00000000E+00
  0.00000000E+00  0.00000000E+00  0.00000000E+00
  0.00000000E+00  0.00000000E+00  0.00000000E+00
  0.00000000E+00  0.00000000E+00  0.00000000E+00
  0.00000000E+00  0.00000000E+00  0.00000000E+00
  0.00000000E+00  0.00000000E+00  0.00000000E+00
  0.00000000E+00  0.00000000E+00  0.00000000E+00
  0.00000000E+00  0.00000000E+00  0.00000000E+00
  0.00000000E+00  0.00000000E+00  0.00000000E+00
  0.00000000E+00  0.00000000E+00  0.00000000E+00
  0.00000000E+00  0.00000000E+00  0.00000000E+00
  0.00000000E+00  0.00000000E+00  0.00000000E+00
  0.00000000E+00  0.00000000E+00  0.00000000E+00
  0.00000000E+00  0.00000000E+00  0.00000000E+00
  0.00000000E+00  0.00000000E+00  0.00000000E+00
  0.00000000E+00  0.00000000E+00  0.00000000E+00
  0.00000000E+00  0.00000000E+00  0.00000000E+00
  0.00000000E+00  0.00000000E+00  0.00000000E+00
  0.00000000E+00  0.00000000E+00  0.00000000E+00
  0.00000000E+00  0.00000000E+00  0.00000000E+00
  0.00000000E+00  0.00000000E+00  0.00000000E+00
  0.00000000E+00  0.00000000E+00  0.00000000E+00
  0.00000000E+00  0.00000000E+00  0.00000000E+00