Li 
 1.0000000000000000
    20.0207999999999977    0.0000000000000000    0.0000000000000000
     0.0000000000000000   20.0207999999999977    0.0000000000000000
     0.0000000000000000    0.0000000000000000   20.0207999999999977
 Li 
 432
Cartesian
 -0.0268455200000000  0.2019984500000000  0.1096392000000000
 18.3501872299999995  1.7427546599999999  1.6033983500000000
 16.8010363799999993  3.0435004000000001  3.4450354100000000
 14.8053475399999996  4.9015391800000003  4.9888351699999998
 12.9399468599999992  6.9091107599999999  6.0669200400000003
 12.0693931100000000  8.6414167899999992  8.0962776999999999
 10.3272514199999996  9.9646513100000007 10.5643936499999995
  8.0663507600000006 11.4650028000000006 11.6481131900000001
  6.5218534100000003 13.2620497499999992 13.3819015399999994
  4.9629678300000002 15.2368606599999996 15.2382508199999993
  3.4781959400000000 16.5858966199999998 16.3529232799999988
  2.0447924999999998 18.4784349799999994 18.3715637399999991
  1.5831541300000000 18.7484625600000001  2.1478111300000000
 -0.2332047800000000  0.0967172700000000  3.6213168400000000
 18.5321615699999995  1.6493568599999999  4.9887930000000003
 16.6764012699999995  3.4025638200000001  6.7298140899999996
 15.0001251399999997  5.2745147100000001  8.6468833600000004
 13.0849165200000002  7.1641472100000003 10.1555643000000000
 11.9547583300000007  8.3565958699999996 12.1158040299999996
 10.3494563100000008  9.8966367900000005 13.4746595399999993
  8.1223425200000001 11.8323053999999992 14.5884501899999997
  6.9321083100000003 13.3663598399999994 16.5238278600000008
  5.4271748700000000 15.2472098000000003 18.2250090200000017
  3.4414972399999999 16.6544508700000016  0.1476894200000000
  3.4056432399999998 16.6002642199999997  3.2618737100000001
  1.8865011599999999 18.4761505600000007  5.1938391399999997
 -0.2208378600000000 -0.1323112300000000  6.5174393700000000
 18.2950226899999997  1.6093593100000001  7.9355283500000002
 17.2453726500000002  3.2468559600000000 10.2637995899999996
 14.9885869500000002  4.8234077400000004 11.6390915400000008
 13.2934141900000000  6.6232990899999997 13.1869412300000004
 11.9675114399999991  8.1436448200000005 15.1386822799999994
 10.2699727200000002 10.5293902500000005 16.8708377700000014
  8.2629451700000001 11.7129442800000003 18.0407039800000000
  6.6115127400000002 13.1359244799999999 20.1945066699999991
  5.0794742599999996 14.7217334799999993  1.9228115200000000
  4.9235403800000004 14.3808404599999999  4.7004665499999998
  3.3083540500000002 16.3481395800000016  6.5323233099999998
  2.2136338400000000 18.3785183900000000  8.1424201800000002
  0.0037263000000000  0.2180108700000000  9.2782156800000006
 18.3447575600000015  0.8527582800000000 11.5219852300000003
 16.8642959400000017  3.0322077799999998 12.9954550199999996
 14.8812340899999995  4.6740105800000000 14.9296502300000000
 13.7318514100000009  6.4221080900000000 16.6679389499999999
 11.7138424699999995  8.3526383099999997 17.8225955999999996
 10.3830972700000004 10.1422553200000003 -0.5787803900000000
  8.3828717000000008 11.4396663000000007  1.3978799700000000
  6.7181870000000004 12.9237224099999999  3.2963917100000000
  6.6809043399999997 12.7131810600000001  6.7969558000000001
  4.9077872800000000 14.5679505000000002  8.2049269999999996
  3.5938078899999999 16.1847518699999995  9.6910119699999999
  1.7375392599999999 18.5190632099999988 11.1995530199999997
  0.2948774800000000 -0.1456118800000000 13.3875924600000005
 18.3193807799999995  1.7392763700000000 15.1031542400000003
 16.5724968200000013  3.0957689500000001 16.9464753700000017
 15.0983682600000009  4.6532568500000000 18.4566206900000012
 13.3665023200000004  6.4473180899999996 -0.1382144000000000
 11.6952246899999999  8.1085004400000003  1.0002779700000000
 10.0589285499999992  9.6998740100000003  3.1230367000000001
  8.8207484300000001 11.3792704800000006  5.0792165599999999
  8.6966234100000008 11.3728976300000006  8.1129347000000003
  6.9166371299999998 13.1072208200000002  9.7434722499999999
  4.7796021000000000 14.5731682500000002 11.8524503499999998
  3.2330160299999999 16.9261403399999999 13.2976601599999995
  1.9877044399999999 18.5967989899999999 15.2160688900000007
  0.0216440500000000 -0.2237816600000000 16.9097818699999998
 18.1503311399999987  1.6715360200000000 18.5484106299999993
 16.4577951899999988  3.0141988400000002 20.0001244400000004
 15.2497176299999992  4.5201713999999997  1.9588022599999999
 13.4315120199999996  6.6645488799999999  3.0175933000000001
 11.7237251800000006  8.5982156199999995  4.7014863399999998
 10.1035500299999992  9.7281333199999995  6.8252786399999996
  1.5193404900000000  1.8630423400000000 18.4468437099999996
 -0.1841301600000000  3.2925475500000001  0.2084242400000000
 18.3303091999999985  5.1125799299999999  1.5682406099999999
 16.7368517700000012  6.5090827200000003  3.3727675600000002
 15.0465275300000005  8.4344131999999998  5.0965975500000003
 13.5562402700000000 10.0352329499999993  6.7618272299999997
 11.7309235500000000 11.2028698900000006  8.5264254899999994
  9.9244362699999993 13.7598712499999998  9.7790478800000002
  8.4294512200000007 14.7764096400000007 11.7307572600000007
  6.4552270600000003 16.4276744400000005 13.5802763500000001
  5.1641000999999997 18.5882089999999991 15.1386185300000005
  3.3782127399999999  0.2998172400000000 16.7793468300000015
  3.8081594999999999 -0.0987614000000000  0.0713292600000000
  1.7085033999999999  1.6427547499999999  1.6147871199999999
  0.1257324800000000  3.2176806700000000  3.3184267300000001
 18.4252398699999986  5.0964945699999999  4.8272444200000004
 16.8260810300000010  6.6372989599999999  6.8090457200000003
 14.8656936999999996  8.1254316899999992  8.5372587499999995
 13.5819940199999998  9.9675988400000008 10.4190973400000004
 11.4897574500000008 11.8969739600000004 11.5609232700000000
 10.2583127699999999 13.3619358899999998 13.1807850299999991
  8.5152254900000006 14.6048413400000001 14.7380478700000008
  7.3691512699999997 16.6649398399999988 16.5073148500000002
  5.2934552300000002 18.2287896799999984 18.3823562400000000
  5.2179315800000001 18.2596056799999999  1.7517284700000000
  3.0111235100000000  0.1354884700000000  3.4747168300000002
  1.9382884199999999  2.1696371100000000  5.3824983900000003
  0.2470766600000000  3.7002383700000001  6.6173653799999999
 18.0309760399999988  4.5708076300000000  8.4816832899999994
 16.3715301500000017  6.4732018499999997 10.0323559800000002
 15.2374477699999993  8.1176167299999999 12.0901377700000001
 13.6524421500000006 10.3132001700000000 13.3271265099999994
 11.7372973599999995 11.9904249699999994 14.8821381600000002
  9.7388469600000001 13.3838897800000005 16.3731027800000000
  8.3238032099999995 14.7607680899999991 18.5442630599999987
  7.1735541500000002 16.4295532699999995 20.5543187100000004
  6.8579060700000003 16.3006693700000014  3.6211172800000000
  4.6556853199999999 18.4767255800000001  4.5711050300000000
  3.5307458500000002  0.6114053699999999  6.5701202600000004
  1.8160377200000000  1.4261753500000001  8.5739992699999998
 -0.2532969200000000  3.2938906800000001 10.3017803800000003
 18.0297665199999990  5.2630306500000001 11.6918611200000004
 16.6509248599999999  6.5738665100000002 13.5583122599999992
 14.8189804899999995  8.4292056399999993 15.3271774399999998
 13.5460108399999992 10.4216337200000009 16.7302408000000007
 11.5290754199999999 11.9193949400000001 18.1207462499999998
 10.1606259399999992 13.2674843899999999 19.6251734400000011
  8.6329803199999997 14.5130067199999999  1.9718082600000000
  8.3776995599999999 14.3184259899999997  4.9647406199999997
  6.1268623599999996 15.8387089700000008  6.3202571499999998
  5.1047742700000001 18.1121278399999994  7.8546971599999997
  4.1659425099999998  0.1123106900000000  9.5392937599999996
  1.7645730700000000  1.6052861599999999 11.2509974300000000
 -0.1058586600000000  3.1102283700000002 13.3122643000000007
 17.7574621899999983  4.6193682000000003 14.6711792400000007
 16.7684357000000013  6.2639993499999997 16.5390576699999983
 15.1905788400000006  7.9938601299999998 18.3252858399999994
 13.5567160199999996 10.1205098699999994 19.6209310200000004
 11.6381393200000005 11.4197834199999999  1.2773278500000000
 10.3343890199999997 12.7592885099999993  2.8126379400000001
 10.2212687899999999 13.4221574100000005  6.7861209699999998
  8.2849842700000007 14.7650564299999996  7.9512261899999999
  6.2662958000000000 16.1615368299999993  9.7805807199999997
  4.8753384400000002 17.8054002099999984 11.3604023200000004
  3.6050798300000002 -0.0938161800000000 12.9420685199999994
  1.7437805399999999  1.3461684300000001 15.2403875000000006
 -0.3350917700000000  3.3183558400000002 16.6955389399999987
 18.2972272199999999  4.8751277999999996 18.4957382599999995
 16.4582105799999994  6.7738081100000000 20.2552525299999999
 15.5078390899999992  8.5586407900000001  1.5776266699999999
 13.2605273300000004 10.3070572800000004  2.8983005400000001
 11.4827083200000004 11.5180131499999998  5.0842141099999996
  3.1992340100000001  3.2038308099999999 16.9043808599999998
  1.8443656900000001  4.7460025100000003 18.6378920100000016
 -0.0617636200000000  6.7777684000000002  0.2763902600000000
 18.1821086799999989  8.5699114699999992  1.8787466399999999
 16.7384304899999989 10.1467776599999997  3.6653462700000001
 15.2453442300000006 11.6616267199999992  5.4052549399999998
 13.0631175400000004 13.2361087499999996  7.0594250499999998
 11.8035573500000002 15.4109294099999996  8.3956801999999993
  9.7984826100000006 16.8998193599999986  9.5804410499999992
  8.2801293299999994 18.0022583099999984 11.4827981000000001
  6.5971323399999999 19.8052770299999992 13.0683776399999996
  4.8735410300000002  1.7560304799999999 14.6249708999999992
  4.7682226800000000  1.7392641099999999 18.2178204900000011
  3.5249960800000002  3.1808310700000000  0.2275514900000000
  1.7973391100000000  5.1526046499999998  1.7917311700000000
  0.3151745100000000  6.7136547200000001  3.2578354400000000
 18.6303613900000009  8.4533448599999996  4.9742139900000000
 16.8039373699999999 10.1542258499999996  7.1345676100000004
 15.4369088899999998 11.6818033600000000  8.6061288900000008
 13.0265226100000007 13.1310805899999998  9.8209854399999994
 12.0671351799999993 15.3690358800000002 11.3058693600000009
 10.2299045199999998 16.9555825499999990 13.2912005499999992
  8.2892751699999998 18.5542136199999987 15.3200941000000004
  6.6076382499999999 20.2996878199999990 16.6608088700000003
  6.3699488200000003 -0.2653106100000000 -0.0495309900000000
  4.8331599000000001  1.6726587399999999  1.5820772400000001
  3.0752935899999998  3.5466031899999999  3.1372934699999999
  2.0353123000000002  5.3779571900000001  4.5573451499999997
  0.0001710000000000  6.5810431100000004  7.0788928200000001
 18.2673234700000009  8.2652160400000003  8.8722674799999997
 16.8278138000000013  9.9113921200000004 10.0708382099999998
 14.8966118299999994 12.0228056199999997 11.9890035899999994
 13.5278804200000007 13.8044233399999996 13.5017751399999995
 11.8198768100000002 15.2905878299999998 15.0987823599999995
 10.1274049599999998 16.4592797600000011 16.6492490599999989
  8.2591088199999998 18.3547103000000007 18.5804866900000007
  8.4512669700000007 18.3977476399999986  1.9766991000000000
  6.4904793900000000  0.0155263100000000  3.4607590799999999
  5.2803226700000003  2.2822135700000001  4.5137248500000000
  3.5408948599999999  3.4331498499999999  6.6824542400000002
  1.9823210400000000  4.8898736899999999  8.4706600900000009
  0.0545802000000000  6.6650721400000004  9.8634353899999994
 18.5218497000000006  8.1153074800000002 11.6453076400000004
 16.4379222600000006 10.0117593500000002 13.5375640300000004
 14.9723997499999992 11.8857138399999993 15.4734993599999999
 13.0500188599999998 13.6347548700000001 16.8393909400000013
 11.3257025200000001 14.7945918100000000 18.3112056900000013
  9.7331096400000003 16.5598996900000017 20.3371804599999990
  9.7346108200000003 16.3672158299999992  3.2972510599999998
  8.2632717000000007 18.2957468799999994  5.2814396400000003
  6.5145134799999997  0.3101332400000000  6.6345566600000003
  5.2287731400000004  2.2633459399999998  8.3625184200000007
  3.5420549200000000  3.2946646099999999  9.6961472299999993
  1.4805352400000000  5.0274502900000000 11.5108850300000007
  0.1849237100000000  6.4165578200000004 13.1245272699999997
 18.6462567499999992  7.8434223400000000 15.1495106400000008
 17.1224616099999984 10.1996430100000008 16.6676124100000003
 15.3363094800000006 11.8582291299999998 18.3595881600000013
 13.1699678400000000 13.4114272499999991 20.1100906899999998
 11.7391546200000008 14.8122778799999999  1.9460441799999999
 11.0851365499999996 15.0999136899999993  5.0406202300000000
  9.6233557100000002 16.6517967899999988  6.9348324300000002
  7.5960415100000001 18.1785224300000010  8.0840995600000003
  6.4363732200000001 -0.0177616300000000 10.4484518299999998
  5.2227600000000001  1.5919154799999999 11.5816406799999996
  3.0763647600000001  3.0350825399999999 13.0439119399999992
  1.7026449100000001  4.4953928100000002 14.8079802500000000
  0.1547144400000000  6.4268232799999998 16.6582821500000016
 18.0651049700000002  8.2902761599999995 18.6262652499999994
 16.4753307299999996 10.3767068299999998 20.3019634499999988
 14.9086460699999996 11.8156438099999992  1.7337596099999999
 13.1483179200000002 13.1477687799999998  3.4088655800000001
  4.7466444100000000  4.6061539399999996 14.6037972699999994
  3.5515990700000000  6.6344969400000000 16.9612829400000003
  1.6086930300000000  8.0345400100000006 18.1734441300000000
  0.0131870400000000 10.1692929299999992  0.0891491200000000
 18.1763167000000010 11.4100737900000002  1.9829099500000000
 16.7298519299999988 13.0978962299999999  3.6191356799999999
 14.7877271100000005 14.7839508599999991  4.8641208699999998
 13.2956246599999997 16.8681598100000016  6.7489881900000004
 11.4750444599999994 18.0923850199999983  8.5796435800000008
  9.8670272899999993  0.0186963600000000  9.8622110999999997
  8.2593304399999994  1.4126179100000000 11.8576257199999997
  6.8169059100000000  3.4504023600000000 13.3365027800000000
  6.3064934399999997  3.0221892800000001 16.4825608599999995
  5.2780295600000002  4.3053891499999999 18.8029672599999991
  3.6930647400000001  6.7511599799999997 -0.1712998600000000
  1.7710804000000000  8.4922015099999992  1.3814303900000000
 -0.0469132800000000 10.0909580099999996  3.6186480799999998
 18.5355312499999982 11.6361058800000006  5.3145636400000003
 16.5003962900000012 13.9825290300000002  6.7583881500000000
 14.6916610300000006 15.3749448999999991  8.7139553900000006
 13.4131782000000008 17.0224371300000001  9.8970992199999994
 11.5052480100000007 18.6448829600000003 11.8726956599999998
 10.2890965699999999 20.0442701099999994 13.1045789599999996
  8.1411416400000007  1.5733739700000000 14.5859180199999994
  8.1610360199999992  1.3593793999999999 18.4192390500000016
  6.6556716299999996  3.2486793000000000  0.1025321200000000
  5.2448673799999996  5.3669187599999999  1.6532608099999999
  3.4919882800000002  7.3801887800000001  2.9979832100000001
  1.5137033200000001  7.9871748900000004  5.1274829799999999
 -0.2052798700000000 10.1167755600000007  7.2704662400000002
 17.9747373800000005 12.0225184699999996  8.8997440300000008
 16.9188707799999989 13.8034693700000002 10.1855511500000002
 14.8792074700000008 15.1137785000000004 11.9998666899999993
 13.3278763799999993 16.6899740399999992 13.3124341600000005
 11.4283683099999998 18.7205590899999983 14.8290894000000009
  9.6715245299999992 -0.0419783400000000 16.7344852400000015
  9.6694345300000002  0.1129948600000000  0.2648538600000000
  8.2052787499999997  1.7645250900000000  1.8893114300000000
  6.7618397799999999  3.7629795900000000  3.2417118800000000
  5.2130371100000001  5.2916870700000000  4.6858949200000000
  3.3176108800000002  6.7042756099999998  6.5178190400000000
  1.5597627300000001  8.1972130300000003  8.2534418600000006
 -0.2979337900000000 10.3881784100000001  9.9057996199999998
 18.2496682700000008 11.7156121199999994 11.9862119000000007
 16.9090375600000016 13.7274654300000005 13.9718652999999993
 15.0996078499999999 15.0837281599999997 15.1855617899999995
 13.1677023599999998 16.5615769800000017 17.2007091999999986
 11.4256270799999999 18.5546712400000011 18.5468155400000008
 11.3752298599999992 18.0685401900000002  1.6228889399999999
  9.9815729100000006  0.0723333100000000  3.8905646800000002
  8.3162286400000003  1.6582534000000000  5.2352101700000002
  6.7855929399999999  3.4612043400000001  6.5795071500000004
  5.3300773799999996  5.2910606900000001  8.2339749500000003
  3.4462380600000002  6.9815703200000003 10.0307685899999992
  1.6601102000000001  8.1717050300000000 11.7062626099999996
  0.0975216700000000  9.8306620400000000 13.1107164199999993
 18.7327643700000017 11.5947396600000001 15.1041398000000004
 17.1302674099999983 13.5726497899999998 16.6930358900000009
 15.0145949900000009 15.4923455200000006 17.9441842800000018
 13.1698296700000004 16.6775094199999998  0.1169560500000000
 13.3994768299999993 16.5137497099999990  3.4295726200000001
 11.5148352200000001 17.9094514400000016  5.2204807700000000
  9.7674999800000002 -0.0142656400000000  7.3565020499999996
  8.3863854100000008  2.0183075499999998  8.4836247599999997
  7.0292947200000002  3.6548112200000000 10.2833542900000001
  5.1893073400000000  4.9087195799999996 11.8521848100000007
  3.4136022600000002  6.2835684799999996 13.1588796800000001
  1.8662740499999999  7.7655066699999997 14.8639647499999992
  0.2509637200000000  9.7384703800000008 16.9340326599999997
 18.6199213499999985 11.5375795700000001 18.4003095700000010
 16.7806956900000017 13.5806458899999996  0.0721617800000000
 15.0413670899999996 14.8225806799999997  1.7630262999999999
  6.6759482900000000  6.9892147500000004 13.4526576299999991
  5.0511727500000001  8.3732173400000001 14.7743569099999998
  3.0572267800000001  9.7993987800000006 16.6083507700000013
  1.5692157099999999 11.6493612500000001 18.5372226900000001
 -0.0010581800000000 13.1241300100000000  0.2038588500000000
 18.7817381099999992 14.9743121499999994  1.5843528099999999
 16.7043853300000009 16.3842761900000013  3.1057514500000001
 14.8928284000000009 18.2778941000000010  4.6775256900000004
 13.2629868700000006 -0.1386659800000000  6.7345491099999997
 11.4477375400000003  1.7716438000000001  8.2640646100000001
 10.1650648599999993  3.6378121499999998 10.0735848400000005
  8.2809793900000006  5.0902954400000002 11.4544295999999992
  8.2317664799999992  4.8066668000000004 15.1866945500000003
  6.5013970399999996  6.6081282200000002 16.4777002999999986
  4.9108087899999999  8.3826683800000001 17.9751149900000016
  3.4703452800000001 10.0185278499999999 -0.2202218300000000
  1.3175103200000000 11.3936566199999998  1.8139620100000000
  0.2508368400000000 13.4109180400000003  3.9574346500000002
 18.3616461499999986 15.5934343799999997  4.9940447800000003
 16.1755371900000000 16.6174097200000013  6.7411015200000000
 14.9879150299999999 18.8936721299999988  8.0312118899999998
 13.0642302800000003  0.1309144100000000  9.8902857500000003
 11.6676644100000004  1.9430162799999999 11.3869786299999998
 10.0348159300000006  3.7352936699999999 13.3300182899999999
 10.1426512100000004  3.0812886499999999 16.8207245500000013
  8.3574155599999997  4.4277282800000002 18.5387542900000000
  6.5879845499999998  6.6475973100000001 -0.5264645700000000
  5.4441399199999996  8.5383974499999997  1.4814799599999999
  2.6868465000000001  9.6351438700000003  3.0290999200000002
  1.4604164399999999 11.3914205099999997  5.2680418099999997
 -0.3097064100000000 13.4284607800000000  6.7045615500000002
 18.4862482099999994 15.7449676200000006  8.0183881299999999
 16.6978870300000004 17.0045074499999984 10.0712959499999997
 15.0531392200000003 18.4930814800000007 11.6873623700000007
 13.4767188999999998  0.1982874700000000 13.0009513400000003
 11.7681539900000001  1.7866720400000000 14.7457115499999993
 11.5463962000000002  1.7309346600000000 18.1104323700000016
 10.0872370399999998  2.9807625400000002 -0.0170070000000000
  8.6036409799999998  5.1457142500000002  1.4404917699999999
  7.0424531200000002  6.9179747300000001  2.9956179000000001
  4.9891516500000002  8.2580112499999991  4.8088931500000003
  3.3471693299999998  9.7913493599999999  6.6635840699999997
  1.5291493300000001 11.7416728199999998  7.9694120100000001
 -0.1277980500000000 13.6138683399999998 10.3067971600000003
 18.4004244999999997 15.2495994699999997 12.1758813099999994
 16.8168119699999998 17.0778973900000004 13.5872355299999992
 14.5694070199999999 18.3944913499999991 15.0983792000000001
 13.0894199800000006  0.1576699300000000 16.6192428600000000
 12.9384066299999994  0.2127714600000000  0.2670906400000000
 11.5474899900000008  1.5816774800000000  1.9083993900000000
  9.6795456299999998  3.4567411899999998  3.6885354600000002
  8.3674163299999993  5.1223013599999998  4.9768207699999998
  6.7401774799999998  6.4553166199999996  6.7527678800000004
  5.0067148200000000  8.3302645000000002  8.0770645699999992
  2.8354062600000001 10.1145003199999994 10.2906429100000008
  1.2312192700000000 12.2594765900000002 11.7866711700000000
  0.0541093800000000 13.5779496300000009 13.4089781000000006
 18.5487952100000015 15.7546894599999998 15.6412513400000002
 16.2362931900000014 17.1383145500000005 16.7580033899999989
 15.2754975999999996 18.8417497000000012 18.4392707199999997
 14.7768912300000004 18.4894931699999994  1.7327164500000001
 12.9711749899999997 -0.2218270700000000  3.4874042599999999
 11.3550018599999998  1.7501304900000001  5.3401574900000002
  9.7118571599999992  3.4395916400000002  6.5805292599999996
  8.8403234699999995  5.0333243100000002  8.2251295700000000
  6.9819701399999996  7.1081631500000002  9.9312148899999997
  4.9218579800000004  8.2924188500000007 11.4468390400000004
  3.0766255800000000 10.0577288800000009 13.2043940299999996
  1.4767893999999999 11.6971647000000001 15.2844680999999998
 -0.0968917000000000 13.5165669699999995 16.9303535799999985
 18.4767872400000002 15.5018395099999999 18.6688732699999989
 16.4232326800000017 16.8973157900000004  0.0398215000000000
  8.4780756499999992  8.4319950499999994 12.2145077099999995
  6.3091134400000000  9.9030788199999993 12.9967247100000005
  4.9377364899999998 11.2593786799999993 15.0341416199999998
  3.2675894900000002 13.3023255400000000 16.5901835800000015
  2.1397896699999999 14.9272891300000001 18.5403218500000015
  0.3466409500000000 17.2995793199999994 -0.1443522200000000
 18.5532413299999988 18.2509277599999997  1.3378922300000000
 16.4001847100000013 20.4217809499999987  3.1310892899999998
 14.5871563000000002  1.4144850099999999  5.1196602899999997
 12.9866407899999992  3.3632700799999999  6.8477677500000000
 11.5574831899999992  4.9075655800000000  8.4105084800000007
 10.1323719099999998  7.0199028999999999  9.9987525900000005
 10.1522607899999997  6.4926678999999998 13.5927971200000002
  8.4734390000000008  8.8793914500000000 15.0001454600000006
  6.7249312000000003 10.0745515599999997 16.3656349399999996
  4.7648037399999996 11.9687520599999999 18.4284970500000007
  3.6590734999999999 12.9974376500000002  0.1443539600000000
  1.5593552799999999 14.6959921700000002  2.0070787299999999
  0.1038728200000000 17.1730469899999996  3.6944310499999999
 17.7444618200000015 18.4790722900000013  4.6876036900000004
 16.2901034799999991 20.5138983900000014  6.4272257699999997
 14.9741297899999992  2.0155417500000001  8.7091504900000007
 13.2554197400000007  3.3523894400000001 10.0529007400000001
 11.7060038599999992  5.3879553400000004 11.4534073299999992
 11.8625149699999994  4.6783924099999998 15.1807713300000007
  9.9804525200000000  6.5678104499999996 16.2487467400000014
  8.2925195499999997  8.3066148299999991 18.0186905499999988
  7.0283960299999997 10.0298954200000008 -0.2987533500000000
  5.3244200499999996 10.8698453500000003  1.7685513200000000
  3.2443859100000001 12.7645763399999996  2.7893311600000001
  1.6618929600000001 14.7536371400000004  4.7467116599999999
  0.2526452700000000 17.3630709199999984  6.2412703399999998
 18.0389641500000018 18.2997069900000007  8.2432742700000006
 16.7243509800000005  0.0129267700000000  9.7695169800000006
 15.2427060399999998  1.6830504399999999 11.3354859999999995
 13.3316843800000004  3.3919728099999999 13.0001471899999999
 13.2486097600000008  3.3181571999999999 16.9561064100000003
 11.5220529599999999  4.9511047599999998 18.1980514999999983
 10.2434321500000003  6.2758436299999998 -0.5868867600000000
  8.8062599600000002  8.1236558500000005  1.2632989100000001
  7.0583172200000002  9.4539473699999999  3.4399457600000001
  4.7825138699999998 11.3416726899999993  4.5480737800000002
  3.0720595400000001 12.9264217200000004  6.3223685800000000
  1.5370595199999999 15.1804337700000005  7.9856085999999999
 -0.1019485900000000 17.0419108000000001  9.7265154799999998
 18.3352539400000012 18.2586304900000016 11.7271087200000004
 16.1808862500000004 19.9538802199999985 13.6184363600000005
 14.8552686699999992  1.7292432499999999 15.2378794800000001
 15.3283819399999999  1.5872623800000001 18.5820678000000008
 13.0038650699999998  3.0719525100000000  0.1387977900000000
 11.6890166600000001  5.0755938799999996  1.6541244300000000
 10.5472904199999995  6.8983336000000000  3.2225728100000000
  8.4692931599999994  8.1660317599999992  4.9302750199999998
  6.6477772799999997 10.0253758299999998  6.7562663799999996
  4.9073318400000003 11.2753685600000004  8.8542508600000005
  3.3442481100000001 13.7308170700000005  9.8935850599999995
  1.7563854400000001 15.5086227200000000 11.3033584800000000
  0.2733884400000000 17.0047142399999984 13.6685647699999997
 18.3543364400000009 18.5251876799999984 15.2435900499999999
 16.4561557699999987 20.0417050600000017 16.3800532799999985
 16.6791712799999985  0.0330343200000000  0.0739135300000000
 14.6727771800000006  1.6810705500000001  1.7689149600000000
 13.0812030700000008  2.8766004100000000  3.7555520900000001
 11.2153075100000006  4.9662555700000004  4.9795972400000004
  9.9995228399999991  7.0584030100000001  6.3056484199999998
  8.5102867500000006  8.9193772300000003  8.1060555999999995
  7.1255220799999996  9.7694601799999994  9.8648205200000003
  4.5055639100000002 11.9425254299999999 11.6361111400000006
  2.9386610700000002 13.5399039299999995 13.3996417999999995
  1.7161507100000000 15.0968265600000002 15.0200631700000002
  0.6208774300000000 16.7870527000000003 17.1166250799999986
 18.1914656400000005 18.5475151899999986 18.3137726600000015
