Li                                      
   1.00000000000000     
    21.6499999999999986    0.0000000000000006    0.0000000000000000
     0.0000000000000006   21.6499999999999986    0.0000000000000000
    -0.0000000000000006   -0.0000000000000006   21.6499999999999986
   Li
   500
Direct
  0.0031151020785245  0.9987813242494212  0.0031100277136247
  0.0011684563510386  0.0956245944572771  0.1102677450346405
  0.9956800013856792  0.2112507612009225  0.2047793011547370
  0.9925045482678954  0.3054362277136278  0.3103941570438806
  0.9815260152424941  0.4055930766743643  0.4320185709006950
  0.9742682803695146  0.5028542277136268  0.4996607616628168
  0.9893305875288689  0.5900483524249438  0.5912045972286393
  0.9796794914549665  0.7022826041570411  0.7129368087759786
  0.0068511949191716  0.7923662471131649  0.8066987709006952
  0.0133539117782888  0.8982927838337176  0.8920985256351059
  0.1003535297921445  0.9790348840646672  0.1068788106235559
  0.0988901445727493  0.1186964443418006  0.2010675584295640
  0.0687169491916890  0.1950463362586632  0.3266071473441130
  0.0934363884526590  0.3257292591224044  0.4055032665127030
  0.0955935598152422  0.4099664277136270  0.5112508646651293
  0.0991146387990796  0.4973979154734423  0.6115026498845282
  0.0937876840646652  0.6079910993071564  0.6820838868360255
  0.1100079348729821  0.7044503995381035  0.7846688762124714
  0.1074922739030058  0.8173539339491924  0.8845689935334846
  0.0992421565819868  0.9284947413394917  0.9971601690531173
  0.1881012923787537  0.0186519792147806  0.1891940558891463
  0.1920921163972267  0.1062103889145476  0.3332712951501122
  0.1819295307159337  0.1778400073903015  0.3822196711316366
  0.2003244812933005  0.3045670013856778  0.5065484489607357
  0.2157916905311765  0.3883957002309444  0.6094824780600447
  0.2015527704388020  0.4936229519630473  0.6864887357967646
  0.1988544369514997  0.5879384836027697  0.7794115838337206
  0.1989753020785230  0.6988049048498866  0.8978188115473458
  0.2061510969976936  0.8083237773672067  0.9720143274826825
  0.2094472443418027  0.9110852498845290  0.0876988018475728
  0.2827961630485021  0.0079057154734414  0.3041909764434152
  0.3042980000000028  0.1056378309468826  0.3855248221709004
  0.2881411487297925  0.1937978332563546  0.5049799612009238
  0.3170787251732108  0.2958934110854514  0.5986174512702078
  0.2913726009237863  0.3798069662817554  0.7000182175519640
  0.3079648545034672  0.5090731718244825  0.8098678027713646
  0.2949777621247094  0.5946962083140903  0.8878036355658168
  0.3282112882217092  0.6843723482678996  0.9987874683602769
  0.3049569921478081  0.7856467187067011  0.0870416466512722
  0.2789875330254006  0.9027196355658234  0.1994678609699747
  0.4155058355658170  0.9931251773672045  0.3746849612009271
  0.4090454568129331  0.0915943450346433  0.4978549191685886
  0.3989396466512716  0.1875087399538131  0.5928859930715902
  0.4007652771362586  0.2901886193995367  0.6831775048498869
  0.4046704152424923  0.3901849030023072  0.7835645090069292
  0.3973904914549635  0.4843847699769057  0.8988440221708984
  0.4289841824480405  0.6103384323325614  0.9982745639722879
  0.4150537926096973  0.6910358646651247  0.1311546535796779
  0.3968486120092365  0.7957162230946864  0.1961911935334868
  0.3916193279445750  0.9096482614318688  0.2856277348729819
  0.5026837866050826  0.0065266457274831  0.4989587145496515
  0.4932031233256353  0.0880521972286346  0.6098531829099301
  0.4874445307159334  0.1925171745958423  0.7072006337182444
  0.5067087824480367  0.2953424919168626  0.7891747431870684
  0.4926878120092368  0.3991604503464217  0.9082029838337178
  0.5089640480369511  0.4897500595842956  0.0085974872979193
  0.4821769413394890  0.5933233233256345  0.1201587630485008
  0.5022754775981539  0.6976622378752921  0.2025735593533469
  0.4910290896073874  0.8034897672055408  0.2921191210161638
  0.5085152558891437  0.8880609981524259  0.3754210808314085
  0.6003512540415699  0.0004892581986127  0.5871600632794483
  0.5937107829099304  0.0882768143187036  0.7179912351039235
  0.5941097436489642  0.1974849043879914  0.7912744799076208
  0.6092888863741308  0.3106469607390281  0.8964101893764465
  0.5948619381062343  0.3996655778290972  0.0192628448036984
  0.5942488300230977  0.5003020591224043  0.1181602826789856
  0.5820814591223993  0.5867956346420300  0.2119169879907616
  0.5959692378752877  0.7152311764434174  0.2839678609699803
  0.6033080517320997  0.7933266401847590  0.3932641764434166
  0.6016701053117757  0.9155931224018445  0.4954307381062364
  0.7038592572748286  0.9956250290993083  0.7116736859122383
  0.7072517053117764  0.0982164692840612  0.8122691939953839
  0.6986476526558860  0.1978378960739064  0.9078264027713630
  0.7013821505773663  0.2918115163972317  0.9927851806004639
  0.7016620933025379  0.3924935658198621  0.0737635718244789
  0.6961765782909950  0.4983975113163979  0.2076115745958447
  0.6920086434180135  0.6007017251732094  0.3158146166281739
  0.7035420637413381  0.7090818896073898  0.4134387949191662
  0.6728965016166271  0.8210166258660507  0.5048819778291005
  0.6999504083140877  0.9165936110854531  0.6014395949191709
  0.8071856277136291  0.0095062762124698  0.8094515570438787
  0.8028670064665135  0.1144191963048513  0.9050281090069277
  0.8017392752886821  0.2188441958429550  0.0068971958429529
  0.8153025113163963  0.2957172993071566  0.0989626512702060
  0.8000549801385688  0.3974003487297892  0.1939370332563541
  0.7901912092378751  0.5023813321016135  0.2976702521939956
  0.7839761260969951  0.6144547990762135  0.4097782166281760
  0.7951203187067009  0.7223696337182446  0.4950282023094701
  0.7849014974595860  0.7822638180138597  0.6000246475750544
  0.7953947376443438  0.8867707861431882  0.6871249094688210
  0.9044900803695128  0.9943396083140854  0.9180316623556593
  0.9223480877598149  0.0991392055427269  0.0187001422632775
  0.9087051579676668  0.2068785561200954  0.1182988106235570
  0.9230218808314063  0.2997554226327921  0.2142832226327940
  0.9154957542725199  0.4177703598152434  0.2996436715935360
  0.8845634355658234  0.5336343450346419  0.3972514023094718
  0.8848032180138574  0.6051663057736718  0.4950280688221724
  0.8902847699769083  0.6740840434180129  0.5957998036951508
  0.8781637076212476  0.7978939903002313  0.7030831394919161
  0.9080550180138545  0.9042456341801355  0.7819700263279472
  0.0864402688221730  0.1007750198614303  0.0056976660508070
  0.1047949233256347  0.2018220974595835  0.1065954078521969
  0.0728625759815245  0.2754927224018502  0.2209780997690558
  0.1038023321016155  0.4008439491916889  0.2968659459584302
  0.1086433542725160  0.4991702794457282  0.4202146951501149
  0.1241614836027694  0.6132993168591199  0.5178283330254061
  0.0871690595842978  0.7035960743648957  0.5910435413394950
  0.0927817699769022  0.7886968193995401  0.6875250535796766
  0.0971868018475774  0.9110115575057733  0.7787531939953780
  0.1109855875288659  0.9972925958429570  0.8996055621247123
  0.1943723459584277  0.1062212563510414  0.0887832572748266
  0.1933607787528899  0.1894828018475749  0.2235493159353368
  0.1878125043879919  0.2870760364896086  0.3063617381062329
  0.2036765307159385  0.3977974757505791  0.4148622535796775
  0.2325416831408802  0.4909330771362619  0.5202179685912256
  0.2155131094688230  0.5852549575057751  0.6169863773672049
  0.2204985080831392  0.7077033265588923  0.6695400434180172
  0.2169432055427265  0.7977258646651251  0.7800573288683594
  0.2097945325635138  0.8901638152424951  0.8768025210161667
  0.1775481006928388  0.0052908166281753  0.9862522822170874
  0.2745611418013851  0.1202440083140885  0.2177462355658193
  0.3095243182448044  0.1845089468822181  0.3046873575057703
  0.2657334184757474  0.2771651736720528  0.3911809986143169
  0.3190475251732110  0.4128112609699741  0.4931114152424954
  0.3187974655889150  0.4950217745958412  0.6194662406466520
  0.3147087524249415  0.5995469242494238  0.7123783399538084
  0.3067851639722861  0.6993273815242489  0.7795429533487308
  0.3186177635103959  0.7974281117782880  0.9016677293302564
  0.3007925575057726  0.9042878240184749  0.9978488988452625
  0.2856446812933058  0.0247127080831433  0.0965426739030022
  0.4274397210161638  0.0986419593533512  0.2935643256351028
  0.4133750193995382  0.1906340535796787  0.4049513658198620
  0.3788306951501141  0.2856716230946859  0.4843133981524232
  0.4038447949191664  0.3938163247113167  0.6137946891454931
  0.4127430937644334  0.4821171311778301  0.7061685792147827
  0.4060655782909919  0.5861763935334849  0.7875299427251718
  0.4071989043879896  0.6913678050808301  0.8973509057736706
  0.3939981131639740  0.8092022230946867  0.0042399376443427
  0.3937812087759838  0.9036827274826820  0.1227374937644328
  0.3960809247113133  0.0061319727482712  0.2123112249422618
  0.5153865404157045  0.0823366087759823  0.3624310563510420
  0.5122918799076217  0.1846188965357953  0.4872670632794467
  0.4809694424942279  0.2955296757505792  0.5719126369515024
  0.5001984605080807  0.3977412406466527  0.7062475565819852
  0.5137518785219370  0.4966255879907635  0.8255564235565842
  0.5015272249422651  0.5860157736720524  0.8756143704387966
  0.5020695399538084  0.7099343173210144  0.9968705274826775
  0.4974181782909923  0.7905979482679015  0.1086023866050780
  0.5075652170900682  0.8863046702078492  0.1673827334873010
  0.5196993870669715  0.9700341163972297  0.2741131260969993
  0.5914441662817538  0.0993502420323296  0.4963170078521912
  0.5932132683602802  0.1868984073903022  0.6069104988452665
  0.5841397279445744  0.3245307842956109  0.6929948960739054
  0.6084148872979185  0.3971132157043868  0.8202138050808330
  0.6169049921478091  0.5022185551963076  0.9103492152424977
  0.5864321764434166  0.5966278443418034  0.9962968295612029
  0.6024060013856811  0.6892766429561235  0.1065189154734441
  0.6030537658198583  0.8165126448036943  0.1693005002309462
  0.6230216706697433  0.8717061099307131  0.2940343080831411
  0.6231219464203264  0.9883664614318732  0.3991633538106214
  0.6855437353348748  0.0993285450346448  0.6013399584295627
  0.6584063491916865  0.1978007769053107  0.7038222803695149
  0.6988074928406434  0.2957570628175503  0.8014579020785249
  0.7294040688221699  0.4113461094688233  0.9149902628175539
  0.6984761450346397  0.5092329348729763  0.0045711473441088
  0.7027157893764411  0.5905729690531203  0.1219056702078518
  0.7096849034642005  0.7108647542725208  0.2010378540415729
  0.7114839330254057  0.8141763718244803  0.3017945856812929
  0.7167676956120062  0.8972162424942240  0.3897989048498829
  0.7089814180138561  0.0082896969976929  0.4808426988452652
  0.7883430831408802  0.1070432919168596  0.6900010498845290
  0.8106350591224043  0.2205630240184746  0.7892747085450367
  0.7974667524249455  0.3004861187067007  0.9125856346420349
  0.8220295930715906  0.3972365727482696  0.9933693602771356
  0.8170387829099326  0.5055912822170896  0.0879862420323292
  0.8081493242494204  0.6141404646651267  0.2286652267898361
  0.7939724549653562  0.7217035187066969  0.3152785787528884
  0.8106816900692806  0.8167610711316371  0.3989121367205541
  0.8047013621247103  0.9177809736720519  0.5141494937644353
  0.7816004494226334  0.0116543806004614  0.6028242133949178
  0.8811655357967680  0.0925382013856790  0.8050579930715926
  0.8992991418013858  0.1884900115473442  0.8989801219399567
  0.9106026997690506  0.2867663750577378  0.9878083547344119
  0.9222732572748242  0.4096380831408766  0.0878991515011549
  0.9117092018475716  0.4967883630485019  0.2084916244803665
  0.8805147690531143  0.6031360577367195  0.3391694799076248
  0.8988027953810658  0.7093290632794478  0.4081249404157035
  0.8986068392609710  0.8039835127020751  0.4875470886836055
  0.8846901265588940  0.8915878826789836  0.5956082568129304
  0.8798409538106213  0.0092377441108553  0.6743256230946884
  0.9944375418013891  0.1151390360277134  0.9036687999999984
  0.9962615810623561  0.2014623819861399  0.0054227986143189
  0.0091811727482707  0.3001389390300204  0.0899698041570431
  0.0147361473441094  0.4048347265588887  0.1934938078521924
  0.0252275127020809  0.4998676558891475  0.3130765330254022
  0.0239442775981544  0.5818197431870686  0.3885365741339513
  0.9977262706697445  0.6973986678983835  0.4735059524249436
  0.9964963713625892  0.7907449672055407  0.5866682540415695
  0.9918234434180135  0.8856076577367205  0.6881585690531153
  0.0038117307159382  0.0084146868360264  0.7738766406466482
  0.1836953473441127  0.2115742309468800  0.9951814836027708
  0.1920043219399545  0.2983727043879938  0.1268030909930715
  0.1875240863741325  0.3983426424942280  0.2175164327944543
  0.1799781575057722  0.5043109565819890  0.2982932489607393
  0.2006510004618960  0.6148696646651288  0.3929326886836009
  0.2222464581986117  0.7060012900692811  0.5090334521939965
  0.2085236674364879  0.8196661806004641  0.6030210748267919
  0.1924148669745946  0.9134014618937627  0.6771344124711334
  0.2059540443418015  0.9953330300230974  0.7852767394919198
  0.1976728050808347  0.0985668725173241  0.8888325861431881
  0.2988490577367173  0.2086763177829098  0.1019197949191692
  0.2922548300230972  0.2942856341801416  0.2145918628175494
  0.2789412346420335  0.3943506872979228  0.3240358535796801
  0.3061293085450316  0.5038841953810618  0.3938888702078529
  0.3118095750577368  0.5799381695150103  0.5197268683602800
  0.3147006364896043  0.7053428942263267  0.5880507727482680
  0.3244474027713622  0.8123299838337203  0.6685454143187073
  0.3004598120092368  0.8913696494226357  0.7957843727482654
  0.3177643454965349  0.0048359976905346  0.8876907759815253
  0.2863430498845290  0.1060598036951532  0.0032519113163971
  0.4046337999999992  0.1978607889145465  0.1927686591224003
  0.3980723847575049  0.3005391524249390  0.3172460794457308
  0.3999477002309462  0.3675355635103941  0.4056127163972292
  0.3947280304849912  0.4936537852194007  0.5076357819861457
  0.4019429930715930  0.5876493408775971  0.6184609561200958
  0.4257270983833692  0.6963759431870642  0.6853394822170884
  0.4011417916859088  0.7927302466512671  0.8075004817551985
  0.3964952207852193  0.8960467145496551  0.8993319884526585
  0.4062756623556609  0.0037132226327969  0.9912776794457301
  0.3908671066974563  0.0950241718244769  0.1052400064665093
  0.5110477002309466  0.2124338101616630  0.2973708660508052
  0.5090298244803719  0.2914229390300207  0.4147925898383349
  0.4913674826789816  0.3901062803695154  0.4969094933025389
  0.5094323177829096  0.4725715681293323  0.5987739297921451
  0.5139228078521967  0.5832748979214770  0.6976729371824462
  0.4967393441108570  0.6878556341801385  0.8099779561200933
  0.4943324060046166  0.8088096988452662  0.9041660212471143
  0.5007751935334852  0.9066760595842922  0.0198594101616649
  0.5067845538106255  0.0289427505773645  0.1266262979214758
  0.5155692115473443  0.1133682697459619  0.2117901616628188
  0.6168232009237897  0.1975606387990752  0.3919164669745925
  0.6240062748267903  0.2926552420323318  0.5035081136258626
  0.5952074517321009  0.3913556702078509  0.5974092087759786
  0.5948238180138574  0.4803956711316388  0.6910178581986131
  0.5988327644341780  0.5911309445727468  0.8120396018475731
  0.5972106642032315  0.7042337177829125  0.9152039279445745
  0.5932112484988465  0.7854952674364881  0.0053813478060079
  0.6070932009237850  0.9126691796766764  0.0664056872979231
  0.5989867801385671  0.9956034771362567  0.1875278725173217
  0.6074007801385690  0.0787495912240175  0.2903511773672065
  0.7153504549653604  0.1905396023094710  0.4981502327944582
  0.6952509870669772  0.2760727519630493  0.6006910734411122
  0.7059155094688236  0.3886180096997691  0.6978168327944587
  0.7066231066974566  0.4968999265588891  0.8296634600461914
  0.7001265995381090  0.6076306840646666  0.9144089113164000
  0.6934177505773675  0.6974465944572756  0.0063795034642027
  0.7234689986143152  0.8101174461893734  0.0782607454965358
  0.7105874655889153  0.9119183556582016  0.1611808318706665
  0.7082114845265579  0.9825603187066960  0.2946245108545043
  0.7088512027713634  0.0943500092378784  0.3900873159353324
  0.7831977043879874  0.1960085191685934  0.6102618581986121
  0.7981696281755220  0.2820519745958450  0.6886161450346435
  0.7868155616628201  0.3958478032332593  0.8054589159353327
  0.8177756461893750  0.5126063242494254  0.9151260775981527
  0.7973481016166275  0.6027138073903018  0.9936524577367223
  0.7863059339491940  0.6807324258660543  0.1132263468822146
  0.8138016341801375  0.8026685242494196  0.1964140092378770
  0.7960897542725149  0.9069778152424917  0.2688215302540442
  0.8122782817551979  0.0046156508083115  0.3973603806004604
  0.8002164424942251  0.0967785648960771  0.5079653279445751
  0.9069058120092350  0.2168179293302543  0.7003405279445758
  0.9189691265588920  0.3044215588914554  0.8175552586605050
  0.9050229154734382  0.4138676563510373  0.9294390189376429
  0.9226479519630502  0.5348596484988448  0.0083756956120098
  0.8954002115473472  0.6153826993071618  0.1055551903002296
  0.8714232997690559  0.7091367357967684  0.2022495214780591
  0.8953943944572771  0.8466272743648986  0.2963751519630478
  0.8898335057736730  0.9080731011547343  0.4002094018475759
  0.8736499136258686  0.0011752041570432  0.5078715819861443
  0.8837934411085442  0.1127765981524220  0.5866037334873013
  0.0056241150115497  0.1970501672055462  0.7818980392609731
  0.0078077501154752  0.3128209722863744  0.9144650083140888
  0.0146911371824459  0.4222030803695134  0.9930713491916876
  0.0170529829099308  0.5250439935334867  0.0984368780600491
  0.9881974060046161  0.5983845759815267  0.2246132009237840
  0.9757973796766777  0.7193695630485024  0.3265455524249390
  0.9909622997690519  0.8133708027713595  0.4094942461893751
  0.9810237260969998  0.8840858909930702  0.5152741889145531
  0.9924563136258655  0.0154976443417993  0.5914727935334838
  0.9760996581986134  0.0963066872979184  0.6746847002309480
  0.0978434161662847  0.1930230780600439  0.8943763898383352
  0.1052075570438831  0.2911401288683635  0.9983726249422631
  0.0991822683602805  0.3922327473441101  0.1016999986143219
  0.1104971076212493  0.5157007422632773  0.1950261986143218
  0.0949715140877601  0.6165011039260975  0.2969947575057716
  0.1013246831408807  0.6982930988452623  0.3949781616628201
  0.1138041376443439  0.8166273011547318  0.5087922323325671
  0.0930559916859153  0.9136919958429530  0.5988984545034626
  0.0930764484988487  0.0027211390300224  0.6851058872979223
  0.1111130193995393  0.0963897759815211  0.7844125334872984
  0.2892104115473444  0.3040450521939988  0.0232872175519603
  0.2957136055427227  0.4025283182448050  0.1223912655889166
  0.3009461177829067  0.5005408360277102  0.2300006988452665
  0.3002577903002290  0.6095845847575063  0.3094353524249414
  0.3132408110854499  0.6985799062355653  0.4166968152424957
  0.2885189792147784  0.8120626706697465  0.5114657482678950
  0.3145342572748291  0.9319224484988453  0.5810922794457269
  0.2979699353348764  0.9894694133949216  0.6990831205542705
  0.2968581260969998  0.1229637394919152  0.8096480170900691
  0.2952588309468851  0.2165723177829122  0.9083663367205546
  0.3801492720554265  0.2907949838337203  0.1201726600461868
  0.4059442406466545  0.3918872286374153  0.2247055653579650
  0.4062872230946866  0.4993950669745928  0.3029679505773686
  0.3959059187066956  0.5960958360277147  0.4043708411085447
  0.3988407279445738  0.6940436563510417  0.4960837496535788
  0.4047408489607420  0.7961029658198626  0.5877794928406459
  0.3986261080831426  0.8896170466512672  0.6801646133949220
  0.3982159011547353  0.9886909866050786  0.7984616840646623
  0.3868631251732069  0.1207048175519603  0.9099537200923820
  0.3966258295612022  0.2093839926097019  0.0071420180138588
  0.5024466323325640  0.3050242364896079  0.1959985233256347
  0.4974405459584261  0.3759047182448043  0.3230249205542748
  0.4919953672055399  0.4942026706697433  0.4037790258660507
  0.4966979496535799  0.5994614886836018  0.5025214461893768
  0.5024334877598164  0.7121622896073916  0.6067567177829076
  0.4824677709006906  0.8077555071593565  0.6989624891454937
  0.4830309205542704  0.8984751648960767  0.8006848762124719
  0.4896839806004607  0.0016152969976915  0.9041602133949169
  0.5001005745958409  0.1138964318706712  0.0195900332563497
  0.4957351265588912  0.2014162471131655  0.0997981214780594
  0.5999146609699793  0.3063267330254007  0.2961753030023075
  0.5977969510392640  0.3665611856812916  0.3983579990762109
  0.6110017935334895  0.4805272115473471  0.5028171260969998
  0.5855651321016140  0.5759413884526552  0.6211027852193993
  0.5725976448036931  0.6933729422632808  0.6985324535796735
  0.5876104692840656  0.7925430979214809  0.7991273704387964
  0.5864460960738995  0.8991758757505792  0.8849262720554236
  0.5850242378752881  0.0203967866050832  0.9744674198614334
  0.6023108263279440  0.1195842143187065  0.1137955630484981
  0.5856378184757531  0.2043131020785225  0.2017020660508066
  0.7263744323325625  0.2871012314087764  0.4062367030023069
  0.6995405704387991  0.3784526535796786  0.4821643815242496
  0.6968223066974630  0.4975975621247102  0.5859926545034639
  0.6862360281755215  0.5962104785219395  0.7051825935334861
  0.6709886309468800  0.7107054424942234  0.7908447491916846
  0.6771838304849851  0.7891122586605093  0.9061514120092369
  0.6962896632794440  0.9213378808314090  0.9735775371824502
  0.7082696346420292  0.0154952290993080  0.0717606434180169
  0.6879507418013873  0.1067157593533494  0.1951361930715905
  0.7153729228637431  0.1964888110854517  0.3018593842956108
  0.8004784300230980  0.2923692147805994  0.4906728226327957
  0.8087944614318729  0.4036655237875308  0.6043710863741367
  0.7822600027713591  0.5141115330254067  0.6954166683602807
  0.7763067163972295  0.5994949427251726  0.7993177676674392
  0.7936148083140893  0.6897373538106208  0.8827139750577402
  0.7937798614318723  0.7815957759815220  0.9988283325635123
  0.7904665838337195  0.9068093348729818  0.0840178692840681
  0.7927506147806014  0.0124491547344121  0.1874312110854532
  0.8063898170900714  0.0849951404157068  0.3007051376443428
  0.8211882073902999  0.2104566775981525  0.3955876923787542
  0.8921814378752870  0.3012866494226358  0.5874931713625884
  0.8818968757505772  0.4086964512702096  0.7068463639722893
  0.8911667778290990  0.5000015080831375  0.8277193113164003
  0.9072627408775986  0.6058697413394896  0.8905531344110855
  0.9058641930715936  0.7123703482678962  0.9833193838337166
  0.8994474803695169  0.7826715658198609  0.0810210110854470
  0.8955104706697483  0.9071808854503445  0.1645410364896094
  0.9107439182448047  0.9787775672055403  0.2905440249422639
  0.8953257639722878  0.0840243635103946  0.4044596401847542
  0.8640229930715932  0.2058666023094702  0.5097723191685901
  0.9904653907621253  0.3346543510392621  0.7064137662817558
  0.9889534942263296  0.4050925325635077  0.8147868946882184
  0.0088120997690524  0.4993283963048469  0.8979651030023064
  0.9993775242494252  0.5972561006928387  0.0051271006928388
  0.9944729131639747  0.6968732836027698  0.0894235538106258
  0.9975760697459606  0.7939998133949189  0.2024158115473469
  0.9954168087759783  0.8992234387990763  0.2821858923787559
  0.9968534618937639  0.9897595293302572  0.4028443187066983
  0.9790758702078506  0.1046531043879924  0.5009713852194011
  0.0189122138568152  0.1985617963048512  0.5933877921478086
  0.0882963722863721  0.3101783676674330  0.8030730771362613
  0.1148804618937618  0.4082763699769032  0.9156570443417991
  0.1174610692840616  0.5010062198614307  0.0066553057736698
  0.0928356808314064  0.6102246424942237  0.0904552221709025
  0.0902241935334871  0.6919074762124708  0.2085624013856844
  0.0934648096997677  0.8049202600461882  0.2963934235565802
  0.1146862420323345  0.9166050909930732  0.3869016124711351
  0.0900762692840615  0.0118425487297955  0.4997131450346401
  0.1110537695150100  0.0970646217090092  0.5908604739029997
  0.0754944729792157  0.1976791898383397  0.7036763307159362
  0.1840839889145514  0.2998819736720577  0.8903188900692811
  0.2153637025404151  0.4017003662817586  0.0062945528868354
  0.2186728475750570  0.5153840942263272  0.1163383819861465
  0.2014016960739013  0.6060530840646621  0.2169072424942229
  0.1892258979214745  0.7117747177829088  0.2989222660508091
  0.2038309099307156  0.8033995644341800  0.4145292812933050
  0.1953683006928415  0.9299940272517304  0.5053865113163951
  0.1895878743648964  0.0104682877598137  0.5902968739030001
  0.2072672951501175  0.1020352660508053  0.6848507939953805
  0.1956930466512716  0.2109335551963056  0.7902590184757514
  0.3987181371824491  0.3723004545034669  0.0087743879907620
  0.4001569944572765  0.4936503875288665  0.1078135685912258
  0.4188208752886808  0.5864022803695121  0.2023761889145490
  0.4137460498845300  0.6929426840646684  0.3091975847575057
  0.4086833297921473  0.7961910152424920  0.3920537672055460
  0.4096859454965340  0.8794164909930728  0.5021047385681285
  0.3977627833718245  0.0039357450346387  0.6100317274826779
  0.3916019459584277  0.0937180494226340  0.7101746503464170
  0.3997308064665148  0.2053974443417985  0.7927574766743675
  0.3992191621247088  0.3004300023094686  0.8915303732101592
  0.4995821588914566  0.3959219196304815  0.0947035103926126
  0.4936412545034656  0.4755246226327969  0.2018910614318727
  0.4984252678983836  0.5968488849884537  0.3067453177829123
  0.5078342928406485  0.7210929048498826  0.4034995131639718
  0.5132431002309445  0.7999514946882229  0.4849084609699759
  0.5138659168591246  0.9127168480369505  0.5940058069284078
  0.5096238434180123  0.9883513690531203  0.7030030429561194
  0.4853273515011551  0.0887537741339486  0.8001886406466525
  0.5009901769053116  0.1935701515011559  0.9033794157043857
  0.4965477510392589  0.2759052563510380  0.0075268281755214
  0.6106388900692821  0.4085215769053150  0.1963077307159367
  0.5925232739030051  0.4982522013856823  0.3229033949191660
  0.5989654096997725  0.6000350729792174  0.3967840720554250
  0.5968477242494217  0.6929267699769071  0.5257312859122436
  0.5859665806004628  0.8244496508083117  0.6045349214780629
  0.6054398531177796  0.9129053602771364  0.7355358692840639
  0.6099823441108541  0.0034193270207865  0.8121450531177814
  0.5822919787528846  0.1394086374133963  0.8861031251732072
  0.6056051588914571  0.2049867556581972  0.0233008383371853
  0.6120304951501154  0.2842087140877609  0.1327820337182430
  0.7056609344110853  0.3779543002309467  0.2934663672055393
  0.7000003094688196  0.4969527718244819  0.3963342817551947
  0.6868928207852179  0.5909836069284040  0.5072285653579698
  0.6741607884526530  0.6935634896073921  0.6003861889145483
  0.6952710290993096  0.8014716434180116  0.6873465163972270
  0.7311504642032318  0.8858166614318677  0.8220111117782878
  0.6741665810623587  0.0206520378752870  0.9100103062355629
  0.7036945916859096  0.1113008180138593  0.0087449154734429
  0.7002456092378750  0.1900002277136252  0.1081339884526571
  0.7271252623556563  0.2862057690531188  0.2144870997690518
  0.7972340147805994  0.4066410628175490  0.4073514281755166
  0.7803932484988465  0.4900908203233243  0.4967513963048518
  0.7746428600461925  0.6076957066974629  0.6037181163972321
  0.7907418452655861  0.6932633556581962  0.7167109136258674
  0.8062540577367230  0.7927061695150144  0.7938866609699744
  0.8148984692840671  0.8877735210161646  0.9214568480369536
  0.8237208554272542  0.9947425630484972  0.9906851150115443
  0.8081359353348745  0.1114486438799105  0.0846015787528884
  0.8118277210161651  0.1972600346420350  0.2076834055427241
  0.8160048133949189  0.3006767958429535  0.3056511782909936
  0.8898957154734433  0.4153421057736750  0.5019829478060061
  0.8652188341801406  0.5091079519630455  0.5925240189376453
  0.8800767394919191  0.5896024581986126  0.7099655191685912
  0.9059361556581962  0.7111882785219379  0.8041348295611996
  0.9022934817551942  0.8048144323325630  0.8962189025404186
  0.9023584632794481  0.8762706124711315  0.0162426905311790
  0.9110729205542754  0.9939850863741313  0.0912182702078539
  0.8901965187066949  0.0831928845265608  0.1954317584295637
  0.9102709030023064  0.1916189515011553  0.3151779898383396
  0.8993789454965366  0.3153796877598154  0.4068394896073926
  0.9818240267898375  0.4083324235565797  0.5862653852193986
  0.9838758605080855  0.4938311491916849  0.7096226133949202
  0.0102865353348705  0.5993981159353368  0.8000507981524265
  0.0113236586605083  0.7008537676674393  0.8982890221708999
  0.0156564993071626  0.8043698799076182  0.9898793990762158
  0.0033841293302572  0.8875747833718250  0.0889866355658171
  0.0216580540415734  0.9837499136258643  0.1838976554272520
  0.9878844277136238  0.0935267418013837  0.2825864956120085
  0.9894800711316378  0.2086919103926093  0.4132522032332560
  0.0065808461893795  0.2927359288683604  0.5016566540415681
  0.1163203990762156  0.3952770928406437  0.6994914665127041
  0.1031638822170891  0.4836579653579705  0.7821205824480373
  0.1054195935334903  0.5836944558891446  0.8917298600461905
  0.0904970457274814  0.7129647473441096  0.9941267879907656
  0.1184808466512735  0.8019309778291017  0.0887618475750571
  0.0988676110854527  0.8988273191685892  0.1923566110854509
  0.0964236614318708  0.0091406360277162  0.2899021251732137
  0.0834899672055442  0.0783538314087764  0.3898924166281788
  0.1024252267898405  0.1879884535796776  0.4782471150115484
  0.0910123838337213  0.2944451408775990  0.5663808064665119
  0.2052411173210160  0.3997488046189375  0.7976654286374156
  0.1970552240184773  0.4880477436489628  0.9002873935334890
  0.2106574129330241  0.5936658332563525  0.9879835528868384
  0.2146669117782878  0.6895778743648933  0.0961852069284035
  0.1978893759815250  0.7825089066974584  0.1957038683602761
  0.1993404762124698  0.8983512711316379  0.2873329150115467
  0.1952631847575077  0.0086057381062332  0.3947795381062349