Li 
 1.0000000000000000
    21.6499999999999986    0.0000000000000006    0.0000000000000000
     0.0000000000000006   21.6499999999999986    0.0000000000000000
    -0.0000000000000006   -0.0000000000000006   21.6499999999999986
 Li 
 500
Cartesian
  0.0674419600000000 -0.0263843300000000  0.0673321000000000
  0.0252970800000000  2.0702724699999999  2.3872966799999999
 -0.0935279700000000  4.5735789799999997  4.4334718700000000
 -0.1622765300000000  6.6126943300000001  6.7200335000000004
 -0.3999617700000000  8.7810901099999992  9.3532020599999992
 -0.5570917300000000 10.8867940300000008 10.8176554899999999
 -0.2309927800000000 12.7745468300000002 12.7995795300000008
 -0.4399390100000000 15.2044183799999999 15.4350819099999992
  0.1483283700000000 17.1547292499999990 17.4650283900000005
  0.2891121900000000 19.4480387700000001 19.3139330800000018
  2.1726539200000001 -0.4538947600000000  2.3139262500000002
  2.1409716300000001  2.5697780200000002  4.3531126400000000
  1.4877219500000001  4.2227531799999998  7.0710447399999996
  2.0228978099999999  7.0520384600000003  8.7791457200000007
  2.0696005700000000  8.8757731599999996 11.0685812200000004
  2.1458319299999999 10.7686648700000003 13.2390323700000003
  2.0305033600000000 13.1630073000000003 14.7671161499999997
  2.3816717900000000 15.2513511499999996 16.9880811700000010
  2.3272077300000000 17.6957126699999989 19.1509187099999991
  2.1485926900000001 20.1019111499999994 21.5885176600000008
  4.0723929800000001  0.4038153500000000  4.0960513100000000
  4.1587943200000002  2.2994549200000001  7.2153235400000000
  3.9387743400000002  3.8502361600000001  8.2750558800000000
  4.3370250199999996  6.5938755799999997 10.9667739199999996
  4.6718900999999997  8.4087669100000006 13.1952956500000003
  4.3636174800000003 10.6869369100000000 14.8624811300000008
  4.3051985600000000 12.7288681700000001 16.8742607900000010
  4.3078152899999997 15.1291261899999991 19.4377772700000016
  4.4631712500000003 17.5002097799999987 -0.6058898100000000
  4.5345328399999998 19.7249956600000012  1.8986790600000001
  6.1225369299999999  0.1711587400000000  6.5857346400000001
  6.5880517000000003  2.2870590399999999  8.3466123999999997
  6.2382558699999997  4.1957230900000004 10.9328161599999998
  6.8647543999999998  6.4060923499999998 12.9600678200000008
  6.3082168100000002  8.2228208200000008 15.1553944099999995
  6.6674391000000002 11.0214341699999991 17.5336379300000011
  6.3862685499999996 12.8751729099999999 19.2209487099999983
  7.1057743899999997 14.8166613399999996 -0.0262513100000000
  6.6023188800000003 17.0092514600000015  1.8844516499999999
  6.0400800900000000 19.5438801099999999  4.3184791899999997
  8.9957013400000001 -0.1488399100000000  8.1119294100000001
  8.8558341400000007  1.9830175699999999 10.7785589999999996
  8.6370433500000008  4.0595642200000004 12.8359817500000002
  8.6765682500000008  6.2825836099999997 14.7907929800000009
  8.7611144900000006  8.4475031499999993 16.9641716199999983
  8.6035041400000001 10.4869302700000002 19.4599730800000010
  9.2875075500000008 13.2138270599999998 -0.0373556900000000
  8.9859146100000000 14.9609264700000004  2.8394982500000001
  8.5917724500000006 17.2272562299999983  4.2475393400000003
  8.4785584499999995 19.6938848600000007  6.1838404599999999
 10.8831039799999996  0.1413018800000000 10.8024561699999992
 10.6778476199999997  1.9063300700000001 13.2033214099999991
 10.5531740900000006  4.1679968299999999 15.3108937199999993
 10.9702451399999994  6.3941649500000004 17.0856331899999994
 10.6666911300000002  8.6418237500000004 19.6625945999999985
 11.0190716399999999 10.6030887899999993  0.1861356000000000
 10.4391307799999993 12.8454499500000008  2.6014372200000002
 10.8742640900000005 15.1043874500000008  4.3857175599999998
 10.6307797900000001 17.3955534599999986  6.3243789699999997
 11.0093552900000002 19.2265206100000015  8.1278664000000003
 12.9976046499999995  0.0105924400000000 12.7120153699999996
 12.8538384499999996  1.9111930300000000 15.5445102399999993
 12.8624759500000003  4.2755481800000004 17.1310924900000003
 13.1911043899999996  6.7255067000000004 19.4072806000000000
 12.8787609599999993  8.6527597600000004  0.4170405900000000
 12.8654871699999998 10.8315395799999994  2.5581701200000002
 12.6020635900000002 12.7041254899999991  4.5880027900000000
 12.9027340000000006 15.4847549699999991  6.1479041900000002
 13.0616193200000001 17.1755217599999987  8.5141694200000000
 13.0261577800000001 19.8225911000000004 10.7260754800000004
 15.2385529200000001 -0.0947181200000000 15.4077353000000006
 15.3119994199999994  2.1263865599999998 17.5856280500000004
 15.1257216799999998  4.2831904500000002 19.6544416200000001
 15.1849235599999997  6.3177193300000001 -0.1562008400000000
 15.1909843200000001  8.4974857000000004  1.5969813300000000
 15.0722229199999997 10.7903061200000003  4.4947905900000000
 14.9819871300000003 13.0051923499999997  6.8373864500000003
 15.2316856800000000 15.3516229099999997  8.9509499100000003
 14.5682092599999997 17.7750099500000012 10.9306948199999994
 15.1539263399999999 19.8442516799999993 13.0211672299999996
 17.4755688400000011  0.2058108800000000 17.5246262100000010
 17.3820706899999990  2.4771755999999998 19.5938585600000010
 17.3576553099999984  4.7379768400000000  0.1493242900000000
 17.6512993700000003  6.4022795300000004  2.1425413999999998
 17.3211903199999995  8.6037175500000007  4.1987367700000000
 17.1076396799999984 10.8765558400000000  6.4445609599999996
 16.9730831299999991 13.3029463999999997  8.8716983900000006
 17.2143549000000000 15.6393025699999999 10.7173605799999994
 16.9931174200000008 16.9360116599999984 12.9905336200000008
 17.2202960699999998 19.1985875200000002 14.8762542900000003
 19.5822102399999984 -0.1225474800000000 19.8753854899999993
 19.9688361000000008  2.1463638000000000 22.0548580799999989
 19.6734666699999998  4.4789207400000004  2.5611692499999998
 19.9834237200000011  6.4897049000000004  4.6392317700000003
 19.8204830799999989  9.0447282900000001  6.4872854899999997
 19.1507983800000012 11.5531835699999998  8.6004928599999992
 19.1559896700000003 13.1018505199999993 10.7173576900000000
 19.2746652699999999 14.5939195399999999 12.8990657500000001
 19.0122442700000001 17.2744048899999996 15.2217499699999994
 19.6593911400000003 19.5769179800000011 16.9296510699999985
  1.8714318200000000  2.1817791799999999  0.1233544700000000
  2.2688100900000001  4.3694484100000004  2.3077905799999998
  1.5774747700000000  5.9644174400000001  4.7841758600000004
  2.2473204899999999  8.6782714999999993  6.4271477299999997
  2.3521286199999998 10.8070365499999994  9.0976481499999995
  2.6880961200000000 13.2779302099999992 11.2109834100000008
  1.8872101400000001 15.2328550099999998 12.7960926700000002
  2.0087253199999999 17.0752861399999993 14.8849174099999999
  2.1040942600000001 19.7234002199999985 16.8600066499999990
  2.4028379700000002 21.5913846999999990 19.4764604199999987
  4.2081612899999996  2.2996902000000001  1.9221575200000001
  4.1862608600000000  4.1023026600000003  4.8398426900000002
  4.0661407199999999  6.2151961900000003  6.6327316300000003
  4.4095968900000004  8.6123153499999994  8.9817677899999993
  5.0345274399999997 10.6287011200000006 11.2627190200000005
  4.6658588200000004 12.6707698299999993 13.3577550699999996
  4.7737927000000004 15.3217770200000007 14.4955419400000007
  4.6968204000000000 17.2707649699999983 16.8882411700000006
  4.5420516299999996 19.2720465999999995 18.9827745800000010
  3.8439163800000000 21.7645461800000000 21.3523619099999991
  5.9442487200000000  2.6032827799999998  4.7142059999999999
  6.7012014899999999  3.9946187000000002  6.5964812899999998
  5.7531285099999998  6.0006260100000004  8.4690686199999998
  6.9073789200000002  8.9373638000000000 10.6758621399999996
  6.9019651299999998 10.7172214199999996 13.4114441099999997
  6.8134444900000002 12.9801909099999992 15.4229910599999993
  6.6418987999999999 15.1404378099999999 16.8771049399999988
  6.8980745800000003 17.2643186200000009 19.5211063399999993
  6.5121588700000004 19.5778313900000001 -0.0465713400000000
  6.1842073500000003 22.1850301300000012  2.0901488900000000
  9.2540699600000007  2.1355984200000000  6.3556676500000000
  8.9495691700000002  4.1272272599999997  8.7671970699999999
  8.2016845499999995  6.1847906400000001 10.4853850699999995
  8.7432398100000004  8.5261234300000002 13.2886550200000002
  8.9358879800000004 10.4378358900000006 15.2885497400000006
  8.7913197699999994 12.6907189200000001 17.0500232599999997
  8.8158562800000002 14.9681129800000008 19.4276471099999988
  8.5300591499999996 17.5192281299999983  0.0917946500000000
  8.5253631700000003 19.5647310499999989  2.6572667399999998
  8.5751520200000009 21.7827572099999998  4.5965380199999997
 11.1581185999999999  1.7825875799999999  7.8466323700000000
 11.0911191999999996  3.9969991100000000 10.5493319200000002
 10.4129884300000004  6.3982174799999996 12.3819085900000001
 10.8292966699999997  8.6110978599999992 15.2902596000000006
 11.1227281700000002 10.7519439800000001 17.8732965700000008
 10.8580644199999998 12.6872415000000007 18.9570511199999991
 10.8698055399999998 15.3700779700000005 -0.0677530800000000
 10.7691035599999996 17.1164455800000006  2.3512416699999998
 10.9887869499999997 19.1884961099999991  3.6238361800000001
 11.2514917299999997 21.0012386199999987  5.9345491800000003
 12.8047661999999995  2.1509327400000000 10.7452632200000000
 12.8430672599999998  4.0463505199999998 13.1396122999999996
 12.6466251100000004  7.0260914799999998 15.0033394999999992
 13.1721823100000002  8.5975011200000004 17.7576288799999986
 13.3559930799999993 10.8730317200000002 19.7090605100000005
 12.6962566199999998 12.9169928299999999 -0.0801736400000000
 13.0420899299999995 14.9228393199999996  2.3061345200000001
 13.0561140299999998 17.6774987599999989  3.6653558300000002
 13.4884191700000002 18.8724372799999998  6.3658427700000004
 13.4905901400000001 21.3981338900000004  8.6418866100000002
 14.8420218700000000  2.1504629999999998 13.0190100999999991
 14.2544974599999996  4.2823868200000001 15.2377523700000008
 15.1291822200000006  6.4031404099999998 17.3515635800000005
 15.7915980900000008  8.9056432700000006 19.8095391899999989
 15.1220085399999995 11.0248930400000003  0.0989653400000000
 15.2137968400000005 12.7859047799999992  2.6392577600000000
 15.3646781600000004 15.3902219299999992  4.3524695400000004
 15.4036271500000002 17.6269184500000016  6.5338527800000001
 15.5180206100000007 19.4247316499999982  8.4391462900000001
 15.3494477000000007 21.8294719400000012 10.4102444300000005
 17.0676277499999998  2.3174872700000000 14.9385227300000007
 17.5502490299999998  4.7751894699999999 17.0877974399999992
 17.2651551900000015  6.5055244700000001 19.7574789899999992
 17.7969406899999996  8.6001718000000000 -0.1435533500000000
 17.6888896500000001 10.9460512600000008  1.9049021399999999
 17.4964328699999996 13.2961410600000001  4.9506021599999999
 17.1895036499999989 15.6248811799999991  6.8257812299999996
 17.5512585899999998 17.6828771899999992  8.6364477599999994
 17.4217844900000003 19.8699580800000000 11.1313365399999995
 16.9216497299999986 21.9023173399999997 13.0511442199999994
 19.0772338499999989  2.0034520599999999 17.4295055499999982
 19.4698264200000004  4.0808087500000001 19.4629196399999991
 19.7145484499999988  6.2084920199999996 -0.2639491200000000
 19.9672160199999986  8.8686644999999995  1.9030166300000000
 19.7385042199999994 10.7554680600000001  4.5138436700000000
 19.0631447499999993 13.0578956500000007  7.3430192400000003
 19.4590805200000005 15.3569742199999997  8.8359049600000006
 19.4548380700000010 17.4062430500000005 10.5553944699999995
 19.1535412399999991 19.3028776600000000 12.8949187599999995
 19.0485566499999983 21.8499971600000009 14.5991497399999997
 21.5295727799999987  2.4927601300000002 19.5644295200000009
 21.5690632300000011  4.3616605699999997 21.7674035900000007
 21.8487723900000006  6.4980080300000003  1.9478462599999999
 21.9690375899999992  8.7646718299999993  4.1891409399999997
 22.1961756500000007 10.8221347500000000  6.7781069399999998
 22.1683936099999990 12.5963974400000005  8.4118168299999994
 21.6007737599999992 15.0986811599999999 10.2514038700000008
 21.5741464399999998 17.1196285400000008 12.7013677000000005
 21.4729775499999995 19.1734057900000003 14.8986330200000001
 21.7325239699999990 21.8321779700000000 16.7544292699999993
  3.9770042700000001  4.5805821000000000 -0.1043208800000000
  4.1568935700000003  6.4597690500000002  2.7452869199999999
  4.0598964700000000  8.6241182100000007  4.7092307699999996
  3.8965271100000001 10.9183322100000009  6.4580488400000000
  4.3440941600000000 13.3119282400000003  8.5069927100000005
  4.8116358200000002 15.2849279300000003 11.0205742400000002
  4.5145374000000000 17.7457728099999983 13.0554062700000006
  4.1657818700000000 19.7751416499999984 14.6599600300000006
  4.4589050600000002 -0.1010399000000000 17.0012414099999987
  4.2796162300000002  2.1339727900000001 19.2432254900000004
  6.4700820999999999  4.5178422800000000  2.2065635600000002
  6.3273170700000003  6.3712839800000003  4.6459138299999996
  6.0390777299999998  8.5376923799999993  7.0153762300000002
  6.6276995300000001 10.9090928300000005  8.5276940400000001
  6.7506773000000004 12.5556613699999993 11.2520866999999996
  6.8132687799999996 15.2706736599999999 12.7312992299999994
  7.0242862700000002 17.5869441500000008 14.4740082200000000
  6.5049549300000002 19.2981529099999989 17.2287316699999984
  6.8795980800000001  0.1046993500000000 19.2185053000000003
  6.1993270300000001  2.2961947500000002 21.7204038799999992
  8.7603217699999991  4.2836860799999998  4.1734414700000002
  8.6182671299999996  6.5066726499999996  6.8683776200000004
  8.6588677100000009  7.9571449500000000  8.7815153099999996
  8.5458618600000005 10.6876044500000003 10.9903146799999991
  8.7020657999999997 12.7226082300000005 13.3896797000000003
  9.2169916799999996 15.0765391700000002 14.8375997900000005
  8.6847197900000008 17.1626098399999982 17.4823854300000008
  8.5841215300000009 19.3994113699999993 19.4705375499999995
  8.7958680900000008  0.0803912700000000 -0.1888382400000000
  8.4622728600000006  2.0572733200000002  2.2784461399999998
 11.0641827100000008  4.5991919899999996  6.4380792500000004
 11.0204956999999997  6.3093066300000000  8.9802595699999994
 10.6381060000000005  8.4458009700000005 10.7580905300000005
 11.0292096799999992 10.2311744499999993 12.9634555799999998
 11.1264287900000003 12.6279015399999999 15.1046190899999999
 10.7544067999999999 14.8920744799999998 17.5360227500000008
 10.7022965899999996 17.5107299800000007 19.5751943600000011
 10.8417829399999999 19.6295366899999983  0.4299562300000000
 10.9718855899999994  0.6266105500000000  2.7414593500000000
 11.1620734299999995  2.4544230400000000  4.5852570000000004
 13.3542223000000000  4.2771878299999999  8.4849915100000004
 13.5097358500000002  6.3359859900000002 10.9009506599999995
 12.8862413300000007  8.4728502599999995 12.9339093700000003
 12.8779356600000003 10.4005662799999996 14.9605366300000000
 12.9647293500000007 12.7979849500000000 17.5806573800000017
 12.9296108800000003 15.2466599899999995 19.8141650399999989
 12.8430235300000000 17.0059725399999984  0.1165061800000000
 13.1435677999999996 19.7592877400000013  1.4376831299999999
 12.9680637900000004 -0.0951847200000000  4.0599784400000001
 13.1502268900000008  1.7049286500000000  6.2861029899999998
 15.4873373500000007  4.1251823900000000 10.7849525400000008
 15.0521838700000004  5.9769750799999999 13.0049617400000006
 15.2830707799999992  8.4135799099999993 15.1077344300000007
 15.2983902599999997 10.7578834099999998 17.9622139099999991
 15.1577408800000004 13.1552043100000002 19.7969529299999998
 15.0124943000000002 15.0997187700000008  0.1381162500000000
 15.6631038199999999 17.5390427100000004  1.6943451400000000
 15.3842186299999995 19.7430324000000006  3.4895650100000002
 15.3327786400000008 -0.3775691000000000  6.3786206600000002
 15.3466285399999993  2.0426777000000000  8.4453903900000000
 16.9562303000000014  4.2435844400000002 13.2121692300000007
 17.2803724500000015  6.1064252500000000 14.9085395399999996
 17.0345569099999992  8.5701049400000002 17.4381855299999984
 17.7048427400000001 11.0979269200000008 19.8124795800000015
 17.2625864000000000 13.0487539300000002 -0.1374242900000000
 17.0235234700000007 14.7378570199999999  2.4513504099999999
 17.6188053800000013 17.3777735500000006  4.2523632999999998
 17.2353431800000010 19.6360697000000002  5.8199861300000002
 17.5858248000000010  0.0999288400000000  8.6028522400000007
 17.3246859800000017  2.0952559300000000 10.9974493500000001
 19.6345108300000000  4.6941081699999998 15.1623724299999996
 19.8956815899999988  6.5907267500000000 17.7000713500000018
 19.5937461199999987  8.9602347600000005 20.1223547600000003
 19.9753281600000001 11.5797113899999999  0.1813338100000000
 19.3854145799999991 13.3230354400000000  2.2852698700000000
 18.8663144400000000 15.3528103300000005  4.3787021399999997
 19.3852886399999988 18.3294804900000017  6.4165220400000003
 19.2648954000000003 19.6597826399999995  8.6645335499999998
 18.9145206299999984  0.0254431700000000 10.9954197499999999
 19.1341280000000005  2.4416133499999999 12.6999708299999998
  0.1217620900000000  4.2661361199999996 16.9280925499999988
  0.1690377900000000  6.7725740500000002 19.7981674299999995
  0.3180631200000000  9.1406966900000004 -0.1500052900000000
  0.3691970800000000 11.3672024599999997  2.1311584099999998
 -0.2555261600000000 12.9550260700000006  4.8628758000000003
 -0.5239867300000000 15.5743510399999998  7.0697112100000004
 -0.1956662100000000 17.6094778800000000  8.8655504300000008
 -0.4108363300000000 19.1404595399999984 11.1556861900000008
 -0.1633208100000000  0.3355240000000000 12.8053859800000005
 -0.5174424000000000  2.0850397799999998 14.6069237600000008
  2.1183099599999999  4.1789496399999999 19.3632488400000007
  2.2777436099999999  6.3031837900000003 21.6147673299999994
  2.1472961100000001  8.4918389800000007  2.2018049700000000
  2.3922623800000000 11.1649210700000001  4.2223172000000000
  2.0561332800000001 13.3472489000000003  6.4299365000000002
  2.1936793899999998 15.1180455899999995  8.5512771999999995
  2.4638595799999998 17.6799810700000002 11.0153518300000002
  2.0146622199999999 19.7814317099999997 12.9661515400000003
  2.0151051099999999  0.0589126600000000 14.8325424600000009
  2.4055968700000001  2.0868386499999998 16.9825313499999986
  6.2614054100000001  6.5825753799999998  0.5041682600000000
  6.4021995599999997  8.7147380900000009  2.6497709000000000
  6.5154834499999996 10.8367091000000002  4.9795151300000002
  6.5005811600000003 13.1975062600000008  6.6992753799999996
  6.7816635600000001 15.1242549700000009  9.0214860500000000
  6.2464358999999998 17.5811568200000004 11.0732334500000000
  6.8096666700000004 20.1761210099999992 12.5806478500000001
  6.4510490999999996 -0.2279872000000000 15.1351495600000003
  6.4269784300000001  2.6621649600000001 17.5288795700000009
  6.3923536900000002  4.6887906800000003 19.6661311900000015
  8.2302317400000007  6.2957114000000001  2.6017380900000000
  8.7886928100000006  8.4843585000000008  4.8648754900000002
  8.7961183799999993 10.8119031999999997  6.5592561299999996
  8.5713631400000008 12.9054748499999992  8.7546287100000004
  8.6349017600000000 15.0260451600000007 10.7402131799999996
  8.7626393799999995 17.2356292099999990 12.7254260200000004
  8.6302552400000003 19.2602090600000011 14.7255638799999993
  8.6213742599999996 -0.2448401400000000 17.2866954600000007
  8.3755866599999997  2.6132593000000002 19.7004980399999994
  8.5869492100000002  4.5331634400000000 21.8046246900000007
 10.8779695899999993  6.6037747199999997  4.2433680300000001
 10.7695878199999999  8.1383371499999999  6.9934895299999997
 10.6516997000000000 10.6994878199999999  8.7418159099999997
 10.7535106099999993 12.9783412299999998 10.8795893100000001
 10.8776850100000004 15.4183135700000005 13.1362829399999992
 10.4454272400000008 17.4879067299999988 15.1325378900000000
 10.4576194299999994 19.4519873200000006 17.3348275700000016
 10.6016581799999994  0.0349711800000000 19.5750686199999997
 10.8271774399999998  2.4658577500000001  0.4241242200000000
 10.7326654900000005  4.3606617500000002  2.1606293299999999
 12.9881524099999996  6.6319737700000001  6.4121953100000004
 12.9423039899999992  7.9360496700000001  8.6244506800000007
 13.2281888300000006 10.4034141299999998 10.8859907800000002
 12.6774851099999992 12.4691310600000005 13.4468753000000003
 12.3967390099999992 15.0115242000000002 15.1232276199999998
 12.7217666600000001 17.1585580700000015 17.3011075699999992
 12.6965579799999997 19.4671577099999986 19.1586537899999989
 12.6657747500000006  0.4415904300000000 -0.5527803600000000
 13.0400293900000008  2.5889982400000000  2.4636739400000001
 12.6790587699999993  4.4233786600000000  4.3668497300000002
 15.7260064600000007  6.2157416599999999  8.7950246199999995
 15.1450533499999995  8.1934999499999996 10.4388588599999999
 15.0862029399999997 10.7729872199999992 12.6867409700000007
 14.8570100099999998 12.9079568600000005 15.2672031500000003
 14.5269038599999991 15.3867728300000000 17.1217888199999990
 14.6610299299999998 17.0842804000000008 19.6181780699999990
 15.0746712100000000 19.9469651200000015 -0.5720463200000000
 15.3340375899999994  0.3354717100000000  1.5536179299999999
 14.8941335600000002  2.3103961900000001  4.2246985800000001
 15.4878237799999994  4.2539827600000004  6.5352556699999997
 17.3303580100000012  6.3297935000000001 10.6230666100000004
 17.5104000900000010  8.7393585900000001 13.0846340199999993
 16.9359290599999994 11.1305146900000000 15.0557708699999999
 16.8070404099999990 12.9790655099999999 17.3052296699999992
 17.1817606000000005 14.9328137099999996 19.1107575599999997
 17.1853340000000010 16.9215485500000007 -0.0253666000000000
 17.1136015400000012 19.6324220999999994  1.8189868700000000
 17.1630508100000014  0.2695242000000000  4.0578857199999998
 17.4583395400000008  1.8401447900000001  6.5102662300000000
 17.7787246900000007  4.5563870700000004  8.5644735399999998
 19.3157281300000001  6.5228559600000002 12.7192271600000009
 19.0930673599999992  8.8482781700000004 15.3032237799999997
 19.2937607399999997 10.8250326500000007 17.9201230900000006
 19.6422383399999987 13.1170799000000002 19.2804753600000005
 19.6119597799999994 15.4228180399999992 -0.3611353400000000
 19.4730379499999984 16.9448393999999993  1.7541048900000000
 19.3878016899999999 19.6404661699999998  3.5623134400000001
 19.7176058300000001 -0.4594656700000000  6.2902781399999999
 19.3838027900000007  1.8191274700000000  8.7565512099999996
 18.7060977999999984  4.4570119400000001 11.0365707099999995
 -0.2064242900000000  7.2452667000000002 15.2938580399999999
 -0.2391568500000000  8.7702533299999992 17.6401362699999993
  0.1907819600000000 10.8104597800000004 19.4409444799999989
 -0.0134766000000000 12.9305945799999993  0.1110017300000000
 -0.1196614300000000 15.0873065900000007  1.9360199400000000
 -0.0524780900000000 17.1900959600000007  4.3823023200000000
 -0.0992260900000000 19.4681874499999985  6.1093245700000001
 -0.0681225500000000 -0.2217061900000000  8.7215795000000007
 -0.4530074100000000  2.2657397100000001 10.8460304900000004
  0.4094494300000000  4.2988628899999997 12.8468456999999994
  1.9116164600000001  6.7153616600000001 17.3865321199999983
  2.4871620000000001  8.8391834100000004 19.8239750100000016
  2.5430321500000002 10.8467846600000009  0.1440873700000000
  2.0098924899999999 13.2113635100000000  1.9583555600000000
  1.9533537900000000 14.9797968600000004  4.5153759899999999
  2.0235131300000000 17.4265236299999984  6.4169176200000004
  2.4829571399999999 19.8445002200000005  8.3764199099999992
  1.9501512299999999  0.2563911800000000 10.8187895899999997
  2.4043141100000001  2.1014490600000002 12.7921292599999994
  1.6344553399999999  4.2797544600000004 15.2345925599999994
  3.9854183600000002  6.4924447299999999 19.2754039699999993
  4.6626241600000000  8.6968129300000001 21.7862770700000006
  4.7342671500000000 11.1580656400000002  2.5187259700000002
  4.3603467199999999 13.1210492700000003  4.6960417999999997
  4.0967406899999999 15.4099226399999996  6.4716670599999997
  4.4129392000000003 17.3936005700000003  8.9745589399999997
  4.2297237100000000 20.1343706900000008 10.9416179699999994
  4.1045774799999997  0.2266384300000000 12.7799273200000005
  4.4873369399999996  2.2090635100000000 14.8270196900000002
  4.2367544600000002  4.5667114700000004 17.1091077499999997
  8.6322476699999999  8.0603048400000006  0.1899655000000000
  8.6633989299999996 10.6875308899999997  2.3341637600000000
  9.0674719499999998 12.6956093699999997  4.3814444899999998
  8.9576019799999997 15.0022091100000008  6.6941277100000001
  8.8479940900000003 17.2375354799999982  8.4879640599999995
  8.8697007200000009 19.0393670300000011 10.8705675900000003
  8.6115642599999997  0.0852088800000000 13.2071869000000000
  8.4781821300000004  2.0289957699999999 15.3752811800000000
  8.6541719599999993  4.4468546699999996 17.1631993700000010
  8.6430948599999997  6.5043095500000003 19.3016325799999997
 10.8159537399999994  8.5717095600000004  2.0503309999999999
 10.6873331599999997 10.2951080800000003  4.3709414799999999
 10.7909070499999995 12.9217783599999994  6.6410361299999998
 10.9946124399999992 15.6116613900000001  8.7357644600000004
 11.1117131199999992 17.3189498600000000 10.4982681800000002
 11.1251970999999994 19.7603197600000016 12.8602257200000007
 11.0333562100000009 -0.2521928600000000 15.2200158800000001
 10.5073371600000005  1.9215192100000000 17.3240840700000014
 10.8464373300000005  4.1907937799999999 19.5581643499999984
 10.7502588100000001  5.9733488000000001 21.8129558299999999
 13.2203319700000002  8.8444921399999998  4.2500623700000002
 12.8281288799999995 10.7871601600000009  6.9908584999999999
 12.9676011199999994 12.9907593299999995  8.5903751600000007
 12.9217532300000002 15.0018645700000004 11.3820823400000002
 12.6861764699999995 17.8493349399999985 13.0881810499999993
 13.1077728199999992 19.7644010500000000 15.9243515700000007
 13.2061177500000007  0.0740284300000000 17.5829403999999982
 12.6066213400000002  3.0181969999999998 19.1841326599999995
 13.1113516899999993  4.4379632600000001  0.5044631500000000
 13.2504602200000008  6.1531186599999996  2.8747310300000000
 15.2775592299999996  8.1827106000000001  6.3535468499999999
 15.1550066999999995 10.7590275099999992  8.5806372000000000
 14.8712295700000006 12.7947950899999991 10.9814984399999993
 14.5955810699999997 15.0156495499999991 12.9983609900000001
 15.0526177800000003 17.3518610799999990 14.8810520799999999
 15.8294075500000009 19.1779307199999991 17.7965405700000012
 14.5957064800000005  0.4471166200000000 19.7017231300000013
 15.2349879099999992  2.4096627100000001  0.1893274200000000
 15.1603174400000000  4.1135049300000004  2.3411008500000001
 15.7422619299999997  6.1963549000000002  4.6436457100000004
 17.2601164199999992  8.8037790099999995  8.8191584200000008
 16.8955138299999987 10.6104662600000008 10.7546677299999995
 16.7710179199999985 13.1566120499999997 13.0704972200000000
 17.1195609500000003 15.0091516499999997 15.5167912799999996
 17.4554003500000015 17.1620885700000017 17.1876462100000005
 17.6425518600000011 19.2202967300000012 19.9495407600000014
 17.8335565199999984 -0.1138235100000000 -0.2016672600000000
 17.4961430000000000  2.4128631399999998  1.8316241799999999
 17.5760701600000004  4.2706797500000002  4.4963457299999998
 17.6665042099999994  6.5096526299999997  6.6173480099999997
 19.2662422400000004  8.9921565900000004 10.8679308199999998
 18.7319877599999991 11.0221871599999997 12.8281450100000001
 19.0536614100000001 12.7648932199999994 15.3707534900000002
 19.6135177700000014 15.3972262299999993 17.4095190600000009
 19.5346538800000005 17.4242324599999989 19.4031392400000016
 19.5360607299999991 18.9712587600000013  0.3516542500000000
 19.7247287299999989 -0.1302228800000000  1.9748755499999999
 19.2727546300000014  1.8011259500000001  4.2310975700000002
 19.7073650499999999  4.1485503000000001  6.8236034800000001
 19.4715541700000010  6.8279702400000000  8.8080749500000000
 -0.3935098200000000  8.8403969700000005 12.6926455899999997
 -0.3490876200000000 10.6914443800000001 15.3633295800000003
  0.2227034900000000 12.9769692100000000 17.3210997800000008
  0.2451572100000000 15.1734840700000007 19.4479573300000013
  0.3389632100000000 17.4146079000000000 -0.2191110100000000
  0.0732664000000000 19.2159940599999999  1.9265606600000000
  0.4688968700000000 -0.3518143700000000  3.9813842400000001
 -0.2623021400000000  2.0248539600000002  6.1179976299999996
 -0.2277564600000000  4.5181798600000000  8.9469101999999996
  0.1424753200000000  6.3377328600000000 10.8608665599999998
  2.5183366399999998  8.5577490600000008 15.1439902499999999
  2.2334980500000001 10.4711949499999992 16.9329106100000004
  2.2823342000000002 12.6369849700000003 19.3059514700000001
  1.9592610399999999 15.4356867799999993 -0.1271550400000000
  2.5651103300000000 17.3618056699999990  1.9216940000000000
  2.1404837799999998 19.4596114600000014  4.1645206300000002
  2.0875722699999999  0.1978947700000000  6.2763810099999997
  1.8075577899999999  1.6963604500000000  8.4411708200000000
  2.2175061600000001  4.0699500200000003 10.3540500400000006
  1.9704181100000000  6.3747372999999996 12.2621444600000000
  4.4434701900000002  8.6545616200000008 17.2694565299999994
  4.2662456000000004 10.5662336499999991 19.4912220699999992
  4.5607329900000000 12.8528652900000004 -0.2601560800000000
  4.6475386399999996 14.9293609800000002  2.0824097300000002
  4.2843049899999999 16.9413178299999991  4.2369887500000001
  4.3157213099999998 19.4493050200000006  6.2207576099999997
  4.2274479500000002  0.1863142300000000  8.5469770000000000