Li                                      
   1.00000000000000     
    22.0829999999999984   -0.0000000000000006    0.0000000000000000
    -0.0000000000000006   22.0829999999999984    0.0000000000000000
     0.0000000000000006    0.0000000000000006   22.0829999999999984
   Li
   500
Direct
  0.9897635226192065  0.0052908540506280  0.0330856867273468
  0.0052894484445076  0.1076379463840951  0.0964921523343776
  0.9962277593624052  0.2259122234297877  0.1866810899787197
  0.0193198492052744  0.3167645750124564  0.2773751297378055
  0.9939003206086099  0.4021262527736269  0.3988582067653823
  0.0035463351899665  0.4974656776706041  0.4803910116379129
  0.0128123696961495  0.5920570610877149  0.5690846895802224
  0.9907355250645296  0.6944747783362786  0.6788400688312279
  0.0167212914911943  0.7877919902187216  0.7963982964271139
  0.0080238735679004  0.8717614893809724  0.9334683367296108
  0.1273925721142959  0.0024902766834245  0.0872873676583765
  0.1016094765204016  0.1303894113118673  0.1723754376669859
  0.1048366173074342  0.2336861825838881  0.2975193356880865
  0.0986457813702870  0.2913447362224346  0.3859533220124050
  0.0885537078295542  0.3860154929131028  0.5163083847303369
  0.1075729248743400  0.4887322284109956  0.5980442353846840
  0.0964334098627901  0.6050908092197602  0.6980445872390533
  0.0927761590363616  0.6908385282796701  0.8118018185934872
  0.1152066639496425  0.7935373776207939  0.8946851365303630
  0.1030580016302167  0.9144286288094889  0.0095766567042546
  0.1977670040302471  0.9905393533487299  0.1851526581533278
  0.1630923135443538  0.1248401707195583  0.2846212154145746
  0.1867527111352629  0.2046072173164859  0.3835449803015862
  0.1914621949010566  0.2900721242584794  0.4896604569125600
  0.1928032875967958  0.3749574052438547  0.5851001277000378
  0.2054173418466689  0.4843445668613882  0.6998606557080080
  0.2148406516324783  0.5857131467644763  0.8007745777294772
  0.2021066576099244  0.6721012679436669  0.9043661187338685
  0.1902937716795705  0.7860936113752643  0.0094537191504784
  0.2262575161889231  0.8984713000950961  0.0962837721324092
  0.2627207544264820  0.0020078440429288  0.3100125109812950
  0.2907445591631586  0.0943495539555315  0.4265670837295659
  0.3098167848571265  0.2076595702576611  0.4794521351265715
  0.3043583648055090  0.2730446207489905  0.6024701843046714
  0.3146042403658953  0.4088171810895247  0.6828555567631227
  0.3402001965312706  0.4930935352986481  0.7679266680251757
  0.3300337155277830  0.6020647570529363  0.8600515351175133
  0.3157607748041471  0.6995346556174411  0.9538261092242877
  0.3084760376760372  0.7524222619209340  0.0995876715120261
  0.2977417579133288  0.8706083955984241  0.1984990535706217
  0.4058523031291017  0.0052673975456230  0.4044344848978838
  0.4158134030702385  0.0695025367930100  0.5085900987184715
  0.3851125598876948  0.1925813376805721  0.6176765991939490
  0.3940470574650163  0.2872537304714058  0.7149367137617162
  0.4024985418647802  0.3906439899470158  0.7836421482588420
  0.4244881823121887  0.4944163836435251  0.9037386152243840
  0.3897881637458696  0.5868318792736460  0.9700152664945918
  0.4172684137119020  0.6906843209708811  0.0711188928134732
  0.4187186718290121  0.7977137979441196  0.1829448494316921
  0.4165733867680999  0.8786329520445619  0.2963824090929705
  0.4854549984150722  0.9852069650862632  0.5323651283792969
  0.4999376783045761  0.0834410193361421  0.6066524552823438
  0.4891872893175773  0.1975529887243610  0.6958964067382141
  0.5038038328125722  0.2957742353846839  0.8239122207127636
  0.4847712973780745  0.3860642743286675  0.9103260576008694
  0.4997920468233517  0.4702668029706132  0.9982224136213347
  0.5340432355205351  0.5818110392609697  0.0810175030566498
  0.5307396427115876  0.7131833211067331  0.1918284997509403
  0.5039039645881473  0.8126870574650198  0.3022471018430437
  0.5133047842231591  0.9066399352443071  0.4068091930444240
  0.6015110283928848  0.0160532703889871  0.6212832681247988
  0.6260074663768478  0.1036695190870773  0.7163532617850805
  0.6105553765339877  0.2110354304215889  0.8234345211248453
  0.6265020844088198  0.3143203532128780  0.9081028392881407
  0.6074530992165919  0.3991923008649181  0.0051991672327105
  0.5884456464248515  0.4878122044106306  0.1203703514015331
  0.5893400176606463  0.6245785174115852  0.2017183435221668
  0.5937282842005160  0.7095022261468102  0.2858693945568973
  0.5855862573019976  0.7983368736131879  0.4245547570529382
  0.6017684091835349  0.9024908092197634  0.5244782995969786
  0.7318687814155709  0.9734027813249995  0.7352878870624480
  0.7132783118235722  0.1128886740931918  0.8110968020649381
  0.7164811361680918  0.1896182208033323  0.9179389919847836
  0.6674090802880031  0.3038135964316453  0.0078571308246183
  0.6901982665398734  0.4029395181814053  0.1010595290494933
  0.7020289620975433  0.5255799519992763  0.2095631259339754
  0.7013565244758411  0.6124646868631984  0.3104497554680066
  0.6902454494407451  0.7193734863922501  0.4031242195353926
  0.7126382905402338  0.8046375999637760  0.5000927301544209
  0.7115728945342568  0.8960624462256064  0.5915433125028287
  0.8385517289317548  0.9918510234116766  0.8255690970429725
  0.8044263374541529  0.0996389571163334  0.9167222859212956
  0.7997631965765493  0.2211202612869627  0.0338732989177188
  0.7918612892270076  0.3091435765068127  0.1124678046461085
  0.7876244473124103  0.4249997717701390  0.1684053982701599
  0.7843463741339463  0.5221162133768047  0.3112567024407937
  0.8077160539781758  0.6301081863877158  0.4194368450844550
  0.8161526454738919  0.6996495942580268  0.4929743639903990
  0.8193598482995981  0.7935466847801464  0.6042649033192973
  0.8226801195489770  0.8803161327718172  0.7138360123171665
  0.9083390730426117  0.9918102227958130  0.9029996196168995
  0.8803026232848765  0.0803174201874768  0.0005446845990136
  0.9025876579269152  0.1805236937916064  0.1185974677353627
  0.8736691599873225  0.3092691790064777  0.1722168020649377
  0.8708295136530353  0.4020306308019741  0.2809371779196681
  0.9126110446950122  0.5001688113028138  0.3888404786487314
  0.9184980364986615  0.5994512507358607  0.4689071353529854
  0.9307840080604990  0.7168911189602838  0.5852466363265876
  0.9115821659194836  0.7952896110129970  0.7010283104650625
  0.9267808146538030  0.8777239763619065  0.8306640456459746
  0.1066793791604397  0.1003249064891563  0.0018025340759849
  0.1121641045147825  0.2130880600461893  0.0685601331340848
  0.1100772059955588  0.3080475999637713  0.1749892365167796
  0.1112853778925000  0.4045442616492352  0.2976165317212320
  0.1023191319114218  0.5047962763211515  0.4199523456957834
  0.1176923814699080  0.5845893288955324  0.4943339704750258
  0.0949162115654545  0.6999552841552301  0.6139183756735918
  0.0864653665715736  0.7957662908119403  0.7020981017071932
  0.0974978340805137  0.8994748267898416  0.7987243911606186
  0.0816961327718175  0.9952322383734113  0.9039633876737767
  0.1912281433681997  0.1142146773536226  0.0812257270298389
  0.1986150903409865  0.2263644776524956  0.1855864334555974
  0.2175168260652995  0.3043570180681954  0.2926705044604461
  0.2118306058959405  0.4041983249558498  0.4086526998143398
  0.2141736303944199  0.4657136380926516  0.5145308083140847
  0.1973595199927516  0.5777422107503511  0.6103143137254889
  0.1958349821129346  0.6900533342390105  0.7104768686319787
  0.1857161554136653  0.7962271530136320  0.8009023601865692
  0.1969573595073157  0.8867415876466040  0.9259946823348244
  0.2133690177964951  0.0024080672915829  0.0056681574061486
  0.2932516179866838  0.0828320685595259  0.1907882448036986
  0.3124617162523222  0.2013961499796224  0.2919943458769154
  0.3193632703889904  0.2787603953267208  0.3791214413802493
  0.3400849639994590  0.3729055368382888  0.5061271815423609
  0.3008092967440987  0.5073405343476907  0.6123048716207009
  0.3220893488203629  0.6019226862292228  0.7094217801023390
  0.3327731603495891  0.6938414259837913  0.7920480505366143
  0.2894923293936529  0.7823501132092545  0.8744781818593523
  0.3101202893628567  0.8712141846669397  0.9792581066884054
  0.2772576964180615  0.9801686455644614  0.0903310229588357
  0.3684501267943645  0.0766312498301858  0.2815799787166569
  0.3951702748720720  0.1715046864103584  0.3892144704070972
  0.4166124815468919  0.2970671453154026  0.5025208268804064
  0.4127864425123420  0.3678202707965426  0.5892857963139093
  0.4039270062944382  0.4816127546076174  0.6908026060770709
  0.4359169035004271  0.5836672838835284  0.7944854738939426
  0.4296616908934467  0.7073164194176513  0.8821874826789866
  0.4217028655526889  0.7926604206855927  0.9715242607435570
  0.3869961712629646  0.8977393818774644  0.0715836548476219
  0.3778252193995399  0.9790214748901889  0.2062871095412788
  0.5052698732056342  0.0810098310917908  0.4233304551012083
  0.5102121455418214  0.2155407793325210  0.5275853339673020
  0.4924879803468727  0.2829718969342920  0.5962177299280000
  0.5107839673051657  0.3767973812434917  0.6892325517366302
  0.4969328007969906  0.5067541072318065  0.7791279192138774
  0.5173275112077178  0.5887068505184985  0.9064594049721535
  0.5103958239369675  0.6932335642802130  0.9855868183670680
  0.5043461554136641  0.8005550255852896  0.0827484069193503
  0.4932038844359923  0.8994020604084625  0.1673339066250037
  0.4779904895168201  0.0023849169044041  0.3134912330752186
  0.5912477303808359  0.0848652424942244  0.5141323547525261
  0.6119919616899878  0.1732194651994732  0.6107822832042729
  0.6040043811982088  0.2764427274373986  0.7033100122266021
  0.5940181211791895  0.4124641928180068  0.7719331091790096
  0.5882944237648857  0.4783613204727644  0.9128793343295740
  0.5939648181859383  0.5816352932119742  0.9863278689489619
  0.5768310238645142  0.6950907231807264  0.1031239433048015
  0.5744575080378596  0.7909720545215748  0.1982734257120882
  0.5795091427795143  0.8873350138115299  0.3040894602182647
  0.6024614563238657  0.0040842313091503  0.4176364112665851
  0.7102654082325799  0.0720291654213625  0.6134162387356810
  0.7095843839152280  0.1940538006611447  0.7211189983245063
  0.7109383272200347  0.2931373640356867  0.8016551496626363
  0.6896550255852887  0.4218125349816617  0.9151917728569501
  0.6941367282525022  0.4887573712810749  0.0276620662953420
  0.7001406235565852  0.5978498482995960  0.0749591119865940
  0.6914671389756819  0.7348425893221062  0.1968008612960190
  0.6795826432097059  0.7933341072318072  0.3057500258117116
  0.6876964103609140  0.8932732649549422  0.4008831137073798
  0.7098259883168083  0.0044254444595424  0.4868151256622752
  0.8090159489199849  0.0685692813476422  0.7117817180636692
  0.7994748906398570  0.1929238599827912  0.8046654978943053
  0.7826020721822218  0.2882990282117461  0.9062177013992638
  0.7865466630439713  0.3763181329529530  0.0019500588688146
  0.8105934555993315  0.4874382932572559  0.0973016474210908
  0.7844028877416989  0.6003057084635230  0.1771944291989342
  0.7928873921115809  0.7080582167277996  0.2963113983607286
  0.8064864859846921  0.7889905357061977  0.3968201444550132
  0.8115214083231450  0.9073419933885774  0.4908290789294938
  0.8175872213920243  0.9803841194584066  0.6076772123352825
  0.9048777634379377  0.0916707997101867  0.8196503251369833
  0.8713302390979507  0.2056695924466752  0.8913722515056861
  0.8892042996875418  0.3146649920753504  0.0224107666530813
  0.9123081605760106  0.4076286487343239  0.0721963338314566
  0.8867707181995215  0.4858373495449015  0.1999312860571507
  0.9029937191504800  0.6133386392247431  0.2847870891636077
  0.9231736059412228  0.7010967585925840  0.3989116397228614
  0.9261553221935444  0.8227090277589113  0.4812805954806834
  0.9064444128967963  0.8990372820721859  0.5710456142734230
  0.9033117271204105  0.9593500221890139  0.7129857066521765
  0.9905895915410028  0.1123994199157750  0.9079708812208480
  0.9854666200244537  0.2014706226509091  0.9937792985554523
  0.0090349159987326  0.2901776524928650  0.0726832373318871
  0.9997607308789540  0.4072461762441719  0.2094902766834252
  0.0031072381469883  0.5166666213829672  0.3264736548476179
  0.0060766381379338  0.6026000846805246  0.3743369483312975
  0.0169579459312601  0.7138719426708349  0.4769613671149742
  0.0003597011275644  0.8139537100937346  0.6053979078929501
  0.9832303821944492  0.8941299175836619  0.7211874632069950
  0.0055271081827684  0.9932390381741598  0.8087658148802248
  0.1860737608114817  0.2040325069057616  0.9964065733822380
  0.2015083933342368  0.3281286016392713  0.0997351016619135
  0.2074793003667992  0.3994342018747474  0.2157885885069959
  0.2061541629307584  0.5165816030430648  0.3115501557759330
  0.2172532232939375  0.5891486356020437  0.4196624788298706
  0.1977672530906105  0.7235313757188777  0.5340907856722339
  0.1824086614137599  0.8235933518996532  0.6102183978626101
  0.1900736888104007  0.9068439745505614  0.7100217859892197
  0.1897221754290612  0.0239735063170770  0.8145095100303408
  0.1810348566770799  0.0968851061902853  0.9080457899741887
  0.2979084490331942  0.2198650246796205  0.0905149916225128
  0.3000819014626614  0.3093729724222243  0.2134438409636346
  0.3073128519675734  0.4127509722410920  0.3229360132228436
  0.3088498021102239  0.4902697138070025  0.4225341792328976
  0.2949294095005186  0.5978139324367149  0.5186020730878980
  0.3171043612733797  0.7118417135352999  0.6245708218991979
  0.2884544989358346  0.7916794792374233  0.7101445238418691
  0.2930559928451757  0.8951716605533662  0.8031768147443756
  0.2903465837974935  0.0057661825838906  0.9101150373590556
  0.3129035153738187  0.1144847869401815  0.9917131494815052
  0.3977438568129301  0.1875611085450331  0.1991929167232698
  0.4192310003169837  0.3198200547932828  0.2893244699542663
  0.4420575800389415  0.4095936992256455  0.4073209699769080
  0.4182454729882750  0.5206681601231722  0.4942822759588807
  0.4299653271747488  0.5870855427251769  0.6108975564914161
  0.3991860634877540  0.6907516130054816  0.6772841248924522
  0.3839183394466303  0.8225289145496504  0.7888333469184445
  0.4157871149753234  0.8969635076755864  0.8994184137119063
  0.3898326685685802  0.9911952112484741  0.9738216279490999
  0.3977427808721643  0.0923120812389655  0.0919557990309272
  0.4831097785626923  0.1855840180229151  0.3089093302540391
  0.5227914680976298  0.2744013526241886  0.4268976488701739
  0.4916163288502489  0.3903103147217308  0.4797063243218744
  0.4889442394602170  0.4692194728977057  0.5833998469410844
  0.5055147710908869  0.5868725023773962  0.6722944242177249
  0.4900571190508529  0.7062395471629728  0.7974656581986110
  0.4990553036272232  0.7854334057872592  0.8712579364216850
  0.5033884879771762  0.9147290558348047  0.9917926173979978
  0.4876973599601513  0.9961415147398469  0.0821900529819288
  0.4619223022234280  0.0679669768600277  0.1856956962369267
  0.5992259000135860  0.1670160766200226  0.4074462966988150
  0.6062321835801328  0.2926318118009306  0.5002986808857486
  0.6023102033238246  0.3904539663994910  0.6035192754607621
  0.5805495648236203  0.4804272132409579  0.6762761920934679
  0.5973552492867853  0.5806087646605960  0.7857606987275290
  0.5968836326586029  0.7167434583163512  0.8829609147307877
  0.6041459529955162  0.7912832740116826  0.9968925716614621
  0.5986387071503003  0.8895035665443984  0.0992598750169833
  0.5901184599012836  0.9818134420142215  0.1924784571842579
  0.5866670511253034  0.0868089620975425  0.3047830109133756
  0.6965835991486671  0.1689568962550396  0.4961632952950268
  0.7069586541683677  0.2915020508988846  0.6240619145949395
  0.6921321632024657  0.4062986663949673  0.7144927690983991
  0.6943473450165314  0.4961721568627482  0.7872492904043824
  0.6731838445863332  0.5962292858760136  0.8955751673232797
  0.6970147751664157  0.6890883657111786  0.9906551374360362
  0.6505548879228371  0.7917050020377658  0.0992895059548076
  0.6964191953086072  0.8742759851469444  0.2300210849975102
  0.6724847973554304  0.9783982701625717  0.3155753810623523
  0.6859581791423253  0.0956301793234644  0.3755320558800861
  0.7907383299370565  0.1828552977403461  0.6225721559570729
  0.8099195136530355  0.3005796789385471  0.6988956011411460
  0.7979764891545500  0.3959297464112694  0.8087106154055164
  0.8027867069691652  0.5044072109767725  0.9429469546710152
  0.7942342969705223  0.6057510682425402  0.0131015564008479
  0.7969388334918293  0.7207257537472245  0.0911655458950307
  0.7843883417108160  0.7905183335597528  0.2039325666802512
  0.7877536829235154  0.8760524263007738  0.3055459240139484
  0.8117131811800959  0.9791560422044085  0.3768493950097351
  0.8120274333197486  0.0916581429153638  0.5051436362813035
  0.9002629959697472  0.1796871969388221  0.7042334945433169
  0.8736135959788101  0.3076222084861655  0.8150504098175091
  0.8840822809400919  0.3819726232848808  0.8939867092333458
  0.9018091599873230  0.4861790082869177  0.9804390997599981
  0.9110759788072258  0.5892484282026871  0.0898920495403672
  0.9247046243716852  0.6946362265090826  0.2066312670379915
  0.8891722863741336  0.8023575066793427  0.2958749318480258
  0.9017146429380034  0.8987784884300112  0.3732499809808445
  0.8995470049359255  0.0144853090612713  0.4666400987184716
  0.9129200307929182  0.0920871204093672  0.5911628125707580
  0.9742345899560760  0.2206796879952932  0.8033733555223463
  0.9856889073042581  0.3210262541321356  0.8976962378300044
  0.9916898211293770  0.3931900765294571  0.9835069841054178
  0.0057764877960409  0.4967538242086675  0.0995864425123401
  0.9779558950323803  0.5929916922519567  0.2046051093601449
  0.0083462971516539  0.7055445202191706  0.3062071851650572
  0.0185261110356407  0.7802263388126605  0.3935721491645126
  0.9872051845310850  0.9245647833174857  0.4690299746411242
  0.9880142557623515  0.0194967970837325  0.6133649966037211
  0.0177790159851483  0.1315904510256729  0.7073242403658924
  0.0794636856405404  0.2479346338812647  0.9296038205859745
  0.0850050686048078  0.3358064212290017  0.0009856672553568
  0.0997354906489178  0.4155741312321695  0.0780391214961753
  0.1122134248064128  0.5092479491011161  0.2115490938731170
  0.1061576226056218  0.5957774007154839  0.3023035932617830
  0.1109671208621990  0.7078779450255865  0.4052398754698174
  0.0935087356790305  0.8264503409862769  0.5080400357741226
  0.0668632051804536  0.9218132545396927  0.5891003369107466
  0.0844120585971098  0.0042719951999288  0.7108840202870965
  0.0977501109450714  0.1248777172485589  0.8106821722592059
  0.2856763736811132  0.3037914196440710  0.9988080867635745
  0.3252034882035986  0.4105744753883087  0.1071745818050118
  0.3053097604492123  0.5171234678259324  0.2227468441787792
  0.3223939532672162  0.6199731802744211  0.3009633777113621
  0.2977652420413861  0.7153406122356571  0.4037489765883251
  0.2933812606982755  0.8060759267309692  0.5115522211656014
  0.2942271815423609  0.9080542018747479  0.6159643178010228
  0.2981145867862125  0.0230445636915277  0.7207948960739046
  0.2827419757279372  0.1201688629262350  0.8235932558982029
  0.2820261268849364  0.2345335434497144  0.9193016881764251
  0.4057057351809092  0.3061983344654280  0.1218545840691903
  0.4353027681927273  0.4129958026536258  0.1988713508128441
  0.4127203364579088  0.4878419032740098  0.3059397862609217
  0.3905465824389793  0.6307057243128185  0.4128964674183777
  0.4122196608250661  0.6959286174885690  0.5245900190191577
  0.4025802594756129  0.8082966721007097  0.6188758402390988
  0.3930668939908557  0.9225260594122204  0.7123649617352683
  0.3775356346510890  0.0231286066204746  0.8235422080333308
  0.4009410523932431  0.1407484508445407  0.8978879400443773
  0.3954094289725134  0.2012309975999642  0.0199444713127761
  0.5204138776434348  0.2818581524249453  0.1815536430738547
  0.5231591400624893  0.3789207136711497  0.2999573029026834
  0.5306483240501763  0.5241515722501475  0.3917007195580311
  0.5105010401666448  0.5825305909523166  0.4966331363492316
  0.5188828392881391  0.7195563424353608  0.5830859357877074
  0.4966936072997328  0.7910717588190010  0.6879620296155409
  0.4898003310238650  0.9078216700629440  0.8067914282479762
  0.4820459797129004  0.0167147013539832  0.8886544427840448
  0.5025533414844006  0.1118022175429090  0.9950538368881041
  0.5108423647149394  0.1590518733867654  0.0953170887107717
  0.6146684327310581  0.2805824335461651  0.3124819182176353
  0.6147330077435100  0.3867048607526158  0.3986830349137378
  0.5921125508309544  0.4839705814427404  0.5052000502649108
  0.6025906765385116  0.6073329262328500  0.6030153892134251
  0.6144226083412576  0.7106218516505933  0.6981418466693867
  0.5599565969297657  0.8257748725263809  0.7861163664357207
  0.5763266721007128  0.8849090390798366  0.8977415468912753
  0.6115191165149696  0.0020405995562172  0.9874613082461607
  0.6039416329303080  0.0726191767422932  0.1008907440112310
  0.6000480659330734  0.1769819825204877  0.2093731875198088
  0.6987886414889317  0.2751174926413995  0.4172629669881829
  0.7030832427659277  0.3874442340261766  0.5037023742245168
  0.6821345052755490  0.4906113213784380  0.6058086233754452
  0.7023509111080912  0.5988783294842221  0.6857144663315680
  0.6824142353846838  0.7213382452565327  0.7900467110446954
  0.6688754834035251  0.7994078064574595  0.8823431657836380
  0.7111514173798881  0.8685302988724359  0.9825828632884992
  0.7109202993252737  0.9907063342842903  0.1161739940225530
  0.7214614173798850  0.0672329891771923  0.2014923859982787
  0.7050473432051803  0.2108620287098688  0.2981410954127597
  0.8121635656387269  0.2688939070778460  0.5112198772811638
  0.8068925906806115  0.4267111828103083  0.6050311973010949
  0.7878697971290123  0.5090716949689806  0.6885191640628534
  0.7922137073767175  0.6178828157406144  0.7952692845175022
  0.8096071770139943  0.6934167486301703  0.9122675007924670
  0.8099237060182034  0.7727394312367011  0.9795346017298385
  0.7818465593442951  0.8797091871575446  0.0995009138251177
  0.7865242530453287  0.0043772331657834  0.2035680011773735
  0.8117318344427815  0.0933196721459950  0.2873504781958971
  0.7844401213603192  0.2189329918942207  0.4069517778381595
  0.8884914246252791  0.3134769424444173  0.6214280460082406
  0.8896751981162012  0.4160869125571693  0.6925516175338515
  0.8820664982112945  0.5206910849975088  0.8007844011230389
  0.8655850364533819  0.5977681560476356  0.8891429574786045
  0.9094043893492767  0.7066999574333224  0.0085852193995350
  0.9011514468142892  0.7900688534166562  0.1119155603858175
  0.8847705719331600  0.9027093864058315  0.2023166748177303
  0.9102144948602984  0.0008261164696819  0.2984653982701602
  0.8840051492097984  0.1206606932934804  0.3562186034506212
  0.8789245356156314  0.2023443825567171  0.4829705275551319
  0.9841908191821744  0.3122524856224231  0.7239117153466452
  0.9653836774894700  0.4260279681202732  0.7796313625866063
  0.9665005972920326  0.4964962364714935  0.8847502354752521
  0.9952046221075008  0.5776199035457168  0.9769418507449146
  0.9932635873749049  0.6729415650047557  0.0947794611239416
  0.9995508083140905  0.7690628977041172  0.1960589892677618
  0.9781988964361759  0.8978321228999704  0.2703323370918795
  0.9838837291128897  0.0004975093963679  0.3946789267762512
  0.9919498935832962  0.1246940968165546  0.5095332146900304
  0.9887052809853714  0.2137989507766136  0.6160263537562827
  0.0888341833084283  0.3213055218946721  0.8021257881628401
  0.0924180582348413  0.4229318747452808  0.8927904926866788
  0.1136213562468882  0.4800705918579879  0.9972236666213803
  0.1296330806502723  0.6077629452520057  0.0786944323687919
  0.1048708495222570  0.6854369691617990  0.2017018009328453
  0.1017670456912541  0.8147688792283674  0.2768022510528496
  0.0984418643300273  0.9156457573699228  0.3676668410089192
  0.0934204197799247  0.0171089942489715  0.5266594248969767
  0.0730971276547550  0.1153947430149884  0.6162604161572247
  0.1012367083276757  0.2352584449576582  0.7100687374903742
  0.1886968550468708  0.3095926468324066  0.9033622370148962
  0.1838314459086163  0.4113568111216779  0.9919670053887586
  0.1888366625911360  0.4839116447040723  0.1156521949010525
  0.2161745727482653  0.6133504673278054  0.1926970212380539
  0.2181952488339434  0.6992427310600888  0.2937904401575864
  0.2266465892315352  0.8021827183806565  0.3857327568718034
  0.1856485169587501  0.9220870103699710  0.4941880016302136
  0.2277312973780710  0.0202980754426463  0.6171075451704908
  0.1889306801612065  0.0978501476248681  0.6945609966942925
  0.1636617081012517  0.2351461893764437  0.8178232536340175
  0.4028922682606506  0.4034800833220089  0.0007824090929702
  0.4016867694606745  0.5166703509486936  0.0979541248924534
  0.4309689996830173  0.6069820531630654  0.1896722927138512
  0.4111143268577635  0.7201524244894273  0.3165211203187965
  0.3909008259747324  0.8159713231897854  0.4182012806231015
  0.4076112511886976  0.9123787393017224  0.5129226690214210
  0.3824669202554034  0.0145131549155479  0.6234356278585338
  0.4032789806638561  0.0976163007743480  0.7175914735316766
  0.4163085857899773  0.2086693655753322  0.8106962287732671
  0.4017536109224267  0.2904883027668319  0.8891239097948684
  0.5004507589548552  0.4050956097450538  0.1202193121405628
  0.5267277068333129  0.5039176665308176  0.2169925123398073
  0.4930344264819126  0.6321091500249096  0.3013316718742942
  0.4832034737128126  0.7416849173572402  0.4128859729203427
  0.4721355816691570  0.8002421446361438  0.5196825988316789
  0.4954364352669458  0.9104779957433351  0.6005436095639212
  0.5142059683919769  0.0251930883485016  0.7263495245211260
  0.5087755395553160  0.1329567970837289  0.7998817814608543
  0.5338616134583134  0.2257681709912589  0.9252421392020977
  0.5087460566951947  0.3385483992211178  0.0161521921840304
  0.6134422410904321  0.3954547638454926  0.2221836453380419
  0.6022998732056308  0.4965208585789966  0.3041592079880431
  0.5821102458905045  0.6320646791649693  0.4161973096952423
  0.6011426708327647  0.7114029927998899  0.4929915536838294
  0.5881734397500367  0.8041328229860056  0.5990685504686866
  0.5994482257845419  0.8982585436761283  0.6762995829370979
  0.5708879011003916  0.0046678019290880  0.8144882135579437
  0.6119173155821187  0.1052785866956469  0.8958429941584001
  0.6079549852827952  0.2015299538106206  0.9961405773672070
  0.5980315251550934  0.3010634741656446  0.0975420187474541
  0.7113247357695940  0.4190530869899902  0.2977723497713143
  0.6982612457546509  0.5200774867545164  0.4152393565185903
  0.7074591319114276  0.6121839066250061  0.4960498279219294
  0.7041096581080453  0.7199338826246446  0.5814817515736053
  0.6897225358873342  0.8138642539510030  0.6943502436263174
  0.6795469284064666  0.8907444038400598  0.7965118050083788
  0.6907206502739669  0.0028511298283718  0.8934511701308736
  0.7123382765022868  0.1069304976678893  0.0146771742969705
  0.6849697894307809  0.1875327754381217  0.0883469030475936
  0.6925599316216093  0.3032009962414506  0.1747791042883691
  0.7883025875107563  0.3866711859801626  0.3983283127292481
  0.7969487818684087  0.5019495729746879  0.4873832382375554
  0.8002039229271389  0.6103432753701910  0.5930170447855829
  0.8088724484897867  0.6958324453199296  0.6864864986641308
  0.7911853941946276  0.7858727899289022  0.8277071824480373
  0.7893708422768668  0.8787525517366319  0.9086854172893197
  0.7851944636145447  0.9935722886383189  0.9922521029751366
  0.7983817176108303  0.0754689906262769  0.0877429715165547
  0.7780762369243277  0.1845394248969825  0.1754291604401601
  0.7767971226735497  0.3309303210614516  0.2829659285423176
  0.8883228777792880  0.3829543626318923  0.5205263501335864
  0.9012515410043918  0.5086130724992088  0.5938541851197741
  0.8967988117556516  0.6232986283566575  0.6846070275777763
  0.9045351383417142  0.7174486899424863  0.7992420640311551
  0.9177542163655303  0.7758321423719607  0.9130035217135344
  0.8872130919711978  0.8884086763573791  0.0005077897024890
  0.8746094760675618  0.9557815772313560  0.0988133442014245
  0.9092620626726458  0.0752800892088956  0.1822457356337424
  0.8860806221980724  0.2342709912602459  0.2720890540234535
  0.8970097672417694  0.3085346085223932  0.3705298501109482
  0.9710249141873817  0.4061504003079293  0.5856845415025163
  0.0274974849431686  0.5292146705610676  0.7059396377303813
  0.9830052755513279  0.6144653914776086  0.7974749707920097
  0.0002130294796885  0.6884393873115044  0.9088786650364540
  0.0156360693746294  0.7821229552144189  0.0115574722637319
  0.0085350975863818  0.8980768822170901  0.0989199846035405
  0.9963039609654487  0.0197324435085804  0.1998949123760383
  0.9910186052619636  0.1248426866820651  0.2719114508898244
  0.9913302789476077  0.2192148544128969  0.4002214373047153
  0.9982232658606165  0.3061213227369493  0.5020829194402907
  0.0942341887424689  0.3971419037268475  0.6859025476610938
  0.1125393836888122  0.4894477263053005  0.8039942408187315
  0.0936680691029323  0.5671710994882915  0.8794126155866522
  0.0905577498528274  0.6789798129783122  0.9967249694335010
  0.1163114151157032  0.7967366589684346  0.1150413680206483
  0.0991582361997914  0.8868790748539581  0.1828828469863666
  0.0765866399492836  0.0065859380518987  0.2650609468822154
  0.0886858506543504  0.1341917574604921  0.4316727414753458
  0.0932492981026130  0.2041918389711554  0.5210566961010699
  0.0990685196757681  0.3140764212289966  0.6007725349816582
  0.2186753326087967  0.3995665176832830  0.7986138631526529
  0.2455192550830958  0.4782402024181494  0.8874258248426372
  0.2221193823302983  0.5724951587193772  0.9874680541593079
  0.2040892673096977  0.6872846320699182  0.0754701498890569
  0.2023406031789179  0.7887248892813474  0.2074016582891787
  0.1891205406874050  0.9020674007154810  0.3071913716433485
  0.1742282072182206  0.0032594552370568  0.4071253226463796