Li 
 1.0000000000000000
    22.0829999999999984   -0.0000000000000006    0.0000000000000000
    -0.0000000000000006   22.0829999999999984    0.0000000000000000
     0.0000000000000006    0.0000000000000006   22.0829999999999984
 Li 
 500
Cartesian
 -0.2260521300000000  0.1168379300000000  0.7306312200000000
  0.1168068900000000  2.3769687700000000  2.1308362000000001
 -0.0833023900000000  4.9888196300000001  4.1224785099999997
  0.4266402300000000  6.9951121100000000  6.1252749900000003
 -0.1346992200000000  8.8801540400000007  8.8079857799999992
  0.0783137200000000 10.9855345599999996 10.6084747099999994
  0.2829355600000000 13.0743960799999996 12.5670971999999992
 -0.2045874000000000 15.3360865299999993 14.9908252399999995
  0.3692562800000000 17.3968105199999989 17.5868635799999993
  0.1771912000000000 19.2511089700000007 20.6137812800000013
  2.8132101700000001  0.0549927800000000  1.9275669400000000
  2.2438420699999999  2.8793893700000002  3.8065667900000002
  2.3151070200000001  5.1604919699999998  6.5701194899999997
  2.1783947900000000  6.4337658099999997  8.5230072099999994
  1.9555315300000000  8.5243801300000008 11.4016380599999998
  2.3755329000000001 10.7926737999999993 13.2066108500000006
  2.1295389899999999 13.3622203400000004 15.4149186199999999
  2.0487759200000002 15.2557872200000002 17.9270195600000015
  2.5441087599999999 17.5236859100000011 19.7573318700000016
  2.2758298500000000 20.1933274099999984 22.2944813099999983
  4.3672887500000002 -0.2089194600000000  4.0887261500000003
  3.6015675599999999  2.7568454899999999  6.2852902999999998
  4.1240601200000002  4.5183411800000002  8.4698238000000003
  4.2280596499999996  6.4056627199999996 10.8131718699999997
  4.2576749999999999  8.2801843799999997 12.9207661199999997
  4.5362311599999998 10.6957810700000007 15.4550228599999997
  4.7443261100000003 12.9343034200000009 17.6835050000000003
  4.4631213199999999 14.8420123000000004 19.9711169999999996
  4.2022573599999999 17.3593052199999995  0.2087664800000000
  4.9964447300000003 19.8409417200000000  2.1262345400000000
  5.8016624200000004  0.0443392200000000  6.8460062800000001
  6.4205120999999998  2.0835211999999999  9.4198809099999998
  6.8416840600000004  4.5857462900000003 10.5877414999999999
  6.7211457699999997  6.0296443599999998 13.3043490799999997
  6.9474054399999998  9.0279098100000006 15.0794992600000004
  7.5126409399999998 10.8889845399999992 16.9581246099999987
  7.2881345399999997 13.2953960299999991 18.9925180500000010
  6.9729451899999999 15.4478238000000001 -1.0196580300000000
  6.8120763400000000 16.6157408099999984  2.1991945500000001
  6.5750312400000004 19.2256451999999989  4.3834546000000003
  8.9624364100000005  0.1163199400000000  8.9311267300000008
  9.1824073800000008  1.5348245199999999 11.2311951499999996
  8.5044406600000002  4.2527736799999998 13.6401523400000002
  8.7017411700000000  6.3434241299999998 15.7879474500000008
  8.8883752999999999  8.6265912300000007 17.3051695599999995
  9.3739725299999996 10.9181969999999993 19.9572598399999990
  8.6076920200000000 12.9590083899999993 -0.6621528700000000
  9.2145383800000005 15.2523818599999998  1.5705185100000001
  9.2465644299999994 17.6159138000000013  4.0399711099999998
  9.1991900999999991 19.4028514799999989  6.5450127399999998
 10.7203027300000002 -0.3266745900000000 11.7562191299999999
 11.0401237499999993  1.8426280300000000 13.3967061699999999
 10.8027229100000000  4.3625626500000001 15.3674803499999992
 11.1255000400000004  6.5315824400000002 18.1944535700000003
 10.7052045600000003  8.5254573699999998 20.1027303300000000
 11.0369077699999991 10.3849018100000006 -0.0392544400000000
 11.7932767700000003 12.8481331799999996  1.7891095200000000
 11.7203235299999999 15.7492272799999995  4.2361487599999998
 11.1277112500000008 17.9465682899999983  6.6745227500000004
 11.3353095499999998 20.0213296900000017  8.9835674099999991
 13.2831680399999996  0.3545043700000000 13.7197984099999992
 13.8241228799999991  2.2893339899999998 15.8192290799999995
 13.4828943799999994  4.6602954099999998 18.1839045299999995
 13.8350455300000004  6.9411363599999998 20.0536349999999999
 13.4143867900000000  8.8153635799999996  0.1148132100000000
 12.9946452099999998 10.7723569099999992  2.6581384699999999
 13.0143956099999993 13.7925673999999994  4.4545461800000004
 13.1113017000000003 15.6679376599999998  6.3128538399999998
 12.9315013200000006 17.6296731800000011  9.3754427000000007
 13.2888517799999999 19.9297045399999995 11.5820542900000003
 16.1618582999999987 -0.5873463799999999 16.2373624099999994
 15.7513249599999998  2.4929205900000002 17.9114506800000015
 15.8220529299999999  4.1873391700000004 20.2708467600000013
 14.7383947200000005  6.7091156500000002  0.1735090200000000
 15.2416483199999995  8.8981133799999999  2.2316975800000001
 15.5029055699999994 11.6063820799999995  4.6277825100000003
 15.4880561300000004 13.5250576799999997  6.8556619500000000
 15.2426902599999998 15.8859247000000003  8.9021921400000004
 15.7371913699999997 17.7688121199999998 11.0435477599999992
 15.7136642299999991 19.7877469999999995 13.0630509700000008
 18.5177378300000015 -0.1799538500000000 18.2310423700000008
 17.7641468099999997  2.2003270900000000 20.2439782400000006
 17.6611706700000006  4.8829987299999997  0.7480240600000000
 17.4866728500000015  6.8268176000000000  2.4836265300000000
 17.3931106699999987  9.3852699600000005  3.7188964100000002
 17.3207209800000008 11.5298923400000000  6.8734817599999998
 17.8367936200000017 13.9146790800000009  9.2624238499999993
 18.0230988699999983 15.4503619899999993 10.8863528800000005
 18.0939235300000014 17.5238914399999999 13.3439818599999995
 18.1672450800000007 19.4400211600000006 15.7636406600000001
 20.0588517499999988 -0.1808548500000000 19.9409406000000011
 19.4397228300000009  1.7736495900000000 22.0950282700000002
 19.9318432500000000  3.9865047300000001  2.6189878800000002
 19.2932360600000017  6.8295912799999998  3.8030636400000000
 19.2305281500000014  8.8780424199999999  6.2039356999999997
 20.1531896999999987 11.0452278600000007  8.5867642899999996
 20.2831921400000006 13.2376819700000006 10.3548762700000001
 20.5545032499999998 15.8311065800000002 12.9240014700000003
 20.1304689699999990 17.5623804800000016 15.4808081800000004
 20.4661007300000009 19.3827785699999993 18.3435541200000003
  2.3558007299999999  2.2154749100000002  0.0398053600000000
  2.4769199199999998  4.7056236299999998  1.5140134199999999
  2.4308349400000000  6.8026151500000003  3.8642873099999999
  2.4575149999999999  8.9335509299999991  6.5722658699999998
  2.2595133900000000 11.1474161699999996  9.2738076500000002
  2.5990008599999999 12.9094861499999993 10.9163770699999993
  2.0960347000000001 15.4571125400000007 13.5571594900000001
  1.9094146900000000 17.5729070000000007 15.5044323800000008
  2.1530446699999999 19.8631026000000013 17.6382307300000001
  1.8040957000000000 21.9777135199999982 19.9622234899999995
  4.2228910900000001  2.5222027200000001  1.7937077299999999
  4.3860170399999996  4.9988067599999999  4.0983052100000004
  4.8034240700000002  6.7211160300000001  6.4630427499999996
  4.6778552700000002  8.9259116100000000  9.0242775700000006
  4.7295962800000000 10.2843542699999997 11.3623838399999997
  4.3582902800000003 12.7582812400000005 13.4775709900000003
  4.3246239099999997 15.2384477799999996 15.6894606900000007
  4.1011698599999997 17.5830842199999999 17.6863268200000014
  4.3494093700000001 19.5819144799999982 20.4487405699999982
  4.7118280199999996 22.1361773500000005 22.2081699199999996
  6.4758754800000000  1.8291805699999999  4.2131768100000002
  6.9000920800000003  4.4474311799999997  6.4481111400000000
  7.0524991000000004  6.1558658099999999  8.3721387899999993
  7.5100962600000001  8.2348729699999996 11.1768065500000002
  6.6427716999999999 11.2036010200000007 13.5215284800000006
  7.1126990899999996 13.2922586799999998 15.6661611700000005
  7.3486297000000000 15.3221002100000003 17.4907971000000018
  6.3928591099999998 17.2766375500000002 19.3111016900000010
  6.8483863500000002 19.2390228400000005 -0.4580432300000000
  6.1226817100000002 21.6450642000000002  1.9947799799999999
  8.1364841499999994  1.6922478900000000  6.2181306699999999
  8.7265451800000005  3.7873379900000002  8.5950231499999994
  9.2000534300000005  6.5601337700000002 11.0971674199999999
  9.1155630100000007  8.1225750399999992 13.0131982399999995
  8.9199200800000007 10.6354544600000001 15.2549939499999994
  9.6263529800000001 12.8891246299999995 17.5446227199999996
  9.4882191200000001 15.6196684900000005 19.4813461799999992
  9.3124643799999998 17.5043200699999986 -0.6288297500000000
  8.5460364500000008 19.8247787700000018  1.5807818499999999
  8.3435143200000006 21.6197312299999993  4.5554382400000000
 11.1578746100000004  1.7889401000000000  9.3484064399999998
 11.2670148099999992  4.7597870300000000 11.6506669299999999
 10.8756120700000007  6.2488684000000001 13.1662761300000000
 11.2796423499999996  8.3208165699999999 15.2203224400000003
 10.9737670400000003 11.1906509500000002 17.2054818400000009
 11.4241434300000009 13.0004133799999995 20.0173430400000001
 11.2710709799999993 15.3086768000000006 -0.3182862900000000
 11.1374761499999995 17.6786566299999990  1.8273330699999999
 10.8914213800000006 19.8614956999999990  3.6952346600000001
 10.5554639800000007 22.1356661199999998  6.9228268999999996
 13.0565236299999992  1.8740791500000000 11.3535847899999993
 13.5146184900000002  3.8252054499999999 13.4879051600000004
 13.3382287500000007  6.1046847499999997 15.5311950000000003
 13.1177021699999994  9.1084467700000005 17.0465988499999987
 12.9913057599999995 10.5636530400000002 20.1591143399999986
 13.1165250800000006 12.8442521799999998 -0.3019216700000000
 12.7381595000000001 15.3496884399999995  2.2772860399999999
 12.6857451500000007 17.4670358800000010  4.3784720600000000
 12.7973003999999992 19.5950191099999991  6.7152075499999997
 13.3041563400000005 22.1731920799999997  9.2226648699999991
 15.6847910099999996  1.5906200600000000 13.5460708000000007
 15.6697519500000002  4.2852900800000002 15.9244708399999997
 15.6996510800000006  6.4733524100000004 17.7029506699999999
 15.2296519299999993  9.3148862099999992 20.2101799200000016
 15.3286213700000005 10.7932290299999991  0.6108614100000000
 15.4612053899999999 13.2023182000000006  1.6553220700000000
 15.2696688300000005 16.2275288999999994  4.3459534199999998
 15.0072235099999993 17.5191970899999987  6.7518778199999998
 15.1863998299999992 19.7261535099999996  8.8527018000000002
 15.6750872999999995 22.1807270900000013 10.7503384200000003
 17.8654991999999986  1.5142154400000001 15.7182756799999996
 17.6548040099999994  4.2603375999999997 17.7694281899999993
 17.2822015600000007  6.3665074400000004 20.0120055000000008
 17.3693099599999989  8.3102333300000009  0.0430631500000000
 17.9003352800000002 10.7640998299999993  2.1487122799999998
 17.3219689700000004 13.2565509600000002  3.9129845799999998
 17.5093322799999989 15.6360495999999998  6.5434446099999999
 17.8096410700000014 17.4232779999999998  8.7629792500000008
 17.9208272599999994 20.0368332400000000 10.8389785500000002
 18.0547786099999996 21.6498225099999999 13.4193358800000002
 19.9824156500000001  2.0243662699999998 18.1003381300000008
 19.2415856699999992  4.5418016100000003 19.6841734300000013
 19.6362985499999994  6.9487470199999999  0.4948969600000000
 20.1465011099999991  9.0016634500000006  1.5943116399999999
 19.5825577700000011 10.7287461900000007  4.4150825899999999
 19.9408102999999990 13.5443571699999996  6.2889532900000003
 20.3864427399999997 15.4823197199999996  8.8091657399999992
 20.4522879800000013 18.1678834599999988 10.6281193900000002
 20.0170119699999987 19.8534402999999990 12.6104003000000002
 19.9478328699999992 21.1853265399999984 15.7448633600000001
 21.8751899499999993  2.4821163899999998 20.0507209700000004
 21.7620593699999993  4.4490757600000004 21.9456282499999986
 22.2825180500000002  6.4079930999999997  1.6050639300000000
 22.0777162199999992  8.9932173100000004  4.6261737800000002
 22.1516171399999990 11.4095490000000002  7.2095177200000000
 22.2171903999999998 13.3072176700000000  8.2664828299999993
 22.4574823200000004 15.7644341099999998 10.5327378700000001
 22.0909432800000012 17.9745397800000006 13.3690020000000001
 21.7126765299999995 19.7450709700000004 15.9259827499999993
 22.2050551300000016 21.9336976800000016 17.8599754900000001
  4.1090668600000004  4.5056498500000002 -0.0793536400000000
  4.4499098500000001  7.2460639100000002  2.2024502500000001
  4.5817653900000002  8.8207054800000009  4.7652593999999997
  4.5525023800000000 11.4076715400000008  6.8799620900000003
  4.7976029300000000 13.0101693199999993  9.2674065199999998
  4.3672942499999996 15.9777433700000007 11.7943268200000002
  4.0281304699999998 18.1874119900000011 13.4754528800000006
  4.1973972699999997 20.0258354899999986 15.6794110999999994
  4.1896348000000003  0.5294069400000000 17.9868135100000011
  3.9977927400000000  2.1395138000000000 20.0523751799999985
  6.5787122800000004  4.8552793400000001  1.9988425599999999
  6.6267086300000004  6.8318833500000000  4.7134803400000003
  6.7863897099999999  9.1147797199999996  7.1313959799999997
  6.8203301800000000 10.8266260899999995  9.3308222799999996
  6.5129261500000002 13.2015250700000006 11.4522895800000004
  7.0026156100000003 15.7196005599999999 13.7923974600000001
  6.3699406999999999 17.4826579399999993 15.6821215200000008
  6.4715554900000001 19.7680757800000002 17.7365536000000006
  6.4117236100000001  0.1273346100000000 20.0980703699999985
  6.9098483300000000  2.5281675500000000 21.9000014800000002
  8.7833775900000006  4.1419119599999998  4.3987771799999997
  9.2578781800000005  7.0625862699999997  6.3891522700000003
  9.7619575399999992  9.0450576599999994  8.9948689799999997
  9.2361147799999994 11.4979149799999991 10.9152354999999996
  9.4949243200000009 12.9646100400000002 13.4904507400000000
  8.8152258400000001 15.2538678700000006 14.9564653300000003
  8.4780686900000006 18.1639060199999989 17.4198067999999999
  9.1818268599999993 19.8076451400000018 19.8618568300000007
  8.6086748199999992 -0.1944361500000000 -0.5780969900000000
  8.7833538299999994  2.0385276900000000  2.0306599099999998
 10.6685132399999993  4.0982518700000004  6.8216447400000000
 11.5448039900000001  6.0596050699999999  9.4271807800000005
 10.8563633900000003  8.6192226800000000 10.5933547600000004
 10.7973556399999993 10.3617736199999992 12.8832188199999997
 11.1632826900000008 12.9599054700000007 14.8462777700000004
 10.8219313600000007 15.5958879199999991 17.6104341300000016
 11.0206382699999992 17.3447259000000003 19.2399890099999986
 11.1163279799999994 20.1999617399999991 -0.1812436300000000
 10.7698207999999997 -0.0852069300000000  1.8150029400000001
 10.2006302000000009  1.5009147500000000  4.1007180600000002
 13.2327055500000004  3.6882160200000000  8.9976365699999992
 13.3874253099999994  6.4621883000000002 11.0480957699999998
 13.3008162199999997  8.6223949399999995 13.3275161600000001
 12.8202760399999995 10.6092741499999992 14.9342071500000007
 13.1913959700000003 12.8215833499999992 17.3519535100000013
 13.1809812599999994 15.8278457899999996 19.4984258799999992
 13.3413550799999996 17.4739085400000000 -0.0686213400000000
 13.2197385700000005 19.6429072600000012  2.1919558200000000
 13.0315859500000002 -0.4016137600000000  4.2505017699999996
 12.9553684899999997  1.9170023100000000  6.7305232300000002
 15.3826556199999995  3.7310751400000002 10.9567740499999999
 15.6117679599999999  6.4372397899999996 13.7811592600000008
 15.2843545600000006  8.9722934500000004 15.7781438200000004
 15.3332724200000001 10.9569697399999999 17.3848260799999998
 14.8659188400000009 13.1665313200000007 19.7769864200000001
 15.3921772800000003 15.2171383799999997 -0.2063626000000000
 14.3662035899999996 17.4832215600000005  2.1926101600000001
 15.3790250900000007 19.3066365799999993  5.0795556199999998
 14.8504817800000009 -0.4770310000000000  6.9688511399999999
 15.1480144699999997  2.1118012500000001  8.2928743899999997
 17.4618745400000002  4.0379935400000004 13.7482609199999999
 17.8854526199999988  6.6377010500000004 15.4337115600000008
 17.6217148100000003  8.7433165899999992 17.8587565200000000
 17.7279388500000010 11.1388244400000005 20.8230976000000005
 17.5390759799999998 13.3768008399999996  0.2893216700000000
 17.5988002600000009 15.9157868199999992  2.0132087500000000
 17.3216477500000003 17.4570163600000008  4.5034428699999998
 17.3959645800000011 19.3458657299999999  6.7473706399999998
 17.9250621800000012 -0.4602971200000000  8.3219651900000002
 17.9320018099999992  2.0240867699999998 11.1550869200000005
 19.8805077399999988  3.9680323700000000 15.5515882600000008
 19.2920090399999999  6.7932212300000003 17.9987582000000010
 19.5231890099999994  8.4351014400000004 19.7419085000000010
 19.9146516799999986 10.7362910399999993 -0.4319633600000000
 20.1192908400000015 13.0123730399999999  1.9850861300000000
 20.4202522199999983 15.3396517899999996  4.5630382699999998
 19.6355916000000015 17.7184608200000007  6.5338061200000004
 19.9125644599999987 19.8477253599999983  8.2424793300000001
 19.8646965100000017  0.3198790800000000 10.3048132999999993
 20.1600130399999991  2.0335598799999999 13.0546483900000005
 -0.5689775500000001  4.8732695499999998 17.7408938099999993
 -0.3160318600000000  7.0892227700000001 19.8238260199999985
 -0.1835136800000000  8.6828164599999997 -0.3642152700000000
  0.1275621800000000 10.9698147000000006  2.1991674099999998
 -0.4867999700000000 13.0950355399999996  4.5182946299999998
  0.1843112800000000 15.5805396399999996  6.7619732700000004
  0.4091121100000000 17.2297382399999996  8.6912537699999994
 -0.2825479100000000 20.4171641100000016 10.3575889300000004
 -0.2646811900000000  0.4305477700000000 13.5449392199999998
  0.3926140100000000  2.9059119299999998 15.6198411999999998
  1.7547965699999999  5.4751405200000001 20.5284411700000007
  1.8771669300000000  7.4156132000000001 22.1047664899999994
  2.2024588399999998  9.1771235400000002  1.7233379200000001
  2.4780090600000002 11.2457224599999996  4.6716386400000003
  2.3442787799999998 13.1565523399999993  6.6757702500000002
  2.4504869299999998 15.6320686599999998  8.9489121699999998
  2.0649534100000002 18.2505028799999991 11.2190481099999992
  1.4765401600000001 20.3564021000000004 13.0091027399999994
  1.8640714899999999  0.0943384700000000 15.6984518200000007
  2.1586156999999999  2.7576746299999999 17.9022944099999997
  6.3085913600000003  6.7086259200000002 -0.0263210200000000
  7.1814686300000004  9.0667161400000005  2.3667362900000000
  6.7421554400000003 11.4196375400000001  4.9189185599999998
  7.1194256700000000 13.6908677399999998  6.6461742700000004
  6.5755498399999999 15.7968667400000005  8.9159886499999992
  6.4787383800000002 17.8005746900000013 11.2966076999999991
  6.4974188499999999 20.0525609399999993 13.6023400300000006
  6.5832644199999999  0.5088931000000000 15.9173136900000003
  6.2437910499999996  2.6536890000000000 18.1874098699999998
  6.2279829600000003  5.1792042399999998 20.3009391800000003
  8.9591997499999998  6.7617778199999998  2.6909147800000000
  9.6127910300000003  9.1201863099999994  4.3916760400000001
  9.1141031899999998 10.7730127499999995  6.7560682999999999
  8.6244401800000006 13.9278745100000005  9.1179926899999995
  9.1030467700000006 15.3681916600000008 11.5845213900000008
  8.8901798700000008 17.8496154099999984 13.6666351800000001
  8.6800962199999994 20.3721429699999987 15.7311554499999993
  8.3371194200000005  0.5107490200000000 18.1862825800000003
  8.8539812599999994  3.1081480400000001 19.8280593799999991
  8.7318264200000009  4.4437841200000001 22.5234337599999996
 11.4922996600000005  6.2242735800000002  4.0092490999999999
 11.5529232900000007  8.3677061199999994  6.6239571200000000
 11.7183069399999997 11.5748391700000006  8.6499269900000009
 11.2733944699999995 12.8640230399999993 10.9671495500000002
 11.4584897399999992 15.8899627100000007 12.8762867199999995
 10.9684849300000007 17.4692376500000002 15.1922654999999995
 10.8162607099999999 20.0474259400000001 17.8163751099999992
 10.6450213700000003  0.3691107500000000 19.6241560600000007
 11.0978854400000007  2.4689283700000000 -0.1092261200000000
 11.2809319400000003  3.5123425199999998  2.1048872699999999
 13.5737229999999993  6.1961018799999996  6.9005381999999997
 13.5751490100000005  8.5396034400000005  8.8041174600000005
 13.0756214600000007 10.6875223500000001 11.1563327099999992
 13.3070099099999997 13.4117330100000007 13.3163888400000001
 13.5682944600000006 15.6926623500000009 15.4170663999999995
 12.3655215300000005 18.2355865100000010 17.3598077199999992
 12.7270219000000004 19.5414463100000013 19.8248265799999999
 13.5041766499999998  0.0450625600000000 -0.2768919300000000
 13.3368430799999995  1.6036492800000000  2.2279703000000000
 13.2508614399999995  3.9082931200000002  4.6235881000000001
 15.4313495700000001  6.0754195900000001  9.2144180999999996
 15.5261872499999996  8.5559310199999992 11.1232595300000003
 15.0635762799999995 10.8341698100000006 13.3780718299999997
 15.5100151700000009 13.2250301500000003 15.1426325599999991
 15.0697535600000005 15.9293124699999993 17.4466015200000015
 14.7707773000000007 17.6533225899999984 19.4847841300000013
 15.7043567500000005 19.1797545900000017 -0.3846226300000000
 15.6992529699999999 -0.2052320200000000  2.5654703099999998
 15.9320324800000002  1.4847060999999999  4.4495563599999999
 15.5695604799999998  4.6564661799999998  6.5838498100000002
 17.9350080200000015  5.9379841500000001 11.2892685499999992
 17.8186090800000017  9.4230630499999997 13.3609039299999992
 17.3985287299999989 11.2418302400000005 15.2045686999999994
 17.4944552999999985 13.6447062199999998 17.5619316099999985
 17.8785552900000013 15.3127220600000005 20.1456032200000017
 17.8855451999999993 17.0644048599999998 -0.4519373900000000
 17.2655175700000001 19.4266179799999996  2.1972786800000002
 17.3688150800000010  0.0966624400000000  4.4953921699999997
 17.9254740999999989  2.0607783199999998  6.3455606099999997
 17.3227912000000011  4.8346972600000004  8.9867161099999997
 19.6205561300000006  6.9225113199999999 13.7229955399999994
 19.6466974000000008  9.1884472899999992 15.2936173699999998
 19.4786744799999987 11.4984212299999999 17.6837219300000008
 19.1147143600000007 13.2005141899999998 19.6349439299999986
 20.0823771300000011 15.6060551600000004  0.1895874000000000
 19.9001273999999988 17.4470904900000008  2.4714313200000002
 19.5383885399999997 19.9345313799999992  4.4677591300000001
 20.1002666900000015  0.0182431300000000  6.5910113900000002
 19.5214857100000003  2.6645500900000001  7.8663754199999998
 19.4092905199999990  4.4683710000000003 10.6654381600000008
 -0.3491141400000000  6.8954716400000002 15.9861424099999994
 -0.7644322500000000  9.4079756200000002 17.2165993800000017
 -0.7397673100000000 10.9641263900000006 19.5379394499999997
 -0.1058963300000000 12.7555803300000008 -0.5091931100000000
 -0.1487602000000000 14.8605685800000007  2.0930148399999999
 -0.0099195000000000 16.9832159699999998  4.3295706599999999
 -0.4814337700000000 19.8268267700000003  5.9697490000000002
 -0.3558956100000000  0.0109865000000000  8.7156947400000000
 -0.1777705000000000  2.7536197400000000 11.2520219800000003
 -0.2494212800000000  4.7213222300000002 13.6037099700000006
  1.9617252700000001  7.0953898400000002 17.7133437799999989
  2.0408679799999998  9.3396045900000004 19.7154924499999993
  2.5091004099999998 10.6013988799999996 -0.0613097700000000
  2.8626873200000000 13.4212291199999996  1.7378091499999999
  2.3158629700000000 15.1365045899999995  4.4541808700000001
  2.2473216699999998 17.9925411599999983  6.1126241099999996
  2.1738916900000000 20.2202052600000002  8.1191868500000002
  2.0630031299999998  0.3778179200000000 11.6302200800000008
  1.6142038700000001  2.5482621100000000 13.6088787700000005
  2.2356102299999998  5.1952122400000000 15.6804479299999997
  4.1669926500000001  6.8367344200000000 19.9489482799999998
  4.0595498200000000  9.0839924599999993 21.9056073799999993
  4.1700800200000003 10.6862208499999998  2.5539474200000001
  4.7737830900000002 13.5446183700000002  4.2553283200000003
  4.8184056799999997 15.4413772300000005  6.4877742899999999
  5.0050366300000002 17.7146009699999993  8.5181364700000000
  4.0996762000000002 20.3624474500000012 10.9131536400000009
  5.0289902399999997  0.4482424000000000 13.6275859199999996
  4.1721562099999998  2.1608248099999998 15.3379904899999993
  3.6141415000000001  5.1927333000000004 18.0599909099999998
  8.8970699599999996  8.9100506799999994  0.0172779400000000
  8.8704489300000002 11.4096313600000006  2.1631209400000002
  9.5170884200000003 13.4039846800000007  4.1885332399999999
  9.0786376799999999 15.9031259899999995  6.9897359000000003
  8.6322629400000004 18.0190947299999991  9.2351388799999992
  9.0012792600000004 20.1480597000000010 11.3268713000000005
  8.4460169999999994  0.3204940000000000 13.7673289699999994
  8.9056097300000001  2.1556607699999999 15.8465725099999997
  9.1933425000000000  4.6080455999999996 17.9026048200000005
  8.8719249900000001  6.4148531899999996 19.6345233000000015
 11.0514541099999999  8.9457263499999993  2.6548030699999998
 11.6317279500000001 11.1280138300000004  4.7918456500000000
 10.8876792400000006 13.9588663600000000  6.6543073100000001
 10.6705823100000003 16.3786280300000016  9.1177609400000001
 10.4261700499999996 17.6717472800000017 11.4761508299999999
 10.9407227999999996 20.1060855799999985 13.2618045299999991
 11.3552104000000007  0.5563389700000000 16.0399765499999987
 11.2352902399999994  2.9360849500000001 17.6637893800000008
 11.7892660100000004  4.9856385200000002 20.4321221599999987
 11.2346391699999995  7.4761642999999998 22.4396888600000004
 13.5466450100000007  8.7328275499999997  4.9064814400000003
 13.3005881000000006 10.9646701199999992  6.7167477900000003
 12.8547405599999998 13.9578843100000007  9.1908851899999995
 13.2750336000000004 15.7099122900000001 10.8867324799999992
 12.9886340699999998 17.7576651299999995 13.2292307999999998
 13.2376151699999998 19.8362434199999988 14.9347236900000002
 12.6069175199999997  0.1030790700000000 17.9863432199999984
 13.5129700800000006  2.3248670300000001 19.7829008399999999
 13.4254699399999993  4.4503859700000001 -0.0852276300000000
 13.2063301699999993  6.6483847000000003  2.1540203999999998
 15.7081841400000002  9.2539493200000003  6.5757067999999999
 15.4197030900000005 11.4848711399999992  9.1697307099999996
 15.6228200099999999 13.5188572100000002 10.9542683499999995
 15.5488535799999994 15.8982999300000003 12.8408615200000007
 15.2311427599999991 17.9725643200000000 15.3333364299999992
 15.0064348200000008 19.6703086700000007 17.5893701900000003
 15.2531841200000002  0.0629615000000000 19.7300821900000010
 15.7305661600000004  2.3613461800000000  0.3241160400000000
 15.1261878599999999  4.1412862800000001  1.9509646599999999
 15.2938009699999995  6.6955875999999996  3.8596469600000001
 17.4080860400000006  8.5388598000000009  8.7962841300000001
 17.5990199499999989 11.0845524199999996 10.7628840500000003
 17.6709032300000004 13.4782105500000000 13.0955954000000006
 17.8623302799999983 15.3660678900000001 15.1596813499999996
 17.4717470599999984 17.3544288199999990 18.2782577099999983
 17.4316763100000003 19.4054925999999988 20.0665000700000000
 17.3394493400000016 -0.1419431500000000 -0.1710968100000000
 17.6306634699999982  1.6665817199999999  1.9376280400000001
 17.1822575399999984  4.0751841200000003  3.8740021499999999
 17.1540108599999996  7.3079342799999996  6.2487366000000000
 19.6168341099999992  8.4567811899999992 11.4947833900000003
 19.9023377799999999 11.2317024799999992 13.1140819700000009
 19.8040081599999986 13.7643036100000007 15.1181769900000003
 19.9748494600000015 15.8434194200000000 17.6496625000000016
 20.2667663599999983 17.1327011999999996 20.1618567700000000
 19.5923267099999983 19.6187287999999995  0.0112135200000000
 19.3140010599999989 -0.9764754300000000  2.1820950799999999
 20.0792341299999997  1.6624102100000000  4.0245325799999998
 19.5673183799999997  5.1734062999999999  6.0085425800000003
 19.8086666899999990  6.8133697599999996  8.1824106800000003
 -0.6398568200000000  8.9690192900000003 12.9336717300000004
  0.6072269600000000 11.6866475699999999 15.5892650199999991
 -0.3752945000000000 13.5692392399999999 17.6106397799999996
  0.0047043300000000 15.2028069899999991 20.0707675600000002
  0.3452913200000000 17.2716212200000001  0.2552236600000000
  0.1884805600000000 19.8322317900000016  2.1844500199999999
 -0.0816196300000000  0.4357515500000000  4.4142793500000002
 -0.1983361400000000  2.7569010500000002  6.0046205700000002
 -0.1914534500000000  4.8409216300000004  8.8380899999999993
 -0.0392356200000000  6.7600771699999997 11.0874971099999993
  2.0809735900000002  8.7700846600000002 15.1467859600000008
  2.4852072100000000 10.8084741399999995 17.7546048200000008
  2.0684719700000000 12.5248393900000003 19.4200687899999984
  1.9997867899999999 14.9939112100000003 -0.0723225000000000
  2.5685049800000002 17.5943356400000006  2.5404585300000000
  2.1897113300000002 19.5849506099999999  4.0386019099999997
  1.6912627700000000  0.1454372700000000  5.8533408900000001
  1.9584496400000000  2.9633565800000001  9.5326291500000000
  2.0592242500000002  4.5091683800000002 11.5064950199999991
  2.1877301199999999  6.9357496100000002 13.2668598899999992
  4.8290073700000002  8.8236274100000003 17.6357899399999987
  5.4218017100000004 10.5609783900000007 19.5970244899999990
  4.9050623199999999 12.6424105900000008 -0.2767429600000000
  4.5069032900000003 15.1773065299999992  1.6666073200000000
  4.4682875400000004 17.4174117300000013  4.5800508200000003
  4.1763488999999998 19.9203544100000016  6.7837070600000002
  3.8474815000000002  0.0719785500000000  8.9905484999999992