Li                                      
   1.00000000000000     
    21.0527999999999977    0.0000000000000000    0.0000000000000000
     0.0000000000000000   21.0527999999999977    0.0000000000000000
     0.0000000000000000    0.0000000000000000   21.0527999999999977
   Li
   432
Direct
  0.0219296801375606  0.9906700833143347  0.9948517698358401
  0.9517685096519202  0.0758891947864413  0.0620420105639141
  0.8499897220322268  0.1570373413512698  0.1322130623955005
  0.7505560704514380  0.2607987882846956  0.2500714840781271
  0.6885153172024658  0.3680550083599314  0.3416951037391698
  0.5884608660130723  0.4284954314865459  0.4234484196876451
  0.5079360579115360  0.5182930959302325  0.5233515850623220
  0.4270125018999877  0.6170594519493875  0.6063620316537452
  0.3494241032071770  0.6783759666172671  0.6659088069045467
  0.2513076787885709  0.7565001016491877  0.7466958347583201
  0.1876052805327575  0.8186185006269966  0.8547153746769993
  0.0843262079153391  0.9007681524547806  0.8949931021051825
  0.0743230078659352  0.8876168248403999  0.0968355240158090
  0.0031416072921431  0.9934286346709200  0.1789967196762419
  0.8991709292825689  0.0846104921910609  0.2069420808633566
  0.8467074669402663  0.1648092073263427  0.2907044668642627
  0.7704700282147741  0.2602368354803133  0.4055455678104565
  0.6893528390522903  0.3395076911384720  0.5073144227846171
  0.6120962465800304  0.4104316504217991  0.6120569567943477
  0.4985263546891616  0.4883431524547817  0.6890163412942698
  0.4304936996504054  0.5764880448206426  0.7674322550919612
  0.3456283211734288  0.6627407703488402  0.8447920974882166
  0.2708889259385927  0.7481248746010039  0.9189006692696466
  0.2025673634860894  0.8339350874942966  0.9883885483166139
  0.1688695836183314  0.8473584834321315  0.1666991454818358
  0.0952928973818175  0.9160004037467715  0.2477529958010365
  0.0015639354385186  0.9956120915032685  0.3171789600433215
  0.8852315335727283  0.0672794074897425  0.4140875256497978
  0.8368774899300817  0.1556584326075381  0.5051470569235477
  0.7434839332535361  0.2467088040545704  0.5909650697294424
  0.6872894213596297  0.3193754327215359  0.6882195337437267
  0.6329876068741456  0.3960041970664250  0.7399134248176011
  0.4947344319995466  0.4632983275383822  0.8418235317867442
  0.4064591807265572  0.5617151167540655  0.9141561535757745
  0.3191131887444882  0.6492376372738988  0.9874305365557063
  0.2361087347051196  0.7419245696534418  0.0973169963140279
  0.2306659636722941  0.7401425074099421  0.2500998028765764
  0.1593786085461346  0.8192789923430581  0.3491570104689146
  0.0752144987840069  0.9032011238410078  0.4171229470664244
  0.0128059721272251  0.0124729375664998  0.4881485930612541
  0.9170721875474968  0.0684627037733705  0.5870387064903468
  0.8439638143144848  0.1421413963938321  0.6627934137026870
  0.7487958262083936  0.2321251980734189  0.7336440207478319
  0.6750436431258535  0.3123594984990135  0.8355412980696144
  0.5990009955920357  0.4000354133416906  0.9104219785491736
  0.4726273892308868  0.4682748997757997  0.0050098414462667
  0.4065779103017206  0.5735023241564079  0.0894588168794641
  0.3467775911042708  0.6838988163094726  0.1785374871751060
  0.3488022643068831  0.6795981741146093  0.3147442805707570
  0.2524834250075969  0.7256946068931427  0.4434878562471525
  0.1432280133758965  0.8257521313079508  0.4923257352941164
  0.0744573377413005  0.9135637169402671  0.5380714688782504
  0.0081935153518771  0.9866565349977208  0.6368449583903342
  0.9054845911232690  0.0607261371409038  0.7235504274965834
  0.8539859947370445  0.1465782736738106  0.8571168072655411
  0.7407375403746741  0.2197831172100635  0.8840452761627873
  0.6775650512045885  0.3091148830559334  0.9791062020253847
  0.5638551608337110  0.4033160102219213  0.0612824531653757
  0.4811859990120055  0.4777617091313289  0.1408509238676103
  0.4059126272989815  0.5821857795637655  0.2437417901656787
  0.4427481674646572  0.5771093227504167  0.4043364664082674
  0.3624166956414356  0.6368463829039399  0.5083969704742373
  0.2824175097849206  0.7343415588425302  0.5734619447294449
  0.1729021878324986  0.8228700728644185  0.6561883492932026
  0.1050600979442180  0.9084385943912423  0.7441564433234547
  0.9983465738524089  0.9929045784883712  0.7944564162486714
  0.9326617837057327  0.0721411351459196  0.9141024053807598
  0.8094561165260643  0.1617679391814875  0.0043776718536250
  0.7470656919744627  0.2574136708656312  0.0674079286365696
  0.6594160439466492  0.3344734296625660  0.1552522856817120
  0.5895882590439285  0.4258508017935867  0.2413116412068703
  0.5161756041951691  0.5208283325733376  0.3284058894778852
  0.0756626220740202  0.0967664272685838  0.9104771598077193
  0.0076420903632766  0.1605603919668610  0.9624306586297280
  0.9288104313915468  0.2570680607805116  0.0508920157888753
  0.8154298991108107  0.3134024258055916  0.1504589142536830
  0.7588424271355834  0.4051075291647663  0.2665154554263580
  0.6624595265237900  0.5002045357387175  0.3433497330521362
  0.5908450187148517  0.5962216470018262  0.4188812628248968
  0.4988341166020689  0.7039462888546879  0.5142111761855901
  0.4461138029145744  0.7679295471386212  0.5819573230164181
  0.3539186991754093  0.8443088430042565  0.6825633972678204
  0.2528195256687980  0.9141418656900768  0.7502280941252479
  0.1592587290051668  0.9958606080901333  0.8231515798373579
  0.1770226848685184  0.9842037947446443  0.9821286161460705
  0.0950451802135603  0.0652718878248990  0.0665457264591893
  0.0299500237498123  0.1771834786821671  0.1157428304073562
  0.9232560590515249  0.2488605943152464  0.2431523151314821
  0.8619429387064912  0.3207922195622430  0.3381973685210511
  0.7743201882884918  0.4179885288417680  0.4408841593517252
  0.6828553669820607  0.5030659631972938  0.5164877094733242
  0.5881010592415237  0.5837633587931279  0.5819365889572907
  0.5161289324935368  0.6616505790203675  0.6725443537201699
  0.4183195085689349  0.7515573562661473  0.7534823681410572
  0.3526989668832670  0.8449483812129515  0.8441375650744760
  0.2541200082649340  0.9342590752773958  0.9223187015503882
  0.2896355786403717  0.9264140437376511  0.0737402193532475
  0.1886648393562851  0.9886519674342580  0.1549363885088937
  0.1122955160358714  0.1013694297195613  0.2350462366051076
  0.9893648521811826  0.1468171815625468  0.3303755239208073
  0.9450450586145323  0.2513142926356622  0.4024906026751793
  0.8445667193912456  0.3065986875854989  0.5252305712304306
  0.7775339080787376  0.4259066152720763  0.6248912795447623
  0.6825851848685218  0.4904381502697959  0.6937050748594018
  0.5753474255205973  0.5720460793813658  0.7807122596519207
  0.4979204865861107  0.6836624406254757  0.8433923758359967
  0.4099002944976462  0.7552940017479841  0.9222053513071913
  0.3571818893448864  0.8312475699194408  0.9921969030247766
  0.2894005970702267  0.8438406572997437  0.1677657076493375
  0.2439844984990103  0.9187301579837381  0.2590798430612580
  0.1608110455616369  0.0074848604461195  0.3428105430156592
  0.0852951602637191  0.0906022581319377  0.4281782190492507
  0.9878320764933903  0.1707918718650276  0.5155061521507847
  0.9370782850737172  0.2518623252014009  0.5946803769569868
  0.8294322113923087  0.3211702438630510  0.6791758293433645
  0.7622308282033714  0.4124522985066150  0.7513567387710864
  0.6584817563459495  0.5018452861377085  0.8610384936920497
  0.5377273607311110  0.5487649210556285  0.9092223015465848
  0.4852918186654520  0.6719798269113824  0.0066830231608179
  0.4264540859173138  0.7541298430612571  0.0997994670542610
  0.4107171592377270  0.7550396465078251  0.2348403447522429
  0.3205077785377739  0.8123356019151871  0.3258410743464069
  0.2528759252925994  0.9082351981684127  0.4015409361225082
  0.1955591508017918  0.9972570826683409  0.4778446676926578
  0.0990189385734936  0.0848908696230453  0.5649872933766531
  0.0168936317259494  0.1344148555061579  0.6557747468270279
  0.9287712109553112  0.2372893249354036  0.7429127061483527
  0.8405267584359351  0.3068692349711171  0.8038322455920337
  0.7597737274851823  0.4018168808899532  0.8865687775497761
  0.6563726316689440  0.4568282294991661  0.9742935961012336
  0.5745825719144264  0.5547365186578475  0.0791946624676996
  0.5076139078887394  0.6686403979518190  0.1592969799741581
  0.5219718241754094  0.6788803845569262  0.3179187153252769
  0.4120789524433803  0.7700400778043743  0.4062138318893460
  0.3504353587171281  0.8307007766187837  0.4839954476364170
  0.2712043880148940  0.8986370064789497  0.5832052045333640
  0.1756088501292012  0.9690489939580473  0.6374963102295155
  0.0832127351231193  0.0770215301527557  0.7253913379692989
  0.9768810908762759  0.1319387150402775  0.8106371095531202
  0.9258970288987669  0.2457295827633388  0.8904935305517583
  0.8282326308139503  0.3224021446078424  0.9822515902872766
  0.7380233607881124  0.3994950595645221  0.0623251619737033
  0.6828571182930503  0.4754634780171756  0.1505912980696138
  0.5765274799551605  0.5668462893296820  0.2214270937832481
  0.1495181633796960  0.1481943185704537  0.7967542488410118
  0.0790798691860459  0.2307626980734128  0.9022680674304624
  0.0039895581585370  0.3422617827557346  0.9759452410130720
  0.9153180427306609  0.4040593075505399  0.0994788370193049
  0.8176874154506777  0.5197227827177358  0.1358909745972028
  0.7550327110883117  0.5570707506839980  0.2631830730354139
  0.6691740599825238  0.6346249757751963  0.3125026718536219
  0.6051443969448229  0.7419271498328044  0.3976057750037967
  0.5271350076949375  0.8278620112289090  0.4967437433500521
  0.4389303327823342  0.9212006721196246  0.5713886228910141
  0.3309519104347132  0.9907731403898765  0.6513341037771667
  0.2643510791913641  0.0846989640332865  0.7151318290203648
  0.2481503966218241  0.0625221105981169  0.9041869589793308
  0.1874468973248185  0.1784120259537900  0.9719388086145315
  0.0810804368065021  0.2612052900326773  0.0630247473020233
  0.9881857529639788  0.3231809175026612  0.1810069439694502
  0.8911214646032803  0.4213325619395079  0.2296124985750083
  0.8539288678940551  0.4926225936692532  0.3567290645424848
  0.7459706096101257  0.5741382371941057  0.4411932560039489
  0.6798999425254593  0.6550364958580346  0.5204248641510887
  0.5988689043737665  0.7635968935248485  0.6027150659294733
  0.4951920860883092  0.8443461691556493  0.6712146835575297
  0.4365794293395666  0.9218014430384542  0.7671374045257622
  0.3101350699194398  0.9948662054453550  0.8601706970094227
  0.3404616991564069  0.9834282541989694  0.9953149790051654
  0.2779554425064603  0.1028574370155013  0.0648166965914285
  0.1864187305251548  0.1594665512425877  0.1526172171872631
  0.0797500536745730  0.2347683092035240  0.2490839831281377
  0.0015870658534709  0.3603746304529594  0.3338448472412239
  0.9248739949080402  0.4115522220322205  0.4352590577025381
  0.8239815649224838  0.5052990956072350  0.5161585048069597
  0.7564154364265079  0.5721989037087738  0.6191917493160020
  0.6711070109439135  0.6647762397400854  0.6828984249126009
  0.5754984842871238  0.7638331794345632  0.7680425967092290
  0.4916177472830228  0.8302461587057337  0.8673963639040920
  0.4224919606893138  0.9131940411726731  0.9475283895728808
  0.3999214574783423  0.9332907242742081  0.1018837337551304
  0.3338154136266880  0.0297429572313419  0.1636949075657412
  0.2377856988144060  0.1119993416552703  0.2665034223476184
  0.1575437613999071  0.1882936455008348  0.3349316024471776
  0.0534809977770152  0.2463518838349259  0.4323085789063654
  0.9626705773103836  0.3313158767479862  0.5221283050235570
  0.8882922081623335  0.4391435120269023  0.5907028043775640
  0.8634191860465137  0.5102304857311140  0.6970449066157443
  0.7602780684754507  0.5967630557455550  0.7999452030133725
  0.6420136224160231  0.6748373195014423  0.8674425116849065
  0.5568091090021312  0.7410656796245618  0.9383393714850286
  0.4699044032147768  0.8245837385050905  0.0385571501177964
  0.4893542626158975  0.8480598134214929  0.1725469500494015
  0.4101940264477903  0.9217259357425149  0.2522485484116146
  0.3347563687490478  0.9970101587437270  0.3263194111947101
  0.2366109353625205  0.0682706708846297  0.4155316627716985
  0.1861667155912770  0.1916261418908647  0.5018483246884031
  0.0895870482786165  0.2458552639078917  0.5709407285491750
  0.9936901856285161  0.3370588472792235  0.6510780608755127
  0.9191939466484271  0.4082944938440463  0.7286718678750574
  0.8450792730658137  0.4906844604993168  0.8409241426318559
  0.7603405613505103  0.5838121461278334  0.9346546601877179
  0.6114529996010063  0.6615003776219766  0.9982328383872954
  0.5913485821363409  0.7700654274015832  0.0843589608033142
  0.5965027583029325  0.7373385022419825  0.2420335394816817
  0.5032820802933600  0.8373826631136936  0.3022222331471340
  0.4161689770481871  0.8896792326911367  0.3952767190112496
  0.3448812651998807  0.0018351682436517  0.4820233090135275
  0.2530733664880671  0.0970524158306745  0.5886019436844521
  0.1748776998784010  0.1782742276561819  0.6430094248745988
  0.0617842705008371  0.2280825685894499  0.7279645021089820
  0.0296146498328014  0.3110914324935408  0.8231824023407839
  0.9200885882162950  0.3969182303541601  0.8963232197142403
  0.8372556790545644  0.4524355810153509  0.9634036432208575
  0.7388971913474691  0.5773786066461497  0.0454385492666063
  0.6717368364303056  0.6410490509575908  0.1377053807569553
  0.2423160301717573  0.2470486296359624  0.7331637563649522
  0.1451462271051867  0.3462229522913844  0.8064231190150508
  0.1058783491982069  0.4221044578393389  0.9022796155380775
  0.0032615438326502  0.4934551413588721  0.9839124805251558
  0.9114518349103236  0.5626233199384387  0.0483055275307791
  0.8023225675444579  0.6394815592225243  0.1567021873575030
  0.7493708870079061  0.7201943237954112  0.2437597716218249
  0.6746315026979772  0.8154031677496576  0.3380784118977047
  0.5724129859211118  0.9186932393790883  0.4078087375551007
  0.4976140651124794  0.9957865903822736  0.5011612764097890
  0.4269561958504298  0.0770241991564049  0.5615940311977496
  0.3551577191632447  0.1872860389116866  0.6631748000266029
  0.3337160857463175  0.1619058552781567  0.8135488524091841
  0.2407394536593728  0.2482585090819285  0.8517829614113097
  0.1677404212266325  0.3182737992096065  0.9736946372929012
  0.1170138722640246  0.3898149851801165  0.0745825548145618
  0.9955583618331048  0.4856108384632947  0.1374671473628197
  0.9121267522609813  0.5979281074251404  0.2785707069843468
  0.8229965515275879  0.6588720151238761  0.3458458794079675
  0.7291869219296245  0.7369912329951376  0.3903010141168863
  0.6552134352675196  0.7977691941214502  0.5054862441100454
  0.6138512511399909  0.8953956870345010  0.5833112303351555
  0.5066666709416339  0.9928080112859092  0.6636233223134198
  0.4292608631630941  0.0756414609933103  0.7373465700524378
  0.4227608888128884  0.1054739364835058  0.8956367480810172
  0.3313003125474978  0.2128194867191056  0.9579282361491082
  0.2446649794801630  0.2700936512007885  0.0782676936084528
  0.1659158852979203  0.3141043937148496  0.1784834867571092
  0.0836879901960756  0.4186746884024899  0.2249721998974010
  0.9953201735636128  0.4937414999429990  0.3302913132694911
  0.9117894527093782  0.5981754559963548  0.4350112493350053
  0.8110915797423601  0.6808806249050008  0.5310775393296865
  0.7776433652530770  0.7389712864797104  0.5852232064143479
  0.6940011010411951  0.8006822593669227  0.6852657565739477
  0.5899415802173564  0.9131103990918064  0.7582983598381219
  0.5072811683006506  0.0049155627755013  0.8631465154278786
  0.4924943399452815  0.0158420803883601  0.0375160657964742
  0.4354551347089242  0.1029919825391374  0.0857711891054862
  0.3404945080939328  0.2041752778727783  0.1608918115405089
  0.2587836686806497  0.2501968792749665  0.2956744651542778
  0.1170002878476950  0.3359416277169771  0.3417774134556950
  0.0545904411764724  0.4174719433994554  0.4647378628970955
  0.9845619404544763  0.5158353900668828  0.5122353126424954
  0.9068608023635818  0.6255055626805017  0.5957567430460529
  0.8476917849407215  0.6784429425064573  0.6884985731114170
  0.7571922043623687  0.7356888713140322  0.7669766605867139
  0.6536198092415262  0.8397675886342881  0.8679918652150818
  0.5760996176280599  0.9037994556543580  0.9326236605107141
  0.5822285581965332  0.9218307902036784  0.0811506113201119
  0.4781782522989815  0.9944441670466659  0.1944118240804045
  0.4307991065321488  0.0971368559051555  0.2165039282185717
  0.3545041566917462  0.1564324479404178  0.3523319658192747
  0.2530500180498549  0.2600014273635836  0.4349352565929507
  0.1353256488448125  0.3302871190530468  0.5238408753229962
  0.0386632348191185  0.4586072926166622  0.5913594367495065
  0.9852309840021292  0.5255782898236845  0.6561030480506176
  0.9183429163816683  0.5815704804111590  0.7557817373460978
  0.8410812409750719  0.6854928655570731  0.8639481636646877
  0.7572622387520909  0.7369428104575135  0.9366072750418013
  0.6643555588805299  0.8179807712038283  0.0170496114531105
  0.6658850684944539  0.8422677525079791  0.1856498190264446
  0.5879210732064166  0.9237942648958821  0.2883922718118228
  0.4921841769265853  0.0088589171036659  0.3275001766985852
  0.4190475651694783  0.0739683272533824  0.4326354199916409
  0.3466012867647095  0.1699454585613296  0.4994186341009268
  0.2493627940226446  0.2752958399832792  0.5733976188440479
  0.1235083623081010  0.3642424385354914  0.6543113391092845
  0.0639779326265355  0.4236838116545059  0.7334121119281036
  0.9965435087019330  0.5054740495326016  0.8466143448852392
  0.9171407831737355  0.5704716232520113  0.9327463415792678
  0.8314089717282229  0.6701595198738417  0.0220615742324028
  0.7250981194900419  0.7330073358413145  0.0698398322313452
  0.3290614155836735  0.3449478715420256  0.6552104722412224
  0.2424319392194860  0.4332261751405966  0.7397119608793119
  0.1680283838729295  0.5155030699004399  0.8324714693532442
  0.0929326973134224  0.5704032461240303  0.9169377275231767
  0.9993323453412373  0.6540945337437307  0.0026854190416472
  0.9091508920428666  0.7338905024509828  0.0838691565967480
  0.8026514900630772  0.8247038697940425  0.1710634267175877
  0.7571004868711029  0.9556301123840996  0.2686451260639942
  0.6616286156710771  0.0189057170542668  0.3506187784997721
  0.5672437680498561  0.0911302126082987  0.4082972982216120
  0.4977468327253405  0.1745583015085899  0.5164264064637507
  0.4150894137596879  0.2599305337057274  0.5785633226934195
  0.4086910016719898  0.2470403556771572  0.7472088995288004
  0.2942492105563161  0.3371568456452323  0.8026003163474726
  0.2070849269455834  0.4260778875018971  0.9290310471766219
  0.1874908472982213  0.5201219547993645  0.0095980173658603
  0.0749289486434108  0.5816857083143319  0.0617368620801031
  0.9856959478074145  0.6615521892574847  0.1579791552667587
  0.8996140218878281  0.7482985807113565  0.2260255562205487
  0.8529814309735499  0.8458580264857858  0.3219254878210975
  0.7462498242514073  0.8783091023521834  0.4108401234040144
  0.6572018458352318  0.0046016814865482  0.4846173017365842
  0.5712931277549771  0.0916996190530455  0.5734783586981322
  0.4994534456224358  0.1666851060191519  0.6567673245364034
  0.4897294678142572  0.1742552282831724  0.8081593080255374
  0.3946122002774004  0.2665213116545075  0.9045378771469856
  0.3027964432284520  0.3204944202196387  0.9953404245516069
  0.2153577547879593  0.4120476079191349  0.0997306709796320
  0.1617593208504360  0.5291626230240141  0.1640649524053828
  0.0779881402948774  0.5894377142232869  0.2548115063079521
  0.0044327927876608  0.6512400626045007  0.3301578863619099
  0.9018986168110672  0.7282152388280920  0.3963972511969871
  0.8330337375550982  0.8076518206604320  0.4866189129236957
  0.7440920404886739  0.8982490058329518  0.5576893738600077
  0.6630826992134047  0.9832405357007161  0.6500446040431669
  0.5971364364835097  0.0685411185210540  0.7346874368255030
  0.5576688939238466  0.0861208366583099  0.9098111296359619
  0.4967868274053799  0.1857327552629613  0.0151153590021309
  0.4070855396906836  0.2644942240462100  0.1101518444102467
  0.3167971105981167  0.3479304007067938  0.1699151908534731
  0.2148158211734312  0.4242652635278930  0.2590299105107192
  0.1456886608907126  0.5228357387140932  0.3545003638470874
  0.0805399799551623  0.5862711031311747  0.4252533111985102
  0.9977023431562557  0.6882212513299919  0.5037468422252616
  0.9374742119813035  0.7603191119471049  0.6149180384556914
  0.8317866264819855  0.8242110740614095  0.6524532461240327
  0.7374516164120664  0.9223490789823714  0.7593976748935987
  0.6474141349369233  0.9854803085575341  0.8533084881820940
  0.6382553636570876  0.0252709050577593  0.0406876263489906
  0.5649851672936634  0.1018877688478526  0.1185040298677578
  0.5148561122511026  0.2121203877868965  0.1525382215192295
  0.4040671183880562  0.2607616369319032  0.2504631616697068
  0.3280807232292133  0.3434974977200156  0.3527398398312798
  0.2334057465040260  0.4645368502051994  0.4281636314409454
  0.1812206898844835  0.5242226615937042  0.5048274923050613
  0.0593777079533382  0.6172391890864901  0.5880734956870342
  0.0004288626690965  0.6853118967548255  0.6812877588729265
  0.9205585898312805  0.7727650654544789  0.7605673364113059
  0.8339897296321652  0.8398225205198386  0.8392049361605132
  0.7468580060609540  0.9383332316841475  0.9312621366279075
  0.7262626277739770  0.9363057631288925  0.0731633155684790
  0.6438933201284414  0.9964047190872449  0.1706859975870216
  0.5676881754445944  0.1129964023787835  0.2714685243768074
  0.5151546867875041  0.1853917459910335  0.3189139083637329
  0.4422817568209467  0.2639842353511170  0.3998592795257636
  0.3336765247378040  0.3896425482596158  0.4988543647400832
  0.2189935091769257  0.4395438711240303  0.5832750175748629
  0.1406001866735096  0.5175286327709401  0.6794416623917030
  0.0490733280133782  0.5896757110693116  0.7677522334321338
  0.9986580929852593  0.6694715083029337  0.8652114046587656
  0.9240048615861056  0.7916822299171642  0.9611764810381516
  0.8251155452006387  0.8488570669934674  0.0297381630946987
  0.4129997786517734  0.4246947774167822  0.5777344058747502
  0.3255489678332566  0.5117290498176033  0.6469816651466758
  0.2610107206642311  0.6213800606095177  0.7546773137064875
  0.1856558410282716  0.6633069083447367  0.8239335076569390
  0.0793117409560722  0.7559114697332419  0.9495843408002713
  0.0022161869205064  0.8272411042711667  0.9992041999163987
  0.9135584995820025  0.9027010117419039  0.1064964242286095
  0.8459595379236973  0.9983332164842693  0.1507105002660012
  0.7463724810951504  0.1028576882884948  0.2329260046169637
  0.6761566874714973  0.1510025854043135  0.3482126296739594
  0.5845388822389452  0.2655251942734438  0.4177870772533794
  0.5232323709910318  0.3406226288189700  0.5079058182284513
  0.5114852865177113  0.3244501515237843  0.6704041866165085
  0.4321686649756771  0.3864012881896954  0.7433209929320554
  0.3131986210860305  0.4742579367115098  0.8443678380072939
  0.2676527592529254  0.5836518277853742  0.9068029962760278
  0.1639393952348414  0.6526213102295202  0.9834434863771122
  0.0978513418642635  0.7403072265921864  0.0996444054947574
  0.9859868031805732  0.8703540635924938  0.1561198068665419
  0.9191514549133615  0.9132544839641312  0.2348185201018396
  0.8451297428370594  0.0117878500722028  0.2951516453868379
  0.7896712228302150  0.0907742585309350  0.4064143885848921
  0.6902694145196833  0.1494176266339835  0.4903118435552543
  0.5979236348609192  0.2482469414994668  0.6026258340933239
  0.5804011024661833  0.2691505828203375  0.7458757409940731
  0.4977018254103953  0.3256497211772285  0.8531998760259896
  0.3989742214812253  0.3899369257295930  0.9227518106855115
  0.3146313160244745  0.4789957825087399  0.0048449550653586
  0.2988592040013671  0.5754153357273140  0.0839871171530646
  0.1787079827861362  0.6337390917122647  0.1560758046435637
  0.0792178327823407  0.7481389620383041  0.2594835157318727
  0.9967736662106716  0.8363780651504769  0.3430393287353724
  0.9071221466978230  0.9254529046017623  0.4056410524965770
  0.8255155019759854  0.0015962926546607  0.4914531682246519
  0.7211098528461761  0.0638341878514979  0.5944751928484564
  0.6590474150706811  0.1895687025003809  0.6642460698814432
  0.6584402402530785  0.1778977584929322  0.8389499686502475
  0.5852969970740247  0.2461310110769119  0.9114022799817576
  0.5116877327481362  0.2987792350661209  0.0122864141586874
  0.3900145443836465  0.3764605192658479  0.0783778214774316
  0.3281156530247742  0.4872501766985877  0.1863280732254111
  0.2581631801945576  0.6002550667844631  0.2622970203488393
  0.1646618388052872  0.6683397424570572  0.3421415844923246
  0.0590246119281019  0.7364013461392318  0.4150732985636125
  0.9739183880528941  0.8220988747340030  0.4945349378704975
  0.9107646455578333  0.9138926484838095  0.5417575234648098
  0.8414716964014275  0.9773217814257507  0.6587341094771233
  0.7439155623005007  0.0543891928864539  0.7645907936236540
  0.7462914362935109  0.0793058795029609  0.9154780300007630
  0.6677320897932830  0.1465578431372521  0.9950009998670026
  0.5951464019037829  0.2638656169250666  0.0895246779525749
  0.4999342329761376  0.3259660334967336  0.1893495544535639
  0.4272784118977029  0.4285127251481953  0.2791914861681093
  0.3313139287885676  0.4984006151200759  0.3305772723818237
  0.2488538384442904  0.6196867837057312  0.4296127218232257
  0.1651108356133122  0.6577720930232545  0.5109739721082249
  0.0916818674950619  0.7485904739512108  0.6106056310799488
  0.9682430541305678  0.8503024011057931  0.6563579889610907
  0.9085047371371004  0.9384663184944486  0.7509250764743882
  0.8302720189238499  0.0255165749924018  0.8325626035491709
  0.8342587161802726  0.0345394612593068  0.0193752973476222
  0.7549841109021145  0.0906351155190777  0.0989858503381953
  0.6554340396526825  0.1551373598761216  0.1548547661118747
  0.6036904454514342  0.2554949545903611  0.2690880101459214
  0.5216530428256547  0.3483702163132705  0.3220910363467127
  0.4440979893410884  0.4419404924760570  0.4317332122093021
  0.3205714308785517  0.5397418732900121  0.5216448158914702
  0.2385585214318269  0.6068705920352642  0.5908298235864109
  0.1662228748670032  0.6813026884784890  0.6799109496124061
  0.0630443446952427  0.7742234538873660  0.7644749392004897
  0.9968093716750275  0.8783815801223582  0.8308355976402169
  0.8975099924950598  0.9546199631402956  0.9634063772989805
 
  0.00000000E+00  0.00000000E+00  0.00000000E+00
  0.00000000E+00  0.00000000E+00  0.00000000E+00
  0.00000000E+00  0.00000000E+00  0.00000000E+00
  0.00000000E+00  0.00000000E+00  0.00000000E+00
  0.00000000E+00  0.00000000E+00  0.00000000E+00
  0.00000000E+00  0.00000000E+00  0.00000000E+00
  0.00000000E+00  0.00000000E+00  0.00000000E+00
  0.00000000E+00  0.00000000E+00  0.00000000E+00
  0.00000000E+00  0.00000000E+00  0.00000000E+00
  0.00000000E+00  0.00000000E+00  0.00000000E+00
  0.00000000E+00  0.00000000E+00  0.00000000E+00
  0.00000000E+00  0.00000000E+00  0.00000000E+00
  0.00000000E+00  0.00000000E+00  0.00000000E+00
  0.00000000E+00  0.00000000E+00  0.00000000E+00
  0.00000000E+00  0.00000000E+00  0.00000000E+00
  0.00000000E+00  0.00000000E+00  0.00000000E+00
  0.00000000E+00  0.00000000E+00  0.00000000E+00
  0.00000000E+00  0.00000000E+00  0.00000000E+00
  0.00000000E+00  0.00000000E+00  0.00000000E+00
  0.00000000E+00  0.00000000E+00  0.00000000E+00
  0.00000000E+00  0.00000000E+00  0.00000000E+00
  0.00000000E+00  0.00000000E+00  0.00000000E+00
  0.00000000E+00  0.00000000E+00  0.00000000E+00
  0.00000000E+00  0.00000000E+00  0.00000000E+00
  0.00000000E+00  0.00000000E+00  0.00000000E+00
  0.00000000E+00  0.00000000E+00  0.00000000E+00
  0.00000000E+00  0.00000000E+00  0.00000000E+00
  0.00000000E+00  0.00000000E+00  0.00000000E+00
  0.00000000E+00  0.00000000E+00  0.00000000E+00
  0.00000000E+00  0.00000000E+00  0.00000000E+00
  0.00000000E+00  0.00000000E+00  0.00000000E+00
  0.00000000E+00  0.00000000E+00  0.00000000E+00
  0.00000000E+00  0.00000000E+00  0.00000000E+00
  0.00000000E+00  0.00000000E+00  0.00000000E+00
  0.00000000E+00  0.00000000E+00  0.00000000E+00
  0.00000000E+00  0.00000000E+00  0.00000000E+00
  0.00000000E+00  0.00000000E+00  0.00000000E+00
  0.00000000E+00  0.00000000E+00  0.00000000E+00
  0.00000000E+00  0.00000000E+00  0.00000000E+00
  0.00000000E+00  0.00000000E+00  0.00000000E+00
  0.00000000E+00  0.00000000E+00  0.00000000E+00
  0.00000000E+00  0.00000000E+00  0.00000000E+00
  0.00000000E+00  0.00000000E+00  0.00000000E+00
  0.00000000E+00  0.00000000E+00  0.00000000E+00
  0.00000000E+00  0.00000000E+00  0.00000000E+00
  0.00000000E+00  0.00000000E+00  0.00000000E+00
  0.00000000E+00  0.00000000E+00  0.00000000E+00
  0.00000000E+00  0.00000000E+00  0.00000000E+00
  0.00000000E+00  0.00000000E+00  0.00000000E+00
  0.00000000E+00  0.00000000E+00  0.00000000E+00
  0.00000000E+00  0.00000000E+00  0.00000000E+00
  0.00000000E+00  0.00000000E+00  0.00000000E+00
  0.00000000E+00  0.00000000E+00  0.00000000E+00
  0.00000000E+00  0.00000000E+00  0.00000000E+00
  0.00000000E+00  0.00000000E+00  0.00000000E+00
  0.00000000E+00  0.00000000E+00  0.00000000E+00
  0.00000000E+00  0.00000000E+00  0.00000000E+00
  0.00000000E+00  0.00000000E+00  0.00000000E+00
  0.00000000E+00  0.00000000E+00  0.00000000E+00
  0.00000000E+00  0.00000000E+00  0.00000000E+00
  0.00000000E+00  0.00000000E+00  0.00000000E+00
  0.00000000E+00  0.00000000E+00  0.00000000E+00
  0.00000000E+00  0.00000000E+00  0.00000000E+00
  0.00000000E+00  0.00000000E+00  0.00000000E+00
  0.00000000E+00  0.00000000E+00  0.00000000E+00
  0.00000000E+00  0.00000000E+00  0.00000000E+00
  0.00000000E+00  0.00000000E+00  0.00000000E+00
  0.00000000E+00  0.00000000E+00  0.00000000E+00