Li 
 1.0000000000000000
    21.0527999999999977    0.0000000000000000    0.0000000000000000
     0.0000000000000000   21.0527999999999977    0.0000000000000000
     0.0000000000000000    0.0000000000000000   21.0527999999999977
 Li 
 432
Cartesian
  0.4616811700000000 -0.1964208700000000 -0.1083846600000000
 20.0373920800000000  1.5976800400000000  1.3061580399999999
 17.8946636199999993  3.3060757399999998  2.7834551599999999
 15.8013068400000005  5.4905447299999999  5.2647049399999997
 14.4951752700000007  7.7485884799999996  7.1936386800000003
 12.3887489199999994  9.0210286199999992  8.9147748900000003
 10.6934762400000007 10.9115208900000003 11.0180162500000005
  8.9898088000000005 12.9908292299999992 12.7656185799999999
  7.3563557599999996 14.2817135499999992 14.0192449299999993
  5.2907302999999999 15.9264453400000008 15.7200380699999993
  3.9496164500000002 17.2342115699999994 17.9941518400000007
  1.7753027900000000 18.9636917599999997 18.8421107799999987
  1.5647074200000000 18.6868194900000013  2.0386589200000000
  0.0661396300000000 -0.1383456400000000  3.7683821399999999
 18.9300657399999999  1.7812877700000000  4.3567102400000000
 17.8255629599999992  3.4696952799999998  6.1201429999999997
 16.2205514099999988  5.4787140499999998  8.5378697300000006
 14.5128074500000004  7.1475875200000001 10.6803890799999994
 12.8863398599999996  8.6407354499999993 12.8855126999999996
 10.4953756400000007 10.2809907200000001 14.5057232299999992
  9.0630977599999998 12.1366875099999998 16.1565977799999985
  7.2764439200000002 13.9525488899999992 17.7852390699999994
  5.7029703800000000 15.7501233599999999 19.3454320099999997
  4.2646101900000000 17.5566686099999991 -0.2444535700000000
  3.5551775700000001 17.8392686800000000  3.5094837700000001
  2.0061823099999998 19.2843732999999986  5.2158942699999997
  0.0329252200000000 -0.0923777600000000  6.6775052099999996
 18.6366024299999999  1.4164199099999999  8.7177018600000000
 17.6186144200000001  3.2770458499999999 10.6347599600000002
 15.6524185500000002  5.1939111100000002 12.4414694200000007
 14.4693667300000008  6.7237471099999997 14.4889481999999994
 13.3261614900000005  8.3369971599999992 15.5772493500000007
 10.4155450500000004  9.7537270300000003 17.7227424499999984
  8.5571038399999999 11.8256760100000005 19.2455466699999995
  6.7182261399999996 13.6682701299999998 20.7881776000000009
  4.9707499700000000 15.6195895799999995  2.0487952599999999
  4.8561643999999999 15.5820721800000008  5.2653011300000001
  3.3553659699999998 17.2481167699999993  7.3507327099999999
  1.5834758000000000 19.0149126200000005  8.7816059800000001
  0.2696015700000000  0.2625902600000000 10.2768946999999997
 19.3069373499999983  1.4413316100000000 12.3588084800000004
 17.7678013899999989  2.9924743899999999 13.9536571800000004
 15.7642487700000000  4.8868853699999999 15.4452608399999995
 14.2115588099999997  6.5760420499999999 17.5904838400000010
 12.6106481600000002  8.4218655499999997 19.1669318299999993
  9.9501299000000003  9.8584978099999994  0.1054711900000000
  8.5596034299999992 12.0738297299999999  1.8833585799999999
  7.3006392699999996 14.3979850000000003  3.7587140099999998
  7.3432643100000003 14.3074444399999994  6.6262483899999998
  5.3154830500000001 15.2779034199999995  9.3366611400000004
  3.0153507199999998 17.3843944700000002 10.3648352399999997
  1.5675354399999999 19.2330742199999989 11.3279110200000002
  0.1724964400000000 -0.2809173000000000 13.4073695399999995
 19.0629859999999987  1.2784552199999999 15.2327624400000001
 17.9787963499999996  3.0858830799999999 18.0447087199999991
 15.5945992899999997  4.6270500099999996 18.6116283899999999
 14.2646415100000006  6.5077338100000004 -0.4398729500000000
 11.8707299299999995  8.4909312999999997  1.2901672300000000
 10.1303125999999999 10.0582217099999998  2.9653063300000002
  8.5455973600000004 12.2566407799999997  5.1314471599999996
  9.3210886199999994 12.1497671500000006  8.5124147600000004
  7.6298862099999996 13.4073995299999993 10.7031797399999995
  5.9456793499999998 15.4599459699999997 12.0729796300000007
  3.6400751800000002 17.3237190699999992 13.8146020800000002
  2.2118092300000001 19.1251760399999995 15.6665767700000007
 -0.0348092500000000 -0.1493784900000000 16.7255320400000009
 19.6351419999999983  1.5187728899999999 19.2444151199999993
 17.0413177299999994  3.4056680699999999 21.1449622499999990
 15.7278245999999999  5.4192785299999997  1.4191256400000001
 13.8825540899999993  7.0416022199999997  3.2684953200000000
 12.4124836999999992  8.9653517600000008  5.0802857200000000
 10.8669417599999996 10.9648947200000002  6.9138635099999997
  1.5929100500000000  2.0372042399999999 19.1680935499999983
  0.1608874000000000  3.3802458199999998 -0.7909398300000000
 19.5540602499999991  5.4120024700000000  1.0714194300000000
 17.1670825799999989  6.5979985900000004  3.1675814299999998
 15.9757578500000008  8.5286477900000008  5.6108965800000004
 13.9466279199999992 10.5307060499999992  7.2284732600000003
 12.4389420099999999 12.5521350900000002  8.8186234500000005
 10.5018548900000006 14.8200404300000006 10.8255850500000008
  9.3919446700000009 16.1670671699999993 12.2518311299999993
  7.4509795900000002 17.7750652100000011 14.3698706900000008
  5.3225589099999997 19.2452458700000015 15.7944020199999997
  3.3528421700000002 -0.0871457900000000 17.3296455800000011
  3.7268231799999998 -0.3325543500000000 -0.3762426700000000
  2.0009671700000000  1.3741559999999999  1.4009738700000001
  0.6305318600000001  3.7302083399999999  2.4367106600000001
 19.4371251600000008  5.2392123200000000  5.1190370600000001
 18.1463123000000017  6.7535744400000004  7.1200015600000004
 16.3016080599999995  8.7998288999999996  9.2818460300000005
 14.3760174700000007 10.5909471100000001 10.8735124499999998
 12.3811739799999998 12.2898532399999993 12.2513946199999992
 10.8659591899999999 13.9295973100000001 14.1589417700000002
  8.8067969500000007 15.8223867100000000 15.8629136000000006
  7.4253008100000004 17.7885292799999988 17.7714593299999990
  5.3499377099999998 19.6687694600000000 19.4173911600000011
  6.0976399099999998 19.5036095799999991  1.5524380900000001
  3.9719231300000000 -0.2389078600000000  3.2618448000000000
  2.3641350399999999  2.1341103299999999  4.9483814099999996
 -0.2238996400000000  3.0909127600000001  6.9553298300000002
 19.8958446100000010  5.2908695400000001  8.4735541600000008
 17.7804942299999986  6.4547608500000004 11.0575741700000005
 16.3692658599999987  8.9665267899999996 13.1557111300000003
 14.3703293799999994 10.3250962899999994 14.6044342000000000
 12.1126742800000002 12.0431717000000003 16.4361790600000006
 10.4826204199999999 14.3930086300000006 17.7557710100000001
  8.6295489199999995 15.9010535599999994 19.4150048200000001
  7.5196788799999998 17.5000888400000001 20.8885229599999995
  6.0926928900000004 17.7652085900000003  3.5319378900000000
  5.1365568499999998 19.3418422700000008  5.4543561199999999
  3.3855227800000001  0.1575772700000000  7.2171218000000001
  1.7957019500000000  1.9074312200000001  9.0143504100000005
 -0.2561688600000000  3.5956471200000002 10.8528479200000003
 19.7281217200000007  5.3024071599999996 12.5196870400000009
 17.4618704600000001  6.7615329099999997 14.2985529000000007
 16.0470931800000010  8.6832757500000000 15.8181631500000002
 13.8628847200000003 10.5652484399999995 18.1272711999999991
 11.3206665799999993 11.5530381299999991 19.1416752700000004
 10.2167516000000003 14.1470569000000008 21.1934963500000002
  8.9780525799999999 15.8765447599999998  2.1010582200000001
  8.6467462099999999 15.8956986699999998  4.9440468099999997
  6.7475861600000000 17.1019389599999982  6.8598669699999997
  5.3237462799999999 19.1208939800000017  8.4535610200000004
  4.1170676899999998 -0.0577460900000000 10.0599682200000000
  2.0846259100000002  1.7871904999999999 11.8945644900000005
  0.3556582500000000  2.8298090700000000 13.8058945899999994
 19.5532345499999991  4.9956047000000003 15.6403926200000001
 17.6954417399999997  6.4604566300000004 16.9229194999999990
 15.9953643299999992  8.4593704299999999 18.6647551599999986
 13.8184817399999993  9.6175133499999994 20.5116082199999994
 12.0965719699999994 11.6787569799999993  1.6672693900000000
 10.6866940800000005 14.0767525700000000  3.3536474599999999
 10.9889684200000008 14.2923329599999995  6.6930791300000001
  8.6754157700000007 16.2114997500000015  8.5519385600000000
  7.3776455199999997 17.4885773100000002 10.1894593600000007
  5.7096117399999997 18.9188251700000016 12.2781025300000000
  3.6970580000000002 -0.6516053400000000 13.4210823200000000
  1.7518610699999999  1.6215188700000001 15.2715187599999993
 -0.4867177700000000  2.7776793799999999 17.0661809399999989
 19.4927249700000012  5.1732957600000002 18.7473822000000006
 17.4366159299999985  6.7874678700000004 20.6791462800000012
 15.5374582100000005  8.4104895899999992  1.3121191699999999
 14.3760543399999996 10.0098375100000005  3.1703684800000000
 12.1375177300000008 11.9337015599999994  4.6616603200000002
  3.1477759900000000  3.1199053499999998 16.7739078500000005
  1.6648526699999999  4.8582009299999998 18.9952691700000003
  0.0839913700000000  7.2055688599999996 -0.5064200300000000
 19.2700076899999999  8.5065797900000000  2.0943080599999999
 17.2146096200000009 10.9416197999999998  2.8608855100000001
 15.8955526599999999 11.7278991000000001  5.5407406000000003
 14.0879876500000005 13.3606326899999992  6.5790562499999998
 12.7399839600000000 15.6196438999999998  8.3707148599999996
 11.0976678900000003 17.4288133499999986 10.4578466799999994
  9.2407125099999998 19.3938535099999996 12.0293303999999992
  6.9674643800000000 20.8585487699999987 13.7124066199999994
  5.5653303999999997  1.7831503500000001 15.0555273700000001
  5.2242606699999996  1.3162654899999999 19.0356672099999997
  3.9462820399999998  3.7560726999999998 -0.5907666499999999
  1.7069702200000001  5.4991027299999997  1.3268473999999999
 -0.2487229800000000  6.8038632200000002  3.8107029899999998
 18.7606019699999997  8.8702301600000002  4.8339860100000003
 17.9775936700000010 10.3710849399999994  7.5101456500000001
 15.7047700500000005 12.0872174799999996  9.2883533800000002
 14.3137975100000006 13.7903523400000001 10.9564005800000004
 12.6078672699999998 16.0758526800000006 12.6888397400000006
 10.4251799500000004 17.7758510299999983 14.1309484899999998
  9.1912194100000004 19.4065014200000014 16.1503903499999986
  6.5292116000000000 20.9447192499999986 18.1090016499999997
  7.1676720600000001 -0.3488816500000000 -0.0986328100000000
  5.8517403400000001  2.1654370500000000  1.3645729499999999
  3.9246362499999998  3.3572174100000001  3.2130197500000000
  1.6789619300000000  4.9425302599999998  5.2439152800000004
  0.0334121800000000  7.5868950200000000  7.0283688000000000
 19.4711872399999990  8.6643266200000006  9.1634218900000004
 17.3471190899999996 10.6379608000000001 10.8665817699999998
 15.9246628999999995 12.0463890800000009 13.0357200599999992
 14.1286816799999997 13.9954012199999998 14.3769239599999992
 12.1158544900000003 16.0808271599999983 16.1694471799999988
 10.3499301100000007 17.4790063300000007 18.2611221700000002
  8.8946387500000004 19.2252915100000017 19.9481256800000004
  8.4194664600000007 19.6483829599999993  2.1449378700000001
  7.0277491400000001  0.6261725299999999  3.4462361499999998
  5.0060547599999996  2.3578997400000001  5.6106432499999999
  3.3167373000000002  3.9641084599999998  7.0512480399999999
  1.1259247500000000  5.1863969399999998  9.1013060499999998
 -0.7858888700000000  6.9751268900000003 10.9922627800000008
 18.7010381999999993  9.2452005300000000 12.4359479999999998
 18.1773914400000010 10.7417803700000007 14.6747470100000008
 16.0059821199999988 12.5635332599999998 16.8410863699999993
 13.5161843899999994 14.2072151200000008 18.2620937099999985
 11.7223908100000003 15.6015075400000001 19.7546711200000011
  9.8928034199999999 17.3597965300000006 21.8645359699999986
 10.3022774199999994 17.8540336400000008  3.6325964300000000
  8.6357327999999995 19.4049117799999991  5.3105382399999996
  7.0475588800000004 -0.0629445300000000  6.8699373000000001
  4.9813226999999998  1.4372887800000000  8.7481049899999999
  3.9193306300000001  4.0342668399999999 10.5653124100000007
  1.8860582100000001  5.1759417000000001 12.0199009700000001
 -0.1328392600000000  7.0960324999999997 13.7070162000000000
 19.3516063199999984  8.5957423199999994 15.3405830999999999
 17.7912849199999989 10.3302818100000007 17.7038077899999990
 16.0072977700000010 12.2908803500000001 19.6770976299999987
 12.8727977100000004 13.9264351499999997 21.0155962999999986
 12.4495434300000003 16.2120334300000017  1.7759923300000000
 12.5580532700000003 15.5230400199999998  5.0954836999999999
 10.5954969800000001 17.6292497300000015  6.3626242299999998
  8.7615222399999997 18.7302389500000004  8.3216817100000000
  7.2607163000000003  0.0386354300000000 10.1479403200000000
  5.3279029700000002  2.0432250999999999 12.3917190000000002
  3.6816652400000001  3.7531716600000000 13.5371488200000005
  1.3007318900000000  4.8017766999999996 15.3256910699999995
  0.6234713000000000  6.5493457099999999 17.3302944799999992
 19.3704410299999985  8.3562401200000007 18.8701134800000005
 17.6265763600000014  9.5250357999999995 20.2823442199999988
 15.5558547899999997 12.1554363300000006  0.9566086900000000
 14.1419412700000002 13.4958774600000009  2.8990838399999999
  5.1014309200000003  5.2010653900000001 15.4351499299999997
  3.0557344899999999  7.2889625699999998 16.9774646400000009
  2.2290357099999998  8.8864807300000006 18.9955122900000006
  0.0686646300000000 10.3886123999999995 -0.3386873300000000
 19.1886131900000017 11.8447962300000000  1.0169666100000001
 16.8911365499999988 13.4628773699999993  3.2990198099999999
 15.7763554100000007 15.1621070600000003  5.1318257200000001
 14.2028821000000001 17.1665198100000005  7.1174971899999999
 12.0508961100000000 19.3410650299999993  8.5855157900000005
 10.4761693900000008 -0.0887040700000000 10.5508481199999995
  8.9886233999999998  1.6215750600000001 11.8231268200000006
  7.4770644300000004  3.9428955200000000 13.9616864300000003
  7.0256580099999999  3.4085715900000002 17.1274812800000014
  5.0682395700000002  5.2265367400000002 17.9324163299999988
  3.5314055400000002  6.7005546400000000 -0.5538015400000000
  2.4634696500000000  8.2066969200000006  1.5701716100000001
 -0.0935089200000000 10.2234678599999995  2.8940683599999999
 19.2028220900000015 12.5880608600000006  5.8646933800000003
 17.3263818000000001 13.8711007599999991  7.2810241299999996
 15.3514264300000001 15.5157290299999993  8.2169291900000001
 13.7940774099999999 16.7952752899999993 10.6419008000000002
 12.9232876200000000 18.8505863200000015 12.2803346700000002
 10.6667520899999992 20.9013884999999995 13.9711290800000008
  9.0371430999999998  1.5924645500000001 15.5232098700000005
  8.9003004400000005  2.2205216900000000 18.8556613300000002
  6.9747992200000004  4.4804460900000000 -0.8857284300000000
  5.1508828800000002  5.6862276200000004  1.6477541000000000
  3.4929939499999998  6.6127769799999996  3.7575771499999999
  1.7618665200000001  8.8142744799999999  4.7362947300000000
 -0.0985234500000000 10.3946410500000006  6.9535569600000002
 19.1957209900000016 12.5932682400000004  9.1582048300000007
 17.0757488100000003 14.3344436200000001 11.1806692200000004
 16.3715702400000005 15.5574147000000007 12.3205871200000008
 14.6106663799999996 16.8566034699999996 14.4267629199999998
 12.4199221000000009 19.2235306100000010 15.9643037099999994
 10.6796889799999999  0.1034863600000000 18.1716509600000009
 10.3683848399999992  0.3335201500000000  0.7898182300000000
  9.1675498599999994  2.1682696099999998  1.8057236900000000
  7.1683627799999998  4.2984612899999997  3.3872231300000002
  5.4481208199999998  5.2673448599999997  6.2247753799999996
  2.4631836599999999  7.0725119000000003  7.1953715300000001
  1.1492816400000001  8.7889533300000000  9.7840332799999992
 -0.3250143800000000 10.8597792999999996 10.7839875900000006
 19.0919591000000004 13.1686435100000008 12.5423475599999996
 17.8462856099999989 14.2831235799999998 14.4948227599999999
 15.9410160399999992 15.4883106700000006 16.1470062399999996
 13.7605271200000008 17.6794590900000017 18.2736591399999995
 12.1285100299999993 19.0275091799999991 19.6343394000000018
 12.2575413900000001 19.4071192600000018  1.7084475900000000
 10.0669911100000000 -0.1169658400000000  4.0929132499999996
  9.0695274300000008  2.0450027999999998  4.5580138999999997
  7.4633051100000003  3.2933410400000001  7.4175744100000003
  5.3274114199999998  5.4737580499999998  9.1566049700000001
  2.8489838199999999  6.9534686600000004 11.0283171800000002
  0.8139693500000000  9.6549676099999999 12.4497719500000006
 -0.3109291400000000 11.0648946200000005 13.8128062499999995
 19.3336897500000013 12.2436870100000004 15.9113217599999999
 17.7071151499999999 14.4315441999999994 18.1885279000000004
 15.9424904600000001 15.5147095999999998 19.7182056400000008
 13.9865447100000004 17.2207855800000011  0.3589420600000000
 14.0187451700000008 17.7320945399999985  3.9084485099999999
 12.3773847700000008 19.4484558999999990  6.0714648200000001
 10.3618550400000000  0.1865050100000000  6.8947957200000003
  8.8221245800000005  1.5572404000000000  9.1081869700000002
  7.2969275700000003  3.5778277500000000 10.5141606200000002
  5.2497850300000000  5.7957482599999999 12.0716253899999995
  2.6001968500000001  7.6683232099999996 13.7750857599999996
  1.3469146200000000  8.9197305500000006 15.4403785100000004
 -0.0727688200000000 10.6416440699999999 17.8236024800000017
 19.3083814800000013 12.0100249899999998 19.6369221799999991
 17.5034868000000010 14.1087343399999998  0.4644579100000000
 15.2653456900000002 15.4318568400000000  1.4703240200000001
  6.9276641699999999  7.2621185500000003 13.7940150300000006
  5.1038711299999999  9.1206240199999993 15.5730079700000008
  3.5374679599999999 10.8527830299999994 17.5258553500000005
  1.9564934899999999 12.0085854600000008 19.3041065900000000
 -0.0140560000000000 13.7705213999999998  0.0565355900000000
 19.1401718999999986 15.4504499699999993  1.7656805799999999
 16.8980612900000011 17.3623256300000008  3.6013641100000000
 15.9390851300000005 20.1186896299999987  5.6557321099999998
 13.9291349199999992  0.3980182800000000  7.3815070199999999
 11.9420696000000000  1.9185461399999999  8.5958013599999994
 10.4789645199999999  3.6749410100000000 10.8722218500000007
  8.7387944100000006  5.4722655400000004 12.1803779199999997
  8.6040899199999998  5.2008912000000000 15.7308395200000000
  6.1947697799999997  7.0980956400000004 16.8969839399999984
  4.3597175500000001  8.9701325500000006 19.5587048299999999
  3.9472073100000000 10.9500234899999995  0.2020651400000000
  1.5774641700000001 12.2461128800000001  1.2997338100000000
 -0.3011403500000000 13.9275259299999998  3.3259035600000000
 18.9393940799999996 15.7537803600000004  4.7584708300000003
 17.9576474700000013 17.8076798600000004  6.7774329099999999
 15.7106483000000008 18.4908658700000004  8.6493349500000001
 13.8359390199999996  0.0968782800000000 10.2025511299999998
 12.0273199599999998  1.9305337400000000 12.0733251900000003
 10.5148934999999994  3.5091882000000001 13.8267911300000002
 10.3101765400000005  3.6685604700000001 17.0140162799999999
  8.3076917300000002  5.6110198699999998 19.0430550200000006
  6.3747129600000001  6.7473049300000003 -0.0980971100000000
  4.5338837400000003  8.6747558799999993  2.0996098700000001
  3.4054866300000000 11.1403548699999995  3.4540266300000000
  1.6418687199999999 12.4093143099999992  5.3644956800000001
  0.0933227000000000 13.7104267899999996  6.9507479500000002
 18.9874912000000009 15.3309697800000002  8.3452720500000002
 17.5376926699999984 17.0033322499999997 10.2446906500000008
 15.6652209100000004 18.9106566700000016 11.7409228500000005
 13.9597474500000001 -0.3528336500000000 13.6852590400000000
 12.5713939700000008  1.4429824600000001 15.4672276699999998
 11.7404916900000007  1.8130847500000000 19.1540717500000000
 10.4587537200000007  3.9101945499999999  0.3182206300000000
  8.5702904499999999  5.5683439999999997  2.3190047499999999
  6.6694662100000004  7.3249091399999999  3.5771905300000002
  4.5224745200000003  8.9319717399999998  5.4533049000000000
  3.0671542399999998 11.0071562400000005  7.4632252599999997
  1.6955920900000001 12.3426482800000006  8.9527729100000002
 -0.0483721100000000 14.4889843599999999 10.6052815200000001
 19.7364570899999983 16.0068461999999982 12.9457464800000004
 17.5114374899999987 17.3519508999999985 13.7359676999999998
 15.5254213900000000 19.4180306899999984 15.9874473699999999
 13.6298802999999999 -0.3056801600000000 17.9645329400000016
 13.4370625199999996  0.5320233100000000  0.8565884600000000
 11.8945197300000007  2.1450228199999999  2.4948416400000002
 10.8391627600000007  4.4657280999999998  3.2113566699999998
  8.5067442300000007  5.4897625899999998  5.2729508500000000
  6.9070178499999999  7.2315841199999999  7.4261613000000004
  4.9138444999999997  9.7798014000000002  9.0140433000000009
  3.8152029399999998 11.0363548500000004 10.6280322300000005
  1.2500670100000000 12.9946131999999999 12.3805936899999995
  0.0090287600000000 14.4277342999999991 14.3430149300000007
 19.3803358800000005 16.2688683699999999 16.0120720200000015
 17.5578189800000004 17.6806155599999997 17.6676136799999988
 15.7234522299999995 19.7545418599999998 19.6056755100000011
 15.2898618499999994 19.7118579700000005  1.5402926500000000
 13.5557572900000007 -0.0756907300000000  3.5934181700000001
 11.9514256200000002  2.3788906600000002  5.7151725500000001
 10.8454485900000002  3.9030153500000000  6.7140307300000002
  9.3112693699999998  5.5576073099999999  8.4181574399999999
  7.0248251399999999  8.2030666399999994 10.5022811699999998
  4.6104265499999997  9.2536292099999997 12.2795722900000008
  2.9600276100000000 10.8954267999999992 14.3041494300000007
  1.0331309600000000 12.4143248100000001 16.1633342199999994
 -0.0282509000000000 14.0942497699999993 18.2151226599999987
 19.4528895499999983 16.6671276500000012 20.2354562199999997
 17.3709925500000004 17.8708180600000013  0.6260716000000000
  8.6948017400000008  8.9410142100000005 12.1629269000000004
  6.8537173100000004 10.7733293400000001 13.6207756000000000
  5.4950064999999997 13.0817901400000007 15.8880705500000001
  3.9085752899999999 13.9644676800000003 17.3461073500000005
  1.6697342200000000 15.9140529900000001 19.9914092100000005
  0.0466569400000000 17.4157415200000010 -0.0167538200000000
 19.2329643799999985 19.0043838600000008  2.2420479200000001
 17.8098169599999991 21.0177095399999985  3.1728780200000002
 15.7132305700000003  2.1654423399999998  4.9037445899999996
 14.2349915100000004  3.1790272300000000  7.3308508500000000
 12.3061801800000001  5.5900488099999999  8.7955877800000000
 11.0155064599999992  7.1710600800000002 10.6928396100000001
 10.7681974399999998  6.8305841500000000 14.1138852600000000
  9.0983604699999994  8.1348290399999996 15.6489881999999998
  6.5937079299999999  9.9844574900000005 17.7763072199999996
  5.6348400099999996 12.2875052000000000 19.0907421200000016
  3.4513832999999998 13.7395059199999992 -0.3485609700000000
  2.0600447300000000 15.5855399800000001  2.0977937400000002
 -0.2950170300000000 18.3233900299999988  3.2867590700000000
 19.3507117499999985 19.2265639999999998  4.9435873399999997
 17.7923474500000012 21.3009672499999994  6.2137685600000001
 16.6247903199999989  1.9110523100000001  8.5561608400000004
 14.5321039299999999  3.1456594099999999 10.3224371799999997
 12.5879667000000008  5.2262932099999997 12.6869611599999992
 12.2190683300000007  5.6663733900000004 15.7027728000000000
 10.4780169900000004  6.8558384500000003 17.9622463500000009
  8.3995244899999992  8.2092641099999994 19.4265093200000010
  6.6238701700000000 10.0842024099999996  0.1019998700000000
  6.2918230499999996 12.1141039799999994  1.7681639800000000
  3.7623034199999998 13.3419823500000003  3.2858326999999998
  1.6677571899999999 15.7504199400000005  5.4628545600000002
 -0.0679233600000000 17.6081001300000004  7.2219383800000001
 19.0974611299999992 19.4833749099999984  8.5398799499999996
 17.3794127600000010  0.0336064300000000 10.3464652600000004
 15.1813815099999996  1.3438883900000000 12.5153673399999992
 13.8747934199999996  3.9909519800000002 13.9842396600000001
 13.8620106900000000  3.7452459299999998 17.6622458999999985
 12.3221406200000008  5.1817469500000000 19.1875699200000014
 10.7724595000000001  6.2901394799999997  0.2586634200000000
  8.2108982000000008  7.9255480199999999  1.6500725999999999
  6.9077532200000000 10.2579805200000003  3.9227276600000001
  5.4350578000000001 12.6370498700000002  5.5220867100000000
  3.4665927600000002 14.0704229299999994  7.2030383499999999
  1.2426333500000000 15.5033102599999992  8.7384551399999992
 -0.5490909600000000 17.3074831899999992 10.4113451399999999
 19.1741459300000017 19.2399991499999992 11.4055127899999995
 17.7153353299999985 20.5753599999999999 13.8681974599999993
 15.6615055499999993  1.1450448000000000 16.0967770600000009
 15.7115243499999995  1.6696108199999999 19.2733758699999989
 14.0576301400000006  3.0854529600000000 -0.1052429500000000
 12.5294981700000001  5.5551100599999996  1.8847451399999999
 10.5250154200000008  6.8624977100000004  3.9863382999999999
  8.9954069499999996  9.0213926999999998  5.8777625200000001
  6.9750858800000000 10.4927284699999994  6.9595772000000000
  5.2390700900000002 13.0461419200000002  9.0445507099999993
  3.4760453999999998 13.8479443199999999 10.7574328399999999
  1.9301600200000000 15.7599255300000003 12.8549582299999994
 -0.6685726300000000 17.9012463900000007 13.8181734699999996
 19.1265685300000001 19.7573437100000007 15.8090754499999999
 17.4795507599999986 21.5899953499999988 17.5277739799999992
 17.5634818999999993  0.7271523700000000  0.4079042600000000
 15.8945294900000000  1.9081229600000000  2.0839293099999998
 13.7987217500000003  3.2660758099999998  3.2601264200000002
 12.7093742100000000  5.3788841800000000  5.6650560600000004
 10.9822571799999995  7.3341684899999997  6.7809181699999996
  9.3495061499999998  9.3040848000000000  9.0891929699999991
  6.7489262200000004 11.3630777100000007 10.9820839800000005
  5.0223248399999996 12.7763252000000005 12.4386221100000007
  3.4994569400000000 14.3433292399999992 14.3140292400000000
  1.3272599800000000 16.2995715300000015 16.0943380000000005
 -0.0671716600000000 18.4923917300000014 17.4914156699999985
 18.8950983699999995 20.0974231600000017 20.2824017800000007
