hr9
1.0
0 -1.8261704484521701 -7.740100000000001
-1.58151 0.9130852242260851 -7.740100000000001
1.58151 0.9130852242260851 -7.740100000000001
Li
3
Direct
0.0 0.0 0.0
0.222275071 0.222275071 0.222275071
0.777724929 0.777724929 0.777724929
