Li                                      
   1.00000000000000     
   -10.6364300000000007   18.4228371711498369    0.0000000000000014
   -18.2338799999999992  -10.5273355263713349    0.0000000000000078
    -0.0000000000000001    0.0000000000000000   22.3096999999999994
   Li
   504
Direct
  0.9966654504974315  0.0043513866695193  0.9966583199236183
  0.9312143853262711  0.0337687291725146  0.6886514466801401
  0.8635483616656146  0.0702736712937124  0.3329962881616524
  0.7821516662200594  0.1162487475439633  0.0034527219102003
  0.7098464935725488  0.1687462970234606  0.6803284078226071
  0.6330707907811046  0.2091472083183703  0.3118024083694522
  0.5694416897979409  0.2627704952200247  0.0041223310936473
  0.4942099553249335  0.2952593652521145  0.6697298614503993
  0.4249469315714691  0.3374818364838035  0.3369280752318531
  0.3535142427983402  0.3834127564990268  0.9695562002178448
  0.2880689926895670  0.4088515090637230  0.6780800633805057
  0.2108066235109689  0.4456604938438389  0.3165552203749940
  0.0695709078390649  0.0421192718572954  0.6777893920581661
  0.0033599276724843  0.0812802373661867  0.3359335791158102
  0.9290616793006166  0.1245026024322087  0.9873293746666221
  0.8472857311249413  0.1701367290390579  0.6853224592890115
  0.7878078410691813  0.2025288405438985  0.3280009816357889
  0.7186538382550651  0.2537073220383519  0.9865804936866027
  0.6421830181005745  0.2932321135591778  0.7009025334271612
  0.5637569571099732  0.3466309034986921  0.3301283119002036
  0.5004990843119330  0.3778598501609096  0.9977125514910554
  0.4251199023061574  0.4128277414085062  0.6658741713245817
  0.3622739983814824  0.4587226446261141  0.3271990492924601
  0.2832959799363977  0.4991430392283505  0.9782531817998432
  0.1486332905991716  0.0747392128758264  0.3288597157290312
  0.0762018830943418  0.1318213959178678  0.0089650143211273
  0.0011838776265520  0.1714888596665460  0.6615762488962176
  0.9284767824050562  0.2117752078725630  0.3160644141337627
  0.8519446345859549  0.2496668558941337  0.0005425236556320
  0.7793758169848530  0.2989304837449751  0.6633470216990816
  0.7087322643007354  0.3341448255677761  0.3452766657552573
  0.6344743993969360  0.3749051010548783  0.9836632724778909
  0.5670790937660115  0.4176545438872239  0.6809491907107699
  0.5015613332085707  0.4642357243011546  0.3461817967072633
  0.4190974896277524  0.5139837850418374  0.0039458858702730
  0.3477193669187528  0.5502079214146605  0.6482753654240057
  0.2113528683286958  0.1269815914507859  0.9988956131189539
  0.1465410620857170  0.1615683267082844  0.6668153516183537
  0.0779963612965275  0.2102176071584765  0.3184413470373855
  0.0084700081247746  0.2516032688315022  0.9913180813726754
  0.9349797166539275  0.2843032323559598  0.6832281048153916
  0.8613749588841131  0.3336284354222059  0.3349998018799027
  0.7830914429173745  0.3727531931662611  0.9840156712102797
  0.7082273182796541  0.4136533450385045  0.6869409893454446
  0.6414246356352749  0.4530016059549524  0.3551105510159260
  0.5795421503329194  0.5097939783487888  0.9974427002604216
  0.5005527259004836  0.5433423785639917  0.6451849361488513
  0.4213744563634521  0.5843511211602888  0.3406983576650546
  0.2898102426300184  0.1674880064463977  0.6491092609940949
  0.2234415411537256  0.2094116155434946  0.3371638063263944
  0.1436816126147420  0.2417242147659309  0.9952864749413948
  0.0746796170543007  0.2868679189933871  0.6756738606973656
  0.0005731676910372  0.3287331117664536  0.3350514596789722
  0.9293637473693650  0.3740938037635502  0.9891171642828027
  0.8575302491669206  0.4204379606454296  0.6710858908905095
  0.7807704255238761  0.4564815784048761  0.3267787213633540
  0.7153826761449196  0.4956194617915557  0.9950239868756654
  0.6436347023727080  0.5426420489024721  0.6631351636283753
  0.5706271089400161  0.5846581566653484  0.3586590205157378
  0.4909669903966147  0.6201658201291096  0.9907651703070854
  0.3548897791409900  0.2126905226123768  0.3205785245879582
  0.2902524574182124  0.2539560978981541  0.9810713339937323
  0.2078866187493134  0.2885532772912995  0.6774448585144555
  0.1383946480778704  0.3246169401874468  0.3253752497792419
  0.0687034672907032  0.3588849098165170  0.0117195618946013
  0.9942696360954031  0.4149734962907417  0.6556067602881228
  0.9267775945507992  0.4573981313901427  0.3380285705321029
  0.8554952449254074  0.5082049350998261  0.0005506864726996
  0.7864194678499317  0.5416618355268810  0.6652568129557963
  0.7175589409532179  0.5825592273107532  0.3444878913656382
  0.6344841953404057  0.6204647930202114  0.9910043994316382
  0.5663907245493718  0.6665240588224393  0.6857551925843879
  0.4274791225824615  0.2530241904734609  0.9868502642348389
  0.3603226007652438  0.2920533676618788  0.6724202732443700
  0.2911433992871153  0.3314744077245493  0.3288440902387748
  0.2030774348878666  0.3618418712438398  0.9766159863198496
  0.1328912767017769  0.4040677473884315  0.6468013415689171
  0.0635416518852949  0.4530168810827817  0.3319058042017602
  0.9996213421349722  0.4995910699135564  0.9870069906811807
  0.9301278218343114  0.5402076295339668  0.6815912450638066
  0.8615414511719948  0.5804683612325334  0.3512766137599357
  0.7840246303427278  0.6251319725194904  0.9747653643930647
  0.7094440719761153  0.6777559290458797  0.6788289945629060
  0.6365706336544932  0.7121343803446294  0.3389932280577526
  0.1309701021487726  0.4856514645485035  0.9919678534449119
  0.0610878096763159  0.5362770424355361  0.6638215292003053
  0.0030439175335317  0.5868195131386642  0.3276813928470546
  0.9290819534973025  0.6323911963533106  0.9823965526206067
  0.8642861777525752  0.6669495784971247  0.6702938484157102
  0.7789963435997365  0.6936577585815797  0.3573327902212924
  0.7156754979303557  0.7467347132672018  0.9812292038888941
  0.2172120814926757  0.5385085280833763  0.6613489688341829
  0.1371784600232857  0.5727649344217767  0.3255435590796836
  0.0782660414711387  0.6256027350467974  0.9792321030762423
  0.9937865537647639  0.6697666769738433  0.6826159652527792
  0.9200514699385636  0.7037141811617360  0.3494657834932795
  0.8513435278594557  0.7549995058632533  0.9937945091148706
  0.7867038392945176  0.7854647942518369  0.6542244633500189
  0.2845705764305606  0.5911914394378286  0.3309652361977058
  0.2153958367397806  0.6270950176389150  0.9832873046253425
  0.1395423913817666  0.6647424295890474  0.6507978090247732
  0.0702307168105278  0.7171475432982461  0.3355072860683919
  0.0006462086361978  0.7538364800621551  0.0118937529415462
  0.9293523649326261  0.7872241796622390  0.6660427778051670
  0.8596848045962417  0.8370018796793843  0.3611986965311047
  0.3632176083494514  0.6269032358457807  0.9886866672344325
  0.2834876386403593  0.6680669366989633  0.6681428912087597
  0.2141132613388521  0.7045805019939593  0.3256390991362466
  0.1449094680476293  0.7595489499094086  0.9897575924373712
  0.0757897476089724  0.8032570728138779  0.6592868263580414
  0.9940886236951840  0.8274283284890487  0.3068867609156527
  0.9368816818731744  0.8646946191635436  0.0097063519455673
  0.4308495898885525  0.6706862179975772  0.6864216945992112
  0.3630319242296238  0.7031658314174649  0.3333390180056170
  0.2806646926553142  0.7471782249910746  0.0011722156730016
  0.2183340799808420  0.7875311909297054  0.6696389247726344
  0.1357983586993470  0.8344298933402854  0.3004524897242007
  0.0719837903670637  0.8848602142070732  0.0261145492767696
  0.9979185489943703  0.9124705766364514  0.6993216762215511
  0.9239997003161662  0.9487009823233521  0.3309696723846542
  0.8572673361036678  0.9994224925384430  0.0003577981774754
  0.7815643917239115  0.0401989569381840  0.6987114205928364
  0.7187534209567090  0.0845026681503569  0.3385601043492272
  0.6340418952005180  0.1292248339153446  0.0047511185717397
  0.5672775900881319  0.1721410606222520  0.6769982052649723
  0.4991881437096595  0.2108933256444701  0.3372514126142434
  0.0695010415161619  0.9628936615238359  0.3203476617794081
  0.1399574259035603  0.9927501330707784  0.0043708091099361
  0.2120407803900974  0.0364251542861638  0.6554606830212890
  0.2944084102480815  0.0758443360922101  0.3370758280030657
  0.3478901424556682  0.1152637744725880  0.9859569205323240
  0.4275103305012777  0.1609368442342642  0.6576699552212730
  0.8595737469526696  0.9135406715795114  0.7039193180544814
  0.7906088492862224  0.9629858344568731  0.3372069790270587
  0.7200338299956570  0.9984957644571182  0.9687272428584848
  0.6498315381395869  0.0385470943532553  0.6804840594001718
  0.5711312835868938  0.0885338069197488  0.3178004083425563
  0.5023237590826142  0.1276783624319648  0.0109535152870706
  0.1441813783741068  0.9174200264354226  0.6650327126765490
  0.2255824868333534  0.9501562212524775  0.3257191490696840
  0.2822552389535531  0.9945174092808102  0.0069302639658986
  0.3521971284325360  0.0471654577756553  0.6575092453058531
  0.4273084437993617  0.0863941640023498  0.3401153964419095
  0.7945343366811102  0.8677981573474725  0.0042349480270900
  0.7113706243254612  0.9190713781326778  0.7001085200607804
  0.6403445656074922  0.9547817327982600  0.3208845027050984
  0.5745965366631651  0.9980656201280169  0.9958729772251544
  0.5087526083755876  0.0453626032251861  0.6672742242163707
  0.2228342157444416  0.8656697775037117  0.0136536900989270
  0.2850306767808490  0.9129041667800735  0.6770434425384479
  0.3537015575398712  0.9579427687544424  0.3301240899698357
  0.4306208791053123  0.0029985714975567  0.0304128683935687
  0.7150249793969365  0.8334643953120846  0.3721791991824190
  0.6476425482273100  0.8700958935102463  0.9960028619837971
  0.5674302593874145  0.9118123090721184  0.6781517658238343
  0.4996885689946566  0.9618789661930549  0.3472648847810618
  0.2837771473204143  0.8291834259590800  0.3595354361555749
  0.3547159228504668  0.8672687572099633  0.0016779934288635
  0.4279082177279747  0.9194908146654228  0.6521671367163151
  0.6389111597995338  0.7869094922514250  0.6657361094053229
  0.5650756192286295  0.8319141154470699  0.3401411807420089
  0.4947176999942187  0.8733682449511875  0.9900072224189458
  0.3640507599536917  0.7878888292182324  0.6757377884955886
  0.4316726266828184  0.8298315182162028  0.3427739960644942
  0.5784334421158235  0.7466791847525585  0.0024817016813330
  0.4970334099307507  0.7887962313896040  0.6771810490504109
  0.4326265575287351  0.7482444627640774  0.9934541786756412
  0.4917951784138523  0.7086556959058399  0.3383087002514600
  0.0077322772301258  0.9878589320814370  0.7725523216358781
  0.9234821024371911  0.0426870951862171  0.4567617256171062
  0.8539507329281761  0.0909475424737209  0.1103514184413044
  0.7841864171998409  0.1185070070935623  0.7810551621043729
  0.7139882721831441  0.1763032921190160  0.4481862835448283
  0.6532274026429405  0.2206590526923833  0.0972302133152851
  0.5715798882432210  0.2405169404039711  0.7837236798343312
  0.5049072220534967  0.2914133572302475  0.4404014007360004
  0.4280430239382014  0.3384865584775696  0.0965165945754549
  0.3702718362055677  0.3847319179038138  0.7803171490427943
  0.2808977967888779  0.4308496637742962  0.4242183825869432
  0.2146409758572645  0.4649136845894830  0.0924530903597969
  0.0619291963267230  0.0402183429042253  0.4537455322124444
  0.9917901176901580  0.0900542708681229  0.0932820436850363
  0.9247347153923258  0.1290845328125272  0.7775870016181301
  0.8463462041615699  0.1829092570352415  0.4373530988762724
  0.7912448553467968  0.2154919207126298  0.1076452014146341
  0.7086354472863547  0.2514995919365504  0.7826897354065707
  0.6533577070429502  0.3056132136482859  0.4395252473139450
  0.5609147369473106  0.3447598736248949  0.0889132552208238
  0.5087724590109133  0.3688047663910510  0.7772600236668339
  0.4158707874599159  0.4235641849204725  0.4500945118042807
  0.3587261503405585  0.4634210284773843  0.1048053093497430
  0.2851318241440168  0.5074619560795526  0.7858087665903142
  0.1436038654962815  0.0846827223234641  0.1054628847541679
  0.0702931070247175  0.1145775834681970  0.7935452785111394
  0.9819250045191978  0.1644256238486719  0.4534702479190642
  0.9279632669393578  0.2181245066123196  0.1173374039095094
  0.8642173960158246  0.2582414572485590  0.7741295427549417
  0.7855252119006977  0.2996414158908038  0.4403663249617864
  0.7248139280683219  0.3465326261375097  0.0987463914799420
  0.6414771042942604  0.3562797777308688  0.7708261280967434
  0.5504116932337979  0.4202171898541209  0.4627678982684671
  0.5001435878100224  0.4581970051524848  0.1052464219599543
  0.4374076147822450  0.4966211708041115  0.7828810835645470
  0.3525865544406699  0.5480908542093417  0.4422850903418691
  0.2140131102598133  0.1143558015978599  0.7532129826936256
  0.1454001910419365  0.1604475035481130  0.4397200437477835
  0.0755081121769123  0.2087069620068860  0.0990990793242403
  0.0265494788256717  0.2558913334372193  0.7769673832458537
  0.9188082874630084  0.3019852339150972  0.4485105770135860
  0.8554031425202311  0.3350436101808043  0.0991067351869361
  0.7923194855773090  0.3700586810937097  0.7913353935731990
  0.6904643425917101  0.4268610319102280  0.4489771668825639
  0.6339548905566019  0.4739481467157347  0.1084095115577526
  0.5836223475034004  0.4970044836504570  0.7698884050435453
  0.4855205710889621  0.5353918168844061  0.4695172221051820
  0.4380309807474845  0.5784474930979044  0.1103198442829765
  0.2898816039495529  0.1564944894505658  0.4438577188397872
  0.2081667822649464  0.2128968026615112  0.0956528962738190
  0.1556002078967254  0.2491621158371657  0.7798292464712659
  0.0410332830814610  0.2904428699121553  0.4258428118710711
  0.9889186939047860  0.3233972219072569  0.0979334244745544
  0.9404468575072968  0.3647666301085479  0.7802030892392082
  0.8622669690435600  0.4133093884820980  0.4580354106061506
  0.7881854756934175  0.4716122049048437  0.1050439598022379
  0.7114927085536351  0.4998847025404842  0.7810840975001909
  0.6320950946779220  0.5352409630925976  0.4736447168720304
  0.5849928295018429  0.5923590683113886  0.0974446568084701
  0.5079490600154983  0.6206913399440666  0.7767730937663870
  0.3588897626451697  0.2056984641726274  0.1151976646929356
  0.3133564920715557  0.2427318720445300  0.7705609407567096
  0.2016520181049870  0.2870588105804970  0.4389568053357920
  0.1238070796654043  0.3433908846408187  0.0959558869012156
  0.0934845763074890  0.3746382546131528  0.7666366853879722
  0.0016908516836480  0.4268292850685924  0.4576416581128413
  0.9424396357252505  0.4437506984461308  0.1020959748450210
  0.8474975811566665  0.4913087188715650  0.7829732645441254
  0.7715903360286092  0.5417638337071011  0.4678841898367097
  0.7196832935637758  0.5878766584972297  0.0924470526273353
  0.6415770758381356  0.6368317096110658  0.7890108248878320
  0.5735002924597481  0.6607902719702210  0.4609672236740039
  0.4464467240068473  0.2461067727423796  0.7748148056674893
  0.3359289769223963  0.2997719285195117  0.4339418683352960
  0.2751991339319133  0.3310945457506946  0.1004974351963526
  0.2195112744522447  0.3631795544929517  0.7571797644074110
  0.1459175935778347  0.4157433080694233  0.4443315835712696
  0.0811911361879893  0.4458102023988317  0.1024822153592382
  0.9944278325177081  0.4880243480473538  0.7900354894956010
  0.9244883754489166  0.5538139610836481  0.4576049682425136
  0.8744114117758244  0.5834416414633239  0.1000196654370100
  0.7820044744465093  0.6219634382733048  0.7754451104228224
  0.7086038746081655  0.6652027840482333  0.4667197398441019
  0.6550501264988071  0.6954969223776999  0.1058535879012297
  0.1427734452328622  0.4823751452747231  0.7789936296767763
  0.0660139694508572  0.5479945790426299  0.4252702591249573
  0.0147153804090721  0.5815022132620982  0.0950376732990605
  0.9258469843474799  0.6205386017828829  0.7787230854740343
  0.8570569505713124  0.6652716557986977  0.4532750933450487
  0.7892126726882793  0.7032118387221047  0.1145372976776926
  0.7231849308971050  0.7334249219287443  0.7784044048104661
  0.2062221593997720  0.5460295645850195  0.4246281393295277
  0.1343820423578492  0.5729537944312284  0.1118668063667343
  0.0819575600297213  0.6129170061321645  0.7671167810414303
  0.0101667966929213  0.6648345370624114  0.4491585220778376
  0.9270581698327902  0.7128041651390404  0.1216405330416777
  0.8504550033705414  0.7412806192921906  0.7751296462973514
  0.7749077172848686  0.7999579074031260  0.4654341497196270
  0.2885546184803047  0.5966601962586964  0.0970043756751551
  0.2088448408431987  0.6262189829871758  0.7728019583409917
  0.1369920935769429  0.6689674548760536  0.4405317032501586
  0.0552812960163251  0.7142777568248277  0.1140743932011645
  0.0039946229295182  0.7502829580338215  0.7878558237000064
  0.9235220509175051  0.7877863204079176  0.4491106473865614
  0.8543930570178375  0.8474686844787698  0.1151239438450560
  0.3508333901905019  0.6174266959953698  0.7797065285503635
  0.2939016395608647  0.6754729933467587  0.4421532252786875
  0.1942269896859656  0.7152353267705251  0.1163244395935408
  0.1322394806497726  0.7413390035928913  0.7628046567188278
  0.0627989580258230  0.8071334476746230  0.4295872015311701
  0.9957508810229783  0.8389566782583202  0.1213159284974665
  0.9162642040099058  0.8701614490466625  0.7906826160817957
  0.4390960369593060  0.6766044763706347  0.4433387011031087
  0.3547861684276228  0.7095124243743740  0.0999749292908447
  0.2864454259426026  0.7513762747227304  0.7639238030990967
  0.2116415927266928  0.7865278028523832  0.4327733210217986
  0.1443103971916599  0.8300791988319958  0.1172292670901030
  0.0785412570623834  0.8688762220187911  0.7899113650116334
  0.0101830470543334  0.9135341848701373  0.4406654724178267
  0.9344836523518225  0.9617723526542648  0.1166706961545856
  0.8572361106664204  0.9904836987752645  0.8014164390377303
  0.7772411951102640  0.0399481149976495  0.4570119732672353
  0.7298183020011919  0.0858371151968456  0.1012306261402003
  0.6446068775365603  0.1092712055560199  0.7889700883472202
  0.5595806315675063  0.1682925736582916  0.4476068848976027
  0.4942500301687573  0.2167144755593498  0.1039197519464636
  0.0867777554119229  0.9558998155633347  0.1238506277538463
  0.1492032896533644  0.9929326305664148  0.7806730323581235
  0.2051789467861482  0.0418660254995302  0.4411721130270720
  0.2797621036279736  0.0833218842127010  0.1070183225233876
  0.3744092102701941  0.1170792279868991  0.7719604544211691
  0.4223429879458251  0.1688399009274733  0.4557911648296482
  0.8505382591984016  0.9198494825958292  0.4682517474461747
  0.7802512571561024  0.9614378147079563  0.1032073358225318
  0.7198485743089549  0.9843017886902317  0.7898600070821189
  0.6344985429965035  0.0427264697538732  0.4391805936431226
  0.5710048877338707  0.1009980016299750  0.1098480929819772
  0.5028676468686371  0.1264781305359577  0.7804926798657092
  0.1390969872320795  0.9167712117275713  0.4398851100642318
  0.2171567431061163  0.9442634619139625  0.1113622554314944
  0.2970172471644545  0.9800579065861257  0.7776400041237679
  0.3518312745648871  0.0388825360416831  0.4404886986378145
  0.4272555207315065  0.0967065518488539  0.1264340757607698
  0.7855021185976767  0.8604965915473883  0.7871334123721994
  0.7201781675323033  0.9144363434175489  0.4579992205184311
  0.6327128186296846  0.9587607385012191  0.1140813345764400
  0.5934353702109618  0.9843688301791502  0.7836067504269408
  0.4852424218912788  0.0401397747776642  0.4364560034424514
  0.2157335240250120  0.8628102232248267  0.7775733770512403
  0.2900081649720860  0.9139051213370948  0.4435984199697884
  0.3523713645068725  0.9549974480153551  0.1240391367880349
  0.4236016401827740  0.9990486306979491  0.7598385182230132
  0.7228752881240155  0.8414204217171033  0.1131031941263245
  0.6360363877286375  0.8532695802797576  0.8031116052658689
  0.5834067561459761  0.9154119291520075  0.4521862454448069
  0.4870282626073958  0.9660931851451693  0.1081552669914885
  0.3000013386412661  0.8282613991995049  0.1230090261186803
  0.3530753277472414  0.8672086046244374  0.7697166129531112
  0.4277279148556943  0.9115921084591676  0.4600901383703047
  0.6329430485985199  0.8054304958459326  0.4598986203310673
  0.5810033041575835  0.8287217583728292  0.1146379794439198
  0.4868042204724929  0.8641764970066532  0.7849758037983463
  0.3492734286555788  0.7960032102462478  0.4436002671483692
  0.4480808282122055  0.8345884735656313  0.1022091758293442
  0.5766495335586939  0.7501017167915052  0.7862093273329549
  0.4996458967654078  0.7851905734965641  0.4486524538653569
  0.4151331120776831  0.7346435609263438  0.7922488643953045
  0.4997780323172520  0.7117098540584763  0.1065901728844381
  0.0033340212027539  0.0036610555108609  0.2220174520500038
  0.9352935526156045  0.0448685363813297  0.8858206573822116
  0.8528146022790395  0.0763556165709787  0.5745640214794463
  0.8003480075746836  0.1349235369428996  0.2209082443959360
  0.7152560685847504  0.1705862259937589  0.8852423708073189
  0.6424344133288926  0.2112375732996057  0.5674301335293634
  0.5680600652227383  0.2624416185947780  0.2090213723178707
  0.5072086759998911  0.3008111275457779  0.8834538084331029
  0.4220100452495927  0.3301207337333523  0.5493539115272696
  0.3532968221907993  0.3793807747744893  0.2301754362452186
  0.2892158237988411  0.4093915187152319  0.8764641088853722
  0.2040198304481251  0.4597856498357302  0.5647025392542275
  0.0793417808643326  0.0325541509410598  0.8772502714066093
  0.9941980908817101  0.0807462876909923  0.5781790620223504
  0.9371819120612130  0.1189591252709121  0.2189725298861021
  0.8491328222167951  0.1704273893317634  0.8966333805474775
  0.7924937166691066  0.2208337604069541  0.5681350757742152
  0.7182231760960107  0.2574313888803204  0.2191361878465443
  0.6286011412987094  0.2781289277244454  0.8695609685473116
  0.5637269876996953  0.3260098402655558  0.5796273163691126
  0.5046175279171763  0.3849907253714449  0.2121199783054024
  0.4482735647135456  0.4290615720885498  0.8877435003608269
  0.3524084256947901  0.4620319426631738  0.5488615929393958
  0.2964014317466734  0.4999661311430543  0.2000239416038738
  0.1399310393420805  0.0822749669960885  0.5655363263513209
  0.0753198472304248  0.1322236132585530  0.2177103555852398
  0.0098491158481622  0.1600391841297153  0.8839624692398402
  0.9183661079738314  0.2141521161795481  0.5615236766966802
  0.8510531083321240  0.2523141655502243  0.2294220491535057
  0.7885798971941114  0.2915614150190535  0.8928290895888367
  0.7125215086408474  0.3212670780901945  0.5625774380650554
  0.6400373389135439  0.3790499151721889  0.2261714101937713
  0.5918484475544332  0.4128411285463400  0.8686732941276674
  0.4836920907767421  0.4651449502190204  0.5758802050229264
  0.4305649452209721  0.5067323202578535  0.2202196551275932
  0.3645965059306562  0.5390551405638249  0.8758938107639267
  0.2088088219889457  0.1314702494220725  0.2090408965606869
  0.1482487529936236  0.1605367039925696  0.8779937126003503
  0.0740491818996460  0.2150808089209306  0.5458629551271414
  0.0070494016715088  0.2555428467544516  0.2126055330192713
  0.9351056336831078  0.2883659031826440  0.8757093578129655
  0.8578349830489458  0.3408652876540117  0.5709750247650121
  0.7792786692777298  0.3756460640156831  0.2131021291187238
  0.7186221556345700  0.4056971130194924  0.8887006526309165
  0.6482775493872381  0.4500554344643604  0.5699963791534657
  0.5797728015900105  0.5146393060601469  0.2166957780696279
  0.5065855594142690  0.5451777574646357  0.8964194596969008
  0.4050808924823954  0.5921979695365707  0.5531825864982522
  0.2888122645968068  0.1639617555053832  0.8715902921150871
  0.2131900498211081  0.1989944415769571  0.5559901424044256
  0.1369085377051746  0.2607968541142398  0.2109515923566860
  0.1119366459104398  0.2915926013190173  0.8936849863512251
  0.9898827762833662  0.3466005853859073  0.5521924387149966
  0.9211462414417326  0.3760498529738001  0.2194815344894820
  0.8550093516226127  0.4136204687165161  0.8712463390363823
  0.7651596351970511  0.4357578579765260  0.5832575072726200
  0.7229455796012019  0.5058961361357177  0.2286769279730336
  0.6375170026353274  0.5572470345126490  0.8780461319515709
  0.5610990266238716  0.5739333641686315  0.5653347050834370
  0.5074123079551640  0.6267057140496988  0.2409457814313924
  0.3459425019098177  0.2114817265667739  0.5563187815165591
  0.2711191456869884  0.2520837032623078  0.2118013034688957
  0.2335348556060950  0.2968926183448417  0.8740400785308609
  0.1417547190628738  0.3365749195189451  0.5616750122144154
  0.0621213656462984  0.3763956087677869  0.2069161059987366
  0.0054622750495810  0.4198368308771592  0.8736167326319944
  0.9179278112706299  0.4749748841369339  0.5735377701179303
  0.8646047909646910  0.5091161849940562  0.2219897735065928
  0.7806867546892065  0.5449525987788206  0.8790863843978158
  0.7027918968346185  0.5868231838068070  0.5625904489975184
  0.6480291024969915  0.6286406147966304  0.2221035827465201
  0.5662895809412802  0.6703892294228524  0.9079847559581680
  0.4268467920792602  0.2408660255153805  0.2287502377889439
  0.3843301023489758  0.2976840063372279  0.8718941411135077
  0.2878854902394536  0.3472330165084117  0.5336210473471183
  0.1953993966189458  0.3858849940780757  0.1886933033613190
  0.1445259328049744  0.4117191312290771  0.9010406836488158
  0.0745525044863200  0.4696511979187434  0.5344994132597023
  0.0224166575002300  0.5080791011932035  0.2056556094434256
  0.9219468820021604  0.5317507363142511  0.8810047414353406
  0.8384986126329323  0.6011448151261618  0.5600810723586633
  0.8012676756832846  0.6290209695540412  0.2374597063160877
  0.7175447754484452  0.6600401672094378  0.8725542486003874
  0.6320214059747471  0.7139184318887715  0.5593913884991721
  0.1456183699472930  0.5123017334402533  0.2074897820230674
  0.0716133165013346  0.5297831170308029  0.8722932908107239
  0.9881916191612348  0.5800148896562263  0.5752763761951059
  0.9397304572524519  0.6352577384827782  0.2193794676754948
  0.8615730523120391  0.6627179941513646  0.8719261782991268
  0.7842841822228763  0.7182146342785600  0.5522566901392665
  0.7189214915696454  0.7799910753730899  0.2327839912683700
  0.2213572217960831  0.5293188698933804  0.8967285288461966
  0.1474136063874454  0.6032472197147527  0.5389740816774733
  0.0619276486460620  0.6289189349777189  0.2097216681533141
  0.0094880088540990  0.6641760781569275  0.8845130302065911
  0.9349328989268244  0.7080604740114396  0.5503226798208871
  0.8549021148717202  0.7539462516104649  0.2388235762919280
  0.7954447139364333  0.7773495252434017  0.8858117648377188
  0.2795108660834771  0.5688588407219797  0.5483007212109499
  0.2161778829911398  0.6319858165139038  0.2258386459701356
  0.1463533944377033  0.6641853864784153  0.8661661788370054
  0.0879711199123037  0.7131669546487700  0.5592014056665917
  0.9947287489777281  0.7650850846068309  0.2162716248985888
  0.9246633445485486  0.8026363474007425  0.8870742672469802
  0.8536554820833899  0.8283142419881955  0.5775574924808495
  0.3645658198528778  0.6237206709017613  0.2219839585471775
  0.2835838314943402  0.6623809143845776  0.8752181562280086
  0.2360696062497141  0.7034660734850391  0.5438764869092836
  0.1437108636973008  0.7516681368992337  0.2080057687911534
  0.0762852729609094  0.7860431627344440  0.9065447791767696
  0.0036426611803506  0.8314369645594581  0.5577982980497254
  0.9379652702838683  0.8706798366663904  0.2178139611917658
  0.4201584800107767  0.6542630750262148  0.8638628843059308
  0.3694607622317605  0.7181841706085166  0.5637339318771666
  0.2942954183677173  0.7339039098212297  0.2285045930693812
  0.2067185059772640  0.7866508078076748  0.8924985947816424
  0.1346418223593489  0.8339877481590463  0.5346942935135814
  0.0633607100118994  0.8718600732925808  0.2105561383613406
  0.9957265380297926  0.9087336024534451  0.8823557102964159
  0.9382554972874644  0.9514644799124881  0.5887433112054410
  0.8495265386518156  0.0098200892233393  0.2129545197828762
  0.7756596527918092  0.0364755120279199  0.8807455626924607
  0.6948493506811317  0.1039138900187311  0.5724431296700558
  0.6402027279139304  0.1331049446817900  0.2050448939250629
  0.5706334467973235  0.1635556917936043  0.8880242858487577
  0.5028665973316180  0.2109523901739010  0.5391534664293971
  0.0628572936601017  0.9673915845664709  0.5667531701457236
  0.1610458813094411  0.9892497497331263  0.2273275678292421
  0.2238427090554680  0.0335260095010597  0.8855353787814266
  0.2792493955131761  0.0799459304372832  0.5439287238286497
  0.3543357260538613  0.1316778838803856  0.2409741018480744
  0.4320910847510007  0.1653686227737552  0.9018808630326731
  0.8477139926901813  0.9046404592292134  0.8808799696992793
  0.7733645048997815  0.9776957827488602  0.5704493982438095
  0.7127899927466430  0.0102557967612924  0.2271981492355337
  0.6567283551338434  0.0407371410585000  0.8952195085545753
  0.5634619036055994  0.0808280746956882  0.5649091592446354
  0.5059896080694415  0.1270644368089506  0.2246220998041224
  0.1565193542843346  0.9036059793367883  0.9085209523211901
  0.2035611501686461  0.9652299129703437  0.5597823395204742
  0.2878582173620501  0.9975636985163732  0.2162499441946792
  0.3608020730739412  0.0370623128974259  0.8727643370372533
  0.4309391077625335  0.0808039679992021  0.5469161405128702
  0.7803890201085224  0.8854827258294478  0.2395648063398426
  0.6971230869972942  0.9052323084153997  0.8774202396267086
  0.6471380852965822  0.9692383763307006  0.5632932504695276
  0.5572503263102604  0.0200196283908767  0.2189172597569637
  0.5196657471821950  0.0417970238204362  0.8983032689816568
  0.2169024576023375  0.8642989354369277  0.2343689484842884
  0.2907483676973968  0.9044532808909764  0.9019897484053985
  0.3644859998486965  0.9575721758961535  0.5478397625248235