Li                                      
   1.00000000000000     
    20.6400000000000006    0.0000000000000000    0.0000000000000000
     0.0000000000000000   20.6400000000000006    0.0000000000000000
     0.0000000000000000    0.0000000000000000   20.6400000000000006
   Li
   432
Direct
  0.9942238570736421  0.0023630746124041  0.9931266245155044
  0.9269918716085286  0.0829768900193812  0.0902163822674424
  0.8519644573643390  0.1608697078488390  0.1789066250000033
  0.7567659927325607  0.2543482742248031  0.2517254714147299
  0.6592698105620158  0.3272246879844971  0.3439822703488389
  0.5796694355620176  0.4108372500000002  0.4327084437984468
  0.4923972742248068  0.5162427834302292  0.5012364302325594
  0.4037540998061999  0.5966811274224781  0.5916825687984471
  0.3258566836240320  0.6700624602713177  0.6745115295542661
  0.2490405329457346  0.7519501589147310  0.7587731157945754
  0.1732937722868186  0.8441495654069797  0.8403962994186074
  0.0750405281007787  0.9244829733527098  0.9191277199612387
  0.0936273420542619  0.9338266400193831  0.0774853309108536
  0.0089021613372111  0.9921406463178286  0.1620288982558122
  0.9321730813953479  0.0736182432170551  0.2531910382751903
  0.8524119190891497  0.1686349244186047  0.3273943042635636
  0.7667969738372094  0.2396004001938010  0.4270051468023226
  0.6876975406976769  0.3284366012596891  0.5211184685077512
  0.5837195838178317  0.4150321589147268  0.5863013226744158
  0.4884635024224835  0.5012377897286839  0.6632313890503880
  0.4003390116279064  0.5756482810077515  0.7583519341085250
  0.3300471375968996  0.6698651521317842  0.8367109801356563
  0.2525328008720962  0.7445763875969007  0.9344822625969016
  0.1618531656976714  0.8329290193798471  0.9897667713178322
  0.1697875164728657  0.8364316342054252  0.1551762635658918
  0.0890694103682179  0.9088047873062024  0.2452483028100758
  0.0034688575581399  0.9864270818798460  0.3371995276162778
  0.9252243197674446  0.0837089874030994  0.4139508730620136
  0.8391743008720951  0.1612199525193816  0.5003843875969025
  0.7648077747093041  0.2420592238372095  0.5893975208333302
  0.6646063149224801  0.3263084786821722  0.6639862747093019
  0.5741575062984481  0.4263228657945746  0.7511082093023234
  0.5076762422480599  0.5056807146317794  0.8410696589147264
  0.4082750964147266  0.5803717403100777  0.9087770508720894
  0.3504941182170569  0.6561061380813982  0.9904532553294558
  0.2531333425387601  0.7600275634689950  0.0756132296511609
  0.2374468628875945  0.7587294583333346  0.2508131632751969
  0.1598920697674444  0.8381346942829424  0.3437529297480637
  0.0830517756782925  0.9142859302325590  0.4276370048449607
  0.9964987470930211  0.9887718900193789  0.4909561710271291
  0.9277629704457340  0.0879955591085277  0.5851881114341069
  0.8415482286821714  0.1720972093023221  0.6607269084302345
  0.7443553565891463  0.2548736521317849  0.7515891245155046
  0.6679478095930236  0.3293585663759657  0.8377946792635669
  0.5886932122093000  0.4111133163759675  0.9104094200581372
  0.4978157311046516  0.4980485009689914  0.0017688260658915
  0.4106373512596875  0.5718808280038772  0.0919655886627879
  0.3173552718023274  0.6680960174418615  0.1702933057170526
  0.3214165726744156  0.6853773449612390  0.3361202858527150
  0.2295740179263532  0.7394819452519386  0.4207808798449619
  0.1629598197674440  0.8308731458333298  0.5181887843992214
  0.0777882664728651  0.9171155513565878  0.5840621705426372
  0.0088024064922507  0.0086061758720959  0.6685416875000030
  0.9161384142441875  0.0846915038759661  0.7465528444767457
  0.8328454491279089  0.1628346109496093  0.8282024249031039
  0.7573031642441848  0.2397769593023256  0.9159333435077528
  0.6756809486434108  0.3152820402131766  0.0051422034883686
  0.5958601661821703  0.4034436031976725  0.0751294651162766
  0.5036225058139507  0.4927727015503862  0.1651479001938014
  0.4233978934108507  0.5875852369186063  0.2520700000000033
  0.4151589200581398  0.5908391119186049  0.4118671724806191
  0.3337721686046535  0.6799026627906954  0.5072022727713161
  0.2234897102713163  0.7451287664728667  0.5886332170542659
  0.1820041104651153  0.8467715557170550  0.6603117296511627
  0.0828447378875978  0.9130884597868203  0.7583064554263572
  0.9866479200581395  0.0131164375000026  0.8349154849806197
  0.9361904210271348  0.0972731191860490  0.9171928657945756
  0.8425236216085281  0.1696609467054273  0.0009079161821717
  0.7577509854651154  0.2395186046511597  0.0864246623062002
  0.6723597524224800  0.3242079670542637  0.1723728779069802
  0.5894328895348835  0.4165698178294548  0.2706214447674427
  0.5161160809108551  0.5016631099806190  0.3352480465116301
  0.0934071075581429  0.0914367126937989  0.9105193905038789
  0.0001057030038751  0.1822568071705462  0.0057555130813967
  0.9192731845930240  0.2631521453488403  0.0969893992248032
  0.8318815731589169  0.3258147204457345  0.1638248745155053
  0.7369521264534882  0.4070165571705431  0.2605770319767444
  0.6729447814922480  0.4917942630813954  0.3362313875968965
  0.5772080537790671  0.5874592659883717  0.4143439796511643
  0.4928644069767429  0.6717560310077531  0.5128929132751949
  0.4229467107558165  0.7603840886627893  0.5970578168604632
  0.3073502611434122  0.8469154525193829  0.6566126172480651
  0.2444595973837238  0.9295843313953469  0.7406519946705430
  0.1723469563953515  0.0230754563953468  0.8199627931201547
  0.1570473561046484  0.9948235983527098  0.9817475809108558
  0.0806854389534877  0.0774205954457372  0.0787623386627914
  0.0079989457364320  0.1737468086240312  0.1655407378875964
  0.9304937984496107  0.2561550469961276  0.2558457257751954
  0.8309578779069753  0.3267216569767442  0.3226998875968974
  0.7443516468023290  0.4170554152131771  0.4248216608527144
  0.6615928154069763  0.5059281879844946  0.4967147412790709
  0.5732408197674417  0.5735958435077535  0.5979445823643417
  0.4910725537790697  0.6790199370155037  0.6857152902131816
  0.3960127475775224  0.7670828599806185  0.7544799641472864
  0.3308881269379853  0.8249754893410852  0.8361956051356572
  0.2492217737403095  0.9312899031007760  0.9080753997093041
  0.2661713473837182  0.9234104583333362  0.0658921070736440
  0.1710161046511658  0.0088000876937997  0.1778400285852726
  0.0793109355620132  0.0806346763565884  0.2435444210271314
  0.9931759142441834  0.1784516245155032  0.3336299418604654
  0.9266583115310070  0.2640721623061992  0.4366105847868198
  0.8218315944767411  0.3374672504844938  0.4998396346899199
  0.7449505552325562  0.4286888919573641  0.5833655566860472
  0.6584784796511656  0.4929623221899249  0.6569860261627909
  0.5733255542635689  0.5943472969961263  0.7389862892441883
  0.4920130654069794  0.6582162185077536  0.8304056584302302
  0.4259032049418607  0.7475280755813927  0.9208055532945707
  0.3344817248062029  0.8438160416666634  0.9880157558139544
  0.3383532645348808  0.8279372291666647  0.1772444907945712
  0.2613041845930226  0.9120191782945710  0.2521211729651185
  0.1596345707364364  0.9697086744186052  0.3319766153100758
  0.0811032693798452  0.0800208740310069  0.3973394694767407
  0.0089592984496107  0.1794749656007752  0.4956455523255840
  0.9190420033914748  0.2658571308139557  0.5748428968023234
  0.8245720489341082  0.3497561894379828  0.6689520125968969
  0.7539031908914708  0.4181869975775214  0.7493418948643438
  0.6733326991279043  0.5258690702519360  0.8417669844961253
  0.5784323246124004  0.5955543938953483  0.9228910261627874
  0.5028554704457378  0.6563368125000011  0.0191273730620125
  0.4087327272286814  0.7496099796511615  0.0715264064922465
  0.4121250649224777  0.7469595387596897  0.2442235843023255
  0.3317057093023266  0.8218379457364335  0.3310796046511655
  0.2433904723837230  0.9043301424418573  0.4146238929263575
  0.1536961526162770  0.0052644670542605  0.4924428900193831
  0.0806632044573661  0.0713398507751961  0.5611048948643429
  0.0126284215116286  0.1759388682170524  0.6616701288759685
  0.9095527713178271  0.2680459559108499  0.7329442156007744
  0.8292280077519365  0.3362177325581399  0.8312275867248076
  0.7385927955426368  0.4164033701550380  0.9227106724806191
  0.6621951472868233  0.4985743633720929  0.9898801162790676
  0.5793392655038758  0.5742812441860465  0.0895479205426355
  0.4915840310077542  0.6521876245155056  0.1641420484496123
  0.4981698313953515  0.6779713997092998  0.3194318086240315
  0.4217463740310095  0.7423996468023262  0.4179468008720946
  0.3304710184108544  0.8221556361434139  0.4952671850775161
  0.2498507398255825  0.9225635159883723  0.5738999050387577
  0.1697541400193785  0.0113228115310093  0.6555279249030974
  0.0824239820736423  0.0874543095930207  0.7514098454457354
  0.9939633226744178  0.2025770692829454  0.8115763439922503
  0.9123202708333338  0.2582302175387596  0.9150483909883746
  0.8292089685077499  0.3350454791666664  0.0082313197674395
  0.7469905954457374  0.4225518783914737  0.0816142025193827
  0.6674870562015514  0.5052573672480634  0.1724823202519374
  0.5890957267441834  0.5801451167635676  0.2458788415697697
  0.1736061564922480  0.1763739055232563  0.8293089656007737
  0.0990467906976775  0.2628812170542645  0.9153885668604644
  0.9955409118217062  0.3438398154069802  0.9935613648255810
  0.9144583643410868  0.4124743842054244  0.0703633551356617
  0.8349442209302325  0.4933701719961263  0.1732273774224780
  0.7672281424418586  0.5851280610465110  0.2538155155038737
  0.6716898468992269  0.6599873425387628  0.3189356497093030
  0.5846656584302323  0.7493135687984491  0.4157657921511628
  0.5035601007751964  0.8296200358527130  0.5103050247093037
  0.4085937441860494  0.9168302281976750  0.5973811133720943
  0.3256346971899191  0.0116572601744167  0.6601252107558153
  0.2465366235465112  0.0959060760658943  0.7411235741279043
  0.2383913280038783  0.0837635135658914  0.9130186913759673
  0.1745174297480645  0.1707579457364332  0.9913002068798420
  0.0807359515503876  0.2456369006782921  0.0617656351744174
  0.9990115281007732  0.3510805363372071  0.1586738522286808
  0.9209291996124023  0.4140005363372126  0.2436842049418573
  0.8250597034883711  0.4997405436046520  0.3283702340116292
  0.7501813648255791  0.5716671797480615  0.4083063851744200
  0.6590945954457368  0.6505208478682150  0.4976187790697679
  0.5896857286821700  0.7424942514534862  0.5782642906976747
  0.5061442504844962  0.8258441017441882  0.6629417790697687
  0.4167232495155062  0.9064242902131809  0.7492881332364334
  0.3307483372093003  0.0112055382751919  0.8284163231589119
  0.3441563779069767  0.0072187650193811  0.9884103561046516
  0.2489297112403079  0.0676593948643429  0.0756293158914758
  0.1616632577519397  0.1633592940891475  0.1573222480620160
  0.0892574631782921  0.2684050668604669  0.2537086080426363
  0.9962244326550405  0.3435282146317817  0.3336371124031032
  0.9110230809108515  0.4162771942829480  0.4085967437015512
  0.8277121608527125  0.4855167543604679  0.5005873299418582
  0.7601967567829462  0.5851386361434123  0.5935735029069775
  0.6610611845930237  0.6573388832364344  0.6689495101744214
  0.5957969176356599  0.7613516099806219  0.7741433977713186
  0.4831709786821676  0.8331198866279053  0.8298252999030993
  0.4205437151162812  0.9277974365310087  0.9061143473837205
  0.4112078570736415  0.9350519699612434  0.0891427669573659
  0.3254698333333366  0.0199166545542653  0.1842124132751906
  0.2305388255813980  0.0915141434108548  0.2523890440891492
  0.1564383648255827  0.1654688982558170  0.3338538556201556
  0.0766692466085246  0.2563053745155059  0.4192309074612410
  0.0075637819767422  0.3555232068798446  0.5030018846899225
  0.9034749767441852  0.4302860043604682  0.5745662272286793
  0.8366473037790669  0.4817616758720931  0.6776356201550371
  0.7369072495155038  0.5903516710271290  0.7476000106589140
  0.6505328391472887  0.6635940930232564  0.8490351710271327
  0.5668876414728672  0.7549793071705437  0.9244894951550364
  0.4896754704457393  0.8361444656007748  0.0114548682170579
  0.4803162480620173  0.8381133827519349  0.1720939118217046
  0.4131305697674392  0.9256195334302291  0.2688529791666667
  0.3176986715116286  0.0113484026162780  0.3307966312984476
  0.2402139840116249  0.0868355179263531  0.4037278832364350
  0.1511571249999974  0.1653686201550357  0.4776559626937953
  0.0965618406007778  0.2596539748061986  0.5728052848837208
  0.0024009840116292  0.3298587669573649  0.6680015431201554
  0.9227459505813940  0.4157322916666644  0.7383631235465131
  0.8347832281976721  0.4950197761627919  0.8410614389534885
  0.7558470547480596  0.5936253919573673  0.9229204874031041
  0.6693101206395369  0.6842503464147285  0.0178663977713143
  0.5766493880813925  0.7585847776162780  0.0876912388565927
  0.5778933241279063  0.7644221710271353  0.2515361501938003
  0.5013342243217025  0.8350066385658934  0.3391651274224827
  0.3989095906007734  0.9081169559108559  0.4191616521317840
  0.3305061729651158  0.9964918803294580  0.4843332475775171
  0.2435198997093053  0.0884591448643377  0.5542857684108498
  0.1608426579457358  0.1642148861434123  0.6500429689922456
  0.0879196351744156  0.2500244176356574  0.7303721453488379
  0.0005026206395371  0.3289141967054263  0.8266531468023288
  0.9180718415697697  0.4036006739341076  0.8921934016472903
  0.8356186385658901  0.4878346816860457  0.9897908619186069
  0.7600116792635632  0.5858675271317821  0.0837572572674432
  0.6642105000000029  0.6650295867248062  0.1672569728682163
  0.2544029854651129  0.2445624001938000  0.7303706264534853
  0.1816780489341099  0.3460269685077506  0.8200529166666684
  0.0873853517441887  0.4022768619186081  0.9282205954457368
  0.9987051845930210  0.4947316206395342  0.0005705096899220
  0.9070901492248069  0.5754332945736422  0.0784737412790690
  0.8259855266472869  0.6767700484496117  0.1547693396317840
  0.7478147592054256  0.7428090062984509  0.2418589413759662
  0.6507054118217042  0.8243493725775224  0.3188142010658908
  0.5934337407945733  0.9108207640503849  0.3982705397286850
  0.5022601700581362  0.9841656894379867  0.4823750804263582
  0.4218205014534888  0.0632992592054293  0.5659834011627893
  0.3233584709302306  0.1597508289728680  0.6608962713178315
  0.3214225092054264  0.1682502262596870  0.8343511424418608
  0.2492633565891467  0.2503261346899208  0.9266655130813959
  0.1639470867248036  0.3243988725775182  0.0069045261627920
  0.0868896870155069  0.4280510319767430  0.0793610494186012
  0.0017460707364307  0.5008616705426334  0.1522703488372059
  0.8949520203488390  0.5881253284883741  0.2433103604651166
  0.8215428149224806  0.6821884752907010  0.3361562417635682
  0.7525206719961233  0.7466765576550358  0.4028538793604639
  0.6590979307170528  0.8311060537790667  0.4944226516472838
  0.5735212204457341  0.9226976303294592  0.5930633502906986
  0.4877096593992221  0.0034249108527149  0.6718839932170511
  0.4259982039728669  0.1079489898255801  0.7434416308139546
  0.4136839379844943  0.0860067795542605  0.9009331841085242
  0.3381576322674391  0.1532557354651161  0.0036046254844990
  0.2535503754844939  0.2369696792635665  0.0863678483527153
  0.1686828599806205  0.3280999355620153  0.1621248924418595
  0.0789095029069742  0.4345734946705448  0.2458587562984462
  0.9853024394379872  0.5015291070736438  0.3338978730620141
  0.9073983633720957  0.5885664229651155  0.4114656031976764
  0.8306239457364342  0.6536809854651153  0.4738790247093050
  0.7528953120155037  0.7485889937015529  0.5689925891472853
  0.6594305043604649  0.8214681119186054  0.6747888561046480
  0.5761800382751971  0.9061844922480589  0.7451837223837217
  0.5096284476744160  0.0019214699612391  0.8279425547480628
  0.4994851613372120  0.0061122500000010  0.9921020760658905
  0.4181610624999976  0.0823156603682165  0.0961684675387602
  0.3345768464147270  0.1566100983527150  0.1876390901162779
  0.2401167621124003  0.2598991555232573  0.2383092621124021
  0.1585960353682196  0.3425640523255780  0.3385255673449592
  0.0737228158914718  0.4308157718023224  0.4176290901162787
  0.9905868725775164  0.4970813028100807  0.5054683779069791
  0.8915209593023263  0.5752841695736421  0.5977410765503848
  0.8323861807170516  0.6725941153100763  0.6754914927325615
  0.7340019728682137  0.7501574990310047  0.7566386855620166
  0.6624097940891502  0.8459380198643416  0.8431414350775199
  0.5968024757751920  0.9319581676356563  0.9321587592054286
  0.5669764108527104  0.9177158338178302  0.0799406550387616
  0.5036850557170567  0.9893812461240330  0.1730614781976740
  0.4224354699612434  0.0797439210271307  0.2659834534883743
  0.3162623779069733  0.1788392117248065  0.3179716090116287
  0.2376480910852692  0.2636250964147280  0.4093571443798467
  0.1714888299418575  0.3416426623061994  0.5006983100775173
  0.0839756380813981  0.4401332374031028  0.5881797378876001
  0.9767946971899235  0.5018658633720960  0.6804533367248027
  0.9068715251938002  0.5769181405038779  0.7475824370155024
  0.8364307480620141  0.6722484709302350  0.8426869186046488
  0.7527524016472853  0.7407280654069766  0.9283386346899221
  0.6714202068798443  0.8285496138565875  0.0179463217054234
  0.6506115673449600  0.8333141065891496  0.1549907616279071
  0.5833105789728705  0.9327588948643424  0.2444877403100776
  0.4967983783914747  0.0054809031007750  0.3476702877906988
  0.4250684723837210  0.0816738551356622  0.4140576942829455
  0.3305014001937963  0.1630585993217082  0.4799810910852713
  0.2516181487403131  0.2351215421511625  0.5707230484496151
  0.1624404394379866  0.3402951550387598  0.6524933498061998
  0.0773325644379810  0.4226477456395372  0.7539301787790720
  0.0132834467054295  0.4909721342054283  0.8356879534883745
  0.9205853764534879  0.5835102291666701  0.9074193653100764
  0.8377653822674418  0.6774936666666633  0.0035973362403112
  0.7475483047480651  0.7487797538759722  0.0925360576550389
  0.3459268057170561  0.3187396623062000  0.6739678953488379
  0.2671929922480629  0.4100532320736434  0.7455197902131800
  0.1693488890503900  0.5024087902131811  0.8230769190891465
  0.0856993401162782  0.5837254389534863  0.9347606007751921
  0.9945144345930217  0.6653656967054289  0.0110818594961231
  0.9270773066860443  0.7336455707364351  0.0860240416666684
  0.8355743125000004  0.8265758052325580  0.1683284127907001
  0.7644161652131771  0.8994521390503891  0.2492913929263594
  0.6577163081395341  0.0002399568798452  0.3226586739341073
  0.5930259273255842  0.0789709718992242  0.4271507727713200
  0.5010884500969013  0.1711679079457369  0.5157953265503892
  0.4081138473837242  0.2416316061046544  0.5929924864341061
  0.4330752417635679  0.2321161627906960  0.7654374752906961
  0.3347176458333365  0.3230012679263581  0.8474255455426345
  0.2532312499999989  0.4211905096899216  0.9235899762596915
  0.1726693435077493  0.5011574055232586  0.9859743454457330
  0.0782735818798415  0.5799021778100766  0.0637838837209301
  0.0035568226744189  0.6555665513565856  0.1594568716085263
  0.9088922940891493  0.7483473187984515  0.2573976046511603
  0.8414036555232585  0.8233513701550379  0.3344914060077500
  0.7595177214147313  0.9146827427325590  0.4038169970930241
  0.6752005649224770  0.9870852868217028  0.4916655872093045
  0.5825696395348814  0.0749632776162770  0.5815926598837180
  0.5032237766472889  0.1686395939922463  0.6485319268410876
  0.5127642354651130  0.1623206773255816  0.8366649016472891
  0.4212665159883713  0.2429813769379834  0.9199028905038773
  0.3351155363372058  0.3200750571705413  0.9910020445736407
  0.2419320721899254  0.4097615843023235  0.0775777863372085
  0.1723934142441834  0.5098822146317801  0.1580241114341092
  0.0729155876937995  0.6010201802325597  0.2480177655038744
  0.9859934127906982  0.6517419156976771  0.3325120077519372
  0.9293996337209336  0.7449962000968995  0.4165869147286827
  0.8511078309108555  0.8233972698643441  0.5020269350775166
  0.7681306065891462  0.9069414171511596  0.5841687630813936
  0.6584142877906984  0.9821784549418595  0.6672998144379818
  0.5884654132751947  0.0863894578488384  0.7456558871124059
  0.5951484040697679  0.0835046259689918  0.9183974617248083
  0.5028123701550413  0.1447848420542641  0.9992092645348833
  0.4112960479651164  0.2462430053294540  0.0857546860465135
  0.3257145227713210  0.3378837189922450  0.1735091879844930
  0.2424119525193831  0.4293876807170562  0.2416170571705436
  0.1668183439922473  0.4906800295542624  0.3301971986434111
  0.0840578546511637  0.5726361124031030  0.4274045639534876
  0.9841338953488403  0.6526237984496106  0.5096167194767460
  0.9067852078488343  0.7312288720930198  0.5843696366279048
  0.8435616531007781  0.8109683992248051  0.6776348522286852
  0.7596052635658879  0.9150431937984465  0.7361931763565863
  0.6727647146317821  0.9936733052325550  0.8276696468023275
  0.6662449520348872  0.9985533105620163  0.0181001598837227
  0.5880153270348814  0.0823943982558148  0.0944831676356586
  0.4902425188953501  0.1779319224806173  0.1757041143410873
  0.4165021400193822  0.2383166579457381  0.2465397238372091
  0.3302894108527141  0.3262580775193769  0.3305218997093036
  0.2629265155038780  0.4366808735465142  0.4145115925387586
  0.1710247340116311  0.4885586763565897  0.4980354069767472
  0.0714913313953502  0.5717034350775165  0.5870770363372060
  0.9998513192829463  0.6582113028100807  0.6691930455426345
  0.9213592553294561  0.7279882470930232  0.7609250973837192
  0.8366787364341093  0.8307620828488353  0.8307895542635677
  0.7510361981589142  0.9229868929263532  0.9233417344961268
  0.7588488343023272  0.9115299127906979  0.0922234229651195
  0.6730440494186070  0.9866855353682169  0.1551650741279076
  0.5782441787790731  0.0814495188953472  0.2492494307170574
  0.5217397679263556  0.1642613168604683  0.3455059912790688
  0.4232670213178267  0.2331569980620145  0.4164412301356606
  0.3388502000968998  0.3354246143410862  0.4994240281007762
  0.2687472165697642  0.4220269123062010  0.5856441240310062
  0.1724322950581367  0.4969779491279098  0.6781479651162812
  0.0794410721899226  0.5829115019379856  0.7417655731589150
  0.0183292441860488  0.6747224423449580  0.8459280421511650
  0.9238743435077552  0.7529137742248082  0.9139111061046492
  0.8346435755813957  0.8310802630813967  0.9957684215116274
  0.4203391061046489  0.4207597451550384  0.5932446240310085
  0.3422214108527157  0.5100295067829421  0.6553363275193789
  0.2634303614341107  0.5736549476744202  0.7639979970930213
  0.1656017611434137  0.6649061521317847  0.8360068105620186
  0.0923189530038755  0.7627532669573611  0.9148720353682194
  0.9856480271317807  0.8346670547480599  0.0171283507751951
  0.8985597611434102  0.9381543071705423  0.0815118444767435
  0.8384988168604650  0.9921652093023283  0.1687800712209295
  0.7583857403100751  0.0816251904069745  0.2480327194767469
  0.6783376734496116  0.1748197393410820  0.3338103265503847
  0.5910323241279087  0.2383853614341120  0.4364221056201529
  0.5017799525193780  0.3272019336240319  0.5037208779069786
  0.5082934699612380  0.3340434757751964  0.6671765692829439
  0.4168086865310059  0.4139236458333357  0.7451249927325563
  0.3333730373062025  0.4793024190891444  0.8381209074612386
  0.2584646908914721  0.5832417911821679  0.9196032291666683
  0.1786696574612421  0.6757499922480648  0.9979272151162775
  0.0750955852713204  0.7627971119186014  0.0726109001938013
  0.9896546245155022  0.8544829801356570  0.1627892359496101
  0.9128952000968980  0.9256698783914743  0.2461095595930232
  0.8340058992248061  0.0078512340116248  0.3374946453488405
  0.7545644079457361  0.0745203580426335  0.4176216472868219
  0.6767064268410863  0.1606932504844991  0.5177398013565906
  0.5817914786821703  0.2608565625000026  0.5874699491279074
  0.5883948929263596  0.2421217044573609  0.7534651715116283
  0.4985557727713186  0.3260397073643375  0.8316332640503887
  0.4384670251938019  0.4173756322674436  0.9212320920542609
  0.3518130775193811  0.4913920726744152  0.0119187776162804
  0.2555150712209269  0.5828037272286792  0.0658522238372115
  0.1698569990310048  0.6654113866279090  0.1652860615310061
  0.0855574563953496  0.7533665053294598  0.2494980775193767
  0.9959236187015534  0.8394327170542653  0.3326216511627891
  0.9098325324612375  0.9078439379844951  0.4153386027131774
  0.8373630363372087  0.9879538958333356  0.4975532655038748
  0.7524465973837238  0.0755893779069794  0.6007754869186073
  0.6682196899224806  0.1742563100775172  0.6716705557170570
  0.6735636782945704  0.1489103934108513  0.8250213449612431
  0.5891030377907001  0.2422882354651179  0.8946662252906989
  0.5099451729651179  0.3146190620155025  0.0077529811046517
  0.4119139530038751  0.3979093212209293  0.0748892107558135
  0.3339825358527122  0.4972176075581416  0.1724820494186048
  0.2440666962209335  0.5776724641472839  0.2534022083333340
  0.1539491976744216  0.6655008066860475  0.3199330169573642
  0.0817407882751908  0.7539283958333343  0.4198026550387581
  0.9950398594961243  0.8164786555232553  0.5171019093992228
  0.9173591472868239  0.9143417228682154  0.6036440440891440
  0.8476961681201516  0.0093974893410831  0.6680112461240313
  0.7509150954457340  0.0812990968992224  0.7362360765503908
  0.7421049035852718  0.0860711065891451  0.9180600004844948
  0.6615322262596877  0.1722208401162817  0.0002701967054293
  0.5905339781976764  0.2301602684108559  0.0858448536821683
  0.5061480164728707  0.3396051225775167  0.1722338023255787
  0.4083023643410826  0.4076957466085247  0.2674458352713174
  0.3331417136627906  0.4975070227713161  0.3384834244186052
  0.2513603662790729  0.5939136279069785  0.4208816928294539
  0.1599104714147259  0.6502843124999984  0.5104319345930222
  0.0801098740310096  0.7428242916666647  0.5989789951550364
  0.9982920348837183  0.8259878386627904  0.6729988977713148
  0.9078468076550408  0.9241001686046530  0.7433685256782923
  0.8296777466085246  0.0089304239341104  0.8327357461240297
  0.8527574195736420  0.0121689752906988  0.9949933527131805
  0.7591901923449598  0.0985657596899259  0.0881826715116247
  0.6763394186046483  0.1579162519379835  0.1843767160852678
  0.5842890746123999  0.2459445789728676  0.2580006831395352
  0.5228320019379851  0.3362655038759712  0.3439768963178267
  0.4229575174418585  0.4215116957364344  0.4108303265503892
  0.3301684142441843  0.5048144069767417  0.4998074394379870
  0.2446750702519367  0.5871992635658927  0.5888512315891461
  0.1733644946705439  0.6607088749999974  0.6705598028100752
  0.1070048561046519  0.7481721492248070  0.7441639840116281
  0.9995880188953521  0.8375465983527164  0.8134815896317846
  0.9092919404069733  0.9144088720930199  0.9005931114341053
 
  0.00000000E+00  0.00000000E+00  0.00000000E+00
  0.00000000E+00  0.00000000E+00  0.00000000E+00
  0.00000000E+00  0.00000000E+00  0.00000000E+00
  0.00000000E+00  0.00000000E+00  0.00000000E+00
  0.00000000E+00  0.00000000E+00  0.00000000E+00
  0.00000000E+00  0.00000000E+00  0.00000000E+00
  0.00000000E+00  0.00000000E+00  0.00000000E+00
  0.00000000E+00  0.00000000E+00  0.00000000E+00
  0.00000000E+00  0.00000000E+00  0.00000000E+00
  0.00000000E+00  0.00000000E+00  0.00000000E+00
  0.00000000E+00  0.00000000E+00  0.00000000E+00
  0.00000000E+00  0.00000000E+00  0.00000000E+00
  0.00000000E+00  0.00000000E+00  0.00000000E+00
  0.00000000E+00  0.00000000E+00  0.00000000E+00
  0.00000000E+00  0.00000000E+00  0.00000000E+00
  0.00000000E+00  0.00000000E+00  0.00000000E+00
  0.00000000E+00  0.00000000E+00  0.00000000E+00
  0.00000000E+00  0.00000000E+00  0.00000000E+00
  0.00000000E+00  0.00000000E+00  0.00000000E+00
  0.00000000E+00  0.00000000E+00  0.00000000E+00
  0.00000000E+00  0.00000000E+00  0.00000000E+00
  0.00000000E+00  0.00000000E+00  0.00000000E+00
  0.00000000E+00  0.00000000E+00  0.00000000E+00
  0.00000000E+00  0.00000000E+00  0.00000000E+00
  0.00000000E+00  0.00000000E+00  0.00000000E+00
  0.00000000E+00  0.00000000E+00  0.00000000E+00
  0.00000000E+00  0.00000000E+00  0.00000000E+00
  0.00000000E+00  0.00000000E+00  0.00000000E+00
  0.00000000E+00  0.00000000E+00  0.00000000E+00
  0.00000000E+00  0.00000000E+00  0.00000000E+00
  0.00000000E+00  0.00000000E+00  0.00000000E+00
  0.00000000E+00  0.00000000E+00  0.00000000E+00
  0.00000000E+00  0.00000000E+00  0.00000000E+00
  0.00000000E+00  0.00000000E+00  0.00000000E+00
  0.00000000E+00  0.00000000E+00  0.00000000E+00
  0.00000000E+00  0.00000000E+00  0.00000000E+00
  0.00000000E+00  0.00000000E+00  0.00000000E+00
  0.00000000E+00  0.00000000E+00  0.00000000E+00
  0.00000000E+00  0.00000000E+00  0.00000000E+00
  0.00000000E+00  0.00000000E+00  0.00000000E+00
  0.00000000E+00  0.00000000E+00  0.00000000E+00
  0.00000000E+00  0.00000000E+00  0.00000000E+00
  0.00000000E+00  0.00000000E+00  0.00000000E+00
  0.00000000E+00  0.00000000E+00  0.00000000E+00
  0.00000000E+00  0.00000000E+00  0.00000000E+00
  0.00000000E+00  0.00000000E+00  0.00000000E+00
  0.00000000E+00  0.00000000E+00  0.00000000E+00
  0.00000000E+00  0.00000000E+00  0.00000000E+00
  0.00000000E+00  0.00000000E+00  0.00000000E+00
  0.00000000E+00  0.00000000E+00  0.00000000E+00
  0.00000000E+00  0.00000000E+00  0.00000000E+00
  0.00000000E+00  0.00000000E+00  0.00000000E+00
  0.00000000E+00  0.00000000E+00  0.00000000E+00
  0.00000000E+00  0.00000000E+00  0.00000000E+00
  0.00000000E+00  0.00000000E+00  0.00000000E+00
  0.00000000E+00  0.00000000E+00  0.00000000E+00
  0.00000000E+00  0.00000000E+00  0.00000000E+00
  0.00000000E+00  0.00000000E+00  0.00000000E+00
  0.00000000E+00  0.00000000E+00  0.00000000E+00
  0.00000000E+00  0.00000000E+00  0.00000000E+00
  0.00000000E+00  0.00000000E+00  0.00000000E+00
  0.00000000E+00  0.00000000E+00  0.00000000E+00
  0.00000000E+00  0.00000000E+00  0.00000000E+00
  0.00000000E+00  0.00000000E+00  0.00000000E+00
  0.00000000E+00  0.00000000E+00  0.00000000E+00
  0.00000000E+00  0.00000000E+00  0.00000000E+00
  0.00000000E+00  0.00000000E+00  0.00000000E+00
  0.00000000E+00  0.00000000E+00  0.00000000E+00