Li 
 1.0000000000000000
    20.6400000000000006    0.0000000000000000    0.0000000000000000
     0.0000000000000000   20.6400000000000006    0.0000000000000000
     0.0000000000000000    0.0000000000000000   20.6400000000000006
 Li 
 432
Cartesian
 -0.1192195900000000  0.0487738600000000 -0.1418664700000000
 19.1331122299999983  1.7126430100000001  1.8620661300000001
 17.5845464000000007  3.3203507700000001  3.6926327400000001
 15.6196500900000004  5.2497483799999998  5.1956137299999998
 13.6073288899999998  6.7539175599999997  7.0997940599999998
 11.9643771500000007  8.4796808400000003  8.9311022799999993
 10.1630797400000006 10.6552510500000004 10.3455199199999992
  8.3334846200000001 12.3154984699999996 12.2123282199999998
  6.7256819500000002 13.8300891799999999 13.9219179700000009
  5.1401966000000003 15.5202512800000001 15.6610771100000008
  3.5767834600000001 17.4232470299999989 17.3457796199999983
  1.5488364999999999 19.0813285700000002 18.9707961400000009
  1.9324683400000000 19.2741818500000015  1.5992972299999999
  0.1837406100000000 -0.1622170600000000  3.3442764600000001
 19.2400523999999997  1.5194805400000000  5.2258630300000002
 17.5937820100000017  3.4806248399999999  6.7574184400000004
 15.8266895400000003  4.9453522599999999  8.8133862300000008
 14.1940772400000004  6.7789314500000000 10.7558851900000008
 12.0479722099999993  8.5662637600000000 12.1012593000000006
 10.0818866899999993 10.3455479799999992 13.6890958699999992
  8.2629971999999992 11.8813805200000004 15.6523839200000001
  6.8121729200000001 13.8260167400000000 17.2697146299999993
  5.2122770100000002 15.3680566400000007 19.2877139000000000
  3.3406493400000001 17.1916549600000010 -0.2112138400000000
  3.5044143399999999 17.2639489300000015  3.2028380799999998
  1.8383926300000000 18.7577308100000018  5.0619249699999997
  0.0715972200000000 -0.2801450300000000  6.9597982500000004
 19.0966299600000013  1.7277534999999999  8.5439460199999999
 17.3205575699999983  3.3275798200000000 10.3279337600000005
 15.7856324699999995  4.9961023800000000 12.1651648300000002
 13.7174743400000008  6.7350070000000004 13.7046767099999993
 11.8506109300000002  8.7993039500000005 15.5028734400000001
 10.4784376399999992 10.4372499500000000 17.3596777600000003
  8.4267979900000007 11.9788727200000000 18.7571583299999993
  7.2341986000000000 13.5420306900000007 20.4429551899999993
  5.2246721899999997 15.6869689099999992  1.5606570600000000
  4.9009032499999998 15.6601760199999998  5.1767836899999997
  3.3001723200000002 17.2991000899999996  7.0950604700000000
  1.7141886500000001 18.8708616000000013  8.8264277799999995
 -0.0722658600000000 -0.2317481900000000 10.1333353699999993
 19.1490277099999986  1.8162283400000001 12.0782826199999995
 17.3695554399999992  3.5520863999999999 13.6374033899999993
 15.3634945599999995  5.2605921799999997 15.5127995300000006
 13.7864427900000006  6.7979608100000002 17.2920821800000013
 12.1506278999999999  8.4853788500000000 18.7908504299999990
 10.2749166899999995 10.2797210600000000  0.0365085700000000
  8.4755549299999995 11.8036202899999996  1.8981697500000001
  6.5502128099999997 13.7895018000000000  3.5148538299999998
  6.6340380600000000 14.1461883999999998  6.9375226999999997
  4.7384077299999996 15.2629073500000008  8.6849173600000000
  3.3634906800000000 17.1492217300000007 10.6954165099999994
  1.6055498200000000 18.9292649799999992 12.0550432000000001
  0.1816816700000000  0.1776314700000000 13.7987004300000002
 18.9090968699999991  1.7480326399999999 15.4088507099999994
 17.1899300699999991  3.3609063699999999 17.0940980499999995
 15.6307373100000007  4.9489964400000002 18.9048642099999995
 13.9460547800000008  6.5074213099999998  0.1061350800000000
 12.2985538299999995  8.3270759699999992  1.5506721600000000
 10.3947685199999995 10.1708285600000004  3.4086526600000000
  8.7389325200000005 12.1277592900000002  5.2027248000000004
  8.5688801100000003 12.1949192699999998  8.5009384400000005
  6.8890575600000004 14.0331909600000007 10.4686549099999997
  4.6128276200000000 15.3794577399999994 12.1493895999999992
  3.7565648399999998 17.4773649099999986 13.6288341000000006
  1.7099153899999999 18.8461458099999994 15.6514452399999993
 -0.2755869300000000  0.2707232700000000 17.2326556099999983
 19.3229702900000007  2.0077171800000002 18.9308607500000008
 17.3896875500000014  3.5018019400000000 20.6587393900000009
 15.6399803399999993  4.9436640000000001  1.7838050299999999
 13.8775052900000002  6.6916524400000004  3.5577762000000002
 12.1658948400000000  8.5980010399999998  5.5856266200000002
 10.6526359100000008 10.3543265899999994  6.9195196799999996
  1.9279227000000001  1.8872537500000000 18.7931202199999987
  0.0021817100000000  3.7617805000000000  0.1187937900000000
 18.9737985299999998  5.4314602799999996  2.0018612000000000
 17.1700356700000007  6.7248158299999998  3.3813454100000002
 15.2106918899999997  8.4008217399999996  5.3783099400000003
 13.8895802899999996 10.1506335900000000  6.9398158399999996
 11.9135742300000000 12.1251592499999994  8.5520597400000007
 10.1727213600000006 13.8650444799999999 10.5861097300000004
  8.7296201100000008 15.6943275900000003 12.3232733400000001
  6.3437093899999999 17.4803349399999988 13.5524844200000008
  5.0456460900000000 19.1866206000000012 15.2870571700000006
  3.5572411800000001  0.4762774200000000 16.9240320500000010
  3.2414574300000001 -0.1068409300000000 -0.3767299300000000
  1.6653474600000000  1.5979610900000001  1.6256546700000001
  0.1650982400000000  3.5861341300000000  3.4167608299999999
 19.2053919999999998  5.2870401700000000  5.2806557800000000
 17.1509706000000008  6.7435349999999996  6.6605256800000001
 15.3634179900000003  8.6080237700000009  8.7683190799999995
 13.6552757099999997 10.4423577999999999 10.2521922599999993
 11.8316905200000004 11.8390182100000008 12.3415761800000006
 10.1357375100000002 14.0149714999999997 14.1531635900000001
  8.1737031099999999 15.8325902299999992 15.5724664599999993
  6.8295309399999997 17.0274940999999984 17.2590772900000005
  5.1439374100000004 19.2218236000000005 18.7426762499999988
  5.4937766100000003 19.0591918599999985  1.3600130900000000
  3.5297724000000001  0.1816338100000000  3.6706181899999999
  1.6369777100000000  1.6642997200000000  5.0267568499999999
 -0.1408491300000000  3.6832415300000001  6.8861220000000003
 19.1262275499999994  5.4504494299999999  9.0116424700000000
 16.9626041100000009  6.9653240500000004 10.3166900600000009
 15.3757794600000004  8.8481387300000005 12.0406650899999992
 13.5909958199999998 10.1747423300000008 13.5601915799999997
 11.8334394399999994 12.2673282100000005 15.2526770099999993
 10.1551496700000001 13.5855827500000004 17.1395727899999990
  8.7906421500000000 15.4289794800000006 19.0054266200000015
  6.9037027999999996 17.4163631000000017 20.3926452000000005
  6.9836113800000001 17.0886244100000013  3.6583262900000002
  5.3933183700000003 18.8240758399999990  5.2037810100000002
  3.2948575400000002 -0.6252129600000000  6.8519973399999996
  1.6739714800000001  1.6516308399999999  8.2010866500000006
  0.1849199200000000  3.7043632899999999 10.2301242000000006
 18.9690269499999999  5.4872911799999997 11.8647573899999994
 17.0191670899999998  7.2189677500000000 13.8071695400000003
 15.5605618600000000  8.6313796299999996 15.4664167100000007
 13.8975869099999993 10.8539376099999991 17.3740705599999998
 11.9388431799999992 12.2922426900000001 19.0484707799999988
 10.3789369100000002 13.5467918100000002 21.0347889799999983
  8.4362434900000007 15.4719499799999998  1.4763050300000000
  8.5062613400000000 15.4172448800000002  5.0407747799999996
  6.8464058400000001 16.9627352000000009  6.8334830400000000
  5.0235793500000003 18.6653741400000008  8.5578371499999992
  3.1722885900000000  0.1086586000000000 10.1640212499999993
  1.6648885400000000  1.4724545200000001 11.5812050299999996
  0.2606506200000000  3.6313782400000001 13.6568714599999996
 18.7731692000000017  5.5324685300000001 15.1279686099999999
 17.1152660800000014  6.9395340000000001 17.1565373900000004
 15.2445553000000000  8.5945655599999995 19.0447482800000003
 13.6677078400000003 10.2905748599999995 20.4311256000000014
 11.9575624400000002 11.8531648799999996  1.8482690799999999
 10.1462944000000004 13.4611525699999994  3.3878918800000002
 10.2822253200000002 13.9933296899999995  6.5930725299999997
  8.7048451599999996 15.3231287100000007  8.6264219700000009
  6.8209218199999997 16.9692923299999983 10.2223147000000001
  5.1569192700000004 19.0417109700000005 11.8452940400000006
  3.5037254500000001  0.2337028300000000 13.5300963700000008
  1.7012309900000000  1.8050569500000000 15.5090992100000005
 -0.1245970200000000  4.1811907100000001 16.7509357399999992
 18.8302903899999983  5.3298716900000001 18.8865987900000007
 17.1148731100000013  6.9153386899999996 20.8098944400000008
 15.4178858900000009  8.7214707699999998  1.6845171400000001
 13.7769328400000006 10.4285120599999992  3.5600350900000000
 12.1589358000000001 11.9741952099999995  5.0749392899999997
  3.5832310700000001  3.6403574100000000 17.1169370500000007
  2.0443257600000000  5.4258683200000002 18.8936200200000002
 -0.0920355800000000  7.0968537899999999 -0.1328934300000000
 18.8744206400000003  8.5134712900000000  1.4522996500000001
 17.2332487199999989 10.1831603499999996  3.5754130700000002
 15.8355888599999997 12.0770431800000004  5.2387522400000002
 13.8636784399999993 13.6221387499999995  6.5828318100000001
 12.0674991899999995 15.4658320600000003  8.5814059500000006
 10.3934804799999991 17.1233575400000007 10.5326957100000005
  8.4333748800000006 18.9233759100000007 12.3299461800000003
  6.7211001499999998 20.8806058499999985 13.6249843500000001
  5.0885159099999999  1.9795014099999999 15.2967905700000006
  4.9203970100000003  1.7288789200000001 18.8447057899999990
  3.6020397499999999  3.5244439999999999 -0.1795637300000000
  1.6663900400000000  5.0699456300000003  1.2748427099999999
 -0.0204020600000000  7.2463022700000002  3.2750283100000002
 19.0079786800000008  8.5449710700000008  5.0296419900000000
 17.0292322799999987 10.3146448199999998  6.7775616300000001
 15.4837433699999991 11.7992105899999995  8.4274437899999999
 13.6037124499999997 13.4267503000000001 10.2708516000000003
 12.1711134399999992 15.3250813499999996 11.9353749600000008
 10.4468173300000000 17.0454222599999987 13.6831183200000002
  8.6011678699999994 18.7085973500000016 15.4653070699999997
  6.8266456800000004 20.8712823100000016 17.0985129100000002
  7.1033876400000002  0.1489953100000000 -0.2392102500000000
  5.1379092399999999  1.3964899099999999  1.5609890799999999
  3.3367296400000002  3.3717358300000000  3.2471312000000001
  1.8422740399999999  5.5398805800000002  5.2365456699999999
 -0.0779277100000000  7.0904223499999999  6.8862699999999997
 18.8035163899999986  8.5919612900000004  8.4334367900000000
 17.0839789999999994 10.0210658099999996 10.3321224899999997
 15.6904610600000005 12.0772614500000000 12.2513570999999999
 13.6443028500000008 13.5674745500000000 13.8071178900000007
 12.2972483799999992 15.7142972299999997 15.9783197300000008
  9.9726490000000005 17.1955944599999988 17.1275941899999999
  8.6800222799999993 19.1497390900000006 18.7022001300000014
  8.4873301699999999 19.2994726599999993  1.8399067099999999
  6.7176973599999998  0.4110797500000000  3.8021442099999998
  4.7583213600000001  1.8888519200000000  5.2093098700000002
  3.2288878500000000  3.4152780599999999  6.8907435799999996
  1.5824532499999999  5.2901429300000000  8.6529259300000003
  0.1561164600000000  7.3379989900000000 10.3819589000000008
 18.6477235199999996  8.8811031299999996 11.8590469299999999
 17.2684003500000003  9.9435609899999999 13.9863991999999993
 15.2097656299999997 12.1848584899999999 15.4304642199999993
 13.4269978000000005 13.6965820800000007 17.5240859299999983
 11.7005609199999991 15.5827729000000001 19.0814631800000001
 10.1069017100000007 17.2580217699999992 20.8764284800000013
  9.9137273599999993 17.2986602199999986  3.5520183400000001
  8.5270149600000007 19.1047871700000016  5.5491254899999998
  6.5573005799999997  0.2342310300000000  6.8276424699999998
  4.9580166300000004  1.7922850900000000  8.3329435099999998
  3.1198830599999998  3.4132083199999999  9.8588190699999991
  1.9930363900000001  5.3592580400000003 11.8227010799999999
  0.0495563100000000  6.8082849500000000 13.7875518499999998
 19.0454764200000000  8.5807144999999991 15.2398148700000000
 17.2299258299999991 10.2172081800000001 17.3595080999999993
 15.6006832099999997 12.2524280900000004 19.0490788600000016
 13.8145608899999992 14.1229271500000007 21.0087624499999990
 11.9020433699999995 15.6571898100000002  1.8099471700000000
 11.9277182100000001 15.7776736100000008  5.1917061400000000
 10.3475383900000004 17.2345370200000012  7.0003682300000003
  8.2334939499999997 18.7435339700000014  8.6514965000000004
  6.8216474099999997 -0.0724075900000000  9.9966382300000003
  5.0262507300000001  1.8257967500000001 11.4404582599999998
  3.3197924599999999  3.3893952500000002 13.4168868799999998
  1.8146612700000000  5.1605039799999997 15.0748810800000008
  0.0103740900000000  6.7887890200000003 17.0621209500000006
 18.9490028099999996  8.3303179099999998 18.4148718100000011
 17.2471686999999996 10.0689078300000006 20.4292833899999984
 15.6866410599999995 12.0923057600000003  1.7287497900000000
 13.7093047200000004 13.7262106700000004  3.4521839200000000
  5.2508776199999998  5.0477679400000000 15.0748497300000004
  3.7498349300000000  7.1419966300000004 16.9258921999999998
  1.8036336600000000  8.3029944300000000 19.1584730900000011
 -0.0267249900000000 10.2112606499999998  0.0117753200000000
 18.7223406799999985 11.8769431999999995  1.6196980200000000
 17.0483412700000017 13.9685337999999994  3.1944391699999999
 15.4348966300000008 15.3315778900000002  4.9919685500000002
 13.4305596999999999 17.0145710500000007  6.5803251100000004
 12.2484724099999998 18.7993405699999983  8.2203039400000009
 10.3666499099999996 -0.3268201700000000  9.9562216600000006
  8.7063751499999995  1.3064967100000000 11.6818974000000004
  6.6741188400000002  3.2972571099999999 13.6408990400000008
  6.6341605899999996  3.4726846700000000 17.2210075799999984
  5.1447956799999996  5.1667314199999996 19.1263761899999984
  3.3838678700000000  6.6955927300000004  0.1425094200000000
  1.7934031399999999  8.8349732999999997  1.6380120600000001
  0.0360389000000000 10.3377848799999992  3.1428600000000002
 18.4718097000000014 12.1389067799999992  5.0219258399999998
 16.9566437000000008 14.0803701300000004  6.9382648299999996
 15.5320266700000005 15.4114041499999992  8.3149040700000008
 13.6037812900000006 17.1540289500000007 10.2048835300000000
 11.8374779900000000 19.0444790899999994 12.2408275500000006
 10.0663273699999998 20.7106901599999986 13.8676856199999996
  8.7926029299999993  2.2280671500000002 15.3446352600000004
  8.5384364799999997  1.7751799300000000 18.5952609200000012
  6.9795735299999997  3.1631983799999999  0.0743994700000000
  5.2332797500000003  4.8910541800000003  1.7826323900000001
  3.4816142299999999  6.7719826699999999  3.3462577800000002
  1.6286921400000001  8.9695969299999998  5.0745247300000003
 -0.3033576500000000 10.3515607700000007  6.8916520999999999
 18.7287022199999988 12.1480109699999996  8.4926500500000000
 17.1440782399999989 13.4919755400000003  9.7808630700000005
 15.5397592400000004 15.4508768300000003 11.7440070399999996
 13.6106456100000006 16.9551018300000003 13.9276419899999997
 11.8923559900000004 18.7036479200000016 15.3805920300000007
 10.5187311599999997  0.0396591400000000 17.0887343300000012
 10.3093737300000008  0.1261568400000000 -0.1630131500000000
  8.6308443300000004  1.6989952300000000  1.9849171699999999
  6.9056661100000003  3.2324324299999998  3.8728708200000002
  4.9560099700000002  5.3643185700000000  4.9187031699999997
  3.2734221699999999  7.0705220400000002  6.9871677099999996
  1.5216389200000000  8.8920375299999996  8.6198644200000007
 -0.1942869500000000 10.2597580900000001 10.4328673199999997
 18.4009925999999986 11.8738652600000005 12.3373758200000001
 17.1804507700000002 13.8823425399999998 13.9421444099999992
 15.1498007200000000 15.4832507800000005 15.6170224700000002
 13.6721381500000003 17.4601607299999984 17.4024392200000015
 12.3180031000000003 19.2356165799999985 19.2397567900000013
 11.7023931200000000 18.9416548099999993  1.6499751199999999
 10.3960595500000004 -0.2191710800000000  3.5719889100000000
  8.7190680999999994  1.6459145300000000  5.4898984799999999
  6.5276554800000000  3.6912413300000000  6.5629340100000002
  4.9050566000000000  5.4412219899999998  8.4491314600000003
  3.5395294499999999  7.0515045499999998 10.3344131200000007
  1.7332571699999999  9.0843500200000005 12.1400297899999998
 -0.4789574500000000 10.3585114199999992 14.0445568699999992
 18.7178282799999991 11.9075904200000000 15.4301014999999992
 17.2639306400000017 13.8752084399999998 17.3930579999999999
 15.5368095700000008 15.2886272699999992 19.1609094199999994
 13.8581130699999999 17.1012640299999994  0.3704120800000000
 13.4286227500000006 17.1996031599999988  3.1990093200000000
 12.0395303499999997 19.2521435899999993  5.0462269600000003
 10.2539185300000000  0.1131258400000000  7.1759147399999996
  8.7734132700000007  1.6857483700000000  8.5461508100000003
  6.8215488999999998  3.3655294900000001  9.9068097200000000
  5.1933985900000001  4.8529086299999999 11.7797237199999998
  3.3527706700000000  7.0236919999999996 13.4674627400000002
  1.5961441300000001  8.7234494700000003 15.5611188899999995
  0.2741703400000000 10.1336648500000006 17.2485993600000000
 19.0008821700000006 12.0436511300000006 18.7291357000000005
 17.2914774899999983 13.9834692799999996  0.0742490200000000
 15.4293970100000006 15.4548141200000000  1.9099442300000000
  7.1399292699999997  6.5787866299999997 13.9106973600000003
  5.5148633599999997  8.4634987099999996 15.3875284699999995
  3.4953610700000000 10.3697174299999997 16.9883076099999997
  1.7688343799999999 12.0480930599999994 19.2934587999999998
 -0.1132220700000000 13.7331479800000000  0.2287295800000000
 19.1348756100000017 15.1424445799999994  1.7755362200000000
 17.2462538099999989 17.0605246199999989  3.4742984400000001
 15.7775496499999992 18.5646921499999991  5.1453743500000000
 13.5752646000000006  0.0049527100000000  6.6596750299999998
 12.2400551400000008  1.6299608600000000  8.8163919499999999
 10.3424656099999996  3.5329056200000002 10.6460155400000005
  8.4234698100000003  4.9872763500000001 12.2393649199999999
  8.9386729900000006  4.7908776000000000 15.7986294899999997
  6.9085722100000000  6.6667461699999997 17.4908632600000011
  5.2266930000000000  8.6933721199999994 19.0628971100000015
  3.5638952499999998 10.3438888500000008 -0.2894895100000000
  1.6155667300000001 11.9691809500000002  1.3164993599999999
  0.0734128200000000 13.5308936200000005  3.2911898300000000
 18.7595369500000011 15.4458886599999996  5.3126865600000004
 17.3665714499999986 16.9939722800000013  6.9039026200000002
 15.6764457700000008 18.8790518100000000  8.3347828199999991
 13.9361396600000003 -0.2665596800000000 10.1479777200000001
 12.0242373600000008  1.5472420499999999 12.0040724999999995
 10.3865387499999997  3.4807212199999999 13.3856989700000000
 10.5834538200000008  3.3502987800000001 17.2687635700000008
  8.6949408899999998  5.0151356199999997 18.9867956599999985
  6.9167846700000002  6.6063491799999996 -0.1857178000000000
  4.9934779699999998  8.4574791000000005  1.6012055100000000
  3.5582000699999998 10.5239689100000007  3.2616176600000002
  1.5049777300000000 12.4050565200000005  5.1190866799999997
 -0.2890959600000000 13.4519531400000005  6.8630478400000001
 19.1828084399999987 15.3767215700000008  8.5983539199999992
 17.5668656299999988 16.9949196499999999 10.3618359400000006
 15.8542157199999991 18.7192708500000009 12.0572432700000007
 13.5896708999999998 -0.3678366900000000 13.7730681700000002
 12.1459261299999994  1.7830784099999999 15.3903375100000002
 12.2838630599999998  1.7235354800000000 18.9557236099999997
 10.3780473200000003  2.9883591400000000 -0.0163207800000000
  8.4891504300000005  5.0824556300000001  1.7699767200000001
  6.7227477499999999  6.9739199599999999  3.5812296400000001
  5.0033827000000004  8.8625617299999995  4.9869760599999999
  3.4431306199999998 10.1276358099999992  6.8152701799999997
  1.7349541200000000 11.8192093600000003  8.8216301999999995
 -0.3274764000000000 13.4701552000000007 10.5184890899999992
 18.7160466899999989 15.0925639199999999 12.0613893000000001
 17.4111125199999996 16.7383877599999984 13.9863833500000005
 15.6782526400000002 18.8864915199999999 15.1950271600000004
 13.8858637100000006 -0.1305829800000000 17.0831015099999988
 13.7512958100000002 -0.0298596700000000  0.3735873000000000
 12.1366363499999999  1.7006203799999999  1.9501325800000000
 10.1186055899999996  3.6725148800000000  3.6265329199999998
  8.5966041700000009  4.9188558200000001  5.0885799000000000
  6.8171734400000004  6.7339667199999997  6.8219720099999996
  5.4268032799999997  9.0130932300000008  8.5555192699999996
  3.5299505099999999 10.0838510800000005 10.2794507999999993
  1.4755810800000000 11.7999589000000000 12.1172700300000002
 -0.0030687700000000 13.5854812900000006 13.8121444600000007
 19.0168550299999985 15.0256774199999992 15.7054940100000007
 17.2690491199999983 17.1469293900000004 17.1474964000000014
 15.5013871299999995 19.0504494700000002 19.0577733999999985
 15.6626399400000000 18.8139773999999989  1.9034914500000000
 13.8916291800000007 -0.2748105500000000  3.2026071300000001
 11.9349598500000003  1.6811180699999999  5.1445082500000003
 10.7687088099999997  3.3903535800000002  7.1312436600000000
  8.7362313199999999  4.8123604400000000  8.5953469899999995
  6.9938681300000001  6.9231640399999996 10.3081119399999999
  5.5469425499999998  8.7106354699999997 12.0876947200000000
  3.5590025700000001 10.2576248700000008 13.9969739999999998
  1.6396637300000001 12.0312933999999991 15.3100414300000001
  0.3783156000000000 13.9262712099999995 17.4599547900000012
 19.0687664499999983 15.5401402999999991 18.8631252300000014
 17.2270433999999995 17.1534966299999994 -0.0873397800000000
  8.6757991499999996  8.6844811400000008 12.2445690400000000
  7.0634499200000000 10.5270090199999995 13.5261417999999995
  5.4372026599999996 11.8402381200000004 15.7689186600000006
  3.4180203499999999 13.7236629800000003 17.2551805700000003
  1.9054631900000001 15.7432274299999992 18.8829588100000016
 -0.2962247200000000 17.2275280100000003  0.3535291600000000
 18.5462734699999992 19.3635048999999988  1.6824044700000000
 17.3066155799999990 20.4782899200000017  3.4836206700000001
 15.6530816799999997  1.6847439300000000  5.1193953299999997
 14.0008895800000008  3.6082794200000001  6.8898451400000003
 12.1989071700000000  4.9202738600000000  9.0077522600000002
 10.3567382200000004  6.7534479100000002 10.3967989200000002
 10.4911772200000009  6.8946573400000002 13.7705243900000003
  8.6029312900000008  8.5433840500000002 15.3793798499999994
  6.8808194900000004  9.8928019299999992 17.2988155299999988
  5.3347112200000000 12.0381105700000006 18.9806106499999991
  3.6877417299999999 13.9474798399999997 -0.0427822800000000
  1.5499728800000001 15.7441323900000008  1.4986889800000001
 -0.2135285500000000 17.6365287100000003  3.3599698299999998
 18.8421569300000016 19.1058262899999995  5.0797013099999999
 17.2138817599999996 20.8020494700000000  6.9658894800000004
 15.5742093799999992  1.5381001900000000  8.6197108000000000
 13.9672206499999998  3.3167086900000000 10.6861495000000009
 12.0081761199999999  5.3840794499999998 12.1253797500000005
 12.1444705899999992  4.9973919799999997 15.5515211400000002
 10.2901911500000001  6.7294595599999996 17.1649105700000000
  9.0499594000000005  8.6146330500000001 19.0142303800000008
  7.2614219200000001 10.1423323799999991  0.2460035700000000
  5.2738310700000000 12.0290689299999993  1.3591899000000001
  3.5058484600000002 13.7340910199999993  3.4115043100000002
  1.7659058999999999 15.5494846700000000  5.1496403199999996
 -0.0841365100000000 17.3258912800000004  6.8653108800000000
 18.7789434700000015 18.7378988799999995  8.5725887600000004
 17.2831730700000001 -0.2486315900000000 10.2694994000000008
 15.5304977700000002  1.5601647599999999 12.4000060500000000
 13.7920543999999996  3.5966502400000002 13.8632802700000006
 13.9023543200000006  3.0735105200000001 17.0284405599999999
 12.1590866999999996  5.0008291800000002 18.4659108900000000
 10.5252683699999992  6.4937374400000003  0.1600215300000000
  8.5019039900000006  8.2128483899999996  1.5457133100000000
  6.8933995399999999 10.2625714200000004  3.5600295000000002
  5.0375366100000001 11.9231596599999996  5.2302215800000003
  3.1775114400000000 13.7359366499999993  6.6034174700000001
  1.6871298699999999 15.5610820899999993  8.6647268000000004
 -0.1023773000000000 16.8521194500000000 10.6729834100000005
 18.9342928000000015 18.8720131600000016 12.4592130700000006
 17.4964489100000016 20.8339641799999988 13.7877521200000004
 15.4988875700000008  1.6780133600000000 15.1959126199999996
 15.3170452099999999  1.7765076399999999 18.9487584099999999
 13.6540251500000007  3.5546381399999998  0.0055768600000000
 12.1886213100000003  4.7505079400000003  1.7718377800000000
 10.4468950599999992  7.0094497300000000  3.5549056800000001
  8.4273608000000007  8.4148402099999995  5.5200820400000001
  6.8760449699999997 10.2685449500000008  6.9862978800000004
  5.1880779600000002 12.2583772799999995  8.6869981400000000
  3.3005521299999998 13.4218682099999995 10.5353151300000007
  1.6534678000000000 15.3318933800000003 12.3629264600000006
 -0.0352524000000000 17.0483889899999994 13.8906972500000006
 18.7379581100000010 19.0734274799999994 15.3431263700000002
 17.1245486900000010 20.8243239500000001 17.1876658000000013
 17.6009131399999994  0.2511676500000000 -0.1033372000000000
 15.6696855700000004  2.0343972799999999  1.8200903399999999
 13.9596456000000000  3.2593914399999999  3.8055354200000000
 12.0597265000000000  5.0762961100000004  5.3251340999999996
 10.7912525200000005  6.9405200000000002  7.0996831399999998
  8.7298431599999997  8.7000013999999997  8.4795379400000002
  6.8146760700000000 10.4193693599999992 10.3160255500000009
  5.0500934500000003 12.1197928000000008 12.1538894200000005
  3.5782431699999999 13.6370311799999993 13.8403543300000003
  2.2085802299999999 15.4422731599999992 15.3595446300000003
 -0.0085032900000000 17.2869617899999994 16.7902600100000008
 18.7677856500000004 18.8733991199999984 18.5882418200000004
