Li                                      
   1.00000000000000     
    21.0004999999999988    0.0000000000000000    0.0000000000000000
     0.0000000000000000   21.0004999999999988    0.0000000000000000
     0.0000000000000000    0.0000000000000000   21.0004999999999988
   Li
   500
Direct
  0.0082445341777557  0.0264352229708820  0.0361370767362672
  0.9885052398752379  0.1054395457251047  0.1158505445108418
  0.9981593019213832  0.1833173476821983  0.2242892264469916
  0.9813810980690931  0.2733016409133100  0.3078001814242484
  0.9878719592390652  0.3935067279350477  0.3985111335444387
  0.9723685536058682  0.4915488974072062  0.4973248165519877
  0.9968216123425648  0.6090734558700959  0.5833169648341681
  0.9850308945025148  0.6809037013404406  0.6901837022927992
  0.9849246703649897  0.8044334892026370  0.7848662669936459
  0.9900327911240225  0.9150726677936234  0.9149003509440234
  0.1047034094426351  0.0160566305564132  0.1340223542296641
  0.1059930473083952  0.1063805761767611  0.2061567272207796
  0.1028639341920439  0.1899341706149826  0.3140643637056257
  0.1108541282350402  0.2931177524344690  0.4027195752482058
  0.0994056079617138  0.3978805747482212  0.4904372729220725
  0.0939546686983661  0.5048641184733711  0.5997118635270624
  0.0880501464250827  0.5984920539987115  0.6901626837456263
  0.0915781500440431  0.7015161891383528  0.7733844475131519
  0.0857305754624917  0.8108360315230598  0.8837869074545850
  0.1001726901740412  0.9207995709625934  0.0191838718125723
  0.2247804999880927  0.0023950496416774  0.1947085069403087
  0.2082940615699655  0.0837076826742233  0.3039758543844187
  0.1927624494654907  0.1860834275374401  0.3954141901383323
  0.2184187709816428  0.2801737282445629  0.5029663112782998
  0.2047760310468831  0.3783758515273448  0.5893696707221281
  0.1993071536391966  0.4825444437037234  0.6844368824551808
  0.1993982986119391  0.5954687897907220  0.7859170391181181
  0.1936710892597802  0.6913942129949291  0.9050043303730888
  0.1798679317159113  0.8126036856265344  0.9938640375229184
  0.1975078588605044  0.9362299002404697  0.1078399780957611
  0.3036222070903065  0.9873856989119290  0.3016548858360508
  0.3262680531415896  0.0923135715816272  0.3775019828099317
  0.3041667293635868  0.1925566424608931  0.4978807280779023
  0.3093880636175328  0.3052591109735516  0.6046436932454000
  0.2932679717149611  0.4022386824123245  0.6918869269779293
  0.2975208666460318  0.4985865950810719  0.7948925797004804
  0.2900754643937020  0.5814245994142979  0.8962508787885994
  0.2886434437275298  0.6921427666007958  0.9913384386086079
  0.2819612128282643  0.8136696692935885  0.0915779200495237
  0.3071902988024107  0.9009036627699345  0.1870425956524855
  0.4025349486916951  0.0040660374752974  0.4060649013118720
  0.3945771210209301  0.1196910773552986  0.4931713968715030
  0.4113569586438430  0.2152479707626043  0.6207480669507888
  0.4334189185971766  0.3079816323420843  0.7168287278874317
  0.4037846065569894  0.4144983376586282  0.7888424861312799
  0.3941557048641684  0.5033217799576235  0.8917391866860314
  0.3925654574891055  0.6294010428323134  0.0028805323682803
  0.3879549539296718  0.7061504478464826  0.1087780400466656
  0.4002774610128341  0.7865659750958329  0.2027211375919649
  0.3967673412537778  0.9211980852836845  0.2880681274255394
  0.4873008166472204  0.0120042598985748  0.5007362591366871
  0.4737019051927334  0.1026303897526262  0.6049207899811933
  0.4932682012333061  0.2139655703435608  0.7062811647341718
  0.5159738801457081  0.2982762829456433  0.8264545691769243
  0.5154924087521735  0.4292891426394618  0.9001861622342346
  0.4831786028904048  0.5285907311730682  0.9952219609056954
  0.5079769800719021  0.6000759596200069  0.0877698178614779
  0.4944148777410078  0.7018065788909809  0.2064070798314361
  0.4827644513225877  0.8100465398442864  0.2986928330277863
  0.5071740968072191  0.8993766715078237  0.4072165338920470
  0.5798520316182945  0.9911151815433001  0.6196206152234467
  0.5885860241422805  0.1035651403538012  0.7101433113497322
  0.5909692850170245  0.2027332639699040  0.8193201728530255
  0.6310675136306259  0.3042711906859381  0.9294298507178382
  0.6134973343491836  0.4162285021785195  0.0073397476250534
  0.6134325716054363  0.5139163948477403  0.0925044841789457
  0.5823216075807736  0.5770467998381008  0.1974262469941195
  0.5759231437346699  0.7069682021856636  0.2924268865027031
  0.5963277717197215  0.7935508168853147  0.3903693745387002
  0.5857584247994083  0.9176512830646857  0.5044368229327887
  0.6958588195519155  0.0048097197685735  0.7071952720173300
  0.7087171043546547  0.1160350386895530  0.8151964153234417
  0.7144697783386107  0.2096425327968348  0.9206414971072121
  0.7211602185662258  0.3158984938453813  0.0342771072117358
  0.7142833523011376  0.4256967643627547  0.1281253436822922
  0.7015986109854495  0.4932387666960310  0.2087338610985441
  0.7056745263207986  0.6160544725125590  0.2958709430727851
  0.6683722168519779  0.7008088012190186  0.3971116725792214
  0.6849234222994696  0.8157532949215494  0.4988993628723151
  0.6954864755601022  0.9104362734220643  0.6219195757243909
  0.8031674960120014  0.0198956434370601  0.8077317959096177
  0.7963537515773425  0.1265725054165401  0.9167513425870837
  0.8081012028285031  0.1843230889740752  0.0435362591366868
  0.8084716892454935  0.3308862812790139  0.1283672522082782
  0.8021705502249930  0.3967949644056077  0.2163466250803552
  0.8183830961167615  0.5083080331420646  0.2987609580724282
  0.7894093888240761  0.6336884821789965  0.3937597776243393
  0.7737131401633306  0.7219866950786908  0.5012950553558255
  0.7913052403514200  0.8108269774529191  0.6064802128520768
  0.8272417842432347  0.9125616256755791  0.7114732006380819
  0.9015457293873936  0.0088563991333572  0.9077353829670756
  0.9026038470512603  0.0776001676150599  0.0160003876098216
  0.8882482440894250  0.1828805328444574  0.1232267241256153
  0.9118113268731705  0.2937391700197622  0.2153451341634707
  0.9019075060117601  0.3675632642079947  0.3023472631603994
  0.9049954982024246  0.4937866469845957  0.3708403118973322
  0.8897953315397231  0.6097482602795168  0.4916866112711631
  0.8787452027332705  0.7106671136401488  0.5898935887240810
  0.9095940068093640  0.8242794804885563  0.7070277817194821
  0.8931819104307053  0.9141550996404817  0.7954102383276620
  0.1038559805718933  0.1159790857360505  0.0321694526320826
  0.0998119982857517  0.1982335963429449  0.1094570819742415
  0.0961703935620548  0.2949367267446021  0.2140788938358611
  0.0849109040260956  0.3781836489607358  0.3130959972381575
  0.0977068445989389  0.5062848713125874  0.3952931230208776
  0.0897716035332508  0.6111419475726763  0.4793261260446187
  0.0870265184162307  0.7144631913525856  0.6068944444179891
  0.1001259050974994  0.7923617590057361  0.6920176971976844
  0.1029522616128205  0.8982387428870737  0.8165904687983598
  0.0965953491583562  0.9944402766600788  0.9212296273898204
  0.2141531534963477  0.0993954134425366  0.1168776286278899
  0.1964326277945787  0.1944000347610739  0.2203920039999048
  0.1909413618723335  0.2960735372967278  0.3138705311778267
  0.1997319487631231  0.4004854751077360  0.3836361481869446
  0.2042403738006229  0.4978478283850407  0.4962046970310254
  0.1864394762029491  0.6139540010952089  0.6047785986047955
  0.1904099478583845  0.6944054770124524  0.6811675574391103
  0.1810145415585325  0.7875681645675101  0.7957945744148915
  0.2018832575414891  0.8995814647270279  0.9222734034903937
  0.2019736025332719  0.0147305226066052  0.0118703049927404
  0.3043530911168801  0.1156611980667108  0.2114241413299709
  0.2937793295397739  0.2189438641937116  0.3122771624485097
  0.3014229337396728  0.2900585324158982  0.3879947320301866
  0.3019868226947011  0.3732114730601666  0.4800514444894191
  0.2996145306064122  0.4749416737696706  0.5821164472274489
  0.2910949805957017  0.5945166391276402  0.7048361558058147
  0.2989539087164559  0.6877562562796129  0.7817215090116889
  0.2933739449060724  0.7948192971595915  0.8871730630223098
  0.2927429951667833  0.9276227642198975  0.9978515916287733
  0.3092404799885742  0.0200618970976905  0.0976065431775410
  0.4131681274255357  0.1178035980095729  0.2927375129163607
  0.4090931396871511  0.2153947958381934  0.3891765124639903
  0.4053009075974359  0.2801172495892956  0.4911190657365267
  0.4097428199328590  0.3790023104211784  0.6067264955596272
  0.3928961900907098  0.4778042241851352  0.6879776591033533
  0.3963858598604801  0.5917888531225444  0.7952535282493258
  0.3909976391038299  0.6881784086093177  0.8824812004476073
  0.3844494488226502  0.7952437551486895  0.9850305616532964
  0.4128662412799713  0.9000055355824870  0.0807977791005001
  0.4032505449870243  0.0222029537391961  0.1815342520416152
  0.5021106211756887  0.1147396947691703  0.4027214175852976
  0.5164960148567914  0.1972616223423245  0.5144614904407021
  0.5124036456274865  0.2942941268065056  0.6042178052903466
  0.5362071817337650  0.3920645389395503  0.7247759053355907
  0.5105618713840130  0.5048677050546431  0.8077936568176938
  0.5211917168638820  0.6072972781600470  0.8943368838837173
  0.4944566286516974  0.7103594838218115  0.9956641137115767
  0.4835076541034766  0.8035457374824375  0.1001928225518469
  0.4992244432275399  0.8929423556581995  0.1944160162853237
  0.4913795000119023  0.0248299421442368  0.2983920939977622
  0.5972184724173246  0.0967176714840150  0.5162406861741360
  0.6048352443989415  0.1934141153782036  0.6156204842741815
  0.5971518020999511  0.2934965348444081  0.7006605818909080
  0.6384076083902741  0.3960227132687351  0.8155383700388086
  0.6309682602795164  0.5151917987666934  0.8921453065403213
  0.6267401557105785  0.5990665398442871  0.9935736020570971
  0.5953451232113522  0.6967712016380574  0.0945599314302044
  0.5730858008142690  0.7975897392919222  0.1890895359634328
  0.5841550467846020  0.9075740096664333  0.2927190995452520
  0.5892633146829809  0.0130543601342836  0.3770115378205290
  0.6973190152615416  0.0811959772386359  0.6129370476893428
  0.6976604976072025  0.2108395766767472  0.7032060893788241
  0.6975382990881158  0.3088725744625123  0.7853261703292773
  0.7223268493607264  0.4117956153424913  0.9180283693245386
  0.7235135368205547  0.5026573286350313  0.0029376724363672
  0.7050345415585326  0.6035277560058105  0.1072376519606664
  0.6805599438108629  0.6990784871788733  0.1985345563200909
  0.6814059403347557  0.8017289669293604  0.2976139225256560
  0.6706092807314121  0.9133025247017912  0.3957302240422820
  0.6787541939477606  0.0134876283897967  0.5054313078260009
  0.7909127701721417  0.0841245470345910  0.7162091783528979
  0.8062753782052781  0.2195209556915287  0.7971791319254322
  0.8187092707316523  0.2851612485416979  0.9144015675817272
  0.8042393147782221  0.3908055184400396  0.0258298983357506
  0.8088051784481323  0.5005108773600639  0.1075061541391875
  0.8061889707387948  0.6030198238137174  0.1817165253208231
  0.7881149486916996  0.7125095216780579  0.2882572114949653
  0.7848466655555839  0.8134636251517833  0.3972664941310953
  0.7989915454393923  0.9108414613937796  0.5002888926454148
  0.8129860574748236  0.9933710464036594  0.5909746506035560
  0.9090207480774239  0.1120985071784020  0.8015861865193656
  0.9037626289850209  0.1943424170853092  0.9284213952048788
  0.8893814904407051  0.2886088955024846  0.0110019461441411
  0.9133827289826399  0.4142987047927420  0.1086626518416196
  0.9034500835694388  0.5026161943763228  0.2156595447727412
  0.9034607404585628  0.6007395452489206  0.2831830608795016
  0.8681465607961698  0.7091253436822953  0.3957659789052670
  0.8943990662127064  0.8184865027023136  0.5011005504630859
  0.9180295578676692  0.9052959972381629  0.5900981700435679
  0.9103223494678687  0.9972806871264979  0.6983984309897409
  0.0018884407514079  0.1049062131854015  0.8994612728268407
  0.0194622485178897  0.1854692873979218  0.0081664784171807
  0.9979889174067296  0.2866692935882469  0.1040263303254676
  0.0153978848122662  0.3881606837932452  0.2093085974143492
  0.9815678517178128  0.5064314682983735  0.2988976419609060
  0.9895617775767249  0.6171798833361137  0.4117364186567016
  0.9877240384752710  0.7105048589319267  0.5049107511725879
  0.9933144310849755  0.7913346858408161  0.6054497788147870
  0.0052086597938157  0.9005780462369941  0.7025310883074241
  0.0017052227327952  0.0086636132473004  0.7836276469607881
  0.2078321101878515  0.1995199880955241  0.0027992462084256
  0.2011037084831315  0.2877572276850557  0.0973518906692732
  0.1820790762124744  0.3934839903811849  0.2188422304230855
  0.1793086107473627  0.4978157662912821  0.2983392895407277
  0.2095657036737251  0.5969413309206928  0.3928439489535975
  0.2015122558986704  0.6991354682031385  0.5117443103735653
  0.1901895245351284  0.8005157253398707  0.5869507440299060
  0.1952073222066133  0.8909327949334553  0.6943220880455243
  0.1970155762958044  0.9850792495416769  0.8107225870812584
  0.1818983986095546  0.1041755424870843  0.8860143277541042
  0.2952230108806901  0.1979860931882556  0.0868980800457138
  0.2883933701578556  0.2990274626794616  0.1884431989714557
  0.3137335187257477  0.3747710864027027  0.2870561948525037
  0.3140276341039510  0.4822018442418070  0.3838682607556976
  0.2975781852813029  0.5924881183781352  0.4999278260041393
  0.2886126849360764  0.7059963767529354  0.6013387762196132
  0.2783391090688312  0.7842307630770691  0.6880253017785307
  0.2859086364610377  0.8867095783433712  0.8050557786719352
  0.2902646908406936  0.0079189062165170  0.8994856093902541
  0.3086961324730382  0.1147054632032578  0.9812505907002205
  0.3970828689793109  0.2085199019070956  0.1817780695697735
  0.4127907840289495  0.2915277150544000  0.2743237994333469
  0.4041825142258517  0.3855571962572313  0.3835221585200372
  0.3940747363158010  0.4744410618794817  0.5038470764981753
  0.4069546410799774  0.6012228785028952  0.5903994438227684
  0.3962303235637279  0.7004837656246252  0.6986106816504360
  0.4020663808004556  0.7907134034903933  0.7930829556439107
  0.3822752648746430  0.8926583909906896  0.9125321225685070
  0.4068134515844832  0.0033762529463601  0.0054712911597363
  0.3726520992357294  0.1257092012094958  0.0829504002285688
  0.4841050017856716  0.1935550353563045  0.2742332382562296
  0.5249339658579544  0.2896845265588937  0.3959571843527527
  0.5007856655793930  0.3938956015332948  0.5109488464560386
  0.4979641389490723  0.4945943668007899  0.6064706773648254
  0.4901277188638389  0.5748515482964720  0.7067074545844179
  0.5030760719982865  0.6794199666674601  0.7846551363062773
  0.4867426661270002  0.7988650979738594  0.8916142006142707
  0.5128727116021068  0.8893054217756742  0.9835509197400043
  0.5013793681102854  0.0054707459346233  0.0982060222375623
  0.5099450455941508  0.1048129492154928  0.1837041727577926
  0.5858418042427544  0.2041068517416278  0.4021500021428039
  0.6192977495773917  0.3016406718887623  0.5188543196590558
  0.6136287964572276  0.3927380129044522  0.6038598200042884
  0.6186491093069222  0.4995344325135136  0.6878119701911842
  0.6071591343063290  0.5969799485726526  0.7851420209042672
  0.5999075831527847  0.6954718644794156  0.8737883659912882
  0.5940744139425220  0.8107091740672843  0.9990180138568121
  0.6193654589176418  0.9071054208233136  0.0961861536630053
  0.6128633237303873  0.9937823642294248  0.1961724192281125
  0.5917394219185255  0.1123377124354192  0.2806740953786786
  0.6917469931668307  0.1849377391014499  0.5207197761958042
  0.7060599961905680  0.2846913168734062  0.6107977310064072
  0.7031468188852656  0.4075182371848314  0.6968708916454389
  0.7087819785243212  0.5044352467798419  0.7998794214423484
  0.7043575629151704  0.6079713992523992  0.8782760548558386
  0.6974737791957324  0.7087362300897624  0.9897541701388093
  0.7017888788362185  0.7868874631556366  0.0854937815766306
  0.6876195871526889  0.8794110735458673  0.1917481293302572
  0.6977985238446678  0.0079868593604928  0.2907170129282619
  0.6852016104378436  0.0888162958024807  0.3961799452393961
  0.8053916682936091  0.1923998690507389  0.6118089716911470
  0.7972932877788637  0.2950312140187137  0.7135980833789688
  0.8094173829194560  0.3814617666246036  0.8018556243898942
  0.8118730677840986  0.5267194352515432  0.8887508940263302
  0.8000257431965920  0.6166968067426950  0.9871380081426651
  0.8070168476941006  0.7105023632770653  0.0949485502726120
  0.7894518820980423  0.7991943087069373  0.1983922011380699
  0.7898585543201335  0.9131695640580020  0.3011653603485627
  0.7802669050736881  0.9972210290231160  0.4017739087164571
  0.7835996652460651  0.0818319059070021  0.4827230113568746
  0.9001394071569706  0.1960294954882045  0.6964340210947384
  0.9057570119759077  0.2970465693673958  0.7955235946763182
  0.8904819804290369  0.3992787919335257  0.8961046846503677
  0.8994263688959805  0.5104676774362531  0.9845317821004258
  0.9139843798957159  0.6070953905859398  0.1059193376348162
  0.8824302616604385  0.7252314187757420  0.1911114644889409
  0.9015377886240827  0.8223255574867281  0.2921555829623088
  0.9086401066641301  0.8933678788600261  0.4074721778052890
  0.9089742858503342  0.9865192323992318  0.4906088907406954
  0.8949056798647632  0.0996932453989174  0.6053651636865780
  0.9832954701078549  0.1885401966619824  0.7953236913406840
  0.0011234808695022  0.2989662579462404  0.9192781957572436
  0.9899163705626037  0.3937685502726112  0.9805476345801267
  0.9906009637865765  0.5158809247398892  0.1056775714863960
  0.9949276807695071  0.6266967900764300  0.2097204176091054
  0.9979295473917276  0.7051977605295079  0.3057400261898522
  0.0044127411252148  0.8031645956048692  0.3926545467965070
  0.0050383876574358  0.9040884045617972  0.4812842675174380
  0.0114484083712298  0.0013038999071426  0.5988638803838029
  0.0111741668055529  0.1160234908692672  0.6879786876502934
  0.0776035480107637  0.1896371310206888  0.8873351848765481
  0.1003291969238802  0.2942614332992051  0.9813025375586264
  0.0873476774362487  0.3910337339587144  0.0900541301397553
  0.0795669388824081  0.5092228108854542  0.1935538644317987
  0.0880063450870239  0.5978242298992882  0.3028612604461784
  0.1228376591033538  0.7119995433442057  0.3964249708340262
  0.0914548634556311  0.8037876602937999  0.4967781062355670
  0.0870576910073595  0.8942822523273222  0.6066438418132876
  0.0928425313682979  0.9901633918240051  0.6905385795576322
  0.0911956248660744  0.1064525673198276  0.7796305840337112
  0.3092326520797144  0.2969345548915499  0.9964144696554840
  0.2938405323682787  0.3825796423894658  0.1106462631842078
  0.3078384590843086  0.4957424675602979  0.1962490621651867
  0.2984010137853872  0.5941497431013545  0.2932181690912117
  0.3032464531796890  0.7134928330277859  0.4001968124568478
  0.3012271574486292  0.8047542544225124  0.5142073022070903
  0.3021240913311587  0.8979105649865460  0.6058638241946639
  0.2875241327587403  0.9977820585224180  0.7118044884645585
  0.2853076650555906  0.0905678364800835  0.8032925249398843
  0.2990534811075918  0.1872927444584676  0.8947003338015733
  0.3880872545891734  0.3026515349634522  0.1029868884074219
  0.3789880502845193  0.3863423751815418  0.1843126377943349
  0.4033562919930489  0.4923472850646391  0.2881742006142716
  0.4021472174472009  0.5725481131401651  0.4004325749386908
  0.4154582309945027  0.6982696354848699  0.5089915473441096
  0.3916521649484537  0.8047812999690507  0.6048890354991556
  0.3742014994881089  0.8935225175591057  0.7311904264184150
  0.3875099335730070  0.0100416013904407  0.8006956877217206
  0.3959090959739058  0.0822585876526745  0.9196892402561829
  0.4116551715435364  0.2227771800671405  0.9872985433680128
  0.4948737006261723  0.3088414632984922  0.1950315916287693
  0.4974735739625231  0.3989016004380872  0.2927834294421530
  0.5109829161210442  0.4728687155067703  0.3952501192828777
  0.5094158453370170  0.5823034589652636  0.5014941787100327
  0.5048992952548730  0.6746022980405257  0.6029233170638761
  0.4843673022070902  0.7975282098045255  0.6762186333658704
  0.4859529787386023  0.8989023866098407  0.7868525839860965
  0.4933129892145445  0.9893719535249161  0.9002315906764125
  0.4893658141472841  0.1102177691007356  0.0029776876741039
  0.5027676531511176  0.1857119873336330  0.1024929415966298
  0.6045278450513081  0.2997824994642997  0.2798011909240259
  0.5996941906145068  0.4013928101711883  0.3885080921882818
  0.6165775572010190  0.4871853874907757  0.5129271945906027
  0.5875618028142213  0.5952078488607384  0.5951758110521155
  0.6100971910192641  0.6950060774743463  0.7090007314111588
  0.5896375014880562  0.7897623118497208  0.7981009466441265
  0.6016827142210914  0.8958069336444368  0.8817993743006127
  0.6008087383633693  0.0102502764219921  0.9874457346253678
  0.6215478260041394  0.0928584105140331  0.0978595647722642
  0.6017828432656387  0.2106214371086423  0.2073513987762183
  0.7040382509940244  0.2865024280374300  0.4002462131853974
  0.7069027494583437  0.3951876469607853  0.5049167286493201
  0.7151087188400282  0.4904644246565582  0.6071135234875342
  0.7271793266826947  0.6069676879121957  0.7033803314206821
  0.7062454141568040  0.7053546339372900  0.7867561524725630
  0.7055714668698343  0.8024110787838410  0.8959142544225145
  0.7002581129020768  0.8958448584557530  0.9923704011809278
  0.7073139849051202  0.9981641132353971  0.1119149101211860
  0.7080367415061559  0.0979268450751150  0.2066109454536829
  0.6980030180233783  0.1846042779933796  0.2818740615699653
  0.8015414690126406  0.2884946986976473  0.4956218456703425
  0.7984585619390003  0.3905484269422175  0.6045044222756601
  0.8109573095878702  0.4909851798766667  0.7085227323158989
  0.8313527149353561  0.6188228042189436  0.7844265017499552
  0.8049143496583397  0.7113086688412196  0.8867951063069910
  0.8167695678674320  0.7937595566772231  0.9960543815623453
  0.8056391290683536  0.8884808742649000  0.1117433651579702
  0.7946237441965636  0.9871535520582810  0.1986937815766296
  0.7981466288897892  0.0941654008237904  0.3011397523868453
  0.7726584590843046  0.1773956434370589  0.3991379281445688
  0.8932510244994134  0.2879828223137579  0.5789008009333116
  0.8959636903883208  0.3916340449036895  0.6913563424680333
  0.9147209328349319  0.4902646565557944  0.8004470512606829
  0.9408289359777129  0.5986585543201386  0.8939302878502886
  0.9176248389324044  0.6802656070093605  0.9830375210114042
  0.9025776105330792  0.8254529535011059  0.0814021813766317
  0.8948124344658481  0.9060979695721514  0.1975815871050699
  0.8992367148401215  0.9886112363991302  0.3042163300873781
  0.9026839760958083  0.0580868003142783  0.4024669203114186
  0.9012965896050105  0.1541718601938058  0.4880065503202289
  0.9823723120878043  0.3009382033761128  0.6726133196828670
  0.0263982386133677  0.3912788752648737  0.8091514830599280
  0.0100991628770757  0.4886294859646227  0.8926520701888023
  0.0186179543344238  0.6013118349563129  0.9957155634389636
  0.0070382895645338  0.7173318525749366  0.0881569781671843
  0.0011739539534759  0.7927128796933403  0.1896735158686695
  0.0093703526106523  0.8842484321801862  0.2870295631056408
  0.0157790162138980  0.9900426175567247  0.3980015599628572
  0.9893514582986143  0.0816446722697108  0.4968984305135606
  0.9983726254136798  0.1862276612461642  0.5696883774195882
  0.0873818266231723  0.2879057155781979  0.7994595423918511
  0.1136936477702903  0.3899514235375321  0.8863971157829553
  0.1079971810194991  0.4999732649222608  0.0022994919168582
  0.1145860479512422  0.5969040422847058  0.0942204880836144
  0.1059825875574418  0.6875669826908890  0.1990713349682167
  0.1168900026189874  0.8071919311444944  0.2833570229280227
  0.1209040908549781  0.8877293873955381  0.3840468479321899
  0.0998830142139440  0.0099107430775476  0.4944478812409230
  0.1195719678102876  0.0810078426704095  0.5867116554367726
  0.1041605280826658  0.2141345639389556  0.6887598885740829
  0.1946628170757805  0.2646574972024496  0.8889801961858055
  0.1947412342563268  0.3913832961119965  0.0093311830670686
  0.2038072664936550  0.4791900797600022  0.1113042013285366
  0.1806328239803818  0.6006406999833303  0.2066602499940444
  0.2143211647341730  0.7123928192185929  0.3048920992357296
  0.2133348934549204  0.7931092164472275  0.4072131915906780
  0.1799105164162782  0.8907127120782832  0.5158736206280778
  0.2066094969167409  0.9906049636913394  0.6150348739315703
  0.1991763310397374  0.0713192076379130  0.7093933077783845
  0.1805166962691374  0.2064451665436522  0.7876251922573303
  0.4028172043522744  0.4216545663198517  0.0115869193590612
  0.3911888435989610  0.5146708021237600  0.0974119987619346
  0.4192155739149044  0.5973545948905965  0.2020946806028405
  0.3958458784314658  0.6928334872979249  0.3128477698150078
  0.4164535630104069  0.8115230032618257  0.4157072003047517
  0.4103334787266988  0.9129204799885713  0.5033001138068158
  0.3819369986428924  0.9998387000309492  0.6055890340706185
  0.3899713892526364  0.0947541520439970  0.7158014423466099
  0.4055353467774552  0.2038373510154514  0.8216451094021551
  0.3987342282326622  0.3296531344491811  0.9083647551248788
  0.5072194081093286  0.4286390157377227  0.0866750558320035
  0.5120451965429424  0.4813866103188005  0.1951253174924403
  0.5060817123401833  0.5830343529915964  0.3071092516844871
  0.4988864522273246  0.7056000014285360  0.4043358881931383
  0.5063006542701345  0.8008197066736500  0.5089449594057314
  0.4792109892621639  0.9191427485059904  0.6145698602414242
  0.4819031365919884  0.9884650760696161  0.6996860565224665
  0.4767661793766820  0.0893654279660012  0.8169275879145701
  0.5098680821885182  0.2048374219661468  0.9212438637175282
  0.5005254865360342  0.3064794842979950  0.0084365177019592
  0.6095969734053952  0.4258386690793046  0.2117771186400290
  0.6104165305587941  0.5067730339753780  0.3095882498035749
  0.6023632746839382  0.6017668169805503  0.4008744506083204
  0.5806904468941241  0.7086000847598868  0.5125808085521797
  0.5959078336230093  0.8174339587152701  0.6133118978119541
  0.5929298802409448  0.8915757905764181  0.7141806223661362
  0.5948110368800741  0.0295534444418024  0.7935552082093267
  0.6071013452060683  0.1105794642984677  0.9019893831099282
  0.6147406699840445  0.2119726030332600  0.0173789109783087
  0.6033807476012498  0.3150231342110885  0.1148341029975484
  0.7091432175424401  0.3969855298683385  0.3343530039760978
  0.7199699730958784  0.4947726892216835  0.4032599295254897
  0.7011511044975123  0.5940590685936016  0.5234008528368363
  0.6889036170567380  0.7126205018928147  0.5949669288826485
  0.7084713792528774  0.8278294364419878  0.7069874869645929
  0.7017927016023435  0.9132450979738564  0.7912027685055136
  0.7140191228780282  0.0027620547129814  0.9143636108664097
  0.7087166962691356  0.1066057036737220  0.0037933944429867
  0.7160575419632877  0.1911913302064221  0.1279009990238293
  0.7174199161924690  0.3152862036618203  0.1991677326730326
  0.7946660203328477  0.4140780248089300  0.4109189281207577
  0.8021727368396014  0.5168056908168879  0.5109558100997589
  0.8055663765148466  0.6045714816313890  0.6186917616247243
  0.8128529687388379  0.7248245303683234  0.7007974514892510
  0.8036195438203819  0.8107697002452312  0.8012706564129388
  0.7982802290421631  0.9049365043689406  0.9002005733196796
  0.7996190357372441  0.9966926220804240  0.0307312368753117
  0.7962019742387056  0.0798044041808552  0.1160073145877476
  0.8190527096973881  0.2034795114402073  0.2045094426323217
  0.7996362619937614  0.3113475507726022  0.3088048113140189
  0.8709628970738805  0.4108642751363050  0.4752518459084314
  0.8749601852336824  0.5140361529487407  0.5745233737291997
  0.8974462736601510  0.5951238889550226  0.6952378624318456
  0.9081538772886333  0.7160779005261801  0.7981150034522955
  0.9225131168305509  0.8167642408514055  0.9098565248446491
  0.9066790609747386  0.9020245917954313  0.9971686688412191
  0.8941838946691760  0.9961254341563262  0.1225753167781747
  0.9048169086450315  0.0873226813647321  0.2335886131282621
  0.9008965848432169  0.1884445356062940  0.3176795795338236
  0.9067529792147795  0.2779403299921412  0.4059576033903980
  0.9976402109473597  0.4185492064474658  0.5868070045951299
  0.0000577057689100  0.4933562043760844  0.6838050622604257
  0.9806060974738671  0.5981194809647405  0.7857783700388055
  0.0200559324777956  0.6958572819694737  0.8714446151282118
  0.0078296773886350  0.7980984852741599  0.0025404857027240
  0.0135398704792777  0.8932045598914300  0.1057160143806115
  0.0005482083759887  0.9854910587843122  0.2025000957120042
  0.0087938701459507  0.0658516668650719  0.2837586762219928
  0.0070037594342978  0.1733696416752011  0.4177040356182005
  0.9790679660008124  0.3031966253184422  0.4921837527677937
  0.0964689612152085  0.3797053713006804  0.6668017685293179
  0.0851876855312952  0.5151846617937679  0.7660333649198847
  0.0991052370181649  0.6042827323158946  0.8732675169638782
  0.0932485283683704  0.7048194547748849  0.9892611085450369
  0.1259150320230447  0.8098523978000500  0.1161373743482272
  0.1166544001333278  0.8838504264184195  0.2061745301302338
  0.1143881964715092  0.9855504221328033  0.2834170024523246
  0.1165177500535677  0.0809408075998164  0.3942044570367358
  0.0906004076093438  0.1855225251779729  0.5038559020023357
  0.0896870084045602  0.2946516030570692  0.5699681388538380
  0.1922825723197050  0.4027430104045138  0.7908564738934771
  0.1755301754720122  0.4940778695745323  0.9065745406061794
  0.2008039599057199  0.5977360996166752  0.0058093345396557
  0.1814993914430616  0.6975453922525645  0.0942885040832380
  0.2111878636222926  0.8083978314801996  0.1885601133306380
  0.2174742210899723  0.8864683326587439  0.3015368638841949
  0.2030571410204516  0.9924612847313128  0.4148081964715118