Li 
 1.0000000000000000
    21.0004999999999988    0.0000000000000000    0.0000000000000000
     0.0000000000000000   21.0004999999999988    0.0000000000000000
    -0.0000000000000000   -0.0000000000000000   21.0004999999999988
 Li 
 500
Cartesian
  0.1731393400000000  0.5551528999999999  0.7588966800000000
 -0.2413957100000000  2.2142831799999998  2.4329193600000001
 -0.0386555800000000  3.8497559600000000  4.7101858999999999
 -0.3910062500000000  5.7394711100000002  6.4639577099999999
 -0.2546949200000000  8.2638380399999996  8.3689330599999998
 -0.5802741900000000 10.3227726200000003 10.4440698100000002
 -0.0667477300000000 12.7908471099999996 12.2499479200000003
 -0.3143587000000000 14.2993181800000002 14.4942028399999998
 -0.3165894600000000 16.8935054899999990 16.4825840399999990
 -0.2093163700000000 19.2169835599999992 19.2133648199999989
  2.1988239500000000  0.3371972700000000  2.8145364499999999
  2.2259069899999999  2.2340452900000001  4.3293943500000003
  2.1601940499999999  3.9887125499999998  6.5955086700000001
  2.3279921200000002  6.1556193600000002  8.4573124400000008
  2.0875674700000002  8.3556910099999993 10.2994279500000001
  1.9730950199999999 10.6023989200000006 12.5942489900000005
  1.8490971000000000 12.5686323800000004 14.4937614400000001
  1.9231869399999999 14.7321907299999992 16.2414600900000003
  1.8003849500000000 17.0279620799999982 18.5599669499999997
  2.1036765800000001 19.3372513899999987 21.4033708999999988
  4.7205028899999997  0.0502972400000000  4.0889759999999997
  4.3742794399999996  1.7579031899999999  6.3836449300000000
  4.0481078200000002  3.9078450199999999  8.3038957000000000
  4.5869033999999997  5.8837883800000004 10.5625440200000007
  4.3003990400000003  7.9460820700000001 12.3770577700000004
  4.1855498799999999 10.1336745900000000 14.3735167500000003
  4.1874639699999996 12.5051423199999991 16.5046507799999986
  4.0671897100000001 14.5196241700000002 19.0055434400000003
  3.7773165000000000 17.0650836999999989 -0.1288582800000000
  4.1477637900000000 19.6612960200000018  2.2646934600000002
  6.3762181599999996 -0.2649066300000000  6.3349034299999998
  6.8517922499999999  1.9386311599999999  7.9277303899999998
  6.3876533999999996  4.0437857700000004 10.4557442300000005
  6.4973040299999996  6.4105939599999999 12.6978198800000008
  6.1587740399999999  8.4472134499999996 14.5299714099999999
  6.2480869600000002 10.4705677900000005 16.6931416199999987
  6.0917297899999996 12.2102073000000004 18.8217165800000004
  6.0616566399999998 14.5353441700000001 -0.1818971200000000
  5.9213264499999996 17.0874698900000013  1.9231821099999999
  6.4511498700000001 18.9194273700000011  3.9279880299999999
  8.4534351900000004  0.0853888200000000  8.5275659600000004
  8.2863168300000005  2.5135724700000002 10.3568459199999996
  8.6387018100000006  4.5203150100000000 13.0360197800000002
  9.1020140000000005  6.4677682699999997 15.0537617000000008
  8.4796786300000004  8.7046723400000001 16.5660866300000009
  8.2774668800000004 10.5700090400000004 18.7269687900000008
  8.2440708899999997 13.2177366000000003  0.0604926200000000
  8.1472480100000002 14.8295124800000000  2.2843932300000001
  8.4060268199999992 16.5182787600000012  4.2572452500000004
  8.3323125499999993 19.3456203900000006  6.0495747099999999
 10.2335607999999993  0.2520954600000000 10.5157118100000009
  9.9479768600000007  2.1552894999999999 12.7036390499999996
 10.3588788600000008  4.4933839600000001 14.8322576000000002
 10.8357094699999994  6.2639510800000000 17.3559591799999993
 10.8255983300000000  9.0152866399999994 18.9043595000000018
 10.1469922500000003 11.1006696500000004 -0.1003412100000000
 10.6677705700000001 12.6018951900000005  1.8432100600000001
 10.3829596399999993 14.7382890599999996  4.3346518800000000
 10.1382948600000002 17.0113823599999989  6.2726988400000003
 10.6509096200000002 18.8873597900000014  8.5517508200000005
 12.1771825899999993 -0.1865856300000000 13.0123427300000003
 12.3606008000000003  2.1749197300000001 14.9133646100000004
 12.4106504700000002  4.2574999099999999 17.2061332900000004
 13.2527333200000008  6.3898471399999996 19.5184915799999992
 12.8837507700000007  8.7410066600000000  0.1541383700000000
 12.8823907200000001 10.7925012500000008  1.9426404200000000
 12.2290449199999998 12.1182713199999998  4.1460499000000004
 12.0946739799999996 14.8466857300000008  6.1411108299999997
 12.5231813699999996 16.6649639299999990  8.1979520499999996
 12.3012198000000001 19.2711357700000008 10.5934255000000004
 14.6133831399999998  0.1010065200000000 14.8514543099999994
 14.8834135500000002  2.4367938300000000 17.1195323200000011
 15.0042225800000004  4.4025980100000002 19.3339317599999987
 15.1447251699999992  6.6340263200000003  0.7198363900000000
 15.0003075399999997  8.9398449000000006  2.6906962800000001
 14.7339216299999993 10.3582607200000005  4.3835154500000000
 14.8195178900000002 12.9374519499999998  6.2134377399999998
 14.0361507400000001 14.7173352299999998  8.3395436800000002
 14.3837343299999993 17.1312270700000013 10.4771360700000002
 14.6055637300000001 19.1196169599999983 13.0606220499999992
 16.8669189999999993  0.4178184600000000 16.9627715799999983
 16.7238269600000002  2.6580859000000001 19.2522365700000009
 16.9705293099999999  3.8708770299999999  0.9142832100000000
 16.9783097100000013  6.9487773500000003  2.6957764800000001
 16.8459826399999990  8.3328926499999998  4.5433873000000000
 17.1864542100000008 10.6747228500000002  6.2741294999999999
 16.5779918700000017 13.3077749700000005  8.2691522099999997
 16.2483627999999989 15.1620815899999997 10.5274468100000007
 16.6178057000000017 17.0277719400000009 12.7363877100000007
 17.3724910900000005 19.1642504199999983 14.9412929499999994
 18.9329110900000011  0.1859888100000000 19.0628969099999992
 18.9551320899999993  1.6296423200000001 21.3365161400000005
 18.6536572499999984  3.8405826300000001  2.5878228200000000
 19.1484937700000017  6.1686694400000004  4.5223554899999998
 18.9405085799999995  7.7190123300000000  6.3494437000000001
 19.0053579600000013 10.3697664799999991  7.7878319700000000
 18.6861468600000009 12.8050183400000002 10.3256646799999992
 18.4540886300000011 14.9243647199999998 12.3880603100000002
 19.1019289400000005 17.3102812300000011 14.8479369299999995
 18.7572667099999997 19.1977141700000011 16.7040127100000007
  2.1810275200000002  2.4356187899999999  0.6755745900000000
  2.0961018700000000  4.1630046399999996  2.2986534500000002
  2.0196263499999998  6.1938187300000003  4.4957638099999997
  1.7831714400000001  7.9420457200000003  6.5751724899999999
  2.0518925900000000 10.6322354400000005  8.3013532300000001
  1.8852485600000000 12.8342864700000003 10.0660883099999996
  1.8276003999999999 15.0040842500000000 12.7450867799999994
  2.1026940700000001 16.6399931199999997 14.5327176500000004
  2.1620489699999998 18.8634627200000011 17.1488081399999999
  2.0285506299999998 20.8837430300000015 19.3462827900000001
  4.4973232999999997  2.0873533800000001  2.4544886400000001
  4.1251834000000001  4.0824979299999997  4.6283422800000000
  4.0098640699999999  6.2176923200000003  6.5914380899999996
  4.1944707899999996  8.4103952199999998  8.0565509300000002
  4.2891499700000004 10.4550533199999993 10.4205467400000007
  3.9153222200000002 12.8933409999999995 12.7006529599999993
  3.9987041099999998 14.5828622200000009 14.3048592899999996
  3.8013958799999998 16.5393252400000002 16.7120839600000011
  4.2396493499999997 18.8916605500000010 19.3682026100000009
  4.2415466400000001 21.3098483399999985 21.2497823399999994
  6.3915670899999997  2.4289429899999999  4.4400126799999997
  6.1695128099999996  4.5979306199999996  6.5579765500000002
  6.3300323199999999  6.0913742099999997  8.1480833700000002
  6.3418742699999999  7.8376275399999997 10.0813203599999994
  6.2920549499999998  9.9740126199999999 12.2247364500000000
  6.1131401399999996 12.4851466799999997 14.8019116900000007
  6.2781815600000002 14.4432252600000002 16.4165425499999991
  6.1609995299999998 16.6916026500000001 18.6310779099999984
  6.1477492700000003 19.4805418599999989 -0.0451176500000000
  6.4942047000000001 21.4218098700000006  2.0497862100000002
  8.6767372599999995  2.4739344600000002  6.1476341400000001
  8.5911604799999992  4.5233984100000004  8.1729013500000001
  8.5115217100000002  5.8826023000000003 10.3137459400000004
  8.6048040900000000  7.9592380199999999 12.7415597700000003
  8.2510164400000008 10.0341276100000005 14.4478748299999999
  8.3243012499999995 12.4278618099999996 16.7007217200000007
  8.2111459199999999 14.4520906700000005 18.5325464500000017
  8.0736306500000001 16.7005164800000010 -0.3143656900000000
  8.6703975000000000 18.9005662500000007  1.6967937600000000
  8.4684630700000003 21.4667731300000000  3.8123100600000002
 10.5445741000000002  2.4095909600000001  8.4573511299999993
 10.8466745600000003  4.1425926999999998 10.8039485299999996
 10.7607327599999998  6.1803238100000000 12.6888760200000004
 11.2606189200000006  8.2335513500000008 15.2206563999999993
 10.7220545800000000 10.6024742399999994 16.9640706899999998
 10.9452866499999999 12.7535464899999997 18.7815217300000015
 10.3838364300000006 14.9179043399999998 -0.0910557800000000
 10.1539024900000001 16.8748622600000004  2.1040993700000001
 10.4839629199999997 18.7522359399999985  4.0828335500000001
 10.3192151899999995 21.5219412000000005  6.2663831700000001
 12.5418865299999993  2.0311194600000002 10.8413125299999997
 12.7018425500000003  4.0617931299999999 12.9283379800000002
 12.5404864200000006  6.1635739799999998 14.7142225500000006
 13.4068789800000001  8.3166749899999992 17.1267135400000008
 13.2506489500000004 10.8192853699999993 18.7354975099999983
 13.1618566399999999 12.5806968700000006 -0.1349575700000000
 12.5025452599999998 14.6325436199999999  1.9858058400000000
 12.0350883599999996 16.7497833199999988  3.9709748000000000
 12.2675480599999993 19.0595079900000002  6.1472474500000001
 12.3748242400000006 21.2746480899999995  7.9174308000000000
 14.6440479799999999  1.7051561200000001 12.8719844699999992
 14.6512192799999994  4.4277365299999998 14.7676794800000000
 14.6486530500000001  6.4864784999999996 16.4922422399999995
 15.1692250000000008  8.6479138199999994 19.2790547699999983
 15.1941460300000006 10.5560552300000001  0.0616925900000000
 14.8060778899999992 12.6743846399999995  2.2520443100000000
 14.2920990999999997 14.6809977699999994  4.1693249500000000
 14.3098654500000002 16.8367091699999989  6.2500411800000002
 14.0831301999999994 19.1798096700000009  8.3105325699999995
 14.2541774500000002 21.2837469400000003 10.6143101800000004
 16.6095636300000002  1.7666575499999999 15.0407508500000002
 16.9321860800000010  4.6100498300000003 16.7411603599999985
 17.1933040400000010  5.9885288000000001 19.2028901199999993
 16.8894277300000013  8.2071112900000003  0.5424407800000000
 16.9853131499999996 10.5109786799999991  2.2576829900000002
 16.9303714800000016 12.6637178099999996  3.8161378899999998
 16.5508079799999983 14.9630562099999995  6.0535455699999998
 16.4821723999999996 17.0831428599999988  8.3427950099999997
 16.7792219500000002 19.1281261100000002 10.5063168900000008
 17.0731137000000004 20.8612886599999996 12.4107631499999993
 19.0898902200000009  2.3541246999999998 16.8337107099999983
 18.9794670900000000  4.0812879300000002 19.4973135100000015
 18.6774559899999986  6.0609311100000003  0.2310463700000000
 19.1814940000000007  8.7004799500000001  2.2819700200000002
 18.9729034799999994 10.5551913899999992  4.5289582700000004
 18.9731272799999999 12.6158308199999993  5.9469858699999998
 18.2315118500000004 14.8919867799999999  8.3112834400000004
 18.7828275900000001 17.1886258000000005 10.5233621100000008
 19.2790797299999994 19.0116685899999993 12.3923566199999993
 19.1172244999999990 20.9433930699999991 14.6667162500000003
 21.0401582000000005  2.2030829299999999 18.8891364599999996
 21.4092169500000011  3.8949477699999999 21.1720001300000007
 20.9582662599999985  6.0201985000000002  2.1846049500000002
 21.3238632800000012  8.1515684400000001  4.3955852000000002
 20.6134156699999984 10.6353140499999999  6.2769999299999997
 20.7812921099999990 12.9610861400000008  8.6466706599999998
 20.7426986699999993 14.9209572900000005 10.6033782300000006
 20.8600997100000001 16.6184240699999997 12.7147480799999997
 21.1098844600000000 18.9125892600000007 14.7535041200000006
 21.0363105300000015 21.1824402099999993 16.4565723999999989
  4.3645782300000002  4.1900195099999999  0.0587855700000000
  4.2232784299999997  6.0430456599999998  2.0444383799999999
  3.8237516399999998  8.2633605400000008  4.5957962600000002
  3.7655704800000001 10.4543800000000005  6.2652742500000000
  4.4009845600000004 12.5360664199999992  8.2499193500000008
  4.2318581300000000 14.6821944000000002 10.7468863900000002
  3.9940751099999998 16.8112304899999998 12.3262590999999997
  4.0994513699999997 18.7100341599999993 14.5811110100000008
  4.1374256100000002 -0.3133432200000000 17.0255796900000007
  3.8199573199999999  2.1877384800000002 18.6067438900000006
  6.1998308399999997  4.1578069500000003  1.8249031300000000
  6.0564049700000000  6.2797262299999996  3.9574014000000002
  6.5885607600000000  7.8703801999999996  6.0283236200000001
  6.5947373300000001 10.1264798299999992  8.0614254100000000
  6.2492906799999997 12.4425467300000001 10.4987343099999997
  6.0610106899999998 14.8262769100000007 12.6284149699999997
  5.8452604600000004 16.4692381400000016 14.4488753499999998
  6.0042243199999996 18.6213444999999993 16.9065738799999998
  6.0957036400000000  0.1663009900000000 18.8896475399999986
  6.4827731300000000  2.4088720800000001 20.6067530300000001
  8.3389387900000003  4.3790221999999996  3.8174303500000000
  8.6688128599999992  6.1222277800000002  5.7609369499999996
  8.4880348899999998  8.0968938999999995  8.0541570900000004
  8.2757664999999996  9.9634995199999992 10.5810405299999992
  8.5462509400000002 12.6259810600000009 12.3986835200000005
  8.3210349099999998 14.7105093199999999 14.6711736199999994
  8.4435950299999991 16.6053768300000009 16.6551386100000016
  8.0279717000000002 18.7462725399999997 19.1636308399999997
  8.5432858899999999  0.0709030000000000  0.1148998500000000
  7.8258804099999999  2.6399560800000001  1.7419998800000001
 10.1664470900000001  4.0647525199999999  5.7590351200000001
 11.0238757500000002  6.0835198999999998  8.3152988499999996
 10.5167493699999994  8.2720045800000008 10.7301812499999993
 10.4574958999999996 10.3867290000000008 12.7361874600000000
 10.2929271599999996 12.0721699400000002 14.8412099000000008
 10.5648490499999994 14.2681590099999998 16.4781501900000009
 10.2218393600000006 16.7765664900000004 18.7243440200000002
 10.7705833799999997 18.6758585100000012 -0.3454389100000000
 10.5292174200000002  0.1148884000000000  2.0623755699999999
 10.7091009300000000  2.2011243399999998  3.8578794799999998
 12.3029708099999997  4.2863459400000004  8.4453511199999998
 13.0055623899999997  6.3346049300000002 10.8962001399999995
 12.8865115400000008  8.2476946400000006 12.6813581499999994
 12.9919406199999994 10.4904728499999997 14.4443952800000002
 12.7506453999999998 12.5368774100000007 16.4883750099999986
 12.5983592000000009 14.6052568899999997 18.3499925799999986
 12.4758597299999998 17.0252980100000002 -0.0206222000000000
 13.0069843200000008 19.0496673899999998  2.0199573200000001
 12.8704362299999993 -0.1305734600000000  4.1197188899999997
 12.4268237300000006  2.3591481299999999  5.8942963400000004
 14.5270327300000002  3.8837849900000001 10.9353756600000001
 14.8276129500000007  5.9786599999999996 12.8270577499999998
 14.7664347700000000  8.5580867400000002 14.6346371600000005
 14.8847759400000008 10.5933924000000008 16.7978677900000015
 14.7918610000000008 12.7677033699999996 18.4442362899999992
 14.6472981000000004 14.8838152000000008 -0.2151675500000000
 14.7379173500000000 16.5250301700000009  1.7954121599999999
 14.4403551399999994 18.4680722499999987  4.0268065899999996
 14.6541178999999993  0.1677280400000000  6.1052026300000000
 14.3895764199999991  1.8651866200000000  8.3199769400000001
 16.9136277300000017  4.0404934499999996 12.8482943100000000
 16.7435576899999994  6.1958030099999997 14.9859165500000007
 16.9981697499999989  8.0108878299999997 16.8393690400000011
 17.0497403600000013 11.0613714999999999 18.6642131499999984
 16.8009406199999987 12.9509412899999994 -0.2701082600000000
 16.9477573100000001 14.9209048800000001  1.9939670300000001
 16.5788842500000015 16.7834800800000004  4.1663354200000002
 16.5874245699999996 19.1770174299999994  6.3246231499999999
 16.3859951399999986 -0.0583597800000000  8.4374529700000007
 16.4559847700000006  1.7185109400000000 10.1374245999999992
 18.9033776200000005  4.1167174199999996 14.6254626600000002
 19.0213501299999983  6.2381264800000000 16.7063932500000014
 18.7005668299999996  8.3850542699999995 18.8186464300000011
 18.8884034599999993 10.7200764599999996 -0.3248403100000000
 19.1941289700000013 12.7493067500000006  2.2243590499999999
 18.5314767099999997 15.2302224099999997  4.0134363100000003
 18.9327443299999985 17.2692478700000009  6.1354133199999996
 19.0818965600000006 18.7611721399999993  8.5571194700000000
 19.0889144900000005 -0.2831028600000000 10.3030320100000008
 18.7934667299999987  2.0936080000000001 12.7129711200000006
 -0.3508034800000000  3.9594383999999998 16.7021951800000004
  0.0235936600000000  6.2784408999999997 19.3053017500000017
 -0.2117612600000000  8.2693364400000000 -0.4085094000000000
 -0.1973844600000000 10.8337573599999999  2.2192818399999998
 -0.1065212400000000 13.1609459399999995  4.4042336300000002
 -0.0434805400000000 14.8095055700000007  6.4206934200000001
  0.0926697700000000 16.8668580900000009  8.2459418099999997
  0.1058086600000000 18.9863085399999996 10.1072102600000004
  0.2404223000000000  0.0273825500000000 12.5764409199999996
  0.2346630900000000  2.4365513200000000 14.4478964300000001
  1.6297133100000001  3.9824745699999999 18.6344825500000013
  2.1069632999999999  6.1796372300000000 20.6078439399999986
  1.8343449000000001  8.2119039300000001  1.8911817600000000
  1.6709455000000000 10.6939336399999991  4.0647279300000001
  1.8481772500000000 12.5546077399999998  6.3602379000000004
  2.5796522600000000 14.9523464100000005  8.3251226000000003
  1.9205978600000000 16.8799427599999987 10.4325886200000006
  1.8282550399999999 18.7803744399999992 12.7398240000000005
  1.9497395799999999 -0.2065736900000000 14.5016554400000004
  1.9151537199999999  2.2355571400000001 16.3726320799999989
  6.4940403099999999  6.2357741200000003 -0.0752979300000000
  6.1707980999999998  8.0343637799999996  2.3236268500000001
  6.4647615600000004 10.4108396899999995  4.1213284300000002
  6.2665704900000003 12.4774416800000001  6.1577281599999996
  6.3683271399999999 14.9837062400000001  8.4043331600000002
  6.3259209199999997 16.9002417200000004 10.7986104500000000
  6.3447569799999997 18.8565708200000017 12.7234432399999999
  6.0381505500000001 -0.0465778800000000 14.9482501600000006
  5.9916036200000002  1.9019698500000000 16.8695446699999998
  6.2802726299999998  3.9332412799999998 18.7891543600000013
  8.1500263900000007  6.3558335599999998  2.1627761500000000
  7.9589385500000001  8.1133830499999995  3.8706575499999998
  8.4706838100000006 10.3395391599999993  6.0518023000000003
  8.4452926399999999 12.0237966499999995  8.4092842900000004
  8.7248305800000008 14.6640114799999992 10.6890769900000002
  8.2248912900000004 16.9008096899999991 12.7029721900000006
  7.8584185900000003 18.7644196299999990 15.3553645499999991
  8.1379023600000000  0.2108786500000000 16.8150097900000013
  8.3142889699999998  1.7274714700000000 19.3139338900000013
  8.6449644299999999  4.6784321699999998 20.7337630600000011
 10.3925951500000000  6.4858251500000001  4.0957609399999999
 10.4471937900000000  8.3771330600000002  6.1485984100000000
 10.7308967299999996  9.9304794600000008  8.3004501299999998
 10.6979874600000002 12.2286637900000006 10.5316285000000001
 10.6031376500000007 14.1669855600000005 12.6616911200000004
 10.1719555300000000 16.7484911700000012 14.2009294100000005
 10.2052555300000005 18.8773995700000015 16.5242976900000009
 10.3598194299999999 -0.2231942900000000 18.9053135200000000
 10.2769267800000002  2.3146282600000001  0.0625329300000000
 10.5583720999999997  3.9000445899999998  2.1524030199999999
 12.6953870099999993  6.2955823799999999  5.8759649100000004
 12.5938778500000002  8.4294497100000001  8.1588641899999992
 12.9484369899999994 10.2311367299999993 10.7717275499999996
 12.3390916399999995 12.4996624300000008 12.4989896199999997
 12.8123460599999994 14.5954751300000005 14.8893698600000004
 12.3826823499999996 16.5854034299999995 16.7605189299999999
 12.6356378399999993 18.8123935099999997 18.5182277599999985
 12.6172839099999994  0.2152609300000000 -0.2636458500000000
 13.0528151200000000  1.9500730500000001  2.0550997899999999
 12.6377406000000008  4.4231554900000001  4.3544830499999998
 14.7851552900000005  6.0166942399999996  8.4053705999999995
 14.8453111900000003  8.2991381799999999 10.6035037600000006
 15.0176406500000006 10.2999981500000004 12.7496875500000009
 15.2711294500000001 12.7466249299999994 14.7713386500000006
 14.8315068199999995 14.8127999900000002 16.5222725799999992
 14.8173535899999997 16.8510338600000011 18.8146473000000007
 14.7057704999999999 18.8131899500000017 -0.1602253900000000
 14.8539473399999995 -0.0385545400000000  2.3502690700000000
 14.8691255899999994  2.0565127099999998  4.3389331599999998
 14.6584123799999997  3.8767821400000000  5.9194962300000000
 16.8327716199999990  6.0585329200000002 10.4083065700000006
 16.7680290300000010  8.2017122400000009 12.6948951200000000
 17.0305089800000005 10.3109342700000006 14.8793316400000002
 17.4588226900000016 12.9955882999999996 16.4733487499999995
 16.9036037999999991 14.9378376999999993 18.6231406300000017
 17.1525693100000005 16.6693475699999993 -0.0828599600000000
 16.9188245299999984 18.6585426000000005  2.3466665400000002
 16.6874959400000016 -0.2697818300000000  4.1726687599999996
 16.7614782799999986  1.9775205000000000  6.3240853699999997
 16.2262139699999999  3.7253972100000001  8.3820960600000003
 18.7587181399999992  6.0477832600000001 12.1572062699999996
 18.8156854799999991  8.2245107599999994 14.5188288700000001
 19.2095969500000017 10.2958029199999999 16.8097883000000010
 19.7578780700000003 12.5721289699999996 18.7729830100000008
 19.2705804299999990 14.2859178799999995 -0.3562205400000000
 18.9545811099999995 17.3349247499999990  1.7094865100000001
 18.7915085300000015 19.0285104099999991  4.1493121200000003
 18.8844206300000010 -0.2391697300000000  6.3886950400000000
 18.9568148399999998  1.2198518500000000  8.4520065599999992
 18.9276790300000002  3.2376861500000000 10.2483815600000003
 -0.3701902600000000  6.3198527400000000 14.1252160199999999
  0.5543762100000000  8.2170520200000006 16.9925857200000010
  0.2120874700000000 10.2614635199999995 18.7461398000000017
  0.3909863500000000 12.6278491899999992 -0.0899753100000000
  0.1478076000000000 15.0643275699999997  1.8513406200000000
  0.0246536200000000 16.6473668299999993  3.9832386700000000
  0.1967820900000000 18.5696592000000003  6.0277643400000001
  0.3313672300000000 -0.2091100100000000  8.3582317600000007
 -0.2236247000000000  1.7145789400000000 10.4351154899999994
 -0.0341756800000000  3.9108740000000002 11.9637407699999994
  1.8350620499999999  6.0461639800000002 16.7890501199999989
  2.3876234500000000  8.1891748700000004 18.6147826300000006
  2.2679947999999999 10.4996885500000001  0.0482904800000000
  2.4063642999999999 12.5352833399999994  1.9786773600000001
  2.2256873300000000 14.4392504200000005  4.1805975699999998
  2.4547485000000000 16.9514341500000008  5.9506391599999997
  2.5390463599999999 18.6427610000000001  8.0651758299999994
  2.0975932400000001  0.2081305600000000 10.3836527299999997
  2.5110711100000001  1.7012052000000000 12.3212381200000003
  2.1874231700000002  4.4969329099999999 14.4643020399999997
  4.0880164900000002  5.5579397699999999 18.6690286100000016
  4.0896632899999998  8.2192449100000005 21.1964595100000004
  4.2800545000000003 10.0632312699999993  2.3374438799999999
  3.7933796200000001 12.6137550199999993  4.3399685799999999
  4.5008516199999997 14.9606054000000004  6.4028865300000000
  4.4801394300000004 16.6556901000000011  8.5516806299999999
  3.7782108000000001 18.7054123099999998 10.8336039700000004
  4.3389027400000000 -0.1973004600000000 12.9160398700000005
  4.1828025400000000  1.4977390200000000 14.8976141599999998
  3.7909408800000000  4.3354517200000000 16.5405228499999986
  8.4593626999999998  8.8549567200000006  0.2433311000000000
  8.2151613099999992 10.8083441800000006  2.0457006799999999
  8.8037366600000002 12.5447451700000006  4.2440893400000004
  8.3129613700000000 14.5498496500000005  6.5699595899999998
  8.7457330500000001 17.0423888300000002  8.7300590600000003
  8.6172082200000002 19.1717865399999994 10.5695540399999999
  8.0208679400000005 -0.0033873800000000 12.7176725099999999
  8.1895941600000004  1.9898845700000001 15.0321881899999994
  8.5164450499999997  4.2806862900000002 17.2549581200000013
  8.3736181599999995  6.9228806499999997 19.0761140400000002
 10.6518611799999992  9.0016336500000005  1.8202195100000000
 10.7532051499999994 10.1093595100000009  4.0977292299999997
 10.6279690000000002 12.2440129300000002  6.4494478400000004
 10.4768649400000005 14.8179528299999994  8.4912558199999992
 10.6325668899999997 16.8176142499999983 10.6880986199999999
 10.0636703799999996 19.3024572899999995 12.9062743500000003
 10.1202068199999999 -0.2422391700000000 14.6937570300000004
 10.0123281500000001  1.8767186700000000 17.1558878099999994
 10.7074846600000004  4.3016882799999996 19.3465817599999994
 10.5112854799999997  6.4362224100000001 21.1776710900000005
 12.8018412399999999  8.9428249700000002  4.4474253800000003
 12.8190523499999998 10.6424871000000003  6.5015080400000000
 12.6499299500000006 12.6374040399999998  8.4185639000000005
 12.1947897300000001 14.8809560800000007 10.7644532700000006
 12.5143624599999992 17.1665218499999988 12.8798565099999998
 12.4518239499999996 18.7235373900000006 14.9981501599999998
 12.4913291799999993  0.6206371100000000 16.6650561500000016
 12.7494318000000000  2.3222240400000000 18.9422280399999998
 12.9098614400000002  4.4515306499999996  0.3649658200000000
 12.6712973899999994  6.6156433300000002  2.4115735800000002
 14.8923621399999995  8.3368946200000007  7.0215802600000004
 15.1197294200000005 10.3904738600000002  8.4686601499999998
 14.7245237699999993 12.4755374700000008 10.9916796100000003
 14.4673204099999992 14.9653868499999998 12.4946029900000006
 14.8782531999999996 17.3848320799999989 14.8470907200000006
 14.7379976300000006 19.1786036799999984 16.6156537399999991
 14.9947585900000000  0.0580045300000000 19.2020930099999987
 14.8834049799999999  2.2387730800000001  0.0796631800000000
 15.0375664100000002  4.0151135299999998  2.6859849300000000
 15.0661769499999991  6.6211679200000004  4.1826219699999996
 16.6883837600000007  8.6958455600000004  8.6295029499999991
 16.8460285600000006 10.8531779099999994 10.7303274900000005
 16.9172966900000006 12.6963033999999997 12.9928363400000002
 17.0703187700000001 15.2216775500000008 14.7170968799999997
 16.8764122299999997 17.0265690899999989 16.8270844199999985
 16.7642839499999994 19.0041190600000007 18.9046621399999992
 16.7923995599999998 -0.0694565900000000  0.6453713400000000
 16.7206395599999986  1.6759323900000000  2.4362116100000000
 17.2005164300000004  4.2731714800000002  4.2948005499999997
 16.7927613200000003  6.5384542400000001  6.4850554400000000
 18.2906563200000001  8.6283552100000005  9.9805263899999996
 18.3746013700000006 10.7950162299999999 12.0652781099999995
 18.8468204700000008 12.4978992299999998 14.6003427299999995
 19.0716855000000010 15.0379939500000006 16.7608141300000000
 19.3732367100000005 17.1524574399999992 19.1074419499999983
 19.0407136199999982 18.9429674400000003 -0.0594593700000000
 18.7783088800000009 -0.0813678200000000  2.5741429400000002
 19.0016074900000014  1.8338199700000000  4.9054776699999998
 18.9192787299999985  3.9574294700000001  6.6714300099999999
 19.0422659400000001  5.8368859000000004  8.5253126500000000
 -0.0495567500000000  8.7897426099999993 12.3232405000000007
  0.0012118500000000 10.3607269700000000 14.3602482100000000
 -0.4072816500000000 12.5608081600000006 16.5017386600000009
  0.4211846100000000 14.6133508499999998 18.3007726400000017
  0.1644271400000000 16.7604672400000005  0.0533514700000000
  0.2843440500000000 18.7577423600000017  2.2200891600000001
  0.0115126500000000 -0.3046950200000000  4.2526032599999999
  0.1846756700000000  1.3829179300000001  5.9590740799999997
  0.1470824500000000  3.6408491600000001  8.7719936000000001
 -0.4395831800000000  6.3672807300000001 10.3361049000000005
  2.0258964200000000  7.9740026500000001 14.0031705399999993
  1.7889839900000000 10.8191354900000007 16.0870836799999992
  2.0812595300000001 12.6902395200000004 18.3390544899999988
  1.9582657200000000 14.8015609599999998 -0.2255220900000000
  2.6442786300000001 17.0073052800000006  2.4389429300000001
  2.4498007300000002 18.5613008800000010  4.3297682200000001
  2.4022093199999999 -0.3034483600000000  5.9518987599999997
  2.4469310100000001  1.6997974300000001  8.2784907000000008
  1.9026538600000000  3.8960657900000002 10.5812258700000008
  1.8834720199999999  6.1878309900000001 11.9696159000000009
  4.0380301599999999  8.4578045900000003 16.6083813800000009
  3.6862214500000001 10.3758823000000007 19.0385186399999995
  4.2169835600000001 12.5527569600000000  0.1219989300000000
  3.8115779700000001 14.6488020100000007  1.9801057300000000
  4.4350507300000004 16.9767586600000016  3.9598566599999998
  4.5670673800000001 18.6162782200000017  6.3324249100000003
  4.2643014900000002 -0.1583167900000000  8.7111795300000008