Li                                      
   1.00000000000000     
    21.6499999999999986    0.0000000000000006    0.0000000000000000
     0.0000000000000006   21.6499999999999986    0.0000000000000000
    -0.0000000000000006   -0.0000000000000006   21.6499999999999986
   Li
   500
Direct
  0.0037695621247096  0.0021989972286391  0.0059427764434190
  0.0115367233256336  0.1125657930715960  0.0599596568129357
  0.9882350540415672  0.2174352411085465  0.1870454452655892
  0.0176904688221740  0.2898541565819883  0.3081864290993082
  0.0110328600461926  0.3718649542725174  0.4037233293302549
  0.0056571912240173  0.4935130974595836  0.5181038050808340
  0.9989090734411050  0.6082487307159354  0.5983539551963020
  0.0091418147805982  0.6987227325635104  0.6989699575057742
  0.0023868711316410  0.7978473344110881  0.8305235459584281
  0.0137514651270223  0.9078972780600481  0.9395127080831429
  0.0918394286374138  0.0035007094688240  0.1043656568129308
  0.0859533131639694  0.1248895431870665  0.1774574133949187
  0.0812294817551944  0.2019209339491894  0.2864499875288686
  0.1116803163972264  0.2865101376443420  0.4124623662817584
  0.0895320826789856  0.3964596743648983  0.5101587140877584
  0.1066917699769050  0.4823527445727507  0.6222716752886868
  0.0982571311778315  0.6098810568129309  0.7163354660508077
  0.1108960217090100  0.6736706794457277  0.8153023353348701
  0.1227895939953783  0.8121847561200894  0.9147245801385679
  0.1223891311778260  0.9021946702078552  0.0144369699769058
  0.1943988124711282  0.9861674854503448  0.2110958646651255
  0.1737232637413371  0.1317781561200917  0.3335988919168571
  0.2125051090069263  0.2085578401847599  0.4073307889145497
  0.1821404877598169  0.3121637334872958  0.5190313034642031
  0.2006318060046155  0.4037703963048500  0.6157503321016193
  0.2021168406466529  0.4939004207852165  0.7282176739030035
  0.2329385519630520  0.6071217002309481  0.8300715454965371
  0.2354688337182438  0.7240089053117771  0.9239855344110879
  0.2252102351039227  0.7924265321016151  0.0069715431870705
  0.2130423635103895  0.9166877279445700  0.0933438909930686
  0.2730310498845299  0.0100104258660494  0.2860971561200927
  0.2868377496535786  0.0978564591224043  0.3960104387990739
  0.2929915939953815  0.1897693219399557  0.4903379769053089
  0.3045117852193968  0.2856349644341805  0.5930532743648982
  0.3024394083140862  0.3893856508083147  0.6967621136258657
  0.3070164249422618  0.5107141265588950  0.7874597284064677
  0.3205563884526583  0.6124032355658215  0.9205747182448007
  0.3179375325635121  0.7324786563510415  0.0230410595842940
  0.2981688290993105  0.8184849676674375  0.1177060605080840
  0.3041132161662787  0.9124414914549632  0.2085239390300231
  0.3736047288683579  0.0056548521939987  0.4016929200923798
  0.3584136346420337  0.1005848651270185  0.4878764822170893
  0.4003357274826769  0.1987182909930709  0.5616054595842925
  0.4022336632794463  0.2693675117782917  0.7157603210161696
  0.4139153856812925  0.3959813066974576  0.8091903302540402
  0.4104221094688256  0.4987393584295603  0.8970882609699800
  0.4204485644341815  0.6105739108545052  0.9977248609699743
  0.3954934129330283  0.7110019963048515  0.1245521113163974
  0.3905217094688211  0.8251776863741327  0.2343564646651259
  0.3702561524249433  0.9066247866050787  0.3575542378752914
  0.4811406240184724  0.0164621371824509  0.4969766725173201
  0.4822794244803674  0.0930662207852180  0.5977467662817517
  0.4854182545034647  0.2153938341801407  0.7032613487297894
  0.5051765163972277  0.2807494152424965  0.8208222886836012
  0.4829377852193986  0.3576959316397250  0.8917727935334838
  0.5087542840646648  0.5135303501154738  0.9809828244803711
  0.5009669538106252  0.6110896868360243  0.0831103769053101
  0.4774681487297912  0.7216080152424951  0.2060198558891457
  0.4952309833718260  0.7833449066974580  0.3106161616628142
  0.4774008254041604  0.8925067491916892  0.4130048374133963
  0.5906759579676688  0.9872188688221684  0.5738627930715907
  0.5870408660508062  0.1085794568129330  0.6971254281755179
  0.5945748133949209  0.1919032771362552  0.8117975861431859
  0.6063078226327931  0.2745903912240166  0.9311442009237894
  0.6065153598152406  0.4022093168591212  0.0019479399538085
  0.5859938050808324  0.5095896267898397  0.0902218692840648
  0.5982635478060061  0.6101872951501122  0.2070958120092357
  0.6187757976905317  0.6967391371824476  0.3107240263279465
  0.5954363048498834  0.7726985916859093  0.3924835963048494
  0.5823234683602792  0.8728011094688242  0.5030954415704372
  0.7051861727482702  0.9898304258660531  0.6926002725173177
  0.7091829736720570  0.0959901695150123  0.8049360923787532
  0.6944348642032310  0.1937601630485020  0.9073008554272519
  0.7025934230946902  0.2922600406466529  0.0106797099307130
  0.6913570581986122  0.4218627676674345  0.1206143464203251
  0.6673824868360256  0.5130323348729817  0.2237447390300247
  0.6821002272517305  0.6174704092378747  0.3126488050808334
  0.6982121949191651  0.7070046387990772  0.4165311224018495
  0.7070272374133921  0.8069627676674358  0.5178433464203209
  0.7136054484988463  0.9071322133949167  0.6018773228637428
  0.7882722369514994  0.9877579639722853  0.8075571265588906
  0.8080647542725146  0.1091079575057705  0.9005402831408773
  0.8435201002309469  0.1916033094688245  0.9832260960739063
  0.7696869981524230  0.2932649150115481  0.0907149893764441
  0.7754051792147791  0.3947965404157046  0.1942120521939970
  0.7773422997690531  0.5067277182448038  0.2782576545034630
  0.7851784096997676  0.6002037214780600  0.3791077256351016
  0.8004711870669752  0.7246091131639716  0.5269586415704381
  0.8046068632794459  0.8226166521939930  0.6228935459584264
  0.8422077602771338  0.9060105293302527  0.6807903635103898
  0.8925803408776005  0.0020223653579663  0.9177472960739053
  0.9047752563510372  0.1089952138568151  0.9790503769053132
  0.9160347159353321  0.2197389718244835  0.0775749150115459
  0.8950535090069280  0.3214573205542735  0.2012590392609681
  0.8808148013856822  0.3763605053117800  0.3161070581986110
  0.8619822909930690  0.5081393926096993  0.3753988854503447
  0.8758636632794463  0.6039455741339523  0.5174678300230937
  0.8945763630485004  0.6911094743648931  0.6103114609699745
  0.9192554170900706  0.8135604351039234  0.7113237810623545
  0.9232922734411062  0.8869057330254009  0.8172470508083123
  0.0918313394919181  0.1046881302540399  0.9739940036951467
  0.1247601293302552  0.1977979958429543  0.0812588600461908
  0.0979207672055438  0.2904478965357953  0.1707179187066998
  0.1249789561200956  0.3942774854503455  0.3012720979214762
  0.1258454471131643  0.4806052854503449  0.4205590697459556
  0.1011623371824513  0.6052026032332591  0.4992748688221695
  0.0907928637413420  0.7135845612009248  0.6049261935334869
  0.0917396872979239  0.7894331057736750  0.7048892665127013
  0.1059652193995362  0.8963016300230962  0.8003686364896083
  0.1073725524249411  0.9914101870669754  0.9093219667436472
  0.1849515625866047  0.1041858087759806  0.0780100392609668
  0.2017875745958406  0.2022287889145531  0.2090170614318723
  0.1923714466512720  0.2736549662817538  0.3017595972286387
  0.2099963357967667  0.3983522069284078  0.4244393321016133
  0.1749373879907594  0.5010128115473407  0.5266761025404136
  0.1976088983833719  0.6146065228637383  0.6253433413394944
  0.2041274175519661  0.6900600281755231  0.7031533247113160
  0.2149831062355645  0.7923574568129297  0.7863679016166287
  0.2113084461893777  0.8985501533487295  0.9200514027713638
  0.2118221205542739  0.0103163519630485  0.9972509787528878
  0.2783793219399513  0.1002095699769043  0.1934941713625875
  0.2964083695150137  0.2055845224018498  0.2964769205542694
  0.2889326554272529  0.3092172946882243  0.4019726424942291
  0.3140905464203243  0.3846098739030026  0.5266721852193967
  0.3246915325635129  0.4855199177829093  0.6148523653579687
  0.3137528822170879  0.6075897168591240  0.6640037722863710
  0.3092921339491923  0.6821886152424952  0.7903799944572754
  0.3084054055427217  0.8302513390300206  0.8727017413394904
  0.3066010115473432  0.8998190591224002  0.0018835806004631
  0.3066668480369543  0.0137429381062333  0.1025749297921479
  0.3882579861431878  0.0904882129330247  0.3101852157043865
  0.3911622868360283  0.1983867787528837  0.3919276623556556
  0.3948297755196322  0.3022557311778300  0.4732626637413375
  0.3939553274826793  0.3957786429561168  0.6199883681293272
  0.4372855330254026  0.5037886420323332  0.6856342189376434
  0.3969758378752886  0.6036232013856804  0.7885458762124742
  0.3874437584295620  0.7267886364896086  0.8762467685912227
  0.4235060831408788  0.8069120545034636  0.9887049930715932
  0.3890831787528839  0.9020273168591189  0.0781884207852173
  0.3876202605080863  0.9943537658198593  0.2133716471131635
  0.4727830170900660  0.0887564420323343  0.4251212572748244
  0.4712242180138588  0.1930529487297932  0.4875130900692852
  0.4853883796766709  0.2764305113163985  0.5684186549653560
  0.4988287108545038  0.3731964780600450  0.7023330646651260
  0.5029827612009257  0.5019224826789852  0.7748211782909920
  0.5000892692840679  0.6348304346420335  0.8759601177829097
  0.5229146688221675  0.7376539242494218  0.9908167588914552
  0.5066347528868391  0.8224435519630475  0.1175173491916865
  0.4680410244803710  0.9029372678983805  0.2398509579676684
  0.4773090138568108  0.9915420341801422  0.2973935491916890
  0.5715452729792148  0.1070405662817535  0.4986727903002333
  0.6112895357967645  0.1969707538106249  0.5944771625866068
  0.5939813981524225  0.2937648729792173  0.6821473616628140
  0.5913981833718225  0.3722991057736706  0.7820176960739005
  0.5764593778290958  0.4933966267898384  0.8608592267898416
  0.5996909792147775  0.6098302129330264  0.9825714036951467
  0.6012438669745990  0.7026164064665110  0.1063234060046199
  0.5890429505773653  0.8040401773672059  0.2228521570438815
  0.5971682027713641  0.8987517187066985  0.2940917796766769
  0.6091734000000031  0.9962678517320995  0.4104684406466532
  0.7144893270207859  0.0868503930715931  0.5978771819861421
  0.7193383459584268  0.1876070101616634  0.7155614175519602
  0.6902780822170911  0.2891888240184741  0.8066229515011543
  0.6864930351039291  0.4085341251732117  0.8790193228637406
  0.6788532069284088  0.5217864521939930  0.9717662484988452
  0.6980432124711342  0.5930813025404191  0.0789243769053130
  0.7109769205542733  0.7268651196304816  0.1991040720554267
  0.7167626429561196  0.7960207630484959  0.3218259094688207
  0.7063111376443416  0.8971608711316392  0.4168893801385707
  0.6618028775981557  0.9972117376443421  0.5177566448036970
  0.8114172692840640  0.0653640087759797  0.7123741099307139
  0.8481774586605084  0.1865199334872969  0.8182506886836052
  0.8049466757505783  0.2815381801385684  0.9115686184757479
  0.7750830498845289  0.3855820448036980  0.0009789653579659
  0.7977096207852199  0.5062149168591219  0.0788591270207846
  0.8002234748267867  0.6065052023094708  0.1758020046189372
  0.8100185325635110  0.7068184803695132  0.2906364383371809
  0.8160789681293323  0.7987348475750551  0.4072468586605069
  0.8086343321016187  0.9000572739030019  0.5071679224018482
  0.8152661810623556  0.9983331625866043  0.5622457219399521
  0.9092736752886807  0.0836146378752858  0.8227874762124685
  0.9387680609699771  0.2011279584295593  0.8922374346420341
  0.9159388254041545  0.3026619893764462  0.0100407773672089
  0.8946163939953777  0.4025280605080823  0.0978757399538139
  0.9017286230946908  0.5009878406466513  0.1716429048498824
  0.9027922101616639  0.5837481796766752  0.2910848064665146
  0.8754070900692810  0.6929639819861464  0.3879729357967676
  0.9119296683602798  0.8147996997690541  0.5116180401847572
  0.9324391279445763  0.9197239016166279  0.5961903898383341
  0.8926247436489589  0.9947340096997692  0.7135823076212446
  0.9953762378752913  0.1027323515011531  0.9141714794457272
  0.9951524586605061  0.2006676129330245  0.9934792775981549
  0.0377378055427258  0.3018375616628148  0.0721504489607412
  0.0139192207852190  0.3951930535796748  0.2128909390300251
  0.9924862748267884  0.4779626110854522  0.3020303122401842
  0.0043567090069274  0.6016927972286368  0.4173600309468810
  0.9795477016166316  0.7175469870669744  0.5005296822170919
  0.9811060170900703  0.8133945824480335  0.5896783288683594
  0.9995091598152399  0.8673271487297924  0.7388488900692849
  0.9899023348729798  0.9773805732101621  0.8310504254041575
  0.1948363732101583  0.2068080974595858  0.0081436942263267
  0.1968394586605058  0.3017411316397229  0.1015988092378777
  0.1890013782909961  0.4124404808314068  0.1996274203233241
  0.2287212840646617  0.4943197002309461  0.3194155150115492
  0.2158465875288655  0.6052352549653577  0.4051232605080841
  0.1825553445727479  0.7050107422632763  0.4956388083140908
  0.2006523990762119  0.7950433524249405  0.6163205561200940
  0.2061483279445753  0.8947850642032336  0.6918949505773639
  0.1887675912240212  0.9946113685912223  0.7855433635103921
  0.1990524096997675  0.1111691140877582  0.8908017321016146
  0.2804628138568148  0.1817864341801396  0.0908059967667469
  0.3011204928406457  0.2969479598152418  0.2102822050808300
  0.2900533002309444  0.3986462374133950  0.2903874517321015
  0.3086150822170879  0.4682469247113161  0.4394629685912221
  0.2961836050808344  0.5807510013856785  0.5046799528868391
  0.2997800914549629  0.7032679302540430  0.5749217459584273
  0.3189086775981522  0.7995267616628183  0.6723529205542746
  0.2895060914549674  0.8919826023094686  0.7856388092378737
  0.2993920069284073  0.0067002300230925  0.8752740766743656
  0.3091037302540443  0.0959689339491945  0.9901419450346438
  0.3918005505773650  0.1860094360277103  0.1566824905311748
  0.3913803810623548  0.3017271284064691  0.2723645187066950
  0.4071602184757523  0.3835460304849860  0.3828236337182460
  0.4151751057736703  0.4587931025404188  0.5090278046189383
  0.4350295565819877  0.6064033279445695  0.5739853787528872
  0.4086015912240200  0.6934359053117802  0.6692249542725150
  0.3811663265588905  0.8233441196304838  0.7940398129330219
  0.4065480909930699  0.9373941473441079  0.8827350374133971
  0.4026418355658166  0.0079576198614291  0.9850207847575092
  0.3988304314087756  0.0898268484988449  0.0995324240184772
  0.4800052535796766  0.1914939454965392  0.3044249842956148
  0.5075631030023118  0.2821068258660517  0.3865083939953777
  0.4905299510392638  0.3778740392609734  0.4896683043879904
  0.5281101769053151  0.4900605501154729  0.5865323579676698
  0.5390143750577394  0.5988975741339502  0.6852005870669728
  0.5072444512702106  0.6970825963048526  0.7844715676674383
  0.5291249270207885  0.8207273764434149  0.8666553588914567
  0.5129260078521938  0.9169821505773683  0.9863189002309483
  0.4673304586605056  0.9798255090069290  0.0990109921478037
  0.4849147815242461  0.0772016794457286  0.1927119501154735
  0.5589281722863717  0.1925744318706677  0.3660876988452628
  0.5933200267898400  0.2737986360277134  0.4753068055427221
  0.5838316263279424  0.3673223870669773  0.6019079556581985
  0.5870235903002339  0.4805890184757473  0.7002146702078491
  0.6324653256351027  0.6025943842956138  0.7852430595842961
  0.6244043921478095  0.7153514739030058  0.8765179732101629
  0.5963257376443423  0.8196737159353376  0.9993538808314071
  0.6164694314087740  0.9180415399538120  0.1233493468822147
  0.5844266318706701  0.0195424743648971  0.1845861579676651
  0.5973259949191672  0.0626874554272518  0.2884169418013869
  0.6933579496535813  0.1884552979214789  0.4847600360277156
  0.6757145612009268  0.2819634845265568  0.6081591741339523
  0.7016446725173182  0.3960529367205510  0.7196643196304819
  0.6932856799076177  0.4938340628175553  0.8218061773672076
  0.7240858609699785  0.6141719339491942  0.8965878318706686
  0.7102807999999996  0.7125435792147812  0.9817003325635127
  0.6855144771362589  0.8111985436489633  0.1038038203233285
  0.7064712327944562  0.9027216923787549  0.2298531127020809
  0.7039875986143187  0.0069882609699761  0.3196048170900667
  0.6955984563510427  0.1030982651270236  0.3993327025404128
  0.8051428669745988  0.1975434909930698  0.5883947408775967
  0.8143343815242474  0.3048679491916886  0.7070493953810626
  0.8058056831408749  0.4002969949191666  0.7993759732101609
  0.7974378969976925  0.5246880175519664  0.9160560595842924
  0.8331507357967638  0.6064220461893797  0.0034490577367237
  0.7897375284064694  0.6959137039260952  0.0913045815242484
  0.8171995842956150  0.8081030087759800  0.2036572069284048
  0.8045136766743681  0.9066935921478034  0.3274035870669749
  0.7749609491916871  0.9859865653579689  0.4154372383371836
  0.8108866711316409  0.0998330180138538  0.4840725200923757
  0.8835826697459552  0.1731389602771358  0.6995337672055442
  0.9024146087759846  0.3245822221709034  0.7943593796766777
  0.8862187524249450  0.4109224646651271  0.9120112951501156
  0.9215522521939974  0.4941383644341784  0.0187107602771377
  0.9330211949191707  0.5891601468822145  0.0863171875288700
  0.8834615422632766  0.6884731635103947  0.1804226799076218
  0.9045047431870685  0.7894648018475721  0.2878776655889155
  0.8864563316397209  0.8897985404157041  0.3882559210161673
  0.9194926106235570  0.9915276669745978  0.4832639861431858
  0.9259100258660524  0.0918967422632804  0.6068749953810624
  0.9741429625866047  0.2212487122401825  0.8002176286374123
  0.0023966974595808  0.3235686009237853  0.8907453043879912
  0.0110353150115472  0.3957057418013861  0.0153549575057710
  0.0133877505773654  0.4980762946882251  0.0921653353348759
  0.0232043191685918  0.5915647265588930  0.1886510023094701
  0.9809284637413427  0.6784763981524264  0.2890376535796761
  0.9967552720554238  0.7845464933025426  0.3953418036951533
  0.0143875482678979  0.8927288993071585  0.4782040124711315
  0.9919262378752904  0.9926404443418022  0.6249800859122416
  0.9929866323325669  0.0845457394919151  0.7269212725173233
  0.1048355870669724  0.2287879667436457  0.8764972521939924
  0.1183630752886842  0.2896736480369526  0.9774340775981543
  0.1280881311778259  0.4246565745958435  0.0801935205542748
  0.1260551020785243  0.5030221884526540  0.2258894956120088
  0.1268168304849908  0.6109821150115451  0.3312420715935360
  0.1019551200923772  0.6941945108545013  0.3962094831408791
  0.0800813279445762  0.7904703233256356  0.4764466009237864
  0.0832517113164002  0.8759258452655914  0.6235194341801389
  0.0950165210161629  0.9924674623556555  0.7017188757505792
  0.1043872826789851  0.1225116762124685  0.7950507321016147
  0.2978622614318738  0.2764503713625857  0.9799360535796779
  0.3345176327944586  0.3977616254041578  0.0924762618937649
  0.2935121219399548  0.4911917251732092  0.1901256272517315
  0.2987421117782887  0.6008849704387984  0.3035466896073871
  0.2752963709006906  0.6983840563510384  0.4002782046189353
  0.2644491939953824  0.7946250383371805  0.4919092983833693
  0.2980030166281722  0.8920794230946854  0.5683252725173205
  0.3177212073902993  0.9979902771362603  0.6865733607390325
  0.2739975191685886  0.0860005699769033  0.7876078886836027
  0.2994310046189383  0.1733106651270191  0.9035996115473424
  0.3833085103926095  0.2946173810623591  0.0873311963048522
  0.3846928392609712  0.4350621879907592  0.2033720101616652
  0.3917284267898395  0.5353146905311803  0.2999184799076247
  0.3977197819861402  0.5986556720554290  0.4224440803695160
  0.4002456951501188  0.7026700979214766  0.4881655870669732
  0.4107893842956116  0.8017878669745926  0.5804402060046172
  0.4051374110854482  0.9057220369515022  0.6874781533487280
  0.4135552355658234  0.0115763099307173  0.7818638817551928
  0.3888665990762092  0.1110275510392640  0.8969971200923794
  0.4139674438799048  0.1821935801385663  0.0001882355658225
  0.4763305256351060  0.3231027094688201  0.2091176230946914
  0.4965780360277137  0.4300412896073880  0.2946161556581970
  0.4903251750577340  0.5063226503464193  0.4004767750577400
  0.5019305658198618  0.5890109080831394  0.4996398221708986
  0.5041899371824456  0.6814359533487320  0.6049821293302529
  0.4841111699769058  0.7880776628175497  0.7119312660508115
  0.4979689136258685  0.9034740133949200  0.7890607233256333
  0.5232010069284030  0.0144398170900715  0.8893574180138586
  0.4910656762124717  0.0652151270207852  0.0060645658198624
  0.4971381635103924  0.1878595866050787  0.0989711806004649
  0.5705634304849880  0.2989791357967633  0.2932954665127028
  0.5910888434180137  0.4133736531177803  0.4003534748267867
  0.6003758678983857  0.4953210817551934  0.4873266397228662
  0.6200677150115439  0.6064182674364886  0.6207487219399539
  0.6037831376443421  0.7135016960739051  0.7134154397228656
  0.6171251764434160  0.8048756494226339  0.7745655501154758
  0.6230426849884552  0.8979019284064691  0.8623993214780583
  0.5949870748267898  0.0156784235565794  0.0367366771362612
  0.5957746461893763  0.0986719612009210  0.1074080480369517
  0.5861554009237864  0.1703929949191689  0.1884571745958397
  0.6648485117782883  0.2659330914549685  0.3791855972286342
  0.6798420572748256  0.3756609002309474  0.4760192073903013
  0.6781530277136270  0.4944355404157079  0.5930202267898395
  0.6813796937644341  0.5908816374133963  0.7056488212471166
  0.7416100531177818  0.7194906946882185  0.7973574096997709
  0.7228929515011515  0.8161232323325649  0.8994915949191693
  0.7004507963048496  0.8865317357967655  0.0172362263279453
  0.7181752646651276  0.9882160032332550  0.0920699584295619
  0.6970465020785213  0.0950081939953833  0.1601277482678967
  0.6844653972286352  0.1784821967667440  0.2730761182448020
  0.7797530475750563  0.2756156258660525  0.4698435967667436
  0.7780360286374162  0.3978294688221737  0.5823066512702084
  0.7867851103926071  0.5171630471131650  0.6740379953810631
  0.8057791907621237  0.6127179986143219  0.7869529930715942
  0.8285281667436522  0.7055767538106252  0.9145387866050783
  0.7924009441108524  0.8078908545034622  0.0172499362586578
  0.8044204577367182  0.8828543053117812  0.0910758618937635
  0.7966771279445695  0.0112308734411073  0.2078573602771385
  0.8089003612009265  0.0848100484988450  0.2950475242494193
  0.7965498327944545  0.1835486230946870  0.3543225150115461
  0.9033921745958438  0.2902568734411091  0.5759267598152391
  0.8751078937644365  0.4050447856812909  0.6977279210161669
  0.8993673487297897  0.5076278965357943  0.7916247528868325
  0.9256616207852204  0.6146446489607413  0.9146523459584301
  0.9124542092378789  0.7011700771362612  0.0095448286374165
  0.8986409441108520  0.7793477334872989  0.0749521103926085
  0.8969156461893775  0.8875650581986179  0.2069539930715933
  0.8729704378752885  0.0106055117782944  0.2964318434180129
  0.9256938096997658  0.1060186147806021  0.3800215260969964
  0.8912079150115488  0.1928113163972256  0.5188950023094705
  0.9671329339491948  0.2986470799076244  0.6932542692840613
  0.9802442896073913  0.4063477385681296  0.8108077981524247
  0.0085080965357989  0.4979550678983813  0.9244771200923765
  0.0327805718244818  0.5970050512702088  0.9946719348729758
  0.0201458157043888  0.6837561441108519  0.1031092517320999
  0.9959272101616605  0.7776789274826825  0.1738500632794455
  0.9849416249422660  0.9021982554272512  0.2838596581986153
  0.9858916226327921  0.0009096951501135  0.3796921256351027
  0.9758363288683611  0.0906614096997700  0.5157771847575034
  0.0290232314087788  0.1994001644341807  0.6257073759815270
  0.0884180965357970  0.3160987048498853  0.7860324161662788
  0.1171945695150143  0.3970801274826812  0.9015750475750579
  0.1216231916859130  0.4998844974595826  0.9879758281755215
  0.1227188106235531  0.5692495034642064  0.1185162337182462
  0.1305096180138534  0.7048692660508067  0.2003931524249438
  0.0847915505773642  0.8032603367205553  0.2887997293302575
  0.0816108919168599  0.8833983016166300  0.3766250170900705
  0.0730440674364914  0.9911465085450359  0.5094363939953794
  0.0945308078521947  0.0749553810623524  0.5875020660508099
  0.0962385071593559  0.2074821454965345  0.7015707168591234
  0.2256917575057713  0.2858989755196291  0.8856358969976910
  0.2474472891454980  0.3897570849884531  0.9844576332563477
  0.2225028725173175  0.4921629930715952  0.1014593399538128
  0.2261639127020771  0.5881768775981513  0.2171156540415708
  0.1964737926097015  0.7134445759815264  0.3003807598152406
  0.2025793635103952  0.8020387644341795  0.3976992960739025
  0.1754320378752894  0.8968079898383365  0.5123193704387958
  0.2163615662817548  0.9995657311778317  0.6024255515011561
  0.1960394826789837  0.1040130009237856  0.6849556993071602
  0.2168533362586587  0.2157866752886832  0.7651121722863721
  0.4161181381062349  0.4119538443418023  0.0071896831408793
  0.4222244424942261  0.5229339538106217  0.0749875598152414
  0.4082979034642022  0.6142416660508090  0.2035549551963030
  0.4056241806004621  0.7134732729792148  0.3008029427251699
  0.3800124674364866  0.8011843016166296  0.4102078609699760
  0.3812106688221704  0.9077097672055459  0.5024215408775987
  0.3982380951501128  0.0077877006928375  0.5917558771362579
  0.3824395681293282  0.1147366743648988  0.6879888517321007
  0.4021405274826790  0.1934800120092390  0.8033349251732105
  0.3837297736720586  0.2907691076212444  0.9180774050808296
  0.5005309066974561  0.4179059750577352  0.1123311916859109
  0.4915992226327930  0.5064274683602790  0.2082575912240188
  0.4993364628175527  0.6167227293302560  0.3193383856812915
  0.4923047127020794  0.6932854489607365  0.4123263381062330
  0.4931579662817569  0.8009947704387983  0.5134119602771392
  0.4692799944572741  0.9174511561200944  0.6160004050808325
  0.5001894129330253  0.0280113718244834  0.7210515727482658
  0.5079098780600475  0.1090697242494230  0.8125620826789870
  0.4973734443418039  0.1750332711316389  0.9091198101616627
  0.4897193792147831  0.3011137233256349  0.0266950508083141
  0.5564182674364915  0.4047584942263285  0.2017126535796763
  0.5778330591224048  0.5161878720554256  0.3114875736720535
  0.6011448748267867  0.6121333681293279  0.3971256646651256
  0.5937351685912233  0.7098882217090079  0.5242750845265576
  0.5922462249422651  0.8235652406466514  0.6206645501154711
  0.5831793690531200  0.9100546064665096  0.7194928826789848
  0.6221393090069256  0.0106251662817556  0.8008783648960716
  0.5937388558891428  0.1101305755196336  0.9154000586605093
  0.5907722614318729  0.1932788254041569  0.0244324023094720
  0.6022821547344108  0.2940693353348749  0.1103367030023108
  0.6504534101616599  0.4234216230946899  0.2763426124711330
  0.6992354424942278  0.4979973533487296  0.3833942993071560
  0.7116546429561197  0.6032044207852181  0.4878158120092380
  0.7049041163972305  0.7163073103926081  0.6273289016166288
  0.7016406193995408  0.8463709796766778  0.7062960332563506
  0.7260688531177806  0.8990730475750581  0.7912954272517325
  0.7216688258660540  0.0017569431870683  0.9159863556581982
  0.7083340692840636  0.0821756937644338  0.0197645953810621
  0.7176305602771365  0.1972882928406463  0.0948099672055420
  0.6709983690531161  0.2806495020785249  0.1945068831408747
  0.7593460226327977  0.3752456050808348  0.3768789348729769
  0.7888283939953808  0.4735128983833690  0.4916584471131671
  0.7726665311778262  0.5882741076212454  0.6236042258660532
  0.8249440794457286  0.6866544572748268  0.7158751062355648
  0.8344332983833738  0.8090500438799069  0.7983438161662804
  0.8189315385681297  0.9027215002309461  0.9021959903002283
  0.8250559755196321  0.9915208863741327  0.0048227930715967
  0.8337574669745962  0.0955097607390272  0.0825676766743655
  0.8178568036951503  0.1750618752886837  0.1884306203233237
  0.7433810314087737  0.2855425570438825  0.2945436886836035
  0.8891661879907602  0.3992886775981503  0.4683062175519623
  0.8846102494226358  0.4960976397228620  0.5854130826789827
  0.9051569371824471  0.5973426803695148  0.7067497330254042
  0.9170354461893737  0.7064028882217102  0.8073647551963035
  0.9215503251732073  0.7965562503464199  0.9204256655889154
  0.9184025870669714  0.9013948401847571  0.0095791371824490
  0.9132891117782904  0.9929750785219369  0.1017702013856834
  0.9151313422632796  0.1035959681293335  0.1831774655889120
  0.9140805150115483  0.2199148531177855  0.2827987011547322
  0.8813306886836045  0.2790531427251750  0.4035972018475746
  0.9955957819861467  0.3930074836027728  0.6055595972286341
  0.9985116184757530  0.5117484822170866  0.6887590327944579
  0.0093179907621277  0.6000220545034622  0.8328412803695144
  0.0118353270207834  0.7040830438799048  0.9299052877598157
  0.0306351445727486  0.7972248018475767  0.0145709967667429
  0.0025335173210195  0.9057313528868391  0.1026709695150103
  0.0036371819861429  0.0294555879907605  0.1858570623556588
  0.9755220078521916  0.1029516360277114  0.3028324933025388
  0.9942176374133922  0.2195733967667408  0.4079489644341834
  0.9943192175519613  0.3085235006928428  0.5091760041570410
  0.0867088757505741  0.4163988651270216  0.7194024896073898
  0.0817861196304861  0.5138049039261006  0.8206526581986111
  0.1067489524249439  0.6152496406466526  0.9253368812933047
  0.1237976715935361  0.7000273648960729  0.0208737080831440
  0.1153477210161640  0.8032484988452637  0.0972368415704423
  0.0637167016166273  0.8755290683602794  0.1885621043879908
  0.0859218494226326  0.0091983390300214  0.3046175662817561
  0.0675190609699783  0.1379538484988458  0.4251545039260947
  0.0798229311778300  0.1914656628175493  0.5220778909930743
  0.0998317533487310  0.2956001371824470  0.6447330152424939
  0.1966061321016142  0.4107938110854477  0.8070313824480380
  0.2036761565819845  0.5022015898383358  0.9050933510392625
  0.2224774498845292  0.5985539478060034  0.0240429861431863
  0.2106446351039253  0.7007199842956098  0.1174417080831418
  0.1815702203233229  0.8127575773672078  0.2048436854503493
  0.1867490526558910  0.9093203228637421  0.2863407935334905
  0.1542993071593557  0.9996701718244836  0.3785439866050808