Li 
 1.0000000000000000
    21.6499999999999986    0.0000000000000006    0.0000000000000000
     0.0000000000000006   21.6499999999999986    0.0000000000000000
    -0.0000000000000006   -0.0000000000000006   21.6499999999999986
 Li 
 500
Cartesian
  0.0816110200000000  0.0476082900000000  0.1286611100000000
  0.2497700600000000  2.4370494200000001  1.2981265700000000
 -0.2547110800000000  4.7074729700000004  4.0495338900000002
  0.3829986500000000  6.2753424899999999  6.6722361899999996
  0.2388614200000000  8.0508762600000008  8.7406100799999997
  0.1224781900000000 10.6845585599999993 11.2169473800000006
 -0.0236185600000000 13.1685850200000001 12.9543631300000008
  0.1979202900000000 15.1273471599999993 15.1326995800000006
  0.0516757600000000 17.2733947900000011 17.9808347700000013
  0.2977192200000000 19.6559760700000012 20.3404501300000007
  1.9883236300000000  0.0757903600000000  2.2595164699999999
  1.8608892299999999  2.7038586100000002  3.8419530000000002
  1.7586182800000001  4.3715882199999996  6.2016422300000000
  2.4178788500000001  6.2029444800000002  8.9298102299999993
  1.9383695900000000  8.5833519500000008 11.0449361600000007
  2.3098768199999999 10.4429369199999993 13.4721817700000006
  2.1272668900000000 13.2039248800000006 15.5086628399999995
  2.4008988699999998 14.5849702099999998 17.6512955600000012
  2.6583947100000000 17.5837999700000012 19.8037871599999988
  2.6497246900000002 19.5325146099999998 21.9625604000000010
  4.2087342899999998 -0.2994739400000000  4.5702254699999996
  3.7611086600000001  2.8529970800000002  7.2224160099999999
  4.6007356100000001  4.5152772399999996  8.8187115800000004
  3.9433415599999999  6.7583448300000004 11.2370277200000004
  4.3436785999999996  8.7416290799999992 13.3309946900000007
  4.3758296000000003 10.6929441099999991 15.7659126399999998
  5.0431196500000004 13.1441848100000005 17.9710489600000010
  5.0979002500000004 15.6747928000000005 20.0042868200000008
  4.8758015900000000 17.1560344200000010  0.1509339100000000
  4.6123671699999997 19.8462893099999995  2.0208952400000002
  5.9111222300000001  0.2167257200000000  6.1940034300000004
  6.2100372799999999  2.1185923400000002  8.5736260000000009
  6.3432680100000001  4.1085058200000004 10.6158172000000004
  6.5926801499999996  6.1839969799999999 12.8396033900000006
  6.5478131900000003  8.4301993399999997 15.0848997600000008
  6.6469056000000002 11.0569608400000003 17.0485031199999995
  6.9400458100000000 13.2585300499999992 19.9304426499999998
  6.8833475799999997 15.8581629100000008  0.4988389400000000
  6.4553551499999999 17.7201995500000002  2.5483362100000000
  6.5840511299999998 19.7543582899999990  4.5145432799999998
  8.0885423799999998  0.1224275500000000  8.6966517200000002
  7.7596551900000001  2.1776623300000000 10.5625258399999993
  8.6672685000000005  4.3022510000000000 12.1587581999999994
  8.7083588100000000  5.8318066300000000 15.4962109500000000
  8.9612680999999998  8.5729952899999997 17.5189706500000000
  8.8856386700000005 10.7977071099999993 19.4219608500000014
  9.1027114200000003 13.2189251700000003 -0.0492567600000000
  8.5624323899999997 15.3931932200000006  2.6965532099999998
  8.4547950099999998 17.8650969099999983  5.0738174599999999
  8.0160456999999994 19.6284266299999999  7.7410492499999997
 10.4166945099999992  0.3564052700000000 10.7595449599999995
 10.4413495399999992  2.0148836800000001 12.9412174899999997
 10.5093052100000008  4.6632765100000002 15.2256081999999999
 10.9370715799999996  6.0782248399999999 17.7708025499999991
 10.4556030500000006  7.7441169199999997 19.3068809799999990
 11.0145302500000000 11.1179320799999992 -0.4117218500000000
 10.8459345500000008 13.2300917200000008  1.7993396600000000
 10.3371854200000008 15.6228135300000002  4.4603298799999997
 10.7217507899999998 16.9594172299999997  6.7248399000000001
 10.3357278699999995 19.3227711199999987  8.9415547300000000
 12.7881344899999991 -0.2767114900000000 12.4241294700000005
 12.7094347499999998  2.3507452400000002 15.0927655200000004
 12.8725447099999997  4.1547059500000003 17.5754177399999989
 13.1265643599999997  5.9448819700000000 20.1592719500000008
 13.1310575400000005  8.7078317100000007  0.0421729000000000
 12.6867658799999994 11.0326154200000008  1.9533034700000000
 12.9524058100000001 13.2105549399999997  4.4836243299999996
 13.3964960200000007 15.0844023200000006  6.7271751699999998
 12.8911960000000008 16.7289245099999988  8.4972698599999994
 12.6073030900000003 18.8961440200000013 10.8920163100000007
 15.2672806399999992 -0.2201712800000000 14.9947958999999997
 15.3538113799999998  2.0781871700000001 17.4268664000000015
 15.0345148099999992  4.1949075300000001 19.6430635199999983
 15.2111476099999994  6.3274298800000004  0.2312157200000000
 14.9678803100000000  9.1333289200000003  2.6113005999999999
 14.4488308399999994 11.1071500499999996  4.8440735999999998
 14.7674699199999999 13.3682343600000006  6.7688466299999996
 15.1162940199999998 15.3066504299999995  9.0178987999999993
 15.3071396899999996 17.4707439200000003 11.2113084500000006
 15.4495579599999999 19.6394124199999993 13.0306440400000003
 17.0660939300000010 -0.2650400800000000 17.4836117900000012
 17.4946019300000017  2.3621872800000001 19.4966971300000012
 18.2622101699999995  4.1482116500000004 -0.3631550200000000
 16.6637235100000005  6.3491854099999996  1.9639795200000001
 16.7875221299999993  8.5473450999999994  4.2046909299999999
 16.8294607899999988 10.9706551000000001  6.0242782200000002
 16.9991125700000012 12.9944105699999994  8.2076822600000003
 17.3302012000000012 15.6877873000000001 11.4086545899999994
 17.4197385900000015 17.8096505200000017 13.4856452699999991
 18.2337980100000010 19.6151279599999988 14.7391113699999998
 19.3243643799999987  0.0437842100000000 19.8692289600000009
 19.5883843000000013  2.3597463799999998 21.1964406600000004
 19.8321515999999995  4.7573487400000003  1.6794969099999999
 19.3779084700000013  6.9595509900000003  4.3572582000000004
 19.0696404500000014  8.1482049399999994  6.8437178100000002
 18.6619166000000014 11.0012178499999997  8.1273858699999995
 18.9624483099999992 13.0754216799999998 11.2031785199999998
 19.3675782599999984 14.9625201200000006 13.2132431300000004
 19.9018797800000016 17.6135834200000012 15.4001598600000005
 19.9892777200000005 19.2015091200000008 17.6933986499999989
  1.9881485000000001  2.2664980199999998 -0.5630298200000000
  2.7010567999999999  4.2823266100000001  1.7592543199999999
  2.1199846099999999  6.2881969599999996  3.6960429399999999
  2.7057943999999998  8.5361075599999996  6.5225409200000000
  2.7245539299999999 10.4051044299999997  9.1051038599999998
  2.1901646000000001 13.1026363600000000 10.8093009099999993
  1.9656655000000001 15.4491057499999993 13.0966520899999992
  1.9861642300000000 17.0912267399999998 15.2608526199999996
  2.2941470000000002 19.4049302899999994 17.3279809799999995
  2.3246157599999999 21.4640305500000004 19.6868205799999991
  4.0042013299999999  2.2556227600000001  1.6889173500000001
  4.3687009899999998  4.3782532800000000  4.5252193800000002
  4.1648418200000004  5.9246300200000004  6.5330952800000004
  4.5464206699999998  8.6243252800000008  9.1891115400000007
  3.7873944499999999 10.8469273699999995 11.4025376200000004
  4.2782326499999996 13.3062312200000008 13.5386833400000004
  4.4193585899999999 14.9397996099999997 15.2232694800000008
  4.6543842499999997 17.1545389399999983 17.0248650700000006
  4.5748278600000001 19.4536108200000015 19.9191128699999993
  4.5859489099999999 21.8733490199999991 21.5904836899999992
  6.0269123200000001  2.1695371899999998  4.1891488099999998
  6.4172412000000003  4.4509049100000002  6.4187253300000000
  6.2553919899999997  6.6945544300000002  8.7027077100000003
  6.8000603300000000  8.3268037699999997 11.4024528099999998
  7.0295716800000001 10.5115062199999993 13.3115537100000001
  6.7927498999999996 13.1543173699999993 14.3756816700000005
  6.6961747000000003 14.7693835199999999 17.1117268799999991
  6.6769770299999998 17.9749414899999991 18.8939926999999983
  6.6379118999999998 19.4810826299999995  0.0407795200000000
  6.6393372599999996 21.9475346100000017  2.2207472300000002
  8.4057853999999992  1.9590698099999999  6.7155099199999997
  8.4686635100000007  4.2950737600000002  8.4852338899999999
  8.5480646399999998  6.5438365799999998 10.2461366700000003
  8.5291328400000008  8.5686076199999999 13.4227481700000002
  9.4672317899999996 10.9070240999999992 14.8439808400000004
  8.5945268899999991 13.0684423100000000 17.0720182200000004
  8.3881573700000001 15.7349739799999995 18.9707425399999998
  9.1689067000000009 17.4696459799999992 -0.2445369000000000
  8.4236508200000006 19.5288914100000000  1.6927793099999999
  8.3919786399999996 21.5277590299999986  4.6194961599999997
 10.2357523199999996  1.9215769700000001  9.2038752200000005
 10.2020043200000003  4.1795963399999998 10.5546583999999992
 10.5086584199999997  5.9847205700000004 12.3062638799999995
 10.7996415900000002  8.0797037500000002 15.2055108499999996
 10.8895767800000005 10.8666217500000002 16.7748785100000006
 10.8269326800000005 13.7440789100000007 18.9645365499999983
 11.3211025799999998 15.9702074599999992 -0.1988171700000000
 10.9686424000000002 17.8059028999999995  2.5442506100000002
 10.1330881799999997 19.5485918500000011  5.1927732400000002
 10.3337401500000006 21.4668850400000011  6.4385703400000001
 12.3739551599999995  2.3174282599999998 10.7962659100000007
 13.2344184499999997  4.2644168200000001 12.8704305699999999
 12.8596972699999998  6.3600095000000003 14.7684903799999994
 12.8037706700000005  8.0602756400000004 16.9306831200000012
 12.4803455299999992 10.6820369700000004 18.6376022600000013
 12.9833096999999995 13.2028241099999999 -0.3773291100000000
 13.0169297200000003 15.2116451999999995  2.3019017399999999
 12.7527798800000003 17.4074698400000010  4.8247492000000003
 12.9286915899999997 19.4579747099999985  6.3670870300000004
 13.1886041100000000 21.5691989900000003  8.8866417400000000
 15.4686939300000006  1.8803110100000000 12.9440409899999995
 15.5736751899999994  4.0616917700000004 15.4919046900000001
 14.9445204799999996  6.2609380400000001 17.4633868999999997
 14.8625742100000000  8.8447638099999999 19.0307683400000016
 14.6971719299999997 11.2966766900000000 -0.6112607200000000
 15.1126355500000003 12.8402101999999996  1.7087127600000001
 15.3926503300000004 15.7366298400000009  4.3106031600000003
 15.5179112200000002 17.2338495199999997  6.9675309399999996
 15.2916361300000005 19.4235328600000017  9.0256550799999999
 14.3280323000000003 21.5896341199999995 11.2094313600000000
 17.5671838800000017  1.4151307900000001 15.4228994799999999
 18.3630419799999984  4.0381565600000000 17.7151274100000009
 17.4270955299999990  6.0953016000000000 19.7354605899999989
 16.7805480299999985  8.3478512699999996  0.0211946000000000
 17.2704132900000005 10.9595529500000008  1.7073001000000001
 17.3248382300000010 13.1308376300000003  3.8061134000000001
 17.5369012300000016 15.3026201000000004  6.2922788900000004
 17.6681096599999989 17.2926094500000005  8.8168944899999993
 17.5069332899999992 19.4862399800000006 10.9801855199999991
 17.6505128199999994 21.6139129700000012 12.1726198799999992
 19.6857750699999983  1.8102569100000001 17.8133488600000014
 20.3243285200000017  4.3544203000000001 19.3169404600000014
 19.8300755700000018  6.5526320699999996  0.2173828300000000
 19.3684449299999990  8.7147325099999993  2.1190097699999999
 19.5224246900000011 10.8463867500000006  3.7160688899999998
 19.5454513500000004 12.6381480899999996  6.3019860599999999
 18.9525635000000001 15.0026702099999998  8.3996140599999993
 19.7432773200000007 17.6404135000000011 11.0765305699999992
 20.1873071199999998 19.9120224700000001 12.9075219400000005
 19.3253257000000005 21.5359913100000000 15.4490569600000001
 21.5498955499999987  2.2241554099999998 19.7918125300000014
 21.5450507299999998  4.3444538200000000 21.5088263600000005
 22.4670234899999990  6.5347832099999996  1.5620572200000000
 21.9513511299999990  8.5559296099999997  4.6090888300000001
 21.4873278499999998 10.3478905300000008  6.5389562600000000
 21.7443227499999985 13.0266490600000004  9.0358446699999995
 21.2072077400000012 15.5348922700000003 10.8364676200000005
 21.2409452700000010 17.6099927100000002 12.7665358199999996
 21.6393733099999999 18.7776327700000003 15.9960784700000005
 21.4313855500000017 21.1602894100000007 17.9922417099999983
  4.2182074800000002  4.4773953100000004  0.1763109800000000
  4.2615742799999996  6.5326955000000000  2.1996142200000000
  4.0918798399999998  8.9293364099999994  4.3219336500000001
  4.9518158000000003 10.7020215099999998  6.9153459000000002
  4.6730786200000001 13.1033432699999999  8.7709185900000008
  3.9523232099999999 15.2634825700000007 10.7305802000000003
  4.3441244399999999 17.2126885799999982 13.3433400399999993
  4.4631112999999996 19.3720966399999988 14.9795256800000001
  4.0868183499999997 -0.1166638700000000 17.0070138200000009
  4.3094846699999998  2.4068113200000001 19.2858574999999988
  6.0720199199999998  3.9356762999999999  1.9659498300000000
  6.5192586700000001  6.4289233299999999  4.5526097400000003
  6.2796539500000002  8.6306910400000003  6.2868883300000000
  6.6815165299999997 10.1375459200000009  9.5143732700000001
  6.4123750499999996 12.5732591800000009 10.9263209799999998
  6.4902389800000000 15.2257506899999999 12.4470557999999993
  6.9043728700000004 17.3097543899999984 14.5564407300000003
  6.2678068800000002 19.3114233400000010 17.0090802200000013
  6.4818369499999999  0.1450599800000000 18.9496837599999992
  6.6920957599999999  2.0777274200000000 21.4365731100000012
  8.4824819199999997  4.0271042899999996  3.3921759200000001
  8.4733852499999998  6.5323923300000004  5.8966918300000000
  8.8150187300000002  8.3037715599999995  8.2881316700000003
  8.9885410399999994  9.9328706699999998 11.0204519699999999
  9.4183898999999993 13.1286320500000002 12.4267834500000003
  8.8462244499999994 15.0128873499999997 14.4887202599999991
  8.2522509700000004 17.8254001899999999 17.1909619499999984
  8.8017661700000005 20.2945832899999985 19.1112135599999995
  8.7171957399999993  0.1722824700000000 -0.3243000100000000
  8.6346788399999994  1.9447512700000000  2.1548769800000001
 10.3921137399999992  4.1458439199999999  6.5908009099999996
 10.9887411799999999  6.1076127800000002  8.3679067299999996
 10.6199734400000008  8.1809729499999992 10.6013187900000005
 11.4335853299999997 10.6098109100000002 12.6984255499999996
 11.6696612200000001 12.9661324800000006 14.8345927100000008
 10.9818423700000007 15.0918382100000006 16.9838094400000017
 11.4555546699999997 17.7687476999999987 18.7630885200000002
 11.1048480699999992 19.8526635599999999 -0.2961958100000000
 10.1177044299999999 -0.4367777300000000  2.1435879799999999
 10.4984050199999999  1.6714163600000000  4.1722137200000002
 12.1007949299999993  4.1692364499999996  7.9257986799999998
 12.8453785800000002  5.9277404699999998 10.2903923400000004
 12.6399547099999996  7.9525296799999996 13.0313072400000003
 12.7090607299999991 10.4047522499999996 15.1596476100000004
 13.6928742999999997 13.0461684200000008 17.0005122399999991
 13.5183550900000000 15.4873594099999998 18.9766141200000007
 12.9104522199999998 17.7459359499999998 -0.0139884800000000
 13.3465631899999995 19.8755993400000008  2.6705133600000002
 12.6528365800000007  0.4230945700000000  3.9962903200000000
 12.9321077899999999  1.3571834100000000  6.2442267899999999
 15.0111996100000002  4.0800571999999997 10.4950547800000002
 14.6292202499999995  6.1045094400000002 13.1666461199999993
 15.1906071600000008  8.5745460799999993 15.5807325199999998
 15.0096349700000005 10.6915074600000004 17.7921037400000017
 15.6764588899999993 13.2968223699999992 19.4111265599999996
 15.3775793200000006 15.4265684899999993 -0.3961878000000000
 14.8413884300000003 17.5624484699999996  2.2473527099999999
 15.2951021899999997 19.5439246400000002  4.9763198900000001
 15.2413315100000002  0.1512958500000000  6.9194442900000004
 15.0597065800000003  2.2320774399999999  8.6455530100000004
 17.4313430700000005  4.2768165800000002 12.7387461399999999
 17.6303393600000007  6.6003911000000004 15.3076194099999991
 17.4456930399999983  8.6664299400000004 17.3064898199999995
 17.2645304700000004 11.3594955800000008 19.8326136899999987
 18.0377134300000002 13.1290373000000002  0.0746721000000000
 17.0978174900000006 15.0665316899999997  1.9767441900000000
 17.6923710000000014 17.4954301399999999  4.4091785300000002
 17.4177211000000014 19.6299162699999989  7.0882876599999998
 16.7779045499999988 -0.3033908600000000  8.9942162099999994
 17.5556964300000011  2.1613848400000002 10.4801700600000007
 19.1295648000000007  3.7484584900000000 15.1449060600000003
 19.5372762800000004  7.0272051099999997 17.1978805699999988
 19.1866359899999992  8.8964713599999996 19.7450445399999985
 19.9516062599999984 10.6980955899999994  0.4050879600000000
 20.1999088700000016 12.7553171800000005  1.8687671100000001
 19.1269423900000000 14.9054439900000002  3.9061510199999998
 19.5825276899999992 17.0919129599999984  6.2325514599999998
 19.1917795799999986 19.2641384000000002  8.4057406900000000
 19.9070150199999993 -0.1834260100000000 10.4626652999999994
 20.0459520600000012  1.9895644699999999 13.1388436500000001
 -0.5598048600000000  4.7900346200000001 17.3247116599999984
  0.0518885000000000  7.0052602100000003 19.2846358400000000
  0.2389145700000000  8.5670293100000006  0.3324348300000000
  0.2898448000000000 10.7833517800000003  1.9953795100000000
  0.5023735100000000 12.8073763300000003  4.0842942000000004
 -0.4128987600000000 14.6890140200000001  6.2576651999999999
 -0.0702483600000000 16.9854315800000002  8.5591500499999995
  0.3114904200000000 19.3275806699999997 10.3531168699999991
 -0.1747969500000000 -0.1593343800000000 13.5308188600000001
 -0.1518394100000000  1.8304152600000001 15.7378455499999994
  2.2696904600000001  4.9532594799999998 18.9761655100000013
  2.5625605800000000  6.2714344799999999 21.1614477799999996
  2.7731080399999999  9.1938148399999999  1.7361897200000000
  2.7290929600000000 10.8904303799999997  4.8905075800000004
  2.7455843799999999 13.2277627899999999  7.1713908499999999
  2.2073283500000001 15.0293111600000007  8.5779353100000009
  1.7337607500000001 17.1136824999999995 10.3150689100000008
  1.8023995500000001 18.9637945499999994 13.4991957500000002
  2.0571076800000001 -0.1630794400000000 15.1922136600000002
  2.2599846700000001  2.6523777900000001 17.2128483500000016
  6.4487179599999997  5.9851505400000002 -0.4343844400000000
  7.2423067500000000  8.6115391900000002  2.0021110700000002
  6.3545374399999996 10.6343008500000007  4.1162198300000004
  6.4677667200000002 13.0091596099999993  6.5717858299999996
  5.9601664300000001 15.1200148199999997  8.6660231299999992
  5.7253250500000004 17.2036320799999984 10.6498363099999995
  6.4517653099999999 19.3135195099999990 12.3042421500000003
  6.8786641399999997 -0.0435105000000000 14.8643132599999994
  5.9320462899999997  1.8619123399999999 17.0517107900000013
  6.4826812499999997  3.7521759000000001 19.5629315900000016
  8.2986292499999994  6.3784663000000004  1.8907204000000000
  8.3285999700000009  9.4190963700000001  4.4030040200000000
  8.4809204400000002 11.5895630500000006  6.4932350899999998
  8.6106332800000001 12.9608953000000007  9.1459143399999991
  8.6653193000000002 15.2128076199999995 10.5687849600000003
  8.8935901699999995 17.3587073200000006 12.5665304599999992
  8.7712249500000006 19.6088820999999989 14.8839020200000007
  8.9534708500000004  0.2506271100000000 16.9273530399999999
  8.4189618700000004  2.4037464800000001 19.4199876499999995
  8.9623951599999998  3.9444910100000001 21.6540752999999988
 10.3125558799999997  6.9951736599999998  4.5273965399999998
 10.7509144800000005  9.3103939199999992  6.3784397700000000
 10.6155400400000008 10.9618853800000000  8.6703221799999994
 10.8667967500000007 12.7520861599999993 10.8172021500000000
 10.9157121400000001 14.7530883900000003 13.0978630999999996
 10.4810068300000001 17.0618814000000008 15.4133119099999991
 10.7810269800000000 19.5602123900000002 17.0831646600000013
 11.3273018000000008  0.3126220400000000 19.2545880999999994
 10.6315718900000000  1.4119075000000001  0.1312978500000000
 10.7630412399999997  4.0671600500000000  2.1427260600000002
 12.3526982699999994  6.4728982899999998  6.3498468499999996
 12.7970734600000000  8.9495395900000005  8.6676527300000004
 12.9981375400000001 10.7237014199999994 10.5506217499999995
 13.4244660299999996 13.1289554899999992 13.4392098299999994
 13.0719049300000005 15.4473117200000001 15.4454442699999994
 13.3607600699999995 17.4255578100000008 16.7693441599999993
 13.4888741299999992 19.4395767500000005 18.6709453100000005
 12.8814701700000001  0.3394378700000000  0.7953490600000001
 12.8985210899999991  2.1362479599999999  2.3253842400000000
 12.6902644299999992  3.6890083400000000  4.0800978299999997
 14.3939702799999996  5.7574514299999997  8.2093681800000002
 14.7185805399999996  8.1330584899999998 10.3058158399999993
 14.6820130500000001 10.7045294500000008 12.8388879100000004
 14.7518703700000007 12.7925874499999992 15.2772969799999991
 16.0558576500000001 15.5769735399999991 17.2627879200000010
 15.6506323999999992 17.6690679800000012 19.4739930299999990
 15.1647597399999992 19.1934120800000017  0.3731643000000000
 15.5484944800000005 -0.2551235300000000  1.9933145999999999
 15.0910567699999998  2.0569274000000002  3.4667657500000000
 14.8186758500000000  3.8641395599999999  5.9120979599999997
 16.8816534800000007  5.9670782999999998 10.1721138700000004
 16.8444800199999989  8.6130080000000007 12.6069390000000006
 17.0338976399999993 11.1965799700000002 14.5929225999999996
 17.4451194799999989 13.2653446699999993 17.0375322999999987
 17.9376348099999987 15.2757367199999994 19.7997647299999997
 17.1554804400000016 17.4908369999999991  0.3734611200000000
 17.4157029100000003 19.1137957100000015  1.9717924099999999
 17.2480598200000017  0.2431484100000000  4.5001118499999997
 17.5126928200000016  1.8361375499999999  6.3877788999999998
 17.2453038800000016  3.9738276899999998  7.6710824500000001
 19.5584405799999992  6.2840613100000002 12.4688143500000006
 18.9460858999999999  8.7692196100000004 15.1058094900000004
 19.4713031000000001 10.9901439599999993 17.1386758999999991
 20.0405740899999998 13.3070566499999998 19.8022232900000006
 19.7546336300000007 15.1803321699999998  0.2066455400000000
 19.4555764400000015 16.8728784300000001  1.6227131900000000
 19.4182237399999984 19.2157835100000014  4.4805539500000000
 18.8998099800000006  0.2296093300000000  6.4177494099999999
 20.0412709800000002  2.2953030100000000  8.2274660399999995
 19.2946513599999996  4.1743649999999999 11.2340768000000004
 -0.7115719800000000  6.4657092799999996 15.0089549299999998
 -0.4277111300000000  8.7974285400000003 17.5539888300000015
  0.1842002900000000 10.7807272199999993 20.0149296499999991
  0.7096993800000000 12.9251593600000003 -0.1153526100000000
  0.4361569100000000 14.8033205199999998  2.2323152999999998
 -0.0881759000000000 16.8367487800000006  3.7638538700000002
 -0.3260138200000000 19.5325922299999988  6.1455615999999997
 -0.3054463700000000  0.0196949000000000  8.2203345199999998
 -0.5231434800000000  1.9628195200000000 11.1665760499999998
  0.6283529600000000  4.3170135600000004 13.5465646900000003
  1.9142517900000000  6.8435369599999998 17.0176018099999986
  2.5372624300000002  8.5967847600000002 19.5190997800000012
  2.6331421000000002 10.8224993699999992 -0.2603233200000000
  2.6568622500000001 12.3242517500000002  2.5658764600000001
  2.8255332300000000 15.2604196099999996  4.3385117500000003
  1.8357370700000000 17.3905862900000017  6.2525141399999997
  1.7668758099999999 19.1255732300000005  8.1539316199999998
  1.5814040599999999 -0.1916780900000000 11.0292979300000002
  2.0465919900000000  1.6227840000000000 12.7194197300000003
  2.0835636800000001  4.4919884500000000 15.1890060200000008
  4.8862265499999999  6.1897128199999996 19.1740171699999991
  5.3572338100000003  8.4382408899999994 21.3135077600000002
  4.8171871900000003 10.6553287999999995  2.1965947099999998
  4.8964487099999996 12.7340294000000007  4.7005539100000000
  4.2536576100000003 15.4460750699999991  6.5032434500000003
  4.3858432199999999 17.3641392500000009  8.6101897600000008
  3.7981036200000000 19.4158929799999989 11.0917143700000000
  4.6842279099999997 -0.0094019200000000 13.0425131899999993
  4.2442548000000002  2.2518814699999998 14.8292908899999993
  4.6948747300000004  4.6717815199999997 16.5646785299999983
  9.0089576900000008  8.9188007299999992  0.1556566400000000
  9.1411591800000007 11.3215201000000008  1.6234806700000000
  8.8396496100000004 13.2983320700000007  4.4069647800000000
  8.7817635099999993 15.4466963600000007  6.5123837099999999
  8.2272699199999995 17.3456401299999996  8.8810001900000000
  8.2532109800000004 19.6519164599999989 10.8774263599999994
  8.6218547599999997  0.1686037200000000 12.8115147399999998
  8.2798166500000008  2.4840490000000002 14.8949586400000005
  8.7063424200000004  4.1888422600000004 17.3922011300000001
  8.3077495999999993  6.2951511800000004 19.8763758199999998
 10.8364941300000002  9.0476643600000006  2.4319703000000001
 10.6431231700000009 10.9641546900000009  4.5087768500000003
 10.8106344199999995 13.3520470899999992  6.9136760500000003
 10.6583970299999997 15.0096299700000007  8.9268652199999998
 10.6768699700000003 17.3415367799999984 11.1153689399999998
 10.1599118799999992 19.8628175300000009 13.3364087700000002
 10.8291007900000000  0.6064462000000000 15.6107665499999992
 10.9962488599999997  2.3613595300000001 17.5919690899999992
 10.7681350699999996  3.7894703199999999 19.6824438899999983
 10.6024245599999993  6.5191121100000000 22.2279478499999996
 12.0464554899999996  8.7630213999999995  4.3670789499999998
 12.5100857300000001 11.1754674299999994  6.7437059699999997
 13.0147865399999993 13.2526874200000009  8.5977706400000002
 12.8543664000000000 15.3690800000000003 11.3505555800000000
 12.8221307699999993 17.8301874600000012 13.4373875100000006
 12.6258333399999998 19.7026822300000006 15.5770209099999999
 13.4693160400000007  0.2300348500000000 17.3390166000000008
 12.8544462300000006  2.3843269600000001 19.8184112699999986
 12.7902194599999994  4.1844865699999998  0.5289615100000000
 13.0394086500000004  6.3666011100000004  2.3887896199999998
 14.0823163299999994  9.1670781399999992  5.9828175600000000
 15.1384473300000000 10.7816427000000008  8.3004865799999994
 15.4073230199999998 13.0593757099999994 10.5612123300000000
 15.2611741199999997 15.5080532699999996 13.5816707200000000
 15.1905194100000003 18.3239317100000001 15.2913091199999993
 15.7193906699999992 19.4649314800000006 17.1315460000000002
 15.6241300800000005  0.0380378200000000 19.8311045999999997
 15.3354326000000007  1.7791037700000001  0.4279034900000000
 15.5367016299999996  4.2712915400000000  2.0526357900000001
 14.5271146899999994  6.0760617200000002  4.2110740199999999
 16.4398413900000016  8.1240673500000007  8.1594289399999997
 17.0781347299999986 10.2515542499999999 10.6444053800000002
 16.7282304000000011 12.7361344299999999 13.5010314900000008
 17.8600393199999985 14.8660689999999995 15.4986960499999995
 18.0654809100000016 17.5159334499999986 17.2841436199999983
 17.7298678099999982 19.5439204800000006 19.5325431899999984
 17.8624618700000006 -0.1835728100000000  0.1044134700000000
 18.0508491599999985  2.0677863200000002  1.7875901999999999
 17.7065997999999993  3.7900895999999999  4.0795229300000004
 16.0941993299999986  6.1819963600000003  6.3768708600000004
 19.2504479699999997  8.6445998700000004 10.1388296100000002
 19.1518118999999984 10.7405138999999998 12.6741932399999992
 19.5966476900000011 12.9324690300000000 15.3011317200000008
 19.8538174100000013 15.2936225300000004 17.4794469499999998
 19.9515645399999997 17.2454428200000009 19.9272156600000017
 19.8834160100000013 19.5151982900000007  0.2073883200000000
 19.7727092700000000 -0.1520895500000000  2.2033248599999999
 19.8125935599999998  2.2428527100000002  3.9657921300000001
 19.7898431499999994  4.7611565699999998  6.1225918799999999
 19.0808094100000005  6.0415005400000004  8.7378794200000005
 -0.0953513200000000  8.5086120199999993 13.1103652799999999
 -0.0322234600000000 11.0793546400000000 14.9116330599999998
  0.2017345000000000 12.9904774799999991 18.0310137200000007
  0.2562348300000000 15.2433978999999997 20.1324494799999982
  0.6632508800000000 17.2599169600000018  0.3154620800000000
  0.0548506500000000 19.6090837899999997  2.2228264900000001
  0.0787449900000000  0.6377134800000001  4.0238053999999996
 -0.5299485300000000  2.2289029199999999  6.5563234799999996
 -0.1251881500000000  4.7537640400000001  8.8320950800000002
 -0.1229889400000000  6.6795337899999998 11.0236604899999993
  1.8772471600000000  9.0150354299999993 15.5750639000000000
  1.7706694900000000 11.1238761700000008 17.7671300499999987
  2.3111148199999998 13.3201547199999997 20.0335434799999987
  2.6802195900000001 15.1555924500000003  0.4519157800000000
  2.4972781600000000 17.3903299999999987  2.1051776200000001
  1.3794665900000000 18.9552043300000008  4.0823695600000001
  1.8602080400000001  0.1991440400000000  6.5949703099999999
  1.4617876700000001  2.9867008199999998  9.2045950100000002
  1.7281664600000000  4.1452315999999998 11.3029863400000004
  2.1613574600000001  6.3997429700000001 13.9584697799999997
  4.2565227600000002  8.8936860099999997 17.4722294299999987
  4.4095887899999999 10.8726644199999996 19.5952710500000009
  4.8166367899999996 12.9586929699999995  0.5205306500000000
  4.5604563499999999 15.1705876600000007  2.5426129799999999
  3.9309952699999999 17.5962015500000000  4.4348657899999999
  4.0431169899999997 19.6867849899999996  6.1992781800000003
  3.3405800000000001 -0.0071407800000000  8.1954773099999993