Li                                      
   1.00000000000000     
    21.0004999999999988    0.0000000000000000    0.0000000000000000
     0.0000000000000000   21.0004999999999988    0.0000000000000000
     0.0000000000000000    0.0000000000000000   21.0004999999999988
   Li
   500
Direct
  0.0066256012952053  0.9939275507726038  0.9959595362015179
  0.0032233437299141  0.0853323849432144  0.0858857393871588
  0.9936884078950499  0.1947776348182160  0.1874119763815116
  0.9978759005737956  0.3028749667865043  0.3033101092831103
  0.0046355743910880  0.4092536068188863  0.4071870736411043
  0.9930135925335080  0.4987980062379478  0.5172054151091672
  0.9828709135496752  0.6004208404561808  0.6107185924144645
  0.9794380629032631  0.7191765853193957  0.7014198371467373
  0.9822736987214569  0.8136123606580767  0.7883185981286189
  0.0064988557415333  0.8918928782648052  0.8955960472369711
  0.0953040065712756  0.9886890750220232  0.1121099883336143
  0.1109217075783917  0.0976462008047463  0.2049440870455470
  0.1027826804123677  0.1979713506821241  0.3039901645198952
  0.0944346672698302  0.2977725192257310  0.4000349339301437
  0.0886786271755469  0.3961138010999719  0.4994659922382780
  0.0893024299421441  0.4877679736196754  0.6101680179043356
  0.0781591700197595  0.6124797714340104  0.6900302873741069
  0.0885620775695841  0.7095460212852061  0.8060338244327525
  0.1118097578629076  0.7985233608723590  0.8970375267255548
  0.1045065979381476  0.9073548939310996  0.9928154058236700
  0.2121136068188818  0.9923333720625678  0.1998373972048313
  0.2000840208566430  0.1026590752601138  0.3011800242851379
  0.1846524939882386  0.2009344939406219  0.4122308659317611
  0.1937946863169913  0.3082639818099580  0.4990352672555431
  0.1983498883359900  0.4009468331706358  0.6114458684317015
  0.1946101578533828  0.5076050598795234  0.7034200823789902
  0.1802206304611786  0.6113153315397284  0.7830025047022673
  0.1887043946572717  0.6958466688888336  0.8837630765934108
  0.1979934896788151  0.8064429818337686  0.9967281879002883
  0.1955810152139250  0.8976536939596684  0.1131830642127554
  0.2971447065546045  0.9830811571153077  0.3122220309040245
  0.2858865169876879  0.0936080964738935  0.4077767519820981
  0.2821619147163190  0.1988911216399600  0.5055095354872492
  0.2969202442798959  0.3009117830527828  0.5977890407371262
  0.3037774438703806  0.3939778986214648  0.7184288678841000
  0.3036884297992870  0.4960262150901187  0.7924933506345084
  0.2880672212566395  0.6087668503130885  0.9006280507606945
  0.3030632099235717  0.7008841103783254  0.9951595162019942
  0.3028521473298227  0.8058059531915873  0.0983063627056495
  0.3087503426108924  0.8898309783100373  0.2060060565224617
  0.3992870169757836  0.0066705059403347  0.4175079379062367
  0.3997749948810707  0.0913260565224618  0.5059960281898057
  0.4087592623985117  0.1926749220256667  0.5976458755743934
  0.4081026204137999  0.3012438780029072  0.6868428865979368
  0.4022656270088802  0.4006106849836897  0.7927169424537510
  0.4034180048094100  0.5069386838408576  0.8919697031023048
  0.4031854908216488  0.5969756115330611  0.9990693988238348
  0.3904112706840337  0.6857711940191891  0.1037624037522917
  0.3992336149139319  0.7833716721030441  0.2005969805480845
  0.4093512621128070  0.9167069626913644  0.3125082245660806
  0.5020705964143701  0.9998885764624674  0.5035886364610391
  0.5017968381705202  0.1221420075712487  0.6049937082450398
  0.5021360815218685  0.2122895645341742  0.7023622994690584
  0.5085636780076683  0.2988430780219531  0.8029026323182791
  0.4997706226042240  0.3949881079021935  0.9167959496202442
  0.4873348453608273  0.4791601761862836  0.9976999504773687
  0.4991181181400464  0.6001444970357852  0.1005855322492337
  0.4917331958762858  0.7016028656460591  0.2127205828432679
  0.4932886478893366  0.7906014371086414  0.3099368200757127
  0.4998513106830771  0.9012275669626888  0.3943310111664005
  0.6068444203709404  0.0233879655246270  0.6116888535987215
  0.5958788705030855  0.1078722878026710  0.7070727092212081
  0.5900475726768377  0.1964878283850382  0.8071359481917071
  0.5972060303326145  0.2915338520511384  0.9156303530868328
  0.5900387924097075  0.3797296588176451  0.0099691574010166
  0.6009039408585508  0.4905639865717504  0.0891224518463858
  0.6233304054665396  0.5976673098259582  0.2037790900216692
  0.6184377024356564  0.6926336872931600  0.3123087993143017
  0.6091329263588960  0.7969693902526132  0.4090717592438295
  0.6018420104283209  0.9013341577581500  0.5167107249827367
  0.6982902507083182  0.0112007514106836  0.7075070664984153
  0.6956712021142337  0.1086685602723776  0.8088236918168619
  0.6947203214209168  0.2119422008999763  0.9053086802695205
  0.6982288088378823  0.3000135068212657  0.0176590643079919
  0.7090281317111504  0.4014763296111994  0.1043681398061977
  0.7001319449536894  0.5021038641937068  0.1844917768624583
  0.7141472693507325  0.5942291326396969  0.3026310292612067
  0.7185298492893040  0.6832634808695062  0.3925108864074645
  0.7029972586366995  0.8029571148305976  0.4967730444513236
  0.6968651165448421  0.9100553767767465  0.6133564957977171
  0.7937673031594485  0.0037437780052869  0.8066943601342800
  0.8008784290850244  0.0925804066569853  0.9061992304945150
  0.7990912525892213  0.2075180319516221  0.9934805547486931
  0.8165322754220128  0.2759025427966009  0.0821418761458048
  0.7998719473345872  0.3984845575105354  0.1810150044046566
  0.8080978519559068  0.4896916540082401  0.3035493664436544
  0.8149045498916720  0.5975326282707556  0.3837572767315081
  0.8154936163424651  0.7017486759839073  0.4987726616032973
  0.8058751510678306  0.8039095221542354  0.6044515082974229
  0.8155055827242208  0.9265795019166205  0.6992292759696213
  0.8922163219923362  0.9928094540606196  0.9038702511844932
  0.9018270012618714  0.0871507278398127  0.9882552663031845
  0.9105228323135179  0.1861585462250872  0.0830141253779644
  0.8932370457846233  0.3018664598461953  0.1905184176567190
  0.9000700945215598  0.4021183448013161  0.3070851113068755
  0.8978349329777870  0.4885656098664342  0.4050282617080541
  0.9011775067260288  0.5871088664555586  0.4963539739529992
  0.8979344667984108  0.6992572476845780  0.6027521868526975
  0.8831515578200495  0.8196557058165297  0.6930294340610956
  0.9101738015761498  0.9161666755553455  0.7993301054736790
  0.1145921359015247  0.0929204809409327  0.9981080298088116
  0.1169326444608458  0.1985101688055053  0.0954153324920810
  0.0939725668436466  0.3167675122020910  0.1992929049308358
  0.0863974433942047  0.4136586886026521  0.3153432665888900
  0.1027296111997344  0.5106886283659904  0.4117282798028583
  0.0863530930215930  0.6052970738791927  0.5197387176495809
  0.0872807285540844  0.7045383690864497  0.6092971667341232
  0.1053962367562704  0.7878263398490546  0.7005552372562533
  0.1089513373491116  0.8814002004714183  0.7909917249589284
  0.1080121849479809  0.9950450698792892  0.8977009447394124
  0.2041072774457717  0.0966302492797766  0.1149549886907479
  0.2077060350944038  0.2099994795362008  0.1878400814266357
  0.1954667093640623  0.3120882240899050  0.3085620470941137
  0.2052819956667733  0.4063334106330814  0.4091313911573522
  0.1925050584509904  0.5021052055903397  0.5079843603723688
  0.1844881717101998  0.5916116759124748  0.6014986586033686
  0.1950555786767012  0.6838410671174486  0.6938349063117570
  0.2156310778314818  0.7787165510344991  0.8029190876407739
  0.2056272750648773  0.9030535911049711  0.8962517582914700
  0.1952689831194476  0.9885190371657799  0.0044045175114888
  0.2953029627866002  0.1047767119830496  0.2018212352086834
  0.3047486940787110  0.1980179433822968  0.3198516101997555
  0.3036596895312016  0.2963189524058976  0.4170888126473145
  0.2834523620866136  0.3949412294945347  0.5032865922239935
  0.2907554315373417  0.5080562648508362  0.6091744729887409
  0.2957789838337206  0.5906374600604778  0.6956701164258021
  0.3001234446798904  0.6869110354515371  0.8075706635556301
  0.3021969757862877  0.8007901907097477  0.9059495416775789
  0.2999719478107679  0.8926022508987899  0.0171522301849976
  0.2919333934906305  0.9848114849646450  0.1007789662150884
  0.3911441060927103  0.1135403961810439  0.3064852608271238
  0.3846870712602097  0.1823035318206720  0.4139407561724724
  0.4055683693245413  0.3031414890121695  0.5076256803409436
  0.3989315411537788  0.3973949972619693  0.6012654136806290
  0.4045333115878194  0.4906164134187279  0.6939184990833525
  0.4164879636199146  0.5944499116687680  0.7835253717768609
  0.3985576519606653  0.6982152234470576  0.8878310740220456
  0.3925452398752398  0.8005411233065871  0.0054012080664734
  0.4110115092497821  0.8951346648889285  0.1173333025404162
  0.3877946572700637  0.0091691497821458  0.2002928039808580
  0.5111738377657673  0.1024413323492297  0.3998566667460324
  0.5012970410228306  0.1908439818099552  0.5021231423061323
  0.5104487836003884  0.3061542082331385  0.6020753601104758
  0.5120678140996660  0.3961369519773328  0.7072708616461512
  0.5149383609914082  0.4938707245065572  0.8020299250017828
  0.4977699583343238  0.6046412947310813  0.9079349067879363
  0.4947052951120199  0.7012810980690958  0.9957438389562157
  0.4992277602914186  0.7972365743672754  0.1029022504226091
  0.4768831027832690  0.8964064665127012  0.2076612166376961
  0.4817227532677819  0.0264761081879001  0.3097025813671124
  0.6063075122020933  0.1059163500869005  0.5043536463417553
  0.6108479702864216  0.1975305873669697  0.5985698178614811
  0.6011497102449965  0.2997352248755973  0.7097733392062082
  0.6051244451322617  0.3888216818647194  0.8119229523106597
  0.5968944263231819  0.4982892340658580  0.9040556820075736
  0.5976611185447993  0.5976622347087002  0.9913777757672406
  0.5872703230875445  0.6982936691983497  0.1131319092402592
  0.5873837951477370  0.7880930392133507  0.2042188147901243
  0.5850030656412954  0.9012720154282050  0.2983875769624547
  0.6032575438680041  0.0025578176710042  0.3901141853765395
  0.6989664169900749  0.1067508245041751  0.6017562348515497
  0.6951730163567547  0.2058548277421934  0.7056649641675179
  0.7004293050165487  0.2960544191804928  0.8157829389776410
  0.6983540449036951  0.3942313683007512  0.9178060822361402
  0.6971450351182114  0.4947626108902199  0.9911149482155182
  0.7082232580176679  0.5998637446727457  0.0897639727625545
  0.7018647708387888  0.6944329554058228  0.1870180648079796
  0.6951928120759021  0.8024565386538427  0.2956707583152749
  0.6954819256684388  0.9073821261398507  0.3975540106187978
  0.6913080107616452  0.0089687526487481  0.4974071664960391
  0.7968344177519597  0.1040941077593374  0.7100401366634159
  0.8103954886788429  0.2038603842765667  0.8206707530773087
  0.8115184057522455  0.3124077702911805  0.9074401428537442
  0.8156494178710005  0.4046570819742357  0.0109505907002188
  0.8037778629080279  0.4961194462036644  0.0881627956477260
  0.8055065469869760  0.5914318225756503  0.1954464536558618
  0.8095954953453486  0.7050525601771369  0.2858804647508393
  0.7978533492059725  0.7985011223542315  0.4005018747172713
  0.8018133015880551  0.9032347991714502  0.4973474131568310
  0.7942007447441739  0.0043923778005279  0.5922881750434499
  0.9105102088045527  0.0806615456774864  0.8029186628889775
  0.8966103859431911  0.1974590395466791  0.9063663027070774
  0.9031643475155349  0.3000627532677811  0.9977207537915760
  0.9212971619723334  0.3906485955096315  0.0981709183114674
  0.9129187690769243  0.4839910587843121  0.1886979186209885
  0.8983789828813613  0.5943061365205580  0.2868645170353119
  0.9026592276374359  0.6917262574700587  0.3817966005571307
  0.8883411214018722  0.8009195452489237  0.4882472460179486
  0.8993731592104979  0.9080874760124757  0.5841439327635030
  0.9008107073641085  0.9992309306921285  0.7026204447513180
  0.0139757343872731  0.0905400842837096  0.9087262422323263
  0.0147729973095849  0.2003235061069972  0.0008373400633346
  0.0118593057308161  0.2967360558081964  0.0970198080998088
  0.0005881869479296  0.3919103064212734  0.2054293545391772
  0.9856356362943757  0.4993403561819960  0.3024850103568966
  0.0023108902168971  0.5825092431132575  0.3992451441632312
  0.9969250227375568  0.6993907402204727  0.4994956743887045
  0.9949401438060974  0.8019435751529755  0.5860784305135596
  0.0007062327087439  0.9128709406918887  0.6888311806861722
  0.0193607104592743  0.9990010047379840  0.8087126282707544
  0.2053760529511237  0.2246810156901020  0.0089826208899808
  0.2027770291183515  0.3234619813813921  0.1182266641270431
  0.1958373086355110  0.4245333896812014  0.2132302721363786
  0.1954831042118030  0.5081661689007433  0.3077978500511875
  0.1877443256112983  0.6100405690340693  0.3905046208423641
  0.1930014504416562  0.6966773053022521  0.5047159691435894
  0.1958223175638665  0.7846119568581713  0.5792976843408510
  0.2050094978690993  0.8924681926620792  0.7016452522559007
  0.1769877474345876  0.0037495221542372  0.8126658598604806
  0.2160371205447476  0.1093880621889980  0.9019592928739826
  0.3005755820099552  0.2093143239446675  0.1008246698888087
  0.3000355196304838  0.3092904464179398  0.2189845570343536
  0.3073609695007278  0.4014889855003432  0.3179406947453600
  0.3089424051808294  0.5159254098711941  0.3946955396300069
  0.2954210304516565  0.5946240351420187  0.4908080879026713
  0.2998145401299936  0.6847760548558384  0.5934525358920055
  0.2904926549367843  0.7930117592438251  0.6907914573462506
  0.3102089593104935  0.8946370543558473  0.7851794928692186
  0.2940843837051474  0.9913081236161077  0.9157475450584514
  0.2997552243994193  0.0905065865098464  0.0116434513463943
  0.3841456908168865  0.2128354215375836  0.2009516806742724
  0.4050618399561898  0.3028029689769269  0.3219097464346063
  0.3967685812242578  0.4177466584128950  0.4091689626437471
  0.3868480779029042  0.4973519940001410  0.5035596223899432
  0.4016376719601880  0.5886210033094414  0.5870675893431141
  0.3962757901002334  0.6904567310302170  0.7022984028951669
  0.3982881521868507  0.7916787005071342  0.7897349515487733
  0.3974431365919884  0.8970055932001628  0.9057330506416506
  0.4110904168948366  0.9951621737577696  0.0140920244756089
  0.3923171091164477  0.0934470460227104  0.1060664122282802
  0.4861916830551678  0.1961802671364978  0.3021564257993887
  0.4941359729530248  0.3110701088069305  0.4002359129544502
  0.5152041575200599  0.3920603309445028  0.5142893731101665
  0.5100991471631602  0.4933107873622049  0.5948125968429352
  0.5006647479821922  0.5893077898145265  0.6847778976691004
  0.5138821037594354  0.7065533701578559  0.7947121887574085
  0.4988008299802402  0.8016938720506630  0.8904098740506186
  0.4939537434823009  0.8893398733363469  0.0137213661579452
  0.4984955415347230  0.0117569315016297  0.1155459160496193
  0.4734817442441823  0.1172299669055477  0.2065492073998243
  0.5962449384538431  0.1994122249470252  0.3930826951739235
  0.6166422770886442  0.3005967653151131  0.4928332515892464
  0.6122177457679570  0.4013368210280674  0.6067558467655516
  0.6140564348467876  0.5081991157353372  0.7066473522058985
  0.5972129420728081  0.6032933544439416  0.8003971891145483
  0.6032957710530695  0.7108992004952270  0.8933167357920055
  0.5849736739601425  0.8089267898383383  0.0113330954024917
  0.5972092459703333  0.9067889640722839  0.1073497850051197
  0.5886082726601742  0.0110052313040185  0.2057229518344812
  0.6007320382848036  0.1122511697340514  0.2957759658103356
  0.6986386005095113  0.2098380319516195  0.5008611147353648
  0.6925670212613966  0.2985854493940607  0.6055337763386603
  0.6897532058760518  0.3965113587771754  0.7200212775886285
  0.6926446194138265  0.5067757062927072  0.8141146496512022
  0.6956665112735436  0.6090052784457498  0.9099759905716525
  0.6840578662412824  0.7120404171329255  0.0042539458584301
  0.6960878755267714  0.8052814237756252  0.0969381324254215
  0.6879550420228071  0.9217394366800775  0.1943810804504622
  0.6978821318540014  0.0001678312421163  0.3058911959239055
  0.6975735587247911  0.1163340187138431  0.3958019961429500
  0.8004676193423990  0.1936896783409949  0.6115448036951534
  0.7871799852384456  0.3019984862265161  0.7090599219066220
  0.7840117744815629  0.4076275550582125  0.8069110954501113
  0.7963949529773089  0.4951170248327443  0.9032966291278797
  0.7887727668388820  0.6010379300492872  0.9969911359253345
  0.8008651336872958  0.7049437922906563  0.0929048532177816
  0.7939463036594390  0.8011174572033966  0.2047643989428849
  0.8038792352563036  0.9020889545487023  0.2904999809528377
  0.7988701397585771  0.0031705273683968  0.4135410452132078
  0.8044075802957096  0.1026173348253607  0.5018531106402193
  0.8945485045594168  0.2010534044427530  0.6967562581843296
  0.8951655284397972  0.3116104568938809  0.8118403380871868
  0.9010663060403346  0.4131010985452761  0.8988954629651644
  0.9118266650794027  0.5075133592057313  0.9939036446751288
  0.9059263146115555  0.5891702721363785  0.0940111868765001
  0.9039068284088501  0.7032040118092411  0.1900425775576764
  0.9065786371753077  0.7948279612390152  0.3000950786885994
  0.9047438532415910  0.9068491002595209  0.3955773186352687
  0.9091594119187647  0.9985901130925470  0.4960803766577015
  0.9094977143401337  0.0998097635770563  0.5944741644246534
  0.9984019261446164  0.2012483531344458  0.7963497173876846
  0.9991195066784115  0.2986524758934337  0.9063247746482261
  0.0015960715221084  0.4171445613199651  0.9913196995309619
  0.0109648903597517  0.5017012071141167  0.0953245679864736
  0.0127910678317207  0.5933662750886910  0.1984688183614693
  0.0123030737363408  0.6904532353991542  0.2982428956453447
  0.0022680198090512  0.7918525782719428  0.4002132839694283
  0.0009910140234766  0.9084262250898760  0.4845317587676519
  0.0106046417942451  0.9882349039308593  0.5963201495202526
  0.9939841270445910  0.0907512730649245  0.7017214085378924
  0.1144934344420392  0.2075254312992527  0.9016845541772796
  0.1051510930692103  0.3204462465179390  0.0043860946167982
  0.1021723254208240  0.4179912149710745  0.1045732844456069
  0.0905174486321769  0.5070007461727073  0.2119923135163475
  0.0961304540368104  0.5940951167829311  0.3110474688697877
  0.0957637680055257  0.7074954224899415  0.4143299473822069
  0.1032387990762089  0.7961764967500784  0.4928605309397369
  0.1004284588462170  0.8916943568010254  0.5979610171186422
  0.1002839718101924  0.0006862274707728  0.7050509216447196
  0.1006565429394541  0.1152208904549923  0.7954058908121269
  0.2993013204447479  0.3129133558724817  0.9866573548248851
  0.2987796938168117  0.4191619318587669  0.0990259427156488
  0.3084416518654294  0.5090869031689707  0.2289220232851576
  0.2914087669341185  0.6082239703816583  0.2986519682864710
  0.2992849217875744  0.7026114259184340  0.3942219666198454
  0.3015735515821021  0.7915064027046981  0.5036461298540544
  0.2969667741244280  0.8833703559439030  0.5979758262898471
  0.2921378752886810  0.9947780914740108  0.7051525516059129
  0.2886196528654068  0.0857619351920178  0.8063099430965934
  0.2968688678841005  0.2030274969643600  0.8955444951310696
  0.3925127868384095  0.3125628442179931  0.1068775714863932
  0.4056113178257661  0.4009166357943883  0.2098464807980776
  0.4082229023118487  0.5195318416228218  0.3019995509630746
  0.4106583595628663  0.6028886840789482  0.4031692440656158
  0.4071610652127333  0.6907289845479880  0.4968297573867275
  0.4039520806647445  0.7861191181162326  0.5957894673936366
  0.4060443694197744  0.9059009090259735  0.7052638094331058
  0.4031999976191045  0.9974657889097855  0.8060657108164122
  0.3966884364658014  0.1069500654746349  0.8999763077069574
  0.3905455274874399  0.1941371048308369  0.0078028923120854
  0.4894834037284852  0.2855251032118318  0.1958248451227362
  0.5094191833527759  0.3991715521059049  0.2897458193852529
  0.5110813004452268  0.4955235370586379  0.3971197985762274
  0.5142951024975559  0.5912440341896641  0.4995748467893648
  0.5114812266374642  0.6928730844503690  0.5954165000833314
  0.5021700188090747  0.7794955801052339  0.6887064979405224
  0.4919847794100107  0.8910693221589980  0.7960628161234240
  0.4930501354729628  0.9965845422728066  0.8872837489583603
  0.4916061803290432  0.1122158005761733  0.0015799109545043
  0.4966094283469431  0.2070169400728545  0.1126138882407588
  0.6095312263993691  0.2912492554939163  0.2907147058403368
  0.6069275783909873  0.4042602842789478  0.3964859727149346
  0.6087727196971500  0.4875665574629195  0.4997272531606356
  0.6274302635651523  0.5965545767957892  0.5879604257041464
  0.5914579738577643  0.6863569948334529  0.6917314925835072
  0.6113102921359044  0.8007829585009887  0.7889924963691328
  0.5936095926287450  0.9140513549677394  0.8914554743934673
  0.5898787557439107  0.0208279155258211  0.0007756758172448
  0.5911547529820709  0.1189409485488468  0.1031467003166568
  0.6090743087069370  0.2044985843194240  0.1933435432489716
  0.6938980552844001  0.2815115049641648  0.3931695121544720
  0.6890436689602595  0.3878459089069324  0.4882946372705419
  0.7118000352372533  0.4811888121711405  0.5886812252089229
  0.6979679145734607  0.5959289212161636  0.7011624589890744
  0.6992474379181459  0.6969151491631180  0.7987914521082828
  0.6829929896907245  0.8197230961167605  0.9118404718935267
  0.6837034261088988  0.9075385700340490  0.0024111178305262
  0.6940790633556375  0.0149829965953217  0.0901065469869735
  0.7082088116949592  0.1016692359705686  0.1980157234351552
  0.7168960043808497  0.1893070955453453  0.2896846775076796
  0.7931780371895911  0.3024353982048069  0.5067093097783371
  0.7881430099283335  0.3945683145639407  0.6013021804242769
  0.7876142448989327  0.4989823451822559  0.7050176600557165
  0.7961934220613784  0.5868696607223640  0.8021733520630434
  0.7846675141068076  0.7210556010571167  0.9081825861289019
  0.7981125049403559  0.8049868041237147  0.9937116054379658
  0.7966970910216418  0.8993158867645974  0.1050651174972046
  0.7973256141520437  0.0068036732458765  0.1869558020047108
  0.8185128735030105  0.1023521287588380  0.2974067074593449
  0.8059025208923600  0.2123857465298471  0.3942932392085936
  0.8989370019761438  0.3020005966524621  0.6158129301683317
  0.8937378076712434  0.3935609880717124  0.7108369948334570
  0.9034648408371240  0.4993593928715967  0.7882940815694894
  0.8808166105568915  0.6132999719054339  0.9002305159400947
  0.8915180590938334  0.7164532477798176  0.9951648932168311
  0.8977956481988514  0.8086963686578912  0.1050721173305362
  0.9073910192614463  0.8947267907906920  0.1954247075069659
  0.9009285964619878  0.9940309464060348  0.2961678926692244
  0.9006932115902018  0.1079717592438243  0.3930952653508228
  0.9073253927287439  0.2079565691293084  0.5088706526035125
  0.9964229842146608  0.2975774276802952  0.6950192814456813
  0.0128663184209898  0.3897251479726691  0.7991887455060578
  0.9907235913430625  0.4993964210375950  0.8956468074569628
  0.9979572186376515  0.6161393466822247  0.9882693235875308
  0.0067948429799287  0.6922659093831101  0.0990917768624584
  0.0131970743553751  0.8000003280874282  0.1949795104878476
  0.0146143472774440  0.8998761329492169  0.3072117473393519
  0.0050930234994411  0.0094443394204902  0.3868234142044216
  0.9905179819528129  0.0974673941096640  0.4916565529392187
  0.9850170443560842  0.1924689078831463  0.6009901221399474
  0.0960783376586249  0.2816160667603143  0.7873803038022871
  0.0995909092640659  0.3927684574176808  0.8821920130473089
  0.1109864931787357  0.4996967496011990  0.9886205414156777
  0.0971505345110799  0.6056927206495075  0.0900323697054830
  0.1171953063022286  0.6873697178638594  0.1940142448989306
  0.0986105478440962  0.7914871731625439  0.3030891302588046
  0.0947868131711118  0.8874421766148402  0.3936924625604163
  0.1041867169829302  0.9921681907573614  0.4938969353110636
  0.0932596752458252  0.0863860584271805  0.5937416075807747
  0.1002504373705406  0.1871583033737281  0.6858767062688997
  0.2020386386038453  0.3025351372586371  0.8839853160639066
  0.2027932715887744  0.4129088874074398  0.9856282998023858
  0.1890848946453687  0.4922746910787836  0.1023640532368262
  0.1997313030642118  0.6005164757981944  0.1936186362229435
  0.1939075169638826  0.7033376043427566  0.2991802647555986
  0.2112429842146639  0.8082915987714614  0.4009633975381561
  0.2023117635294369  0.8953573572057820  0.4917970962596101
  0.2066055355824830  0.9893611818766246  0.6023525054165404
  0.1997026470798318  0.0846212104473736  0.6953578371943507
  0.2065818928120748  0.1842385362253296  0.7722990247851271
  0.3915664298469110  0.3964148753601080  0.9881980490940663
  0.4073900716649632  0.5003310597366735  0.0948061974714918
  0.4134204704649918  0.6077276855312945  0.2072865327016018
  0.3864879921906592  0.7114952324944639  0.2978955462965160
  0.3993160058093821  0.7961534120616207  0.4039035246779861
  0.4112890254993928  0.8832878436227674  0.5011938925263664
  0.3931689669293590  0.9969423151829702  0.5837200076188651
  0.4145412190185951  0.1023773000642834  0.7004161624723224
  0.3903468541225195  0.2020802385657490  0.7864996161996132
  0.4036862888978803  0.2977233142068059  0.8961093888240725
  0.4954593576343456  0.3924588762172334  0.0995964200852342
  0.5182800952358306  0.5096501783290890  0.1879652998738095
  0.4959713411585440  0.6015273998238158  0.3091277669579284
  0.5149563324682731  0.6971358581938532  0.4003839956191513
  0.5106334363467511  0.7945215571057815  0.4960682307564070
  0.5052531020689983  0.8847313873479195  0.5881475136306307
  0.5021625066069859  0.0012917525773162  0.6859013461584240
  0.4985888045522699  0.1058285993190609  0.7993484831313538
  0.4997630146901244  0.2051770143567992  0.8948780348086984
  0.4841736277707653  0.2748631727816004  0.0039612499702386
  0.6032816961500913  0.3993560819980502  0.2011540753791579
  0.6025264041332363  0.4941105349872643  0.2982079774291080
  0.6306869836432440  0.5907714035380138  0.4055385314635345
  0.6198509749767851  0.6803269222161390  0.4974027437441961
  0.6062714154424924  0.7848591028784995  0.5990555572486400
  0.5931595404871288  0.8972117882907540  0.6901226861265215
  0.5884347844098983  0.0037024242279955  0.7900697069117371
  0.5738463069926922  0.1037869931668283  0.8957546977452893
  0.5992477302921344  0.2003851441632349  0.0008304435608650
  0.6036944572748268  0.3011142263279467  0.1090521368538830
  0.7026821442346645  0.4060128592176397  0.2909220247136943
  0.7212469522154237  0.4981026051760651  0.3976102883264687
  0.7213512292564488  0.5873185276541051  0.4958397619104318
  0.7194700002380898  0.7030015380586150  0.5867805890335944
  0.7166788885978903  0.8018849813099678  0.6985226056522436
  0.6950220618556671  0.9057115206780821  0.7868901707102225
  0.6876399566676952  0.0120879902859485  0.8967644737030085
  0.6773775805337934  0.1188712173519662  0.9989233823004184
  0.6954423489916906  0.2025121944715593  0.1030938053855834
  0.7116557858146209  0.2930380590938313  0.2096040879979029
  0.8019702745172737  0.3892136301516658  0.4008668188852624
  0.8123410794981041  0.4837039532392069  0.4953766134139670
  0.8017606899835741  0.5990363934192047  0.6010835622961324
  0.7938082726601721  0.6912877117211522  0.6951628965977008
  0.7838186890788279  0.8132886221756621  0.7977006161758027
  0.7988269888812169  0.9166320501892784  0.8869080031427856
  0.7864681488536007  0.0000044313230632  0.9963105740339486
  0.7960366819837645  0.1076283974191057  0.0838999395252529
  0.8051796700078597  0.1891870874502999  0.1910998176233889
  0.8085846060808066  0.3134130449275006  0.3004765586533651
  0.8960403980857592  0.4008830408799824  0.5224515125830322
  0.8944489693102540  0.5014936272945860  0.6168854679650480
  0.8964878460036658  0.6031098992881141  0.7040342677555316
  0.8799649579771938  0.7065922268517397  0.8016099416680547
  0.9041642965643675  0.8063994985833673  0.8970277698150042
  0.9051526611271186  0.9117474369657899  0.0075172800647607
  0.9041174291088296  0.0013423213733006  0.1023010804504665
  0.9021519059070044  0.1061189690721633  0.1912365272255414
  0.8986221813766306  0.2030101259493833  0.2902980281421890
  0.9128198447656004  0.3089610366419819  0.4034928530273092
  0.9984942606128442  0.4087523273255371  0.6115070403085667
  0.0013635294397787  0.4838778848122658  0.7001492126377968
  0.9880071236399104  0.5946649470250733  0.7912421642341840
  0.9901696959596222  0.7146125973191104  0.8868120216185318
  0.0099438222899479  0.7983544634651523  0.0021312135425333
  0.0078965072260218  0.9013921716149582  0.1095896907216485
  0.0005144777505279  0.0019474369657857  0.1992318635270607
  0.9959299269065056  0.0942306192709665  0.2864462136615771
  0.9985051136877701  0.1990548758362891  0.3945036894359646
  0.0049370600699987  0.2978815475822003  0.5014977919573340
  0.1006228604080874  0.3897722763743730  0.7117540163329465
  0.0947331511154488  0.5100292826361255  0.7948647351253513
  0.0953734925358916  0.6006447632199254  0.9034501197590501
  0.1048973119687631  0.6972890250232169  0.9881023718482922
  0.1000370134044459  0.8020838499083354  0.0873781252827328
  0.1108892835884845  0.8995929530249285  0.2189198247660755
  0.1021809471203099  0.0075830594509654  0.3101825904145130
  0.0871384309897394  0.0993640679983798  0.4030578762410428
  0.0945694969167405  0.2112149210733065  0.5227812128282636
  0.1038629837384804  0.3109775605342762  0.5951250736887204
  0.1956666417466266  0.4006644337039589  0.7897250994023963
  0.2056482864693692  0.4984563253255843  0.8740204857027223
  0.2100394257279561  0.5956976229137396  0.9941795576295789
  0.2012285031308778  0.6987150053570161  0.0942125525582753
  0.1931913178257645  0.8058672474464927  0.2025630137377661
  0.1994520320944773  0.9080226127949302  0.3043554558224812
  0.2021816723411334  0.0049803109449797  0.4108090093093040