Li 
 1.0000000000000000
    21.0004999999999988    0.0000000000000000    0.0000000000000000
     0.0000000000000000   21.0004999999999988    0.0000000000000000
    -0.0000000000000000   -0.0000000000000000   21.0004999999999988
 Li 
 500
Cartesian
  0.1391409400000000 -0.1275244700000000 -0.0848517600000000
  0.0676918300000000  1.7920227500000001  1.8036434699999999
 -0.1325465900000000  4.0904277200000001  3.9357452099999999
 -0.0446071500000000  6.3605257399999999  6.3696639499999996
  0.0973493800000000  8.5945303699999993  8.5511321400000000
 -0.1467180500000000 10.4750075299999992 10.8615723200000005
 -0.3597193800000000 12.6091378600000006 12.8253958000000008
 -0.4318109600000000 15.1030678799999993 14.7301672900000007
 -0.3722611900000000 17.0862663800000014 16.5550847200000000
  0.1364792200000000 18.7301963899999997 18.8079647899999998
  2.0014317899999998 -0.2375350800000000  2.3543658100000000
  2.3294113200000002  2.0506190399999999  4.3039282999999999
  2.1584876799999999  4.1574973499999999  6.3839454499999997
  1.9831752300000001  6.2533717900000001  8.4009336300000008
  1.8622955100000000  8.3185878800000008 10.4890355700000004
  1.8753956800000000 10.2433713300000004 12.8138334599999997
  1.6413816500000000 12.8623814400000001 14.4909810500000003
  1.8598479100000000 14.9008212199999992 16.9271133300000010
  2.3480608200000002 16.7693898399999988 18.8382365800000002
  2.1946908100000000 19.0549064500000007 20.8496199299999994
  4.4544917999999996 -0.1610030200000000  4.1966852599999998
  4.2018644800000002  2.1558919099999998  6.3249310999999997
  3.8777946999999999  4.2197248399999996  8.6570543000000004
  4.0697853100000003  6.4736977500000004 10.4799901299999991
  4.1654468299999996  8.4200839700000003 12.8406689600000004
  4.0869106200000003 10.6599600599999995 14.7721734399999995
  3.7847233500000002 12.8379276200000003 16.4434441000000007
  3.9628866399999998 14.6131279700000007 18.5594664899999984
  4.1579622799999996 16.9357058400000007 -0.0687096900000000
  4.1072991099999996 18.8511763999999999  2.3769009400000001
  6.2401874099999999 -0.3553041600000000  6.5568187599999996
  6.0037598000000001  1.9658168300000001  8.5635156800000001
  5.9255412900000000  4.1768130000000001 10.6159529999999993
  6.2354735899999998  6.3192978999999996 12.5538687499999995
  6.3794782100000003  8.2737328600000009 15.0873654399999992
  6.3776088700000004 10.4167985299999994 16.6427566099999993
  6.0495556800000001 12.7844082399999994 18.9136393799999993
  6.3644789399999997 14.7189167600000008 -0.1016525800000000
  6.3600465200000000 16.9223279200000007  2.0644827700000001
  6.4839115700000001 18.6868954599999988  4.3262301900000004
  8.3852270000000004  0.1400839600000000  8.7678754500000000
  8.3954747800000007  1.9178928500000001 10.6261695899999999
  8.5841488899999998  4.0462696999999999 12.5508622100000000
  8.5703590799999994  6.3262720600000000 14.4240440400000001
  8.4477793000000005  8.4130246900000003 16.6474521499999994
  8.4719798100000006 10.6459658299999997 18.7318097500000000
  8.4670968999999996 12.5367863300000000 -0.0195430900000000
  8.1988318899999992 14.4015379600000006  2.1790623600000001
  8.3841055299999994 16.4511968000000017  4.2126368899999997
  8.5965811799999994 19.2513045699999985  6.5628289700000000
 10.5437335599999997 -0.0023399500000000 10.5756131599999996
 10.5379845000000003  2.5650432300000001 12.7051703699999994
 10.5451087799999996  4.4581869999999997 14.7499594700000003
 10.6800915199999995  6.2758540600000003 16.8613567300000007
 10.4954329600000005  8.2949477599999994 19.2531733400000000
 10.2342754199999995 10.0626032799999994 -0.0483021900000000
 10.4817300400000004 12.6033345099999998  2.1123464699999999
 10.3266429800000008 14.7340109800000008  4.4672385999999999
 10.3593082499999998 16.6030254799999994  6.5088281900000000
 10.4971274500000007 18.9262295199999997  8.2811483999999993
 12.7440362500000006  0.4911589700000000 12.8457717700000007
 12.5137542199999992  2.2653719799999998 14.8488804299999995
 12.3912940500000008  4.1263426399999998 16.9502584799999987
 12.5416252400000001  6.1223566600000003 19.2286952299999996
 12.3911096599999997  7.9745127000000000  0.2093572900000000
 12.6192832100000008 10.3020890000000005  1.8716160500000001
 13.0902501800000000 12.5513123400000008  4.2794627800000002
 12.9875009699999993 14.5456537499999996  6.5586409400000001
 12.7920960200000007 16.7367556800000017  8.5907114799999995
 12.6389831400000006 18.9284679800000006 10.8511835800000007
 14.6644444099999998  0.2352213800000000 14.8580021500000008
 14.6094430800000001  2.2820941000000001 16.9857019399999984
 14.5894741099999994  4.4508921900000002 19.0119349399999997
 14.6631540999999999  6.3004336500000004  0.3708491800000000
 14.8899452799999992  8.4312036599999995  2.1917831200000002
 14.7031209100000009 10.5444321999999993  3.8744195600000002
 14.9974497299999996 12.4791088999999999  6.3554029300000003
 15.0894861000000002 14.3488747300000004  8.2429248699999995
 14.7632939299999997 16.8625008899999997 10.4324823200000001
 14.6345158800000004 19.1116179399999986 12.8807930899999992
 16.6695102499999983  0.0786212100000000 16.9409849100000010
 16.8188474499999998  1.9442348300000001 19.0306369400000008
 16.7813158499999986  4.3579824299999999 -0.1369116100000000
 17.1475860500000010  5.7940913500000004  1.7250204700000000
 16.7977108299999998  8.3683749499999998  3.8014055999999998
 16.9704589400000003 10.2837695799999995  6.3746884699999997
 17.1134030000000017 12.5484839600000004  8.0590946900000002
 17.1257736899999990 14.7370730699999992 10.4744752800000001
 16.9237811100000002 16.8825019199999993 12.6937838999999997
 17.1260249900000012 19.4586328299999991 14.6841644099999993
 18.7369888700000011 -0.1510050600000000 18.9817272099999990
 18.9388179399999999  1.8302088599999999 20.7538547199999996
 19.1214347400000015  3.9094225499999999  1.7433381400000001
 18.7584245799999998  6.3393465899999999  4.0009820300000003
 18.9019220200000007  8.4446863000000008  6.4489408800000003
 18.8549825099999993 10.2601220899999994  8.5057960099999992
 18.9251782300000002 12.3295797500000006 10.4236816300000008
 18.8570727699999985 14.6847518299999997 12.6580972999999997
 18.5466242900000005 17.2131796500000007 14.5539646299999994
 19.1141049199999991 19.2399582699999989 16.7863318799999988
  2.4064921500000001  1.9513765599999999 -0.0397323200000000
  2.4556439999999999  4.1688128000000004  2.0037696899999999
  1.9734708900000000  6.6522761399999997  4.1852506500000004
  1.8143895100000000  8.6870392899999995  6.6223662699999997
  2.1573731999999999 10.7247165399999993  8.6464997399999994
  1.8134581299999999 12.7115411999999992 10.9147729400000006
  1.8329389400000000 14.7956580199999994 12.7955451500000006
  2.2133736700000002 16.5447470500000016 14.7120102599999996
  2.2880325600000000 18.5098449100000018 16.6112217199999996
  2.2683098899999998 20.8964439900000016 18.8521686899999992
  4.2863548800000002  2.0292835500000002  2.4141122400000001
  4.3619305900000001  4.4100940700000004  3.9447356299999998
  4.1048986300000001  6.5540087500000004  6.4799572699999999
  4.3110245500000000  8.5332047899999992  8.5919637800000004
  4.0427024800000000 10.5444603699999995 10.6679255600000005
  3.8743438499999998 12.4241410000000005 12.6317725799999998
  4.0962646800000000 14.3610043300000001 14.5708799500000001
  4.5283604500000001 16.3534369300000009 16.8617023000000010
  4.3182755899999998 18.9645769400000006 18.8217350500000009
  4.1007462800000001 20.7593940400000001 21.0929970699999991
  6.2015098699999998  2.2003633400000000  4.2383468500000001
  6.3998749500000001  4.1584758199999996  6.7170437400000003
  6.3770053100000004  6.2228461599999996  8.7590736099999997
  5.9526413299999996  8.2939632900000007 10.5692700800000008
  6.1060094400000002 10.6694355900000009 12.7929685200000005
  6.2115065500000002 12.4036819800000000 14.6094202800000001
  6.3027423999999996 14.4254751999999993 16.9593877199999987
  6.3462875900000002 16.8169943999999987 19.0253933500000016
  6.2995608900000004 18.7450935700000016  0.3602054100000000
  6.1307472299999999 20.6815335900000008  2.1164086800000002
  8.2142218000000007  2.3844050900000000  6.4363437200000000
  8.0786208399999992  3.8284653199999998  8.6929628500000007
  8.5171385399999995  6.3661228400000001 10.6603931000000003
  8.3777618300000007  8.3454936400000008 12.6268743200000007
  8.4954018100000006 10.3031899899999999 14.5726354400000009
  8.7464554799999998 12.4837453699999994 16.4544245700000005
  8.3699099700000001 14.6628688000000000 18.6448964699999991
  8.2436463100000008 16.8117638599999992  0.1134280700000000
  8.6314472000000002 18.7982755300000015  2.4640580200000000
  8.1438816999999997 21.1930567299999986  4.2062490300000004
 10.7349061799999994  2.1513192000000001  8.3971899299999997
 10.5274885099999995  4.0078190400000002 10.5448370499999999
 10.7196796800000005  6.4293914499999998 12.6438836000000006
 10.7536801299999993  8.3190740600000002 14.8530417299999993
 10.8139630499999999 10.3715321500000002 16.8430294399999987
 10.4534180100000000 12.6977695100000005 19.0670870100000016
 10.3890585499999997 14.7272537000000003 -0.0893815100000000
 10.4840325799999992 16.7423666799999999  2.1609987099999999
 10.0147835999999995 18.8249840000000006  4.3609893800000004
 10.1164186800000007 21.5565115100000000  6.5039090599999998
 12.7327609099999997  2.2242963100000002 10.5916787499999998
 12.8281127999999995  4.1482410999999999 12.5702654599999999
 12.6244444900000001  6.2945895900000002 14.9055950100000008
 12.7079159100000005  8.1654497300000006 17.0507879600000010
 12.5350813999999993 10.4643230599999999 18.9856213499999988
 12.5511823200000006 12.5512057600000002 -0.1810710200000000
 12.3329704200000005 14.6645161999999996  2.3758266600000000
 12.3353533899999999 16.5503478699999995  4.2886972200000004
 12.2853568800000001 18.9271629600000004  6.2662883100000002
 12.6687100499999996 21.0542154500000009  8.1925929499999999
 14.6786442400000006  2.2418206899999999 12.6371818099999995
 14.5989809299999997  4.3230543099999998 14.8193170799999994
 14.7093656199999998  6.2172908299999996 17.1318496099999997
 14.6657841199999996  8.2790558500000007 19.2743866299999986
 14.6403943099999996 10.3902622099999995 -0.1865905300000000
 14.8730425299999993 12.5974385699999996  1.8850883100000000
 14.7395111199999995 14.5834392800000003  3.9274728699999999
 14.5993966499999992 16.8519885400000007  6.2092337600000000
 14.6054681800000008 19.0554783400000005  8.3488330000000008
 14.5178138800000003 21.1888482899999993 10.4457991999999997
 16.7339211900000002  2.1860283100000002 14.9111978900000004
 17.0187104600000012  4.2811700000000004 17.2344961499999982
 17.0422922800000016  6.5607193800000001 19.0566967200000015
 17.1290456000000013  8.4980010499999992  0.2299678800000000
 16.8797370099999995 10.4187564300000002  1.8514627900000000
 16.9160402400000009 12.4203639900000002  4.1044732499999999
 17.0019102000000011 14.8064562899999999  6.0036326999999998
 16.7553192600000003 16.7689228200000002  8.4107396199999993
 16.8384802399999991 18.9683823999999994 10.4445443499999993
 16.6786127399999984 21.0927421300000013 12.4383478200000006
 19.1211696400000015  1.6939327900000001 16.8616933799999984
 18.8292664099999989  4.1467385600000002 19.0341455400000008
 18.9669028799999992  6.3014678499999999 -0.0478653100000000
 19.3477010500000013  8.2038158299999999  2.0616383699999998
 19.1717506100000001 10.1640542299999996  3.9627506399999999
 18.8664078300000000 12.4807260200000005  6.0242982899999999
 18.9562951099999992 14.5265972699999999  8.0179195100000005
 18.6556077199999990 16.8197109100000013 10.2534362899999998
 18.8872860299999985 19.0702910400000007 12.2673146600000003
 18.9174752599999998 20.9843491600000007 14.7553806499999993
 21.2939974099999993  1.9013870399999999 19.0837054500000001
 21.3107403300000016  4.2068937899999996 21.0180845599999984
 21.2495513500000008  6.2316055400000003  2.0374644800000001
 21.0128522199999992  8.2303123899999999  4.3141191599999997
 20.6988411799999987 10.4863971500000002  6.3523364600000001
 21.0490298500000002 12.2329853600000007  8.3843476500000005
 20.9359239399999986 14.6875552400000000 10.4896589099999993
 20.8942404900000014 16.8412160499999999 12.3079400799999998
 21.0153312399999983 19.1707461899999991 14.4657992100000001
 21.4070846000000010 20.9795206000000007 16.9833695499999990
  4.3129998000000001  4.7184136700000003  0.1886395300000000
  4.2584190000000000  6.7928633400000002  2.4828190600000002
  4.1126813999999996  8.9154134500000009  4.4779423300000003
  4.1052429300000002 10.6717436299999999  6.4639087499999999
  3.9427247099999998 12.8111569700000008  8.2007922900000008
  4.0531269600000002 14.6305717499999997 10.5992877100000005
  4.1123665799999998 16.4772433999999990 12.1655410199999992
  4.3053019600000004 18.7422782800000007 14.7349011200000000
  3.7168311900000002  0.0787418400000000 17.0663893900000012
  4.5368875500000003  2.2972039999999998 18.9415961300000006
  6.3122375100000001  4.3957054600000003  2.1173684800000001
  6.3008959300000003  6.4952540200000000  4.5987851900000001
  6.4547340400000000  8.4314694400000008  6.6769135600000000
  6.4879449800000000 10.8346915700000004  8.2888036799999991
  6.2039893499999996 12.4874020500000000 10.3072152500000005
  6.2962552499999997 14.3806395400000007 12.4627999799999998
  6.1004909999999999 16.6536434500000006 14.5069660000000002
  6.5145432500000000 18.7878254600000005 16.4891619399999989
  6.1759190999999998 -0.1825337500000000 19.2311563200000002
  6.2950095900000003  1.9006835700000000 21.2450183000000017
  8.0672515800000006  4.4696502699999998  4.2200857699999998
  8.5065011699999999  6.3590137499999999  6.7602656300000001
  8.3323385900000009  8.7728886999999993  8.5927527999999995
  8.1240030599999997 10.4446405500000008 10.5750038499999999
  8.4345919299999998 12.3613353799999999 12.3287129100000001
  8.3219897300000003 14.4999365800000000 14.7486176100000002
  8.3642503399999999 16.6256485500000011 16.5848288500000010
  8.3465045900000003 18.8375659599999992 19.0208469300000012
  8.6331042999999994 -0.1015967700000000  0.2959395600000000
  8.2388554500000009  1.9624346900000000  2.2274476900000000
 10.2102684400000001  4.1198836999999999  6.3454360200000002
 10.3771024999999995  6.5326278200000001  8.4051542900000005
 10.8195449099999994  8.2334629800000005 10.8003339799999996
 10.7123371400000007 10.3597731900000003 12.4913619400000009
 10.5142100400000000 12.3757582399999997 14.3806782399999999
 10.7917811199999996 14.8379740499999997 16.6893533199999986
 10.4750668299999994 16.8359721600000007 18.6990525599999984
 10.3732755900000004 18.6765820100000006  0.2881555500000000
 10.4686556199999998  0.2469014400000000  2.4265220099999998
  9.9433533700000005  2.4618879200000001  4.3376366300000004
 12.5214418300000006  4.1877564300000003  8.2549331400000003
 12.9497961400000001  6.3126823700000001 10.3497447000000005
 12.8568787699999998  8.4282739099999997 12.7421761599999996
 12.8954921599999999 10.6724355299999996 14.8399477199999996
 12.5417703899999999 12.6694620899999997 16.8087411700000011
 12.6695128399999994 14.9292386599999993 18.7600981100000013
 12.2847396399999997 16.9878670499999984  0.2380006700000000
 12.5416927699999992 19.0430216399999992  2.2543991600000002
 12.3610680300000002  0.2311153600000000  4.3202848500000002
 12.6156731700000009  2.3573306900000000  6.2114431699999999
 14.6717599300000003  4.4067035900000002 10.5183338400000004
 14.5442537299999994  6.2704437300000002 12.7165120700000003
 14.4851621999999995  8.3269367899999995 15.1208068400000002
 14.5458833300000006 10.6425432200000003 17.0968146999999995
 14.6093445699999993 12.7894153500000005 19.1099507899999992
 14.3655572199999995 14.9532047800000001  0.0893349900000000
 14.6181934299999998 16.9113125400000008  2.0357492499999998
 14.4473998600000009 19.3569890399999984  4.0820998800000003
 14.6558737099999998  0.0035245400000000  6.4238680600000002
 14.6493935200000003  2.4430725600000001  8.3120398200000007
 16.8102202399999996  4.0675800899999999 12.8427466500000005
 16.5311732800000009  6.3421192099999999 14.8906128899999999
 16.4646392699999993  8.5603824700000004 16.9455364599999996
 16.7246922100000006 10.3977050799999997 18.9696808600000004
 16.5646224900000014 12.6220970500000007 -0.0631876500000000
 16.8185682400000012 14.8041721099999997  1.9510483700000001
 16.6732693500000018 16.8238671599999989  4.3001547599999999
 16.8818658799999994 18.9443190900000005  6.1006448500000001
 16.7766723700000000  0.0665826600000000  8.6845687199999997
 16.8929613900000000  2.1550153399999998 10.5391662499999992
 18.7859658699999983  4.2222220200000002 14.6322297999999993
 18.7989236800000015  6.5439753999999999 17.0490530199999988
 18.9228429600000005  8.6753296199999994 18.8772541700000005
 19.1488158800000008 10.6580343000000006 -0.1280265100000000
 19.0249055700000014 12.3728703000000007  1.9742819300000001
 18.9824953500000007 14.7676358499999996  3.9909891499999999
 19.0386046700000016 16.6917845999999983  6.3021466999999998
 19.0000732899999996 19.0442845299999988  8.3073214800000006
 19.0928022300000002 -0.0296083300000000 10.4179359500000004
 19.0999067499999988  2.0960549400000001 12.4842546900000002
 -0.0335603500000000  4.2263160400000004 16.7237422400000000
 -0.0184908000000000  6.2718513199999997 19.0332734300000013
  0.0335183000000000  8.7602443599999997 -0.1822906500000000
  0.2302681800000000 10.5359762000000003  2.0018635900000001
  0.2686188200000000 12.4609884599999994  4.1679444200000004
  0.2583707000000000 14.4998631699999994  6.2632499299999997
  0.0476295500000000 16.6293000699999993  8.4046790700000003
  0.0208117900000000 19.0774049400000010 10.1754092000000007
  0.2227027800000000 -0.2470729000000000 12.5230212999999999
 -0.1263363400000000  1.9058221099999999 14.7365004400000004
  2.4044193699999998  4.3581378199999996 18.9358264799999993
  2.2082255300000000  6.7295313999999999 21.0926101800000012
  2.1456699200000000  8.7780245099999998  2.1960912600000002
  1.9009116800000001 10.6472691699999995  4.4519445800000002
  2.0187876000000000 12.4762944999999998  6.5321523700000004
  2.0110870099999998 14.8577576199999992  8.7011360599999996
  2.1680663999999998 16.7201045199999996 10.3503175800000005
  2.1090478500000001 18.7260273400000017 12.5574803399999997
  2.1060135500000001  0.0144111200000000 14.8064218800000003
  2.1138377300000002  2.4196963100000000 16.7039214099999995
  6.2854773799999997  6.5713369300000002 -0.2802022200000000
  6.2745229599999996  8.8026101499999996  2.0795943100000001
  6.4774289100000004 10.6910795099999998  4.8074769499999999
  6.1197298099999999 12.7730074899999995  6.2718406599999996
  6.2851330000000001 14.7551912499999993  8.2788584099999998
  6.3331953700000003 16.6220302099999984 10.5768205500000008
  6.2364507400000004 18.5512191599999987 12.5577913399999996
  6.1350414500000001 -0.1096626900000000 14.8085561600000002
  6.0611570199999996  1.8010435199999999 16.9329119599999984
  6.2343946600000004  4.2636789500000001 18.8068821700000015
  8.2429647799999994  6.5639760100000002  2.2444824400000001
  8.5180404799999998  8.4194498099999997  4.4068810200000001
  8.5728850600000008 10.9104284400000004  6.3421415699999999
  8.6240308799999994 12.6609638100000002  8.4667557099999993
  8.5505859500000003 14.5056540399999996 10.4336733200000005
  8.4831956700000006 16.5088945400000000 12.5118767099999992
  8.5271347800000008 19.0243720399999994 14.8108926299999997
  8.4674015499999999 -0.0532197000000000 16.9277829599999983
  8.3306555099999997  2.2460048499999998 18.8999524500000007
  8.2016513500000006  4.0769762700000003 21.1643646399999987
 10.2793962200000006  5.9961699299999998  4.1124196599999996
 10.6980575600000005  8.3828021800000005  6.0848070800000000
 10.7329628499999998 10.4062420400000004  8.3397143299999996
 10.8004543000000002 12.4164203400000002 10.4913215700000002
 10.7413615000000000 14.5506812100000005 12.5040442100000000
 10.5458214800000007 16.3697969299999997 14.4631808100000008
 10.3319263600000006 18.7129012999999986 16.7177171700000002
 10.3542993699999997 -0.0717263200000000 18.6334023699999989
 10.3239755899999999  2.3565879199999999  0.0331789200000000
 10.4290462999999995  4.3474592500000000  2.3649479599999998
 12.8004605199999997  6.1163799900000004  6.1051541800000004
 12.7457826099999991  8.4896680999999994  8.3264036699999995
 12.7845314999999999 10.2391414899999997 10.4945221800000006
 13.1763492499999995 12.5279443900000000 12.3474629199999999
 12.4209131799999994 14.4138400699999991 14.5267072099999996
 12.8378217899999996 16.8168425200000016 16.5692369200000016
 12.4660982499999999 19.1955354800000002 18.7210106900000000
 12.3877488099999997  0.4373966400000000  0.0162895800000000
 12.4145453900000007  2.4978193900000001  2.1661322799999998
 12.7908650200000000  4.2945725200000000  4.0603110800000000
 14.5722061099999998  5.9118823599999999  8.2567563400000008
 14.4702615699999999  8.1449580099999999 10.2544315299999997
 14.9481566400000006 10.1052056500000003 12.3626000699999992
 14.6576751900000009 12.5148053099999998 14.7247622200000006
 14.6845458200000003 14.6355665899999998 16.7750198899999994
 14.3431942800000005 17.2145948799999999 19.1491058299999999
 14.3581137999999999 19.0587637399999998  0.0506346800000000
 14.5760073699999992  0.3146504200000000  1.8922825400000001
 14.8727391499999992  2.1351047900000002  4.1584291999999996
 15.0551745399999994  3.9755436600000000  6.0835230700000000
 16.6571353699999989  6.3512945800000002 10.6411488599999995
 16.5513972799999998  8.2861318900000001 12.6276464399999995
 16.5402929500000013 10.4788787400000007 14.8057233700000008
 16.7204599599999995 12.3245563100000002 16.8460414800000002
 16.4784101300000003 15.1425281500000004 19.0722884000000015
 16.7607616600000000 16.9051253800000012 -0.1320594300000000
 16.7310372600000008 18.8860832800000011  2.2064200000000000
 16.7442365600000009  0.1428805400000000  3.9261653200000000
 17.1891795999999992  2.1494458800000000  6.2456895599999998
 16.9243558900000011  4.4602068700000004  8.2803551700000000
 18.8781265100000013  6.3421635299999997 12.9323794400000001
 18.7689408299999982  8.2649775299999995 14.9279323099999992
 18.9732133900000015 10.4867969300000006 16.5545698600000009
 18.4975892299999991 12.8796060600000004 18.9052909500000013
 18.7223250000000014 15.0458764299999999 -0.1015396600000000
 18.8541575100000003 16.9830280900000012  2.2065670000000002
 19.0556650999999988 18.7897099700000005  4.1040165699999998
 18.9199509900000002 -0.1253531100000000  6.2196738299999996
 18.9150077900000007  2.2674609299999999  8.2551971200000001
 19.0542869099999983  4.3671919299999997 10.6865381399999997
 -0.0751191200000000  6.2492747700000004 14.5957524200000002
  0.2701991200000000  8.1844229700000000 16.7833632500000007
 -0.1948092200000000 10.4875745400000007 18.8090307800000005
 -0.0428994300000000 12.9392343499999996 -0.2463500700000000
  0.1426951000000000 14.5379302300000006  2.0809768599999998
  0.2771451600000000 16.8004068900000014  4.0946672099999999
  0.3069086000000000 18.8978487299999998  6.4516003000000000
  0.1069560400000000  0.1983358500000000  8.1234851100000007
 -0.1991271200000000  2.0468640100000002 10.3250334400000003
 -0.3146495600000000  4.0419432999999998 12.6210930599999998
  2.0176931300000001  5.9140782099999996 16.5353800699999987
  2.0914588900000002  8.2483339900000008 18.5264733700000015
  2.3307718500000001 10.4938815900000009 -0.2389743200000000
  2.0402098000000000 12.7198499799999993  1.8907247800000000
  2.4611600299999998 14.4351077599999993  4.0743961500000001
  2.0708708100000002 16.6216263799999986  6.3650232800000000
  1.9905704700000000 18.6367294299999990  8.2677385599999997
  2.1879731499999999 -0.1644719100000000 10.3720825899999998
  1.9584998100000000  1.8141504200000000 12.4688706299999996
  2.1053093100000000  3.9304179499999998 14.4037537699999998
  4.2429124299999996  6.3533891499999999 18.5641336300000006
  4.2587600999999999  8.6712930900000007 20.6986871100000016
  3.9708773300000000 10.3380146499999999  2.1496963000000000
  4.1944572300000003 12.6111462499999991  4.0660881699999996
  4.0721548099999998 14.7704413599999995  6.2829351500000001
  4.4362082899999997 16.9745277200000011  8.4204318300000001
  4.2486481899999999 18.8029521799999984 10.3279849200000005
  4.3388195500000002 -0.2234205000000000 12.6497037900000002
  4.1938554400000001  1.7770877300000001 14.6028622600000002
  4.3383230399999997  3.8691013800000000 16.2186656700000000
  8.2230908100000004  8.3249105900000000 -0.2478468700000000
  8.5553951999999995 10.5072024200000005  1.9909775500000000
  8.6820365899999992 12.7625852599999998  4.3531208299999999
  8.1164410799999995 14.9417556299999994  6.2559554200000003
  8.3858357800000007 16.7196197300000016  8.4821759700000001
  8.6372751799999996 18.5494863599999995 10.5253223400000007
  8.2567448900000002 -0.0642129100000000 12.2584120199999997
  8.7055728699999992  2.1499744900000000 14.7090896200000003
  8.1974791099999997  4.2437860499999998 16.5168851900000000
  8.4776139100000005  6.2523384599999998 18.8187452200000003
 10.4048942400000008  8.2418326299999993  2.0915746199999998
 10.8841411400000005 10.7029085700000000  3.9473652800000001
 10.4156461500000006 12.6323761599999997  6.4918376699999998
 10.8143404600000004 14.6402015900000002  8.4082641000000002
 10.7235574800000002 16.6853499599999999 10.4176808800000007
 10.6105677699999994 18.5798014999999985 12.3513918599999997
 10.5456637200000003  0.0271274500000000 14.4042712200000000
 10.4706141899999992  2.2224534999999999 16.7867178199999998
 10.4952731900000007  4.3088198899999997 18.7928861699999992
 10.1678882700000006  5.7722640600000004 21.0836882299999999
 12.6692172599999999  8.3866773999999999  4.2243361600000000
 12.6533557499999993 10.3765682899999998  6.2625166300000004
 13.2447420000000005 12.4064948600000005  8.5165119300000001
 13.0171804000000009 14.2872055299999996 10.4457063199999993
 12.7320028599999997 16.4824335899999994 12.5804662300000007
 12.4566469299999998 18.8418961600000010 14.4929214700000006
 12.3574246900000002  0.0777527600000000 16.5918588800000002
 12.0510593700000008  2.1795787500000001 18.8112965299999999
 12.5845019600000008  4.2081882200000003  0.0174397300000000
 12.6778854499999998  6.3235493099999998  2.2901493999999998
 14.7566763699999992  8.5264730499999999  6.1095079800000001
 15.1465466200000005 10.4604037600000002  8.3500148599999999
 15.1487364899999992 12.3339827399999997 10.4128829199999995
 15.1092297400000000 14.7633837999999997 12.3226857600000006
 15.0506150000000005 16.8399855500000015 14.6693239799999997
 14.5958108099999997 19.0203947900000010 16.5250870300000017
 14.4407829099999994  0.2538538400000000 18.8325023300000005
 14.2252678800000005  2.4963549999999999 -0.0226095100000000
 14.6046370499999991  4.2528573400000003  2.1650214600000002
 14.9451273300000000  6.1539457600000000  4.4017906499999997
 16.8417767500000011  8.1736808399999994  8.4184036300000002
 17.0595688400000007 10.1580248700000002 10.4031565700000002
 16.8373753700000002 12.5800637799999997 12.6230553499999996
 16.6703706300000007 14.5173875900000002 14.5987684099999999
 16.4605843800000002 17.0794677099999994 16.7521117900000007
 16.7757661800000015 19.2497313699999992 18.6255115199999999
 16.5162243599999989  0.0000930600000000 -0.0774797900000000
 16.7171683400000006  2.2602501600000000  1.7619406799999999
 16.9091756599999989  3.9730234300000000  4.0131917200000000
 16.9806810199999987  6.5818306499999997  6.3101579699999997
 18.8172963799999984  8.4187443000000002 10.9717429899999992
 18.7838755800000001 10.5316169199999994 12.9549032700000009
 18.8266930099999996 12.6656094400000008 14.7850716400000000
 18.4797040999999993 14.8387900599999991 16.8342095799999996
 18.9879023099999991 16.9347926700000002 18.8380316800000003
 19.0086584599999995 19.1471520499999990  0.1578666400000000
 18.9869180700000015  0.0281894200000000  2.1483738400000001
 18.9456410999999996  2.2285514100000001  4.0160626900000000
 18.8715151200000015  4.2633141500000002  6.0964037400000004
 19.1696731500000013  6.4883362499999997  8.4735516600000000
 -0.0316212800000000  8.5840032500000003 12.8419536000000001
  0.0286348000000000 10.1616775199999996 14.7034835400000006
 -0.2518564000000000 12.4882612200000001 16.6164810699999990
 -0.2064413000000000 15.0072218500000005 18.6234958599999985
  0.2088252400000000 16.7658429099999999  0.0447565500000000
  0.1658306000000000 18.9296863000000002  2.3014383000000000
  0.0108042900000000  0.0408971500000000  4.1839687500000000
 -0.0854735700000000  1.9788901200000000  6.0155137099999996
 -0.0313933600000000  4.1802519199999999  8.2847747300000005
  0.1036807300000000  6.2556614399999999 10.5317043800000008
  2.1131303799999999  8.1854126899999997 14.9471902199999995
  1.9894435399999999 10.7108699499999993 16.6925568700000007
  2.0028910299999998 12.6138403500000003 18.9729042399999983
  2.2028960000000000 14.6434181700000003 -0.2498561400000000
  2.1008273000000002 16.8441618899999987  1.8349843200000000
  2.3287304000000000 18.8919018100000002  4.5974257800000000
  2.1458509800000001  0.1592480400000000  6.5139894900000002
  1.8299506200000000  2.0866951100000000  8.4644169300000005
  1.9860067200000000  4.4356189500000003 10.9786668600000006
  2.1811745899999999  6.5306842600000001 12.4979241099999996
  4.1090973100000001  8.4141534399999998 16.5846219499999989
  4.3187168399999996 10.4678320599999992 18.3548672099999983
  4.4109329600000002 12.5099479299999992 -0.1222322000000000
  4.2258991799999999 14.6733644699999992  1.9785107099999999
  4.0571142699999996 16.9236151300000017  4.2539245699999997
  4.1885924000000001 19.0689288800000014  6.3916167499999998
  4.2459162099999999  0.1045890200000000  8.6271945999999993