Li                                      
   1.00000000000000     
    22.0829999999999984   -0.0000000000000006    0.0000000000000000
    -0.0000000000000006   22.0829999999999984    0.0000000000000000
     0.0000000000000006    0.0000000000000006   22.0829999999999984
   Li
   500
Direct
  0.9889282026898485  0.9910172712040932  0.0210169786713763
  0.9844195874654744  0.0837065394194596  0.1067954784223133
  0.9836450853597825  0.1990207168410123  0.2142465507403912
  0.9888862242448937  0.3031073432051841  0.2969568287823208
  0.0053151442285895  0.3977255463478713  0.4003071009373755
  0.9917455603858158  0.4625246225603377  0.4968019689353795
  0.9932323207897511  0.5310166508173708  0.5833341348548657
  0.0206610501290569  0.6776501123035814  0.6294512081691792
  0.0250521555042340  0.7884293542544043  0.7759294018022942
  0.0150193538015699  0.9056930806502734  0.8875708196350161
  0.0943721595797697  0.9981513041706265  0.0938965054566836
  0.0839313136802033  0.0931813838699469  0.2098180464610806
  0.1043399954716264  0.2245446977312895  0.3075966385907734
  0.0982718041027013  0.2891717805551792  0.4126728098537313
  0.1216237173391264  0.3744593211972997  0.5327897409772220
  0.1247598138839834  0.4833984431463136  0.5956876896255068
  0.1011123737716773  0.5589400058868819  0.6937615677217792
  0.0992317819136872  0.6714938047366772  0.7756679980075205
  0.1067306557080130  0.7746101657383520  0.9082633215595735
  0.1042024149798522  0.8824067096861867  0.0083830928768762
  0.1835182045011976  0.9945341366662106  0.2150954277045685
  0.2157734039759092  0.1022541362133751  0.2877793619526301
  0.2177944636145455  0.1932737580944632  0.3828911678666813
  0.2184188724358123  0.3067645238418706  0.5163051772856946
  0.2221650382647269  0.3714729429878219  0.6184427541547777
  0.2149966408549560  0.4945402952497417  0.7079888579450255
  0.2000182203504934  0.6055250876239668  0.7831644255762384
  0.2051361268849377  0.6752466689308534  0.9102330946882233
  0.1839514010777492  0.7913069361046965  0.9992563120952767
  0.2075478915908135  0.8936247185617887  0.1123480881220829
  0.3145577412489260  0.0059927854005366  0.3237114948150150
  0.3081633202010607  0.1148553212878696  0.3824119612371533
  0.3095311067336866  0.1988493701037015  0.5052494611239382
  0.3134135765068180  0.2868004297423354  0.5891920368609362
  0.3120512416791215  0.3961892926685664  0.6908631227641138
  0.2930278707603122  0.4995022107503502  0.7954906688402872
  0.2982565280985341  0.6078841805914053  0.8931490526649455
  0.3031282511434128  0.6918655508762370  0.0163735864692285
  0.3097547742607460  0.8086239754562357  0.1155991989313065
  0.3132720672010123  0.9034228795906358  0.1989918779151409
  0.4170394941810471  0.0261810691482154  0.4272619485577138
  0.4164266847801485  0.1022726087940953  0.4986571584476778
  0.4055022333922054  0.2013779749128304  0.6044859674863048
  0.4007858891454958  0.3283734420142181  0.7137888506996362
  0.4209276986822417  0.4001397160711875  0.8199331100846834
  0.4283788094914627  0.5090557034823178  0.8936923062989663
  0.4054635746954673  0.6074435900919255  0.9955741959878637
  0.4013618570846376  0.6949983322012443  0.0987293008196346
  0.4161627971742945  0.8167672173164888  0.2186397572793553
  0.4009248571299224  0.8893828238916797  0.3143709899017324
  0.5090165933070665  0.0051537087352287  0.5139025766426641
  0.4939905266494620  0.0849897468641032  0.6323534791468575
  0.5133440986279041  0.1931020653896667  0.7150637943214235
  0.5178329475161902  0.2821611397907873  0.8280167803287597
  0.5095514445501053  0.4057324724901505  0.9082963487750746
  0.4938133799755491  0.5096371747498054  0.9884935339401366
  0.5104532495584806  0.6030467395734291  0.0949692532717492
  0.4862347778834391  0.7175102277770264  0.1928996350133616
  0.4977639170402597  0.8257585513743635  0.3284298795453537
  0.5271761830367225  0.9082755952542669  0.4204286288094892
  0.6101891704025704  0.9988843295747856  0.6114828746094290
  0.6265394194629366  0.1075502590227799  0.6824800883032225
  0.6249808436353774  0.1827448408277874  0.8209664574559596
  0.6119867527057039  0.3101632251052848  0.9441613589639104
  0.5961433378617045  0.4033672933931101  0.0050822324865294
  0.5831193411221278  0.4958212190372677  0.0747628977041188
  0.5874654471765623  0.6212300760766212  0.2067176583797519
  0.6142766376850943  0.7348337408866570  0.3115164076438859
  0.5745896232395964  0.7835332201240774  0.4199843436127324
  0.6086114210025784  0.8782035203550222  0.5175827138522848
  0.7058679092514595  0.9905490200606835  0.7018176615496117
  0.7205657600869415  0.1022758366163998  0.7874232269166299
  0.7108595132001980  0.2057028374767924  0.9177865317212337
  0.7470732033691050  0.2986008852963806  0.0070509419010065
  0.7047349938867029  0.4033468269709743  0.0992158040121396
  0.6940622755060488  0.5166240243626348  0.2049896952406840
  0.6911844794638426  0.6242613467373062  0.2984405714803273
  0.7013212652266461  0.7086494765203994  0.4115786704704973
  0.7107662088484332  0.7948186736403571  0.4910266259113314
  0.6956193279898599  0.9017560259022801  0.6011067105918571
  0.7975094063306614  0.0117985319023717  0.8214743064800984
  0.8023176425304541  0.0859546243716878  0.9110744685957499
  0.8094290594575000  0.1742411819046339  0.0077282067653854
  0.8081808622016950  0.3045224099986399  0.0899418095367466
  0.8005867522528618  0.4147328483448831  0.2085908771453120
  0.8022020839559829  0.5037226386813387  0.2984689607390294
  0.8151316505909492  0.5923351419644050  0.3872214531540124
  0.8155603600054349  0.7095038346239164  0.4735224711316377
  0.8086157750305674  0.8010526830593676  0.5961580066114180
  0.8211831517456858  0.9073977285694852  0.7031746995426360
  0.9152444138024691  0.0090070538423248  0.9121999316216076
  0.9156552923062975  0.0607977797400707  0.0045601535117541
  0.9096399968301441  0.1984254507992560  0.0972292419508207
  0.8950531055563076  0.3126742023275852  0.1900126753611389
  0.8793046193904814  0.4143176837386235  0.2958884639768158
  0.9028626101526029  0.4870764506634089  0.4036812262826643
  0.8810029669881843  0.5768885536385469  0.4916788928134750
  0.8937361680931062  0.6889008431825374  0.5983707729928014
  0.9286416306661209  0.8158806480097809  0.6998159131458621
  0.9364813086990011  0.9080159036362829  0.8044372322601063
  0.0933743639903994  0.0884394706335172  0.0227814957206931
  0.0800199483765809  0.1842684291083643  0.1004573250916962
  0.0888463985871510  0.2927722582982355  0.1836137273015410
  0.1131963714169260  0.4064405338948518  0.2944535461667357
  0.1102708708055999  0.4920086559797099  0.3917099932074422
  0.0848832943893498  0.5813691224018456  0.4798850554725362
  0.0940132857854437  0.6815132146900353  0.5539783439750039
  0.0841101032468430  0.7875545922202605  0.6931987791513805
  0.1288662799438498  0.8864568559525452  0.8135766281755181
  0.1019436833763550  0.9880111397907925  0.9240960888466248
  0.1739521410134515  0.0877696766743625  0.1132040134945456
  0.1868856572929403  0.2100518797264854  0.2096459896753160
  0.1937932703889871  0.3175302486075253  0.2850085323552065
  0.2080095788615708  0.4029311416021386  0.4180194421047858
  0.1905343694244408  0.4758013779830605  0.4985501974369413
  0.1995625426798924  0.5979455486120528  0.5864108418240264
  0.1708739048136607  0.6792992170447860  0.6941276149073943
  0.2045693764434162  0.7942486451116224  0.7857226961916410
  0.1797648349409044  0.9129710080152122  0.9091170493139487
  0.2083201729837398  0.9943561259792588  0.0155312190372712
  0.2905886192999105  0.1143463505864233  0.2067828180047968
  0.3048695018792742  0.2197086356020463  0.2827074233573370
  0.2965091681383853  0.3219225159625054  0.3852895186342451
  0.3041934954489847  0.4101895648236180  0.5208192831589926
  0.2779336607345044  0.5010262994158410  0.6326549218856101
  0.2901898116197970  0.5979485332608760  0.6866286301680020
  0.2845292976497760  0.7000683217859915  0.7713953434768825
  0.2509845976543019  0.7815356523117316  0.9008779169496890
  0.2717764071910551  0.8955871665987445  0.0165984612597896
  0.3093906923878080  0.0174576185300879  0.1160093415749657
  0.4386941597608995  0.1098666444776555  0.2974328098537313
  0.3846069972376966  0.1947083136349193  0.3824782054068763
  0.3869335276004193  0.3025055884617132  0.4920703387220939
  0.3885787950006758  0.3799929574786063  0.5975430054793307
  0.3837716483267641  0.4997838636054865  0.6863147167504451
  0.3998733863152637  0.6078937594529705  0.7828444821808631
  0.3861350763030416  0.6992152280034389  0.8843887062446214
  0.3864579889507738  0.8141482099352473  0.9626695693519878
  0.3842516247792389  0.9111397545623348  0.0804553403070258
  0.3852718412353369  0.9958452062672620  0.1974101861160165
  0.4986558302766824  0.0977322759588830  0.3913405805370616
  0.4745081628401948  0.2186616872707532  0.5115098641488913
  0.4858772766381350  0.2966834832223881  0.6050771792781759
  0.5212402662681725  0.4143022361092221  0.7058402753249098
  0.5220582085767305  0.5243278540053424  0.7910415731558231
  0.4929545437667002  0.5962457093691995  0.8859097581850293
  0.4762242643662518  0.6967415604763829  0.9889638776434353
  0.4525336498664103  0.8150448032423157  0.0889998510166166
  0.5018909124666067  0.8921737073767133  0.2128878558166889
  0.4882587714531539  0.9842001363039472  0.2971526223792083
  0.5929702472490135  0.1069846030883497  0.5080929697052028
  0.5968731761988835  0.1820215351175136  0.6031982185391485
  0.5891005465742865  0.3138060530724971  0.7010927641171918
  0.6157722478829868  0.4196202028709877  0.8055277398904153
  0.6123266105148772  0.5095551600778876  0.9105640044378021
  0.6053602232486526  0.6225449771317315  0.9810493664810025
  0.5736189371915046  0.7108746963727768  0.0854247339582486
  0.5883230761219025  0.7949182810306539  0.1930841131186867
  0.5808378761943587  0.8802049730561947  0.3220314001720794
  0.5787085296381846  0.0107484866186667  0.3882536942444403
  0.7167790590046650  0.1095594366707431  0.6021334085042795
  0.7034834682787690  0.1954396771272044  0.6888710206946556
  0.6980051519268216  0.2787679060816046  0.8074644106326119
  0.7218391364397974  0.3997538654168338  0.8987730276683408
  0.6940573169406363  0.5077379961961697  0.0092565887786975
  0.6805653611375249  0.6366542779513651  0.1162731974822293
  0.6705714214554206  0.7285966951953995  0.2048591042883672
  0.6925270719558014  0.8087231789159119  0.3225073767151230
  0.6870369007834114  0.8903919770864448  0.4094747928270621
  0.7136487121315014  0.0177600516234193  0.4836086532626922
  0.8151599175836637  0.1174464416066670  0.7062491699497357
  0.8101749001494341  0.2107208671829000  0.8281668351220404
  0.8070215822125633  0.3258368106688394  0.9040653824208675
  0.7980721627496266  0.4092549386405864  0.0134742820268983
  0.7906765883258586  0.5121348209029577  0.1074344355386501
  0.7768344011230326  0.6289157451433240  0.1944129470633484
  0.7834534089571150  0.6938829063080192  0.3060861431870663
  0.8039428791378000  0.8047445981071419  0.4106325793596852
  0.8200086102431712  0.8866408766924820  0.5146263546619565
  0.7862022628266061  0.0233883652583415  0.6225647724493939
  0.9010326672100746  0.0895386269981415  0.8200836159036342
  0.8949824303763094  0.2001595068604800  0.9001685477516617
  0.8887197432414098  0.3149742240637607  0.0085897427885726
  0.9045577869854640  0.4145880849522285  0.1033962097541092
  0.8991428958927656  0.4933675134719024  0.1976867939138671
  0.9151919132364270  0.5787828922700697  0.2808572847892066
  0.9087094629352919  0.6985033211067346  0.3737811932255610
  0.9344463555676299  0.7965367830457808  0.4925262527736294
  0.9096294869356498  0.9333175139247416  0.6169262079427611
  0.8960162541321353  0.0141186840556102  0.7291418856133660
  0.0022153221935426  0.0999093633111414  0.9183813517185158
  0.9823050790200583  0.1909418253860409  0.0138972499207526
  0.9778543685187699  0.3163519553502709  0.0954533202010595
  0.0084965960240879  0.4196841316850097  0.1998534569578396
  0.0013817280260824  0.5148132092559905  0.2862251904179658
  0.9806826459267342  0.5999253208350339  0.3869712910383569
  0.9979588054159336  0.6594960643934229  0.5193755970656184
  0.9876736996784885  0.7927343712357953  0.5928746289000557
  0.0222357215957985  0.8996425517366333  0.6893636077525684
  0.0208761884707727  0.9897636675270576  0.7929584087306978
  0.1917464144364445  0.1936154720825982  0.0050936018656884
  0.1880887039804406  0.2907637426980045  0.1056130226871375
  0.1837527093239117  0.3998643821038783  0.1847089109269575
  0.2205130974052452  0.4991194031608046  0.2860245972014681
  0.2046008717112713  0.5647119318027478  0.4050283779377821
  0.2038684544672407  0.7005245197663328  0.4949261232622391
  0.2001421206357819  0.7718734619390517  0.6060734370330110
  0.2016764814563246  0.8995244269347467  0.6950424978490233
  0.1947701286057182  0.9730991993841442  0.8038332925779983
  0.1866031245754627  0.0901180677444202  0.9088564511162431
  0.3004667472716562  0.2016647611284696  0.1109917411583581
  0.2753126948331328  0.3012127482679006  0.1963777964950424
  0.2948350509441653  0.3990697418828972  0.2721836095639176
  0.3024517117239540  0.5231934329574770  0.3891993886700149
  0.3093606742743304  0.5903029207988055  0.5162677235882782
  0.2881117746682946  0.7242174247158459  0.5820587134900137
  0.2837673703754007  0.7756896508626525  0.7050272594303308
  0.3057692419508200  0.8836204469501396  0.8132717212335265
  0.3090886310736778  0.9812566150432431  0.9098336793008173
  0.2906439328895516  0.1001271978444933  0.0123923226010945
  0.4046958130688765  0.2134126934746163  0.2013033822397290
  0.4094324697731295  0.3296817923289410  0.3130129140062508
  0.4000382765022863  0.4256932952950265  0.4176047099578852
  0.3675376656251430  0.5042448929040404  0.4992466313453789
  0.3974030326495495  0.5975262405470261  0.6076374373952831
  0.3924401430965005  0.6991346492777240  0.6892209260517177
  0.4033922189014163  0.7869928297785620  0.7959715813068868
  0.3884915500611328  0.8843053606846922  0.9076867880269859
  0.3979305357062017  0.0182025340759893  0.9670264696825583
  0.3941266766290781  0.0770657872571689  0.0974094439161348
  0.5008645754652932  0.2274961110356415  0.2958377634379374
  0.4977062917176127  0.3001162151881545  0.4079825847937357
  0.4950342299506403  0.3905812874156567  0.5135385445818059
  0.4823951243037641  0.5010762183580155  0.5945102440791530
  0.5374413308880150  0.6170771752026454  0.7031505366118722
  0.5013954227233626  0.6948868672734676  0.7983849966037226
  0.5162989358329924  0.7897207589548501  0.9031202001539640
  0.4939336625458495  0.8962269981433693  0.0013788833039001
  0.5099542521396572  0.0031958800887537  0.1060255920844071
  0.4948127559661302  0.1193827364941384  0.1947958791830828
  0.6049973241860229  0.1891995852012869  0.3851507028030596
  0.5940352166825136  0.3037875297740342  0.5147325467554253
  0.5996910990354607  0.4041549544898757  0.6047280949146412
  0.6154049680749907  0.5276510039396811  0.6868153031743844
  0.6370325458497490  0.6471422854684619  0.8280420273513585
  0.6001538473033534  0.7094642086672991  0.8918754956301242
  0.6076364003984978  0.7862745582574817  0.0051132314450015
  0.5954115129285000  0.8941870656160873  0.0956521242584785
  0.5886778594393860  0.9953546212018267  0.2087243467825957
  0.5698508748811335  0.1074350011320959  0.2553435194493474
  0.7081899778109886  0.1956478313634946  0.4955296576552115
  0.6878266942897255  0.2838484771090890  0.5910467223656184
  0.6886432418602553  0.4048212937553757  0.7143018579903071
  0.7128692872345255  0.5122059525426792  0.7969936435266973
  0.7275761613005471  0.6204678603450589  0.8878688026989110
  0.7048101104922324  0.7010070293891246  0.9739753552506443
  0.7159102667210107  0.7985994104061973  0.0881371752026467
  0.6988011855273299  0.8863414454557841  0.1973053525336255
  0.6833281646515417  0.9832855907258988  0.3043263279445725
  0.6792385554498921  0.1041667250826421  0.3669983548430906
  0.7913454553276296  0.1799307752569845  0.5939297903364604
  0.7905735298646022  0.2889564420595008  0.7103813376805661
  0.8022423180727287  0.3970279124213221  0.7675269401802325
  0.7921750826427569  0.5244458166915749  0.8865815269664452
  0.7938701879273680  0.6187212738305519  0.0081488987003553
  0.8065502880043454  0.7088992251958501  0.0928769465199508
  0.8092163913417565  0.8039139949282230  0.1994505841597629
  0.8110796264094589  0.8870191522890920  0.3259179518181412
  0.8231680066114180  0.9900425087171101  0.3922217506679360
  0.8096968423674298  0.0817950609065790  0.4586675646424823
  0.8812029112892290  0.1959571226735477  0.7076412059049915
  0.8855926477380791  0.3145622311280150  0.8181777344563699
  0.8836970955033294  0.4172138731150667  0.9188353054385701
  0.8764681972558108  0.5044624507539766  0.9921193510845470
  0.8968961164696836  0.6131439994565966  0.1073516895349371
  0.8846571435040502  0.6915993895756927  0.2234446239188514
  0.9114969333876743  0.7906741588552251  0.3221383317484054
  0.9142392827061556  0.8825242199882268  0.4212239369650845
  0.8713377312865092  0.9788705963863578  0.5109740624009405
  0.9106766739120573  0.0691709957886175  0.6085636919802582
  0.9982483792962924  0.2004522850156221  0.7954358551827170
  0.9901550310193343  0.3006784263913431  0.9201516899877760
  0.9915634121269790  0.4298663021328650  0.9833188805868787
  0.0027996544853508  0.5335345564461349  0.0831527020785217
  0.0252088362088472  0.6269390014943639  0.1984578336276783
  0.0189213358692228  0.7099613671149783  0.2815353466467414
  0.0338387252637773  0.7848539016437996  0.4052386482814825
  0.0297546714667405  0.9395333487297890  0.5131962758683173
  0.0282817171579950  0.0068744568219898  0.5914623416202502
  0.9838046266358731  0.0876132346148637  0.7059594593125951
  0.0930276918896880  0.1961095086718316  0.9358603649866382
  0.0945145129737810  0.3241735814880258  0.0071205121586715
  0.0799474251686831  0.4097568722546754  0.0876964755694445
  0.1022450835484321  0.4976136942444427  0.1998149359235626
  0.1110625866050796  0.5910257501245297  0.3069656532174037
  0.0981023334691855  0.6879531888783248  0.3941880718199542
  0.1129008440882160  0.8009567844042920  0.4963232097088266
  0.1161833292578009  0.8934249350178902  0.5964562758683130
  0.1034987239052683  0.0092752990988529  0.7110744106326123
  0.1028078934021650  0.0987444504822719  0.8399643667074201
  0.3024830312910396  0.3031167866684754  0.0376352990988522
  0.2819054132137850  0.3939593782547632  0.0808453249105625
  0.2767829271385196  0.4953977928723461  0.1851530897070148
  0.3274876479644959  0.5870831354435566  0.2970457211429576
  0.3155134678259301  0.6577200058868797  0.4335188144726700
  0.2942436507720885  0.7905209640900210  0.5073767287053386
  0.2778719951999307  0.8801160345061803  0.6059231594439183
  0.2952209966942902  0.9837857410677913  0.7036880931032954
  0.2852294344065598  0.1027710197889746  0.7939968799529069
  0.2922121432776379  0.2139152135126565  0.8946127111352595
  0.3843041928180071  0.2916389340216483  0.1042719838790021
  0.3730890608160138  0.3848846529004177  0.1848212462074912
  0.3882649658108051  0.5005053883077508  0.2435440026264573
  0.4125387605850648  0.5758044790110048  0.3841532613322443
  0.4249854911017508  0.6742687818684061  0.4832715654575921
  0.3900221767875749  0.8018287768871986  0.5909402522302258
  0.4136924697731317  0.8987267124032030  0.6936503305710247
  0.4098625395100299  0.0120855205361607  0.8185093764434157
  0.3892649707920128  0.1145956880858563  0.8837967531585349
  0.3826788823982241  0.1706600851333633  0.9950778300049805
  0.5162616809310308  0.2963147172032805  0.2144249019607827
  0.4832774591314575  0.4033334261649202  0.2947671036543937
  0.4650641987048871  0.4747353484580898  0.3753572376941534
  0.4803571453154021  0.5889774256215219  0.4936704831771053
  0.4929758764660619  0.7283950255852929  0.6021720771634307
  0.5084015160983597  0.7942371607118588  0.6930607802381914
  0.5141459303536635  0.9016783996739548  0.7955350609065803
  0.5297117094597681  0.9864875397364514  0.8905255051396992
  0.5120128152877754  0.0780249277724963  0.9980731535570371
  0.5070340940995308  0.1904289602861908  0.0988740791559124
  0.6087839704750238  0.3132070230494080  0.2948207775211671
  0.5719130978580793  0.4092384829959670  0.3843745854277074
  0.5868352882307661  0.4922631005751015  0.4834809201648298
  0.5929754766109667  0.6079175673595074  0.5871225915862865
  0.5808831490286650  0.6849584363537531  0.6696095906353321
  0.6073328225331736  0.7831200787936439  0.7940710139020979
  0.6064368672734659  0.8834912964723998  0.8763715011547362
  0.6054145781823124  0.9817233645790893  0.0081935189965137
  0.6244326898519219  0.1025651021147524  0.1123623176198905
  0.5935831431417853  0.2091744984829944  0.1799671901462645
  0.7034714653806091  0.2926181252547195  0.4067550862654556
  0.6781764837205060  0.3842082733324261  0.4979462133768067
  0.7034587469999565  0.5102499904904221  0.5927795349363763
  0.7055249988679080  0.6016935742426313  0.7054059665806278
  0.7274360680161180  0.7290469705203080  0.7668781266132356
  0.7137923370918813  0.8103286061676371  0.8986318588959818
  0.6934564945885953  0.9010818833491854  0.0046599230177051
  0.6978473323370906  0.9766837218675022  0.1136667848571307
  0.6999225263777547  0.0822837345469338  0.2162876787574177
  0.6918154657428772  0.1965199039985492  0.2747016890821001
  0.7922593556129129  0.2925951437757561  0.5033872924874316
  0.7684435362043232  0.3838470198795463  0.6155112317167024
  0.7962739519087094  0.4825618851605284  0.6809303015894557
  0.8136357297468635  0.5915622207127669  0.7675473173934719
  0.7895817959516407  0.6968430811031112  0.8741094085948475
  0.8288096318434981  0.8079463270388985  0.9847457329167213
  0.7992230480460094  0.9026995784087291  0.0955589707014468
  0.8034133016347411  0.0033163994928245  0.2311097658832608
  0.8017011212244682  0.0801799913960934  0.3146145464837176
  0.7831867898383393  0.1769407607662004  0.3891845935787686
  0.8694873001856607  0.2927353905719343  0.5891429343839150
  0.9063088008875582  0.3968873210161661  0.6858892061766966
  0.8760837033011839  0.4962255852918531  0.7867507480867673
  0.9003142199882248  0.6124010523932455  0.8897368989720604
  0.9255739695693492  0.7273950400760754  0.9785452968346675
  0.8956996105601576  0.7975506407643920  0.1222817271204093
  0.9045208046913942  0.8894944808223499  0.2195394144817300
  0.9296099710184293  0.9888704397047476  0.2980928750622667
  0.9236276520400324  0.0831580749898109  0.4097120812389647
  0.8905040008151062  0.1989997061087720  0.4952238237558291
  0.9804144527464587  0.3046990925146034  0.6740402753249128
  0.9845338717565539  0.3842146365982870  0.7835987125843431
  0.9766895290494944  0.5093190051170566  0.8756644848978823
  0.0010500629443442  0.6129995480686503  0.9945955988769626
  0.9939298541864758  0.6893361916406278  0.0835370878050981
  0.0052028687225487  0.7927657225014713  0.1899438047366786
  0.0194661499796212  0.8851021192772706  0.3122973866775354
  0.9908046655798586  0.9799024013947388  0.4338087275279605
  0.0096070257664280  0.1247743689716074  0.4959709935244305
  0.9976474555087620  0.2099532613322452  0.5871263632658597
  0.0780061545079960  0.2803405053661194  0.7840109387311500
  0.0889746175791331  0.4030360308834844  0.8772795779558962
  0.0927471371643378  0.5016420495403722  0.0042082760494466
  0.1154377833627649  0.6240919585201254  0.1002904215912679
  0.1156514069646306  0.7277565711180571  0.2159885377892508
  0.1446259919394990  0.7958734601277015  0.3075641905538191
  0.1240049119232012  0.9084065181361254  0.4024227446452002
  0.1314529733278960  0.0068276162659089  0.5168644174251682
  0.1029481628401925  0.0938979789883589  0.5956941737988473
  0.0910470040302513  0.1797738817189725  0.7121867431961206
  0.1974482448036952  0.2891555866503666  0.9038704446859569
  0.1709855943485934  0.3964313213784365  0.9938550305665004
  0.1826099257347309  0.4917604727618539  0.0827915007018944
  0.2103297382601994  0.6076890843635354  0.1847028999683005
  0.2119527342299534  0.6617261314133032  0.2891078132500127
  0.2076817660643968  0.7654141615722523  0.4142384073721885
  0.2085842430829175  0.9077173721867524  0.4983413648507877
  0.2036134777883447  0.0004389770411635  0.6387279921206357
  0.2027374229044980  0.0900034863922485  0.7024069175383758
  0.1855884268441770  0.2037487909251467  0.8193077824570949
  0.4108616881764249  0.4138370624462269  0.0179192750079267
  0.3955055006113284  0.5192108078612492  0.0998824955848363
  0.4019911809989551  0.6221347407508020  0.1719252923062982
  0.4025413512656826  0.7032064434180114  0.3167534451840766
  0.4115348584884302  0.7921047262600212  0.4121909156364651
  0.3936959493728196  0.9029443504052921  0.5009980772539961
  0.3666281583118263  0.9904582149164511  0.6159915233437516
  0.3648136154507995  0.1088808200878475  0.7283538097178806
  0.3898249676221539  0.2316369243309353  0.8284771444097245
  0.3979773010913377  0.2817609803921570  0.9321795861069617
  0.4930076026807981  0.3919233926549808  0.0777726477380796
  0.5083503735905452  0.4970722225241104  0.1850902803061203
  0.5052807960874901  0.6004128641941762  0.2882971933161258
  0.5020735688085836  0.6987776724176982  0.4072971195036885
  0.4815769410859048  0.8236246298057353  0.4937599556219752
  0.5031491608929954  0.9172788810397137  0.5935851387945448
  0.4808508277860781  0.0181554100439243  0.7036341919123288
  0.5122443581035157  0.1353665991939508  0.7910385536385434
  0.5196861232622396  0.1914595530498602  0.9075499062627372
  0.5028036765837953  0.2884438559072606  0.0171791468550495
  0.6111069125571689  0.3967751116243292  0.1951864411538295
  0.5926390100982672  0.4882316284019410  0.2917310623556588
  0.5711616664402470  0.6196873527147559  0.3972014893809686
  0.5899817891590828  0.7216471969388252  0.5164696612779096
  0.5978519118779175  0.7920937775664569  0.5910561785083530
  0.5589763659828861  0.9233222388262448  0.6883765973826002
  0.6150996069374628  0.0041824643390811  0.7914324783770326
  0.6365413865869698  0.0910169451614351  0.9117227229090261
  0.6156882488792306  0.1953679880450991  0.0013437259430304
  0.6114105719331633  0.3077324281121250  0.1019210614499855
  0.6820368831227626  0.4045689870035787  0.2824112430376289
  0.6929941126658505  0.5204042186297144  0.3793636725082621
  0.6978190377213238  0.6084287162070368  0.4947983272200318
  0.6841993651224954  0.6971078422315813  0.6069640334193735
  0.6987717017615367  0.8191685694878430  0.6819803423447937
  0.6749275193587820  0.9088349445274631  0.7819635375628309
  0.6862078553638540  0.9981009803921594  0.9117131961237135
  0.7103586279038154  0.0688905393288977  0.0127446026355145
  0.6963661128469880  0.2001851329076700  0.1097008839378688
  0.7174630091020262  0.3027477480414831  0.2028059629579317
  0.7778890993071599  0.4088323176198898  0.3959231404247632
  0.7942586369605564  0.4985229402707958  0.4748724226780752
  0.7815932916723298  0.6167428202689820  0.5841085110718680
  0.8054705597065634  0.7080629131005765  0.6881893506317098
  0.8120853579676677  0.8413684286555281  0.8039403912511887
  0.7798762957931444  0.9281370253135890  0.8788809745052788
  0.8096916773083365  0.9926106412172260  0.0040457886156773
  0.8092009052212106  0.0921586446587881  0.1306574831318201
  0.7965004618937641  0.1946690128152895  0.2161128361182776
  0.8031946008241633  0.3109418742924390  0.3186074600371356
  0.8673043322918090  0.3995882760494496  0.5153311406964605
  0.8756510220531624  0.5207000982656353  0.6010067382149131
  0.8904211121677292  0.5922484032966508  0.6775100054340442
  0.9321015804012163  0.7032237662455287  0.7763420608612961
  0.8961110723180710  0.8195041294208210  0.8812218294615803
  0.9055849707920132  0.8892953570619966  0.9940777321921814
  0.8801440293438390  0.9836613005479293  0.1069178037404370
  0.9103464221346727  0.1023907988045138  0.1995181900104157
  0.8956468672734701  0.1954869501426444  0.2959868740660241
  0.8868249291310093  0.3080735439025517  0.4226578191368944
  0.9870270185210330  0.4292839401349440  0.6049397699587900
  0.9874372336186212  0.4862498944889708  0.7099307421998802
  0.9967716668930819  0.5978894389349279  0.7892485817144390
  0.0110590979486460  0.7056222247882999  0.8993422012407706
  0.0141187510754861  0.8166870619933917  0.9880260598650565
  0.0091278277407980  0.8968859634107673  0.1028261739799845
  0.0061070321061436  0.9715885513743601  0.1901611216773063
  0.9980610981297815  0.0875468459901256  0.2913787904723080
  0.0145499144138057  0.2128880220078813  0.3949515722501502
  0.9796646864103593  0.2990036403568368  0.5271351202282304
  0.0870487225467542  0.4046903197029366  0.6894886944708603
  0.0749299044513876  0.5162863456052165  0.7667535303174375
  0.1249954304215919  0.5972668844812787  0.8804726196621857
  0.1039910609971457  0.6954921392021021  0.9867720359552621
  0.1157351061902787  0.7911288153783431  0.1021646723724103
  0.1234074459991845  0.8718030340080603  0.1947539854186502
  0.0992997916949676  0.0109787153013627  0.2942993519902188
  0.0803858397862598  0.1102084463161717  0.4004852248335808
  0.0862336557532970  0.2035443137254873  0.4985459561653727
  0.0918169691617976  0.2867195535026923  0.6262713471901478
  0.1933117850835515  0.3870369419915747  0.8000085382420892
  0.1914926346058081  0.5104229008739765  0.8962380980845026
  0.1882221672779991  0.6139989258705825  0.0105055350269438
  0.2200566481003463  0.7090037612643201  0.1253349313951944
  0.2387713499071680  0.8096890119096116  0.2238606371416907
  0.2207647796947896  0.8917896830140819  0.3110127129466136
  0.2112822718833485  0.0326341312321716  0.3943612933025378