Li 
 1.0000000000000000
    22.0829999999999984   -0.0000000000000006    0.0000000000000000
    -0.0000000000000006   22.0829999999999984    0.0000000000000000
     0.0000000000000006    0.0000000000000006   22.0829999999999984
 Li 
 500
Cartesian
 -0.2444985000000000 -0.1983656000000000  0.4641179400000000
 -0.3440622500000000  1.8484915099999999  2.3583645500000001
 -0.3611655800000000  4.3949744900000001  4.7312065800000003
 -0.2454255100000000  6.6935194600000001  6.5576976499999997
  0.1173743300000000  8.7829732400000005  8.8399817100000000
 -0.1822827900000000 10.2139312400000009 10.9708778799999997
 -0.1494506600000000 11.7264406999999995 12.8817676999999993
  0.4562579700000000 14.9645474299999997 13.9001710299999992
  0.5532267500000000 17.4108854300000004 17.1348489800000010
  0.3316723900000000 20.0004202999999983 19.6002264100000012
  2.0840204000000000 -0.0408247500000000  2.0735165300000000
  1.8534552000000000  2.0577245000000000  4.6334119200000004
  2.3041401200000000  4.9586205600000000  6.7926565700000001
  2.1701362500000001  6.3857804299999996  9.1130536600000003
  2.6858165500000002  8.2691851900000000 11.7655958500000004
  2.7550709699999998 10.6748878200000004 13.1545712500000000
  2.2328645499999999 12.3430721499999994 15.3203367000000004
  2.1913354400000000 14.8285976900000005 17.1290763999999989
  2.3569330700000002 17.1057162900000002 20.0571789299999992
  2.3011019300000002 19.4861873699999997 22.2681238400000012
  4.0526325099999996 -0.1207026600000000  4.7499523300000002
  4.7649240800000001  2.2580780900000001  6.3550316499999999
  4.8095551399999996  4.2680644000000001  8.4553856599999992
  4.8233439599999999  6.7742809800000003 11.4015672299999995
  4.9060705400000000  8.2032369999999997 13.6570713399999999
  4.7477708200000004 10.9209333399999995 15.6345179499999993
  4.4170023599999997 13.3718105099999995 17.2946200099999992
  4.5300210900000000 14.9114721899999996 20.1006774300000011
  4.0621987900000001 17.4744310700000014 -0.0164228600000000
  4.5832800899999997 19.7339146599999999  2.4809828299999999
  6.9463786000000001  0.1323386800000000  7.1485209400000000
  6.8051706000000003  2.5363500600000002  8.4448033400000000
  6.8353754300000000  4.3911906399999996 11.1574238500000007
  6.9211120099999999  6.3334138900000001 13.0111277500000000
  6.8910275700000003  8.7490481500000001 15.2563303399999999
  6.4709344700000004 11.0305073199999999 17.5668204400000008
  6.5863989099999998 13.4239063600000001 19.7234105299999989
  6.6939811699999998 15.2784669599999994  0.3615779100000000
  6.8403146799999996 17.8568432500000007  2.5527771100000001
  6.9179870599999997 19.9502874500000011  4.3943376399999998
  9.2094831500000005  0.5781565500000000  9.4352256099999998
  9.1959504800000005  2.2584860199999999 11.0118460299999992
  8.9547058199999992  4.4470298200000000 13.3488636199999995
  8.8505547900000003  7.2514707200000004 15.7625991899999995
  9.2953463700000007  8.8362853500000007 18.1065828700000004
  9.4598892499999998 11.2414770999999991 19.7354072000000009
  8.9538521200000005 13.4141767999999999 -0.0977350300000000
  8.8632738900000003 15.3476481699999994  2.1802391499999998
  9.1901230500000004 18.0366704599999998  4.8282217599999999
  8.8536236200000005 19.6402408999999984  6.9422545700000002
 11.2406134299999998  0.1138093500000000 11.3485105999999991
 10.9087928000000005  1.8768285800000000 13.9642618800000005
 11.3361777299999993  4.2642729099999999 15.7907537700000002
 11.4353049799999997  6.2309644500000001 18.2850945600000010
 11.2524245500000006  8.9597901899999997 20.0579082699999987
 10.9048808699999995 11.2543177300000004 -0.2540972900000000
 11.2723391100000008 13.3170811499999999  2.0972060199999998
 10.7375226000000001 15.8447783599999994  4.2598026400000002
 10.9921205799999999 18.2352260900000012  7.2527170300000003
 11.6416316500000008 20.0574499700000004  9.2843254099999992
 13.4748074500000001 -0.0246373500000000 13.5033763199999992
 13.8358699999999999  2.3750323700000000 15.0712077900000008
 13.8014519700000005  4.0355543200000001 18.1294022800000008
 13.5145034600000002  6.8493345000000003 20.8499152899999984
 13.1646333299999991  8.9075599400000005  0.1122309400000000
 12.8770244100000006 10.9492199800000005  1.6509890700000001
 12.9729994699999995 13.7186237700000007  4.5649460499999996
 13.5650709900000006 16.2273335000000003  6.8792168299999998
 12.6886626499999995 17.3027641000000010  9.2745142600000001
 13.4399660099999991 19.3933683399999985 11.4297790700000004
 15.5876810399999997 -0.2087059900000000 15.4982394200000009
 15.9122536799999992  2.2585573000000001 17.3886671200000009
 15.6979106300000009  4.5425357599999998 20.2674799800000009
 16.4976175500000011  6.5940033500000004  0.1557059500000000
 15.5626628700000005  8.9071079799999993  2.1909825999999999
 15.3269772300000007 11.4086083299999999  4.5267874399999997
 15.2634268599999992 13.7855633199999996  6.5904631399999998
 15.4872774999999994 15.6491063900000000  9.0888917800000009
 15.6958501899999998 17.5519807700000001 10.8433409800000007
 15.3613616200000003 19.9134783199999994 13.2742394899999994
 17.6114002200000002  0.2605469800000000 18.1406171100000009
 17.7175805000000004  1.8981359700000000 20.1192574899999990
 17.8746219199999992  3.8477680200000002  0.1706619900000000
 17.8470579799999989  6.7247683800000004  1.9861849800000000
 17.6793572499999989  9.1585454899999998  4.6063123399999997
 17.7150286199999982 11.1237070300000003  6.5910900600000000
 18.0005522400000011 13.0805369400000000  8.5510113499999996
 18.0100194299999998 15.6679731800000006 10.4567967300000007
 17.8566621599999991 17.6896464000000009 13.1649572599999996
 18.1341875399999992 20.0380640399999983 15.5282068899999999
 20.2113423899999987  0.1989027700000000 20.1441110899999991
 20.2204158199999995  1.3425973700000000 22.1837018700000002
 20.0875800499999997  4.3818292300000001  2.1471133500000001
 19.7654577300000014  6.9047844100000004  4.1960499100000002
 19.4176839100000009  9.1493774099999996  6.5341049499999997
 19.9379150199999984 10.7561092600000006  8.9144925199999996
 19.4551885200000001 12.7394299300000000 10.8577449900000005
 19.7363758000000011 15.2129973199999995 13.2138217800000000
 20.5071931300000010 18.0170923499999986 15.4540348099999996
 20.6803167399999985 20.0517152000000003 17.7643874000000004
  2.0619860800000001  1.9530088299999999  0.5030837700000000
  1.7670805199999999  4.0691997200000003  2.2183991100000000
  1.9619950200000000  6.4652897800000000  4.0547419400000004
  2.4997154699999999  8.9754263099999996  6.5024176599999999
  2.4351116400000001 10.8650271499999995  8.6501317800000006
  1.8744777900000000 12.8383743300000006 10.5973016799999993
  2.0760953899999999 15.0498563200000000 12.2335037700000004
  1.8574034100000001 17.3915680600000009 15.3079086400000008
  2.8457540600000000 19.5756267500000014 17.9662126800000017
  2.2512223599999999 21.8182499999999990 20.4068139299999984
  3.8413851299999999  1.9382177700000001  2.4998842300000002
  4.1269959700000003  4.6385756599999999  4.6296123900000001
  4.2795367899999999  7.0120204800000003  6.2938434200000000
  4.5934755300000001  8.8979283999999996  9.2311233399999999
  4.2075704800000002 10.5071218300000009 11.0094840099999995
  4.4069396300000001 13.2044315500000007 12.9497106199999994
  3.7734084399999999 15.0009646100000005 15.3284201200000005
  4.5175055400000002 17.5393928300000006 17.3511142999999990
  3.9697468499999999 20.1611387700000009 20.0760317999999991
  4.6003343799999996 21.9583663300000005 22.4259759099999982
  6.4170684800000002  2.5251104600000001  4.5663849699999997
  6.7324332099999999  4.8518258000000003  6.2430280299999996
  6.5478119599999998  7.1090149199999999  8.5083484400000007
  6.7175049600000003  9.0582161600000006 11.5012522300000004
  6.1376090300000001 11.0641637700000004 13.9709186400000007
  6.4082616100000003 13.2044974600000007 15.1628200399999997
  6.2832604800000000 15.4596087499999992 17.0347233699999983
  5.5424928700000002 17.2586518099999999 19.8940870399999987
  6.0016384000000000 19.7772514000000008  0.3665438200000000
  6.8322746600000004 22.4685165900000001  2.5618342900000002
  9.6876831299999999  2.4261851100000000  6.5682087400000002
  8.4932763199999997  4.2997436899999997  8.4462662099999992
  8.5446530900000006  6.6802309099999997 10.8663892900000008
  8.5809855299999995  8.3913844799999993 13.1955421899999994
  8.4748293100000005 11.0367270600000005 15.1558878900000007
  8.8304039900000006 13.4241178899999998 17.2875547000000012
  8.5270208899999993 15.4407698799999995 19.5299557999999998
  8.5341517699999994 17.9788349200000006 -0.8243679000000000
  8.4854286299999995 20.1206992000000007  1.7766952800000000
  8.5079580700000008 21.9912496900000001  4.3594091400000003
 11.0118167000000007  2.1582218499999999  8.6419740399999991
 10.4785637600000001  4.8287060400000001 11.2956723300000004
 10.7296279000000006  6.5516613599999998 13.3619193500000009
 11.5105488000000005  9.1490362800000007 15.5870707999999993
 11.5286114200000007 11.5787320000000005 17.4685710599999986
 10.8859151900000004 13.1668939999999992 19.5635451899999993
 10.5164604300000004 15.3861438800000006 -0.2437106900000000
  9.9933005900000005 17.9986343899999994  1.9653837100000000
 11.0832570199999996 19.7018719800000000  4.7012025199999998
 10.7822184500000002 21.7340916100000001  6.5620213600000001
 13.0945619700000009  2.3625409899999998 11.2202170500000005
 13.1807503500000003  4.0195815599999998 13.3204262599999996
 13.0091073700000006  6.9297790700000004 15.4822315100000001
 13.5980985499999996  9.2664729399999999 17.7884690799999987
 13.5220085399999999 11.2525066000000002 20.1079849099999990
 13.3681698099999995 13.7476607299999998 -0.4184868400000000
 12.6672269899999996 15.6982459199999997  1.8864344000000000
 12.9919384900000008 17.5541803999999999  4.2638764699999996
 12.8266428200000000 19.4375664199999996  7.1114194099999999
 12.7796204600000003 22.3203588300000000  8.5738063300000000
 15.8286319599999992  2.4194010399999999 13.2969120600000004
 15.5350254299999992  4.3158943900000004 15.2123387500000007
 15.4140477699999998  6.1560316700000000 17.8312365799999988
 15.9403736499999997  8.8277646099999991 19.8476047700000002
 15.3268677300000000 11.2123781699999991  0.2044132500000000
 15.0289248700000009 14.0592364199999995  2.5676610200000001
 14.8082287000000008 16.0896008200000011  4.5239035999999997
 15.2930753300000006 17.8590339600000014  7.1219304000000001
 15.1718358799999997 19.6625260299999987  9.0424318499999998
 15.7595045099999993 22.4751952199999998 10.6795298899999995
 18.0011764599999999  2.5935697700000002 15.5961004200000009
 17.8910923199999985  4.6533489100000001 18.2884082200000009
 17.8214575999999987  7.1954542899999998 19.9644758399999986
 17.6238275699999996  9.0375768099999991  0.2975525700000000
 17.4605111000000015 11.3094732499999999  2.3724746400000001
 17.1548340800000005 13.8883463999999996  4.2932211100000002
 17.3010016299999982 15.3230162199999995  6.7593002999999996
 17.7534706000000000 17.7711749599999997  9.0679992499999997
 18.1082501399999991 19.5796904800000000 11.3644937899999992
 17.3617045700000006 22.5994852699999988 13.7480978700000005
 19.8975043900000017  1.9772814999999999 18.1099064900000002
 19.7638970100000009  4.4201223900000004 19.8784220400000002
 19.6255980900000004  6.9555757900000001  0.1896872900000000
 19.9753496099999985  9.1553486799999995  2.2832984999999999
 19.8557725699999992 10.8950347999999995  4.3655174700000003
 20.2101830199999988 12.7812626100000006  6.2021714200000000
 20.0670310699999987 15.4250488400000005  8.2542100900000008
 20.6353788700000003 17.5899217800000010 10.8764572400000006
 20.0873479599999989 20.6104506600000015 13.6235814499999996
 19.7867269400000012 22.3947828999999992 16.1016402599999999
 22.1319209599999986  2.2062984700000001 20.2806153900000012
 21.6922430599999991  4.2165683300000003 22.3898929699999982
 21.5939580199999988  6.9860002300000001  2.1078956700000000
 22.2706303299999995  9.2678846799999999  4.4133638900000003
 22.1135127000000011 11.3686200999999993  6.3207108800000000
 21.6564148699999990 13.2481508600000009  8.5454870199999995
 22.0379243000000002 14.5636515899999992 11.4693713099999997
 21.8107983099999991 17.5059531200000009 13.0924504299999995
 22.5740314399999988 19.8668064700000002 15.2232165500000001
 22.5440088699999990 21.8569510700000009 17.5109005400000015
  4.2343360700000003  4.2756104700000002  0.1124820100000000
  4.1535628500000001  6.4209357300000001  2.3322523799999999
  4.0578110799999996  8.8302051499999994  4.0789268800000000
  4.8695907299999996 11.0220537800000002  6.3162811799999998
  4.5182010500000001 12.4705335900000005  8.9442416700000003
  4.5020270800000004 15.4696829699999991 10.9294535800000006
  4.4197384499999997 17.0452816600000006 13.3839197100000007
  4.4536217400000000 19.8641979199999987 15.3486234800000005
  4.3011087500000000 -0.5940503800000000 17.7510505999999992
  4.1207567999999997  1.9900772900000001 20.0702770100000016
  6.6352071800000001  4.4533629200000000  2.4510306200000000
  6.0797302400000000  6.6516811200000001  4.3366108800000003
  6.5108424300000003  8.8126571100000000  6.0106306500000004
  6.6790411499999998 11.5536805800000000  8.5946900999999993
  6.8316117700000003 13.0356594000000001 11.4007401399999999
  6.3623723200000004 15.9928933900000008 12.8536025699999996
  6.2664348399999996 17.1295545599999990 15.5691169699999996
  6.7523021700000001 19.5129903300000009 17.9594794200000010
  6.8256042399999997 -0.4139101700000000 20.0918571399999983
  6.4182899700000000  2.2111089100000001 22.3566596599999983
  8.9368976399999998  4.7127925099999999  4.4453825900000004
  9.0414972299999992  7.2803630200000002  6.9122641800000002
  8.8340452599999999  9.4005850399999993  9.2219648099999993
  8.1163342699999994 11.1352399700000007 11.0248633599999994
  8.7758511699999993 13.1951719700000005 13.4184575299999995
  8.6662556800000008 15.4389904599999994 15.2200657100000001
  8.9081103699999993 17.3791626599999987 17.5774404299999993
  8.5790588999999997 19.5281152800000015 20.0444473400000014
  8.7875000199999995  0.4019665600000000 -0.7281544700000000
  8.7034994000000001  1.7018437799999999  2.1510927500000001
 11.0605924200000008  5.0237966199999997  6.5329853299999998
 10.9908480399999995  6.6274663800000004  9.0094794199999999
 10.9318408999999992  8.6252065699999996 11.3404716800000003
 10.6527315300000005 11.0652661299999995 13.1285697199999998
 11.8683169100000008 13.6269152600000005 15.5276733000000000
 11.0723151200000007 15.3451866900000002 17.6307358799999996
 11.4014293999999996 17.4394035199999990 19.9436033799999990
 10.9075370700000001 19.7913807999999989  0.0304498800000000
 11.2613197500000002  0.0705746200000000  2.3413631499999998
 10.9269500900000001  2.6363289700000001  4.3016774000000000
 13.3601559099999996  4.1780944399999997  8.5052829699999997
 13.1180796900000001  6.7085400200000000 11.3668388300000007
 13.2429785399999993  8.9249538600000005 13.3542105200000005
 13.5899879099999996 11.6521171199999998 15.1669423400000003
 14.0675897100000000 14.2908430899999992 18.2856520899999992
 13.2531974100000003 15.6670981200000003 19.6952865700000004
 13.4184346300000001 17.3633010699999986  0.1129154900000000
 13.1484724400000008 19.7463329700000010  2.1122858600000001
 12.9997731699999992 -0.1025839000000000  4.6092597499999997
 12.5840168699999992  2.3724871300000001  5.6387509400000004
 15.6389592799999999  4.3204910600000002 10.9427814300000001
 15.1892768900000004  6.2682259199999999 13.0520847700000004
 15.2073087099999995  8.9396686299999999 15.7739279299999993
 15.7422924700000006 11.3110440499999996 17.6000106299999999
 16.0670643700000007 13.7017917600000008 19.6068067699999986
 15.5643216700000000 15.4803382299999992 -0.5747022300000000
 15.8094464200000004 17.6354707799999986  1.9463332400000000
 15.4316265799999996 19.5730781399999998  4.3570941000000003
 15.0899358600000006 -0.3691043000000000  6.7204382999999996
 14.9996250199999999  2.3003137900000001  8.1044246700000002
 17.4752816899999992  3.9734113099999999 13.1157515599999996
 17.4582352599999986  6.3810251100000004 15.6873510799999991
 17.7159171099999995  8.7675673900000000 16.9492974200000006
 17.4936023499999997 11.5813369700000006 19.5783798599999983
 17.5310353600000006 13.6632218900000009  0.1799521300000000
 17.8110500099999989 15.6546215899999996  2.0510016100000001
 17.8699255699999995 17.7528327499999996  4.4044672499999997
 17.9110713900000000 19.5880439399999986  7.1972461299999999
 18.1780190899999994 -0.2198912800000000  8.6614329199999993
 17.8805353700000005  1.8062803300000001 10.1287558299999993
 19.4596038900000003  4.3273211399999996 15.6268407499999995
 19.5565424400000012  6.9464777499999997 18.0678189099999997
 19.5146829599999982  9.2133339599999999 20.2906400500000004
 19.3550472000000013 11.1400442999999996 -0.1740283700000000
 19.8061569400000010 13.5400589399999998  2.3706473600000000
 19.5358836999999994 15.2725893199999998  4.9343276300000003
 20.1285867799999991 17.4604574499999998  7.1137807799999999
 20.1891460800000004 19.4887823500000010  9.3018882000000005
 19.2417511200000000 -0.4666006200000000 11.2838402200000001
 20.1104729900000017  1.5275030999999999 13.4389120099999992
 -0.0386810400000000  4.4265878100000000 17.5656099899999987
 -0.2174064500000000  6.6398816900000002 20.3197097699999993
 -0.1863051700000000  9.4927375499999993 -0.3683691600000000
  0.0618247700000000 11.7820436100000006  1.8362611200000001
  0.5566867300000000 13.8446939699999998  4.3825443399999999
  0.4178398600000000 15.6780768699999999  6.2171450600000000
  0.7472605700000000 17.3319287099999997  8.9488850699999993
  0.6570724100000001 20.7477149400000016 11.3329133599999992
  0.6245451600000000  0.1518086300000000 13.0612628900000001
 -0.3576424300000000  1.9347630600000001 15.5897027399999999
  2.0543305200000002  4.3306862800000001 20.6666044400000004
  2.0871639900000001  7.1587252000000001 22.2402422699999995
  1.7654789900000001  9.0486610100000000  1.9366012699999999
  2.2578781800000001 10.9888032100000004  4.4125132300000001
  2.4525950999999999 13.0516216400000005  6.7787225199999996
  2.1663938300000001 15.1920702700000003  8.7048551900000000
  2.4931893399999998 17.6875286699999990 10.9603054400000008
  2.5656764600000002 19.7295028399999985 13.1715439399999994
  2.2855623199999999  0.2048264300000000 15.7026562100000007
  2.2703067099999998  2.1805737000000001 18.5489331100000001
  6.6797327800000001  6.6937280000000001  0.8311003100000000
  6.2253172399999999  8.6998049500000008  1.7853073100000001
  6.1121973799999996 10.9398694600000006  4.0887356800000001
  7.2319097299999999 12.9645568799999999  6.5596606599999996
  6.9674839100000003 14.5244308899999996  9.5733959800000008
  6.4977825400000002 17.4570744500000004 11.2044002999999996
  6.1362472700000001 19.4356023899999997 13.3806011300000005
  6.5193652699999998 -0.3580594800000000 15.5395441600000002
  6.2987216000000004  2.2694924300000001 17.5338330999999990
  6.4529207599999996  4.7238896600000002 19.7557325000000006
  8.4865894900000001  6.4402625799999997  2.3026382200000000
  8.2389257300000001  8.4994077899999994  4.0814075799999996
  8.5740552399999999 11.0526604899999992  5.3781822100000003
  9.1100934500000008 12.7154903099999999  8.4832564700000006
  9.3849546000000004 14.8898775099999998 10.6720859800000003
  8.6128597300000003 17.7067848800000007 13.0497335900000007
  9.1355708100000008 19.8465819900000007 15.3178802500000000
  9.0509944600000001  0.2668845500000000 18.0751425599999997
  8.5961383500000004  2.5306165799999998 19.5168837000000011
  8.4506977600000006  3.7686866600000002 21.9743037200000018
 11.4006067000000009  6.5435179000000003  4.7351451100000004
 10.6722161300000007  8.9068120499999992  6.5093419499999996
 10.2700127000000005 10.4835806999999992  8.2890138800000006
 10.6077268399999998 13.0063884900000009 10.9017252800000009
 10.8863862800000000 16.0851473499999997 13.2977659799999994
 11.2270306800000004 17.5391392199999991 15.3048612100000003
 11.3538845800000008 19.9117640999999992 17.5678007500000000
 11.6976236799999995 -0.2983956600000000 19.6654747299999997
 11.3067790000000006  1.7230244800000001 -0.0425505500000000
 11.1968338999999997  4.2052427300000002  2.1834362899999999
 13.4437764200000007  6.9165506900000002  6.5105272300000001
 12.6295569400000005  9.0372134200000005  8.4881439699999994
 12.9590836700000001 10.8706460499999995 10.6767091599999997
 13.0946774500000007 13.4246436399999993 12.9654281900000008
 12.8276425799999991 15.1259371500000004 14.7869885900000000
 13.4117307199999996 17.2936407000000010 17.5354701999999989
 13.3919453399999995 19.5101383000000013 19.3529118599999990
 13.3693701300000001 -0.4036029400000000  0.1809374800000000
 13.7893470899999997  2.2649451500000000  2.4812970600000002
 13.1080965500000008  4.6192004500000001  3.9742154599999999
 15.5347603700000008  6.4618860600000003  8.9823725700000008
 14.9761712899999999  8.4844712999999992 10.9961462300000008
 15.5344795100000006 11.2678505399999995 13.0903504700000006
 15.5801085500000003 13.2871991999999999 15.5774799599999998
 16.0639706900000014 16.0995442500000010 16.9349696700000010
 15.7626761799999997 17.8944866100000013 19.8444873400000006
 15.3135997699999997 19.8985912300000010  0.1029050800000000
 15.4105626400000002 -0.5148933700000000  2.5101036099999998
 15.4563891499999997  1.8170717100000000  4.7762808100000003
 15.2773609300000004  4.3397490400000001  6.0662374000000003
 17.4954633500000014  6.4613785600000000 11.1163015800000000
 16.9695386100000007  8.4764937400000004 13.5923345300000005
 17.5841176799999985 10.6564141100000001 15.0369838500000004
 17.9675178200000012 13.0634685200000007 16.9497474100000005
 17.4363348000000009 15.3883857600000002 19.3029580699999990
 18.3026030999999989 17.8418787399999985 -0.3368599800000000
 17.6492425699999984 19.9343147899999984  2.1102287500000001
 17.7417759400000001  0.0732360500000000  5.1035969600000000
 17.7039658600000003  1.7706147500000000  6.9476330300000004
 17.2951138799999988  3.9073828200000000  8.5943633800000008
 19.2008880499999997  6.4644756299999999 13.0100434200000006
 20.0140172499999984  8.7644627100000001 15.1464913400000007
 19.3465564199999989 10.9581496000000005 17.3738167700000012
 19.8816389200000003 13.5236524399999993 19.6480599399999996
 20.4394499699999983 16.0630646699999993 -0.4737842100000000
 19.7797345000000000 17.6123107999999995  2.7003473800000002
 19.9745329299999987 19.6427066199999985  4.8480888899999997
 20.5285769900000012 -0.2457740800000000  6.5827849599999997
 20.3964694400000006  1.8363797700000000  9.0476718900000002
 19.6649998500000009  4.3945105099999999 10.9360277000000004
 -0.4325076400000000  6.7286700599999998 14.8848313999999995
 -0.3415385100000000  8.4846118199999996 17.3042103699999998
 -0.5147651300000000 11.2472915899999997 19.3372988200000009
  0.0231885400000000 13.5368690199999993 -0.1193453900000000
 -0.1340470300000000 15.2226111199999998  1.8447495100000000
  0.1148949500000000 17.5066454500000006  4.1945290399999999
  0.4298709900000000 19.5457101000000009  6.8964631900000004
 -0.2030605700000000 -0.4438152700000000  9.5797981300000004
  0.2121519500000000  2.7553923899999999 10.9525274499999998
 -0.0519512400000000  4.6363978699999997 12.9655114800000000
  1.7226099100000001  6.1907593800000003 17.3133135600000010
  1.9648264799999999  8.9002446699999993 19.3729649200000011
  2.0481350300000001 11.0777613800000001  0.0929313600000000
  2.5492125699999999 13.7818227199999992  2.2147133800000001
  2.5539300200000001 16.0710483599999989  4.7696748800000002
  3.1937757800000002 17.5752736200000008  6.7919400200000002
  2.7384004700000002 20.0603411399999985  8.8867014700000002
  2.9028760100000000  0.1507742500000000 11.4139169299999992
  2.2734042799999998  2.0735490699999999 13.1547144399999993
  2.0105909899999999  3.9699466299999999 15.7272198499999991
  4.3602495899999996  6.3854228199999996 19.9601710300000015
  3.7758748799999999  8.7543928700000002 21.9473006400000017
  4.0325749899999996 10.8595465200000003  1.8282847099999999
  4.6447116099999999 13.4195980499999994  4.0787941400000003
  4.6805522300000000 14.6128981600000003  6.3843678400000003
  4.5862364400000004 16.9026409300000005  9.1476267500000006
  4.6061658400000001 20.0451227299999992 11.0048723600000002
  4.4963964299999999  0.0096939300000000 14.1050302500000004
  4.4770505099999998  1.9875469900000000 15.5112519599999992
  4.0983492300000002  4.4993845500000003 18.0927737600000000
  9.0730586599999992  9.1387638500000001  0.3957113500000000
  8.7339479699999991 11.4657322700000002  2.2057051500000000
  8.8771712500000000 13.7386014799999998  3.7966262300000002
  8.8893206599999992 15.5289078899999993  6.9948663299999998
  9.0879242799999993 17.4920486699999991  9.1024119900000002
  8.6939876500000004 19.9397200900000016 11.0635405400000000
  8.0962496200000000 -0.2107112400000000 13.6029408099999998
  8.0561790700000007  2.4044151500000002 16.0842371799999988
  8.6085047600000006  5.1152382000000003 18.2952607799999996
  8.7885327400000008  6.2221277300000004 20.5853217999999991
 10.8870868900000008  8.6548442800000007  1.7174533800000000
 11.2259013000000003 10.9768458899999999  4.0873486600000000
 11.1581158200000008 13.2589172800000004  6.3664669199999997
 11.0872906199999992 15.4311073400000005  8.9943422900000005
 10.6346635900000006 18.1881027000000017 10.9037010999999993
 11.1110429199999992 20.2562695300000009 13.1081406200000004
 10.6186288300000005  0.4009259200000000 15.5383538600000009
 11.3118921599999993  2.9893006099999999 17.4685043799999988
 11.4762286600000003  4.2280013099999998 20.0414245800000010
 11.1034135900000006  6.3697056700000001 22.4623671000000016
 13.4950739500000001  8.7619847899999996  4.3103021799999999
 13.0872472599999998 10.7816190499999998  6.4422970499999996
 12.6129630800000001 13.6845558100000009  8.7714004899999996
 13.0285678500000000 15.9361350500000007 11.4051995300000009
 13.2023637699999998 17.4918068899999994 13.0522935899999997
 12.3438750899999992 20.3897249999999985 15.2014203999999999
 13.5832446200000003  0.0923613600000000 17.4772034199999986
 14.0567434400000000  2.0099271999999999 20.1335728899999999
 13.5962435999999993  4.3143112800000001  0.0296735000000000
 13.5017796600000004  6.7956552099999996  2.2507228000000001
 15.0614204899999997  8.9340969399999999  6.2364874800000001
 15.3033889900000002 11.4920863600000001  8.3774879799999997
 15.4099378100000006 13.4359313399999998 10.9266314599999994
 15.1091745799999995 15.3942324799999994 13.4035867500000005
 15.4309754899999998 18.0896995199999999 15.0601719000000003
 14.9044244100000007 20.0698020799999988 17.2681007999999991
 15.1535280700000001 -0.0419360500000000 20.1333625100000013
 15.6868495800000005  1.5213097799999999  0.2814390600000000
 15.3778528699999999  4.4206882900000002  2.4225246199999999
 15.8437356299999994  6.6855785200000000  4.4785640799999999
 17.1781249799999998  9.0282440699999995  8.7431707099999993
 17.5396134799999999 11.0088820900000002 10.4866077099999995
 17.2599246599999994 13.6195316999999996 12.8988682499999996
 17.7872063699999998 15.6361533099999992 15.1972854300000009
 17.9332809600000012 18.5799390100000004 17.7534156600000017
 17.2220082400000010 20.4960499300000016 19.4083285600000011
 17.8804213099999991 -0.1631792100000000  0.0893431500000000
 17.8695835900000013  2.0351393500000001  2.8853092000000000
 17.5891197000000012  4.2988758100000002  4.7724197600000000
 17.7369463699999983  6.8665294100000001  7.0358085399999997
 19.1526815699999986  8.8241078999999996 11.3800575800000008
 19.3370015200000012 11.4986202700000000 13.2720318000000006
 19.6631694199999991 13.0786214899999997 14.9614534500000005
 20.5835991999999983 15.5292904299999996 17.1439617300000009
 19.7888208100000007 18.0971096899999999 19.4600216599999989
 19.9980329099999992 19.6383093700000018 -0.1307814400000000
 19.4362205999999986 -0.3608075000000000  2.3610658600000001
 20.1031800400000016  2.2610960100000002  4.4059601900000001
 19.7785697700000007  4.3169383200000002  6.5362781400000003
 19.5837549099999997  6.8031880700000000  9.3335526200000007
 -0.2864823500000000  9.4798772499999995 13.3588849399999994
 -0.2774235700000000 10.7378564200000000 15.6774005800000005
 -0.0712912800000000 13.2031924800000002 17.4289764299999987
  0.2442180600000000 15.5822555900000008 19.8601738300000008
  0.3117843800000000 18.0349003900000007 -0.2644205200000000
  0.2015698200000000 19.8059327299999985  2.2707104000000000
  0.1348615900000000 -0.6274100200000000  4.1993280500000001
 -0.0428167700000000  1.9332970000000000  6.4345178299999999
  0.3213057600000000  4.7012061899999997  8.7217155700000006
 -0.4490647300000000  6.6028973899999999 11.6407248600000006
  1.9222969400000001  8.9367763300000007 15.2259788399999998
  1.6546770799999999 11.4011513699999991 16.9322182099999985
  2.7602740899999998 13.1894446100000007 19.4434768600000005
  2.2964346000000000 15.3585529100000002 -0.2921131300000000
  2.5557783500000002 17.4704976300000006  2.2561024600000001
  2.7252066300000002 19.2520263999999983  4.3007522600000003
  2.1928372999999999  0.2424429700000000  6.4990125900000004
  1.7751604999999999  2.4337331199999999  8.8439152199999995
  1.9042978200000000  4.4948690800000000 11.0093903500000003
  2.0275941300000002  6.3316279000000000 13.8299501599999992
  4.2689041500000000  8.5469367900000002 17.6665885500000002
  4.2287318500000000 11.2716689199999998 19.7916259200000013
  4.1565101200000001 13.5589382799999996  0.2319937300000000
  4.8595109599999997 15.6569300600000005  2.7677712900000002
  5.2727877200000002 17.8803624499999998  4.9435144500000003
  4.8751486300000000 19.6933915699999993  6.8680937399999999
  4.6657464099999997  0.7206595200000000  8.7086804400000002