Li                                      
   1.00000000000000     
   -11.0705700000000018   19.1747897087477881    0.0000000000000013
   -18.9781199999999970  -10.9570226907130195    0.0000000000000076
     0.0000000000000001    0.0000000000000001   23.2203000000000017
   Li
   504
Direct
  0.0163017284900064  0.0163590968773732  0.0147481526939757
  0.9271180383989588  0.0405873889321811  0.6732690761962559
  0.8602174228365413  0.0655291886271385  0.3407979832301891
  0.7805466608691134  0.1185348781956392  0.9991298045244861
  0.7138823911712819  0.1408193412609364  0.6607423035016780
  0.6482281225777697  0.2052316990847487  0.3371731480644087
  0.5866324582990217  0.2498072862922456  0.0041684215966171
  0.5051497074202160  0.3006979518268906  0.6472745003294520
  0.4456603554312011  0.3408719551237951  0.3248013091992803
  0.3465841753765844  0.3912121166691520  0.9914831397527166
  0.2736195999786233  0.4193786505230577  0.6564660671912108
  0.2144115593968223  0.4621068474057637  0.3318648402475404
  0.0750534699272265  0.0248360052222125  0.6751975224265010
  0.0082830211466245  0.0941902830514749  0.3194901400929382
  0.9270882018846507  0.1187425854015984  0.0089102720464425
  0.8692803417517325  0.1644306589384783  0.6682816440786752
  0.8051167658029925  0.2065574991624217  0.3498874738913784
  0.7279033310171812  0.2393885058552243  0.9997675167848854
  0.6405798794076034  0.2914602086205917  0.6585256047510128
  0.5887056172383609  0.3371994067362607  0.3354088134089537
  0.5055286887191315  0.3782595185680506  0.0031162930711517
  0.4165661602382116  0.4112298796430665  0.6608588028578453
  0.3711523480996348  0.4595337362024594  0.3338609173869429
  0.2579777711821691  0.5029601322830644  0.9888178697088321
  0.1490693948322601  0.0821670597325692  0.3306232262287736
  0.0779450900170815  0.1159790324231054  0.0105482327963031
  0.0161984309211576  0.1636558066129368  0.6581898364792877
  0.9262186084639694  0.2175263334670134  0.3378052738336734
  0.8797627214727939  0.2484942164210651  0.0119588976025256
  0.7736012485974584  0.3087094757180608  0.6724773598962983
  0.7089807633894836  0.3365608632595496  0.3377095373444803
  0.6372729689124412  0.3864595233114230  0.9949636856543620
  0.5744240650599224  0.4230897427179059  0.6576509226840273
  0.5092361920523132  0.4682948479275879  0.3383377729831238
  0.4060615521311632  0.5004754134141507  0.0039893119382626
  0.3585300624819325  0.5485845208160427  0.6544106742806903
  0.2167635133453061  0.1250936110671077  0.0143388858025091
  0.1614057134297937  0.1510529584108227  0.6670068978436987
  0.0825062227725084  0.2146181647793028  0.3314803133465105
  0.0232314201553834  0.2593205331703246  0.9977806415076458
  0.9347829781756190  0.2922044135719588  0.6621181983006252
  0.8583629500353354  0.3345666723694052  0.3392536013746579
  0.7885284018146450  0.3636239511986901  0.0097578812504580
  0.7078540202914425  0.4266602402441393  0.6723255879553633
  0.6341629493960568  0.4458152112698457  0.3384016511414600
  0.5586862097199656  0.5052889631460076  0.9983182521328331
  0.5097923170206897  0.5297566855389348  0.6702460390261962
  0.4347932175320963  0.5887463104767861  0.3148150273682973
  0.2835194503470859  0.1798425744262886  0.6694863830355331
  0.2211412282844378  0.2112404212003725  0.3456229971189018
  0.1504337961993940  0.2598625463854631  0.9972526522051837
  0.0748307463314717  0.2929486901012979  0.6518241319018259
  0.0048987966604344  0.3341080317046661  0.3415624923019962
  0.9344700799995138  0.3842097339704793  0.9808126053496267
  0.8579395143713171  0.4165830198347535  0.6786222494972094
  0.7846912293215595  0.4580610080139493  0.3447176539493455
  0.6997939021037709  0.5126751902289115  0.9996160282166926
  0.6415913703972151  0.5480644127353855  0.6814851789167236
  0.5611157963578748  0.5884383157190669  0.3377926921702112
  0.4895697066225040  0.6263160035322812  0.0102848494636163
  0.3575104157492532  0.2095251461535099  0.3298594225742164
  0.2936380074323139  0.2628433429686439  0.0047254647872776
  0.2187388186475587  0.3135802111297110  0.6667325159450996
  0.1561080807238469  0.3537170907751133  0.3229792668484066
  0.0709317002081207  0.3804324489268183  0.0071482379641949
  0.9877414699361822  0.4293892917300894  0.6636239312153620
  0.9328687484981728  0.4616845735477781  0.3229125050063928
  0.8349267679806687  0.4772645330620833  0.9960840497323460
  0.8013936734839149  0.5487932445436741  0.6639792896732573
  0.7263084119460288  0.5731121309151064  0.3359380094141784
  0.6523068752606065  0.6294350439319700  0.9994577343961950
  0.5804151911757458  0.6625020664336319  0.6795239648066556
  0.4192529389020336  0.2478393725078831  0.0202754499295850
  0.3574579870168151  0.2936788360844673  0.6700559010865490
  0.2895124534955045  0.3435916717623400  0.3270861087066024
  0.2064452047103842  0.3795105489948085  0.9932194980254323
  0.1347292250505632  0.4308341454807945  0.6509738155837752
  0.0665148857034978  0.4540613628629941  0.3345956197809699
  0.9987731609752473  0.5009006628318460  0.0060936482302125
  0.9243139826709239  0.5562475778877314  0.6670845600616673
  0.8597476474739807  0.5859350787277080  0.3421256702109758
  0.7894313161877022  0.6152847317833334  0.9967256590138831
  0.7222042400468567  0.6707614456155042  0.6538689909260427
  0.6594830696809879  0.7109113723214833  0.3420500376825473
  0.1294656538386860  0.5049318782146557  0.9834548188438532
  0.0685864557394709  0.5567311557037371  0.6524319862361807
  0.9896706069541352  0.6078704149184304  0.3311247847788366
  0.9310332744335454  0.6095689374423898  0.9861387479920580
  0.8526053266123057  0.6748372720462115  0.6726688246921881
  0.7874478725538339  0.7007153530245205  0.3303292601732082
  0.7197326097344785  0.7555008985427349  0.9939854084572559
  0.2091431183150263  0.5498956945511537  0.6442818645753903
  0.1337768999757998  0.5895568383188063  0.3287177530006105
  0.0602571230558411  0.6193317842447854  0.9873859110347425
  0.0038495443202464  0.6786541427778232  0.6701092496651668
  0.9341683062114754  0.7454397982679239  0.3403070847491207
  0.8429784803735032  0.7387104078028557  0.0012242938291038
  0.7896366499163392  0.7886926551489637  0.6629327868287689
  0.2740436901604255  0.5885971099888039  0.3327392264527163
  0.2140477693203096  0.6343162071056412  0.0087171108900392
  0.1385346722314011  0.6640000265376784  0.6682349594966439
  0.0571933833517591  0.7120478654401765  0.3363540126527198
  0.0021301986745073  0.7553525025903483  0.0015560621525097
  0.9376670000994665  0.7946751247599266  0.6706251766773050
  0.8504518213586394  0.8457557571572778  0.3446923816660430
  0.3327546501053504  0.6313689371330327  0.9859415334857857
  0.2767033978139395  0.6575535013617255  0.6693746092858390
  0.2096099419955024  0.7098471800390556  0.3303884252141458
  0.1478779509210852  0.7594729669151405  0.0023673884489028
  0.0782601063963639  0.7860683367968804  0.6747950711231141
  0.9971858606311699  0.8492221345882740  0.3463646163055571
  0.9292663767985232  0.8674440079947630  0.0098663854472179
  0.4308093124178427  0.6474847392800953  0.6623015318492875
  0.3548255027350109  0.7100305564611702  0.3265296585315411
  0.3009979171135129  0.7394458870921170  0.0190308445627281
  0.2257002569061726  0.7868582813736182  0.6692638742824144
  0.1408174360169454  0.8217714809134904  0.3467577111406825
  0.0798319752915830  0.8693148209251618  0.0055809149752619
  0.0078582502941131  0.9135548805699116  0.6803935242008095
  0.9153934400540535  0.9609113981964938  0.3510171401747613
  0.8705169942412994  0.0058483727082574  0.9921857934652039
  0.8050608336098364  0.0485075227295368  0.6542534850970938
  0.7238783973455014  0.0837517051582992  0.3370585862370419
  0.6429253998105224  0.1197411164340636  0.0002286594057779
  0.5740149110063797  0.1561538527873196  0.6657857766695514
  0.5212029859118914  0.2061342377566078  0.3336274031773954
  0.0717092446156684  0.9549208202833128  0.3447257305030504
  0.1482383876138300  0.9862783417553445  0.0194551547568267
  0.2153990372426691  0.0275731036726725  0.6533440136432347
  0.2916055517208420  0.0786363674213106  0.3127455829597352
  0.3690195228999116  0.1242393393218038  0.0114797289440673
  0.4280804777184883  0.1747861661631447  0.6703650878756946
  0.8481410196211812  0.9078674559130420  0.6769033345822422
  0.7841767757703906  0.9572291128657469  0.3375682626839449
  0.7322402472853327  0.0007007604341425  0.0065843959811005
  0.6418056898953779  0.0336059363949062  0.6668711485209045
  0.5698588423955044  0.0738941014779968  0.3415656205992192
  0.5097701286301373  0.1129449295868596  0.9792690843787568
  0.1549035879769463  0.9050483707580170  0.6694805997338520
  0.2232234494168068  0.9540574128306574  0.3322573364685226
  0.2939170913405249  0.9902935272892321  0.0219902421588003
  0.3644095945498762  0.0423815443713096  0.6738746230668866
  0.4348316746994385  0.0875356324558254  0.3338699939277276
  0.7873028387334244  0.8880867352826769  0.9888665111992552
  0.7078104031046877  0.9169816670830073  0.6665144399512499
  0.6480973798297924  0.9629151190833269  0.3250699392342042
  0.5782125485764027  0.9990613030219322  0.9947534545203993
  0.5036480366792517  0.0440768887845451  0.6682033328596120
  0.2069390049849247  0.8691888774854419  0.9940779468826832
  0.2906628194230834  0.9147679375606970  0.6515759490618152
  0.3533217281230563  0.9567778302746888  0.3344219183214676
  0.4276798389056609  0.9965112606415261  0.9938337657136245
  0.7086143441880495  0.8388829378074405  0.3246747178115683
  0.6397712448984834  0.8744926904964387  0.9924439662708906
  0.5607693508758089  0.9105753150087992  0.6569086170290674
  0.4957711831318150  0.9556065644624709  0.3308298661085374
  0.2750571714209116  0.8201480341457810  0.3306178486066074
  0.3612798869891378  0.8675075097794007  0.0000281232369943
  0.4275152257091364  0.9095708936249309  0.6692057204256585
  0.6473558269102853  0.7872237989475153  0.6496602593420420
  0.5601025529380124  0.8438823619263189  0.3476468861298088
  0.5004381182696136  0.8717823536276512  0.9922328096536219
  0.3615046091547782  0.7811843938719605  0.6806339556336454
  0.4006873318153623  0.8336842766841386  0.3329904338014558
  0.5876895241082423  0.7506915592847463  0.9918936654565158
  0.4989200403286915  0.7865284400740649  0.6617166044366343
  0.4342085249077741  0.7403503519005952  0.9903978979599728
  0.4962584633318912  0.7024594155581170  0.3406344392621961
  0.0075827083344251  0.9999598282966957  0.7829864713203563
  0.9279910244158671  0.0450606938322906  0.4452357161621521
  0.8793534447110574  0.0862093634978152  0.1258760541422816
  0.7901473789866600  0.1195483725791391  0.7824240505075295
  0.7195465729592385  0.1632184903349057  0.4619186345568309
  0.6450680762475614  0.1986418136852350  0.1115646477435703
  0.5623727027921319  0.2464095493995444  0.7616967610237566
  0.4961613527395201  0.2742699057231377  0.4417812383991588
  0.4218839784923389  0.3639725691597491  0.1186036614514023
  0.3416489809346572  0.3884414036339834  0.7736244643695400
  0.2678461274259618  0.4198477202748165  0.4445290026399320
  0.1994671166243052  0.4615458539998940  0.1045007174756591
  0.0642128423510258  0.0467388389289312  0.4509891422591465
  0.9906820941009968  0.0687913117584031  0.1349785786574671
  0.9318478883564154  0.1399920820712524  0.7857893438069254
  0.8507426898042070  0.1511001126841975  0.4436996382475655
  0.8017702693480970  0.2100750801060940  0.1085260905328553
  0.7151301678252437  0.2517340193854238  0.7784358027243385
  0.6394509324901989  0.2903374739069022  0.4500127065541761
  0.5834638173635369  0.3358080488167303  0.1127776299186465
  0.5011912488764949  0.3778145293593553  0.7705525957890274
  0.4178744425835674  0.4143666960777850  0.4391429219260701
  0.3350866818943885  0.4629528753122258  0.1132315930457395
  0.2753923015928663  0.5021562988196422  0.7715817362394120
  0.1430049442631542  0.0651242106272178  0.1274424525092286
  0.0674764023697847  0.1151991121468896  0.7818681537275580
  0.9973462521388186  0.1742064077716634  0.4469515049331818
  0.9415573448657213  0.2016005897659952  0.1201470140351333
  0.8463955801861616  0.2358390078605481  0.7942312945999817
  0.7838952680733087  0.2863035897194095  0.4316027437199352
  0.7252493547140872  0.3181494600720640  0.1108506487857639
  0.6430281147824743  0.3700040195410637  0.7747851901138247
  0.5674484640998116  0.4162510873990968  0.4449169282911924
  0.5080799429352183  0.4620818514236262  0.1069362135717427
  0.4317057585891746  0.4920911829061794  0.7626728801953462
  0.3610161717177931  0.5510458401499321  0.4423338298816120
  0.2143399245395656  0.1189094890110312  0.7920787668548641
  0.1485908785750283  0.1867036828396920  0.4423829041829777
  0.0709227594240858  0.2061285452511896  0.1131335383263803
  0.0018019002355558  0.2356464279554160  0.7724661619358955
  0.9339613811501621  0.2952788691756822  0.4431785187960529
  0.8648766120750437  0.3285207936645165  0.1197596874286688
  0.7854062145299778  0.3691780425885653  0.7853638449976970
  0.7261489275849726  0.4062861672676590  0.4646198959531063
  0.6455690337141178  0.4701237041622406  0.0958952769774726
  0.5692295539390457  0.4837535781757651  0.7742437836720484
  0.4836513889598066  0.5459153452988588  0.4369029116764196
  0.4330843265514730  0.5829132372968999  0.1121598174872815
  0.2979708457573196  0.1643371157988440  0.4434878963665412
  0.2216402391640031  0.2060408790500929  0.1271392794236093
  0.1486968651060252  0.2563362939038853  0.7753768693772258
  0.0820262914572893  0.2980913941202630  0.4444045081243573
  0.9973572236818811  0.3287507656303177  0.1101111449895100
  0.9346425080823551  0.3681329499075119  0.7719345232404393
  0.8626378555997860  0.4171322999819083  0.4324272528778721
  0.7910791685282064  0.4386358753800010  0.1050302567150325
  0.7212805983427941  0.4895005646715376  0.7770149700908249
  0.6420925795550332  0.5357032509835236  0.4434472754443277
  0.5877108594697731  0.5843315808141014  0.1000887619884310
  0.4985365188585504  0.6214469937180311  0.7734817414073021
  0.3661333817428769  0.2161980874859495  0.1085623471703627
  0.2894153370709702  0.2470038872070717  0.7907300172693752
  0.2127531866248091  0.2936821921637645  0.4449958299419023
  0.1395255189035751  0.3367486340159971  0.1151151453684918
  0.0873061039705121  0.3716381656648409  0.7643880888705112
  0.9836891440756759  0.4150632397871945  0.4367432044374979
  0.9277162241553896  0.4632985475037614  0.1019809205738085
  0.8632736800419210  0.5016357756162506  0.7863087113430893
  0.7878260756595878  0.5489154269013596  0.4478152637993489
  0.7278323856205446  0.5932690760054626  0.1082709129511699
  0.6434739232935485  0.6276930527894322  0.7833669564992718
  0.5667596099227410  0.6700402192196933  0.4505378384430827
  0.4214502328724592  0.2541816373523389  0.7842416549312432
  0.3560694845986703  0.2862993239523490  0.4475223834317390
  0.2750600652017070  0.3404880680478328  0.1033121454072514
  0.2016988547657448  0.3737476867780387  0.7537004009422787
  0.1309016837443480  0.4214850273362316  0.4405936275586413
  0.0762149595364221  0.4654984785323748  0.1072634449167325
  0.9793340316173342  0.4939556404742973  0.7731093228769623
  0.9253763633650465  0.5437481875455390  0.4528752380460190
  0.8463499838291000  0.5730911286007796  0.0949891823103073
  0.7949407161156969  0.6327285155953817  0.7723833193369600
  0.7215875575804347  0.6716929033369397  0.4474336528813154
  0.6611971018423048  0.7190488936869244  0.1168702475850836
  0.1406067269220515  0.4964438683672867  0.7697425683561363
  0.0536960894863583  0.5436851343871254  0.4415560776561875
  0.9946329044010653  0.5912460895770835  0.1016065627920426
  0.9320098036843518  0.6401708703299462  0.7786975659229185
  0.8645181922679086  0.6795176432768173  0.4467310185484266
  0.7928666726493176  0.6985296061869519  0.1022915341317727
  0.7101205136807422  0.7458967603145794  0.7530109942593342
  0.2147777509481443  0.5570082549633995  0.4432583192292938
  0.1441781166087779  0.5763742144961839  0.0931701218330545
  0.0829435241536700  0.6151981376348203  0.7706909923644361
  0.9924425571227360  0.6854113779654583  0.4580927649513598
  0.9281325460774212  0.7059116350498229  0.0963179080373635
  0.8699365859789765  0.7580580647271020  0.7858867077514091
  0.7887461693845523  0.7900738581901905  0.4360896650775388
  0.2775129295529339  0.5778204768164130  0.1049622817103995
  0.2065404486756748  0.6197649864741379  0.7773969931482370
  0.1240038047945831  0.6770617073111111  0.4385530307532619
  0.0775110476423819  0.7058888209844625  0.1124599118013094
  0.0024038994136291  0.7449089542730505  0.7790899105524076
  0.9369502364231934  0.8029397564753751  0.4525940349607893
  0.8423032217897557  0.8229042846157029  0.1095687592322250
  0.3618357637646810  0.6276128683315108  0.7719146419296905
  0.2786135463187165  0.6791534115355162  0.4498861354073824
  0.2022974132888962  0.7084132466949455  0.1197945297864393
  0.1414700672395952  0.7390400365114829  0.7772456230108986
  0.0666228907510416  0.8017021993926789  0.4575403603743240
  0.9962451034080004  0.8300427089492786  0.1214326653833098
  0.9444672866977015  0.8708923444420762  0.7964035387139674
  0.4297426596238196  0.6536531792742579  0.4329162271805274
  0.3463327489175043  0.7064146564473361  0.1190984134571877
  0.2762498773641866  0.7306750639762214  0.7744458305878936
  0.2172035099411573  0.7885897986181263  0.4438945965383709
  0.1394354516005336  0.8328348968483041  0.1125177021830055
  0.0624848897865533  0.8717172703974683  0.7869048276723376
  0.0112997935900196  0.9199183372260364  0.4545266943148860
  0.9248447558638659  0.9526791758654767  0.1109706175200174
  0.8733751444478699  0.9966308905797732  0.7841946430494033
  0.7745642991663289  0.0293788387141731  0.4526923446294830
  0.7387139597498305  0.0807926622137671  0.1102656864898393
  0.6456058861432794  0.1341016636547181  0.7692594398005212
  0.5767377869845873  0.1681167479993775  0.4411246258661592
  0.4902928752091924  0.2094018925212495  0.1025938179093302
  0.0714206373316699  0.9457756951149605  0.1245628876457232
  0.1281439560511757  0.0011331946714677  0.7772740369418116
  0.2009259028182484  0.0518002024456266  0.4469617636292398
  0.3012678764524637  0.0973946615882753  0.1234006382346493
  0.3531487125907091  0.1283378641748882  0.7651256637511139
  0.4359064212290917  0.1588216962656901  0.4321692152986856
  0.8632546928852136  0.9111086353435311  0.4530987605672649
  0.7953106823500065  0.9519816725416703  0.1047147650977820
  0.7259876203892617  0.9929597920841076  0.7587657110373272
  0.6487940305993192  0.0361081565860104  0.4398103478421902
  0.5647726692266346  0.0809369616821698  0.0943366666235974
  0.4981868450806175  0.1279852492478639  0.7766749042863381
  0.1477204674316326  0.9232575594877375  0.4492395408328065
  0.2183920332563787  0.9532308425909903  0.1293099791992347
  0.2883349108821136  0.9810390099565041  0.7717139589066448
  0.3525197219858072  0.0449775610743117  0.4427793775274225
  0.4494482594481610  0.0767657103233077  0.1023725093991033
  0.7824950010113554  0.8677207276934524  0.7725177129494440
  0.7233339436341950  0.9014513072749892  0.4292208580423136
  0.6427512151915451  0.9558229513585630  0.1092293036696361
  0.5657271928431413  0.9934790849002155  0.7862510854726281
  0.5022094115806937  0.0346952513967196  0.4348655611684578
  0.2113837597497863  0.8691260062022366  0.7806885445063187
  0.2884007870905450  0.9303814386492988  0.4511650947662176
  0.3604633313735590  0.9448287969301390  0.1026384672032634
  0.4201722031803428  0.9948879158018684  0.7744290293407090
  0.7179052380423769  0.8509137485106635  0.0941459727049150
  0.6336813553938683  0.8662926015547043  0.7634695990146554
  0.5750358609471675  0.9240083026598072  0.4439658665047403
  0.5034387256532398  0.9472006345699668  0.1182761656826159
  0.2690792144035470  0.8246262818129750  0.1083747440816865
  0.3531635579527403  0.8689826958747844  0.7795100050386949
  0.4291372851038489  0.9011100238405021  0.4523144675133395
  0.6443277395337788  0.7857998967521311  0.4437647020064333
  0.5796716858708777  0.8290610089170301  0.1063165183051069
  0.5034820863732534  0.8648393496857878  0.7827509114869287
  0.3413701911028681  0.7839124166926084  0.4523064193830422
  0.4221173637795417  0.8110067254323994  0.1035753685352887
  0.5760630712252706  0.7564485521002950  0.7664241939165279
  0.4873336321531667  0.7903579027793128  0.4473658570302703
  0.4389608475844966  0.7536626067048005  0.7597980060550498
  0.5130100803616671  0.7213773168601847  0.1220168667071491
  0.9756670630134536  0.9794655504452052  0.2391856728810566
  0.9301873168690378  0.0406335108793243  0.8920148193606465
  0.8702968933245145  0.0824314906675880  0.5439005421979886
  0.7913429886949075  0.1212534228703248  0.2234490898050439
  0.7117584796597214  0.1631003011801724  0.8922901396622791
  0.6527132894205963  0.2052006204797436  0.5436846935655453
  0.5576362277445170  0.2568643809933917  0.2284408732875960
  0.5173203652872544  0.2885016099414415  0.8844090059129286
  0.4356434883796751  0.3308960590853403  0.5570932563317470
  0.3559342000841355  0.3774359927418871  0.2283147401196359
  0.2832680290038780  0.4137024824456006  0.8811903864291182
  0.2181660617938093  0.4757287772069745  0.5469801561564651
  0.0896036081919078  0.0432229837970723  0.8924814640637706
  0.0049139495980839  0.0964497071890094  0.5603655090588830
  0.9170115878580560  0.1279295386374528  0.2334940771652398
  0.8549255168047907  0.1595264526426448  0.9061554329616754
  0.7956660893704921  0.2111648909901334  0.5630044306059787
  0.7110389655605118  0.2519146448138585  0.2280596990564305
  0.6529057276940193  0.2855775502611664  0.8958662803667465
  0.5700129935124991  0.3382183980505076  0.5435903179545463
  0.5027414908671375  0.3698249907499260  0.2270210259988019
  0.4335059845702105  0.4061192795912660  0.8898734857000150
  0.3515279135556284  0.4497500688175862  0.5444136428039243
  0.2802062894288824  0.4767180120284493  0.2375862534075779
  0.1417606831203955  0.0940239704600785  0.5593960711101928
  0.0576565372721234  0.1221152721223859  0.2230340012833594
  0.0215263079816168  0.1640328863263534  0.8979487284832643
  0.9441241135714264  0.2110778139256979  0.5634218993725284
  0.8669405970178943  0.2515959960666052  0.2280091200372070
  0.7906527902057121  0.2751227856253564  0.9002493972946084
  0.7037559665011557  0.3403968759777740  0.5643240397410878
  0.6524010472845418  0.3731649018956134  0.2223125325684876
  0.5705912257108636  0.4186620847787950  0.8949961667161901
  0.4897317261082037  0.4565098579257736  0.5543620616443334
  0.4254157356413444  0.4795379299678260  0.2120371980551496
  0.3450653870623768  0.5392699512885812  0.8798246344793128
  0.1947875619803270  0.1313748095157692  0.2284503356976444
  0.1423791005387258  0.1776541992014486  0.8789557098745462
  0.0785128024243278  0.2240994853476153  0.5564726571146821
  0.0077417843329997  0.2637966323648868  0.2291838365568069
  0.9213561097904659  0.2725848066951286  0.8829122797724409
  0.8677588367357814  0.3353946684285916  0.5568788607382302
  0.7943147287479704  0.3723142884208031  0.2359122001007705
  0.7161315246776638  0.4117405536928374  0.8898971434477616
  0.6582714586190548  0.4452743521674236  0.5508948071299713
  0.5579651985808738  0.4898199364081677  0.2220814946404630
  0.4883033665600180  0.5266083178555974  0.8942351967890190
  0.4347585022435538  0.5789178642467050  0.5552400976731562
  0.2841992212626892  0.1610664706022504  0.9104385645318942
  0.2168226822499122  0.2206142730978939  0.5676083655249897
  0.1423064087218293  0.2544355816485719  0.2287225070304828
  0.0766758141987367  0.2953133277482678  0.8845936572740243
  0.9967448484796790  0.3526271544687418  0.5383057988053537
  0.9335723780274137  0.3876481437034371  0.2173799227400153
  0.8523130503874654  0.4234751089028848  0.8870810786251653
  0.7901991904297532  0.4620496723808287  0.5498524743435667
  0.7176046486159038  0.5088875918780289  0.2363077117866723
  0.6345254447822910  0.5310554247078443  0.8793211577800477
  0.5747523241603432  0.5799788573747193  0.5620571396579734
  0.4940950308684933  0.5904352756815854  0.2178237692880813
  0.3756044081587717  0.2078180382023973  0.5477387884738789
  0.2831801113052350  0.2488136815020425  0.2220190156888577
  0.2007909278301696  0.3112736007618864  0.8872958583653059
  0.1564340409413916  0.3568115708708461  0.5397916448107907
  0.0713662067797713  0.3758590662410199  0.2258147676817259
  0.0053668874226531  0.4100647970982081  0.8818851987269767
  0.9185922878268613  0.4730723631293614  0.5613927688272753
  0.8410591100594260  0.4991523311028416  0.2278362536229039
  0.7794800952073899  0.5436358850297083  0.8920575457681394
  0.7123365078784971  0.5720758829628849  0.5529147474408163
  0.6281964980877461  0.6151121246026889  0.2240366416454549
  0.5647630526199663  0.6729101013460195  0.8762238231202844
  0.4239919246337536  0.2504629551771913  0.2327009827607753
  0.3497085535583508  0.3044261053378037  0.8931133831173597
  0.2960815303187516  0.3341631174689113  0.5497200148146248
  0.2124930958763969  0.3705803850741631  0.2155018272804412
  0.1478512051890135  0.4255775742471144  0.8729828094382910
  0.0577295630126926  0.4775827848911547  0.5457986524721932
  0.0002175364180204  0.5130851210687268  0.2061355899794606
  0.9120955269511342  0.5341664317751480  0.8952568890152151
  0.8444588792886805  0.5870685175725043  0.5576542495144352
  0.7862630215025703  0.6302281201744080  0.2213245134645092
  0.7162308170607901  0.6757038101546087  0.8880968170092558
  0.6337494878215395  0.7005011245901827  0.5564556982467934
  0.1417718591894683  0.4968765567302142  0.2168380257791682
  0.0755088372338193  0.5355019607729545  0.8804392242994297
  0.9815491799355414  0.6010991233631628  0.5580328927705480
  0.9277548158477771  0.6331845229306197  0.2186246969246710
  0.8491038739365635  0.6695582194819139  0.8970733031011662
  0.7710116120555099  0.7222283760418122  0.5600320137982706
  0.7218783699155509  0.7332046775109475  0.2129194222296888
  0.2031104801891956  0.5424632551238986  0.8868049353367553
  0.1249909400983853  0.5974058525436163  0.5521946706114917
  0.0609428259237177  0.6228117869216589  0.2175726829541418
  0.9999201621131348  0.6718059660764695  0.8786164670568439
  0.9152142769172258  0.7172855473771094  0.5672728664142994
  0.8579270943801234  0.7607156154965935  0.2199359960896317
  0.7702131461926953  0.7946043870601258  0.8766065602080957
  0.2882906860787742  0.5893437900812586  0.5484700779059679
  0.2097137184673343  0.6081462399725126  0.2183444821987663
  0.1322958219672046  0.6576278236308184  0.8878051752130673
  0.0624685200023265  0.7175667630154052  0.5762906138163615
  0.9931305633497942  0.7516493967419677  0.2276314405929298
  0.9223001904155694  0.7940631743813995  0.9063792220600106
  0.8605889079456475  0.8352603452483223  0.5689477478757823
  0.3401382196329124  0.6200397320640008  0.2279167009039469
  0.2814978184441514  0.6608643293469925  0.8922292498374276
  0.2061747753976633  0.7093266639016846  0.5587676214346899
  0.1325986416074443  0.7558327213749223  0.2161851560918677
  0.0778350205553977  0.7932298724262523  0.8892518864958703
  0.9966049573761069  0.8305827556692051  0.5660402057682319
  0.9270279605952467  0.8648277142453011  0.2331482263364393
  0.4287061247432433  0.6612734347027640  0.8818829407888771
  0.3409844633909103  0.7052514763906288  0.5669586956240877
  0.2777311913901670  0.7567076024670385  0.2383745210010204
  0.2236477664082344  0.7842915481951849  0.8881890587115606
  0.1485805992757179  0.8362513033470194  0.5542556022101337
  0.0634806196398756  0.8680671429326665  0.2347611637231211
  0.9936834358958606  0.9242611214954053  0.9013481694896299
  0.9370055759000024  0.9500400124779844  0.5792831276943033
  0.8456656825026059  0.9826466797162823  0.2179034095166728
  0.7892158054370384  0.0283736187147525  0.8838071153258156
  0.7234879870294861  0.0839872029174131  0.5410574045124292
  0.6489291589334059  0.1115936658102399  0.2240131441023578
  0.5710998781419576  0.1717597808443614  0.8826907822035039
  0.5184782162681003  0.2002055200056105  0.5693876340960244
  0.0776435274195393  0.9661792477155302  0.5528745989500550
  0.1364856101902774  0.0109953029275758  0.2262577925349802
  0.2163628339998738  0.0398130400063863  0.8935827159855805
  0.2852810287244694  0.1045313472479776  0.5594432156345945
  0.3499051971663789  0.1266616509646781  0.2170292954871371
  0.4339771729832123  0.1785912291674450  0.8994284703470683
  0.8580122784070809  0.9156253043523250  0.8863072677786263
  0.7849865741334270  0.9527814542217925  0.5678295732613279
  0.7173177900155778  0.9889541031138620  0.2049367170105469
  0.6498233079498306  0.0428536858081756  0.8805183550600120
  0.5782408852335408  0.0842205762825898  0.5475635263110306
  0.4944609221105125  0.1286650690116318  0.2156043995986252
  0.1283445709266644  0.9176491709103090  0.8848825803284157
  0.2126860821213725  0.9660127963069911  0.5460858972536968
  0.2798952071563363  0.0075836830260982  0.2125557141811285
  0.3423835598251657  0.0447281376715054  0.8971619117754699
  0.4272214390133087  0.0968493825469778  0.5395922972571441
  0.7816156440628248  0.8875153207645141  0.2314416570845310
  0.7097301661152571  0.9159988610520671  0.8812582270685567
  0.6461126999062046  0.9744210047043325  0.5426916684969640
  0.5705413337008665  0.9910572178577866  0.2243434658466938
  0.4880422232074793  0.0442152391820656  0.8762221711175116
  0.2041381820527661  0.8754106916761017  0.2251127926857066
  0.2901777640017400  0.9185558875787123  0.9010322752074700
  0.3497442020820003  0.9663516527852636  0.5529137685559604