Li                                      
   1.00000000000000     
    21.6499999999999986    0.0000000000000006    0.0000000000000000
     0.0000000000000006   21.6499999999999986    0.0000000000000000
    -0.0000000000000006   -0.0000000000000006   21.6499999999999986
   Li
   500
Direct
  0.0028671926096990  0.0158933325635076  0.9861707080831437
  0.0118052623556579  0.0907082346420296  0.1087142471131628
  0.0041381916859109  0.1962421357967656  0.2039273348729793
  0.0117214771362555  0.2904008674364889  0.2991062466512702
  0.0014408346420325  0.3958124628175526  0.3918319279445726
  0.0092541538106232  0.4906459182448017  0.4925200424942275
  0.9980730771362616  0.5974042004618951  0.5938537889145508
  0.0021253741339464  0.6929098919168624  0.6881880143187047
  0.0174974586605074  0.7960947247113168  0.7980764775981513
  0.0168228193995361  0.8949252558891487  0.8879452748267909
  0.0955904263279450  0.0016855801385702  0.1058146300230973
  0.1052666794457267  0.0853443482678955  0.2108699510392640
  0.1120002789838352  0.1773118207852207  0.2827766826789855
  0.1073680526558860  0.2904214706697488  0.4104184600461878
  0.0861660438799063  0.3875431103926132  0.4962574572748295
  0.1044116840646652  0.5069620009237852  0.5992322669745960
  0.0893848240184738  0.5931363921478052  0.6968331829099341
  0.0928529939953791  0.6954282974595856  0.7935002688221715
  0.1020443445727466  0.7885555288683577  0.9218329981524249
  0.0990401381062327  0.8995831330254020  0.9903245570438770
  0.2003549196304846  0.9993613999999980  0.1928800060046214
  0.2095592812933020  0.0760451750577360  0.3001744748267896
  0.2181417972286397  0.1871778290993049  0.4039671565819845
  0.2069314660508113  0.3098373284064664  0.5046222739030028
  0.2126891348729814  0.4138042558891470  0.5927652424942238
  0.2052231990762152  0.5013773496535805  0.6920590212471112
  0.1957311233256362  0.5928444161662796  0.7954579237875308
  0.1877797408775947  0.6832038905311748  0.8998140323325643
  0.2061911875288658  0.7894722988452685  0.0051139053117808
  0.2043905695150130  0.8833294060046200  0.0925990327944604
  0.3117369228637443  0.9917662545034673  0.2957135214780635
  0.3076113713625901  0.0956737551963016  0.4000116577367194
  0.3071969436489610  0.2053880822170910  0.4990737722863727
  0.3065978378752874  0.3052186799076182  0.6002641265588906
  0.3024669681293304  0.4060109376443393  0.7034092859122367
  0.3164161935334846  0.5044280577367175  0.7980490725173226
  0.3028231838337163  0.6040637676674336  0.8946666157043879
  0.2957629136258646  0.6791701030023063  0.0091774563510398
  0.3006095556581982  0.7860233039261004  0.0831072240184767
  0.3024069870669734  0.8792836642032356  0.1833891450346385
  0.4051404799076224  0.0115919542725180  0.4086638822170912
  0.4003657224018511  0.1149040000000028  0.5026973464203266
  0.3902408937644353  0.2152582221709025  0.5964289362586612
  0.3916965136258668  0.2913997995381052  0.7066816886836023
  0.4130895621247106  0.3960887173210139  0.8102715602771369
  0.4058132096997724  0.4998713168591209  0.9002027939953834
  0.3886717376443443  0.6024321154734409  0.9968190000000021
  0.3955068960739041  0.6865886983833747  0.1159925778290969
  0.4062387879907590  0.8097030254041542  0.1947389584295607
  0.3987901237875278  0.8898205796766732  0.2926319053117794
  0.5020789117782911  0.0030794628175528  0.5160687870669776
  0.5035332886836059  0.1154432503464236  0.5990711390300234
  0.4979999806004614  0.2145131131639744  0.7011103233256364
  0.5042627981524248  0.2912684674364883  0.8194732281755179
  0.5153490189376413  0.3826878383371835  0.9040539907621223
  0.4940065085450343  0.4924664203233249  0.0082489750577395
  0.5014279787528864  0.5966898937644345  0.0981136060046168
  0.4901431418013829  0.6921364531177829  0.1878005011547330
  0.5140292757505804  0.8014690133949216  0.2829795173210172
  0.4968341145496566  0.9029403648960752  0.4039201787528839
  0.5942576027713642  0.0059311057736693  0.6062268859122426
  0.5752795870669729  0.1053082886836023  0.6959777847575026
  0.5987896023094663  0.2092290217090067  0.7929136023094685
  0.6189232877598130  0.2870095348729791  0.9103042706697480
  0.6078587769053101  0.3971449454965352  0.0202648845265614
  0.6011516577367217  0.5058593986143194  0.1147353288683632
  0.6077774933025424  0.5915028023094706  0.2039141103926099
  0.5991280817551967  0.6989907436489631  0.2924689722863718
  0.5925351515011528  0.8022433593533478  0.3855995071593554
  0.5947425575057750  0.8997766642032303  0.4895149505773659
  0.6975613912240206  0.0079683367205519  0.6933706494226328
  0.6883070434180141  0.0943863163972267  0.7989573159353327
  0.7020122822170904  0.1897574521939944  0.9070300009237897
  0.6945257297921472  0.2986468198614318  0.0235690415704397
  0.7143182290993053  0.4036567588914579  0.1097879274826781
  0.7109678725173225  0.5077543233256350  0.2130203496535827
  0.6952037256351034  0.5944154725173192  0.3172336346420295
  0.7011332928406446  0.7117546110854533  0.3848495782909964
  0.6859350457274829  0.7861283150115455  0.4892543685912258
  0.7028287473441139  0.8980994055427232  0.5971889681293305
  0.7990312683602738  0.0093067676674394  0.7926514988452666
  0.8000085034642055  0.1008272424942263  0.8989979916859099
  0.8030558979214746  0.1991331718244780  0.0147226069284088
  0.8148947062355631  0.2914169006928375  0.1067723030023089
  0.8123055307159319  0.3862505214780612  0.2104173205542708
  0.8091131750577389  0.5021120988452665  0.3109662799076247
  0.8028629127020750  0.6007571755196324  0.4115124905311802
  0.8046243519630494  0.7208436799076239  0.5110954872979221
  0.7959375755196305  0.7878714757505776  0.6111359025404184
  0.7902579122401860  0.9055761302540404  0.7046063404157010
  0.9082059127020798  0.0128998725173233  0.9008282332563482
  0.9155871967667437  0.1020007732101647  0.0127300503464198
  0.8984270069284079  0.2009692581986116  0.1036496055427278
  0.9082978586605108  0.3050349265588892  0.2058563357967671
  0.9026575667436489  0.3851267131639702  0.3066763833718227
  0.9021675598152399  0.4929640157043877  0.4013752711316414
  0.9010951163972294  0.6081615399538123  0.5134929995381086
  0.8971846692840657  0.6989956933025425  0.6180288988452673
  0.8798529598152456  0.8103480484988452  0.7072627307159323
  0.9014715334872960  0.9044538013856780  0.8141751981524266
  0.1000818027713635  0.1061923071593540  0.9917563912240155
  0.1000704115473425  0.2008942554272508  0.0961457117782913
  0.1097452942263288  0.3018498018475739  0.2046596226327964
  0.0900739367205574  0.3819250568129320  0.3041356877598176
  0.0944820979214782  0.4998020946882207  0.4183222882217095
  0.1055971002309448  0.6183681921478055  0.4982363422632829
  0.1048512230946912  0.6968716785219371  0.6116633408775982
  0.1200531685912267  0.7950715288683625  0.6929004170900726
  0.1056314466512731  0.8967171722863725  0.7892432517321026
  0.1059321260969952  0.0129397755196337  0.8991628748267928
  0.1958581117782927  0.0966606198614315  0.0825833413394932
  0.1891777487297901  0.1943429367205525  0.1882546281755211
  0.2001039612009237  0.3004137815242487  0.3106216933025436
  0.1895129879907600  0.4179677394919139  0.4131422411085452
  0.2091820050808337  0.5010762198614316  0.5037648189376469
  0.1984510452655854  0.6083095080831384  0.6183917450346428
  0.2036362083140872  0.6874579709006952  0.7239857002309478
  0.1902294392609676  0.8026430600461865  0.8064553325635089
  0.1886950859122436  0.9029638859122429  0.9083602027713624
  0.1886955371824470  0.0047999672055425  0.0036916290993076
  0.2972830277136254  0.0852218877598148  0.1913154739030034
  0.2857572443418022  0.1928415339491920  0.2951071284064639
  0.2883333570438822  0.3053811875288659  0.3896272637413389
  0.3146275025404179  0.4031658914549681  0.5101795330254077
  0.3074879764434186  0.5034642739029991  0.5961245916859141
  0.3081833926096991  0.6085416027713606  0.6955506545034638
  0.3053132831408760  0.7030301866050834  0.7924089418013835
  0.2942233524249431  0.7891967491916887  0.9218067829099326
  0.3003696591224028  0.8873221108545053  0.9990012027713604
  0.2952560013856811  0.0019482290993054  0.1005690124711336
  0.3947374646651269  0.0949672614318686  0.3024511838337176
  0.3868310212471116  0.2097369630484991  0.3937816332563528
  0.3972016466512684  0.2991469127020778  0.4939827713625888
  0.4170728064665141  0.3890291524249392  0.5925867893764405
  0.3987257542725189  0.5005796429561187  0.6967935020785205
  0.4094492115473471  0.6012669695150095  0.8066481755196335
  0.4083280836027683  0.6926221722863772  0.8969024064665092
  0.4066518877598142  0.7931386803695162  0.0136745187067007
  0.4016663745958411  0.9099052831408798  0.0876733090069308
  0.3987200351039277  0.9931127745958435  0.1991458720554249
  0.4857487293302540  0.0963364138568110  0.3928025016166288
  0.4995087528868396  0.1997963431870673  0.4915780637413363
  0.5105502628175529  0.2974919140877574  0.5897552545034657
  0.5006238974595831  0.3963760406466506  0.7030060060046210
  0.5094384517321018  0.4975072087759784  0.8080620618937644
  0.5192170822170894  0.6022647103926104  0.9023028743648993
  0.5006639533487274  0.6945562249422608  0.0018104785219393
  0.4932833561200951  0.7934308983833702  0.0965906157043861
  0.4963013741339495  0.9095472207852211  0.2019124563510388
  0.4901694332563480  0.9968636351039279  0.3071701450346396
  0.5906404309468840  0.1091745454965363  0.4939039344110867
  0.6079134591224005  0.2011134739029998  0.6089697542725148
  0.6084551279445733  0.3057610577367171  0.6972994314087728
  0.6015341824480345  0.3979753806004638  0.8003803593533476
  0.6155974535796744  0.5059409182448036  0.9060702854503475
  0.6065789829099302  0.5989008087759800  0.0020513048498856
  0.5993536258660512  0.6880153454965381  0.0957574032332573
  0.5821286346420322  0.7936400438799112  0.1777100480369498
  0.6060454503464214  0.9020082087759818  0.2986670743648929
  0.5851211861431835  0.9958710877598165  0.3977239515011561
  0.6858410808314090  0.0965558960739017  0.5998863704387958
  0.6966190581986140  0.1909432004618949  0.7078712207852220
  0.7224070494226353  0.2960297995381040  0.8082922933025429
  0.7082339191685918  0.3906749006928436  0.9064445362586611
  0.6991841210161667  0.4844264521939934  0.0039268891454967
  0.7031282803695120  0.5910338734411056  0.1048703893764440
  0.6992747200923759  0.6930360009237901  0.1978362609699786
  0.6805295709006955  0.7944374443418027  0.2798133547344079
  0.6909306290993058  0.8975718586605055  0.3969192891454938
  0.6987223127020812  0.0174305722863721  0.4918772600461878
  0.8022384069284030  0.1025043612009213  0.6832161187066959
  0.8068543976905289  0.1763049316397201  0.7970039653579661
  0.8014544013856835  0.2714076083140853  0.9156470309468787
  0.7973788286374131  0.3864578392609701  0.9851567667436498
  0.8033786004618904  0.5061134309468827  0.0918737584295641
  0.8020481090069254  0.5946152230946851  0.2216762775981493
  0.8159752461893746  0.6992843210161652  0.2963425718244821
  0.7976793284064669  0.8027281958429597  0.3832438055427261
  0.7808068859122415  0.8964199538106215  0.5014756046189390
  0.7913870078521938  0.9984690387990796  0.6004486946882253
  0.9089453939953813  0.0899989066974598  0.7843790568129307
  0.9023003889145471  0.1868049256351014  0.8980946849884504
  0.9090601182448026  0.3050363182448024  0.0001937898383346
  0.8999552018475754  0.4092004919168559  0.1039316905311765
  0.8985116983833734  0.4911219704387975  0.2183754300230945
  0.9037893898383373  0.6091459607390277  0.3018643556581964
  0.9059948521939987  0.7056148060046183  0.4005885233256379
  0.9005123002309503  0.8125230295611985  0.5000109796766736
  0.8927498466512702  0.9081184175519610  0.5858540933025438
  0.8984292586605065  0.9909789935334885  0.6965820101616629
  0.0031473806004598  0.1198358678983809  0.8862343829099331
  0.9866744050808336  0.1922839926097026  0.9990633515011567
  0.9940292739030028  0.2946838360277155  0.1029682605080851
  0.0049189976905311  0.3994372221709028  0.2051657842956089
  0.9969300013856781  0.4973348337182415  0.3136755561200957
  0.9925433903002343  0.6164769607390284  0.4100108900692874
  0.0078527404157072  0.7008591745958412  0.5037117570438809
  0.9980212475750605  0.8032716725173188  0.5966612799076216
  0.9951274258660519  0.8975682314087763  0.6967322868360242
  0.0088567810623559  0.9916774854503458  0.7952833491916849
  0.2050797787528893  0.2143785205542699  0.9923326106235564
  0.2117254415704366  0.3053728424942292  0.1079015394919196
  0.2028747658198640  0.4108190295612033  0.2100290882217095
  0.1909297926097011  0.5063811085450354  0.3082493177829093
  0.1937448226327945  0.5935052545034623  0.4092383210161685
  0.2052922073903005  0.7052955043879905  0.4987687612009211
  0.2075676387990768  0.7767835376443415  0.5908947297921472
  0.2017307852193966  0.8975488614318721  0.6823722743648943
  0.2024703995381074  0.0061958822170922  0.7813085810623548
  0.2162041625866067  0.1017782240184744  0.8975648138568104
  0.3072455011547319  0.2091843325635097  0.1044086494226306
  0.3103534166281747  0.3126049621247091  0.2134063427251718
  0.2964392812933028  0.4213826060046202  0.3124987205542737
  0.2905549722863725  0.4959656129330270  0.4107600401847549
  0.3004975889145527  0.6070900023094694  0.5184887279445718
  0.3096074461893750  0.7057093912240191  0.6113979501154745
  0.2941261986143218  0.8030633357967645  0.7047072739030042
  0.2795628110854480  0.8961338240184773  0.8080280872979202
  0.2899611981524259  0.0042171930715966  0.9010684965357996
  0.2969310318706704  0.1012795847575063  0.9947304198614333
  0.3958604083140855  0.2071332147805975  0.1972258013856845
  0.3820379242494241  0.3064608069284063  0.3025603648960740
  0.3966859256351043  0.4046766124711283  0.4025649265588882
  0.4039250096997691  0.4957214378752894  0.4975940748267931
  0.4088324739030043  0.5999767755196288  0.5873172027713593
  0.3981133284064668  0.7113588212471100  0.7082652688221742
  0.4002300203233276  0.8073778267898390  0.7913602443418029
  0.3979952535796798  0.9002260023094664  0.8995394789838329
  0.3966096886836041  0.0057575274826789  0.9966502979214766
  0.3881427168591216  0.0890388166281753  0.0843112706697440
  0.4892056660508075  0.2013828073903028  0.2952285769053091
  0.4894631778291014  0.3047237099307125  0.4030237173210196
  0.5014482628175543  0.4048003879907611  0.5059103898383341
  0.4877535260969950  0.4969407796766774  0.6128458808314079
  0.4966282415704413  0.6013982572748233  0.7004446471131658
  0.5070857704387990  0.7069405653579679  0.8033639108545003
  0.4978123824480392  0.8124295787528837  0.8934608651270182
  0.4857012956120101  0.9082975085450329  0.9907679745958404
  0.5028012434180127  0.9891810138568147  0.0812131066974615
  0.4994298711316389  0.0871546341801377  0.1958013875288671
  0.5880411722863741  0.2084355833718234  0.3857140471131615
  0.6030743773672071  0.2966375690531180  0.4984579685912252
  0.6116699233256355  0.3960299648960728  0.6077289316397199
  0.5966526475750555  0.4998506295612017  0.7081537445727477
  0.6066681381062367  0.5918171981524267  0.8046605242494209
  0.6036919307159323  0.7082054323325622  0.9100972725173193
  0.6122901080831440  0.8137203713625851  0.0014927408775947
  0.6026597367205540  0.9128993575057720  0.0872148480369503
  0.5858077057736750  0.0081192563510371  0.1994366979214774
  0.5853081293302509  0.0908276531177847  0.3101601491916881
  0.6909347995381054  0.2029079385681314  0.4825292258660525
  0.6852487658198640  0.2936737191685879  0.5976100799076178
  0.7007126050808310  0.3998044023094707  0.7100811159353384
  0.7248231445727455  0.4864246762124722  0.8099751122401813
  0.7084462849884545  0.6017106073903022  0.9182705367205557
  0.7074943168591190  0.7118624323325662  0.0032904632794484
  0.7092068942263268  0.7981431510392625  0.1008264193995387
  0.6874342628175540  0.8976142909930687  0.1968225773672074
  0.6995019334872978  0.0292728748267876  0.3052550120092405
  0.6791761145496551  0.1200662531177841  0.3865335870669782
  0.7937605228637423  0.1933850378752879  0.5858079796766731
  0.7900009695150132  0.2814666702078554  0.7009880494226337
  0.8039530822170917  0.3826362900692857  0.8173609385681289
  0.8037963644341772  0.4917274831408776  0.9066492448036954
  0.8110383191685884  0.6113959085450347  0.0092910942263273
  0.8069775353348732  0.6968769459584294  0.1091773833718221
  0.7977072494226363  0.8020740720554258  0.1972481436489630
  0.7751392013856844  0.9022929173210130  0.2976240531177794
  0.7864175491916825  0.0039970896073882  0.4029472840646662
  0.7874445408776012  0.1004849016166247  0.4846465325635094
  0.9023640956120076  0.1985197644341810  0.6935962734411092
  0.8870081103926069  0.2836205450346441  0.7872856438799047
  0.9014684429561228  0.4021306665127042  0.9005873709006949
  0.9018988766743661  0.5075687575057728  0.0054987695150146
  0.8997264387990782  0.5927231242494244  0.1155883727482703
  0.9215279593533481  0.7104694360277151  0.2058123210161682
  0.9006079034642056  0.8061999214780613  0.3038060595842964
  0.8980409381062344  0.9045591020785224  0.3921981713625868
  0.8939788415704371  0.0055176882217083  0.4880589893764409
  0.8934297228637433  0.0796561912240179  0.6039901159353320
  0.0001034244803719  0.2050838900692824  0.7818860660508093
  0.9998858965357940  0.2965963621247099  0.8808128909930701
  0.9948530762124719  0.4031139445727447  0.9876684129330258
  0.0102324554272499  0.5018710665126989  0.0985051870669764
  0.9980998692840615  0.5802670526558913  0.2025420415704389
  0.0078903214780581  0.7042136290993071  0.2961673140877608
  0.0044392272517300  0.7890849695150095  0.4073031122401858
  0.9909606383371852  0.9162944064665126  0.4810186494226301
  0.0162430618937677  0.9822582032332576  0.5932410794457255
  0.0077621759815258  0.0887328050808307  0.7044439385681329
  0.0939751829099293  0.2062057108545048  0.8836782762124713
  0.0952815242494225  0.2915746254041593  0.9816891999999982
  0.0963678997690565  0.3868648360277120  0.0962728004618967
  0.0894773459584286  0.4806384988452663  0.2021032193995396
  0.0949464323325628  0.5925241316397205  0.3005937852193981
  0.1080722734411097  0.7103014364896083  0.3967852023094665
  0.0883664032332589  0.8078669547344077  0.4968703949191706
  0.0994178748267913  0.8885136581986117  0.5819715473441107
  0.1122392304849882  0.0028481108545009  0.6955188281755227
  0.1132004170900700  0.1110574244803715  0.7846453676674372
  0.2977879801385654  0.3048274397228639  0.9941341866050806
  0.2952222849884549  0.4046929399538115  0.0991266540415694
  0.3009931066974616  0.5002537695150124  0.2076588152424961
  0.2954705334872969  0.6001610092378726  0.3113439607390305
  0.2913253418013824  0.7040448729792175  0.4058024706697481
  0.3180119501154763  0.8033704605080842  0.5155157390300218
  0.3132400554272508  0.8974382877598117  0.6078002498845265
  0.3004724715935367  0.0090174933025438  0.6954476115473440
  0.2993872591224047  0.0968530752886849  0.7963796632794455
  0.2962934563510373  0.2017529815242511  0.9043940157043906
  0.3985159565819885  0.3234085214780578  0.0969314554272529
  0.3842643976905293  0.4008040960739052  0.1939540383371821
  0.3945733099307134  0.5043406364896086  0.3106105852194005
  0.3883505704387957  0.6067672406466542  0.4057696360277134
  0.4051499773672020  0.7035418300230916  0.5023260254041588
  0.4099326249422646  0.8099447745958415  0.6059692480369492
  0.3921557999999976  0.8997736272517329  0.7080092300230945
  0.3929880429561194  0.0082611598152411  0.8141139505773651
  0.3952779090069285  0.1130539884526556  0.9127171140877621
  0.4025163769053108  0.2144436124711291  0.0092073445727507
  0.4843984120092344  0.3135278309468816  0.1941981288683579
  0.4720890868360286  0.4109479163972267  0.2831682078521922
  0.4886805224018502  0.4922798655889125  0.3963581672055412
  0.4980828642032336  0.5853741889145496  0.4875240951501141
  0.4995229288683589  0.6931354133949199  0.5926904281755228
  0.4933283274826792  0.8013656152424957  0.6977906480369498
  0.4979063321016142  0.9039093889145491  0.7971565385681316
  0.4886637094688240  0.0052665034642061  0.9040018295612029
  0.5031166665127031  0.0914178535796779  0.0050016697459583
  0.4895533339491891  0.1945104572748235  0.1030566318706718
  0.5846593057736698  0.3140984951501125  0.2730885076212459
  0.5815652143187080  0.4029913949191695  0.3823531653579693
  0.6074310129330271  0.5058100535796797  0.4934339524249438
  0.5903375621247093  0.5874962207852192  0.6086112688221732
  0.5805133852193975  0.6954049071593502  0.7027163727482701
  0.6020985330254049  0.7981310120092360  0.7990924739030021
  0.5998060115473436  0.9120624023094663  0.8951867450346427
  0.6110261427251729  0.0020369404157066  0.9926171625866047
  0.5933587140877563  0.1035069265588930  0.0972374096997726
  0.5835841390300232  0.1950104087759783  0.1948214840646685
  0.6985296212471113  0.3057645487297904  0.3768812295611994
  0.6928317006928424  0.3856577616628201  0.4955607847575081
  0.6895824554272494  0.5000826752886809  0.6002980558891480
  0.6975337219399549  0.5991755491916848  0.7090582933025402
  0.6891998535796802  0.7008696600461874  0.8035065944572750
  0.7050980688221742  0.8147999080831383  0.9049030577367176
  0.7076186475750603  0.9146414489607366  0.0010011478060079
  0.6952824826789836  0.9976113685912225  0.1069612568129301
  0.6923541108545024  0.1109485819861433  0.2020273413394946
  0.6823577903002302  0.2122982004618947  0.2873471260969964
  0.7910515066974568  0.3042152281755222  0.4895311972286365
  0.7827914254041559  0.3828349861431875  0.5824032854503471
  0.8091538249422641  0.5025109815242530  0.7010261094688204
  0.8022043325635124  0.6054571889145492  0.8154270138568123
  0.7896900009237839  0.6956491939953793  0.9050455117782903
  0.7998228448036926  0.8008416073903035  0.0034543362586632
  0.7977333284064656  0.8990142826789835  0.0911601390300234
  0.7843085958429583  0.0031248665126995  0.1994679949191678
  0.7981004498845294  0.1190987505773649  0.2971524143187096
  0.7855316799076206  0.2074501598152452  0.3904177741339510
  0.8931504120092413  0.2892277159353327  0.5991301491916872
  0.8889909570438803  0.3947055187067008  0.7003426979214780
  0.8948915247113192  0.4980268263279441  0.7980491944572776
  0.9000341464203245  0.6008019653579666  0.9067609842956088
  0.9009494729792138  0.6925496263279456  0.0146172295612033
  0.8954035362586623  0.8059930138568134  0.1057865260969990
  0.8891926170900675  0.9042963856812918  0.2080045053117772
  0.9032916808314084  0.9897244087759844  0.2977765695150083
  0.9091359538106261  0.1062631778290992  0.4026610605080805
  0.8913387875288663  0.1890531353348734  0.5034992290993046
  0.9854719399538112  0.2908939367205576  0.6816101755196300
  0.9923714526558882  0.3932915759815216  0.7882699251732106
  0.9955533150115485  0.4996860655889179  0.9027565963048474
  0.0033136314087727  0.6087569173210170  0.9991522581986132
  0.0199798836027725  0.6898778184757504  0.1088729422632824
  0.0018099353348759  0.8097271159353383  0.1986510600461884
  0.0012863787528872  0.8972299071593568  0.3047638757505808
  0.9906337630484998  0.0154006133949167  0.3937374046189390
  0.9990435325635119  0.0888676535796762  0.4967051099307156
  0.9963742600461885  0.1934402739030006  0.6049850023094692
  0.1188541385681319  0.3050287053117771  0.7819843251732124
  0.0913828277136233  0.3983110595842945  0.8953199884526555
  0.1061818392609695  0.5024215242494208  0.9943764993071582
  0.1075854484988454  0.6049450928406443  0.1213266845265579
  0.0949592323325632  0.7106454498845238  0.2055803949191670
  0.0968835524249414  0.8149164909930704  0.3072300249422639
  0.1109484355658168  0.9174911519630484  0.4088476508083119
  0.1191050840646639  0.0093618563510418  0.4963427736720547
  0.1161016919168603  0.0938312743648950  0.5957802101616636
  0.0900026581986140  0.1956804157043877  0.6865137912240158
  0.2024856360277170  0.3081547519630519  0.9024413556581976
  0.2001026161662836  0.4056958886836028  0.9991409736720556
  0.1887452360277138  0.4962201348729778  0.1129927588914583
  0.1933225926096966  0.6076761136258639  0.1909322609699800
  0.1836406836027749  0.6963715653579712  0.3079735819861398
  0.2106271584295598  0.8112845251732068  0.4111407173210182
  0.2168474688221735  0.9038435565819896  0.4965931136258632
  0.2081451612009246  0.9989964674364913  0.6070477519630515
  0.2051079381062380  0.1062445861431840  0.6963997607390269
  0.2027032933025410  0.2157490314087767  0.7913140133949170
  0.4018979524249389  0.4001634669745968  0.9928135464203223
  0.3819817413394944  0.5007952332563477  0.0910174729792175
  0.3992935127020800  0.6018771949191688  0.2076704628175534
  0.4010795376443426  0.7134757625866044  0.3003014960738994
  0.4012834064665114  0.8056671847575032  0.4067829311778297
  0.4002463163972294  0.8971792263279426  0.5233545556582015
  0.4221778401847587  0.0032216050808316  0.6085480868360307
  0.4024322720554281  0.1151709085450321  0.6983793339491911
  0.3984707325635100  0.1979839224018463  0.8074690831408802
  0.3961636484988418  0.2922084803695171  0.9052708032332575
  0.4927861496535826  0.4079091431870694  0.1036708554272536
  0.4908562868360278  0.4946943893764413  0.1956949422632803
  0.4917583016166276  0.6050011515011562  0.2965407833718245
  0.4852273339491902  0.7150772831408787  0.3945415658198641
  0.4976321090069291  0.8016523464203260  0.5105695879907586
  0.5018068152424959  0.8983537376443422  0.6080045764434203
  0.4812462669745941  0.0150872859122373  0.7126536304849864
  0.4953554554272515  0.1026197117782885  0.8180251057736712
  0.5124288803695123  0.2020497699769024  0.9272413418013841
  0.5137003861431850  0.2953059431870670  0.0170846383371810
  0.6204772942263261  0.4263472198614338  0.2002800314087736
  0.5953776882217099  0.5088250092378743  0.2957888651270224
  0.5795774993071561  0.6063650300230918  0.4025972785219381
  0.5934206785219374  0.6934428799076215  0.4986208050808330
  0.6103439381062330  0.8154128170900705  0.6090784152424931
  0.5941777759815210  0.8996639833718234  0.7052891510392598
  0.5970805422632779  0.0073161556581951  0.7906326013856813
  0.5955760526558862  0.1167299930715942  0.9018872364896069
  0.6024981639722853  0.2104741450346452  0.0044018854503491
  0.5999850401847553  0.2976443879907649  0.1240620780600494
  0.7022871228637442  0.3926926258660473  0.2946577884526533
  0.6986278600461873  0.4991733612009241  0.3967240836027699
  0.6950583935334862  0.6136667815242518  0.4822347861431879
  0.6886714397228673  0.7047845210161654  0.5988746180138591
  0.6949724411085469  0.8065395307159378  0.7033127145496536
  0.7031195949191655  0.9352514369515035  0.8072628914549682
  0.6997206484988467  0.0007717852193991  0.9045651256351022
  0.7065330997690538  0.1001905986143186  0.0047085182448043
  0.7025011667436516  0.1977629381062371  0.1017307505773672
  0.7076329053117760  0.2878062023094685  0.1927683672055451
  0.8053931316397254  0.4013351990762146  0.3803139672055451
  0.8032702808314056  0.4890354521939955  0.4957943635103916
  0.7863309505773657  0.5873500480369529  0.5849041214780613
  0.7983507565819892  0.6874150789838325  0.7075582683602804
  0.7914744859122393  0.7965921612009268  0.8018835256351053
  0.7927564739030046  0.9123191658198593  0.8975323117782921
  0.8047434411085419  0.0124472526558890  0.0034985025404168
  0.8172325108545024  0.1000043099307177  0.1038678244803677
  0.8150667713625879  0.1964511621247098  0.2013173390300196
  0.8065625621247108  0.2857818032332560  0.3131570448036953
  0.9040259454965351  0.4072030632794466  0.4910130101616659
  0.8867774831408752  0.4884093408775954  0.5940069528868364
  0.9007305782909896  0.5852514138568097  0.7010366087759792
  0.9038743117782886  0.7056334545034630  0.7984318586605070
  0.9063312060046158  0.7973599316397255  0.8974755177829081
  0.9003746762124720  0.9123011048498810  0.9982746337182462
  0.9062896240184770  0.9945341644341781  0.1068453667436486
  0.9084058050808324  0.0992213422632773  0.2025409011547339
  0.9113970466512669  0.2067589473441132  0.3018300110854497
  0.9044694674364919  0.2909886886836048  0.4006490180138584
  0.0008883325635125  0.3972295113163966  0.6024353515011569
  0.0022852993071609  0.4962289598152410  0.6950999182448072
  0.9886883279445726  0.5992236300230971  0.7884512526558893
  0.9969744346420342  0.6989285658198625  0.8929034244803660
  0.9978563099307181  0.7923303764434166  0.9982230240184791
  0.0176751163972284  0.8937500600461874  0.0886237228637441
  0.0064363870669766  0.9871222406466487  0.2047151718244820
  0.0057226152424974  0.0952491769053125  0.3037887903002314
  0.0127641676674344  0.2008685136258634  0.3920210434180120
  0.0071486147805970  0.2886407635103936  0.5017333006928411
  0.0954576023094660  0.3968090614318740  0.6820908471131659
  0.0881476323325643  0.5018359778291028  0.7946947815242495
  0.0859041547344077  0.5910596046189340  0.8922132360277146
  0.0980502605080815  0.6846536526558893  0.0066259196304870
  0.1054813491916846  0.7927280545034634  0.1011983270207821
  0.1094604471131646  0.9009253907621257  0.1861592517321000
  0.1006484175519660  0.0041510392609680  0.3001524868360264
  0.1066389321016175  0.0975334101616596  0.4014704466512669
  0.0982696041570463  0.1887981436489596  0.5142259815242483
  0.1096145801385688  0.2899736300230913  0.5887333487297894
  0.2008337565819858  0.4047480267898393  0.7858156461893770
  0.1950750969976909  0.5032289006928394  0.8811953459584316
  0.1957535260970005  0.5871140946882250  0.9912418203233244
  0.2080366498845265  0.6846496217090063  0.1012074969976879
  0.1940961163972261  0.7961760808314082  0.1938677237875268
  0.2089293893764435  0.8993441621247129  0.3064419445727466
  0.2229755963048490  0.9872606517321003  0.3935514494226311