Li 
 1.0000000000000000
    21.6499999999999986    0.0000000000000006    0.0000000000000000
     0.0000000000000006   21.6499999999999986    0.0000000000000000
    -0.0000000000000006   -0.0000000000000006   21.6499999999999986
 Li 
 500
Cartesian
  0.0620747200000000  0.3440906500000000 -0.2994041700000000
  0.2555839300000000  1.9638332800000000  2.3536634500000000
  0.0895918500000000  4.2486422399999997  4.4150267999999997
  0.2537699800000000  6.2871787799999996  6.4756502400000002
  0.0311940700000000  8.5693398199999997  8.4831612399999994
  0.2003524300000000 10.6224841300000001 10.6630589199999992
 -0.0417178800000000 12.9338009399999994 12.8569345300000002
  0.0460143500000000 15.0014991599999998 14.8992705099999991
  0.3788199800000000 17.2354507900000016 17.2783557399999985
  0.3642140400000000 19.3751317900000011 19.2240152000000002
  2.0695327300000002  0.0364928100000000  2.2908867399999999
  2.2790236099999999  1.8477051400000000  4.5653344400000000
  2.4248060400000000  3.8388009200000002  6.1221151799999998
  2.3245183400000000  6.2876248400000003  8.8855596600000002
  1.8654948499999999  8.3903083400000007 10.7439739500000009
  2.2605129599999998 10.9757273200000007 12.9733785800000003
  1.9351814400000000 12.8414028899999995 15.0864384099999995
  2.0102673200000001 15.0560226400000001 17.1792808199999989
  2.2092600600000001 17.0722272000000004 19.9576844099999988
  2.1442189900000002 19.4759748299999984 21.4405266599999997
  4.3376840100000003 -0.0138256900000000  4.1758521300000000
  4.5369584400000003  1.6463780400000001  6.4987773799999999
  4.7227699100000002  4.0523999999999996  8.7458889400000004
  4.4800662400000002  6.7079781599999997 10.9250722299999996
  4.6047197700000000  8.9588621400000008 12.8333674999999996
  4.4430822599999997 10.8548196200000007 14.9830778099999993
  4.2375788200000004 12.8350816099999996 17.2216640500000011
  4.0654313899999996 14.7913642299999992 19.4809738000000010
  4.4640392100000001 17.0920752699999987  0.1107160500000000
  4.4250558299999998 19.1240816400000000  2.0047690600000001
  6.7491043800000003 -0.1782605900000000  6.4021977400000001
  6.6597861900000002  2.0713368000000001  8.6602523900000001
  6.6508138299999997  4.4466519800000004 10.8049471700000002
  6.6378431899999999  6.6079844200000002 12.9957183399999998
  6.5484098599999996  8.7901368000000009 15.2288110400000001
  6.8504105900000001 10.9208674499999994 17.2777624199999984
  6.5561219299999998 13.0779805699999994 19.3695322300000008
  6.4032670800000000 14.7040327299999998  0.1986919300000000
  6.5081968799999999 17.0174045300000003  1.7992714000000001
  6.5471112700000003 19.0364913300000005  3.9703749899999998
  8.7712913900000000  0.2509658100000000  8.8475730499999994
  8.6679178900000000  2.4876716000000001 10.8833975499999998
  8.4487153500000005  4.6603405100000002 12.9126864700000006
  8.4802295200000000  6.3088056600000000 15.2996585599999992
  8.9433890199999997  8.5753207299999996 17.5423792799999987
  8.7858559899999999 10.8222140099999997 19.4893904900000017
  8.4147431200000007 13.0426552999999998 -0.0688686500000000
  8.5627242999999993 14.8646453199999993  2.5112393100000001
  8.7950697600000005 17.5300705000000008  4.2160984499999996
  8.6338061800000006 19.2646155499999985  6.3354807500000003
 10.8700084399999994  0.0666703700000000 11.1728892399999999
 10.9014956999999999  2.4993463700000000 12.9698901600000003
 10.7816995799999997  4.6442088999999998 15.1790385000000008
 10.9172895800000003  6.3059623199999999 17.7415953900000005
 11.1573062600000004  8.2851917000000004 19.5727688999999998
 10.6952409100000008 10.6618980000000008  0.1785903100000000
 10.8559157400000004 12.9183362000000006  2.1241595700000002
 10.6115990199999999 14.9847542100000002  4.0658808500000001
 11.1287338200000008 17.3518041399999987  6.1265065500000002
 10.7564585800000003 19.5486588999999995  8.7448718700000008
 12.8656770999999992  0.1284084400000000 13.1248120799999999
 12.4548030599999997  2.2799244500000002 15.0679190399999996
 12.9637948900000008  4.5298083199999999 17.1665794900000002
 13.3996891799999993  6.2137564300000001 19.7080874600000016
 13.1601425200000008  8.5981880700000008  0.4387347500000000
 13.0149333899999995 10.9518559799999995  2.4840198700000000
 13.1583827299999996 12.8060356700000000  4.4147404899999998
 12.9711229699999997 15.1331495999999994  6.3319532499999998
 12.8283860300000008 17.3685687299999998  8.3482293300000006
 12.8761763699999996 19.4801647799999991 10.5979986799999999
 15.1022041199999997  0.1725144900000000 15.0114745599999999
 14.9018474899999998  2.0434637499999999 17.2974258899999995
 15.1985659099999992  4.1082488399999999 19.6371995199999994
 15.0364820500000000  6.4657036500000000  0.5102697500000000
 15.4649896600000005  8.7391688300000006  2.3769086300000000
 15.3924544399999998 10.9928811000000000  4.6118905699999999
 15.0511606600000007 12.8690949799999999  6.8681081900000001
 15.1795357899999992 15.4094873299999993  8.3319933699999993
 14.8504937399999992 17.0196780200000006 10.5923570799999993
 15.2162423800000006 19.4438521299999998 12.9291411600000004
 17.2990269599999991  0.2014915200000000 17.1609049499999990
 17.3201840999999988  2.1829098000000000 19.4633065199999997
 17.3861601899999982  4.3112331700000004  0.3187444400000000
 17.6424703899999997  6.3091758999999996  2.3116203600000000
 17.5864147399999986  8.3623237899999996  4.5555349900000000
 17.5173002400000009 10.8707269400000008  6.7324199599999996
 17.3819820599999986 13.0063928499999992  8.9092454199999995
 17.4201172200000016 15.6062656700000009 11.0652173000000005
 17.2320485099999985 17.0574174499999991 13.2310922899999994
 17.1090838000000005 19.6057232200000016 15.2547272700000001
 19.6626580100000012  0.2792822400000000 19.5029312499999996
 19.8224628100000011  2.2083167399999999 21.9256055900000000
 19.4509447000000009  4.3509844400000004  2.2440139600000002
 19.6646486399999993  6.6040061600000000  4.4567896700000000
 19.5425363200000000  8.3379933400000006  6.6395436999999999
 19.5319276700000017 10.6726709399999997  8.6897746199999997
 19.5087092700000007 13.1666973400000007 11.1171234400000003
 19.4240480899999994 15.1332567600000001 13.3803256600000005
 19.0488165800000004 17.5440352500000003 15.3122381200000000
 19.5168587000000002 19.5814248000000006 17.6268930399999988
  2.1667710300000000  2.2990634499999998 -0.1784741300000000
  2.1665244100000001  4.3493606299999996  2.0815546600000001
  2.3759856199999998  6.5350482100000002  4.4308808300000004
  1.9501007299999999  8.2686774799999991  6.5845376399999997
  2.0455374200000001 10.8207153500000004  9.0566775400000008
  2.2861772199999999 13.3876713600000006 10.7868168099999995
  2.2700289800000002 15.0872718399999997 13.2425113299999992
  2.5991510999999998 17.2132986000000017 15.0012940300000004
  2.2869208200000002 19.4139267800000006 17.0871163999999993
  2.2934305300000002 21.9301461400000015 19.4668762400000013
  4.2403281200000000  2.0927024200000002  1.7879293400000000
  4.0956982599999998  4.2075245800000003  4.0757127000000004
  4.3322507600000000  6.5039583700000003  6.7249596599999997
  4.1029561899999996  9.0490015600000007  8.9445295199999997
  4.5287904100000000 10.8483001600000009 10.9065083299999994
  4.2964651299999996 13.1699008499999994 13.3881812799999995
  4.4087239100000000 14.8834650699999997 15.6742904099999993
  4.1184673600000004 17.3772222499999991 17.4597579500000002
  4.0852486099999998 19.5491681300000018 19.6659983899999986
  4.0852583800000000 21.7539192899999989 21.7299237699999992
  6.4361775500000000  1.8450538700000001  4.1419800100000002
  6.1866443400000000  4.1750192100000003  6.3890693299999999
  6.2424171800000003  6.6115027099999999  8.4354302600000004
  6.8116854299999998  8.7285415499999992 11.0453868899999996
  6.6571146900000002 10.9000015300000008 12.9060974099999992
  6.6721704500000003 13.1749256999999993 15.0586716700000007
  6.6100325800000004 15.2206035400000008 17.1556535900000000
  6.3699355799999999 17.0861096199999984 19.9571168499999985
  6.5030031199999998 19.2105236999999995 -0.0216239600000000
  6.3922924300000004 21.6921791599999985  2.1773191199999999
  8.5460661099999999  2.0560412100000001  6.5480681299999999
  8.3748916100000006  4.5408052500000000  8.5253723600000004
  8.5994156499999992  6.4765306599999999 10.6947270000000003
  9.0296262600000006  8.4224811499999994 12.8295039899999992
  8.6324125800000004 10.8375492700000002 15.0855793200000008
  8.8645754300000004 13.0174298900000007 17.4639330000000008
  8.8403030099999995 14.9952700300000004 19.4179370999999996
  8.8040133699999998 17.1714524299999987  0.2960533300000000
  8.6960770099999998 19.6994493800000008  1.8981271399999999
  8.6322887599999998 21.5008915700000003  4.3115081300000000
 10.5164599899999995  2.0856833600000000  8.5041741599999998
 10.8143644999999999  4.3255908300000003 10.6426650800000004
 11.0534131900000006  6.4406999400000000 12.7682012599999997
 10.8385073799999994  8.5815412799999997 15.2200800300000001
 11.0293424800000004 10.7710310699999994 17.4945436399999998
 11.2410498299999997 13.0390309799999997 19.5348572300000001
 10.8393745900000003 15.0371422700000004  0.0391968600000000
 10.6795846599999997 17.1777789500000004  2.0911868299999998
 10.7449247499999991 19.6916973300000002  4.3714046800000004
 10.6121682300000000 21.5820976999999985  6.6502336399999997
 12.7873653300000001  2.3636289100000001 10.6930201799999995
 13.1613263899999993  4.3541067099999999 13.1841951799999997
 13.1730535199999998  6.6197268999999999 15.0965326900000001
 13.0232150499999992  8.6161669900000000 17.3282347799999989
 13.3276848700000006 10.9536208800000008 19.6164216799999984
 13.1324349799999993 12.9662025100000005  0.0444107500000000
 12.9760059999999999 14.8955322300000006  2.0731477800000002
 12.6030849400000005 17.1823069500000010  3.8474225400000002
 13.1208840000000002 19.5284777200000015  6.4661421600000004
 12.6678736799999996 21.5606090500000001  8.6107235499999994
 14.8484593999999994  2.0904351499999998 12.9875399199999997
 15.0818026100000004  4.1339202899999998 15.3254119299999996
 15.6401126200000000  6.4090451599999998 17.4995281499999997
 15.3332643500000003  8.4581116000000005 19.6245242100000006
 15.1373362199999999 10.4878326899999994  0.0850171500000000
 15.2227272700000000 12.7958833599999995  2.2704439299999999
 15.1392976899999994 15.0042294199999997  4.2831550500000004
 14.7334652100000003 17.1995706700000000  6.0579591300000004
 14.9586481199999994 19.4324307400000009  8.5933026100000003
 15.1273380700000004 22.0273718900000013 10.6491426800000006
 17.3684615099999995  2.2192194199999999 14.7916289699999997
 17.4683977100000014  3.8170017700000001 17.2551358499999985
 17.3514877900000002  5.8759747200000003 19.8237582199999984
 17.2632516400000000  8.3668122199999999 -0.3213560000000000
 17.3931466999999991 10.9573557800000003  1.9890668700000000
 17.3643415599999997 12.8734195800000002  4.7992914100000004
 17.6658640799999986 15.1395055500000009  6.4158166799999998
 17.2697574600000010 17.3790654400000015  8.2972283900000008
 16.9044690799999984 19.4074920000000013 10.8569468400000009
 17.1335287200000010 21.6168546900000003 12.9997142399999994
 19.6786677800000014  1.9484763300000001 16.9818065800000007
 19.5348034199999994  4.0443266400000004 19.4437499299999992
 19.6811515600000000  6.6040362899999998  0.0041955500000000
 19.4840301199999999  8.8591906500000004  2.2501210999999999
 19.4527782699999996 10.6327906599999995  4.7278280600000002
 19.5670402900000013 13.1880100500000008  6.5353633000000002
 19.6147885500000001 15.2765605499999992  8.6727415299999997
 19.4960912999999998 17.5911235899999987 10.8252377099999997
 19.3280341799999995 19.6607637400000002 12.6837411200000005
 19.4509934499999986 21.4546952100000006 15.0810005199999999
 21.7181407899999996  2.5944465399999999 19.1869743899999996
 21.3615008700000004  4.1629484400000001 21.6297215600000001
 21.5207337800000005  6.3799050499999996  2.2292628400000001
 21.7564962999999985  8.6478158599999997  4.4418392300000002
 21.5835345300000014 10.7672991499999995  6.7910757899999998
 21.4885644000000013 13.3467262000000009  8.8767357699999998
 21.8200118299999986 15.1736011299999998 10.9053595399999992
 21.6071600100000012 17.3908317100000005 12.9177167100000005
 21.5445087700000002 19.4323522100000012 15.0842540100000004
 21.8417493100000009 21.4698175599999992 17.2178845100000011
  4.4399772100000003  4.6412949699999997 -0.1659989800000000
  4.5838558100000002  6.6113220400000001  2.3360683299999998
  4.3922386800000002  8.8942319899999998  4.5471297599999998
  4.1336300100000001 10.9631509999999999  6.6735977300000000
  4.1945754099999997 12.8493887600000001  8.8600096500000003
  4.4445762899999997 15.2696476699999995 10.7983436800000003
  4.4938393799999998 16.8173635899999994 12.7928709000000005
  4.3674714999999997 19.4319328499999990 14.7733597400000001
  4.3834841500000001  0.1341408500000000 16.9153307800000015
  4.6808201199999999  2.2034985499999999 19.4322782200000006
  6.6518651000000002  4.5288408000000002  2.2604472599999998
  6.7191514699999999  6.7678974299999997  4.6202473199999998
  6.4179104400000000  9.1229334200000007  6.7655972999999996
  6.2905151500000001 10.7376555200000006  8.8929548700000005
  6.5057727999999999 13.1434985500000003 11.2252809599999992
  6.7030012100000000 15.2786083200000000 13.2367656199999999
  6.3678321999999996 17.3863212199999992 15.2569124800000004
  6.0525348599999997 19.4012972899999987 17.4938080900000017
  6.2776599400000004  0.0913022300000000 19.5081329500000002
  6.4285568399999997  2.1927030099999998 21.5359135899999998
  8.5703778400000008  4.4844340999999996  4.2699385999999997
  8.2711210600000005  6.6348764700000000  6.5504319000000004
  8.5882502899999995  8.7612486599999997  8.7155306600000007
  8.7449764600000002 10.7323691300000004 10.7729117199999997
  8.8512230600000006 12.9894971899999998 12.7154174399999995
  8.6191535600000009 15.4009184799999996 15.3339430700000001
  8.6649799400000003 17.4797299499999994 17.1329492899999991
  8.6165972400000008 19.4898929500000015 19.4750297199999984
  8.5865997600000004  0.1246504700000000 -0.0725210500000000
  8.4032898199999995  1.9276903800000000  1.8253390100000000
 10.5913026699999993  4.3599377800000001  6.3916986900000001
 10.5968777999999997  6.5972683200000004  8.7254634800000002
 10.8563548900000004  8.7639283999999993 10.9529599399999995
 10.5598638400000002 10.7587678800000006 13.2681133199999994
 10.7520014300000000 13.0202722699999995 15.1646266099999991
 10.9784069300000002 15.3052632400000004 17.3928286700000001
 10.7776380799999991 17.5891003800000014 19.3434277299999984
 10.5154330500000004 19.6646410600000010 -0.1998733500000000
 10.8856469199999992 -0.2342310500000000  1.7582637600000000
 10.8126567100000006  1.8868978300000001  4.2391000400000003
 12.7310913800000005  4.5126303800000001  8.3507091199999994
 13.0565602700000003  6.4222033700000001 10.7916150200000001
 13.2426538399999991  8.5740487400000003 13.1573313699999996
 12.9175298200000004 10.8217661300000003 15.3315285699999997
 13.1343651900000005 12.8128423399999996 17.4209003500000001
 13.0699302999999993 15.3326476100000004 19.7036059500000000
 13.2560808399999992 17.6170460400000017  0.0323178400000000
 13.0475832999999994 19.7642710900000012  1.8882014600000001
 12.6827368299999996  0.1757819000000000  4.3178045100000002
 12.6719209999999993  1.9664186900000000  6.7149672300000001
 14.9587384100000005  4.3929568699999999 10.4467577400000007
 14.8356357800000005  6.3580360200000001 12.9382582300000006
 15.1704279000000000  8.6557653099999996 15.3732561600000004
 15.6924210800000008 10.5310942399999998 17.5359611800000010
 15.3378620699999999 13.0270346499999992 19.8805571199999989
 15.3172519600000001 15.4118216599999993  0.0712385300000000
 15.3543292600000001 17.2797992200000010  2.1828919800000000
 14.8829517899999999 19.4333494000000009  4.2612088000000004
 15.1442168600000002  0.6337577400000000  6.6087710099999999
 14.7041628800000002  2.5994343799999999  8.3684521600000004
 17.1849153200000018  4.1867860700000001 12.6827427600000000
 17.1035209899999998  6.0937534099999997 15.1763912699999999
 17.4055842299999988  8.2840756800000008 17.6958643199999983
 17.4021912900000011 10.6459000100000001 19.6289561500000005
 17.5589796100000015 13.2367214200000003  0.2011521900000000
 17.4710636400000006 15.0873858799999994  2.3636903500000002
 17.2703619500000016 17.3649036599999995  4.2704223099999998
 16.7817637099999999 19.5346416599999984  6.4435607499999996
 17.0259399400000007  0.0865369900000000  8.7238086999999993
 17.0481743100000003  2.1754981199999999 10.4925974300000000
 19.5361826699999988  4.2979529000000003 15.0163593199999994
 19.2037255900000012  6.1403847999999996 17.0447341899999998
 19.5167917899999992  8.7061289300000002 19.4977165799999987
 19.5261106799999986 10.9888636000000002  0.1190483600000000
 19.4790774000000013 12.8324556399999992  2.5024882700000002
 19.9510803199999991 15.3816632900000005  4.4558367499999996
 19.4981611100000016 17.4542283000000005  6.5774011899999998
 19.4425863099999994 19.5837045600000010  8.4910904100000000
 19.3546419199999988  0.1194579500000000 10.5664771200000001
 19.3427535000000006  1.7245565400000000 13.0763860100000002
  0.0022391400000000  4.4400662200000003 16.9278333299999986
 -0.0024703400000000  6.4213112399999996 19.0695990900000005
 -0.1114309000000000  8.7274168999999997 -0.2669788600000000
  0.2215326600000000 10.8655085899999992  2.1326372999999998
 -0.0411378300000000 12.5627816899999996  4.3850351999999999
  0.1708254600000000 15.2462250699999995  6.4120223500000000
  0.0961092700000000 17.0836895899999988  8.8181123800000005
 -0.1957021800000000 19.8377738999999984 10.4140537599999998
  0.3516622900000000 -0.3841099000000000 12.8436693700000006
  0.1680511100000000  1.9210652300000000 15.2512112700000007
  2.0345627099999999  4.4643536399999997 19.1316346800000012
  2.0628449999999998  6.3125906399999998 21.2535711800000016
  2.0863650300000001  8.3756237000000002  2.0843061299999999
  1.9371845400000001 10.4058235000000003  4.3755347000000002
  2.0555902599999998 12.8281474499999995  6.5078554500000001
  2.3397647199999998 15.3780260999999996  8.5903996300000003
  1.9131326300000000 17.4903195700000005 10.7572440500000006
  2.1523969900000002 19.2363207000000003 12.5996839999999999
  2.4299793400000000  0.0616616000000000 15.0579826299999997
  2.4507890300000001  2.4043932400000001 16.9875722099999997
  6.4471097700000000  6.5995140699999997 -0.1269948600000000
  6.3915624700000002  8.7616021499999999  2.1460920600000000
  6.5165007599999996 10.8304941100000001  4.4958133499999997
  6.3969370500000000 12.9934858500000008  6.7405967499999999
  6.3071936500000003 15.2425715000000004  8.7856234900000008
  6.8849587200000002 17.3929704700000016 11.1609157499999991
  6.7816472000000001 19.4295389299999997 13.1588754100000003
  6.5052290099999999  0.1952287300000000 15.0564407899999999
  6.4817341600000002  2.0968690799999998 17.2416197099999984
  6.4147533299999999  4.3679520500000004 19.5801304400000014
  8.6278704600000005  7.0017944900000000  2.0985660099999999
  8.3193242099999996  8.6774086799999992  4.1991049299999998
  8.5425121599999994 10.9189747799999992  6.7247191700000002
  8.4077898500000003 13.1365107600000002  8.7849126200000001
  8.7714970099999992 15.2316806200000006 10.8753584500000002
  8.8750413300000002 17.5353043699999986 13.1192342199999992
  8.4901730700000009 19.4800990300000016 15.3283998300000004
  8.5081911300000002  0.1788541100000000 17.6255670299999991
  8.5577667300000009  2.4476188500000000 19.7603255199999985
  8.7144795599999991  4.6427042099999998 21.8493390100000013
 10.4872256200000002  6.7878775400000002  4.2043894899999996
 10.2207287299999994  8.8970223900000001  6.1305917000000001
 10.5799333099999995 10.6578590900000005  8.5811543199999996
 10.7834940100000001 12.6733511900000000 10.5548966600000007
 10.8146714100000008 15.0063817000000004 12.8317477699999998
 10.6805582900000005 17.3495655699999993 15.1071675299999999
 10.7796720900000000 19.5696382699999987 17.2584390600000006
 10.5795693100000001  0.1140198000000000 19.5716396099999983
 10.8924758300000004  1.9791965300000001  0.1082861500000000
 10.5988296799999997  4.2111514000000003  2.2311760800000000
 12.6578739700000007  6.8002324200000004  5.9123661900000002
 12.5908868900000002  8.7247637000000005  8.2779460300000007
 13.1508814300000001 10.9507876599999996 10.6828450700000008
 12.7808082200000008 12.7192931799999993 13.1764339699999997
 12.5681147899999992 15.0555162399999993 15.2138094699999993
 13.0354332399999997 17.2795364099999986 17.3003520600000016
 12.9858001499999993 19.7461510099999984 19.3807930299999995
 13.2287159899999995  0.0440997600000000 -0.1598384300000000
 12.8462161600000009  2.2409249600000001  2.1051899199999999
 12.6345966099999991  4.2219753500000001  4.2178851300000000
 15.1231662999999994  6.6198024799999997  8.1594786199999998
 14.9998063199999994  8.3494905399999997 10.7288909900000000
 14.9294601599999996 10.8267899199999995 12.9964529100000004
 15.1016050800000006 12.9721506400000006 15.3511120499999993
 14.9211768300000003 15.1738281399999995 17.3959177700000005
 15.2653731900000000 17.6404180100000012 19.5911511999999988
 15.3199437199999995 19.8019873699999991  0.0216748500000000
 15.0528657500000005 -0.0517138700000000  2.3157112099999999
 14.9894665000000007  2.4020367999999999  4.3738919400000000
 14.7730461599999998  4.5962560400000001  6.2210652800000004
 17.1262651199999993  6.5862596900000003 10.5983504199999992
 16.9474343599999990  8.2883774500000005 12.6090311300000000
 17.5181803100000018 10.8793627500000003 15.1772152699999996
 17.3677238000000003 13.1081481400000008 17.6539948500000001
 17.0967885200000005 15.0608050500000008 19.5942353300000001
 17.3161645899999996 17.3382207999999984  0.0747863800000000
 17.2709265599999995 19.4636592200000003  1.9736170099999999
 16.9802810999999991  0.0676533600000000  4.3184820899999998
 17.2788747399999991  2.5784879500000000  6.4333497700000004
 17.0067608700000008  4.4912959600000004  8.4525448099999991
 19.3367064199999987  6.2617800499999996 12.9711677299999995
 19.2466542199999999  8.5453744799999996 15.1624194100000000
 19.3744015099999984 10.7822807899999997 17.2777650600000001
 19.4857392699999998 13.0073625499999999 19.6313753099999992
 19.5055560899999989 14.9936994099999996  0.3164630200000000
 19.3854865600000004 17.4497487500000013  2.2902782899999998
 19.2510201599999995 19.5780167499999997  4.5032975400000002
 19.5562648900000013 -0.2224665500000000  6.4468627300000003
 19.6827934000000013  2.3005977999999998  8.7176119599999993
 19.2974847499999989  4.0930003800000003 10.9007583100000005
 -0.3145325000000000  6.2978537299999999 14.7568602999999996
 -0.1651580500000000  8.5147626200000008 17.0660438799999987
 -0.0962707300000000 10.8182033200000003 19.5446803100000004
  0.0717401200000000 13.1795872599999999 -0.0183536100000000
  0.4325644800000000 14.9358547700000006  2.3570991999999999
  0.0391851000000000 17.5305920600000000  4.3007954499999999
  0.0278501000000000 19.4250274900000015  6.5981379100000002
 -0.2027790300000000  0.3334232800000000  8.5244148099999997
 -0.0207075200000000  1.9239847000000001 10.7536656300000004
 -0.0784972700000000  4.1879819300000003 13.0979253000000000
  2.5731921000000000  6.6038714699999996 16.9299606400000009
  1.9784382199999999  8.6234344400000005 19.3836777500000004
  2.2988368200000000 10.8774259999999998 -0.1217487900000000
  2.3292249599999999 13.0970612600000003  2.6267227200000001
  2.0558673800000000 15.3854739899999995  4.4508155499999997
  2.0975289099999999 17.6429420300000004  6.6515300399999999
  2.4020336300000000 19.8636834399999991  8.8515516400000003
  2.5786250700000002  0.2026841900000000 10.7458210500000000
  2.5136016300000001  2.0314470899999999 12.8986415500000007
  1.9485575500000001  4.2364810000000004 14.8630235800000001
  4.3838140200000000  6.6715503800000002 19.5378553500000010
  4.3322216400000002  8.7833159900000002 21.6314020800000009
  4.0863343600000004 10.7431659199999991  2.4462932300000002
  4.1854341300000000 13.1561878599999993  4.1336834500000004
  3.9758208000000002 15.0764443900000007  6.6676280500000003
  4.5600779800000000 17.5643099700000000  8.9011965300000000
  4.6947476999999997 19.5682130000000001 10.7512409099999999
  4.5063427400000000 -0.0217264800000000 13.1425838299999995
  4.4405868599999998  2.3001952900000000 15.0770548200000007
  4.3885262999999997  4.6709665300000003 17.1319483900000016
  8.7010906699999992  8.6635390599999997 -0.1555867200000000
  8.2699046999999997 10.8422167999999992  1.9705282900000001
  8.6447045500000002 13.0306412700000003  4.4960655200000001
  8.6833719899999995 15.4467502600000000  6.5015273899999997
  8.6877857499999998 17.4426945499999988  8.8068504599999997
  8.6653327499999993 19.4239302500000015 11.3306261300000006
  9.1401502400000005  0.0697477500000000 13.1750660800000006
  8.7126586899999996  2.4934501700000000 15.1199125799999994
  8.6268913600000001  4.2863519200000004 17.4817056499999985
  8.5769429899999992  6.3263135999999998 19.5991128900000007
 10.6688201399999993  8.8312329500000004  2.2444740200000002
 10.6270386099999996 10.7101335300000002  4.2367955000000004
 10.6465672300000005 13.0982749300000005  6.4201079600000002
 10.5051717799999995 15.4814231800000002  8.5418248999999999
 10.7737351599999993 17.3557732999999992 11.0538315800000007
 10.8641175499999996 19.4493584199999994 13.1632990799999998
 10.4189816799999999  0.3266397400000000 15.4289511000000008
 10.7244456100000001  2.2217167600000001 17.7102435400000005
 11.0940852599999999  4.3743775200000004 20.0747750499999995
 11.1216133599999996  6.3933736699999999 22.0198824199999983
 13.4333334200000003  9.2304173100000000  4.3360626800000004
 12.8899269499999996 11.0160614500000005  6.4038289300000004
 12.5478528600000008 13.1278029000000007  8.7162310800000000
 12.8475576900000004 15.0130383500000004 10.7951404300000000
 13.2139462600000002 17.6536874899999994 13.1865476899999994
 12.8639488499999999 19.4777252400000016 15.2695101199999996
 12.9267937400000008  0.1583947700000000 17.1171958199999992
 12.8942215400000002  2.5272043499999999 19.5258586700000016
 13.0440852500000002  4.5567652399999998  0.0953008200000000
 12.9896761200000004  6.4440010000000001  2.6859439900000002
 15.2045162099999995  8.5017953500000001  6.3793411200000003
 15.1252931700000008 10.8071032700000007  8.5890764100000005
 15.0480142200000007 13.2858858200000007 10.4403831199999999
 14.9097366699999991 15.2585848800000008 12.9656354799999995
 15.0461533500000009 17.4615808399999999 15.2267202699999995
 15.2225392300000006 20.2481936100000013 17.4772415999999993
 15.1489520399999993  0.0167091500000000 19.5838349700000016
 15.2964416100000005  2.1691264600000002  0.1019394200000000
 15.2091502599999995  4.2815676099999997  2.2024707499999998
 15.3202523999999993  6.2310042799999996  4.1734351500000004
 17.4367613000000006  8.6889070600000000  8.2337973899999994
 17.3908015800000015 10.5876175400000001 10.7339479699999991
 17.0240650799999997 12.7161285399999997 12.6631742299999992
 17.2842938799999999 14.8825364600000007 15.3186365099999993
 17.1354226199999999 17.2462202900000001 17.3607783299999987
 17.1631776599999988 19.7517099400000014 19.4315745500000006
 17.4226954999999997  0.2694830200000000  0.0757425800000000
 17.6930838600000016  2.1650933100000000  2.2487384000000001
 17.6461955999999986  4.2531676599999999  4.3585203899999998
 17.4620794699999990  6.1871760399999998  6.7798500199999996
 19.5721617200000004  8.8159463200000001 10.6304316700000001
 19.1987325099999993 10.5740622299999991 12.8602505300000001
 19.5008170199999995 12.6706931100000002 15.1774425799999992
 19.5688788500000008 15.2769642900000004 17.2860497399999993
 19.6220706100000015 17.2628425199999995 19.4303449599999993
 19.4931117399999998 19.7513189199999992 -0.0373541800000000
 19.6211703600000007 -0.1183353400000000  2.3132021900000002
 19.6669856799999998  2.1481420600000001  4.3850105099999999
 19.7317460599999990  4.4763312099999997  6.5346197400000001
 19.5817639700000008  6.2999051100000001  8.6740512400000007
  0.0192324000000000  8.6000189200000001 13.0427253600000004
  0.0494767300000000 10.7433569799999997 15.0489132300000001
 -0.2448977000000000 12.9731915900000008 17.0699696199999984
 -0.0655034900000000 15.1318034499999996 19.3313591400000000
 -0.0464108900000000 17.1539526500000008 -0.0384715300000000
  0.3826662700000000 19.3496887999999991  1.9187036000000000
  0.1393477800000000 -0.2788034900000000  4.4320834700000002
  0.1238946200000000  2.0621446799999998  6.5770273100000001
  0.2763442300000000  4.3488033200000000  8.4872555900000002
  0.1547675100000000  6.2490725300000003 10.8625259599999993
  2.0666570900000001  8.5909161800000007 14.7672668399999996
  1.9083962400000001 10.8647489200000003 17.2051420200000003
  1.8598249499999999 12.7964404399999996 19.3164165600000004
  2.1227881399999999 14.8227515800000003  0.1434511600000000
  2.2836712100000001 17.1625623800000007  2.1909437800000000
  2.3698186799999998 19.5050347100000003  4.0303478000000004
  2.1790382400000001  0.0898700000000000  6.4983013400000003
  2.3087328800000000  2.1115983300000001  8.6918351699999992
  2.1275369300000002  4.0874798099999996 11.1329925000000003
  2.3731556600000001  6.2779290899999998 12.7460769999999997
  4.3480508300000000  8.7627947800000001 17.0129087400000003
  4.2233758500000000 10.8949057000000007 19.0778792400000015
  4.2380638399999997 12.7110201499999995 -0.1896145900000000
  4.5039934700000002 14.8226643100000004  2.1911423100000000
  4.2021809200000000 17.2372121500000013  4.1972362199999997
  4.5233212800000002 19.4708011100000000  6.6344681000000003
  4.8274216599999997 -0.2758068900000000  8.5203888800000005