Li                                      
   1.00000000000000     
    20.2271999999999998    0.0000000000000000    0.0000000000000000
     0.0000000000000000   20.2271999999999998    0.0000000000000000
     0.0000000000000000    0.0000000000000000   20.2271999999999998
   Li
   432
Direct
  0.9917813261351043  0.0084322936442049  0.9805072219585540
  0.9142265587921230  0.0807355036782127  0.0849274239637694
  0.8322111355007138  0.1801754429678866  0.1637071913067558
  0.7377824167457661  0.2639964127511476  0.2405741298845143
  0.6553642412197433  0.3443204210172439  0.3524536594288890
  0.5535091584598959  0.4167409977653875  0.4272309627630122
  0.4843439808772345  0.4993389579378231  0.4986383691267235
  0.4125566089226353  0.5723973590017408  0.5772886786109765
  0.3554277013130829  0.6551795933198861  0.6906994047619079
  0.2374051015464360  0.7368754538443270  0.7467906353820624
  0.1637962837169766  0.8398806953013747  0.8294774570874850
  0.0912063587644383  0.9128178932328765  0.8912094550901770
  0.0606848906423068  0.8820550783103940  0.0920759057111198
  0.0057599870471421  0.9939397183001120  0.1603045834322074
  0.9088364973896503  0.0808255566761602  0.2680939497310533
  0.8247239721760806  0.1583220218319852  0.3527898760085435
  0.7470656324157545  0.2659957319846527  0.3949988668723279
  0.6533379083610171  0.3377136182961564  0.4883654074711288
  0.5678865448504951  0.4353477114973927  0.5910796669830702
  0.4961298543545354  0.5107273661208680  0.6867757727218802
  0.4212417240151893  0.5667757984298376  0.7737977021040976
  0.3281839918525549  0.6553198663186208  0.8440068051930041
  0.2509486132534420  0.7343859461517184  0.9091711853345998
  0.1596860039946222  0.8287510169474785  0.9928232686679337
  0.1805401627511500  0.8293789036544865  0.1574754929006517
  0.0958067735524466  0.9070157347532017  0.2321738144676502
  0.0031303823564315  0.0019134388348334  0.3309475384630574
  0.9053734135223834  0.0823844956296469  0.4311486177028954
  0.8226648854018350  0.1746652853583299  0.4989187584045212
  0.7619506417101718  0.2706911895863016  0.5827069485643079
  0.6464609669158392  0.3194664679243786  0.6719783113826949
  0.5956660046867555  0.4423099188221826  0.7497954679837022
  0.5256143870629657  0.4993877526301205  0.8592989889851310
  0.4102949325660532  0.5679753450798941  0.9338496183357066
  0.3499740107380163  0.6883904010441384  0.9860714913581745
  0.2608642031521882  0.7648570939131503  0.0561052365132113
  0.2345908326411958  0.7506002452143647  0.2260381525866180
  0.1780982449375088  0.8280059222235394  0.3311877046748961
  0.0910756342944126  0.9116246648077819  0.3948290821270390
  0.0215061199770616  0.9919127931695968  0.4768795384432849
  0.9521004686758445  0.0834935433475721  0.5648635693521626
  0.8727664827558925  0.1370155636964085  0.6566698865883538
  0.7574133083175099  0.2410321166548002  0.7323899600537871
  0.6981060710330667  0.3103135372172119  0.8145805791211842
  0.5992827237581082  0.3946813300901724  0.9093658187984488
  0.5304488263328579  0.4973179851882605  0.9996856574315771
  0.4055980076332872  0.5802331088830854  0.0590150742564433
  0.3390963207957611  0.6638827133760472  0.1574008533064415
  0.3237092909547528  0.7011297772306619  0.3081996875494397
  0.2254158005062479  0.7608213222789146  0.4385525243236827
  0.1681316514396443  0.8387576758028814  0.5041197397563693
  0.0861057862679928  0.9210833625019745  0.5719465778753374
  0.0162045206454664  0.0138756580248369  0.6606929303116615
  0.9334681107617442  0.0710854468240782  0.7560748052127835
  0.8329921758819836  0.1502879968557167  0.8149929841994918
  0.7640012329931949  0.2433306265820292  0.9107913433396604
  0.6850941074394896  0.3237783603266919  0.9896440520684990
  0.6108146861651633  0.4030675130517309  0.0718164619917729
  0.4793323376443581  0.4848986013882310  0.1480384022504353
  0.4041357933871197  0.5917102728009809  0.2365507855758580
  0.4093997523137176  0.6002070251937965  0.4258501166745745
  0.3539397647721856  0.7028113401756073  0.5197615745135238
  0.2370339607063769  0.7745132475083025  0.6085588395823436
  0.1549761000039567  0.8428630324513549  0.6882703913542159
  0.0801747636845462  0.9400642436916655  0.7753746984258854
  0.9986715071784502  0.9976060201115331  0.8295434879765864
  0.9061460983230489  0.0910417902626151  0.9393204615567186
  0.8219250440001602  0.1709667759254856  0.0180542200601153
  0.7617301223105528  0.2533213000316437  0.1057514515108338
  0.6803544781284572  0.3388455980066425  0.1839650900767253
  0.5728803151202371  0.4275914318343581  0.2466329056913494
  0.4975289011825694  0.5188122765385259  0.3064055212782790
  0.0812671828033515  0.0942406116516352  0.9108690886529018
  0.9883538290025342  0.1768110643094474  0.0161249154603667
  0.9195415272504377  0.2771341886173104  0.0986142427028938
  0.8333898389297545  0.3568669534092734  0.1958742223342824
  0.7475335380082271  0.4329143405908908  0.2789436120669180
  0.6612423770961868  0.4970100359911385  0.3431006669237462
  0.5391772805924688  0.6022198089700979  0.4335367767165010
  0.4791363451194428  0.6794144424339521  0.5079501992366744
  0.4232952173311162  0.7757925862205326  0.6032107948702716
  0.3196519028832441  0.8187578191741807  0.6902085958511321
  0.2653393559167867  0.9320001423825346  0.7934965437628563
  0.1930692310354374  0.0191437846068681  0.8523051539511144
  0.1659186877076380  0.9882008790143999  0.9984541577677604
  0.0541266601408026  0.0613070810591694  0.0604212871776610
  0.9980757445419997  0.1521080134670143  0.1444422416350264
  0.9066430796155700  0.2492263506565422  0.2527582537375395
  0.8290195538680578  0.3360395986592337  0.3564038680588482
  0.7313347274956499  0.4138749149659873  0.4285021639178908
  0.6415219091124840  0.4945426267600084  0.4970674329615576
  0.5759110450284766  0.6006537494067388  0.5775030691346288
  0.4927384378460715  0.6747453750395493  0.6870067038443253
  0.4245144473777884  0.7500801183554842  0.7747119858408453
  0.3149500909666187  0.8302514915559271  0.8374517461635804
  0.2564995664254042  0.9030580317592154  0.9199290836101852
  0.2577359674102198  0.8909603074078447  0.0821383790143955
  0.1772467696962536  0.9849145086813778  0.1566195133285859
  0.0787471834954943  0.0674294721958546  0.2560713331553544
  0.9932452766571771  0.1633145516927712  0.3391769765464332
  0.9114331326135101  0.2558965477179242  0.4139721261469731
  0.8269610410734032  0.3294278155157429  0.5024983863312755
  0.7163253915519689  0.4205805924695483  0.5999982592746420
  0.6659650045483332  0.5433566939566532  0.6658275678294601
  0.5955109639495362  0.6189095188656850  0.7803994275035606
  0.4982637705663677  0.6451384398236044  0.8641677874347380
  0.3970186219545937  0.7674079106351854  0.9035469649778491
  0.3098818299122001  0.8479069584519863  0.9932268381189715
  0.3169496168525541  0.8297509546551183  0.1807687499999986
  0.2475415692730607  0.9205108324434406  0.2310345322140464
  0.1826395195578243  0.9892912083728831  0.3351402552009191
  0.0918074340492012  0.0767356707799394  0.4059054377274194
  0.0066092514040506  0.1502315347650693  0.5097627358210701
  0.9250796150727751  0.2668856648473366  0.5805759284527738
  0.8617490611651633  0.3483844615171634  0.6457219348204433
  0.7270986305568741  0.4116219209776943  0.7125545755220699
  0.6814397613115020  0.4855091910892284  0.8399924903100811
  0.5758138219822797  0.5854051747152340  0.9321314245174790
  0.4882105372963110  0.6735297604216086  0.9772448742287594
  0.4366354196329709  0.7710054352554963  0.0622846652032933
  0.4231518984337939  0.7557140276459435  0.2401599786426232
  0.3241156017639639  0.8275542779030189  0.3312511835548193
  0.2398444772385702  0.9208054802444252  0.4176628866081344
  0.1372887789708912  0.9932611389614010  0.5182797890958710
  0.0820690886529007  0.0962226561264075  0.5968051203330162
  0.9848272786149366  0.1633303536821700  0.6994781299438415
  0.9137716357182413  0.2542628885856644  0.7442448351724380
  0.8340449993078636  0.3466034038324608  0.8270651899422532
  0.7398205164333191  0.4068590511786141  0.9436963089305479
  0.6622830970178768  0.4990993315931007  0.0377813923825343
  0.5540834707720279  0.5935307679757926  0.0933699968359463
  0.4941157268430629  0.6533448949928840  0.1659700383641862
  0.4816771382099319  0.6641991021990208  0.3358904282352455
  0.4189822684306250  0.7643361280849561  0.4067743632336658
  0.3229738016136707  0.8560957077598488  0.4843356065100437
  0.2477731796788447  0.9154995609871861  0.5989032347532017
  0.1492037444629020  0.0002969442137299  0.6728849287098555
  0.0807422114776131  0.0694064185848760  0.7858663369126688
  0.9920598866872297  0.1403318412830217  0.8537447684306301
  0.8894558144478708  0.2655246682684691  0.8993915242841339
  0.8178473253836387  0.3526879523611797  0.0151524081434928
  0.7342918663977187  0.4263663280137635  0.0981384808574575
  0.6470087644360092  0.5239790361493419  0.1907258137557335
  0.5721916379924039  0.6014789852278142  0.2508865853899707
  0.1896962308179084  0.1604670077914889  0.8610463207957579
  0.0822262735326689  0.2591696913067523  0.9308617450759371
  0.0057756026538556  0.3209370797737705  0.0141699637122272
  0.9336101121262459  0.4085739242208533  0.0870905785279206
  0.8275647870194618  0.5102605990942877  0.1549575146337574
  0.7472123778872017  0.5733693501819346  0.2626420132297085
  0.6442908187984528  0.6551626631466547  0.3387342439882914
  0.5751814106747375  0.7468678492327143  0.4163770022543929
  0.5087332319846567  0.8406784102594500  0.4800951580050636
  0.4293035659903524  0.9192667027566870  0.5871641868375264
  0.3104614647603228  0.0168287652270180  0.6754017046353411
  0.2469432042002850  0.0932137458471729  0.7387653743474161
  0.2474578359832336  0.0787422945340950  0.9452949355323526
  0.1615703493315905  0.1752438088316737  0.9976012918248713
  0.0936788650925493  0.2331248694826797  0.0937578142303437
  0.0039158321468094  0.3063511553749407  0.1799758706098729
  0.9217440392145235  0.4465155562806515  0.2597571319806988
  0.8497754919118776  0.5179320345870906  0.3432684518865656
  0.7603700645665228  0.5997353474529348  0.4163444189012822
  0.6662637463415564  0.6762157322812854  0.4783283929560227
  0.5764814017758297  0.7424999337525691  0.5912762295325109
  0.5075826916231634  0.8269857983309592  0.6774844516294891
  0.4123163032945740  0.9080455169277002  0.7231772558732814
  0.3259471716302826  0.0201262710607466  0.8492852411604161
  0.3350732864657502  0.0073348931142192  0.0182199281165936
  0.2315372790104391  0.0910296541290947  0.0831009418011419
  0.1533479018351542  0.1306042610939713  0.1688010713296961
  0.0875262690832130  0.2199233052523368  0.2580754963613359
  0.9695731000830534  0.3376356223303247  0.3436650604136986
  0.8884321754864715  0.4079448905434262  0.4234322466777414
  0.8330131837327954  0.5023803423113407  0.5214973565298209
  0.7556893885461164  0.5816344012023436  0.5621743103345977
  0.6721642427028982  0.6682364904682814  0.6419597962149979
  0.5765235821072636  0.7242219244383818  0.7685706158044638
  0.5219355461952233  0.8329993335706405  0.8336624451234016
  0.4163950205663696  0.9291480204872613  0.9238820840254718
  0.4277161945301344  0.9026433757514667  0.0999356228247095
  0.3316262053077068  0.9917348565298241  0.1308852767560538
  0.2612619250316399  0.0733504607657025  0.2350006951036221
  0.1733165806438848  0.1470044188024033  0.3293032288205993
  0.0744952979156750  0.2582363184227177  0.4100721874505595
  0.0150196596661942  0.3493494482676809  0.5095214424141759
  0.9037963776498970  0.4244386776222129  0.5877716629093470
  0.8469277270210398  0.5039720663265328  0.6761110212980554
  0.7782969931577313  0.5762192522939387  0.7434971513605433
  0.6817585034013618  0.6523988985128923  0.8536950507237790
  0.5896475340136078  0.7567146021199207  0.9160158440120227
  0.5203525015820247  0.8408501003599085  0.0280778807744042
  0.4960954828152211  0.8315854038126886  0.1669924250514185
  0.4214730610267381  0.8975350241259292  0.2466378925407398
  0.3255412850023731  0.9902142041409618  0.3140049369166249
  0.2620271827044789  0.0802411851368490  0.4303594709104601
  0.1424914501265633  0.1699390691741840  0.4818996198188543
  0.1093512295325141  0.2449205090175610  0.5815828270843255
  0.0260990077717125  0.3433234510955572  0.6705787676989416
  0.9299107627353251  0.4248247992801737  0.7482283291805061
  0.8189595653377637  0.4993267639613990  0.8499380398671121
  0.7473472067315328  0.5740310018193355  0.9413330609278603
  0.6567651103464627  0.6784656284606854  0.0117207922994780
  0.5785379800466686  0.7585329338712228  0.1071896218952730
  0.5735801134116443  0.7650841836734728  0.2646731322180003
  0.5034671946685663  0.8387663112047150  0.3531096009333936
  0.3997459747270966  0.9102111913660806  0.3947445044296813
  0.3277569584519853  0.9793691731925307  0.4910201184543581
  0.2430718309998383  0.0966689403377643  0.5666325833531118
  0.1586551040183508  0.1688467958985953  0.6875386217568433
  0.0815126631466541  0.2302431611888949  0.7849403521001435
  0.9908486177028948  0.3207453725676288  0.8352719550901782
  0.9341067686086078  0.4168573613747810  0.9216066484733432
  0.8275711358962212  0.4752766131743371  0.0133121153694020
  0.7317690748101597  0.5937308025826624  0.0554165564190825
  0.6583879874624259  0.6382137122290743  0.1669361369838640
  0.2741285091362116  0.2439891799161558  0.7445633829694671
  0.1706698959816464  0.3153851368454355  0.8275300713890203
  0.0647503455742751  0.4075203943205210  0.8790826881624767
  0.0012373961794054  0.4845445014633754  0.9993526632455314
  0.9345959134235073  0.5559919014989703  0.0846764885896221
  0.8672917442849268  0.6290266472868211  0.1645793055885179
  0.7555342400332208  0.7358015385223879  0.2401737660180316
  0.6687962787731365  0.8425254404959688  0.3297899852673609
  0.5701823930153438  0.9383212629528543  0.3960886682289200
  0.4908422915677875  0.9874180044692267  0.4634802404682787
  0.4184797352080381  0.0608454981411199  0.5663532738095256
  0.3630044010045879  0.1516885273295330  0.6729335627274153
  0.3507872765385258  0.1415208333333311  0.8503520116476793
  0.2813526479196327  0.2567103257000483  0.9031199711279854
  0.1738006308337319  0.3246615473224139  0.9801647855363100
  0.0739024397840566  0.4089348011588356  0.0987923464443909
  0.0151912914293604  0.4747379498892599  0.1804831746361302
  0.9422561669435225  0.5440345421017270  0.2477164778120553
  0.8345859130280004  0.6563313053709834  0.3234373324038913
  0.7641573312173691  0.7527304678848310  0.4102240280414478
  0.6475999357301063  0.8345857701510866  0.5139282278318333
  0.5902972210686599  0.9042192710805281  0.5928532154722319
  0.4924034918327820  0.9837088296946703  0.6551637685888281
  0.4281178966935641  0.0678985390958715  0.7642915519696274
  0.4486929846938779  0.0871570064072174  0.9374360410734042
  0.3390021930865359  0.1632181176831224  0.9871616457047949
  0.2395809256842298  0.2191564788996985  0.0677480931616827
  0.1807005645863029  0.3211488110069638  0.1622411114736622
  0.0997112052088269  0.4089619314586272  0.2573474316761590
  0.0263046135896232  0.5228138709262780  0.3428071759808589
  0.9269208204793529  0.5883062460449295  0.4195164249129917
  0.8487047643766843  0.6548689571468103  0.5053161312490104
  0.7332473921254561  0.7459389035556114  0.5760915000593272
  0.6563614988728048  0.8390948638467037  0.6744589404366366
  0.5881576654208160  0.9272165524640101  0.7656836363906052
  0.5081969214720772  0.9637382910140815  0.8359491798172769
  0.4953464409310229  0.0132906660338534  0.0013750212585038
  0.4217742752333464  0.1089485084440724  0.0745930633009024
  0.3539970890681872  0.1641242406264851  0.1613165262616647
  0.2476034354730245  0.2481863856589115  0.2241002269221610
  0.1840561540895393  0.3071868924023065  0.3388132168565079
  0.1037904242801773  0.4080110445340921  0.4091745298410032
  0.0214604908242393  0.4837338707285213  0.4880636578468582
  0.9364213603464648  0.5886500964048409  0.5853690916192065
  0.8320121583807918  0.6653071418683751  0.6224523769973089
  0.7306721716302818  0.7261643761865244  0.7361853177899036
  0.6996091999881315  0.8320634803630753  0.8247011375771223
  0.6165434637517819  0.9133296486908691  0.9226231673192515
  0.5724975612047132  0.9225241046709414  0.1072343749999973
  0.4912776800545799  0.0013021134907447  0.1777861636805866
  0.3945347096978296  0.0643036179006486  0.2458865270526829
  0.3233733418367351  0.1640059825383631  0.3311883706098726
  0.2558206543663957  0.2338127111018835  0.4450976328903664
  0.1738363970297456  0.3151331998497042  0.5095219298765983
  0.1052339364815680  0.4262115478167985  0.5796426519735789
  0.9939083526142980  0.5050421654999226  0.6476388931735499
  0.9145920018588853  0.5983462629528589  0.7506922218596728
  0.8138469733823754  0.6664817498220188  0.8448795799715256
  0.7430373497073219  0.7539675560631238  0.9704181567394414
  0.6734509605877221  0.8301443071705421  0.0219280903931320
  0.6828799660852738  0.8167388798251878  0.1687702287019448
  0.5793287113391870  0.8946650218517647  0.2362269320518919
  0.4781924028041473  0.0005644814902723  0.3036930731885761
  0.3971391527250461  0.0570370654366386  0.3861172020843213
  0.3604109510955524  0.1780494715037193  0.4985006649462136
  0.2576474321705433  0.2395939319332356  0.5967127724054748
  0.1618093690673916  0.3384345658321450  0.6847299364222437
  0.0667621331672237  0.4194320434859975  0.7413533499446316
  0.0004027818976411  0.4946662128223380  0.8301070934187607
  0.9215787014515087  0.5810793565100454  0.9156927810077491
  0.8283178858171141  0.6658875721800328  0.9977530508424266
  0.7401840531561490  0.7420375019775349  0.0958699281165920
  0.3524588128856223  0.3599206726585962  0.6905248932131016
  0.2579737927147576  0.4045569703171950  0.7589759853069111
  0.1663372379765846  0.4893129103385547  0.8266646115132090
  0.0650157253599133  0.5813743019300759  0.9082737452539149
  0.0047329986355038  0.6585674057704480  0.9837633760480955
  0.9312123956850158  0.7606083362996330  0.0575210004350595
  0.8572179224015173  0.8234814902705239  0.1727191227653861
  0.7470861211635835  0.9206302770526804  0.2337541557902227
  0.6470198920265773  0.0190487581078926  0.3225827885223822
  0.5752940555291914  0.0748754780691314  0.3972837515820302
  0.4710952183198884  0.1530401469308629  0.4664673820400225
  0.4345442666310717  0.2291388615329879  0.5896958367940215
  0.4368139712861918  0.2546577870392355  0.7583221454279396
  0.3454820108566707  0.3270794618137955  0.8313562356628665
  0.2485580154445515  0.3890404613589595  0.9031747162236954
  0.1389967410219910  0.4740785101249827  0.9766802464008890
  0.0933669173192513  0.5702518850854261  0.0762722393608612
  0.0126733012972622  0.6514149645032461  0.1689691153496256
  0.9051038270249947  0.7334198238016114  0.2504000825620949
  0.8202641487699722  0.8646918322852386  0.3256611775233367
  0.7398989949177377  0.9276433065377319  0.4244069223619675
  0.6620866249406774  0.0058702262300301  0.5091007578903657
  0.5683290618572983  0.0963909755181120  0.5538490952776485
  0.4831435992129443  0.1554626364499256  0.6699085063676620
  0.5062180188063579  0.1577912325976882  0.8239304995253889
  0.4454162627551028  0.2646167764198708  0.9258432229868703
  0.3498958862324031  0.3244007727218801  0.9861905879212145
  0.2611354997231459  0.4187003618889449  0.0626223169791160
  0.2093459574236647  0.5202944915756973  0.1530147998734392
  0.0883691544059459  0.5836710770645439  0.2469854463296954
  0.0187538759689900  0.6833911001028312  0.3307844669553859
  0.9091654514712886  0.7646809054144939  0.4011884704753967
  0.8301456746361353  0.8403874703369709  0.5130746608527161
  0.7289933159310209  0.9283163982162606  0.5785474608448027
  0.6692137750158196  0.0038295849153585  0.6554767881862062
  0.5770811273928160  0.0805516883206749  0.7504018133997761
  0.6024752279109293  0.0897928907609540  0.9024435260441379
  0.5153769908835599  0.1859797277922794  0.9987176262656234
  0.4142371791449122  0.2792879182486914  0.0868653600102860
  0.3419272005022904  0.3538644157372275  0.1536730288917880
  0.2380648339859235  0.4306328829496948  0.2617291434306281
  0.1801849524402783  0.5199360341520318  0.3495614395467470
  0.1070664293624404  0.6232342281680090  0.4172366531205540
  0.9956501438656886  0.6796650421214991  0.4930396906146157
  0.9138931666271191  0.7660835409745275  0.5498148923232051
  0.8145569525193821  0.8235144206810645  0.6547362912316075
  0.7599764940278462  0.9078731109594997  0.7474441964285745
  0.6792886049477929  0.0077231772069268  0.8361004123160924
  0.6760104656106662  0.9751041404643246  0.0089139702974208
  0.5959892614894784  0.0656162835192191  0.0626431102673592
  0.5046350468675840  0.1794200101843089  0.1590571596661903
  0.3982404470218341  0.2457485440397065  0.2424135006328143
  0.3136187786742610  0.3258332824118000  0.3316730328468580
  0.2619496603583329  0.4222481633641806  0.4174115661090028
  0.1772628223382355  0.4977051584005707  0.4919670948030372
  0.0984736177028935  0.5697415712505958  0.5649007025193811
  0.0028076293308033  0.6619808668525522  0.6225718280335357
  0.8922208417378599  0.7350495876839105  0.7233113223777892
  0.7922405103029604  0.8163079061857275  0.8415792660378116
  0.7603582418723320  0.9061150549754799  0.9206362759057143
  0.7320687208313572  0.9005440866753673  0.1015914713850634
  0.6446106104651150  0.0175449810156607  0.1642295962861908
  0.5667640790618549  0.1029466446171483  0.2543839616951402
  0.4794631565416836  0.1785031432922040  0.3134647766373959
  0.4251776177622233  0.2663772978959003  0.4120518984337949
  0.3437918683752557  0.3416517802760666  0.5098537301257693
  0.2449491145586151  0.4133831093774702  0.5743706162988431
  0.1929812361572516  0.4986745337960770  0.6697215432684729
  0.0523797337248837  0.5606341001226056  0.7318748422915675
  0.0001648972670480  0.6694070212387260  0.8349917126443600
  0.9075839246163611  0.7634516720060134  0.9195800348046177
  0.8163916147563697  0.8423024813122950  0.0069868404920115
  0.4049183871222937  0.4167740221088465  0.5835090487066950
  0.3365664842390430  0.5008771639178917  0.6829293663977225
  0.2661967242129393  0.5827660289115641  0.7736339552681528
  0.1607346276301200  0.6424402710212007  0.8217706978721750
  0.0923837678966919  0.7576533514277770  0.8860420300387588
  0.9946277151558292  0.8296948242959985  0.9737469328429071
  0.9480813355283999  0.9039621628302470  0.0780030646851770
  0.8369522632890352  0.9802128435967390  0.1555643114222462
  0.7458391018035115  0.1073932264475559  0.2512216569767460
  0.6633468794494561  0.1977227208906811  0.3466073673073851
  0.5490064200680251  0.2538462955821856  0.4123810804263570
  0.5046624377076441  0.3420531002808076  0.5263493676831175
  0.5044904549319753  0.3594308020882764  0.6749937267639581
  0.4386677745807646  0.4183302177266270  0.7812151157846827
  0.3207862749169408  0.5026828369719993  0.8623878742485331
  0.2468176559286519  0.5976822639811772  0.9208995990547351
  0.1536584989519056  0.6612322837565259  0.0057049799280193
  0.0630760233744638  0.7545168327796219  0.0705245758187019
  0.9962913235643072  0.8173352278120518  0.1812317414174984
  0.9332980659705754  0.9121265424774592  0.2371811071230852
  0.8230661416310738  0.9957843804382236  0.3360814512142056
  0.7466935873477283  0.0956409943047021  0.4157318323841181
  0.6605576065891441  0.1860617510085447  0.4970453720732451
  0.5562271372211711  0.2539489548726479  0.5855894004113296
  0.5568496712347724  0.2634405973145064  0.7545612244897981
  0.5029548459500077  0.3490468745056177  0.8218600616990983
  0.4298369205821899  0.4149123848085736  0.9492716915836112
  0.3204537034290453  0.4828304110306902  0.9735158583491526
  0.2708363698386336  0.5764806231213413  0.0216036940357540
  0.1761964246163572  0.6609126132138883  0.1436569629014386
  0.0979426984456566  0.7475182071665856  0.2564383518232844
  0.0091336279860812  0.8260398058060403  0.3395277734931170
  0.9210334945024528  0.9064129330802118  0.4360658252254410
  0.8224690673944011  0.0264921017244077  0.4916660981252932
  0.7334354310037980  0.0976667180825785  0.5724234021515571
  0.6660302805133682  0.1602521916033837  0.6729677933673486
  0.6739945919356103  0.1707159201471313  0.8380076619601340
  0.5971848921254548  0.2370475631822515  0.9003490586932443
  0.5098426139060308  0.3533627214839399  0.9832891868375242
  0.4184410625296664  0.4294564210567984  0.0557224821033060
  0.3422628529900322  0.4836642926356589  0.1451568877550997
  0.2504593092469563  0.5735792072061372  0.2452553081988640
  0.1742381125415307  0.6809821962505964  0.3242633424299939
  0.1007782925961109  0.7516863040855881  0.4270587965709538
  0.0245749851684849  0.8649614959064991  0.4978142120510967
  0.8904858215669975  0.9382930499525415  0.5955019730857458
  0.8365060136845415  0.9980849217884824  0.6420855946448327
  0.7600439932368275  0.0874814339107743  0.7431092425051418
  0.7515390578033561  0.0794545364657466  0.9208251626522710
  0.6742693729235896  0.1603366847611127  0.0062397514238270
  0.6017941282036077  0.2566572649699381  0.0839608749604466
  0.4926035467093826  0.3563853321270400  0.1668110395902573
  0.3938791903970866  0.4269640098481275  0.2393485005339357
  0.3302732627353251  0.5138454051969603  0.3449928620866984
  0.2695098021476028  0.6059567300466711  0.4132966263249500
  0.1936308881110591  0.6644753238213923  0.5110552879291248
  0.1044092949098214  0.7538511949256446  0.5853150811778178
  0.9801894973105547  0.8492439620906538  0.6584432684701795
  0.8966092746400918  0.9222473318106310  0.7383976160813148
  0.8431947985880370  0.0146184672124647  0.8558150688182238
  0.8176726917220378  0.9842398354690687  0.9962290920147154
  0.7640655068422717  0.0780953221404843  0.1006602723065981
  0.6564009432842894  0.1634428645586112  0.1674724479908249
  0.5778141902982128  0.2643797441069466  0.2540909097650683
  0.4867857726230014  0.3552993152784367  0.3257884937114355
  0.4002689526973597  0.4213047035674720  0.4096796645111525
  0.3041451659152017  0.4863394592429984  0.5064063963376029
  0.2722929604690734  0.5833986542872935  0.5754523023453544
  0.1764920883760510  0.6495333704121151  0.6730492579299181
  0.0653015854888466  0.7295363910971346  0.7341948737343742
  0.9816587273572210  0.8174476249802254  0.8220331602990001
  0.9170250756407228  0.8925441084282539  0.9022621519538063
 
  0.00000000E+00  0.00000000E+00  0.00000000E+00
  0.00000000E+00  0.00000000E+00  0.00000000E+00
  0.00000000E+00  0.00000000E+00  0.00000000E+00
  0.00000000E+00  0.00000000E+00  0.00000000E+00
  0.00000000E+00  0.00000000E+00  0.00000000E+00
  0.00000000E+00  0.00000000E+00  0.00000000E+00
  0.00000000E+00  0.00000000E+00  0.00000000E+00
  0.00000000E+00  0.00000000E+00  0.00000000E+00
  0.00000000E+00  0.00000000E+00  0.00000000E+00
  0.00000000E+00  0.00000000E+00  0.00000000E+00
  0.00000000E+00  0.00000000E+00  0.00000000E+00
  0.00000000E+00  0.00000000E+00  0.00000000E+00
  0.00000000E+00  0.00000000E+00  0.00000000E+00
  0.00000000E+00  0.00000000E+00  0.00000000E+00
  0.00000000E+00  0.00000000E+00  0.00000000E+00
  0.00000000E+00  0.00000000E+00  0.00000000E+00
  0.00000000E+00  0.00000000E+00  0.00000000E+00
  0.00000000E+00  0.00000000E+00  0.00000000E+00
  0.00000000E+00  0.00000000E+00  0.00000000E+00
  0.00000000E+00  0.00000000E+00  0.00000000E+00
  0.00000000E+00  0.00000000E+00  0.00000000E+00
  0.00000000E+00  0.00000000E+00  0.00000000E+00
  0.00000000E+00  0.00000000E+00  0.00000000E+00
  0.00000000E+00  0.00000000E+00  0.00000000E+00
  0.00000000E+00  0.00000000E+00  0.00000000E+00
  0.00000000E+00  0.00000000E+00  0.00000000E+00
  0.00000000E+00  0.00000000E+00  0.00000000E+00
  0.00000000E+00  0.00000000E+00  0.00000000E+00
  0.00000000E+00  0.00000000E+00  0.00000000E+00
  0.00000000E+00  0.00000000E+00  0.00000000E+00
  0.00000000E+00  0.00000000E+00  0.00000000E+00
  0.00000000E+00  0.00000000E+00  0.00000000E+00
  0.00000000E+00  0.00000000E+00  0.00000000E+00
  0.00000000E+00  0.00000000E+00  0.00000000E+00
  0.00000000E+00  0.00000000E+00  0.00000000E+00
  0.00000000E+00  0.00000000E+00  0.00000000E+00
  0.00000000E+00  0.00000000E+00  0.00000000E+00
  0.00000000E+00  0.00000000E+00  0.00000000E+00
  0.00000000E+00  0.00000000E+00  0.00000000E+00
  0.00000000E+00  0.00000000E+00  0.00000000E+00
  0.00000000E+00  0.00000000E+00  0.00000000E+00
  0.00000000E+00  0.00000000E+00  0.00000000E+00
  0.00000000E+00  0.00000000E+00  0.00000000E+00
  0.00000000E+00  0.00000000E+00  0.00000000E+00
  0.00000000E+00  0.00000000E+00  0.00000000E+00
  0.00000000E+00  0.00000000E+00  0.00000000E+00
  0.00000000E+00  0.00000000E+00  0.00000000E+00
  0.00000000E+00  0.00000000E+00  0.00000000E+00
  0.00000000E+00  0.00000000E+00  0.00000000E+00
  0.00000000E+00  0.00000000E+00  0.00000000E+00
  0.00000000E+00  0.00000000E+00  0.00000000E+00
  0.00000000E+00  0.00000000E+00  0.00000000E+00
  0.00000000E+00  0.00000000E+00  0.00000000E+00
  0.00000000E+00  0.00000000E+00  0.00000000E+00
  0.00000000E+00  0.00000000E+00  0.00000000E+00
  0.00000000E+00  0.00000000E+00  0.00000000E+00
  0.00000000E+00  0.00000000E+00  0.00000000E+00
  0.00000000E+00  0.00000000E+00  0.00000000E+00
  0.00000000E+00  0.00000000E+00  0.00000000E+00
  0.00000000E+00  0.00000000E+00  0.00000000E+00
  0.00000000E+00  0.00000000E+00  0.00000000E+00
  0.00000000E+00  0.00000000E+00  0.00000000E+00
  0.00000000E+00  0.00000000E+00  0.00000000E+00
  0.00000000E+00  0.00000000E+00  0.00000000E+00
  0.00000000E+00  0.00000000E+00  0.00000000E+00
  0.00000000E+00  0.00000000E+00  0.00000000E+00
  0.00000000E+00  0.00000000E+00  0.00000000E+00
  0.00000000E+00  0.00000000E+00  0.00000000E+00