Li 
 1.0000000000000000
    20.2271999999999998    0.0000000000000000    0.0000000000000000
     0.0000000000000000   20.2271999999999998    0.0000000000000000
     0.0000000000000000    0.0000000000000000   20.2271999999999998
 Li 
 432
Cartesian
 -0.1662407600000000  0.1705616900000000 -0.3942843200000000
 18.4922434500000001  1.6330531800000001  1.7178439900000000
 16.8333010799999983  3.6444447200000001  3.3113381000000000
 14.9232724999999995  5.3399082399999998  4.8661410399999996
 13.2561835800000001  6.9646380199999998  7.1291506599999996
 11.1959404500000002  8.4295035100000000  8.6416861300000001
  9.7969225699999996 10.1002289699999999 10.0860580199999994
  8.3448650400000002 11.5779958599999997 11.6769335600000002
  7.1893072000000000 13.2524486699999997 13.9709149999999998
  4.8020404699999997 14.9049271799999996 15.1054835399999998
  3.3131401899999999 16.9884348000000003 16.7780064200000005
  1.8448492599999999 18.4637500900000013 18.0266718899999994
  1.2274854200000000 17.8415044800000011  1.8624377599999999
  0.1165084100000000 -0.1225825300000000  3.2425128700000001
 18.3832175999999983  1.6348746999999999  5.4227899400000004
 16.6818567299999998  3.2024111999999998  7.1359513799999998
 15.1110459600000002  5.3803488699999997  7.9897210799999998
 13.2151965400000009  6.8310009000000003  9.8782647699999995
 11.4867547200000004  8.8058652300000002 11.9558866399999992
 10.0353177900000006 10.3305845800000000 13.8915509099999994
  8.5205406000000004 11.4642874300000006 15.6517608799999994
  6.6382432400000004 13.2552859999999999 17.0718944499999985
  5.0759877900000001 14.8545714100000001 18.3899873999999990
  3.2300007399999999 16.7633125700000001 -0.1451651800000000
  3.6518219799999998 16.7760129599999992  3.1852882899999999
  1.9379027700000000 18.3463886699999996  4.6962261800000000
  0.0633188700000000  0.0387035100000000  6.6941420500000000
 18.3131691100000005  1.6664076699999999  8.7209293199999998
 16.6402071700000000  3.5329896600000001 10.0917295100000004
 15.4121280200000008  5.4753248299999999 11.7865299900000000
 13.0760952699999997  6.4619121399999999 13.5922397000000004
 12.0486554100000003  8.9466911899999992 15.1662628900000005
 10.6317073299999993 10.1012159500000003 17.3812125100000010
  8.2991176600000003 11.4885508999999999 18.8891629999999999
  7.0789943099999997 13.9242103200000003 19.9454652699999997
  5.2765524099999999 15.4709174100000002  1.1348518400000001
  4.7451156900000004 15.1825412800000006  4.5721189200000003
  3.6024288200000001 16.7482413900000005  6.6989999400000002
  1.8422050699999999 18.4396144200000016  7.9862868100000002
  0.4350085900000000 -0.1635815500000000  9.6459378000000005
 19.2583266000000002  1.6888406000000000 11.4256083900000007
 17.6536222000000009  2.7714412099999999 13.2825931300000004
 15.3203504699999993  4.8754048299999999 14.8141981999999999
 14.1207311200000003  6.2767739799999998 16.4766842900000015
 12.1218115100000006  7.9832982000000001 18.3939242900000011
 10.7294944999999995 10.0593503500000008 -0.0063582700000000
  8.2041120200000002 11.7364911400000000  1.1937097100000000
  6.8589691000000004 13.4284884200000008  3.1837785400000000
  6.5477325700000000 14.1818922300000008  6.2340167199999996
  4.5595304800000003 15.3892850499999998  8.8706896200000003
  3.4008325400000001 16.9657192600000002 10.1969308000000005
  1.7416789600000000 18.6309373899999997 11.5688778200000009
  0.3277720800000000  0.2806657100000000 13.3639680399999996
 18.8814461700000003  1.4378595500000000 15.2932763000000005
 16.8490993399999986  3.0399053700000001 16.4850260900000016
 15.4536057400000004  4.9218972499999998 18.4227586599999995
 13.8575355299999998  6.5491296500000002 -0.2094718300000000
 12.3550708199999999  8.1529272000000006  1.4526459400000000
  9.6955510599999997  9.8081409900000001  2.9944023700000000
  8.1745355199999992 11.9686420299999998  4.7847600500000000
  8.2810106700000006 12.1405075399999998  8.6137554800000000
  7.1592104100000000 14.2159055399999996 10.5133213199999993
  4.7945333300000001 15.6662343600000007 12.3094413599999992
  3.1347325700000002 17.0487591300000005 13.9217828600000004
  1.6217109800000000 19.0148674699999987 15.6836590999999999
 -0.0268716900000000 -0.0484235100000000 16.7793420399999995
 18.3287983600000004  1.8415204999999999 18.9998228400000002
 16.6252422499999994  3.4581791700000002 20.5923863199999992
 15.4076675299999994  5.1239806000000003  2.1390557600000002
 13.7616660999999993  6.8538976800000002  3.7210986699999999
 11.5877647100000001  8.6489774100000005  4.9886931099999998
 10.0636165900000005 10.4941196800000007  6.1977257600000000
  1.6438075599999999  1.9062237000000000 18.4243312299999999
 -0.2355694300000000  3.5763927600000001  0.3261618900000000
 18.5997503799999997  5.6056486599999999  1.9946900100000000
 16.8571429500000001  7.2184192400000002  3.9619870700000002
 15.1205103800000007  8.7566449500000001  5.6422482299999999
 13.3750818099999993 10.0531214000000002  6.9399658100000003
 10.9060466900000002 12.1812205200000001  8.7692350900000005
  9.6915866800000003 13.7426518099999999 10.2744102700000006
  8.5620770200000003 15.6921117999999993 12.2012653899999997
  6.4656629700000003 16.5611781600000008 13.9609873100000002
  5.3670722199999998 18.8517532800000005 16.0502132899999985
  3.9052499500000000  0.3872251600000000 17.2397468099999998
  3.3560704800000001 -0.2386631800000000 -0.0312680600000000
  1.0948307799999999  1.2400705900000000  1.2221534599999999
 -0.0389223000000000  3.0767192099999998  2.9216621100000002
 18.3388509000000006  5.0411512399999996  5.1125917500000000
 16.7687443199999997  6.7971401699999996  7.2090523199999996
 14.7928537999999996  8.3715306799999993  8.6673989700000007
 12.9761919599999995 10.0032126199999993 10.0542823800000001
 11.6490678899999995 12.1495435199999999 11.6812700799999991
  9.9667189300000008 13.6482096500000001 13.8962219999999999
  8.5867386299999993 15.1720205700000008 15.6702542800000000
  6.3705584799999997 16.7936629699999997 16.9393039600000002
  5.1882680299999997 18.2663354200000008 18.6075895600000010
  5.2132769600000000 18.0216323299999992  1.6614294199999999
  3.5852058599999999 -0.3051372500000000  3.1679742200000001
  1.5928350300000000  1.3639094199999999  5.1796060700000002
 -0.1366291400000000  3.3033961000000001  6.8606005400000001
 18.4357402599999993  5.1760706499999998  8.3734969899999996
 16.7271063700000013  6.6634023100000004 10.1641353599999995
 14.4892569600000005  8.5071677599999997 12.1362847899999995
 13.4706073400000008 10.9905845200000005 13.4678273799999992
 12.0455193699999992 12.5188066199999994 15.7852952999999996
 10.0784809400000004 13.0493442500000008 17.4796946700000007
  8.0305750699999994 15.5225132899999991 18.2762251700000000
  6.2680417500000001 17.1507836299999994 20.0901978999999997
  6.4110032900000000 16.7835385099999996  3.6564456600000002
  5.0070728300000003 18.6193567100000017  4.6731816899999998
  3.6942860899999999 -0.2166088700000000  6.7789489700000001
  1.8570073300000001  1.5521477600000000  8.2103304700000006
  0.1336866500000000  3.0387632999999998 10.3110728100000006
 18.7117703900000016  5.3983497199999997 11.7434254199999994
 17.4307706099999997  7.0468421799999996 13.0611467200000000
 14.7071694199999996  8.3259589199999997 14.4129839099999995
 13.7836183400000003  9.8204915100000001 16.9906961000000010
 11.6471013400000007 11.8411075500000003 18.8544087500000010
  9.8751321799999996 13.6236211699999998 19.7669275199999994
  8.8319119599999993 15.5952811400000009  1.2598443800000001
  8.5591780800000006 15.2859787800000007  4.8577639200000000
  6.5559510999999997 16.7391058900000012  6.7002839400000003
  4.8513822099999997 18.6253166099999987  8.4481507400000009
  2.7769675899999999 -0.1363082900000000 10.4833489499999999
  1.6600278700000000  1.9463149099999999 12.0716965300000005
 -0.3069016700000000  3.3037157300000000 14.1484840300000005
 18.4830416299999989  5.1430262999999998 15.0539891299999997
 16.8703950099999993  7.0108163699999997 16.7292130099999987
 14.9644975500000008  8.2296194000000007 19.0883339800000016
 13.3961326599999992 10.0953820000000007 20.9914117800000000
 11.2075571800000002 12.0054655500000003  1.8886136000000000
  9.9945776300000002 13.2153378600000000  3.3571091599999998
  9.7429798099999996 13.4348880800000003  6.7941228699999998
  8.4748381399999992 15.4603797299999997  8.2279064000000002
  6.5328556799999999 17.3164191000000010  9.7967531799999996
  5.0117576599999998 18.5179927199999987 12.1141355100000006
  3.0179739799999998  0.0060063500000000 13.6105780299999992
  1.6331888600000000  1.4038975100000000 15.8958755699999994
 -0.1606062600000000  2.8385202199999999 17.2688661799999998
 17.9912006499999997  5.3708205700000002 18.1921722400000014
 16.5427614200000015  7.1338897499999998 20.5336907900000014
 14.8526684400000004  8.6241969899999997  1.9850666800000001
 13.0871756799999996 10.5986287600000004  3.8578491800000001
 11.5738347000000008 12.1662357300000004  5.0747331400000002
  3.8370236000000002  3.2457982599999999 17.4165561400000009
  1.6632072800000000  5.2422771800000003 18.8287266899999999
  0.1168242700000000  6.4916584999999998  0.2866186900000000
 18.8843184599999994  8.2643064800000001  1.7615985500000000
 16.7393184599999998 10.3211431900000008  3.1343566400000000
 15.1140142100000006 11.5976565199999992  5.3125125300000002
 13.0321992499999997 13.2521062199999999  6.8516453000000004
 11.6343094300000001 15.1070453600000008  8.4221409000000005
 10.2902488299999995 17.0045703400000008  9.7109807799999999
  8.6836090899999991 18.5941914500000003 11.8766874399999995
  6.2797661400000004 20.5675987999999990 13.6614853600000004
  4.9949695800000002  1.8854530800000000 14.9431549799999992
  5.0053791399999996  1.5927361400000000 19.1206697199999986
  3.2681157700000001  3.5446915699999999 -0.0485191500000000
  1.8948611399999999  4.7154633600000002  1.8964580600000001
  0.0792063200000000  6.1966260899999996  3.6404079299999998
 18.6443010300000012  9.0317594600000000  5.2541594600000003
 17.1885788300000009 10.4763148499999996  6.9433596299999998
 15.3801573699999992 12.1309668199999994  8.4214818299999994
 13.4766500499999999 13.6779508599999993  9.6752440699999998
 11.6606046100000000 15.0186946599999995 11.9598625500000004
 10.2669766199999994 16.7276071399999999 13.7036134999999994
  8.3400043299999993 18.3672182799999995 14.6278509900000007
  6.5929986300000003 20.6342981099999996 17.1786624299999993
  6.7775943800000000  0.1483643500000000  0.3685381300000000
  4.6833508500000001  1.8412750200000001  1.6808993699999999
  3.1017986799999999  2.6417585099999998  3.4143730300000001
  1.7704113500000001  4.4484326799999998  5.2201446799999998
 -0.6154509900000000  6.8294232600000004  6.9513819100000003
 17.9704952999999996  8.2515828899999999  8.5648487400000004
 16.8495242699999999 10.1617476599999996 10.5484313299999997
 15.2854804000000009 11.7648353599999993 11.3712122099999995
 13.5960005699999993 13.5165531399999992 12.9850491899999998
 11.6614578000000009 14.6489817099999993 15.5460315599999994
 10.5572946800000000 16.8492441200000016 16.8626570099999995
  8.4225053600000006 18.7940628399999987 18.6875476899999988
  8.6515010100000005 18.2579480899999993  2.0214178299999999
  6.7078695799999997 -0.1671807100000000  2.6474426700000002
  5.2845972100000003  1.4836744399999999  4.7534060599999997
  3.5057091400000000  2.9734877800000001  6.6608822700000001
  1.5068312900000000  5.2233976599999998  8.2946121500000007
  0.3038056600000000  7.0663611599999996 10.3061921200000004
 18.2812700899999996  8.5852060199999993 11.8889749800000004
 17.1309765200000008 10.1939437799999997 13.6758328500000008
 15.7427689399999995 11.6553020600000004 15.0388655799999995
 13.7900656000000001 13.1962030000000006 17.2678605300000001
 11.9269186000000005 15.3062176000000001 18.5284356800000012
 10.5252741200000006 17.0080431499999989 20.7951369100000001
 10.0346225499999999 16.8206442799999998  3.3777891800000002
  8.5252198999999997 18.1546204399999986  4.9887939799999996
  6.5847886799999999 -0.1979392500000000  6.3514406599999997
  5.3000762300000002  1.6230545000000001  8.7049670900000002
  2.8822030600000001  3.4373915400000001  9.7474799900000004
  2.2118691899999998  4.9540561199999997 11.7637921599999995
  0.5279098500000000  6.9444721100000004 13.5639308500000002
 18.8094909799999996  8.5930161799999993 15.1345640600000007
 16.5652589200000016 10.0999823200000005 17.1918667200000002
 15.1167414200000003 11.6110398799999999 19.0405320899999992
 13.2845192399999998 13.7234599599999996 20.4642788099999997
 11.7022034300000008 15.3429973600000000  2.1681459200000002
 11.6019196699999991 15.4755108000000003  5.3535963799999999
 10.1837316399999995 16.9658939300000000  7.1424185199999997
  8.0857417799999993 18.4110238099999997  7.9845760400000003
  6.6296055500000000 -0.4173038600000000  9.9319621399999996
  4.9166625399999999  1.9553419900000000 11.4613905900000006
  3.2091485199999998  3.4152979100000000 13.9069812099999996
  1.6487729400000000  4.6571744700000002 15.8771454900000002
 -0.1851068400000000  6.4877808000000003 16.8952128899999998
 18.8943644299999995  8.4318572199999995 18.6415219999999984
 16.7394468799999991  9.6135151099999998 20.4964668199999984
 14.8016394299999998 12.0095116900000001  1.1209217700000000
 13.3173455000000001 12.9092763999999995  3.3766506299999999
  5.5448521800000004  4.9352179400000002 15.0604324599999995
  3.4521741200000000  6.3793582400000002 16.7386162600000006
  1.3097181899999999  8.2429965200000002 17.7813813500000002
  0.0250290600000000  9.8009785399999991 -0.0130938100000000
 18.9042584600000012 11.2461593900000008  1.7127682700000000
 17.5428835700000008 12.7234478000000006  3.3289785300000001
 15.2823421800000006 14.8832048799999992  4.8580427999999998
 13.5278760899999995 17.0419305899999998  6.6707279899999996
 11.5331933000000006 18.9796118500000013  8.0117647099999996
  9.9283652000000000 -0.2544985400000000  9.3749075200000007
  8.4646732999999994  1.2307340600000001 11.4557409400000001
  7.3425626199999998  3.0682341800000001 13.6115617600000007
  7.0954443999999999  2.8625702000000000 17.2002402100000005
  5.6909762800000001  5.1925311000000001 18.2675882799999982
  3.5155001200000000  6.5669940499999999 -0.4012108500000000
  1.4948394300000001  8.2716060099999993  1.9982925499999999
  0.3072772900000000  9.6026194599999997  3.6506692699999999
 19.0592039399999997 11.0042954900000005  5.0106107399999997
 16.8813361800000017 13.2757445799999996  6.5422316100000000
 15.4567631700000003 15.2256297200000006  8.2976834600000000
 13.0991334199999994 16.8813332900000006 10.3953290500000008
 11.9400599500000002 18.2898240399999992 11.9917605599999995
  9.9599439099999998 19.8976752400000017 13.2521285800000008
  8.6596263199999992  1.3733973300000000 15.4594780800000002
  9.0758027400000003  1.7629421999999999 18.9617062899999986
  6.8570651600000003  3.3014455100000002 -0.2596839600000000
  4.8460513000000001  4.4329219300000000  1.3703542300000000
  3.6550664600000000  6.4959412299999997  3.2816834099999999
  2.0168784899999999  8.2721547799999993  5.2054179700000001
  0.5320686800000000 10.5750607300000006  6.9340293099999997
 18.7490128200000008 11.8997881000000003  8.4856426299999992
 17.1669210099999994 13.2461653699999999 10.2211304500000004
 14.8315416500000001 15.0882553900000005 11.6527179899999993
 13.2763553099999996 16.9725396300000000 13.6424158799999997
 11.8967827300000000 18.7549946500000004 15.4876360500000008
 10.2794007700000005 -0.7334728400000000 16.9089112499999992
 10.0194715300000006  0.2688329600000000  0.0278128300000000
  8.5313126199999996  2.2037232699999998  1.5088088099999999
  7.1603699199999999  3.3197738399999999  3.2629816400000000
  5.0083242099999996  5.0201156600000001  4.5329201100000001
  3.7229406400000000  6.2135307099999997  6.8532427000000000
  2.0993896699999999  8.2529210000000006  8.2764550499999991
  0.4340856400000000  9.7845817499999992  9.8721612200000006
 18.9411821399999987 11.9067432300000000 11.8403776900000004
 16.8292763299999990 13.4573006199999998 12.5904687200000005
 14.7794521499999991 14.6882720700000000 14.8909676599999994
 14.1511352099999996 16.8303144300000014 16.6813948500000002
 12.4709479499999993 18.4741014700000008 18.6620833300000015
 11.5800226700000000 18.6600795700000006  2.1690511500000000
  9.9371718900000001  0.0263381100000000  3.5961162899999999
  7.9803324800000004  1.3006821399999999  4.9735959599999999
  6.5409372599999998  3.3173818100000001  6.6990134100000001
  5.1745355399999999  4.7293764700000001  9.0030788400000006
  3.5162235700000002  6.3742622600000001 10.3062019800000009
  2.1285878800000000  8.6210662199999994 11.7245478500000004
 -0.1232169700000000 10.2155888899999994 13.0999214199999994
 18.4996353400000011 12.1028695299999995 15.1844017099999995
 16.4618454999999990 13.4810596500000006 17.0895482399999992
 15.0295650799999994 15.2506525499999999 19.6288421399999997
 13.6220272700000002 16.7914949299999989  0.4435438700000000
 13.8127496500000007 16.5203406699999995  3.4137491700000000
 11.7181977100000001 18.0965683300000002  4.7782093999999997
  9.6724933699999998  0.0114178800000000  6.1428605300000001
  8.0330130700000009  1.1537001300000000  7.8100698700000004
  7.2901043899999998  3.6014422700000002 10.0832726499999996
  5.2114861399999999  4.8463143799999999 12.0698285900000002
  3.2729504700000001  6.8455836500000000 13.8501693699999997
  1.3504110199999999  8.4839358300000001 14.9955024800000007
  0.0081471500000000 10.0057124200000001 16.7907422000000004
 18.6409567100000011 11.7536083599999994 18.5219010200000014
 16.7545515400000014 13.4690411000000001 -0.0454494900000000
 14.9718508799999999 15.0093409599999994  1.9391802100000000
  7.1292549000000003  7.2801874299999998 13.9673851199999994
  5.2180875000000002  8.1830547500000002 15.3519590499999996
  3.3645365800000002  9.8974300999999993 16.7211104299999995
  1.3150860799999999 11.7595742800000007 18.3718347000000009
  0.0957353100000000 13.3209746300000003 -0.3284214400000000
 18.8358193699999994 15.3849769399999996  1.1634887800000000
 17.3391183600000005 16.6567247999999992  3.4936242399999999
 15.1114603899999995 18.6217727400000008  4.7281920599999996
 13.0874007599999995  0.3853030400000000  6.5249465799999999
 11.6365879200000002  1.5145212699999999  8.0359379000000004
  9.5289371999999997  3.0955736599999999  9.4353290300000001
  8.7896137900000006  4.6348375800000001 11.9278956300000001
  8.8355235600000004  5.1510139900000000 15.3387337000000006
  6.9881337300000004  6.6159016900000003 16.8160088499999993
  5.0276326899999999  7.8691992199999996 18.2686956199999990
  2.8115148799999998  9.5892808400000007 -0.4716933200000000
  1.8885513100000000 11.5345989299999996  1.5427738400000000
  0.2563454000000000 13.1763007699999992  3.4177720900000002
 18.3077161299999993 14.8350294599999994  5.0648925499999997
 16.5916469900000010 17.4902946300000011  6.5872137700000000
 14.9660849500000008 18.7636266899999988  8.5845637000000004
 13.3921585800000003  0.1187382400000000 10.2976828499999993
 11.4957056000000009  1.9497195400000000 11.2028164199999996
  9.7726422100000008  3.1445738400000001 13.5503733400000002
 10.2393731100000007  3.1916748199999998 16.6658070000000009
  9.0095238299999991  5.3524564600000000 18.7272160399999983
  7.0774140699999997  6.5617193100000000 -0.2793257400000000
  5.2820399800000004  8.4691359599999991  1.2666741300000000
  4.2344825500000001 10.5241007399999997  3.0950609600000001
  1.7874605600000000 11.8060316099999998  4.9958240199999997
  0.3793384000000000 13.8230884599999992  6.6908435700000002
 18.3898714199999986 15.4673536100000000  8.1149194300000005
 16.7915225899999996 16.9986854399999991 10.3780637799999997
 14.7454935999999996 18.7772414499999982 11.7023951999999998
 13.5363208700000008  0.0774617800000000 13.2584600899999998
 11.6727353800000007  1.6293351100000000 15.1785275599999991
 12.1863869299999994  1.8162587600000000 18.2539056899999999
 10.4246334699999998  3.7618491500000002 -0.0259388300000000
  8.3788582700000003  5.6492125800000004  1.7570430100000001
  6.9162298699999996  7.1576863099999999  3.1083750900000000
  4.8153850100000000  8.7104974500000001  5.2940477300000000
  3.6446370699999999 10.5168501499999998  7.0706491500000004
  2.1656540799999999 12.6062833800000007  8.4395292299999998
 -0.0879854100000000 13.7477207400000001  9.9728124299999994
 18.4854998600000009 15.4957250000000002 11.1212157900000008
 16.4762063900000015 16.6573908899999985 13.2434819099999999
 15.3721965399999991 18.3637309900000005 15.1187032499999994
 13.7401064700000006  0.1562182500000000 16.9119702600000004
 13.6737988900000005 -0.5035735300000000  0.1803046600000000
 12.0551939899999994  1.3272336899999999  1.2670947200000000
 10.2073540200000004  3.6291644299999999  3.2172809800000000
  8.0552891700000000  4.9708049499999998  4.9033463599999996
  6.3436297599999998  6.5906949700000004  6.7088167700000003
  5.2985081699999999  8.5408980499999991  8.4430672300000005
  3.5855305600000000 10.0671817800000003  9.9511168199999993
  1.9918455600000000 11.5242767100000005 11.4263594899999994
  0.0567904800000000 13.3900193900000009 12.5928848799999997
 18.0471294100000001 14.8679950200000004 14.6305627800000000
 16.0248072499999985 16.5116232799999985 17.0227921299999991
 15.3799182299999995 18.3281704400000010 18.6218940800000006
 14.8077004300000006 18.2154853500000016  2.0549110100000001
 13.0386677399999993  0.3548858400000000  3.3219048899999999
 11.4640503799999998  2.0823223700000000  5.1454752700000004
  9.6981971599999994  3.6106187799999998  6.3405147299999998
  8.6001527099999997  5.3880668800000002  8.3346561599999998
  6.9539468800000002  6.9106588899999997 10.3129133700000004
  4.9546347300000004  8.3615828299999997 11.6179093299999998
  3.9034700600000001 10.0867895300000008 13.5465915999999993
  1.0594953499999999 11.3400580699999995 14.8037788100000007
  0.0033354100000000 13.5402296999999994 16.8895443699999994
 18.3578815599999992 15.4424896599999997 18.6005292799999999
 16.5133164699999995 17.0374207499999990  0.1413242200000000
  8.1903652000000005  8.4301715000000002 11.8027542299999997
  6.8077975899999998 10.1313425699999993 13.8137488800000003
  5.3844143799999999 11.7877250199999999 15.6484487399999992
  3.2512114599999999 12.9947678500000006 16.6221202599999991
  1.8686649500000001 15.3252058699999996 17.9221493500000015
 -0.1086662800000000 16.7824031500000004 -0.5310260400000000
 19.1770307899999999 18.2846234599999988  1.5777835899999999
 16.9292008199999984 19.8269612299999984  3.1466304400000000
 15.0862366800000007  2.1722642699999999  5.0815106999999999
 13.4176500000000001  3.9993770199999998  7.0108965400000001
 11.1048626600000002  5.1345997900000002  8.3413145899999996
 10.2079080599999994  6.9187764700000001 10.6465739300000006
 10.2044293300000000  7.2702787200000003 13.6532331100000004
  8.8730208099999999  8.4616489799999997 15.8017943899999995
  6.4886081400000002 10.1678662800000001 17.4436920099999995
  4.9924300900000000 12.0894386899999997 18.6272203699999999
  3.1080811900000000 13.3748776500000002  0.1153957700000000
  1.2758513400000000 15.2617628799999991  1.4265147000000000
 -0.0750161400000000 16.5324031200000015  3.6658106799999999
 18.8780066399999988 18.4497660000000003  4.7975096900000000
 16.6483234600000003 20.1419298200000014  6.7979867299999999
 15.1035205300000008  1.9345495200000000  8.4090909200000006
 13.3612308199999994  3.7635082500000001 10.0538361500000004
 11.2509175500000005  5.1366763000000004 11.8448339199999992
 11.2635096699999995  5.3286656499999996 15.2626608000000008
 10.1733682600000002  7.0602409399999999 16.6239278400000003
  8.6943973600000000  8.3925157899999991 19.2011083599999992
  6.4818811500000004  9.7663072900000003 -0.5357000300000000
  5.4782614199999999 11.6605888600000007  0.4369822400000000
  3.5639603200000001 13.3684116100000008  2.9057781199999999
  1.9811065500000000 15.1202002800000006  5.1870298300000002
  0.1847477200000000 16.7084723599999982  6.8676961800000003
 18.6299287000000007 18.3341956800000006  8.8203906599999993
 16.6362463200000015  0.5358610400000000  9.9450284999999994
 14.8353451500000002  1.9755242399999999 11.5785226399999992
 13.4719276899999993  3.2414531300000000 13.6122541500000001
 13.6330234099999998  3.4531050599999999 16.9505485799999995
 12.0793782499999995  4.7948084700000004 18.2115404800000000
 10.3126885200000000  7.1475384399999999 -0.3380129600000000
  8.4638910599999999  8.6867009199999998  1.1271097900000000
  6.9230191799999998  9.7831743800000002  2.9361174000000001
  5.0660905400000003 11.6019013399999995  4.9608281700000001
  3.5243491499999999 13.7743630800000005  6.5589394800000003
  2.0384626799999999 15.2045092099999994  8.6382036899999992
  0.4970831400000000 17.4957491699999999 10.0693876299999996
 18.0120348099999994 18.9790411799999994 12.0453375099999995
 16.9201744400000003 20.1884633300000012 12.9875937399999994
 15.3735618600000006  1.7695044600000001 15.0310192699999998
 15.2015308299999994  1.6071428000000001 18.6257147299999986
 13.6385814599999993  3.2431621900000001  0.1262127000000000
 12.1726101900000003  5.1914578300000001  1.6982934100000000
  9.9639904599999998  7.2086773900000001  3.3741202600000002
  7.9670731600000000  8.6362864199999994  4.8413499900000003
  6.6805033399999996 10.3936537799999993  6.9782396200000001
  5.4514286700000003 12.2568079700000006  8.3598335200000005
  3.9166107000000001 13.4404752700000003 10.3372175199999994
  2.1119076899999998 15.2482988899999992 11.8392852099999999
 -0.4007110000000000 17.1778274700000004 13.3184636800000007
 18.1358951200000007 18.6544812299999982 14.9357162599999995
 17.0554698299999998 20.5228906600000016 17.3107425600000013
 16.5392290700000011 -0.3187840000000000 -0.0762749100000000
 15.4549058200000005  1.5796497000000000  2.0360754600000002
 13.2771531599999992  3.3059915100000001  3.3874987000000001
 11.6875631900000005  5.3476619599999999  5.1395476499999999
  9.8463131799999992  7.1867103099999996  6.5897890200000004
  8.0963201599999994  8.5218144999999996  8.2866725100000007
  6.1520051000000002  9.8372855099999992 10.2431834599999991
  5.5077241700000004 11.8005212600000000 11.6397888100000007
  3.5699407700000001 13.1382413899999992 13.6139019500000007
  1.3208682300000001 14.7564784899999992 14.8507065500000000
 -0.3709925900000000 16.5346766000000009 16.6274291400000003
 18.5488496100000013 18.0536681899999998 18.2502369999999985
