Li                                      
   1.00000000000000     
    20.6400000000000006    0.0000000000000000    0.0000000000000000
     0.0000000000000000   20.6400000000000006    0.0000000000000000
     0.0000000000000000    0.0000000000000000   20.6400000000000006
   Li
   432
Direct
  0.9845748386627875  0.0204233905038791  0.0131113498062021
  0.8792919956395338  0.0902819462209337  0.0895801492248083
  0.8122989452519391  0.1596174161821722  0.1813384714147261
  0.7716202659883749  0.2582422781007736  0.2444749365310059
  0.6640688144379823  0.3351753653100786  0.3212168730620135
  0.5827319917635663  0.4171070872093026  0.3969712722868195
  0.5104812315891465  0.4983249496124031  0.5022931269379853
  0.4197889709302345  0.5700257315891477  0.5650441031976712
  0.3403307839147303  0.6384797829457369  0.6630677732558112
  0.2371172393410887  0.7435474084302314  0.7570147010658914
  0.1401889350775178  0.8225248604651156  0.8155327165697699
  0.0680279937015484  0.9220909331395362  0.9325822713178269
  0.0800670363372120  0.9538096942829455  0.1098325111434093
  0.0070369176356593  0.0191800314922475  0.1666966623062009
  0.9052450251937998  0.0874837432170565  0.2437645833333306
  0.8460575242248041  0.1661958347868193  0.3344319219961207
  0.7490020712209287  0.2730277005813946  0.4340117873062042
  0.6741019777131783  0.3646846061046531  0.4857493076550412
  0.5797248866279077  0.4354670121124045  0.5914749815891440
  0.5134351041666676  0.5214939500968967  0.6632885930232533
  0.4048531414728700  0.5654831904069795  0.7597167897286852
  0.3120689549418572  0.6551691080426352  0.8198075741279069
  0.2406349399224794  0.7416689578488374  0.9245949132751932
  0.1488405978682152  0.8605299045542623  0.0044336821705429
  0.1779953420542668  0.8514268890503871  0.1609238968023234
  0.0773206472868182  0.9107942940891505  0.2428602286821686
  0.9872342562984500  0.9939381182170521  0.3263770562015509
  0.9063654985465135  0.0758681380813968  0.4185424922480649
  0.8259679656007748  0.1919911879844989  0.4923232427325601
  0.7635426695736456  0.2667402795542628  0.5812670978682135
  0.6493755610465115  0.3387644089147273  0.6490215431201563
  0.5936827669573645  0.4218364341085277  0.7511440881782931
  0.5247817897286851  0.4954791506782925  0.8466071729651148
  0.4015324883720908  0.5837424219961207  0.8912745460271339
  0.3363268769379815  0.6558319190891453  0.9997099190891490
  0.2417637267441890  0.7614188643410884  0.0766473696705461
  0.2571842160852711  0.7650196540697678  0.2446468672480648
  0.1847901293604650  0.8508412344961229  0.3395815053294555
  0.0703251865310079  0.8961199433139555  0.4285046375969017
  0.9796941686046523  0.0086993958333323  0.5033570116279051
  0.8968902393410829  0.0732806710271348  0.5674622718023272
  0.8421459016472852  0.1756908536821697  0.6653855188953486
  0.7460195072674409  0.2512071434108520  0.7487084462209310
  0.6814973032945701  0.3494995053294545  0.8449479423449588
  0.5577627621124037  0.4082465746124058  0.9337679336240328
  0.4983132945736415  0.4767617470930219  0.9932891288759720
  0.4210367650193803  0.5676712737403093  0.0797281676356576
  0.3150024520348822  0.6583055247093057  0.1636220702519395
  0.3051251879844941  0.6510953265503900  0.3301593003875993
  0.2477932398255831  0.7503103289728656  0.4309794278100796
  0.1851513430232572  0.8294632950581402  0.5447048900193820
  0.0735825663759684  0.9325031603682135  0.5832060809108555
  0.9635788517441881  0.0470664840116299  0.6714443158914705
  0.9017698546511639  0.0859043381782953  0.7635399171511636
  0.8300208909883722  0.1560884370155051  0.8326338609496133
  0.7295712533914696  0.2378729728682174  0.9415086739341092
  0.6561864491279081  0.3427656458333317  0.0154826497093055
  0.5933167005813971  0.4165628827519399  0.0918390915697671
  0.5211850135658906  0.5061550295542645  0.1842883294573667
  0.3919196627906985  0.5736109079457350  0.2567839820736424
  0.3839254878875948  0.5771375576550355  0.4384734505813981
  0.3214745440891491  0.6679074859496126  0.5049518769379873
  0.2458390048449601  0.7330063032945731  0.5949595838178325
  0.1414480881782936  0.8405811879844975  0.6758192955426381
  0.0686528541666647  0.9381680910852737  0.7425663183139548
  0.0128398934108560  0.0107936337209296  0.8298767834302296
  0.9079559636627934  0.0813866942829478  0.9089643546511610
  0.8092391409883746  0.1626610726744175  0.0067216879844949
  0.7528083604651172  0.2502075654069742  0.0949911744186025
  0.6841102170542612  0.3229728774224796  0.1735826618217047
  0.5850348701550416  0.4176181468023259  0.2456683575581380
  0.4859588963178325  0.4914622141472833  0.3126687412790687
  0.0869509031007780  0.0727122306201551  0.9135190862403135
  0.0021114907945758  0.1582529748062029  0.0020688725775173
  0.9048862761627916  0.2301733914728672  0.0855027490310079
  0.8514582049418635  0.3261271225775175  0.1694401676356563
  0.7744402882751942  0.4204099903100769  0.2526523972868233
  0.6692475988372095  0.5139508323643440  0.3107472761627932
  0.5731355125968989  0.5765693740310098  0.3969080557170557
  0.5060979869186042  0.6759849612403102  0.4921252916666674
  0.4167191535852695  0.7389933866279037  0.5763964520348850
  0.3214032887596900  0.8344610901162781  0.6526628880813945
  0.2316145004844969  0.9137718653100748  0.7320213241279063
  0.1522361405038737  0.9950171187015471  0.8177153701550353
  0.1632847684108540  0.0220186555232544  0.0056553236434098
  0.0861759147286847  0.0778310692829436  0.0928446739341098
  0.0071854728682155  0.1644542344961266  0.1663773507751927
  0.9332321962209278  0.2450854500969015  0.2435400208333363
  0.8610897848837240  0.3128294278100796  0.3401893483527161
  0.7559652504844934  0.4044072194767452  0.3990558512596891
  0.6754878265503876  0.4998025382751905  0.4780868488372079
  0.5842501705426386  0.5851265634689895  0.5734395188953485
  0.4810326695736435  0.6537833013565901  0.6696274539728648
  0.3976179883720903  0.7448236124031027  0.7279499932170523
  0.3269003812984508  0.8520192805232583  0.8234157059108540
  0.2233020285852731  0.9378854418604661  0.9003936492248030
  0.2481693352713208  0.9265222592054272  0.0938931661821698
  0.1766007640503844  0.9923522403100762  0.1625414060077546
  0.0819351521317842  0.0773521133720934  0.2440886797480601
  0.0011665285852729  0.1672781894379867  0.3365400455426339
  0.9289966448643412  0.2529616923449609  0.4339867369186052
  0.8276407020348842  0.3401686342054262  0.4939814811046546
  0.7613351017441872  0.4387275266472841  0.5670731996124019
  0.6685323677325599  0.5025560387596926  0.6705838381782954
  0.5809113754844972  0.5832115983527117  0.7564881022286798
  0.4811212383720900  0.6566488076550385  0.8363194801356570
  0.4026375736434105  0.7500634578488388  0.9081231870155051
  0.3280347601744182  0.8474321124030979  0.0112311405038739
  0.3473321085271337  0.8593389811046492  0.1530040329457378
  0.2672566676356567  0.9403422248062014  0.2541514743217022
  0.1618719631782923  0.0158010959302359  0.3476587718023225
  0.0618072819767477  0.0565914215116265  0.4049614452519350
  0.0035456012596882  0.1569949956395362  0.4998746763565904
  0.9197572708333368  0.2662498415697669  0.5839455813953478
  0.8379054379844959  0.3284989418604667  0.6496879946705434
  0.7526253391472864  0.4175468120155017  0.7452927252906960
  0.6640752315891447  0.5055164224806177  0.8296062771317807
  0.5856420823643376  0.5751133367248045  0.9140677834302338
  0.5066266133720916  0.6780903401162774  0.9930355082364315
  0.4002346375969026  0.7437437044573656  0.0914132606589177
  0.3955547960271346  0.7533517630813975  0.2626574350775215
  0.3380987877906989  0.8222365508720912  0.3410256564922491
  0.2581786206395336  0.9235009791666684  0.4166106371124059
  0.1609028512596922  0.9944240397286848  0.4815230663759706
  0.0697972684108521  0.1013907194767469  0.5714308052325592
  0.9540766947674442  0.1475663197674422  0.6761699597868187
  0.9039320770348809  0.2539257107558157  0.7775938163759690
  0.8162150155038788  0.3382514370155008  0.8514069815891503
  0.7414706041666648  0.4290296424418614  0.9226862088178294
  0.6755955920542647  0.5040797936046530  0.9936811598837210
  0.5740788987403107  0.5835951933139540  0.0909463759689899
  0.4790797286821729  0.6687815964147319  0.1946005591085296
  0.4821248551356589  0.6426288178294541  0.3369582732558172
  0.4116297800387585  0.7559997795542657  0.4357276971899253
  0.3335870402131818  0.8387956531007745  0.5022770968992276
  0.2354338972868248  0.9344037635658893  0.5786277107558107
  0.1456380823643428  0.0228978231589139  0.6739101138565857
  0.0818144786821691  0.0814220799418592  0.7412721908914719
  0.0073254481589160  0.1479711012596923  0.8510501477713177
  0.8974964045542606  0.2278891235465110  0.9152114026162792
  0.8157370382751949  0.3132103512596913  0.0016820726744200
  0.7544369312015533  0.4051028265503902  0.1114058313953521
  0.6915960310077551  0.5045222248062018  0.1667189530038726
  0.5997734447674432  0.5796202340116281  0.2531706506782925
  0.1780311957364376  0.1676369951550356  0.8416127238372084
  0.0891372965116304  0.2529570416666687  0.9329405276162817
  0.9881803783914762  0.3241824282945771  0.9986273633720941
  0.9242821855620136  0.4151292625968992  0.0941928425387601
  0.8608300983527144  0.5090459549418611  0.1786828541666665
  0.7749403023255823  0.5969494123062020  0.2657477824612400
  0.6799747529069791  0.6616500116279056  0.3484959210271299
  0.5754009278100796  0.7495162490310108  0.4125745300387607
  0.5207189883720957  0.8251144505813954  0.5006778517441859
  0.4191961971899190  0.9180293401162771  0.5766367751937977
  0.3383057509689920  0.0087826138565887  0.6481843362403126
  0.2629513580426348  0.0784839874031036  0.7759660954457388
  0.2841444103682136  0.0753299224806199  0.9051756792635643
  0.1597464990310087  0.1362378687015493  0.0063115440891508
  0.1059224583333318  0.2379068115310048  0.0697766385658909
  0.9904495222868235  0.3203031419573676  0.1575478827519348
  0.9440069970930267  0.4161572989341096  0.2492638914728715
  0.8609337160852704  0.4863252437015504  0.3313063657945747
  0.7813796608527142  0.5860124060077538  0.3933671061046482
  0.6568320261627889  0.6631756870155030  0.4760542974806228
  0.5827561913759709  0.7424981923449607  0.5894764893410880
  0.4992258217054228  0.8437768808139552  0.6403274384689936
  0.4040414219961264  0.9392049786821701  0.7402642989341075
  0.3268405465116260  0.9937720009689954  0.8272900925387603
  0.3295840765503897  0.9977187984496112  0.9962842349806209
  0.2857998774224839  0.0916566516472841  0.0859562950581392
  0.1817996535852728  0.1786478372093043  0.1695841719961209
  0.1103560663759708  0.2552461080426340  0.2346738372093000
  0.0232442800387602  0.3217033624030989  0.3356752427325560
  0.9467808653100747  0.4051506308139565  0.4009480067829472
  0.8588619888565887  0.4917243086240290  0.4771021099806205
  0.7616513541666663  0.5630766535852700  0.5585465261627931
  0.6908056676356580  0.6411051579457379  0.6578826981589145
  0.5787737393410879  0.7391372819767454  0.7328755411821675
  0.4804287969961223  0.8184467504844974  0.8015020542635654
  0.4250285038759714  0.9200434975775167  0.8925162640503856
  0.4372629098837209  0.9191087795542643  0.0717548013565903
  0.3682667059108553  0.9992891700581410  0.1655388217054252
  0.2503404084302332  0.0740668982558148  0.2392457800387575
  0.1531243149224792  0.1449264132751935  0.3365033977713168
  0.0992981322674424  0.2277716642441874  0.4237741962209327
  0.0030026041666673  0.3229098260658887  0.4805753265503867
  0.9136059772286842  0.4340499069767461  0.5740172407945749
  0.8434370823643391  0.4951758192829487  0.6895418900193775
  0.7696478057170566  0.5688684748062016  0.7484800881782974
  0.6571354447674409  0.6472327068798478  0.8309423900193806
  0.5924398643410882  0.7341739258720921  0.8871841579457396
  0.5189248687015535  0.8229633178294549  0.0028411177325580
  0.4816998473837231  0.8100542257751968  0.1758137863372085
  0.4162865300387608  0.9196987480620180  0.2666668905038776
  0.3377359903100796  0.0022761545542664  0.3375914544573675
  0.2523628217054252  0.0862252470930258  0.4043808851744188
  0.1786342044573672  0.1608633299418614  0.4753517567829491
  0.0881387708333321  0.2355942393410828  0.5849807538759677
  0.0175784641472845  0.3328253255813962  0.6575055775193803
  0.9191790256782966  0.4107579898255835  0.7546958628875942
  0.8195937897286854  0.4742155431201525  0.8455645343992231
  0.7505392344961237  0.5811697737403065  0.9000967640503887
  0.6602788972868225  0.6619254108527102  0.0206533900193762
  0.5697371850775212  0.7283783531976766  0.0982475024224811
  0.5835319607558134  0.7422182839147311  0.2761403124999973
  0.4856690213178325  0.8302389554263598  0.3375237291666693
  0.4274943052325568  0.9184263856589183  0.4127420125969010
  0.3577546172480623  0.0260356661821675  0.4821761656976733
  0.2387900290697687  0.0868714103682180  0.5775411375968957
  0.1613331196705445  0.1762834471899239  0.6623317277131804
  0.0699029573643415  0.2268204883720912  0.7560679200581362
  0.9891845503875984  0.3291556952519414  0.8329658827519353
  0.9213599505813974  0.4371808522286855  0.9225106642441858
  0.8335873551356556  0.5041494893410885  0.0134423832364376
  0.7724223817829454  0.5783109273255818  0.0634813522286848
  0.6753454738372113  0.6606172277131748  0.1729625746124057
  0.2497422940891454  0.2284340731589154  0.7477086967054234
  0.1493101933139513  0.3445262548449577  0.8112715968992248
  0.0556937374031037  0.4223304641472865  0.9287326724806206
  0.0029973909883694  0.5101576249999979  0.0127081608527106
  0.9019117931201563  0.5929254796511643  0.1100322180232567
  0.8263548827519358  0.6895422698643401  0.1784541710271341
  0.7308451497093031  0.7483620944767466  0.2564110261627874
  0.6503302315891446  0.8132228614341059  0.3241202848837190
  0.5958190571705444  0.9120730891472846  0.4143381070736467
  0.5113525833333341  0.0017207655038760  0.5025526962209312
  0.4518608657945720  0.0826450334302322  0.5769085746124034
  0.3395343977713168  0.1476145489341079  0.6565498900193774
  0.3344784433139552  0.1730747281976761  0.8306125600775189
  0.2442486206395316  0.2499826768410855  0.9205560474806234
  0.1693115024224809  0.3288054161821705  0.9938881482558131
  0.0854584840116246  0.4146679980620149  0.0921752427325586
  0.0154622039728665  0.5091605266472854  0.1836428333333302
  0.9266082727713183  0.6008497097868215  0.2578837911821736
  0.8471340954457389  0.6904472243217086  0.3243712126937979
  0.7575175440891471  0.7667480852713169  0.4239072151162802
  0.6657152044573635  0.8235416312984469  0.4946686710271351
  0.6093898875968975  0.9193046148255846  0.5635511593992248
  0.5192733817829449  0.9920807097868192  0.6723598653100780
  0.4324802747092988  0.0764866608527157  0.7411727088178282
  0.4225790145348824  0.0724509045542661  0.9101644127906994
  0.3368765465116255  0.1790649530038735  0.0061690939922485
  0.2370369190891495  0.2460313042635676  0.0802471535852689
  0.1781724636627899  0.3377134360465135  0.1621459171511646
  0.0798205707364374  0.4292015179263586  0.2475978943798438
  0.0119424801356587  0.4882821564922466  0.3396644050387607
  0.9188999089147316  0.5910388517441874  0.4003993720930197
  0.8227975949612372  0.6667175818798441  0.4778443231589122
  0.7508816438953474  0.7479347873061997  0.5760156022286793
  0.6680706279069781  0.8279673827519360  0.6641828357558168
  0.5739731409883717  0.8928011196705441  0.7345854287790701
  0.5106084791666632  0.0150632122093057  0.8199162514534919
  0.5123412771317817  0.9942426632751946  0.9953350586240290
  0.4295303648255810  0.0855524748061995  0.0720362107558117
  0.3476096463178280  0.1720076632751955  0.1735135377906971
  0.2562838934108527  0.2534302814922498  0.2542194341085278
  0.1646352068798436  0.3229436521317837  0.3375584297480643
  0.0896503255813954  0.4171994423449590  0.4006063376938016
  0.0085076705426346  0.4782527335271283  0.4915931860465150
  0.9093150644379833  0.5751392567829470  0.5639194093992259
  0.8332743197674404  0.6504861283914707  0.6644183527131773
  0.7324625300387595  0.7467000373062049  0.7513401899224803
  0.6514360687984464  0.8311442727713185  0.8195003929263578
  0.5801743401162796  0.9076809912790722  0.9111965111434088
  0.5705030765503878  0.9243444452519398  0.0912547340116276
  0.5118270208333300  0.9982698376937975  0.1947930460271294
  0.4273540169573664  0.0905808328488362  0.2612628221899200
  0.3335269583333300  0.1453489573643409  0.3410846477713179
  0.2726215218023285  0.2526698057170549  0.4158514166666691
  0.1729790256782948  0.3365849263565863  0.4915312834302341
  0.1028545789728668  0.4259567412790730  0.5736658449612406
  0.9867365930232523  0.4936986409883701  0.6751300610465094
  0.9043046855620176  0.5636194864341064  0.7553760867248087
  0.8462160615310097  0.6705471230620148  0.8396766017441877
  0.7481560876938005  0.7341307655038776  0.9266930077519362
  0.6555652083333356  0.8230178367248087  0.0199259806201582
  0.6586857669573618  0.8307605867248071  0.1666549718992272
  0.5779793599806169  0.9034843449612424  0.2663036501937981
  0.5001740033914714  0.0113088774224792  0.3473807650193805
  0.4346387223837240  0.0908265188953479  0.4255494917635687
  0.3321766550387579  0.1463141128875947  0.5080909316860485
  0.2514494631782966  0.2426538280038741  0.5643547940891480
  0.1708379893410878  0.3195393386627927  0.6901824147286817
  0.0752515368217033  0.4201486821705416  0.7498171545542647
  0.9809609714147314  0.4967981468023268  0.8417987524224770
  0.9047837170542650  0.5778919404069782  0.9292736036821694
  0.8329926947674409  0.6683264437984491  0.0111725237403135
  0.7290236211240284  0.7566601971899232  0.0964657388565868
  0.3377338599806166  0.3027866308139551  0.6635998958333360
  0.2602077572674446  0.4091712340116302  0.7189035334302361
  0.1726784510658916  0.4751107010658941  0.8171202611434083
  0.0861648226744194  0.5676748774224833  0.9081914418604669
  0.0104818750000035  0.6735756109496123  0.0109376913759718
  0.9087653929263553  0.7447866904069755  0.0886843149224816
  0.8144590164728669  0.8403060959302309  0.1598637916666661
  0.7398845184108538  0.9055839345930252  0.2396678977713194
  0.6474588338178293  0.0083301419573658  0.3426395174418602
  0.5953398667635668  0.0879812640503843  0.4154677117248085
  0.5311137466085256  0.1776638192829481  0.4951992562984486
  0.4324902785852700  0.2420870620155071  0.5763398585271347
  0.4168452795542663  0.2573267742248078  0.7460646749031028
  0.3292093362403108  0.3436900668604679  0.8218463735465136
  0.2517866855620170  0.4079514055232565  0.8953011458333364
  0.1793729888565920  0.4925863328488376  0.9843528517441840
  0.0950871429263600  0.5598288226744188  0.0822664166666698
  0.9907439922480634  0.6791929229651146  0.1654797698643407
  0.9073949583333345  0.8019662916666661  0.2401445276162804
  0.8364074844961209  0.8526872165697696  0.3542704142441835
  0.7200844379844966  0.9306083071705444  0.3962652843992274
  0.6733300295542648  0.0039342747093016  0.4946546889534886
  0.6123134287790677  0.0957855939922467  0.5947615881782937
  0.5194476666666645  0.1738766458333316  0.6672318924418619
  0.5084145954457355  0.1875636724806213  0.8507889491279101
  0.4238816046511644  0.2664416831395329  0.9220395208333301
  0.3264094811046476  0.3308154898255822  0.9816779341085251
  0.2558986070736466  0.4276883643410869  0.0647427073643385
  0.1760056584302347  0.5125852708333341  0.1752182141472858
  0.0847099500969009  0.5999524534883705  0.2606143735465096
  0.0033987485465090  0.7191257005813938  0.3240304975775175
  0.9121811831395377  0.7751916947674431  0.4052251395348847
  0.8057101177325592  0.8438909011627942  0.5077700009689892
  0.7330587785852742  0.9092344234496110  0.5829640174418600
  0.6697231627906959  0.0034222887596869  0.6785769307170568
  0.5924960610465106  0.0979503687015537  0.7328235746124037
  0.5809332412790695  0.0820852868217088  0.9024692688953522
  0.5051307616279104  0.1628707112403092  0.9987427625968976
  0.4203697359496132  0.2506782078488357  0.0902750508720942
  0.3342762490310065  0.3519378241279085  0.1433349927325551
  0.2400259263565871  0.3970128885658895  0.2528600479651146
  0.1672206225775170  0.5163902112403065  0.3412022945736410
  0.0700550513565901  0.6047237311046487  0.4121030368217049
  0.9997578856589158  0.6794424123062015  0.5011208401162790
  0.8757115571705398  0.7469268250968994  0.5972836511627904
  0.8228862146317795  0.8368632461240324  0.6741971739341110
  0.7604712325581389  0.9196136119186065  0.7542895857558136
  0.6570379181201531  0.9947175397286827  0.8391366661821706
  0.6461078585271309  0.0017881564922462  0.9979710179263535
  0.5735556516472897  0.0786296560077488  0.1029920111434137
  0.4953730348837198  0.1627426114341120  0.1743411405038771
  0.4145962238372078  0.2600444844961274  0.2466879016472845
  0.3400115634689911  0.3311995130813941  0.3362209670542669
  0.2620597950581427  0.4027181191860478  0.4212757151162805
  0.1698191647286791  0.4841622974806228  0.4707958846899203
  0.0727127742248044  0.5618675009689937  0.5890089946705430
  0.9834558357558123  0.6571234273255797  0.6585405809108522
  0.9146349316860451  0.7509432131782958  0.7459840106589155
  0.8217398478682156  0.8420676061046493  0.8468096162790673
  0.7386508231589133  0.9147219113372103  0.9268545508720933
  0.7619978493217019  0.9402621681201566  0.0779324980620189
  0.6432735532945770  0.9899565799418610  0.1731506061046488
  0.5877821395348803  0.0811455377906967  0.2772070072674424
  0.5142455925387566  0.1856431448643434  0.3552936593992229
  0.4025158546511634  0.2403897979651148  0.4345780014534881
  0.3572987170542632  0.3344679210271337  0.4965804699612377
  0.2392978696705441  0.4132413406007771  0.5903756521317831
  0.1676798764534908  0.5116165741279062  0.6618962916666646
  0.0711254045542660  0.5630372039728684  0.7456357393410826
  0.9957693609496090  0.6501950726744212  0.8310466196705448
  0.9309426884689955  0.7594765736434113  0.9342667819767456
  0.8073868158914763  0.8549096375968972  0.0113174922480610
  0.4214926061046498  0.4223391225775188  0.5912095813953471
  0.3494927504844938  0.4957208846899235  0.6867484123062013
  0.2276163895348802  0.5739649457364351  0.7370074757751937
  0.1526556298449577  0.6624169069767447  0.8235018527131786
  0.0762153226744218  0.7513288260658939  0.9208624956395326
  0.0090613265503876  0.8327792364341065  0.0258821463178265
  0.9186951143410838  0.9247623803294545  0.0887265198643377
  0.8338614864341096  0.9928973759689939  0.1755769089147279
  0.7488680494186042  0.0765940445736462  0.2605275474806206
  0.6945123924418581  0.1779632984496118  0.3427536812015504
  0.5873149307170564  0.2762385353682149  0.4180442989341060
  0.5138531274224789  0.3556665968992263  0.4977386143410882
  0.5111740009689925  0.3473025949612421  0.6786016153100789
  0.4276556560077509  0.4173433275193830  0.7598467853682180
  0.3181360692829429  0.4920137630813954  0.8405665828488367
  0.2462382466085273  0.5797869743217063  0.9135445222868199
  0.1517885130813923  0.6588980678294547  0.9901203527131770
  0.1113801700581405  0.7437430920542667  0.0882048638565891
  0.0059522698643377  0.8277493531976745  0.1604099423449625
  0.9204123226744159  0.9081005968992244  0.2406934394379832
  0.8284393517441870  0.9834291613372059  0.3335126351744151
  0.7648568207364335  0.1042974200581384  0.4183239995155006
  0.6759494433139537  0.1924104539728688  0.4889263178294598
  0.5755876589147277  0.2824329578488403  0.5756251686046525
  0.5878803822674428  0.2659431579457348  0.7469502742248082
  0.4879296051356619  0.3300496952519367  0.8331806167635634
  0.4301291797480644  0.4168535513565885  0.9038234137596888
  0.3402885891472849  0.4867539331395321  0.9766139268410825
  0.2503216928294592  0.5807452562984494  0.0702466957364365
  0.1788193875968958  0.6701188575581369  0.1634093745155027
  0.0895213023255792  0.7730247829457397  0.2455619181201527
  0.0265951245155023  0.8398647577519398  0.3063628212209295
  0.9267761642441883  0.9033048522286791  0.4075123459302290
  0.8346550809108493  0.9820328648255838  0.4980847625968963
  0.7589385915697662  0.1099196686046540  0.5761455639534887
  0.6822198217054236  0.1888642112403076  0.6600495058139515
  0.6387999098837227  0.1828684476744158  0.8323031114341077
  0.5733055256782933  0.2765849224806232  0.9342530503875963
  0.4938646937984501  0.3474364234496150  0.0204336836240344
  0.4192769278100741  0.4153427635658886  0.0954490469961229
  0.3041221623062000  0.5047544471899243  0.1596336438953472
  0.2682194568798479  0.5820655634689942  0.2355857364341105
  0.1829611928294597  0.6850111778100754  0.3424366259689933
  0.1091104573643378  0.7599154055232589  0.4306898468992273
  0.9814387708333356  0.8345529001937990  0.5167218057170544
  0.9135538769379821  0.9290761148255839  0.5829213115310097
  0.8258316191860473  0.0029807756782958  0.6634291933139522
  0.7442039336240285  0.0920177165697709  0.7519129016472874
  0.7524570823643444  0.0768784932170519  0.9282167650193784
  0.6652184956395359  0.1557320605620163  0.0193081826550383
  0.6021879718992267  0.2668058905038748  0.0992250939922457
  0.5106889878875975  0.3192297267441830  0.1913541259689922
  0.4079129559108523  0.4109176337209277  0.2424468900193801
  0.3277934656007773  0.4955120847868244  0.3405307126937984
  0.2398810290697639  0.5842082214147268  0.4115868284883746
  0.1583181521317840  0.6335592267441825  0.5117098270348848
  0.0812947800387605  0.7280325881782943  0.6005317063953513
  0.9945251429263564  0.8417063701550376  0.6625089399224819
  0.9128392645348811  0.9116168580426347  0.7556052160852715
  0.8262674699612376  0.9885778066860453  0.8414654951550418
  0.8307066298449612  0.9805941090116264  0.9927027325581363
  0.7636411967054286  0.0584341429263588  0.0939190392441844
  0.6721799743217076  0.1679382906976770  0.1782192553294593
  0.6126324912790722  0.2329506516472861  0.2493323599806203
  0.4859455300387623  0.3259039898255836  0.3367016632751927
  0.3963678783914730  0.4335604452519348  0.4082673720930217
  0.3018192902131815  0.4980224612403106  0.4982012243217042
  0.2664128953488358  0.5703838783914748  0.5789659903100741
  0.1528090731589131  0.6458578066860454  0.6556568997092995
  0.0802493619186038  0.7264986923449612  0.7221928696705433
  0.0077977902131749  0.8297593294573673  0.8313322979651190
  0.9344084912790720  0.8964868473837200  0.9201496928294546
 
  0.00000000E+00  0.00000000E+00  0.00000000E+00
  0.00000000E+00  0.00000000E+00  0.00000000E+00
  0.00000000E+00  0.00000000E+00  0.00000000E+00
  0.00000000E+00  0.00000000E+00  0.00000000E+00
  0.00000000E+00  0.00000000E+00  0.00000000E+00
  0.00000000E+00  0.00000000E+00  0.00000000E+00
  0.00000000E+00  0.00000000E+00  0.00000000E+00
  0.00000000E+00  0.00000000E+00  0.00000000E+00
  0.00000000E+00  0.00000000E+00  0.00000000E+00
  0.00000000E+00  0.00000000E+00  0.00000000E+00
  0.00000000E+00  0.00000000E+00  0.00000000E+00
  0.00000000E+00  0.00000000E+00  0.00000000E+00
  0.00000000E+00  0.00000000E+00  0.00000000E+00
  0.00000000E+00  0.00000000E+00  0.00000000E+00
  0.00000000E+00  0.00000000E+00  0.00000000E+00
  0.00000000E+00  0.00000000E+00  0.00000000E+00
  0.00000000E+00  0.00000000E+00  0.00000000E+00
  0.00000000E+00  0.00000000E+00  0.00000000E+00
  0.00000000E+00  0.00000000E+00  0.00000000E+00
  0.00000000E+00  0.00000000E+00  0.00000000E+00
  0.00000000E+00  0.00000000E+00  0.00000000E+00
  0.00000000E+00  0.00000000E+00  0.00000000E+00
  0.00000000E+00  0.00000000E+00  0.00000000E+00
  0.00000000E+00  0.00000000E+00  0.00000000E+00
  0.00000000E+00  0.00000000E+00  0.00000000E+00
  0.00000000E+00  0.00000000E+00  0.00000000E+00
  0.00000000E+00  0.00000000E+00  0.00000000E+00
  0.00000000E+00  0.00000000E+00  0.00000000E+00
  0.00000000E+00  0.00000000E+00  0.00000000E+00
  0.00000000E+00  0.00000000E+00  0.00000000E+00
  0.00000000E+00  0.00000000E+00  0.00000000E+00
  0.00000000E+00  0.00000000E+00  0.00000000E+00
  0.00000000E+00  0.00000000E+00  0.00000000E+00
  0.00000000E+00  0.00000000E+00  0.00000000E+00
  0.00000000E+00  0.00000000E+00  0.00000000E+00
  0.00000000E+00  0.00000000E+00  0.00000000E+00
  0.00000000E+00  0.00000000E+00  0.00000000E+00
  0.00000000E+00  0.00000000E+00  0.00000000E+00
  0.00000000E+00  0.00000000E+00  0.00000000E+00
  0.00000000E+00  0.00000000E+00  0.00000000E+00
  0.00000000E+00  0.00000000E+00  0.00000000E+00
  0.00000000E+00  0.00000000E+00  0.00000000E+00
  0.00000000E+00  0.00000000E+00  0.00000000E+00
  0.00000000E+00  0.00000000E+00  0.00000000E+00
  0.00000000E+00  0.00000000E+00  0.00000000E+00
  0.00000000E+00  0.00000000E+00  0.00000000E+00
  0.00000000E+00  0.00000000E+00  0.00000000E+00
  0.00000000E+00  0.00000000E+00  0.00000000E+00
  0.00000000E+00  0.00000000E+00  0.00000000E+00
  0.00000000E+00  0.00000000E+00  0.00000000E+00
  0.00000000E+00  0.00000000E+00  0.00000000E+00
  0.00000000E+00  0.00000000E+00  0.00000000E+00
  0.00000000E+00  0.00000000E+00  0.00000000E+00
  0.00000000E+00  0.00000000E+00  0.00000000E+00
  0.00000000E+00  0.00000000E+00  0.00000000E+00
  0.00000000E+00  0.00000000E+00  0.00000000E+00
  0.00000000E+00  0.00000000E+00  0.00000000E+00
  0.00000000E+00  0.00000000E+00  0.00000000E+00
  0.00000000E+00  0.00000000E+00  0.00000000E+00
  0.00000000E+00  0.00000000E+00  0.00000000E+00
  0.00000000E+00  0.00000000E+00  0.00000000E+00
  0.00000000E+00  0.00000000E+00  0.00000000E+00
  0.00000000E+00  0.00000000E+00  0.00000000E+00
  0.00000000E+00  0.00000000E+00  0.00000000E+00
  0.00000000E+00  0.00000000E+00  0.00000000E+00
  0.00000000E+00  0.00000000E+00  0.00000000E+00
  0.00000000E+00  0.00000000E+00  0.00000000E+00
  0.00000000E+00  0.00000000E+00  0.00000000E+00