Li 
 1.0000000000000000
    20.6400000000000006    0.0000000000000000    0.0000000000000000
     0.0000000000000000   20.6400000000000006    0.0000000000000000
     0.0000000000000000    0.0000000000000000   20.6400000000000006
 Li 
 432
Cartesian
 -0.3183753300000000  0.4215387800000000  0.2706182600000000
 18.1485867899999995  1.8634193699999999  1.8489342799999999
 16.7658502300000016  3.2945034700000000  3.7428260500000001
 15.9262422899999994  5.3301206199999998  5.0459626899999996
 13.7063803300000000  6.9180195400000004  6.6299162599999999
 12.0275883100000005  8.6090902800000002  8.1934870600000007
 10.5363326199999996 10.2854269600000006 10.3673301400000000
  8.6644443599999992 11.7653310999999992 11.6625102900000002
  7.0244273799999997 13.1782227200000008 13.6857188399999998
  4.8940998200000001 15.3468185100000003 15.6247834300000008
  2.8934996200000000 16.9769131199999990 16.8325952699999988
  1.4040977900000000 19.0319568600000011 19.2484980800000010
  1.6525836300000001 19.6866320899999998  2.2669430300000002
  0.1452419800000000  0.3958758500000000  3.4406191100000001
 18.6842573200000004  1.8056644600000000  5.0313010000000000
 17.4626273000000012  3.4302820299999999  6.9026748700000002
 15.4594027500000006  5.6352917400000004  8.9580032900000006
 13.9134648199999997  7.5270902700000004 10.0258657099999997
 11.9655216600000003  8.9880391300000007 12.2080436199999998
 10.5973005499999999 10.7636351300000008 13.6902765599999992
  8.3561688400000005 11.6715730499999992 15.6805545399999993
  6.4411032300000004 13.5226903899999993 16.9208283299999991
  4.9667051600000001 15.3080472899999993 19.0836390099999988
  3.0720699400000000 17.7613372299999988  0.0915112000000000
  3.6738238600000002 17.5734509900000013  3.3214692299999999
  1.5958981600000000 18.7987942299999986  5.0126351199999997
 -0.2634849500000000 -0.1251172400000000  6.7364224400000001
 18.7073838899999991  1.5659183699999999  8.6387170399999995
 17.0479788100000000  3.9626981200000002 10.1615517299999993
 15.7595206999999995  5.5055193700000000 11.9973528999999992
 13.4031115799999991  6.9920973999999996 13.3958046500000005
 12.2536123099999994  8.7067040000000002 15.5036139800000008
 10.8314961400000005 10.2266896700000007 17.4739720500000004
  8.2876305600000002 12.0484435899999998 18.3959066299999989
  6.9417867400000004 13.5363708099999993 20.6340127299999985
  4.9900033199999996 15.7156853600000002  1.5820017099999999
  5.3082822199999997 15.7900056600000003  5.0495113399999996
  3.8140682699999999 17.5613630799999996  7.0089622699999996
  1.4515118499999999 18.4959156299999989  8.8443357200000001
 -0.4191123600000000  0.1795555300000000 10.3892887199999997
 18.5118145399999996  1.5125130499999999 11.7124212900000000
 17.3818914100000015  3.6262592200000001 13.7335571099999996
 15.3978426299999995  5.1849154400000002 15.4533423299999999
 14.0661043400000008  7.2136697900000000 17.4397255300000005
 11.5122234100000007  8.4262093000000000 19.2729701499999990
 10.2851864000000006  9.8403624599999997 -0.1385123800000000
  8.6901988299999999 11.7167350900000002  1.6455893800000001
  6.5016506100000004 13.5874260299999996  3.3771595300000001
  6.2977838799999999 13.4386075399999996  6.8144879600000001
  5.1144524699999998 15.4864051899999993  8.8954153900000001
  3.8215237200000001 17.1201224100000005 11.2427089299999992
  1.5187441699999999 19.2468652300000009 12.0373735100000001
 -0.7517325000000000  0.9714522300000000 13.8586106800000000
 18.6125298000000008  1.7730655399999999 15.7594638899999993
 17.1316311900000002  3.2216653399999999 17.1855628899999999
 15.0583506699999994  4.9096981599999996 19.4327390300000005
 13.5436883100000003  7.0746829299999998  0.3195618900000000
 12.2460567000000005  8.5978578999999993  1.8955588500000000
 10.7572586799999996 10.4470398099999997  3.8037111200000000
  8.0892218400000004 11.8393291400000003  5.3000213900000004
  7.9242220699999999 11.9121191900000003  9.0500920199999992
  6.6352345899999996 13.7856105099999997 10.4222067400000000
  5.0741170599999998 15.1292501000000001 12.2799658100000002
  2.9194885400000001 17.3495957199999999 13.9489102599999999
  1.4169949100000001 19.3637894000000017 15.3265688099999995
  0.2650154000000000  0.2227806000000000 17.1286568099999990
 18.7402110899999990  1.6798213700000000 18.7610242800000009
 16.7026958699999994  3.3573245400000000 20.7787356400000007
 15.5379645600000007  5.1642841500000003  1.9606178400000001
 14.1200348800000004  6.6661601900000003  3.5827461399999998
 12.0751197200000000  8.6196385499999995  5.0705948999999997
 10.0301916200000001 10.1437801000000007  6.4534828199999996
  1.7946666400000000  1.5007804400000000 18.8550339399999984
  0.0435811700000000  3.2663414000000000  0.0427015300000000
 18.6768527400000011  4.7507788000000000  1.7647767400000001
 17.5740973499999988  6.7312638099999997  3.4972450600000000
 15.9844475500000005  8.6772621999999995  5.2147454800000004
 13.8132704400000001 10.6079451799999998  6.4138237800000004
 11.8295169799999993 11.9003918800000008  8.1921822700000000
 10.4458624499999999 13.9523296000000006 10.1574660199999993
  8.6010833299999998 15.2528234999999999 11.8968227700000000
  6.6337638800000001 17.2232768999999983 13.4709620099999992
  4.7805232899999996 18.8602513000000016 15.1089201299999996
  3.1421539400000000 -0.1028466700000000 16.8776452399999997
  3.3701976199999999  0.4544650500000000  0.1167258800000000
  1.7786708800000000  1.6064332699999999  1.9163140700000001
  0.1483081600000000  3.3943354000000001  3.4340285200000000
 19.2619125300000000  5.0585636899999997  5.0266660300000003
 17.7728931599999989  6.4567993899999996  7.0215081499999998
 15.6031227700000006  8.3469650099999999  8.2365127699999992
 13.9420687399999998 10.3159243899999993  9.8677125599999993
 12.0589235200000005 12.0770122700000009 11.8357916700000008
  9.9285142999999998 13.4940873400000001 13.8211106499999996
  8.2068352800000000 15.3731593600000007 15.0248878599999998
  6.7472238700000000 17.5856779500000009 16.9953001700000002
  4.6089538699999997 19.3579555200000009 18.5841249200000007
  5.1222150800000001 19.1234194299999984  1.9379549500000000
  3.6450397699999999 -0.1578497600000000  3.3548546199999998
  1.6911415400000001  1.5965476199999999  5.0379903500000003
  0.0240771500000000  3.4526218300000000  6.9461865400000002
 19.1744907500000004  5.2211293300000001  8.9574862500000005
 17.0825040900000005  7.0210806100000003 10.1957777699999994
 15.7139565000000001  9.0553361500000005 11.7043908400000003
 13.7985080700000005 10.3727566400000004 13.8408504200000007
 11.9900107899999995 12.0374873900000008 15.6139144299999995
  9.9303423599999991 13.5532313900000005 17.2616340699999995
  8.3104395199999992 15.4813097699999993 18.7436625799999987
  6.7706374499999997 17.4909987999999998 20.8718107400000008
  7.1689347200000002 17.7367565700000007  3.1580032400000002
  5.5161776199999997 19.4086635200000011  5.2456864300000001
  3.3410373199999999  0.3261346200000000  7.1756770500000000
  1.2757023000000001  1.1680469400000000  8.3584042299999997
  0.0731812100000000  3.2403767100000000 10.3174133200000000
 18.9837900700000013  5.4953967300000004 12.0526368000000002
 17.2943682400000007  6.7802181600000004 13.4095602100000004
 15.5341869999999993  8.6181661999999992 15.3828418500000002
 13.7065127800000006 10.4338589600000002 17.1230735600000017
 12.0876525800000003 11.8703392700000006 18.8663590499999998
 10.4567733000000000 13.9957846200000002 20.4962528900000009
  8.2608429200000000 15.3508700600000001  1.8867697000000001
  8.1642509899999993 15.5491803900000001  5.4212494600000003
  6.9783589800000003 16.9709624099999985  7.0387695499999996
  5.3288067300000002 19.0610602100000008  8.5988435499999998
  3.3210348500000002 -0.1150878200000000  9.9386360899999993
  1.4406156200000000  2.0927044499999998 11.7943318200000000
 -0.9478570200000001  3.0457688400000000 13.9561479700000000
 18.6571580700000013  5.2410266700000001 16.0495363699999984
 16.8466779200000012  6.9815096600000004 17.5730401000000001
 15.3039532699999992  8.8551718200000007 19.0442433499999986
 13.9442930199999999 10.4042069399999999 20.5095791399999996
 11.8489884700000001 12.0454047899999992  1.8771332000000001
  9.8882055999999992 13.8036521499999996  4.0165555399999997
  9.9510570099999995 13.2638587999999995  6.9548187600000002
  8.4960386600000000 15.6038354500000001  8.9934196699999998
  6.8852365100000004 17.3127422799999984 10.3669992799999999
  4.8593556400000004 19.2860936800000005 11.9428759499999995
  3.0059700199999999  0.4726110700000000 13.9095047500000000
  1.6886508400000000  1.6805517299999999 15.2998580200000003
  0.1511972500000000  3.0541235300000000 17.5656750499999994
 18.5243257899999989  4.7036315100000001 18.8899633499999986
 16.8368124700000017  6.4646616500000000 20.6747179800000005
 15.5715782600000008  8.3613223399999992  2.2994163599999999
 14.2745420799999998 10.4133387200000005  3.4410791900000000
 12.3793238999999993 11.9633616299999996  5.2254422299999996
  3.6745638800000000  3.4600275800000002 17.3708866200000003
  1.8397938000000000  5.2210333400000000 19.2558924900000008
 -0.2439569900000000  6.6911253200000003 -0.0283312200000000
 19.0771843099999998  8.5682679799999999  1.9441402699999999
 17.7675332300000015 10.5067085099999993  3.6880141100000001
 15.9947678399999997 12.3210358699999993  5.4850342300000001
 14.0346788999999994 13.6564562400000007  7.1929558099999999
 11.8762751499999997 15.4700153799999995  8.5155382999999993
 10.7476399199999992 17.0303622600000004 10.3339908600000001
  8.6522095100000005 18.9481255799999992 11.9017830399999998
  6.9826306999999996 20.8212731499999997 13.3785246999999998
  5.4273160300000001  1.6199094999999999 16.0159402100000001
  5.8647406300000000  1.5548096000000000 18.6828260200000003
  3.2971677399999999  2.8119496100000001  0.1302702700000000
  2.1862395399999999  4.9103965900000004  1.4401898200000001
 -0.1971218600000000  6.6110568499999998  3.2517882999999999
 19.4843044200000008  8.5894866499999996  5.1448067200000001
 17.7696718999999987 10.0377530299999993  6.8381633900000001
 16.1276761999999998 12.0952960600000008  8.1190970700000005
 13.5570130199999994 13.6879461800000009  9.8257607000000000
 12.0280877900000007 15.3251626900000009 12.1667947400000003
 10.3040209600000008 17.4155548200000005 13.2163583300000003
  8.3394149500000001 19.3851907600000004 15.2790551299999997
  6.7459888799999996 20.5114541000000017 17.0752675099999998
  6.8026153400000000 -0.0470840000000000 -0.0766933900000000
  5.8989094700000004  1.8917932900000001  1.7741379300000000
  3.7523448500000001  3.6872913600000001  3.5002173100000000
  2.2777492100000001  5.2682796700000001  4.8436680000000001
  0.4797619400000000  6.6399574000000001  6.9283370099999999
 19.5415570599999988  8.3623090199999996  8.2755668599999996
 17.7269114499999993 10.1491897299999998  9.8473875500000005
 15.7204839500000002 11.6219021300000005 11.5284002999999995
 14.2582289800000002 13.2324104600000005 13.5786988900000001
 11.9458899800000005 15.2557934999999993 15.1265511700000008
  9.9160503700000007 16.8927409299999987 16.5430023999999989
  8.7725883200000006 18.9896977900000010 18.4215356899999989
  9.0251064599999999 18.9704052099999991  1.4810190999999999
  7.6010248100000002 -0.0146715300000000  3.4167212800000000
  5.1670260299999997  1.5287407799999999  4.9380328999999996
  3.1604858600000001  2.9912811700000002  6.9454301300000001
  2.0495134500000001  4.7012071500000001  8.7466994099999997
  0.0619737500000000  6.6648588100000001  9.9190747399999992
 18.8568273700000013  8.9587900800000000 11.8477158500000002
 17.4085413799999991 10.2204289100000008 14.2321446100000006
 15.8855307099999994 11.7414453200000004 15.4486290200000003
 13.5632755800000009 13.3588830699999992 17.1506509300000012
 12.2279587999999997 15.1533498299999998 18.3114810199999987
 10.7106092900000007 16.9859628799999989 20.6986406699999996
  9.9422848500000001 16.7195192199999987  3.6287965500000001
  8.5921539800000009 18.9825821599999998  5.5040046199999999
  6.9708708399999999  0.0469798300000000  6.9678876199999999
  5.2087686399999997  1.7796890999999999  8.3464214699999992
  3.6870099800000000  3.3202191299999999  9.8112602599999992
  1.8191842300000001  4.8626651000000001 12.0740027600000008
  0.3628195000000000  6.8695147199999997 13.5709151200000004
 18.9718550899999983  8.4780449099999995 15.5769226100000004
 16.9164158200000010  9.7878088099999996 17.4524519900000001
 15.4911297999999995 11.9953441299999994 18.5779972099999995
 13.6281564399999997 13.6621404799999997 21.0662859699999991
 11.7593755000000009 15.0337292100000006  2.0278284499999999
 12.0440996699999996 15.3193853799999999  5.6995360499999999
 10.0242085999999997 17.1361320399999997  6.9664897699999999
  8.8234824599999993 18.9563206000000015  8.5189951399999995
  7.3840553000000000  0.5373761500000001  9.9521160599999998
  4.9286262000000001  1.7930259099999999 11.9204490799999991
  3.3299155900000001  3.6384903500000001 13.6705268600000007
  1.4427970400000001  4.6815748800000003 15.6052418700000004
 -0.2232308800000000  6.7937735500000000 17.1924158200000008
 19.0168693799999993  9.0234127900000001 19.0406201099999990
 17.2052430100000002 10.4056454600000006 20.9174507900000002
 15.9427979600000000 11.9363375400000002  1.3102551099999999
 13.9391305800000005 13.6351395800000006  3.5699475399999998
  5.1546809500000004  4.7148792700000000 15.4327074999999994
  3.0817623900000002  7.1110218999999999 16.7446457600000009
  1.1495187400000000  8.7169007799999996 19.1690423599999988
  0.0618661500000000 10.5296533799999992  0.2622964400000000
 18.6154594099999997 12.2379818999999994  2.2710649799999998
 17.0559647800000000 14.2321524499999992  3.6832940900000000
 15.0846438900000006 15.4461936299999998  5.2923235799999997
 13.4228159799999993 16.7849198599999987  6.6898426799999999
 12.2977053400000003 18.8251885600000008  8.5519385299999993
 10.5543173199999991  0.0355166000000000 10.3726876499999996
  9.3264082699999999  1.7057934900000000 11.9073929799999991
  7.0079899699999997  3.0467642900000000 13.5511897300000008
  6.9036350700000000  3.5722623900000001 17.1438432399999989
  5.0412915299999996  5.1596424499999998 19.0002768199999998
  3.4945894100000001  6.7865437899999996 -0.1261486200000000
  1.7638631100000000  8.5587474799999992  1.9024970100000000
  0.3191398900000000 10.5090732700000000  3.7903880800000000
 19.1251947499999986 12.4015380099999994  5.3227214500000004
 17.4848477299999985 14.2508307100000007  6.6950218300000000
 15.6351621099999996 15.8256804800000008  8.7494449200000002
 13.7403618200000004 16.9978992700000013 10.2099613700000003
 12.5778072800000000 18.9744472500000008 11.6316959299999994
 10.7178026000000006 20.4765458500000008 13.8775076199999994
  8.9263928700000008  1.5786846800000001 15.2978047099999994
  8.7220308600000003  1.4953866700000000 18.7857934799999988
  6.9531319199999997  3.6959006300000001  0.1273301000000000
  4.8924420099999999  5.0780861200000000  1.6563012500000001
  3.6774796500000000  6.9704053200000002  3.3466917299999999
  1.6474965800000001  8.8587193299999996  5.1104205399999998
  0.2464927900000000 10.0781437100000009  7.0106733200000004
 18.9660941200000011 12.1990418999999992  8.2642430400000002
 16.9825423600000001 13.7610508899999999  9.8627068300000005
 15.4981971299999994 15.4373740099999992 11.8889620300000001
 13.7889777599999999 17.0892467799999999 13.7087337300000005
 11.8468056300000004 18.4274151099999983 15.1618432500000004
 10.5389590099999992  0.3109047000000000 16.9230714300000002
 10.5747239600000000 -0.1188314300000000 -0.0962843900000000
  8.8655067299999999  1.7658030800000000  1.4868273900000000
  7.1746631000000001  3.5502381700000001  3.5813194199999998
  5.2896995599999999  5.2308010100000004  5.2470891200000001
  3.3980706700000001  6.6655569799999999  6.9672059900000001
  1.8503827200000000  8.6109964899999998  8.2685148099999992
  0.1755983200000000  9.8711364199999991 10.1464833599999995
 18.7682629299999988 11.8708742600000008 11.6392966100000006
 17.1987819600000016 13.4260336900000006 13.7135947999999992
 15.1180266200000002 15.4118887699999991 15.5076615199999992
 13.4456404599999999 17.1548177899999992 16.9144881100000006
 11.9747983799999993 18.7345356599999988 18.8070959900000005
 11.7751835000000007 19.0784693499999989  1.8834977100000001
 10.5641097100000003 -0.0357105500000000  4.0205284700000004
  8.8205869099999994  1.8695883900000001  5.3924646500000000
  6.8839964199999999  3.0000024800000000  7.0399871300000001
  5.6269082099999999  5.2151047899999998  8.5831732400000007
  3.5702870899999999  6.9471128799999997 10.1452056899999992
  2.1229185099999999  8.7917471400000000 11.8404630399999995
 -0.2737567200000000 10.1899399499999994 13.9346844599999997
 18.6648487100000011 11.6331062000000003 15.5909624299999994
 17.4658995099999999 13.8400926200000001 17.3309250599999984
 15.4419416500000004 15.1524590000000003 19.1269436800000001
 13.5308659000000002 16.9870881500000017  0.4112722400000000
 13.5952742299999993 17.1468985099999998  3.4397586200000001
 11.9294939899999992 18.6479168800000004  5.4965073400000000
 10.3235914300000005  0.2334152300000000  7.1699389900000003
  8.9709432299999996  1.8746593499999999  8.7833415099999996
  6.8561261599999996  3.0199232899999999 10.4869968300000007
  5.1899169199999999  5.0083750100000000 11.6482829500000005
  3.5260961000000002  6.5952919500000000 14.2453650399999994
  1.5531917200000001  8.6718688000000004 15.4762260699999992
 -0.3929655500000000 10.2539137500000006 17.3747262499999984
 18.6747359199999998 11.9276896499999996 19.1802071800000000
 17.1929692199999984 13.7942578000000005  0.2306008900000000
 15.0470475399999994 15.6174664700000001  1.9910528500000000
  6.9708268699999998  6.2495160600000004 13.6967018500000002
  5.3706881099999997  8.4452942699999998 14.8381689300000001
  3.5640832300000000  9.8062848700000007 16.8653621899999990
  1.7784419400000000 11.7168094699999994 18.7450713600000007
  0.2163459000000000 13.9026006100000004  0.2257539500000000
 18.7569177099999997 15.3723972900000003  1.8304442599999999
 16.8104340999999984 17.3439178200000015  3.2995886600000000
 15.2712164599999998 18.6912524100000006  4.9467454100000001
 13.3635503300000007  0.1719341300000000  7.0720796400000001
 12.2878148500000002  1.8159332900000000  8.5752535699999992
 10.9621877300000001  3.6669812300000002 10.2209126500000007
  8.9265993500000000  4.9966769600000003 11.8956546799999998
  8.6036865700000007  5.3112246200000000 15.3987748900000003
  6.7948807000000002  7.0937629800000002 16.9629091500000015
  5.1968771900000004  8.4201170100000002 18.4790156500000009
  3.7022584900000002 10.1669819100000005 -0.3229571400000000
  1.9625986300000000 11.5548669000000004  1.6979788400000000
 -0.1910440000000000 14.0185419299999996  3.4155024500000000
 18.7286319399999996 16.5525842599999997  4.9565830499999999
 17.2634504799999995 17.5994641499999993  7.3121413500000001
 14.8625427999999999 19.2077554600000013  8.1789154699999997
 13.8975318100000003  0.0812034300000000 10.2096727800000000
 12.6381491700000002  1.9770146600000000 12.2758791800000004
 10.7213998400000001  3.5888139699999999 13.7716662599999999
 10.4936772499999993  3.8713142000000000 17.5602839099999990
  8.7489163199999993  5.4993563400000003 19.0308957099999994
  6.7370916899999997  6.8280317100000003 -0.3781674400000000
  5.2817472499999996  8.8274878399999999  1.3362894800000000
  3.6327567900000002 10.5797599899999994  3.6165039399999999
  1.7484133700000000 12.3830186399999995  5.3790806699999996
  0.0701501700000000 14.8427544600000001  6.6879894699999998
 18.8274196200000006 15.9999565799999992  8.3638468800000005
 16.6298568300000014 17.4179081999999994 10.4803728199999995
 15.1303331900000000 18.7665985000000006 12.0323773200000002
 13.8230860799999995  0.0706360400000000 14.0058278499999993
 12.2291187000000008  2.0216956100000001 15.1254785799999993
 11.9904621000000002  1.6942403200000000 18.6269657100000003
 10.4258989199999998  3.3616514799999999 -0.0259493800000000
  8.6764313499999997  5.1739982099999997  1.8632770500000000
  6.8994617800000002  7.2639966899999999  2.9584342499999998
  4.9541351200000001  8.1943460199999993  5.2190313899999996
  3.4514336499999998 10.6582939600000000  7.0424153599999997
  1.4459362600000001 12.4814978100000005  8.5058066799999992
 -0.0049972400000000 14.0236913899999998 10.3431341400000001
 18.0746865399999983 15.4165696699999994 12.3279345599999992
 16.9843714699999992 17.2728573999999995 13.9154296700000000
 15.6961262399999999 18.9808249499999988 15.5685370499999998
 13.5612626299999999 -0.1090299800000000 17.3197807899999994
 13.3356662000000004  0.0369075500000000 -0.0418781900000000
 11.8381886499999993  1.6229161000000001  2.1257551100000001
 10.2244994400000007  3.3590075000000001  3.5984011400000000
  8.5572660599999999  5.3673181599999999  5.0916382899999997
  7.0178386699999997  6.8359579500000001  6.9396007600000003
  5.4089141700000001  8.3121019799999996  8.6951307599999996
  3.5050675600000001  9.9931098200000008  9.7172270600000008
  1.5007916600000000 11.5969452200000003 12.1571456500000004
 -0.3414715500000000 13.5630275400000002 13.5922775900000001
 18.8780649899999986 15.4994679200000007 15.3971099799999998
 16.9607104600000014 17.3802753900000013 17.4781504800000000
 15.2457529899999997 18.8798602500000001 19.1302779299999983
 15.7276356100000001 19.4070111499999989  1.6085267599999999
 13.2771661400000003 -0.2072961900000000  3.5738285099999998
 12.1318233600000003  1.6748438999999999  5.7215526299999997
 10.6140290299999993  3.8316745100000000  7.3332611300000003
  8.3079272399999997  4.9616454299999999  8.9696899499999994
  7.3746455199999996  6.9034178900000001 10.2494209000000005
  4.9391080299999999  8.5293012699999995 12.1853534600000000
  3.4609126500000000 10.5597660900000001 13.6615394600000002
  1.4680283500000000 11.6210878900000001 15.3899216600000006
 -0.0873203900000000 13.4200263000000000 17.1528022299999989
 19.2146570899999993 15.6755964799999994 19.2832663800000006
 16.6644638799999996 17.6453349199999998  0.2335930400000000
  8.6996073900000006  8.7170794899999997 12.2025657600000006
  7.2135303700000000 10.2316790599999994 14.1744872300000004
  4.6980022799999999 11.8466364800000008 15.2118342999999996
  3.1508121999999998 13.6722849600000007 16.9970782400000004
  1.5730842599999999 15.5074269699999991 19.0066019100000005
  0.1870257800000000 17.1885634399999994  0.5342074999999999
 18.9618671600000006 19.0870955299999991  1.8313153700000000
 17.2109010799999993 20.4934018400000006  3.6239073999999998
 15.4566365399999999  1.5809010800000001  5.3772885800000001
 14.3347357800000008  3.6731624799999998  7.0744359799999996
 12.1221801700000000  5.7015633699999997  8.6284343299999993
 10.6059285499999998  7.3409585599999998 10.2733249999999998
 10.5506313800000004  7.1683255600000004 14.0063373400000000
  8.8268127399999994  8.6139662799999996 15.6832376500000006
  6.5663284700000002 10.1551640699999997 17.3492942700000015
  5.0823574100000002 11.9668031500000005 18.8555589400000017
  3.1329149100000002 13.5996561200000006 -0.2039159200000000
  2.2988867100000001 15.3508574200000005  1.8205483899999999
  0.1228548500000000 17.0847466499999996  3.3108612100000001
 18.9973103399999985 18.7431963199999991  4.9679125900000001
 17.0989882199999990 20.2979778899999985  6.8837007899999998
 15.7866447799999996  2.1526987499999999  8.6342073500000005
 13.9515965099999999  3.9713517700000001 10.0914391999999999
 11.8801292800000002  5.8294162500000004 11.8809034800000006
 12.1338510900000003  5.4890667799999999 15.4170536600000005
 10.0708670500000004  6.8122257099999999 17.1968479300000006
  8.8778662700000002  8.6038572999999996 18.6549152599999992
  7.0235564799999999 10.0466011799999997 -0.4826885500000000
  5.1666397399999999 11.9865820900000006  1.4498918000000001
  3.6908321599999998 13.8312532200000007  3.3727694900000000
  1.8477196800000000 15.9552315199999999  5.0683979900000002
  0.5489233700000000 17.3348085999999988  6.3233286299999998
 19.1286600299999989 18.6442121500000013  8.4110548200000004
 17.2272808700000013 -0.3708416700000000 10.2804695000000006
 15.6644925300000004  2.2687419599999998 11.8916444400000003
 14.0810171200000003  3.8981573200000001 13.6234217999999991
 13.1848301400000008  3.7744047599999999 17.1787362200000011
 11.8330260500000009  5.7087127999999998 19.2829829599999982
 10.1933672800000004  7.1710877799999997  0.4217512300000000
  8.6538757900000007  8.5726746400000007  1.9700683299999999
  6.2770814300000000 10.4181317900000003  3.2948384100000001
  5.5360495900000002 12.0138332299999995  4.8624896000000000
  3.7763190199999999 14.1386307099999993  7.0678919599999999
  2.2520398400000001 15.6846539699999994  8.8894384399999993
 -0.3831037700000000 17.2251718599999997 10.6651380699999994
 18.8557520200000006 19.1761310099999989 12.0314958700000005
 17.0451646200000013 20.7015232100000013 13.6931785500000007
 15.3603691900000001  1.8992456700000000 15.5194822899999991
 15.5307141800000004  1.5867720999999999 19.1583940300000002
 13.7301097500000004  3.2143097300000001  0.3985208900000000
 12.4291597399999993  5.5068735799999997  2.0480059399999999
 10.5406207100000007  6.5889015600000000  3.9495491600000001
  8.4193234100000005  8.4813399599999997  5.0041038100000002
  6.7656571300000001 10.2273694299999995  7.0285539100000003
  4.9511444400000002 12.0580576900000001  8.4951521400000001
  3.2676866599999999 13.0766624399999998 10.5616908299999999
  1.6779242599999999 15.0265926200000006 12.3949744200000005
 -0.1130010500000000 17.3728194800000004 13.6741845200000007
 18.8410024199999988 18.8157719499999985 15.5956916600000000
 17.0541605800000013 20.4042459299999983 17.3678478200000015
 17.1457848400000010 -0.4005375900000000 -0.1506156000000000
 15.7615543000000002  1.2060807099999999  1.9384889700000001
 13.8737946700000006  3.4662463200000002  3.6784454300000000
 12.6447346199999995  4.8081014499999997  5.1462199100000001
 10.0299157399999999  6.7266583500000001  6.9495223299999997
  8.1810330100000002  8.9486875900000005  8.4266385600000007
  6.2295501499999997 10.2791835999999996 10.2828732699999996
  5.4987621600000001 11.7727232500000003 11.9498580400000005
  3.1539792699999998 13.3305051300000006 13.5327584099999996
  1.6563468299999999 14.9949330100000005 14.9060608299999995
  0.1609463900000000 17.1262325599999983 17.1586986300000000
 19.2861912599999989 18.5034885299999985 18.9918896599999982
