Li                                      
   1.00000000000000     
   -10.6364300000000007   18.4228371711498369    0.0000000000000014
   -18.2338799999999992  -10.5273355263713349    0.0000000000000078
    -0.0000000000000001    0.0000000000000000   22.3096999999999994
   Li
   504
Direct
  0.0035834559404222  0.9938734664115145  0.0153054635427665
  0.9277680052018127  0.0380644210903753  0.6856264727898633
  0.8476048229410225  0.0813519894353476  0.3348787074680502
  0.7719442948150856  0.1172119617053511  0.9941821391592001
  0.7131487011985413  0.1690168938322927  0.6606572262289490
  0.6371196326388784  0.2130690519961078  0.3286165555789609
  0.5700024413209732  0.2448394018749909  0.9751300860163994
  0.4979910910024614  0.2849514052921620  0.6600892840334041
  0.4291654182834677  0.3309166200505373  0.3449751238250656
  0.3588350509478815  0.3687026622444805  0.0044667090996313
  0.2863404058931494  0.4191288889992606  0.6596354325696865
  0.2136202482470395  0.4574040979175962  0.3219115806129196
  0.0679739343000918  0.0374897924080031  0.6811229568304356
  0.9982050219150835  0.0828145363878505  0.3371860280505814
  0.9184610016041219  0.1280948201209995  0.0168657476344336
  0.8490793756282287  0.1634110927946608  0.6648592468746770
  0.7842469245167649  0.2136800985123344  0.3303421856860496
  0.7107707776605565  0.2577882851794513  0.9935771211625450
  0.6374835980313733  0.2914522319655077  0.6578368705092430
  0.5677386437999914  0.3320908307461963  0.3297199168971332
  0.4993698264271842  0.3666431169391871  0.0039370336669720
  0.4263385756512079  0.4116879316846536  0.6632417217622830
  0.3589735254368804  0.4568405021222830  0.3435606413353867
  0.2767340743733797  0.5018929470476223  0.9996358229828246
  0.1380709020100497  0.0798101460431511  0.3344574032819807
  0.0708891865298753  0.1247490171986456  0.0019805344760329
  0.9954076939838998  0.1567106206401974  0.6813955857765919
  0.9232108341548155  0.2001585146590159  0.3415403048898042
  0.8517513468335380  0.2491327294025965  0.0023567708216632
  0.7786523251070179  0.2978213775489351  0.6744555753775288
  0.7116544104276841  0.3354816588293161  0.3303433439266357
  0.6449584586792412  0.3710421622468942  0.0014272944055733
  0.5739260469214855  0.4187717461529274  0.6609869101780816
  0.4931138046890808  0.4581190604737415  0.3319062129925570
  0.4274903163500241  0.4978772337245374  0.9949118679318829
  0.3445846835177875  0.5369279075375601  0.6535951491951906
  0.2074226672590527  0.1238210144678931  0.0003334751251671
  0.1424859659376594  0.1572554874399543  0.6836643146254744
  0.0705588626405387  0.2038962643520890  0.3308323200222318
  0.9921053095116861  0.2462137533399726  0.0027461341927477
  0.9326340451128843  0.2871601646791575  0.6814737558102522
  0.8536045983800165  0.3380638762376904  0.3198445402672405
  0.7834252907288359  0.3770609055742966  0.9900740597139333
  0.7138054455032474  0.4252435189485695  0.6610451090781169
  0.6375736643364718  0.4609915026007414  0.3396776621828153
  0.5692563466630673  0.5021600973935634  0.9995737773255584
  0.4974010823716313  0.5387965839102762  0.6507261572320573
  0.4298363062147104  0.5759835349080191  0.3208883342223317
  0.2831524391030342  0.1633890528045185  0.6646486470010800
  0.2102030958854328  0.2131315899211401  0.3410111637538833
  0.1386410886907186  0.2453209423895188  0.9858989461982901
  0.0708707061246159  0.2914065018117356  0.6601936632944430
  0.9964688834540212  0.3281623880360698  0.3425263351815602
  0.9221440288781224  0.3687620417003856  0.9992715415267810
  0.8459794287016393  0.4218087135143520  0.6642079646969705
  0.7785179456742739  0.4638921155065105  0.3240933253248599
  0.7124788188411486  0.4964287434661969  0.9979833816680639
  0.6357081470422372  0.5430538208848290  0.6436181046809253
  0.5652732388162462  0.5827533045329716  0.3300542145344849
  0.4921518158458014  0.6264618184052608  0.9970040583244071
  0.3555523833315632  0.2093849007101412  0.3157059220877017
  0.2860774341877743  0.2523638039014244  0.0077417343128801
  0.2082492631732933  0.2855702631423327  0.6646108369901853
  0.1407423988760215  0.3352521052196877  0.3489062587125744
  0.0728732865900241  0.3755992903493492  0.9960220204664338
  0.9998519143717743  0.4068572055107680  0.6492665450454282
  0.9235398626971190  0.4603258449771772  0.3347345244445208
  0.8561794335491300  0.5016811642730445  0.9973366271173489
  0.7815770137727398  0.5361727264519232  0.6532941626288107
  0.7006183376062722  0.5750013560105955  0.3274227094044306
  0.6323155527361521  0.6256154600891648  0.0099386589689701
  0.5663493521696452  0.6690405629576475  0.6546086890455740
  0.4290696910747869  0.2469599090134125  0.9934920630936332
  0.3581071728288308  0.2873378498546799  0.6777145300026461
  0.2787687807713084  0.3386488003179053  0.3432648072363165
  0.2071811279607019  0.3766142814982345  0.9884630864601505
  0.1377053235644539  0.4157677403426661  0.6692755438217475
  0.0704222500346319  0.4531690686274175  0.3319721305082552
  0.9981124086326290  0.5029241852774931  0.9998603280187552
  0.9168149901037381  0.5383471814452534  0.6468137316951825
  0.8545288112455225  0.5809339041500650  0.3288620075572481
  0.7867443638286531  0.6217465353639469  0.9857247089830850
  0.7132885840738439  0.6625318679128895  0.6649241029686621
  0.6382302829392188  0.7015349460255749  0.3146967843583752
  0.1399528528818053  0.5004738660681269  0.9917053174179813
  0.0712051656997090  0.5428274618126636  0.6566705818545273
  0.0025256774009961  0.5830261474311413  0.3241155183619711
  0.9260009284984818  0.6296014503819762  0.0045031815757284
  0.8541907150988877  0.6694459381218252  0.6572834390422102
  0.7828037640528720  0.7076887606979483  0.3377153054500965
  0.7072264653291640  0.7478979552009193  0.0038954562365277
  0.2135855247599636  0.5449298951664332  0.6684383447558702
  0.1443555000059220  0.5839319442198843  0.3353891056356630
  0.0718027049879026  0.6254672101925394  0.0038053842050800
  0.9925250116482474  0.6726247814702191  0.6571927090010163
  0.9306979306234595  0.7049607028113982  0.3498834318704382
  0.8529890857105826  0.7509776870899358  0.9919563696508717
  0.7827959579165480  0.7964174837904849  0.6724916534063681
  0.2899751591013455  0.5835919748555796  0.3473775147133296
  0.2048265768617199  0.6252035339198656  0.9996077777827566
  0.1372643810879310  0.6682138946326788  0.6636666055572249
  0.0762496212752666  0.7111461203418656  0.3402785111408946
  0.9975107496311395  0.7468729895831743  0.0106511024352614
  0.9222546423429421  0.7905901132696016  0.6491710610183006
  0.8557149536275688  0.8409606422652303  0.3408929900446864
  0.3623556730684143  0.6195794459711763  0.9975296144726258
  0.2919362323567114  0.6642532116079565  0.6705493744873294
  0.2097234054778312  0.7083052925802633  0.3303519115003795
  0.1431255479339555  0.7559743778169477  0.0077263652133368
  0.0723230986599575  0.7876815600256322  0.6742461382268701
  0.0005235085671842  0.8380084687280345  0.3514923226220006
  0.9280585147060947  0.8801085562932656  0.0063387360654801
  0.4254427452039664  0.6601522638972170  0.6671857958645759
  0.3527805925759182  0.7017605485890996  0.3335453771229524
  0.2881322754329361  0.7456700220477970  0.0088938632074829
  0.2159830536861875  0.7908968759408666  0.6616742511105045
  0.1414351049527838  0.8235509818331082  0.3365140378400397
  0.0697051663236294  0.8735501795427183  0.0111958910249825
  0.9957384654957906  0.9196859348337654  0.6680026849307694
  0.9333829631684623  0.9532766086574043  0.3316326781624142
  0.8572481049317631  0.9999783945743133  0.0018603714975995
  0.7756345074502988  0.0395206777669088  0.6684326871271224
  0.7211463344257965  0.0894148565266093  0.3273243423264347
  0.6485653019405433  0.1244322259157400  0.9890574579667160
  0.5688547807252675  0.1621353214263976  0.6826830289067090
  0.5001584994669344  0.2065579082189259  0.3266606646436330
  0.0664944296517263  0.9570017546248835  0.3312545950864418
  0.1416064484963542  0.9981628497620889  0.9985014903831058
  0.2179109891637339  0.0452410165872124  0.6692918551123483
  0.2834498151956453  0.0801178274815157  0.3270819894485371
  0.3582995474918675  0.1255668899911058  0.9939421135201272
  0.4286725439764112  0.1696190582077435  0.6785284123049635
  0.8536648040038912  0.9186046249481095  0.6733862790624698
  0.7880276715677468  0.9587729985777358  0.3352519877004170
  0.7027940192588034  0.9923804330035679  0.9910719063904949
  0.6448088687477380  0.0437747760863587  0.6656354742555948
  0.5660117040736452  0.0919044718096202  0.3467575861620702
  0.5025945206231626  0.1296996208710439  0.9843336813135082
  0.1395140079021004  0.9168479380652812  0.6689149455169741
  0.2110380650942290  0.9622042172751932  0.3235128204323701
  0.2824016078199563  0.9951429046662383  0.0242756742582841
  0.3490739709211823  0.0361084137591519  0.6866205950774784
  0.4215371800317129  0.0864205046975925  0.3145141431753871
  0.7841706497234995  0.8749499967182786  0.0036945068736927
  0.7172835195414606  0.9173773099441078  0.6705657911132832
  0.6382263547340941  0.9544238013914565  0.3447593006629432
  0.5683291258993677  0.9981661728282845  0.9868616391076515
  0.4943905965505024  0.0432307565439913  0.6761984423815619
  0.2087294048058297  0.8779972752283740  0.0197358619793206
  0.2837862020626716  0.9154856134182339  0.6612892714828078
  0.3578132367024409  0.9516778839578350  0.3176718821857776
  0.4212903633745242  0.9964631170267850  0.9979538438437103
  0.7200342977296685  0.8331362482696605  0.3358114730363937
  0.6400100038286070  0.8762294851659291  0.9996399238896103
  0.5645646019933039  0.9097433031488862  0.6765110485573516
  0.5014256771111292  0.9595997398910612  0.3412548151700818
  0.2887816430477415  0.8274682930038892  0.3450990237430318
  0.3575743240228064  0.8762755224194763  0.0113324101175749
  0.4247384460464403  0.9158885415675755  0.6697897112018509
  0.6405819895384468  0.7896529893261075  0.6718148002886650
  0.5722093818551173  0.8333763227878421  0.3438409400395344
  0.4939592337363479  0.8688894183525235  0.0036730767334419
  0.3537856738934764  0.7905455813370068  0.6694938896533813
  0.4186752206187379  0.8209818301510268  0.3369306575166888
  0.5684589731939766  0.7486071353848089  0.0082869675522304
  0.4966928507098700  0.7888524785686855  0.6737635436603782
  0.4282657890796955  0.7458347725804444  0.9976417257963988
  0.4966682227549057  0.7121924590620878  0.3238320425644474
  0.0107511936958034  0.9957108701405346  0.7862151745653208
  0.9248552693386145  0.0577953549956831  0.4545388938443793
  0.8645124321960580  0.0784112635827867  0.1126242553687433
  0.7883926984393881  0.1225288238454070  0.7709387723725527
  0.7075698795252947  0.1721962811162925  0.4468093735012104
  0.6441425039533684  0.2088588247084715  0.0999830172525833
  0.5627103489419767  0.2575945220218117  0.7709976310752751
  0.4899431464000870  0.2891574398502001  0.4489841656319911
  0.4416897307789398  0.3392994999885346  0.1070718055375011
  0.3618175977034497  0.3673069779585632  0.7755395052376315
  0.2817160435211505  0.4242639922611247  0.4469756787406354
  0.2159749891176048  0.4610876432498046  0.1123955503659815
  0.0644862515231424  0.0456045701579555  0.4598962227192658
  0.9982646065032057  0.0774770164907892  0.1128176358265662
  0.9306894630584139  0.1159461367762447  0.7990312057087294
  0.8549893859438100  0.1762805807467061  0.4422713864372909
  0.7783836739338952  0.2067716903401404  0.0998494220002968
  0.7061993191664087  0.2458547854674293  0.7815808428620699
  0.6381504394450204  0.2976098357219570  0.4419389225314561
  0.5799423199633793  0.3279024754836541  0.1027465169858814
  0.5072509654411235  0.3889690084421460  0.7793596368395797
  0.4290988809880645  0.4102048817526551  0.4496852436384202
  0.3602700750818215  0.4600320839721164  0.1121740095115555
  0.2892780717297470  0.4976034096698854  0.7797639488652948
  0.1424730449769953  0.0808472245191538  0.1084308444308988
  0.0820500388918575  0.1223182545256094  0.7878393797316861
  0.9938701952606976  0.1709294636700065  0.4474925391197573
  0.9199241297755236  0.2117880395358398  0.1075917179522818
  0.8552765479322417  0.2540630791294589  0.7809005212979088
  0.7872765636480352  0.2989768705353484  0.4426846672075371
  0.7174674186957404  0.3448130005112517  0.1011768692541821
  0.6519398897187756  0.3737994551241144  0.7683559021412236
  0.5650976313560463  0.4106141518379900  0.4292884149047254
  0.5116352852323587  0.4671289946569814  0.1178804788948327
  0.4234918022634631  0.5042111580009774  0.7783502718548405
  0.3485867957967557  0.5506164835780183  0.4459673267681765
  0.2172696362208484  0.1255921763887571  0.7966010856264347
  0.1336860285522690  0.1697492220704433  0.4536418418894002
  0.0625904801677066  0.2050222612537667  0.1100603679117143
  0.9952565505136874  0.2373789422996992  0.7824245525488891
  0.9336685058241159  0.3099095850470235  0.4340855430597443
  0.8529048918934805  0.3371187454736670  0.0951626530164020
  0.7851275408318159  0.3715791230868177  0.7876463323128533
  0.7040789603674611  0.4277329369052936  0.4419676772883534
  0.6480219947875270  0.4596113566603535  0.1050090749763584
  0.5884589787728558  0.5059516726232189  0.7643222401018406
  0.4907787642061194  0.5405238149551863  0.4450706737428121
  0.4282947406520421  0.5941688248297368  0.0922884709341645
  0.2812083090073756  0.1656639862620963  0.4374329816178602
  0.2107581831828753  0.2046401538042417  0.1112548389265626
  0.1441362266370660  0.2551024337612589  0.7750798715357021
  0.0623532056295701  0.2898894460776020  0.4372743770646821
  0.9929224506495444  0.3318104028455622  0.1003075671120612
  0.9267927677637928  0.3771300223086982  0.7729376567143404
  0.8604423383739572  0.4237743238876845  0.4466049265566099
  0.7839383507195521  0.4632081009777451  0.0965036275700726
  0.7171473325728002  0.5011346064251114  0.7650078862557521
  0.6302849082645636  0.5394300326199115  0.4470697889258943
  0.5718421053524665  0.5847127783755255  0.1117282173225078
  0.5121012683256296  0.6261591601207854  0.7748631030448649
  0.3480429971737351  0.2154940497344171  0.1111189016436782
  0.2831354917747220  0.2567284034567834  0.7704869760687032
  0.2118267538681025  0.2895735608852661  0.4523073801978512
  0.1472619934541157  0.3361683588443540  0.1138042667539239
  0.0749998236027380  0.3712623871736085  0.7722735164524863
  0.0141170963161841  0.4297293276707776  0.4421506707844571
  0.9286640083878908  0.4596201423538346  0.1164160468316453
  0.8674135062275141  0.5008190412548785  0.7623177572983977
  0.7758938365597743  0.5331821740628158  0.4347700542813229
  0.7174265562978377  0.5915919658238948  0.0925459338314738
  0.6579561823148907  0.6243614888186428  0.7678168343814562
  0.5632092406632765  0.6661334415018558  0.4333496407392303
  0.4234685412737775  0.2532926186603888  0.7846890962227207
  0.3492181803161856  0.2926311416077922  0.4537309936933269
  0.2907709928300335  0.3357346515789743  0.1201538980802042
  0.2130561466851191  0.3805693642666270  0.7807900747208620
  0.1518980424103376  0.4107223248571046  0.4361215005132308
  0.0824052888438374  0.4603620789202694  0.1166708252464161
  0.9972958059756039  0.4990625264862416  0.7575035087876572
  0.9137880299399725  0.5434112402135796  0.4401153045536219
  0.8638658438028202  0.5911431304253583  0.1179938838263155
  0.7990813128959857  0.6255659295264522  0.7644711183924500
  0.7056442634721520  0.6713661846341452  0.4366208330905366
  0.6422201438433888  0.7082880097609419  0.1149359449028893
  0.1450283482487862  0.5081704484090110  0.7783675459553479
  0.0716432938701175  0.5574876570308192  0.4515818195672736
  0.0027675251132706  0.5833128820009463  0.1208628157258929
  0.9342164466070386  0.6307396445965168  0.7688449418862646
  0.8468901739724473  0.6545861400236390  0.4408009273992946
  0.7889719386014846  0.7106701965298114  0.1120225664172949
  0.7264240485508537  0.7429022713362272  0.7763579546116688
  0.2107903700410105  0.5430791029876616  0.4578241370345637
  0.1435013570460768  0.5954004770720402  0.1084941088405458
  0.0707631428689766  0.6226929646511934  0.7812434358149147
  0.9877806095714305  0.6747669059430095  0.4563270371183847
  0.9311756752788654  0.7102512724770378  0.1198576296409186
  0.8712602520372670  0.7573074703476834  0.7915346539845913
  0.7790821155053891  0.7949122915240778  0.4445733290900336
  0.2816336979171439  0.5832191786094469  0.1106283625508198
  0.2263128346496543  0.6299156178579324  0.7740881024845692
  0.1416766580504003  0.6756433301092812  0.4425401372497149
  0.0771789703629935  0.7147035197260223  0.1181796223167524
  0.9970747734432734  0.7427050357633576  0.7716156138361328
  0.9216036191516253  0.7809858070332325  0.4454250465044325
  0.8481899642707305  0.8368522699684249  0.1093466702824344
  0.3590620675051568  0.6276123865752155  0.7695014684195627
  0.2867009921518360  0.6681266173763589  0.4485293809419204
  0.2139688545778284  0.7107690401660420  0.1208170029180096
  0.1546874199161365  0.7514608715304334  0.7769810494986515
  0.0697864708598175  0.7891225047961541  0.4462081677476633
  0.9881262985934853  0.8373185248477739  0.1013083775218817
  0.9395439038108009  0.8795601015905348  0.7778188366495300
  0.4131397455521011  0.6656997597997361  0.4437652563683088
  0.3553107335745196  0.7128436023537503  0.0946092547187973
  0.2876839372637150  0.7460927794397065  0.7685618573983533
  0.2059346349281483  0.7988735788000767  0.4564275472104029
  0.1417869903559037  0.8315253156305076  0.1252781054877445
  0.0840241048957253  0.8613289678315255  0.7775091735881716
  0.9998725510110162  0.9139266070770375  0.4526276897492991
  0.9238321075824132  0.9698266570772205  0.1149621774385139
  0.8498393854282256  0.9979486793622456  0.7957229541410271
  0.7830929846019643  0.0488247984406058  0.4472681963450853
  0.7098093636412273  0.0840855111630390  0.1027099562073914
  0.6335758690085598  0.1280850882862694  0.7619217640757157
  0.5741894347961960  0.1634709436527331  0.4407749835273478
  0.5052546043748478  0.2225117999235096  0.0950343765268045
  0.0717424957372330  0.9523614291673326  0.1129463031775444
  0.1530887994157126  0.9983454525987199  0.7823746477989388
  0.2120682141029988  0.0422822419292217  0.4511833166739123
  0.2816086358304091  0.0703688917331036  0.1135309896592034
  0.3597677263009444  0.1160668383767387  0.7851441207187904
  0.4255114577487191  0.1692895952730709  0.4517609949932080
  0.8565172892711814  0.9300565199988924  0.4410828747136861
  0.7857430541671846  0.9464357282358193  0.1094616036970493
  0.7170477730735882  0.9936258977818682  0.7780642792148740
  0.6501351270273190  0.0488608711274168  0.4646353169249267
  0.5725754583059413  0.0823980687605115  0.0988568488146413
  0.5147470437606216  0.1171755282656903  0.7773642841454631
  0.1414989286957038  0.9195616116730605  0.4458929667364444
  0.2108094434808763  0.9573393814743056  0.1165646333209338
  0.2867989884126487  0.0074699836610819  0.7785693976162804
  0.3559488244252549  0.0521217237043601  0.4142366826985580
  0.4238263966434701  0.0966628166879175  0.1096121292531933
  0.7884044233556935  0.8796664401261154  0.7733877896161729
  0.7266092722772726  0.9180500731644514  0.4383989712994776
  0.6373996124085011  0.9636831453640085  0.1025867376074103
  0.5844169526942551  0.9973158928244743  0.7738704370744571
  0.5077409250186946  0.0282799608697317  0.4470541271285597
  0.2250534688914456  0.8769842311059932  0.7823976902423624
  0.2827769810096754  0.9226734165125166  0.4299625104775018
  0.3582231831278335  0.9630949149760610  0.1282474968287346
  0.4377885306573432  0.9952281115626676  0.7972350372259598
  0.7010860579270641  0.8371842937917151  0.1140016338184751
  0.6563249467946122  0.8687508185951316  0.7805542862521690
  0.5807036551354017  0.9171218309766331  0.4498871943594054
  0.4931469822371710  0.9574532910013147  0.1076848881876487
  0.2860040085079092  0.8385290225550577  0.1226966660241970
  0.3586673619721381  0.8772803369934792  0.7675734048418406
  0.4142831097106523  0.9218789672510894  0.4340504874561262
  0.6365790601196366  0.7950803667443083  0.4422330600590740
  0.5654830814979945  0.8317919355322232  0.0981026011107247
  0.4971901526854765  0.8619805233045099  0.7864667866443753
  0.3493694878065554  0.8044969874107792  0.4353997861916596
  0.4363368847282842  0.8340418007121642  0.1229175224229806
  0.5862063657224610  0.7515147289243274  0.7790516089414012
  0.4877444464333252  0.7991694761412944  0.4518236175295911
  0.4365835153682269  0.7375893896215118  0.7882227878456476
  0.5080605577688075  0.7088046362886615  0.1231646543879990
  0.9981585268567059  0.9987309163044600  0.2179181239550516
  0.9369953402459501  0.0251153497307044  0.9050776599416395
  0.8601494594250596  0.0877728473197976  0.5621806720843381
  0.7865035866495944  0.1219433557669944  0.2139529531997297
  0.7163619707672950  0.1650378330487854  0.8733321187644805
  0.6431970204594180  0.2121556495751236  0.5523364092748864
  0.5850926010383972  0.2493311837928687  0.2139945794878457
  0.5146125529624328  0.2914962576968705  0.8761366809056170
  0.4272920169785479  0.3219052555928243  0.5644587210944110
  0.3672989824571218  0.3937506852092696  0.2251218088992673
  0.2928095182761368  0.4088114353896231  0.8987031076168677
  0.2115657783442870  0.4581258584703605  0.5704972590397901
  0.0861048785257097  0.0445918766001938  0.8763071161871281
  0.9958818365504456  0.0973251078355091  0.5760521163440089
  0.9180421910974914  0.1251398000505048  0.2235475161028617
  0.8635485955806814  0.1637530789666144  0.8901173749534976
  0.7967910038035555  0.2108191143856217  0.5601174843229657
  0.7213184924608314  0.2604221579408659  0.2228565072591735
  0.6343299663921513  0.2904531907398535  0.8825811790387164
  0.5572266661138841  0.3399394584008633  0.5442259613531348
  0.5093152012956779  0.3764838483900661  0.2227463394846154
  0.4252873802477097  0.4245074668755038  0.8840994338785393
  0.3580492147958978  0.4700236181365938  0.5484699722542246
  0.2845508945544353  0.5042397360646405  0.2218760108831574
  0.1313448399502448  0.0913146101656963  0.5756113313939650
  0.0749358614571634  0.1247472592295864  0.2230089243692177
  0.0122684601102776  0.1671390884896269  0.9018142906448787
  0.9303032640639088  0.2212391072559825  0.5619944822207401
  0.8567083930649630  0.2441097789802313  0.2221666548631305
  0.7865193218461854  0.2960538343751082  0.8784066325410009
  0.7026569904585926  0.3343565333860070  0.5579460553032973
  0.6419571088070342  0.3837403953065177  0.2192856690139280
  0.5780683861570637  0.4179908601695033  0.8793050587860876
  0.4913857047152845  0.4484058691181048  0.5365322312716003
  0.4303923727736603  0.5007148618099393  0.2007247385666346
  0.3642662388859108  0.5293258576192628  0.8949692089091315
  0.1999211960940315  0.1084259193451729  0.2186375921684274
  0.1532556782166878  0.1634261225008444  0.8814473699780834
  0.0758144619189238  0.2209546186994586  0.5626659614427822
  0.9934652757920546  0.2553999037290495  0.2163454640806464
  0.9182830427081399  0.2742953395573409  0.8922133058714365
  0.8535871575161451  0.3360630584483673  0.5610302639658968
  0.7898340660225500  0.3772698353359658  0.2224994773573812
  0.7178827462494937  0.4163157288141406  0.8762325822400143
  0.6350760408006693  0.4577850966084327  0.5438177357830867
  0.5808737814505989  0.4983330577345768  0.2309579635763797
  0.5134478157550859  0.5351978837783378  0.8857553405021150
  0.4222716848455619  0.5800398682649046  0.5578363900007588
  0.2910273466170921  0.1700304416625258  0.8847725895014307
  0.2226642480281384  0.2057978621306091  0.5612865977579276
  0.1414307790086369  0.2561111342856890  0.2262241101404356
  0.0763878979090578  0.2871735955837806  0.9016714375361374
  0.0058661581890433  0.3474331381501514  0.5596053362438766
  0.9289398265514563  0.3641843414935977  0.2179607574283864
  0.8480779125398712  0.4221107240325992  0.8874099817568109
  0.7824367691465142  0.4548573608879138  0.5506858451704844
  0.7145170970417425  0.4996830462585180  0.2126123242356428
  0.6556465962475784  0.5335859468349256  0.8937673836940903
  0.5565288039505063  0.5809337054865296  0.5539429472381983
  0.4991020057682221  0.6185742838489006  0.2221398185542611
  0.3612807455744758  0.2085360444046600  0.5621722977001014
  0.2831522316119219  0.2375315341066226  0.2313495936745014
  0.2166163360733790  0.3011481480902063  0.8968145681026627
  0.1386679930079993  0.3297515042947481  0.5627435474255620
  0.0667164757935481  0.3783826752932029  0.2270727894144713
  0.9927887121154129  0.4102656087894729  0.8823650232858355
  0.9262962188761676  0.4600923472491303  0.5555254606740547
  0.8615537507063920  0.4988617452442412  0.2139111068279718
  0.7973859231569520  0.5368498325839468  0.8777285328803188
  0.7042821303724693  0.5762518564366061  0.5498470857967632
  0.6411403616209697  0.6204553991494848  0.2100191535520395
  0.5894190833746791  0.6635961484347277  0.8823507075397714
  0.4444241700603087  0.2473983510281670  0.2169953410399970
  0.3612313069617699  0.2849585502203880  0.8888005746379406
  0.2849900035011714  0.3347550261962908  0.5553451054922292
  0.2123624086647027  0.3775523555933518  0.2351528021443556
  0.1377148265209129  0.4293791846687682  0.8766858465151941
  0.0699749826219573  0.4636329780381558  0.5557598815761722
  0.0080143203190204  0.4988691113975321  0.2291238600250125
  0.9404206545983840  0.5465248217499621  0.8897704953450756
  0.8462592335899117  0.5688891590855718  0.5572078203651358
  0.7884303178817902  0.6269814095503818  0.2204817586072423
  0.7323859163470203  0.6622906780010069  0.8845529056867605
  0.6291595431366019  0.7080035379521803  0.5440674782717849
  0.1442727037539058  0.5029526423126001  0.2168003944472616
  0.0681025153755073  0.5329339050374600  0.8919338538841828
  0.0062981487979741  0.5831281225488354  0.5643628847541677
  0.9435113170145826  0.6311516058220477  0.2280458616655565
  0.8712296607766916  0.6754415883632490  0.8884663957829986
  0.7756488407555153  0.7035734347666462  0.5534027584413934
  0.7160112941033674  0.7453162668099225  0.2162047571235846
  0.2307695321541985  0.5485825592309013  0.8794051609837865
  0.1418995567193875  0.5909438264331683  0.5560219985028922
  0.0735207129857258  0.6235462437384243  0.2160400296731879
  0.0097386622431017  0.6626451424906605  0.8971012277170942
  0.9131141231531501  0.6933646857975404  0.5526468437495780
  0.8581729061672689  0.7465848994100739  0.2291170441556787
  0.8036873332349614  0.7831446547942420  0.8863982012308540
  0.2879930900904029  0.5822986186576671  0.5486530276068251
  0.2161500990315801  0.6281539903826001  0.2284781973760275
  0.1468025213287447  0.6578672722461292  0.8857964822476347
  0.0770349392515755  0.7072382839580200  0.5575985414416138
  0.0094225654883004  0.7567121633883360  0.2274618296077477
  0.9423937395836433  0.7953595365594381  0.8994819387979192
  0.8639212451368579  0.8298291866892313  0.5574327525695111
  0.3724543662406177  0.6300359712407513  0.2199502359960022
  0.2999379495609347  0.6591726974813668  0.8840321443139061
  0.2167567417451011  0.7018397894140023  0.5623788217681067
  0.1455929809747474  0.7448109820493940  0.2417004110319709
  0.0791476395020254  0.7852538759041678  0.8968261195802754
  0.0040057512890428  0.8333062105715712  0.5519394734129079
  0.9275999920902080  0.8724976420889021  0.2181076150732650
  0.4407696280421760  0.6534620094682708  0.8908494426191282
  0.3577060559038259  0.7111817652525332  0.5456603629811241
  0.2883609365534952  0.7463879203775790  0.2160593974818141
  0.2275932597544852  0.7881119961384826  0.8948184543046267
  0.1409242969233446  0.8335839333414299  0.5561991523866325
  0.0639077400283981  0.8794117585905852  0.2210490661012940
  0.0057774923215916  0.9255462977350888  0.8906119799907657
  0.9265907800044033  0.9535696719424394  0.5703662214193841
  0.8584558001358573  0.9968890128574373  0.2356907945871072
  0.7851781387703554  0.0405430215312848  0.8890344935162702
  0.7147816502981925  0.1012637398797622  0.5690573947655082
  0.6536139055263774  0.1167590812729955  0.2128241020721902
  0.5728361654735750  0.1643587105142714  0.8771754353487466
  0.5063519518516841  0.2014436734675300  0.5553224436007653
  0.0671666021285091  0.9631397468954646  0.5581250335056041
  0.1407596953276027  0.9980190559456688  0.2227042178962506
  0.2268578679651441  0.0420792945571407  0.8960024796389021
  0.2950609448479042  0.0844326382750893  0.5512380520580749
  0.3527864307943318  0.1284375697276872  0.2196341008619598
  0.4316439472312084  0.1629587383678910  0.8852536372071356
  0.8609324616111138  0.9071728341606828  0.8941259922813813
  0.7925008753841922  0.9735285723081049  0.5539511934270749
  0.7102892211741079  0.0164604971200362  0.2154323074716373
  0.6474655145226507  0.0367552422943334  0.8869688220818759
  0.5737429470860533  0.0869022251613742  0.5597172906852208
  0.5060305291199327  0.1407044040628165  0.2234744779176765
  0.1441722508260668  0.9075967482590670  0.8999765832799156
  0.2086651410730695  0.9581007066809804  0.5672092318587900
  0.2835818865971191  0.9914058891438273  0.2275896690677115
  0.3626255200704662  0.0364988718559545  0.8895203019314479
  0.4318722226747198  0.0653865515499703  0.5638347476658154
  0.7828329079384488  0.8708875139584222  0.2313641402618600
  0.7205917861002931  0.9207166455285076  0.8832670596198042
  0.6527546875223322  0.9549679513628959  0.5618178680125681
  0.5692345874314597  0.9995442965077359  0.2283557726011551
  0.5103320091557180  0.0487195241964855  0.8769658543144914
  0.2057856936327198  0.8762006476226745  0.2260365101278836
  0.3023060122179402  0.9172774292945149  0.8941052708014894
  0.3507787058035632  0.9648555880717566  0.5627355137003178