Li 
 1.0000000000000000
   -10.6364300000000007   18.4228371711498369    0.0000000000000014
   -18.2338799999999992  -10.5273355263713349    0.0000000000000078
    -0.0000000000000001    0.0000000000000000   22.3096999999999994
 Li 
 504
Cartesian
  0.0735953000000000  0.1305135000000000  0.3414603000000000
 -10.5622015299999994 16.6914019600000003 15.2961209199999999
 -10.4988517800000007 14.7588659500000006  7.4710435000000004
 -10.3479603000000004 12.9874744000000000 -0.1297947300000000
 -10.6671899999999997 11.3589248499999993 14.7390645199999994
 -10.6617539000000008  9.4945018500000007  7.3313367700000001
 -10.5271633399999995  7.9235556300000001 -0.5548403200000001
 -10.4926171099999994  6.1746297300000004 14.7263938999999997
 -10.5986818700000001  4.4227743300000002  7.6962915199999999
 -10.5396040000000006  2.7293030800000002  0.0996509400000000
 -10.6879855500000005  0.8628922300000000 14.7162686100000002
 -10.6124082499999997 -0.8797553600000000  7.1817507899999997
 -1.4065843700000000  0.8576051000000000 15.1956488299999997
 -1.4909381600000000 -0.9048850000000001  7.5225191300000001
 -12.1048117299999998 15.5721603300000009  0.3762697700000000
 -12.0107915999999992 13.9221676799999994 14.8328103400000000
 -12.2378047900000002 12.1985712999999993  7.3698350599999998
 -12.2605442799999995 10.3805905299999992 -0.1432925000000000
 -12.0948546900000000  8.6760410900000000 14.6761432299999992
 -12.0940166999999992  6.9633249900000003  7.3559524300000003
 -11.9968388000000008  5.3400338899999999  0.0878340400000000
 -12.0413887600000002  3.5203891700000001 14.7967238400000003
 -12.1481716700000000  1.8039975600000000  7.6647348400000004
 -12.0949183799999993 -0.1853686600000000 -0.0081246800000000
 -2.9238301099999999  1.7034695600000000  7.4616443300000004
 -3.0286664800000000 -0.0072948200000000  0.0441851300000000
 -2.8085969099999999 -1.7343485900000000 15.2017310999999999
 -13.4693337500000005 14.9010270299999998  7.6196617399999997
 -13.6022498699999996 13.0689725400000007  0.0525788500000000
 -13.7125202099999992 11.2097194299999998 15.0469015499999994
 -13.6865946300000001  9.5789653399999999  7.3698608999999999
 -13.6255937599999992  7.9758793299999997  0.0318425100000000
 -13.7403579899999997  6.1647954299999999 14.7464196699999999
 -13.5982584400000004  4.2617822700000003  7.4047280400000002
 -13.6252045600000002  2.6342637999999998 -0.1135147000000000
 -13.4554299000000004  0.6958072800000000 14.5815117000000001
 -4.4639742000000000  2.5178086600000000  0.0074397300000000
 -4.3829196899999996  0.9695144700000000 15.2523457600000008
 -4.4683144199999996 -0.8465899500000000  7.3807698100000003
 -4.4054607099999998 -2.7374173900000001  0.0612654300000000
 -15.1559407200000003 14.1587337499999997 15.2034750499999998
 -15.2435217099999996 12.1669066699999995  7.1356357399999997
 -15.2081315700000008 10.4634698999999998 -0.2214447500000000
 -15.3461809500000008  8.6736402899999998 14.7477180699999995
 -15.1871713899999996  6.8929035799999996  7.5781067400000000
 -15.2111822399999994  5.2009091500000002 -0.0095089000000000
 -15.1149240500000008  3.4914467299999998 14.5175053500000004
 -15.0743384400000000  1.8552323500000001  7.1589224700000003
 -5.9909474800000000  3.4964198999999998 14.8281119199999996
 -6.1220263499999996  1.6288296499999999  7.6078567599999998
 -5.9477988599999998 -0.0284136700000000 -0.3145902800000000
 -6.0672824900000002 -1.7620945400000001 14.7287225700000004
 -16.5825451299999997 14.9031084200000006  7.6416597800000003
 -16.5322832300000009 13.1064275499999994 -0.0162516900000000
 -16.6894104399999996 11.1448194100000002 14.8182804299999997
 -16.7392047999999996  9.4589613999999997  7.2304248600000003
 -16.6300532200000006  7.8998093200000001 -0.0449901500000000
 -16.6636434099999988  5.9946378999999999 14.3589268299999997
 -16.6383430600000004  4.2790972700000003  7.3634105099999996
 -16.6575679600000015  2.4718590100000002 -0.0668385600000000
 -7.5997071900000002  4.3460185600000001  7.0433044100000002
 -7.6444139199999999  2.6136395499999998  0.1727157700000000
 -7.4220826200000003  0.8302482900000000 14.8272683900000004
 -7.6099433300000001 -0.9364371000000000  7.7839939600000001
 -7.6237440000000003 -2.6115270599999998 -0.0887475300000000
 -18.0534403599999997 14.1369866999999996 14.4849418399999994
 -18.2166933200000010 12.1682198899999996  7.4678268200000000
 -18.2542867599999994 10.4918883500000000 -0.0594190500000000
 -18.0896983499999990  8.7543958699999997 14.5747967799999998
 -17.9365836300000012  6.8541453499999996  7.3047024199999999
 -18.1329773400000001  5.0629826099999997  0.2217285000000000
 -18.2231405799999990  3.3905474099999999 14.6041234699999993
 -9.0668070800000002  5.3048512299999997 -0.1451901200000000
 -9.0482657500000006  3.5724481799999999 15.1196078499999995
 -9.1399862100000000  1.5706423100000000  7.6581348699999996
 -9.0708071799999992 -0.1478807200000000 -0.2573850800000000
 -9.0457521199999995 -1.8400037499999999 14.9313365999999998
 -9.0120717500000005 -3.4732851899999999  7.4061986400000004
 -19.7866120099999989 13.0936107400000008 -0.0031160400000000
 -19.5677963699999999 11.2229718700000003 14.4302203099999993
 -19.6818149799999986  9.6271590200000006  7.3368127300000001
 -19.7050030700000001  7.9487289199999998 -0.3184774600000000
 -19.6673706700000004  6.1661041699999997 14.8342572599999993
 -19.5801957500000015  4.3727188200000002  7.0207908500000000
 -10.6141791399999992 -2.6903276900000002 -0.1850518800000000
 -10.6552195600000008 -4.4027256499999998 14.6501236800000001
 -21.2941229999999990 12.3316554400000005  7.2309199800000004
 -21.3294213500000005 10.4315386100000005  0.1004646300000000
 -21.2921366499999998  8.6891344499999992 14.6637963399999993
 -21.2301493800000003  6.9713892499999996  7.5343271500000002
 -21.1594463600000005  5.1557453000000004  0.0869064600000000
 -12.2079737999999995 -1.8018084999999999 14.9126589400000000
 -12.1827721699999998 -3.4878096300000001  7.4824303299999997
 -12.1684184999999996 -5.2616936399999998  0.0848969800000000
 -22.8214823600000010 11.2041799199999996 14.6617721799999998
 -22.7534722500000015  9.7247385800000004  7.8057943999999999
 -22.7659957300000002  7.8086849500000000 -0.1794509800000000
 -22.8479352400000018  6.0371683999999997 15.0030870400000005
 -13.7254465200000002 -0.8015033900000000  7.7498881400000004
 -13.5785097599999993 -2.8082406999999998 -0.0087503600000000
 -13.6441349499999998 -4.5057125300000003 14.8062028699999999
 -13.7779767799999995 -6.0817394599999997  7.5915115000000002
 -24.2283457300000009 10.5143955600000005  0.2376229000000000
 -24.2250222000000015  8.6677397200000001 14.4828116199999997
 -24.4357276399999996  6.9116224099999997  7.6052203399999998
 -15.1515080199999996  0.1530988500000000 -0.0551135600000000
 -15.2170726500000004 -1.6145227600000001 14.9597553800000007
 -15.1458620300000000 -3.5928673199999999  7.3700520400000000
 -15.3066909599999992 -5.3216172600000000  0.1723728900000000
 -15.1317506200000000 -6.9597914000000003 15.0422290699999994
 -25.9221441199999987  9.6104853600000002  7.8416882699999997
 -25.9190232300000005  7.8322728300000000  0.1414153000000000
 -16.5623291399999992  0.8882180400000000 14.8847149499999993
 -16.5481437100000015 -0.8884493400000000  7.4412972999999996
 -16.6611564799999989 -2.5417045200000001  0.1984194200000000
 -16.7184073600000005 -4.3470161500000000 14.7617540399999996
 -16.5208943700000006 -6.0641616000000003  7.5075272300000000
 -16.6696232699999989 -7.9119889099999998  0.2497769700000000
 -27.3605454600000009  8.6624852000000008 14.9029395000000005
 -27.3097938400000011  7.1600996400000003  7.3986255600000002
 -9.1176655100000001 15.7931697000000000  0.0415043300000000
 -8.9705974400000006 13.8733407999999994 14.9125327199999997
 -9.3008022700000001 12.3442612999999994  7.3025078800000003
 -9.1673017100000003 10.6384731600000002 -0.2441248300000000
 -9.0069400500000008  8.7730660700000005 15.2304535699999999
 -9.0862529799999994  7.0398341899999997  7.2877014300000003
 -18.1571184999999993 -8.8496625200000008  7.3901906400000001
 -1.4726887000000000  2.6281328400000001 -0.0334313000000000
 -3.1427142500000000  3.5382713099999998 14.9317004999999998
 -4.4757529700000003  4.3785225399999996  7.2971010600000001
 -6.1005996600000003  5.2790094400000003 -0.1351496300000000
 -7.6523590600000002  6.1117277400000001 15.1377653199999997
 -25.8296724299999987  6.0564685799999998 15.0230458700000007
 -25.8639529699999997  4.4243804300000003  7.4793712699999997
 -7.3362851200000003 13.0276735200000005 -0.1991830900000000
 -7.6566484099999998 11.4183770399999993 14.8501277399999996
 -7.6961189799999996  9.4600322499999994  7.7360577199999998
 -7.7107387599999999  7.8938255899999996 -0.3495108700000000
 -18.2016262600000012 -7.0817220200000000 14.9232917599999997
 -19.7894078399999991 -6.2415267300000004  7.2174739700000003
 -2.9151812399999999  5.2537711099999997  0.5415830100000000
 -4.3712973399999999  6.0508075400000001 15.3182994899999994
 -6.0594318200000004  6.8561331799999996  7.0167161800000004
 -24.2945094700000013  5.2357560100000002  0.0824233400000000
 -24.3566837300000003  3.5568587400000000 14.9601216299999997
 -24.1912990100000016  1.7104006199999999  7.6914765699999998
 -6.0115551800000002 10.4895402600000001 -0.2931128900000000
 -6.0468153999999998  8.6529727800000007 15.0857843900000006
 -18.2294326600000005 -5.3975840699999997  0.4403011600000000
 -19.7113268899999987 -4.4094772300000002 14.7531652599999994
 -21.1586357800000009 -3.4266974000000001  7.0871643899999999
 -4.4165343600000000  7.7985977200000001 -0.0456491300000000
 -22.8499007799999987  4.4943698000000003  7.4918532200000003
 -22.7844848900000017  2.5664383000000002 -0.0080331900000000
 -22.5931020899999986  0.8237087400000001 15.0927585400000002
 -22.8306056200000000 -0.8643448300000000  7.6132925499999997
 -18.1595632900000012 -3.3908591700000001  7.6990556899999998
 -19.7812169900000008 -2.6373128900000000  0.2528226700000000
 -21.2179025099999983 -1.8169787500000001 14.9428075200000006
 -21.2119433400000013  3.4883957200000002 14.9879866499999999
 -21.2819488999999997  1.7684880999999999  7.6709882199999999
 -21.0971882000000015 -0.0469599100000000  0.0819452400000000
 -18.1777298199999997 -1.8046027200000001 14.9362078300000007
 -19.4228938500000012 -0.9295657700000000  7.5168218900000001
 -19.6963867499999985  2.5917886100000000  0.1848797600000000
 -19.6668801699999989  0.8459767900000000 15.0314625300000007
 -18.1546808300000002  0.0382180000000000 -0.0526123900000000
 -18.2688086200000015  1.6525488200000000  7.2245957199999999
 -0.0361468400000000  0.2432206000000000 17.5402246800000015
 -10.8909918999999995 16.4300269400000012 10.1406263600000006
 -10.6250675399999999 15.1013100900000001  2.5126133500000001
 -10.6198596199999997 13.2345282700000002 17.1994127299999988
 -10.6658238200000000 11.2226766500000004  9.9681830799999993
 -10.6596834000000005  9.6682055400000007  2.2305911200000001
 -10.6821768400000003  7.6549371700000002 17.2007258500000013
 -10.4837080399999998  5.9820854199999998 10.0167020400000002
 -10.8847482699999993  4.5652583099999999  2.3887398599999998
 -10.5458789100000008  2.7989428900000002 17.3020536999999983
 -10.7324316999999994  0.7236394000000000  9.9718932999999996
 -10.7046196100000000 -0.8751522700000000  2.5075110100000000
 -1.5174517599999999  0.7079251000000000 10.2601467599999996
 -1.3942482300000001 -0.8475974200000000  2.5169276100000002
 -12.0133612700000008 15.9253365500000008 17.8261464899999993
 -12.3083137100000002 13.8955654200000005  9.8669419499999993
 -12.0494736499999995 12.1632807199999995  2.2276106499999999
 -11.9943262799999992 10.4219992500000007 17.4368341300000012
 -12.2142245099999993  8.6235030399999992  9.8595247799999992
 -12.1474502799999993  7.2322435499999997  2.2922439699999999
 -12.4877536100000004  5.2501946799999999 17.3872796899999997
 -12.0437068000000007  3.5868543900000001 10.0323428799999999
 -12.2201572499999997  1.7942848300000001  2.5025685000000002
 -12.1501268200000005  0.0908847600000000 17.3962997699999988
 -2.9895631599999999  1.7736518500000000  2.4190596100000001
 -3.1030558699999999  0.2239092000000000 17.5764602100000005
 -3.0515080900000000 -1.9123602099999999  9.9834242999999994
 -13.6464263100000007 14.7180487000000007  2.4003389500000001
 -13.7296448299999998 13.0820132999999998 17.4216563600000001
 -13.8253204400000005 11.3564381099999991  9.8761621200000000
 -13.9185708500000000  9.5878232800000003  2.2572255999999999
 -13.7501274099999993  8.0754701499999992 17.1417896700000014
 -13.4977105700000006  6.0880286999999997  9.5772957499999993
 -13.9595469300000001  4.5081498900000003  2.6298781199999999
 -13.6981666600000000  2.4939204799999999 17.3647610599999993
 -13.7475939399999998  0.6254333100000000  9.9493972700000004
 -4.6010059500000002  2.6805721500000002 17.7719312400000007
 -4.5171290300000004  0.6758689200000000 10.1206133999999999
 -4.4040905700000001 -1.0052439099999999  2.4554137900000002
 -4.2778857800000001 -2.5863555699999998 17.4556570399999984
 -15.5817538899999999 13.9383006700000003  9.6843182399999996
 -15.2188459300000005 12.1639657999999997  2.1230502400000000
 -15.1262832700000001 10.5525387399999993 17.5721533799999996
 -15.2881176199999995  8.4682438999999992  9.8601662900000004
 -15.2731389100000001  7.0999207300000000  2.3427209599999999
 -15.4845648199999992  5.5147609299999996 17.0517998800000008
 -15.0759803500000000  3.3512616999999998  9.9293932100000006
 -15.3895300800000001  1.6353896900000000  2.0589281000000001
 -6.0117497400000000  3.4366545199999998  9.7589985899999991
 -5.9730986699999997  1.7284481300000001  2.4820620799999999
 -6.1846020499999996 -0.0301506800000000 17.2917994099999994
 -5.9490248799999996 -1.9030405100000001  9.7554601699999992
 -16.6113412099999991 14.7993691900000002  2.2378317299999999
 -16.7343099700000018 13.1039779700000008 17.2440072399999984
 -16.8790848699999998 11.3905746000000008  9.9636219300000004
 -16.7843863199999994  9.5660214900000007  2.1529669800000000
 -16.7655156800000000  7.9362763899999997 17.0670964400000003
 -16.5398837900000011  5.9328752900000001  9.9739928700000000
 -16.7439411599999985  4.3794863900000003  2.4926230100000000
 -16.8642402800000006  2.8425707099999999 17.2869633699999987
 -7.6312276199999998  4.1433612999999996  2.4790293600000002
 -7.6927057400000001  2.5134930199999999 17.1893332900000004
 -7.5331299999999999  0.8540117600000000 10.0908419600000006
 -7.6959954000000002 -0.8259733800000000  2.5389390500000002
 -7.5672841899999996 -2.5266941799999998 17.2291904699999989
 -18.6222184999999989 14.1590093199999991  9.8642488200000003
 -18.2583282400000009 12.2700503600000008  2.5972070800000000
 -18.3580573399999984 10.7079277000000008 17.0070804699999982
 -17.9747202600000016  8.6811781700000008  9.6995894800000002
 -18.4178742600000014  6.9891455100000002  2.0646720200000002
 -18.3828373399999982  5.5485567299999996 17.1297632299999982
 -18.1367328999999984  3.3633018899999998  9.6679004800000001
 -9.1227007100000002  5.1349955999999999 17.5061783300000009
 -9.0502358500000000  3.3529634599999998 10.1226023499999993
 -9.2145106600000002  1.8224353300000000  2.6805974199999998
 -9.2054129099999997 -0.0812826900000000 17.4191923300000013
 -9.1047144800000002 -1.5254188200000001  9.7297398400000006
 -9.2706849899999995 -3.3282468500000002  2.6028911099999998
 -19.7075132500000016 13.1192195799999993 16.8996760299999984
 -19.6279377599999982 11.1138956300000000  9.8188404100000000
 -19.9672814800000005  9.6916977000000006  2.6324081499999998
 -19.9058665400000017  8.1358024800000006 17.0551213100000005
 -19.7471462600000010  5.9322722800000003  9.7408798000000001
 -19.7457681799999989  4.3751316100000004  2.5641864499999998
 -10.8085028500000000 -2.6778471700000002 17.3651464400000002
 -10.9271919200000003 -4.5489868800000002 10.0746549200000004
 -21.3019236800000016 12.3330924100000008  2.6964131600000001
 -21.4375588300000004 10.5709096099999993 17.1526999999999994
 -20.9435331799999993  8.7110718499999997  9.8341364500000008
 -21.3501198800000012  7.0536379499999997  2.4991898500000000
 -21.2725494099999999  5.5620104899999996 17.3203130600000001
 -12.1444962099999998 -1.8338192700000000 10.2139191500000006
 -12.3828029900000001 -3.6242784600000002  2.4204710199999999
 -12.1067760100000008 -5.2516399099999997 17.4293066799999998
 -22.8100780999999984 11.0942237099999996 10.1805193000000003
 -22.8550213599999985  9.6778443900000006  2.6739877600000002
 -23.0757522199999983  8.0786559199999992 17.6589006700000013
 -22.7809877199999988  5.9845945499999997  9.9182976000000007
 -13.6299256300000007 -0.9512522200000000  2.4680855799999999
 -13.8929664099999997 -2.4620085600000001 17.2696733400000006
 -13.8265332599999997 -4.5026380300000000  9.8729376999999996
 -13.8527269299999993 -6.1020681500000000  2.6365519200000000
 -24.1477105300000012 10.5502410900000001 17.2145128599999993
 -24.0429738700000009  8.7568537800000001  9.9372991600000002
 -24.2807770500000011  6.8162409700000000  2.4394914100000000
 -15.2629474900000002  0.0078558300000000 17.1673469099999991
 -15.2320156000000004 -1.7517473800000001 10.0065559299999993
 -15.2359421299999998 -3.5405907999999999  2.6953910900000002
 -15.3473692699999997 -5.0610995799999996 17.3342141199999986
 -15.1310439700000003 -7.0216925899999998  9.9547703599999995
 -25.7777017099999988  9.3893568500000004  2.2601595099999998
 -26.0311863099999989  8.0496400500000007 17.3529048999999986
 -16.5326215199999993  0.6031615299999999  9.9002697400000006
 -16.7771424499999995 -0.9585119900000000  2.1107040900000000
 -16.6640962700000017 -2.5544146900000002 17.1463844700000010
 -16.7569742999999995 -4.6161099600000002 10.1827616499999998
 -16.6700402200000006 -6.1416273600000002  2.7949169500000002
 -16.5990855500000016 -7.5195366400000001 17.3459964100000015
 -27.2995024800000010  8.7992771600000008 10.0979879700000001
 -27.5099784300000003  6.8099178699999996  2.5647716900000002
 -9.0018536000000005 15.6780475599999995 17.7523403900000005
 -9.2195792300000008 13.9127995099999993  9.9784192800000007
 -9.0830427300000007 12.1915059400000008  2.2914283100000001
 -9.0744735100000007 10.3238703699999999 16.9982459800000001
 -9.0880352999999996  8.8572849900000001  9.8335576499999995
 -9.4313586899999997  6.9657669300000000  2.1201884299999998
 -18.1283280500000004 -8.7041279899999999  2.5197981399999998
 -1.5981494800000000  2.8377479999999999 17.4545436800000004
 -3.0266180399999998  3.4617788300000001 10.0657644400000006
 -4.2784084699999996  4.4472331100000000  2.5328423199999999
 -5.9429930400000002  5.4060676900000004 17.5163297900000003
 -7.6127289999999999  6.0569599299999997 10.0786522699999992
 -26.0688251700000002  5.9884615099999996  9.8404266099999997
 -25.6146964900000000  4.5121698800000001  2.4420555400000001
 -7.5106038300000000 13.2771566799999992 17.3583806500000009
 -7.8060400300000001 11.4629587999999991 10.3658745299999993
 -7.5925952800000003  9.6810323199999999  2.2054666400000000
 -7.6116354199999998  8.2495548700000008 17.3427639700000000
 -18.2722195300000010 -7.0737218999999998  9.9477383199999991
 -19.6982712900000010 -6.1945248299999998  2.6005219999999998
 -3.1867241499999999  5.2050120399999997 17.3696496899999993
 -4.7364060099999996  6.0088843599999997  9.2414961200000008
 -6.2705380000000002  6.7904827900000004  2.4454137199999999
 -24.4255407700000013  5.2641025499999996 17.2540495699999994
 -24.4681435299999990  3.7215831599999998  9.7805495300000000
 -24.3513391900000009  1.5976934599999999  2.2886793399999998
 -24.4010483200000010  0.2675393300000000 17.2648172899999999
 -5.9162042200000000  9.0563157499999996  9.9736434599999999
 -18.3845907000000004 -5.0861838400000003 17.4550577500000017
 -19.8316539200000008 -4.5037383599999998  9.5923346200000008
 -21.3711729199999994 -3.5393359400000000  2.8611631800000001
 -22.8033770199999992 -2.4117934399999998 17.7860745099999988
 -22.7221707299999984  4.1026743300000001  2.5433422499999998
 -22.8216525300000015  2.9457362699999998 17.4139319599999993
 -22.8993031900000013  1.0433596500000000 10.0368483400000006
 -22.7034117699999989 -0.9942654900000000  2.4024175500000000
 -18.3316991899999984 -3.5584710899999998  2.7373258100000002
 -19.8111646800000010 -2.6277540500000001 17.1243323899999993
 -21.2159237599999990 -2.0726589299999998  9.6835361599999992
 -21.2683286100000011  3.3575145800000001  9.8660869000000009
 -21.1815155500000003  1.6612499400000000  2.1886396000000001
 -21.0055776799999983  0.0852950400000000 17.5458380699999985
 -18.3851456300000002 -2.0328325299999999  9.7136386100000003
 -19.8488848400000002 -0.7416745000000000  2.7422530500000000
 -19.9381723599999994  2.8881367199999999 17.3804076800000011
 -19.7598199900000004  0.5725112999999999 10.0800493600000003
 -18.0928064199999987  0.2782560300000000 17.5850139299999988
 -18.3282092399999996  1.8980927000000001  2.7477664900000001
  0.0427270200000000 -0.0205650900000000  4.8616879700000002
 -10.4242356199999993 16.9977148699999994 20.1920110699999995
 -10.7493590799999996 14.9223792199999998 12.5420821399999998
 -10.5890908600000007 13.2058888900000007  4.7732261999999999
 -10.6288140000000002 11.4600112999999997 19.4837775700000009
 -10.7097407400000009  9.6160802699999994 12.3224595899999994
 -10.7695713800000004  8.1542726900000009  4.7741548700000003
 -10.7887481800000007  6.4119443599999997 19.5463465099999993
 -10.4144434300000004  4.4831266200000002 12.5929047300000008
 -11.0863526599999993  2.6215437700000002  5.0224000200000001
 -10.5686666000000002  1.0906869299999999 20.0497967199999998
 -10.6037165200000008 -0.9252027400000000 12.7276226999999995
 -1.7289314400000000  1.1168625100000000 19.5501488700000010
 -1.7308117800000000 -1.1004423200000000 12.8515499000000002
 -12.0464756000000008 15.5955531399999998  4.9872780199999998
 -12.1709281800000007 14.1851315600000003 19.8582515999999991
 -12.3190621700000005 12.4597873700000008 12.4960530399999996
 -12.4207600300000003 10.5471816999999994  4.9718618200000000
 -12.0430949100000007  8.6284594899999991 19.6901213300000002
 -12.1253177200000000  6.6870393999999997 12.1415179299999991
 -12.2820567999999994  5.4196592299999997  4.9694040099999999
 -12.2639576600000009  3.3660676199999999 19.7239931400000010
 -12.3787196599999998  1.6481860500000001 12.2362005400000005
 -12.2208525100000003 -0.0660660900000000  4.9499872399999996
 -3.0620598399999999  1.4584450600000001 12.8417161199999992
 -3.0716766000000000  0.0672749200000000  4.9752622000000004
 -13.8145167000000004 16.8893277499999996 20.1192062800000002
 -13.9291528800000002 14.8097672399999993 12.5379283000000008
 -13.5633872699999998 13.2131736800000006  4.9564714199999997
 -13.7639677999999996 11.3732593499999997 19.5969884500000013
 -13.5703788000000003  9.4250519100000005 12.4476091100000001
 -13.8252081699999998  7.7869073899999997  4.8921974900000000
 -13.7701791100000008  6.2493297200000004 19.6170320700000005
 -13.4027684600000008  4.3321997899999998 11.9698731200000008
 -13.7078130500000004  2.6578552499999999  4.4781086999999999
 -13.5261565200000007  1.1384266999999999 19.9664945600000010
 -4.1034730100000001  2.5416796100000001  4.8777390900000004
 -4.6099855999999999  1.1029627799999999 19.6648263900000018
 -4.8352552199999996 -0.9293459200000000 12.5529088000000009
 -4.5874250600000002 -2.8090686400000000  4.8266023999999996
 -14.7687216100000001 14.0297798999999994 19.9050111899999997
 -15.2068535300000001 12.1876486400000008 12.5164168799999995
 -15.2801076600000005 10.5793382499999993  4.9638965900000001
 -15.2267606200000003  8.8427415800000002 19.5484860400000002
 -15.1021403700000008  6.8806451800000001 12.1324105400000004
 -15.2649684899999993  5.4552237899999998  5.1526028799999999
 -15.2199857400000003  3.8249578099999999 19.7609359200000014
 -15.0678405699999995  1.6731681800000000 12.4451625099999994
 -6.1958066699999996  3.5715819099999999 19.7390110400000012
 -6.1208462099999998  1.9356040400000001 12.5221356099999994
 -6.1742182699999999 -0.0906116300000000  5.0469920300000002
 -6.0487834100000004 -1.6158909900000000 20.1160192699999989
 -17.0338791299999990 14.8733632300000007 12.4846271699999996
 -16.5210970199999991 13.2798164100000005  4.8626391099999999
 -16.7172376400000005 11.1803000699999995 19.7978504700000002
 -16.6161484600000016  9.6262691399999998 12.2856360000000002
 -16.7110717899999983  7.9031010500000001  4.7433171700000001
 -16.7030812500000003  6.4616321900000004 19.9396822000000000
 -16.5121551400000008  4.1371555000000004 12.3583009700000002
 -16.5876728100000008  2.6829359500000001  4.9558727100000004
 -7.6451585700000004  4.4604874399999996 12.5418953099999992
 -7.3428503799999998  2.7158932999999998  5.1613400299999999
 -7.7951236899999996  0.8203998900000000 20.0076639699999994
 -7.4875817600000003 -0.9167468700000000 12.5546397200000008
 -7.6090094199999996 -2.7542546099999998  5.0659258100000004
 -18.0404615200000009 13.9709810700000006 19.6852989600000008
 -18.2417535400000013 12.2214579000000008 12.3936063700000005
 -18.2600413599999989 10.6205794900000008  4.7722926200000000
 -18.2701949799999994  9.0385127099999991 19.5818602499999983
 -17.9983547799999997  6.9084783700000001 12.2669235299999997
 -18.1327538699999984  5.2798823199999996  4.6854643100000004
 -18.3692473599999992  3.8728724899999998 19.6849795800000003
 -9.2381184199999993  5.5831086699999997  4.8411009600000003
 -9.0381115199999993  3.6550512799999999 19.8288741799999997
 -9.1351592000000004  1.7262459500000000 12.3895827000000001
 -9.1430222400000005 -0.0623022500000000  5.2461884699999999
 -9.2940426400000007 -1.9831209200000000 19.5585982300000012
 -9.1981120900000004 -3.5916822100000001 12.3988362300000006
 -19.8179932699999988 13.3187211699999999  5.1116845800000004
 -19.9679864800000004 11.5717664199999994 19.8505128199999987
 -19.3742337599999992  9.6016090100000007 12.4311393100000007
 -19.8183876699999999  7.9246797000000004  4.9188818899999998
 -19.8661002800000013  6.5204703000000004 19.7341099600000014
 -19.6016629900000012  4.1375130200000001 12.1379822199999996
 -10.7053246400000006 -2.6368386899999998  4.8367517600000003
 -10.4418205099999994 -4.3557324800000004 19.8987766999999991
 -21.3361080299999983 12.4000815400000004 12.5907666500000008
 -21.5439347199999993 10.7378106399999993  5.0876347600000003
 -21.5826941699999999  8.9399219500000005 19.8214187499999994
 -21.0790081799999989  6.8828986800000003 12.3462495200000006
 -21.2058113800000001  5.3447650700000002  4.8234632700000004
 -12.4573525299999996 -1.5236831500000001 19.6192653200000002
 -12.2845035199999995 -3.6068715099999999 12.4046839799999997
 -12.1516652999999994 -5.2098203999999999  4.8197882500000002
 -22.8226066100000011 11.6263632099999992 20.0140592599999998
 -22.3550029300000013  9.5228701200000003 12.3293852899999994
 -22.7410355099999997  7.9504299800000000  5.1115325199999999
 -22.8281297199999997  6.5617743300000004 19.7752779499999995
 -13.6807814800000003 -0.8244031300000000 12.2402844500000008
 -13.7527498799999996 -2.6306897400000002  5.0972800400000002
 -13.5569276399999996 -4.2210705600000002 19.7618537799999991
 -13.7150747400000004 -6.0261325699999997 12.4398561799999996
 -24.5344512399999992 10.6302647199999996  5.0746051799999998
 -24.5261953900000016  8.9885497099999991 20.0671722099999990
 -24.3200436599999996  7.1799901500000001 12.4361574800000003
 -15.4495850899999994  0.2290660800000000  4.9070237800000003
 -15.2095448700000002 -1.4136241500000000 19.7224919300000003
 -15.1027804099999994 -3.3952287900000000 12.5465028000000007
 -15.1293836200000005 -5.1586393299999997  5.3922636600000002
 -15.1600732699999998 -6.8085069499999999 20.0079216799999990
 -25.8734423400000004  9.7241403999999996 12.3136040700000002
 -25.7753696900000016  7.9039481900000004  4.8659154600000001
 -16.6033631600000007  1.2410132599999999 19.8745838100000007
 -16.7723183899999988 -0.8968886400000000 12.1735190000000006
 -16.6766786899999992 -2.5450494899999998  4.8202203399999997
 -16.7911193400000016 -4.1038058499999996 19.9631312700000016
 -16.6984008300000006 -6.1791923799999999 12.4086362300000008
 -16.7148386799999997 -8.0805007599999996  4.9315383500000003
 -27.5741820199999985  8.7857385499999996 19.8692860899999992
 -27.2428929400000008  7.0318831800000003 12.7246992900000002
 -9.0741796600000004 15.8479418299999999  5.2581909199999997
 -9.0907488999999995 14.0383990099999991 19.8340928400000003
 -9.4491558700000002 12.1022685899999995 12.6954997600000006
 -9.0810896299999992 10.8122605299999996  4.7480418699999998
 -9.0898287799999995  8.8230081100000000 19.5695208100000002
 -9.0588768599999998  7.2077744199999998 12.3890771199999996
 -18.2761874300000002 -8.9018958999999995 12.4516020600000008
 -1.4610603499999999  2.6140470100000002  4.9684642900000000
 -3.1802266399999999  3.7363827100000000 19.9895465200000011
 -4.6779296800000001  4.5470090299999999 12.2979555699999992
 -6.0943034100000002  5.1472215800000001  4.8999708999999996
 -7.5625207100000003  6.2365848399999999 19.7497430700000010
 -25.6985284599999986  6.3107057500000003 19.9476826500000008
 -26.1805832500000015  4.3514526599999996 12.3584849400000003
 -7.8550803100000000 12.9122574900000000  4.8062301500000002
 -7.5569122999999996 11.5412169799999997 19.7880083300000003
 -7.6871414400000004  9.6551240099999998 12.4871248399999999
 -7.9479455200000002  7.8412755699999996  4.9856485599999996
 -18.0824882500000008 -6.8985135900000003 20.0782075800000008
 -19.6893454800000001 -6.2420436900000000 12.6542677999999995
 -2.8595948999999998  5.3148560099999997  5.0774572400000002
 -4.5225570099999999  6.2963550399999999 19.8449310799999985
 -5.7858292000000002  7.2679654700000000 12.5789840700000006
 -24.2062058499999999  5.2538781300000004  5.1616645600000002
 -24.4527609199999993  3.5826520899999998 19.7054231199999990
 -24.3557505700000014  1.9723252800000000 12.5339880899999994