Li                                      
   1.00000000000000     
    21.6499999999999986    0.0000000000000006    0.0000000000000000
     0.0000000000000006   21.6499999999999986    0.0000000000000000
    -0.0000000000000006   -0.0000000000000006   21.6499999999999986
   Li
   500
Direct
  0.0061794360277148  0.9994819233256322  0.0189375205542746
  0.0163835616628205  0.1059347635103904  0.1386669944572745
  0.9775219718244799  0.2125028046189357  0.2038584655889153
  0.9856303588914557  0.3195379468822139  0.2981364480369493
  0.0011017510392577  0.3996885852194012  0.3993892859122425
  0.0072108591224023  0.5113027441108571  0.4822682013856792
  0.0048500933025437  0.5981505718244833  0.5884147408775959
  0.0094736078521933  0.7160486789838316  0.7037287995381050
  0.9998417695150081  0.8211099376443443  0.8067171043879924
  0.9980342960739037  0.8955921367205519  0.9105729819861423
  0.0919377621247079  0.9919861270207875  0.1188789154734380
  0.0808311108545041  0.1034166355658215  0.1903351057736700
  0.0978570161662802  0.2037929866050803  0.2773666979214795
  0.0965115413394955  0.3004779219399509  0.4050406341801391
  0.1033779930715966  0.4026386646651261  0.4960714632794492
  0.1040971842956111  0.5030039445727468  0.5844314378752884
  0.0994388803695117  0.6174501330254074  0.6808005413394937
  0.1123229616628194  0.7112064983833690  0.7955527995381075
  0.0969310471131664  0.7988984286374148  0.9167650101616616
  0.0708466600461861  0.8969978027713594  0.0014000189376446
  0.2035826498845239  0.9821727177829089  0.1825847321016170
  0.1778724138568109  0.0868900748267905  0.2717011824480338
  0.1919539612009231  0.1676642110854516  0.3811781570438768
  0.2068108965357993  0.2722108415704412  0.4868762457274798
  0.1960328267898390  0.3972517279445711  0.5998623431870698
  0.1917210628175496  0.4929753658198592  0.7047315307159323
  0.1834962124711339  0.6125934919168614  0.7913129020785235
  0.1916458554272538  0.6884120304849901  0.9038069685912262
  0.1811738905311771  0.8033081330254035  0.0066186697459614
  0.1985675071593533  0.8962785150115451  0.0886136933025412
  0.3149219214780601  0.9950214665127035  0.2825847030023070
  0.2828983722863754  0.0964080064665112  0.3945242448036979
  0.2756162443418049  0.1883187487297917  0.4963251547344143
  0.3147514748267923  0.3004638466512688  0.5848947542725185
  0.2936836277136265  0.3851678060046169  0.6898234152424934
  0.2754798521939961  0.4692268415704390  0.7786982702078546
  0.3050708540415670  0.5811706942263299  0.8626180872979248
  0.3045050480369511  0.6751062831408774  0.9964209861431854
  0.3043636882217058  0.7792707709006947  0.0899995113163996
  0.3048150078521914  0.8885522309468854  0.1580832055427237
  0.4131798217090079  0.0088168411085476  0.3949884785219382
  0.3900603588914535  0.0900298434180158  0.4942610799076235
  0.3956139381062371  0.1977525108545066  0.5839514217090098
  0.4143483727482646  0.2945952323325614  0.6874058374133938
  0.3946682230946905  0.3719374988452628  0.8014655607390324
  0.3888038226327950  0.4998339995381045  0.8743865579676680
  0.3952274803695133  0.5979371990762132  0.9984292092378766
  0.4163678623556564  0.6699053644341788  0.1139744221708980
  0.4077453866050789  0.7961236309468802  0.1774050928406439
  0.4042365353348742  0.8903634461893759  0.2838574277136274
  0.5074651501154719  0.0254523999999989  0.4963710965357961
  0.4863196739030045  0.1003227727482709  0.6043467879907638
  0.4704066411085464  0.2054927695150113  0.6983940023094704
  0.5139572577367204  0.3079030715935360  0.7910335043879897
  0.4943815538106264  0.3886726207852220  0.8902372286374103
  0.5134760064665116  0.5137374577367240  0.9758711722863751
  0.5121521681293331  0.5793020429561224  0.0764347575057727
  0.5094290697459556  0.6905639473441099  0.1843966221709010
  0.4972573422632820  0.8036171413394939  0.2862606706697477
  0.4953880928406491  0.8932650096997676  0.4059052840646658
  0.5835067736720561  0.0001252563510405  0.6013888688221698
  0.6019514775981492  0.1229993224018457  0.6924692655889118
  0.5942597127020761  0.2097977053117788  0.7798506212471139
  0.6069537542725172  0.3021615570438811  0.9144920401847543
  0.6000295173210191  0.4012621385681285  0.9997581080831424
  0.5954939080831423  0.5108672438799076  0.1012821140877591
  0.5983284152424915  0.5620281127020803  0.2077880138568133
  0.5930967233256368  0.6915799482679006  0.3104904226327960
  0.6041360337182482  0.7985317251732127  0.4054767501154757
  0.6024052586605109  0.8911467445727510  0.5070223251732102
  0.6886337524249413  0.0054100909930739  0.6803568905311792
  0.6785952729792157  0.1211185815242501  0.8107729251732110
  0.7015359339491951  0.2211364919168588  0.9116475806004587
  0.6923227006928414  0.3040646669745968  0.0115330046189399
  0.6983051926097019  0.4156892877598182  0.1200354872979190
  0.6993295344110848  0.5060303127020802  0.2141500360277107
  0.6910227648960756  0.6078460651270206  0.3142808443418019
  0.7004376147805971  0.7155447847575047  0.4340828161662813
  0.7041595602771338  0.8061164886835996  0.5199323408775953
  0.6900876563510394  0.9044485879907640  0.6019718286374101
  0.7846820660508058  0.9944050110854477  0.7963994933025376
  0.7952768748267900  0.1162625796766719  0.9072866277136242
  0.8001683921478033  0.1917281113163938  0.0145421080831412
  0.7861136096997683  0.2987753011547341  0.1148480665126996
  0.8132220226327931  0.4055075043879910  0.2196736854503456
  0.7913517454965344  0.5279254300230960  0.2927636766743618
  0.7840537759815263  0.6169525741339470  0.3975160678983869
  0.7932354508083108  0.7060652221708992  0.5175555362586621
  0.8000513071593502  0.7980946748267925  0.6131757926097023
  0.8022824480369479  0.9141098937644330  0.7095351048498841
  0.9143464914549639  0.0144992249422629  0.8907710688221684
  0.9238374221708980  0.0984754369515031  0.0195536831408774
  0.9003573034642045  0.2041730189376452  0.1000540036951492
  0.8988276729792162  0.3139588314087760  0.2200277002309434
  0.9056952129330256  0.4258969048498855  0.3109288974595827
  0.8872616036951513  0.5062728180138549  0.3805876457274806
  0.8729953237875279  0.5901515459584274  0.4815439866050824
  0.9074117394919199  0.7015443408775965  0.6068286494226314
  0.9086195251732079  0.8182414909930742  0.7108278669745971
  0.8930651408775958  0.9115993491916825  0.8302389048498853
  0.0825230249422617  0.0970474785219366  0.0174803177829119
  0.1015504498845274  0.2094518909930727  0.1079634355658214
  0.1000441482678980  0.3348257621247086  0.2013064240184761
  0.1183938448036983  0.4023369695150123  0.3028381103926066
  0.1142610346420341  0.4795916785219418  0.4172279769053091
  0.1109935648960771  0.6100873658198580  0.4926719251732123
  0.0900463182448021  0.7115190041570472  0.5888418036951535
  0.1186137247113166  0.8073091274826822  0.7058564448036933
  0.1144989967667414  0.9026067870669721  0.8172262674364887
  0.0997343159353363  0.9868386032332594  0.8904847454965363
  0.1958385745958395  0.0888403884526525  0.1059019856812924
  0.2218436933025387  0.2106613247113174  0.1942745048498864
  0.2073642189376415  0.2978725986143189  0.3110857482678995
  0.2074231505773696  0.3834806351039290  0.4198805667436503
  0.2127507709006906  0.5138156933025400  0.5117798896073893
  0.2100653224018458  0.6002204665127024  0.6116875921478027
  0.1995428697459616  0.7166697191685927  0.6787059214780626
  0.2168567334872975  0.7955986023094681  0.8066740849884511
  0.1832897376443441  0.9072536836027680  0.9095007621247078
  0.1734523930715923  0.0060726272517329  0.0099598951501179
  0.2986105685912221  0.0825274780600438  0.1969297150115494
  0.2939009339491889  0.2050958868360269  0.2883858387990728
  0.2924145736720547  0.2962470415704388  0.3973735039260973
  0.2835425334872994  0.4003690628175534  0.4976247260970013
  0.2912243265588899  0.4898117210161672  0.6040834526558925
  0.2965128217090083  0.6008164443418025  0.6873403704387968
  0.3066002438799060  0.7109462263279411  0.7770447214780631
  0.3050861575057766  0.7935919949191685  0.9286301685912264
  0.2922343547344113  0.8972347334872950  0.9930407750577359
  0.3134878332563531  0.9926217113163958  0.0824664868360259
  0.4021143177829103  0.0952215242494248  0.2898982766743643
  0.3747426069284074  0.1961825662817560  0.3890995856812935
  0.3953683856812944  0.2949472360277170  0.5007088263279442
  0.4049409177829091  0.3926437510392589  0.6006222092378763
  0.3839301588914523  0.4679441168591225  0.6944593699769044
  0.3984822822170884  0.5955822120092407  0.7822940314087745
  0.3767700415704383  0.6978548230946870  0.8999698184757534
  0.3928448290993103  0.7787190314087766  0.9962339177829094
  0.4020534124711332  0.9100390799076195  0.0771593875288659
  0.4121668267898357  0.0024134263279478  0.1804981177829106
  0.5058327648960770  0.1201103616628174  0.3774767607390288
  0.4926821371824488  0.1900700013856778  0.4969427690531205
  0.5038749159353344  0.2992593279445757  0.5962543745958442
  0.5177838161662791  0.3942604027713656  0.6857387963048467
  0.4873068965357987  0.4958926595842925  0.7989055039261004
  0.5079839094688197  0.6072392766743633  0.8820937736720538
  0.5098497963048487  0.6872116207852201  0.9922474642032313
  0.5168624281755214  0.7889517191685940  0.0742367787528835
  0.5001469339491891  0.9007405016166317  0.1720750226327965
  0.5161198189376464  0.9983754147806039  0.2845039995381029
  0.5877079759815231  0.0988099912240159  0.4915026443418000
  0.5854732993071607  0.1810125944572718  0.5882721963048496
  0.5911388942263258  0.2773340886836024  0.6875231852193977
  0.6106112729792130  0.3899422249422599  0.7988724591223999
  0.6000187247113189  0.4953258637413427  0.8864837288683631
  0.6071383219399564  0.6108654254041568  0.9649882586605116
  0.6125741094688237  0.6840361016166270  0.0938788387990783
  0.5939046087759792  0.7817813662817557  0.1985804249422642
  0.6005339159353369  0.9098813224018443  0.2969448110854529
  0.6029693866050820  0.9984579893764405  0.3799336383371852
  0.6883190757505773  0.1096101260969959  0.5919399367205571
  0.7031599648960736  0.2162620337182446  0.6886927404157035
  0.7087843667436502  0.3044975205542713  0.8023738919168579
  0.7009679418013874  0.3952658914549687  0.8884384189376462
  0.7097997727482692  0.4683519265588885  0.9886934554272528
  0.7037278591224023  0.5688455787528852  0.0852898457274804
  0.6820244443417991  0.6865586974595814  0.2046862124711311
  0.7030411963048522  0.8008828323325616  0.3135064715935343
  0.6942346193995377  0.8871285371824484  0.4035094383371813
  0.6984580046189350  0.0040852554272490  0.5123883159353326
  0.8029905168591256  0.1049690096997722  0.6879816189376413
  0.7984300036951524  0.2111940905311798  0.7855447930715940
  0.7994671177829105  0.3030920665127042  0.9139436808314088
  0.8049694789838355  0.3970701288683571  0.0118182836027714
  0.8081690872979195  0.4734856503464187  0.1075704498845269
  0.7908065150115462  0.6169420886836008  0.2035424078521970
  0.7787412429561229  0.7161035806004605  0.2994546808314098
  0.8059352484988480  0.8160295233256321  0.4216313732101611
  0.7851768891454967  0.9051028457274839  0.5109568872979224
  0.8057751593533453  0.0155162826789805  0.5921881136258662
  0.8815379907621264  0.0936567625866047  0.7762988161662818
  0.8971663662817519  0.1863680189376424  0.9079081136258651
  0.9084112554272536  0.2929517556582013  0.0185974845265591
  0.9070068766743660  0.3954098960739003  0.1124256448036931
  0.8789533773672034  0.5012215551963024  0.2108378096997683
  0.8928509316397211  0.6154528484988475  0.3004096960739062
  0.8805647921478084  0.6834983967667441  0.3896232840646618
  0.8969109806004596  0.8054296928406472  0.5053749727482710
  0.8881570489607356  0.9030158263279446  0.6023341584295636
  0.8707772203233262  0.9958929247113133  0.7156011353348717
  0.0223150027713643  0.0967722036951528  0.9075112341801415
  0.0089491972286382  0.2085371413394910  0.0148040374133984
  0.0034637792147834  0.3270316739030008  0.1326318457274809
  0.9998353792147796  0.4134331066974610  0.2285846618937626
  0.9943392244803704  0.5087870623556583  0.3155915842956105
  0.0105408110854484  0.5965919501154744  0.3888221431870704
  0.9815549926097020  0.6862785394919158  0.4864676041570419
  0.9914007588914515  0.8127153085450374  0.5941407903002300
  0.0053580923787564  0.9010942115473455  0.7100666655889114
  0.9909726923787545  0.9991353667436513  0.7981518840646658
  0.1858309699769052  0.2122987177829074  0.0236601381062371
  0.2124357062355671  0.2910639542725164  0.1035436729792139
  0.2103013362586594  0.4118607524249427  0.2033938942263305
  0.1931250378752907  0.5070964678983856  0.3143150337182448
  0.2015345801385706  0.6321299321016198  0.3929433588914577
  0.2182140674364916  0.7324330290993046  0.4965686415704411
  0.2067428397228639  0.8255734914549677  0.5980755847575026
  0.1910592351039284  0.8952894332563517  0.7249057418013862
  0.2074250424942292  0.0162747676674400  0.8044743034642039
  0.1657884868360284  0.1036043829099285  0.9197733773672070
  0.3181825487297942  0.2003308143187041  0.0947802799076243
  0.3215855260969960  0.3231294840646655  0.2054026720554276
  0.2844447131639711  0.3982274665127008  0.3087500013856825
  0.2937376420323332  0.5068909722863708  0.4207512752886871
  0.3100219639722894  0.6200373219399538  0.4931679367205533
  0.3005352397228620  0.7149242780600460  0.5935718688221741
  0.2988009810623566  0.8270361510392590  0.7217859404157068
  0.3030150083140910  0.9144733307159356  0.8267973653579688
  0.2889983321016132  0.0282928318706723  0.9058498863741349
  0.2843591270207853  0.1143593584295601  0.9967596526558893
  0.4123961113163972  0.2138008327944547  0.1931745062355645
  0.4038114545034617  0.3049191413394894  0.2962554147806031
  0.3807240535796765  0.3868381806004635  0.4106476909930734
  0.3971889635103949  0.5009830960739023  0.5087332452655886
  0.4022286258660515  0.6073936378752904  0.6036425288683631
  0.4003974503464178  0.7051838914549649  0.7052460438799102
  0.3976190688221735  0.8085620387990744  0.8061513381062326
  0.4043475348729757  0.9201556226327909  0.9018622715935365
  0.4079414050808339  0.9988573741339479  0.9892342882217093
  0.4037578323325661  0.0984927755196310  0.0925576762124720
  0.4835757561200893  0.2117364720554278  0.2977596983833735
  0.4906725745958411  0.3028787755196305  0.4026320503464191
  0.5048246314087734  0.3935468591224023  0.4669553390300223
  0.4876708101616600  0.4952214207852208  0.5857104092378762
  0.4747469316397215  0.5760129963048470  0.6850743302540394
  0.4858692678983800  0.7057304794457266  0.7983089090069271
  0.4936935561200926  0.7686131575057757  0.8971003002309459
  0.5213255034642046  0.8939918018475765  0.9913574387990778
  0.5029258743648981  0.9973745464203247  0.0736504420323314
  0.5211303251732105  0.0930293302540406  0.1993340050808285
  0.6036868498845251  0.2051976642032329  0.3764430263279479
  0.5997671191685896  0.3084442752886858  0.4819421722863737
  0.6091016711316399  0.4018210355658169  0.5765650882217059
  0.5789890729792120  0.4934484318706680  0.6903750055427267
  0.5808998946882227  0.5751582073903023  0.7963811094688253
  0.6227201995381080  0.6975523926097011  0.8882771270207854
  0.6110622415704370  0.7900631505773674  0.9890039182448049
  0.5865818120092356  0.8889036609699801  0.1060182401847598
  0.6046911436489637  0.9774984314087760  0.1945174775981542
  0.6141211034641998  0.1089306826789809  0.2777859039260946
  0.6838835607390337  0.2067616886835992  0.5066891325635083
  0.6908753949191677  0.3166072360277141  0.5933751736720581
  0.6976886175519610  0.4003123168591216  0.6956086637413392
  0.6956279944572756  0.4990617066974607  0.7970917418013883
  0.7138144697459552  0.5807186189376452  0.8971782355658178
  0.7251072448036950  0.6910115030023078  0.0033139755196316
  0.6880250642032308  0.7873261685912212  0.0987849381062347
  0.6957570466512735  0.8834560678983863  0.2128234401847564
  0.7046132715935300  0.0021082785219377  0.3081073205542708
  0.7055977344110858  0.1059921648960724  0.4006277981524278
  0.7956200739030024  0.2114120757505802  0.6041352651270202
  0.7962517030023122  0.3237678254041541  0.7048422055427253
  0.8182241260970002  0.4029263579676652  0.8085345501154748
  0.8272842480369533  0.4935073630485007  0.8989224969976917
  0.7938860720554288  0.5841758438799047  0.0016828762124703
  0.7856537173210185  0.6993657168591199  0.1157534110854499
  0.7700317450346432  0.8030169842956099  0.1980107468822183
  0.8010159755196327  0.9125461228637448  0.3184813575057746
  0.8082635057736738  0.0080661598152432  0.4147043995381097
  0.7803579076212444  0.1079403450346419  0.5020010281755205
  0.9041490909930729  0.2033264632794456  0.6781947205542735
  0.8849081732101638  0.2927994286374158  0.8085221699769036
  0.9104982254041545  0.3960375140877588  0.8955436096997715
  0.9055050147806014  0.4834185796766732  0.0104194845265582
  0.8881614420323345  0.5873299468822140  0.1110017759815207
  0.8913787588914559  0.7086162069284043  0.2089504267898405
  0.8695093265588909  0.7865268752886863  0.3046274244803726
  0.8923080078521934  0.8987275565819886  0.4105552351039279
  0.8893760928406493  0.0067348341801363  0.5021772979214774
  0.8884865274826765  0.1074743958429565  0.5942211394919141
  0.9982977459584319  0.1902342424942276  0.7889537297921478
  0.9941535376443440  0.2850636170900671  0.8902769177829128
  0.9956682203233242  0.3918520660508094  0.0148208152424942
  0.9801062466512676  0.4863343154734423  0.1136500060046188
  0.9843989408775968  0.5962768309468842  0.2135707307159365
  0.9880833847575090  0.7114368138568139  0.2988867745958430
  0.9715867034642045  0.7912799741339498  0.3761033445727477
  0.0029284106235536  0.8870012060046193  0.4880744235565828
  0.9716821256351054  0.9987979330254007  0.6011926420323306
  0.9918346812933052  0.0960374337182444  0.6964348138568113
  0.0962910124711343  0.2061027228637400  0.9058386415704405
  0.0863337588914561  0.3161310563510398  0.9944012521939953
  0.1019093330254037  0.4024100581986119  0.1066958489607401
  0.0841680369515032  0.5116686859122410  0.2080876748267926
  0.0884076254041588  0.6076315542725155  0.3028888554272484
  0.0842679311778269  0.7136785515011539  0.4010955136258687
  0.0633460032332565  0.7824700267898379  0.4915090217090068
  0.1040737505773706  0.8965608494226345  0.6013540327944540
  0.0910247972286342  0.0096661214780625  0.7047181958429576
  0.1070858448036986  0.1047806083140870  0.8094050956120071
  0.3213026254041580  0.3058369533487308  0.9959673418013821
  0.3183695491916865  0.4207503635103933  0.0846907043879881
  0.2990279695150093  0.5095503556581988  0.2227197575057716
  0.3127879935334903  0.6263789482678987  0.3068824794457257
  0.3328132078521975  0.7179834027713596  0.4101067150115441
  0.3307303690531143  0.8218485006928375  0.5046419625866037
  0.3014043963048465  0.9051466027713602  0.5976121745958451
  0.3123556129330254  0.0031867551963032  0.7193442697459602
  0.3035749099307168  0.1182544609699789  0.8224164660508109
  0.2729458849884523  0.2064953385681321  0.9170020720554248
  0.4096003755196307  0.3134003815242465  0.1081215916859151
  0.4073642494226348  0.4083844309468816  0.2139233519630466
  0.4145224387990751  0.4835374290993073  0.3310588498845277
  0.4059215034642065  0.6102033441108574  0.3971670937644376
  0.4062556295612012  0.7023029662817564  0.5238683672055444
  0.4099121667436521  0.8113681551963055  0.6150183422632765
  0.3998056078521941  0.9066706891454999  0.7216828946882217
  0.4189185200923760  0.9924248212471127  0.8303378221709039
  0.4118424942263275  0.1183094060046201  0.9106532979214776
  0.4028718240184759  0.1968499792147824  0.9929720157043889
  0.5035338120092376  0.3174843339491886  0.2066602919168616
  0.5033897949191655  0.3945304184757532  0.3345766508083159
  0.5149291381062326  0.5115683612009221  0.4171604152424919
  0.5075357270207874  0.6131101090069251  0.5154641630484988
  0.5032223011547359  0.7142384789838303  0.6080716531177828
  0.5039083325635119  0.8136270545034634  0.7248380877598137
  0.5101676023094655  0.9024830341801362  0.8036201413394934
  0.5077661727482692  0.0197104683602802  0.9199593344110824
  0.5025182711316418  0.1284594905311778  0.0152939076212490
  0.5055855750577365  0.2176569575057741  0.0970295792147837
  0.6073729491916851  0.3058790628175529  0.3189776535796796
  0.6107730859122427  0.3964906863741362  0.3989728480369550
  0.6066186018475719  0.4961698628175526  0.5147287579676671
  0.6077016762124714  0.6004590494226321  0.6058128452655893
  0.5792265224018465  0.6835014886836035  0.7216977995381058
  0.6142468480369487  0.8169641020785221  0.8104532221708993
  0.6156544217090101  0.8851068318706723  0.9024819907621264
  0.5997370669745976  0.0016190655889119  0.9902515759815245
  0.6025284822170889  0.0914139131639757  0.1003112799076220
  0.6066185866050802  0.2077315302540441  0.2142963829099287
  0.7350563441108520  0.2876306849884500  0.3965438914549679
  0.7107861334872965  0.4152471418013874  0.4842693515011547
  0.7133200942263258  0.4916401561200914  0.6026474221709037
  0.6961779394919176  0.5825355916859110  0.7016651159353344
  0.7000857464203207  0.6756086591224033  0.8092452304849900
  0.7226337293302549  0.7825609801385696  0.8926426951501156
  0.7083825759815241  0.8914998244803698  0.0035413487297902
  0.6884921815242464  0.9986742009237872  0.0887743445727480
  0.7071420942263273  0.0885419699769088  0.1863370868360263
  0.7110725039260970  0.1985363136258655  0.3033123334872982
  0.8037452143187096  0.2928334577367195  0.4896869995381081
  0.8157326198614285  0.4125062424942243  0.5926767662817554
  0.8219193390300248  0.4896511348729788  0.7110185025404121
  0.8240893464203225  0.5849120983833700  0.7880013593533519
  0.7998088203233280  0.6949864983833720  0.8881911759815253
  0.7911168863741338  0.7994896863741303  0.0041913482678950
  0.7942800374133938  0.9024079829099279  0.0926778087759814
  0.7878266346420304  0.9827171884526535  0.1791744683602801
  0.7965314863741355  0.0810455145496505  0.2761863237875275
  0.8181667154734384  0.1876497930715928  0.4023093806004638
  0.9023761898383356  0.3146411099307187  0.5973810628175542
  0.9195080692840634  0.3999403787528877  0.7024353972286406
  0.9409938526558861  0.4952550198614318  0.8028030055427280
  0.9021652748267925  0.5936172207852195  0.9038195648960752
  0.8958824166281758  0.6983736785219392  0.9870690309468841
  0.8874095741339474  0.7905577759815259  0.0886583464203241
  0.8958236106235589  0.8760244642032333  0.2037163829099313
  0.9015737413394902  0.9845683288683631  0.2948336632794479
  0.8890855431870648  0.0898987903002322  0.3880440360277149
  0.8972796711316420  0.1927004591223991  0.4960124535796737
  0.0145896096997689  0.2988307838337150  0.6941011399538084
  0.0178984836027709  0.3865409418013854  0.8045735695150142
  0.0160574799076230  0.5130773043879913  0.9031668794457275
  0.9772341528868367  0.6003642692840643  0.0081121265588919
  0.9921186230946901  0.6831859200923773  0.1140635200923796
  0.9807317916859120  0.7958990826789858  0.2173028900692842
  0.9856058203233289  0.8679760928406495  0.2973294286374113
  0.9819426323325615  0.9993942314087789  0.4031487501154700
  0.9729307505773690  0.0980199173210181  0.4954741113163976
  0.9841146891454997  0.1986161274826799  0.5948361935334887
  0.0936290859122408  0.2896770766743657  0.7998315870669757
  0.0983253953810603  0.4019922120092403  0.8950685357967672
  0.1070853307159325  0.4976645861431876  0.0259476868360267
  0.1112067127020779  0.5857876221708977  0.1049518928406457
  0.0838265200923800  0.6950680083140881  0.2232453778291017
  0.1172552660508117  0.7890269579676641  0.2925471842956142
  0.1024766678983866  0.8858323020785193  0.3894279898383388
  0.0724413353348723  0.0010158868360293  0.4935688397228617
  0.0896819353348732  0.1032325117782875  0.5985686517321014
  0.1153563653579681  0.1938387459584305  0.7139700997690497
  0.2110226923787550  0.3085567838337155  0.8913090189376476
  0.2095860133949188  0.3907171131639728  0.0080570665127055
  0.2237902900692816  0.5120426000000009  0.1247818346420289
  0.2159976826789816  0.6035771515011561  0.2147228129330259
  0.2008733053117808  0.7051371755196314  0.3110342729792137
  0.2299099565819844  0.7907739639722848  0.3976046789838321
  0.1884883999999971  0.9021723187066968  0.4713883117782913
  0.1939263575057737  0.9891094240184728  0.6008071806004622
  0.2162904267898398  0.1008977769053132  0.7073199284064700
  0.1932135016166256  0.1979607334872995  0.8059653247113161
  0.4055393792147797  0.4290041191685887  0.9698658979214798
  0.4006375404157012  0.5003039196304826  0.1009147575057767
  0.4150943191685883  0.5790372046189347  0.2093068078521938
  0.4305151866050778  0.7010355958429528  0.2827758110854504
  0.3953859898383385  0.7997437279445734  0.3975149237875257
  0.4228266364896101  0.9205699838337154  0.4966421842956095
  0.4174269524249397  0.0009384646651256  0.6066157191685946
  0.4021222314087751  0.1015001367205528  0.7292239819861450
  0.4165470360277155  0.2082737034642008  0.8089550946882227
  0.3929877949191720  0.2997525122401825  0.8870094572748286
  0.5130009043879937  0.4130351464203201  0.0808904942263311
  0.4981742637413404  0.4745970766743639  0.2127344720554305
  0.5063503200923805  0.5846828688221706  0.2970747316397251
  0.5190565879907609  0.6955293690531192  0.4071750854503478
  0.5051741006928410  0.7940839635103956  0.5049330078521947
  0.5145093995381060  0.9018329279445751  0.5897256166281721
  0.4864722646651245  0.0017262480369524  0.7055370383371837
  0.5067394812933017  0.1116587727482710  0.7914298466512690
  0.5147959944572733  0.2272140406466505  0.8975251635103945
  0.4888049579676661  0.3167114531177830  0.0181113565819828
  0.5969267713625896  0.4174589002309474  0.2150082988452624
  0.6189371815242524  0.4974443588914568  0.3160076087759833
  0.6168295487297897  0.6089059431870680  0.4180623150115466
  0.6045720129330263  0.7170209413394915  0.5236179879907610
  0.6167349066974595  0.8008846152424951  0.6119002318706706
  0.5945959967667420  0.9313143648960747  0.6852991422632826
  0.5841004669745971  0.0084465482678979  0.7947959967667444
  0.5916438281755205  0.1167798341801358  0.9101210845265584
  0.5846088267898395  0.2020915404157009  0.0177418581986117
  0.5954206466512701  0.3039172609699747  0.1027689861431895
  0.7094404577367186  0.3885708096997718  0.2916638212471128
  0.7144365062355647  0.5057964212471120  0.4083696498845271
  0.7087902438799105  0.5930939556581976  0.5328212775981527
  0.7174625307159346  0.6983170055427266  0.6210155247113178
  0.7070745154734439  0.8152830632794448  0.7067255016166314
  0.6947755478060031  0.9141616655889138  0.7893308055427255
  0.6935713538106256  0.0135052489607403  0.9089099916859098
  0.7023765390300198  0.1158499621247131  0.9869557759815208
  0.6981860415704375  0.2001553944572763  0.1068065782909926
  0.7102437926097025  0.2965084942263303  0.1967525515011559
  0.7899872295611985  0.4173309852194009  0.4084565251732073
  0.7972690549653549  0.5104917187066960  0.5042803699769038
  0.8188139150115461  0.5914850535796745  0.6144348734411054
  0.8200973344110878  0.7029118124711289  0.7236990503464185
  0.7936717348729800  0.7994611154734415  0.8034659538106226
  0.8069675958429556  0.8991299588914572  0.9270526891454978
  0.8136177247113139  0.0094533672055448  0.0000469413394910
  0.8066538545034661  0.0985476120092343  0.1051073131639697
  0.8249767690531158  0.2028210526558922  0.1908363279445737
  0.8174638267898402  0.2994294863741374  0.2922533685912256
  0.8824819861431905  0.4099789066974608  0.4791408549653582
  0.9015544909930711  0.4903574923787559  0.6046311279445717
  0.9364140448036977  0.5937888050808340  0.7078531528868339
  0.9118862831408805  0.7054337191685889  0.8009638849884553
  0.8962025616628182  0.8013490739030047  0.9042910106235595
  0.9010286272517334  0.9070707856812916  0.9914439039260969
  0.8905092748267904  0.0175009616628188  0.1112519325635120
  0.8965800143187082  0.0671213556582018  0.1871821986143161
  0.9006107713625866  0.1693460013856836  0.2940944762124715
  0.8908921667436474  0.3097043330254010  0.3823599094688248
  0.9979408498845288  0.4095048401847592  0.5757118087759849
  0.0232146041570473  0.4834590212471142  0.6905214549653564
  0.0049630096997717  0.6077308064665132  0.7898881953810601
  0.0093970609699738  0.6953930872979228  0.9036195390300250
  0.9871021450346404  0.7834222831408795  0.0194899607390298
  0.9907372023094680  0.8945007782909897  0.0941171524249427
  0.9784228378752857  0.9680443057736738  0.1813923297921463
  0.9786901357967679  0.0886974632794448  0.2831577090069288
  0.9940483524249402  0.2165360318706675  0.3939376332563498
  0.9909545311778274  0.2905337981524241  0.4724778438799078
  0.1181321551963066  0.3942356840646681  0.7041390069284077
  0.0886170637413386  0.5080863612009239  0.8007997385681307
  0.1047252909930734  0.5974215999999970  0.9105009764434158
  0.0874129939953789  0.6905735713625845  0.0132921376443420
  0.0838545584295645  0.7938234969976889  0.1160335108545070
  0.0922193270207856  0.8761136337182478  0.2068414226327917
  0.0679058642032331  0.9771060281755197  0.2732482069284075
  0.0748310628175517  0.0902509413394910  0.3748241228637426
  0.0984078101616603  0.1871908692840663  0.4962783764434207
  0.0768107575057755  0.2890366660508050  0.5871076535796789
  0.1857631986143176  0.3775354484988469  0.7882421741339485
  0.1841839196304846  0.4864015450346386  0.8804875094688214
  0.2072359371824462  0.6042050378752890  0.9859194092378729
  0.1877826387990780  0.7016181454965391  0.0914292129330221
  0.2018755367205571  0.7879643930715901  0.1899001385681274
  0.2086213048498848  0.8986393362586611  0.3145438295612024
  0.1919500674364869  0.0149009916859129  0.3661119921478075