Li 
 1.0000000000000000
    21.6499999999999986    0.0000000000000006    0.0000000000000000
     0.0000000000000006   21.6499999999999986    0.0000000000000000
    -0.0000000000000006   -0.0000000000000006   21.6499999999999986
 Li 
 500
Cartesian
  0.1337847900000000 -0.0112163600000000  0.4099973200000000
  0.3547041100000000  2.2934876300000000  3.0021404299999999
 -0.4866493100000000  4.6006857200000004  4.4135357800000001
 -0.3111027300000000  6.9179965499999998  6.4546540999999999
  0.0238529100000000  8.6532578699999991  8.6467780399999992
  0.1561151000000000 11.0697044099999999 10.4411065599999997
  0.1050045200000000 12.9499598799999998 12.7391791399999992
  0.2051036100000000 15.5024539000000008 15.2357285099999995
 -0.0034256900000000 17.7770301500000016 17.4654253100000005
 -0.0425574900000000 19.3895697600000005 19.7139050599999983
  1.9904525500000001 -0.1735003500000000  2.5737285200000000
  1.7499935499999999  2.2389701600000000  4.1207550399999997
  2.1186044000000002  4.4121181600000003  6.0049890100000001
  2.0894748700000001  6.5053470100000004  8.7691297299999995
  2.2381335500000001  8.7171270900000000 10.7399471799999997
  2.2537040400000001 10.8900354000000004 12.6529406299999998
  2.1528517599999999 13.3677953800000004 14.7393317199999991
  2.4317921199999999 15.3976206900000001 17.2237181100000001
  2.0985571699999999 17.2961509800000002 19.8479624699999988
  1.5338301900000000 19.4200024300000003 21.6803104100000006
  4.4075643700000002 -0.3859606600000000  3.9529594499999998
  3.8509377599999999  1.8811701199999999  5.8823306000000004
  4.1558032599999999  3.6299301700000002  8.2525071000000008
  4.4774559099999998  5.8933647200000001 10.5408707199999991
  4.2441107000000002  8.6004999099999999 12.9870197300000001
  4.1507610100000001 10.6729166699999993 15.2574376399999991
  3.9726930000000000 13.2626491000000009 17.1319243300000004
  4.1491327699999996 14.9041204599999997 19.5674208699999994
  3.9224147299999998 17.3916210800000002  0.1432942000000000
  4.2989865299999996 19.4044298499999996  1.9184864600000000
  6.8180595999999998 -0.1077852500000000  6.1179588200000001
  6.1247497600000003  2.0872333400000000  8.5414498999999999
  5.9670916900000002  4.0771009100000004 10.7454395999999992
  6.8143694300000002  6.5050422799999996 12.6629714300000007
  6.3582505400000002  8.3388829999999992 14.9346769399999992
  5.9641387999999997 10.1587611199999994 16.8588175500000013
  6.6047839899999996 12.5823455299999996 18.6756815899999999
  6.5925342899999997 14.6160510299999995 -0.0774856500000000
  6.5894738500000001 16.8712121900000014  1.9484894200000000
  6.5992449200000003 19.2371558000000000  3.4225013999999998
  8.9453431400000003  0.1908846100000000  8.5515005599999991
  8.4448067699999996  1.9491461100000000 10.7007523800000008
  8.5650417599999997  4.2813418600000004 12.6425482799999997
  8.9706422700000008  6.3779867799999996 14.8823363799999999
  8.5445670299999996  8.0524468500000008 17.3517293899999991
  8.4176027599999994 10.8214060900000000 18.9304689800000006
  8.5566749499999997 12.9453403599999994 -0.0340076200000000
  9.0143642199999992 14.5034511399999992  2.4675462399999999
  8.8276876200000007 17.2360766100000014  3.8408202600000001
  8.7517209900000008 19.2763686099999987  6.1455133100000001
 10.9866205000000008  0.5510444600000000 10.7464342399999992
 10.5288209399999992  2.1719880300000001 13.0841079600000008
 10.1843037800000005  4.4489184599999998 15.1202301499999994
 11.1271746300000007  6.6661014999999999 17.1258753699999993
 10.7033606399999996  8.4147622399999999 19.2736359999999998
 11.1167555399999998 11.1224159599999997 -0.5223891200000000
 11.0880944400000008 12.5418892300000007  1.6548125000000000
 11.0291393600000003 14.9507094600000006  3.9921868699999998
 10.7656214600000002 17.3983111100000016  6.1975435200000000
 10.7251522099999992 19.3391874600000016  8.7878494000000007
 12.6329216500000001  0.0027118000000000 13.0200690100000003
 13.0322494899999999  2.6629353299999998 14.9919595999999995
 12.8657227800000005  4.5421203200000004 16.8837659500000008
 13.1405487799999996  6.5417977100000000 19.7987526699999989
 12.9906390500000004  8.6873252999999995 -0.0052369600000000
 12.8924431100000003 11.0602758300000001  2.1927577700000001
 12.9538101900000004 12.1679086400000003  4.4986104999999998
 12.8405440599999991 14.9727058799999995  6.7221176500000004
 13.0795451299999996 17.2882118499999997  8.7785716399999991
 13.0420738499999995 19.2933270199999995 10.9770333400000002
 14.9089207399999992  0.1171284700000000 14.7297266800000006
 14.6915876599999997  2.6222172900000000 17.5532338299999999
 15.1882529700000006  4.7876050499999998 19.7371701199999983
 14.9887864700000009  6.5830000399999999  0.2496895500000000
 15.1183074200000007  8.9996730800000009  2.5987683000000001
 15.1404844199999999 10.9555562700000007  4.6363482800000000
 14.9606428600000001 13.1598673099999992  6.8041802799999997
 15.1644743599999998 15.4915445900000002  9.3978929699999991
 15.2450544800000003 17.4524219800000004 11.2565351800000002
 14.9403977599999997 19.5813119299999983 13.0326900899999991
 16.9883667299999992 -0.1211315100000000 17.2420490300000004
 17.2177443399999994  2.5170848499999998 19.6427554899999990
 17.3236456899999993  4.1509136099999999  0.3148366400000000
 17.0193596499999984  6.4684852700000004  2.4864606400000002
 17.6062567899999998  8.7792374700000000  4.7559352900000000
 17.1327652899999983 11.4295855599999996  6.3383336000000003
 16.9747642499999998 13.3570232299999994  8.6062228699999999
 17.1735475099999988 15.2863120600000002 11.2050773600000007
 17.3211107999999996 17.2787497099999996 13.2752559100000003
 17.3694150000000000 19.7904792000000000 15.3614350200000001
 19.7956015399999998  0.3139082200000000 19.2851936399999992
 20.0010801899999997  2.1319932100000001 22.0733372400000007
 19.4927356200000013  4.4203458600000003  2.1661691799999998
 19.4596191199999993  6.7972086999999997  4.7635997100000003
 19.6083013599999987  9.2206679900000008  6.7316106299999996
 19.2092137200000010 10.9608065099999994  8.2397225299999999
 18.9003487600000000 12.7767809700000008 10.4254273099999999
 19.6454641599999995 15.1884349800000003 13.1378402600000008
 19.6716127199999988 17.7149282799999988 15.3894233200000006
 19.3348602999999990 19.7361259099999984 17.9746722900000009
  1.7866234900000000  2.1010779099999999  0.3784488800000000
  2.1985672400000000  4.5346334400000003  2.3374083799999998
  2.1659558099999998  7.2489777499999999  4.3582840799999998
  2.5632267400000002  8.7105953899999999  6.5564450900000004
  2.4737513999999998 10.3831598399999994  9.0329856999999993
  2.4030106800000000 13.2083914700000005 10.6663471800000007
  1.9495027899999999 15.4043864399999997 12.7484250499999998
  2.5679871400000001 17.4782426099999988 15.2817920300000001
  2.4789032799999999 19.5414369400000005 17.6929486900000015
  2.1592479400000002 21.3650557600000006 19.2789947400000017
  4.2399051400000003  1.9233944100000000  2.2927779899999998
  4.8029159600000000  4.5608176800000004  4.2060430300000000
  4.4894353400000000  6.4489417600000003  6.7350064500000002
  4.4907112099999997  8.3023557500000003  9.0904142700000001
  4.6060541900000000 11.1241097599999996 11.0800346100000002
  4.5479142299999999 12.9947730999999997 13.2430363700000004
  4.3201031299999997 15.5158994200000002 14.6939831999999999
  4.6949482800000002 17.2247097400000015 17.4644939400000005
  3.9682228199999998 19.6420422499999994 19.6906914999999998
  3.7552443100000001 21.7814723800000003 21.8656317300000005
  6.4649188100000003  1.7867199000000000  4.2635283299999998
  6.3629552199999999  4.4403259500000001  6.2435534099999996
  6.3307755200000004  6.4137484499999999  8.6031363600000006
  6.1386958500000004  8.6679902099999993 10.7735753200000008
  6.3050066700000000 10.6044237599999995 13.0784067499999992
  6.4195025899999996 13.0076760199999999 14.8809190200000003
  6.6378952800000004 15.3919858000000005 16.8230182200000016
  6.6051153100000004 17.1812666900000011 20.1048431500000007
  6.3268737799999997 19.4251319799999997 -0.1506672200000000
  6.7870115899999997 21.4902600499999998  1.7853994399999999
  8.7057749799999993  2.0615459999999999  6.2762976899999998
  8.1131774399999994  4.2473525600000004  8.4240060299999993
  8.5597255499999996  6.3856076599999998 10.8403460900000006
  8.7669708699999997  8.5007372100000005 13.0034708299999995
  8.3120879399999996 10.1309901300000007 15.0350453599999998
  8.6271414100000001 12.8943548900000007 16.9366657799999984
  8.1570713999999995 15.1085569199999998 19.4843465699999996
  8.5050905500000002 16.8592670300000016 -0.0815356800000000
  8.7044563799999999 19.7023460800000016  1.6705007400000000
  8.9234118000000002 21.7022506799999988  3.9077842500000002
 10.9512793599999991  2.6003893300000001  8.1723718699999992
 10.6665682700000009  4.1150155300000000 10.7588109500000009
 10.9088919299999993  6.4789644500000003 12.9089072100000006
 11.2100196200000006  8.5357377200000002 14.8462449400000001
 10.5501943100000002 10.7360760800000001 17.2963041599999983
 10.9978516400000004 13.1467303399999995 19.0973301999999983
 11.0382480899999997 14.8781315900000006 -0.1678424000000000
 11.1900715700000006 17.0808047199999997  1.6072262600000000
 10.8281811200000000 19.5010318600000012  3.7254242400000002
 11.1739940799999999 21.6148277299999982  6.1595115900000001
 12.7238776799999993  2.1392363099999998 10.6410322500000003
 12.6754969299999996  3.9189226700000002 12.7360930499999991
 12.7981570599999994  6.0042830199999999 14.8848769599999997
 13.2197340600000004  8.4422491700000002 17.2955887399999995
 12.9904053899999994 10.7238049499999999 19.1923727299999989
 13.1445446700000002 13.2252364599999996 -0.7580042000000000
 13.2622294699999994 14.8093816000000000  2.0324768600000001
 12.8580347800000006 16.9255665800000017  4.2992661999999999
 13.0015592800000004 19.6989306299999996  6.4288551600000003
 13.0542872200000009 21.6166154699999993  8.2255632700000003
 14.9021079899999993  2.3730592300000000 12.8154996299999997
 15.2234132399999993  4.6820730299999997 14.9101978299999995
 15.3451815400000005  6.5923713199999998 17.3713947600000012
 15.1759559399999997  8.5575065499999994 19.2346917700000013
 15.3671650799999995 10.1398192100000006 -0.2447866900000000
 15.2357081500000007 12.3155067799999998  1.8465251600000001
 14.7658292200000005 14.8639957999999996  4.4314565000000004
 15.2208418999999999 17.3391133199999992  6.7874151100000004
 15.0301795100000000 19.2063328300000009  8.7359793400000001
 15.1216158000000007 21.7384457799999993 11.0932070399999994
 17.3847446900000016  2.2725790600000000 14.8948020499999991
 17.2860095800000018  4.5723520600000001 17.0070447700000003
 17.3084631000000009  6.5619432399999997 19.7868806900000003
 17.4275892200000015  8.5965682900000004  0.2558658400000000
 17.4968607399999989 10.2509643300000004  2.3289002399999998
 17.1209610499999982 13.3567962199999997  4.4066931299999998
 16.8597479099999994 15.5036425199999996  6.4831938400000002
 17.4484981300000008 17.6670391799999997  9.1283192300000007
 16.9990796499999988 19.5954766099999986 11.0622166100000001
 17.4450322000000000 21.9859275200000006 12.8208726599999991
 19.0852974999999994  2.0276689100000000 16.8068693700000011
 19.4236518300000007  4.0348676100000000 19.6562106599999993
 19.6671036800000003  6.3424055099999999  0.4026355400000000
 19.6366988800000009  8.5606242500000000  2.4340152100000001
 19.0293406199999993 10.8514466699999996  4.5646385799999996
 19.3302226700000013 13.3245541700000008  6.5038699199999996
 19.0642277500000006 14.7977402900000001  8.4353441000000000
 19.4181227300000003 17.4375528499999994 10.9413681599999997
 19.2286001099999986 19.5502926399999986 13.0405345300000004
 18.8523268199999983 21.5610818199999983 15.4927645799999993
 22.1331198100000002  2.0951182099999999 19.6476182199999982
 21.8437501199999993  4.5148291100000000 21.9705074099999997
 21.7249908199999986  7.0802357400000000  2.8714794600000002
 21.6464359600000016  8.9508267600000000  4.9488579300000000
 21.5274442099999987 11.0152398999999992  6.8325578000000000
 21.8782085600000009 12.9162157200000003  8.4179993999999994
 21.2506655900000005 14.8579303800000009 10.5320236299999994
 21.4638264300000010 17.5952864300000016 12.8631481099999991
 21.7660027000000014 19.5086896799999998 15.3729433100000001
 21.4545587900000001 21.6312806900000005 17.2799882899999986
  4.0232405000000000  4.5962672400000004  0.5122419900000000
  4.5992330399999997  6.3015346100000000  2.2417205199999999
  4.5530239300000002  8.9167852900000000  4.4034778100000000
  4.1811570700000003 10.9786385299999996  6.8049204799999998
  4.3632236600000001 13.6856130300000007  8.5072237200000007
  4.7243345600000000 15.8571750799999993 10.7507110899999994
  4.4759824799999999 17.8736660900000004 12.9483364099999996
  4.1364324400000001 19.3830162299999991 15.6942093099999997
  4.4907521700000004  0.3523487200000000 17.4168686699999995
  3.5893207399999998  2.2430348900000001 19.9130936200000015
  6.8886521800000002  4.3371621300000003  2.0519930600000000
  6.9623266399999997  6.9957533300000003  4.4469678500000001
  6.1582280400000000  8.6216246499999993  6.6844375300000003
  6.3594199500000004 10.9741895500000002  9.1092651100000008
  6.7119755200000002 13.4238080199999992 10.6770858299999993
  6.5065879400000002 15.4781106200000007 12.8508309599999997
  6.4690412400000001 17.9053326700000000 15.6266656099999999
  6.5602749300000003 19.7983476100000004 17.9001629599999994
  6.2568138900000001  0.6125398100000000 19.6116500400000007
  6.1563751000000000  2.4758801099999999 21.5798464800000005
  8.9283758100000004  4.6287880299999999  4.1822280599999999
  8.7425179899999996  6.6014994099999997  6.4139297300000004
  8.2426757599999991  8.3750466100000001  8.8905225100000003
  8.5991410599999991 10.8462840299999996 11.0140747599999997
  8.7082497500000002 13.1500722600000000 13.0688607500000007
  8.6686048000000007 15.2672312500000000 15.2685768500000005
  8.6084528400000000 17.5053681400000016 17.4531764699999989
  8.7541241299999992 19.9213692299999998 19.5253181799999993
  8.8319314200000001 -0.0247378500000000 -0.2330776600000000
  8.7413570699999994  2.1323685900000000  2.0038736899999998
 10.4694151200000007  4.5840946200000001  6.4464974699999997
 10.6230612400000002  6.5573254900000002  8.7169838899999998
 10.9294532699999998  8.5202895000000005 10.1095830899999992
 10.5580730400000000 10.7215437599999994 12.6806303600000003
 10.2782710700000006 12.4706813699999994 14.8318592500000008
 10.5190696500000005 15.2790648800000000 17.2833878799999994
 10.6884654900000005 16.6404748600000012 19.4222214999999991
 11.2866971500000002 19.3549225100000015 -0.1871114500000000
 10.8883451800000000 -0.0568410700000000  1.5945320700000001
 11.2824715399999995  2.0140850000000001  4.3155812100000004
 13.0698202999999999  4.4425294299999996  8.1499915200000004
 12.9849581300000008  6.6778185600000004 10.4340480299999996
 13.1870511799999992  8.6994254200000007 12.4826341599999999
 12.5351134299999991 10.6831585499999999 14.9466188700000000
 12.5764827199999996 12.4521751900000002 17.2416510199999991
 13.4818923200000000 15.1020093000000006 19.2311997999999988
 13.2294975299999997 17.1048672099999983 -0.2380651700000000
 12.6994962299999994 19.2447642600000002  2.2952949000000000
 13.0915632599999991 -0.4871589600000000  4.2113033900000003
 13.2957218899999994  2.3583492800000001  6.0140648199999998
 14.8060790900000008  4.4763905599999996 10.9698197200000003
 14.9574522999999999  6.8545466599999996 12.8465725099999997
 15.1049585700000009  8.6667616600000006 15.0599275699999993
 15.0603460800000004 10.8046859499999997 17.2570362099999990
 15.4540832699999999 12.5725581000000002 19.4239087999999995
 15.6985718500000004 14.9603990400000004  0.0717475700000000
 14.8957426399999999 17.0456115500000003  2.1386939100000002
 15.0631400600000003 19.1268238699999991  4.6076274799999997
 15.2548773299999993  0.0456442300000000  6.6705234899999999
 15.2761909500000002  2.2947303699999999  8.6735918299999994
 17.2251745999999990  4.5770714400000001 13.0795284899999995
 17.2388493700000005  7.0095734199999997 15.2598337500000003
 17.7145523300000001  8.7233556500000002 17.5047730100000010
 17.9107039700000001 10.6844344099999997 19.4616720600000015
 17.1876334600000007 12.6474070199999993  0.0364342700000000
 17.0094029800000008 15.1412677700000007  2.5060613500000000
 16.6711872800000016 17.3853177099999989  4.2869326699999997
 17.3419958700000016 19.7566235600000013  6.8951213899999999
 17.4989048999999994  0.1746323600000000  8.9783502500000001
 16.8947487000000010  2.3369084700000000 10.8683222599999993
 19.5748278199999994  4.4020179300000004 14.6829157000000006
 19.1582619500000000  6.3391076300000000 17.5045049800000001
 19.7122865800000007  8.5742121800000000 19.3885191500000005
 19.6041835700000000 10.4660122500000003  0.2255818400000000
 19.2286952199999988 12.7156933500000004  2.4031884500000000
 19.2983501299999993 15.3415408800000002  4.5237767399999997
 18.8248769200000012 17.0283068499999999  6.5951837400000004
 19.3184683700000015 19.4574515999999988  8.8885208400000000
 19.2549924099999998  0.1458091600000000 10.8721385000000001
 19.2357333200000014  2.3268206700000000 12.8648876699999999
 -0.0368538000000000  4.1185713499999999 17.0808482499999990
 -0.1265759100000000  6.1716273099999999 19.2744952699999992
 -0.0937830300000000  8.4835972300000009  0.3208706500000000
 -0.4306997600000000 10.5291379299999992  2.4605226299999998
 -0.3377629300000000 12.9093933900000000  4.6238063199999999
 -0.2579947200000000 15.4026070199999996  6.4708986700000004
 -0.6151478700000000 17.1312114400000013  8.1426374100000007
  0.0634000900000000 19.2035761100000002 10.5668112700000005
 -0.6130819800000000 -0.0260247500000000 13.0158207000000008
 -0.1767791500000000  2.0792104400000002 15.0778137200000000
  2.0847004199999999  4.4621239499999996 19.6114065900000014
  1.8691258799999999  6.8442373700000001 21.5287871099999997
  2.2063370600000001  8.7121777599999994  2.3099651300000001
  1.8222380000000000 11.0776270500000003  4.5050981600000002
  1.9140250900000000 13.1552231499999994  6.5575437200000000
  1.8244007099999999 15.4511406400000002  8.6837178700000006
  1.3714409700000001 16.9404760799999998 10.6411703200000005
  2.2531967000000002 19.4105423899999998 13.0193148099999991
  1.9706868600000000  0.2092715300000000 15.2571489400000004
  2.3184085400000001  2.2685001699999998 17.5236203199999991
  6.9562018400000003  6.6213700400000004 -0.0873070500000000
  6.8927007400000004  9.1092453700000000  1.8335537500000001
  6.4739555400000004 11.0317652000000006  4.8218827500000003
  6.7718600599999998 13.5611042299999998  6.6440056800000002
  7.2054059500000003 15.5443406700000004  8.8788103799999991
  7.1603124899999999 17.7930200399999983 10.9254984900000007
  6.5254051799999999 19.5964239499999984 12.9383035799999995
  6.7624990199999999  0.0689932500000000 15.5738034400000007
  6.5723967999999999  2.5602090799999999 17.8053164899999992
  5.9092784099999998  4.4706240800000003 19.8530948599999988
  8.8678481300000005  6.7851182600000000  2.3408324600000001
  8.8194359999999996  8.8415229300000000  4.6314405699999996
  8.9744107999999994 10.4685853400000006  7.1674240999999999
  8.7882005500000009 13.2109024000000002  8.5986675800000008
  8.7954343799999997 15.2048592199999995 11.3417501499999993
  8.8745984100000008 17.5661205600000017 13.3151471099999998
  8.6557914100000009 19.6294204199999989 15.6244346699999994
  9.0695859599999995 -0.1640026200000000 17.9768138499999992
  8.9163899999999998  2.5613986400000002 19.7156438999999999
  8.7221749899999992  4.2618020500000000 21.4978441400000015
 10.9015070299999994  6.8735358299999998  4.4741953199999998
 10.8983890599999995  8.5415835599999994  7.2435844899999999
 11.1482158400000007 11.0754550199999997  9.0315229899999991
 10.9881484900000004 13.2738338599999999 11.1597991299999997
 10.8947628200000004 15.4632630700000000 13.1647512899999999
 10.9096153999999999 17.6150257299999993 15.6927445999999993
 11.0451285899999991 19.5387576900000006 17.3983760600000004
 10.9931376400000005  0.4267316400000000 19.9171195899999987
 10.8795205700000004  2.7811479700000001  0.3311131000000000
 10.9459277000000004  4.7122731299999998  2.1006903900000000
 13.1496243499999999  6.6222817100000002  6.9058662000000002
 13.2232373100000000  8.5840233599999998  8.6377621599999994
 13.1332927300000009 10.7420775299999995 11.1438776100000005
 13.1567412899999994 12.9999384199999994 13.1158480999999991
 12.5402542100000005 14.7978072300000001 15.6247573600000003
 13.2984442600000001 17.6872728099999996 17.5463122600000005
 13.3289182299999993 19.1625629099999983 19.5387351000000002
 12.9843074999999999  0.0350527700000000 -0.2110533800000000
 13.0447416399999998  1.9791112200000001  2.1717392100000001
 13.1332924000000002  4.4973876300000004  4.6395166899999998
 15.9139698500000009  6.2272043300000002  8.5851752500000007
 15.3885197900000001  8.9901006199999998 10.4844314599999997
 15.4433800399999992 10.6440093800000000 13.0473166900000006
 15.0722523899999992 12.6118955600000007 15.1910497600000003
 15.1568564099999996 14.6269274700000000 17.5201592400000017
 15.6450202399999991 16.9424452199999998 19.3257143499999984
 15.3364827699999999 19.3009711999999993  0.0766702000000000
 14.9058557300000007 -0.0287035500000000  1.9219645599999999
 15.3096263399999994  1.9169336500000000  4.0341979300000004
 15.3947197100000004  4.2983111899999997  6.5667120199999998
 17.4010838899999989  6.3398443599999998 10.6017235400000001
 17.6606112199999998  8.9307601499999993 12.8314519899999997
 17.7945536900000008 10.6009470700000001 15.3935505799999994
 17.8415343499999999 12.6633469299999994 17.0602294299999997
 17.3158609599999984 15.0464576900000004 19.2293389599999998
 17.1276805900000006 17.3089517099999988  0.0907426900000000
 17.1961628100000006 19.5371328300000009  2.0064745600000000
 17.0564466400000008 -0.3741728700000000  3.8791272399999999
 17.2449066799999997  1.7546353900000000  5.9794339100000000
 17.7133093899999992  4.0626180200000004  8.7099980899999991
 19.5364445099999990  6.8119800300000000 12.9333000100000000
 19.9073497000000010  8.6587092000000005 15.2077263499999997
 20.3725169100000016 10.7222711799999999 17.3806850699999984
 19.5318782000000013 12.8518128300000001 19.5676935800000003
 19.3958543200000015 15.1197901399999992 -0.2799554800000000
 19.2124172800000004 17.1155758499999990  1.9194532000000000
 19.3945811699999986 18.9659296499999996  4.4104596899999997
 19.5190714999999990 -0.3340956800000000  6.3831488099999998
 19.2487020099999988  1.9463088099999999  8.4011533800000002
 19.4261048800000005  4.1719649399999996 10.7386696199999996
  0.3158650500000000  6.4696864700000001 15.0272896800000009
  0.3875021700000000  8.3686113899999999 17.4190177800000008
  0.3476444400000000 11.1081236400000005 19.5535629399999991
 -0.4928805900000000 12.9978864299999994  0.1756275400000000
 -0.1706318100000000 14.7909751699999994  2.4694752100000001
 -0.4171567100000000 17.2312151399999998  4.7046075700000003
 -0.3116339900000000 18.7916824099999999  6.4371821300000001
 -0.3909420100000000 -0.0131148900000000  8.7281704399999995
 -0.5860492500000000  2.1221312100000000 10.7270145100000001
 -0.3439169800000000  4.3000391599999999 12.8782035900000000
  2.0270697100000001  6.2715087100000000 17.3163538599999995
  2.1287448100000002  8.7031313899999994 19.3782338000000003
  2.3183974100000002 10.7744382900000009  0.5617674200000000
  2.4076253300000001 12.6823020199999998  2.2722084800000002
  1.8148441600000000 15.0482223800000003  4.8332624300000004
  2.5385765100000000 17.0824336400000014  6.3336465400000002
  2.2186198600000000 19.1782693399999999  8.4311159799999995
  1.5683549100000000  0.0219939500000000 10.6857653799999994
  1.9416138999999999  2.2349838800000001 12.9590113099999993
  2.4974653099999999  4.1966088499999996 15.4574526599999995
  4.5686412900000004  6.6802543700000001 19.2968402599999997
  4.5375371900000001  8.4590254999999992 21.8244354899999990
  4.8450597799999997 11.0857222899999996  2.7015267199999999
  4.6763498300000004 13.0674453300000000  4.6487489000000002
  4.3489070600000002 15.2662198500000006  6.7338920099999999
  4.9775505600000001 17.1202563199999993  8.6081412999999998
  4.0807738599999999 19.5320307000000000 10.2055569500000001
  4.1985056399999996 -0.2357809700000000 13.0074754600000002
  4.6826877400000004  2.1844368699999999 15.3134764499999996
  4.1830723100000000  4.2858498799999998 17.4491492800000003
  8.7799275600000009  9.2879391800000004 -0.6524033100000000
  8.6738027500000001 10.8315798599999997  2.1848044999999998
  8.9867920100000003 12.5361554799999997  4.5314923900000004
  9.3206537899999997 15.1774206500000002  6.1220963099999999
  8.5601066800000005 17.3144517100000002  8.6061981000000003
  9.1541966800000001 19.9303401499999993 10.7523032900000004
  9.0372935200000004  0.0203177600000000 13.1332303199999991
  8.7059463099999999  2.1974779600000001 15.7876992099999995
  9.0182433300000007  4.5091256800000004 17.5138777999999995
  8.5081857599999999  6.4896418899999997 19.2037547500000016
 11.1064695800000006  8.9422109200000008  1.7512791999999999
 10.7854728099999999 10.2750267100000006  4.6057013199999997
 10.9624844299999999 12.6583841100000001  6.4316679399999996
 11.2375751299999997 15.0582108399999992  8.8153406000000007
 10.9370192799999995 17.1919178099999996 10.9317996199999996
 11.1391285000000000 19.5246828900000011 12.7675596000000002
 10.5321245300000008  0.0373732700000000 15.2748768800000008
 10.9709097700000004  2.4174124300000002 17.1344561800000008
 11.1453332799999991  4.9191839799999997 19.4314197899999996
 10.5826273400000002  6.8568029599999996 22.0421108699999984
 12.9234646000000009  9.0379851900000006  4.6549296699999996
 13.3999899800000009 10.7696703700000000  6.8415647300000000
 13.3543597300000005 13.1828136699999998  9.0510491200000001
 13.0889840799999995 15.5235033799999993 11.3363294400000001
 13.3523107299999992 17.3391519199999991 13.2476400200000004
 12.8730033299999995 20.1629560000000012 14.8367264300000006
 12.6457751100000007  0.1828677700000000 17.2073333300000009
 12.8090888799999991  2.5282834099999998 19.7041214800000013
 12.6567810999999999  4.3752818500000004  0.3841112300000000
 12.8908570000000005  6.5798087000000001  2.2249485500000001
 15.3593859100000003  8.4125580299999996  6.3145217300000001
 15.4675503600000006 10.9504925199999992  8.8412029200000006
 15.3453087799999999 12.8404841399999992 11.5355806600000008
 15.5330637899999999 15.1185631699999998 13.4449861100000003
 15.3081632600000006 17.6508783200000003 15.3006071099999996
 15.0418906099999994 19.7916000600000004 17.0890119399999989
 15.0158198100000000  0.2923886400000000 19.6779013200000001
 15.2064520699999992  2.5081516800000001 -0.2824074500000000
 15.1157278000000002  4.3333642899999996  2.3123624199999999
 15.3767781100000001  6.4194088999999996  4.2596927400000002
 17.1032235200000002  9.0352158300000003  8.8430837699999998
 17.2608750399999984 11.0521457099999996 10.9176700100000001
 17.7273212600000001 12.8056514099999994 13.3025150100000005
 17.7551072900000015 15.2180407399999993 15.6680844399999994
 17.1829930600000012 17.3083331499999993 17.3950378999999984
 17.4708484499999983 19.4661636099999988 20.0706907200000018
 17.6148237399999985  0.2046654000000000  0.0010162800000000
 17.4640559499999988  2.1335557999999999  2.2755733299999998
 17.8607470500000005  4.3910757900000004  4.1316065000000002
 17.6980918500000008  6.4826483799999997  6.3272854299999999
 19.1057349999999992  8.8760433299999999 10.3733995100000005
 19.5186547300000015 10.6162397100000003 13.0902639199999999
 20.2733640699999995 12.8555276299999992 15.3250207599999992
 19.7423380299999991 15.2726400200000008 17.3408681099999988
 19.4027854600000005 17.3492074500000015 19.5779003799999991
 19.5072697800000014 19.6380825100000003 -0.1852394800000000
 19.2795257999999983  0.3788958200000000  2.4086043400000001
 19.4109573100000006  1.4531773500000000  4.0524946000000002
 19.4982232000000018  3.6663409300000001  6.3671454100000000
 19.2878154100000003  6.7050988100000000  8.2780920400000007
 -0.0445806000000000  8.8657797899999995 12.4641606599999992
  0.5025961799999999 10.4668878099999993 14.9497894999999996
  0.1074491600000000 13.1573719600000008 17.1010794299999986
  0.2034463700000000 15.0552603400000002 19.5633630200000006
 -0.2792385600000000 16.9610924300000008  0.4219576500000000
 -0.2005395700000000 19.3659418499999987  2.0376363500000001
 -0.4671455600000000 -0.6918407800000000  3.9271439400000001
 -0.4613585600000000  1.9203000800000001  6.1303644000000004
 -0.1288531700000000  4.6880050899999999  8.5287497600000002
 -0.1958344000000000  6.2900567299999999 10.2291453200000007
  2.5575611600000001  8.5352025600000001 15.2446094999999993
  1.9185594300000000 11.0000697200000008 17.3373143399999989
  2.2673025500000001 12.9341776399999997 19.7123461400000011
  1.8924913200000000 14.9509178200000008  0.2877747800000000
  1.8154511900000001 17.1862787099999998  2.5121255100000002
  1.9965484300000000 18.9678601700000016  4.4781167999999996
  1.4701619600000000 -0.4956544900000000  5.9158236799999999
  1.6200925100000001  1.9539328800000000  8.1149422599999994
  2.1305290900000000  4.0526823199999997 10.7444268500000000
  1.6629529000000001  6.2576438200000002 12.7108807000000006
  4.0217732499999999  8.1736424599999999 17.0654430700000006
  3.9875818600000001 10.5305934499999996 19.0625545800000005
  4.4866580400000000 13.0810390699999992 -0.3048447900000000
  4.0654941300000003 15.1900328499999997  1.9794424600000000
  4.3706053699999998 17.0594291100000000  4.1113379999999999
  4.5166512499999998 19.4555416299999990  6.8098739100000003
  4.1557189599999997  0.3226064700000000  7.9263246299999999