Li                                      
   1.00000000000000     
   -11.0705700000000018   19.1747897087477881    0.0000000000000013
   -18.9781199999999970  -10.9570226907130195    0.0000000000000076
     0.0000000000000001    0.0000000000000001   23.2203000000000017
   Li
   504
Direct
  0.9945352537331758  0.0135044212007855  0.9741541427113347
  0.9089701723390817  0.0522678178453972  0.6751100554256411
  0.8244981348496552  0.0952492561580129  0.3267656537598569
  0.7991555107030308  0.1154056022343823  0.0147197857047487
  0.7181432492080120  0.1637563209430297  0.6815615280594969
  0.6319324571253162  0.2497560215723240  0.3498244032161537
  0.5928364207016656  0.2245507039724046  0.0147208369400929
  0.4871344310136649  0.2618255565911198  0.6461940608002479
  0.4329509024852669  0.3408098371953443  0.3460158542309983
  0.3569945928133009  0.3757849007509080  0.0025082845613511
  0.2699912087602385  0.4180699639392742  0.6686379818520862
  0.1837050309395920  0.4504779570173980  0.3345478852555743
  0.0709689625172274  0.0476308534578607  0.6434434998686527
  0.0284077096549638  0.0544748026530044  0.3313488882572599
  0.9248686672291555  0.1488359373127039  0.9984120127646960
  0.8429128240830011  0.1800254786612925  0.6665665973307853
  0.7704728685001569  0.2205243183291188  0.3175156983329259
  0.7187067962823690  0.2291359187464508  0.0228114589389463
  0.6206480808411783  0.2841353551185293  0.6711798081850802
  0.5505078490383966  0.3470511210631528  0.3538489024689611
  0.4837504067714278  0.3841214087226987  0.0329943441729839
  0.4173313840580875  0.4080943386166851  0.6819903067574486
  0.3481156565683818  0.4720670153768509  0.3334884226301966
  0.3072611606551234  0.5075772222267645  0.9888188791703811
  0.1580480592147424  0.1076117000577028  0.3270277937838841
  0.0791322674654396  0.1254024963360507  0.9957060111195801
  0.9727208690262970  0.1588236895426718  0.6627698143434841
  0.9173194696003861  0.2093571127923113  0.3251396661541861
  0.8430432858432937  0.2375919211724735  0.0265815601004320
  0.7711888274826819  0.2986629867518502  0.6868026929023330
  0.7088549201201033  0.3677611885142440  0.3549537193748549
  0.6129117710779255  0.3603787627255954  0.9930128788172397
  0.5593350192496374  0.3918448653473376  0.6769403130019853
  0.4942542077184910  0.4553542450810681  0.3445810657054409
  0.4532311133364786  0.5158758329924424  0.9730200178292279
  0.3631592907735310  0.5398394735801659  0.6558126105175219
  0.2178236450951161  0.1247481899850627  0.0142319431704152
  0.1298756617871533  0.1561991200861286  0.6470650508391387
  0.0632475873445699  0.1956766137515658  0.3281401631331207
  0.0107376542363440  0.2484692054397826  0.0083549506250975
  0.9210535093961241  0.3015869243362630  0.6505590681429609
  0.8358341476161470  0.3443608239607059  0.3337436083943786
  0.7450763278568786  0.3802325212991349  0.9979622597468563
  0.7043581116414899  0.4306580367288788  0.6941446066588313
  0.6317386842063826  0.4833762619682744  0.3473412893028964
  0.5803303071424324  0.5026841110530569  0.9994396704607595
  0.5074908180513233  0.5133548167260784  0.6714298467289410
  0.4214631184783713  0.6111887449582412  0.3298516414516612
  0.2785461249475887  0.1581952414432521  0.6787081144515810
  0.1938499201881712  0.2126071644115655  0.3150983833111525
  0.1178995518975938  0.2607149711219563  0.9885434895328657
  0.0636469199045848  0.2895048038431582  0.6657662868266101
  0.9700060364675522  0.3229696994677766  0.3269472625245982
  0.9327126309482878  0.3685999930026185  0.0015056381700518
  0.8535104663895225  0.4359770607469144  0.6722857310198407
  0.8065173172620703  0.4802275411388521  0.3380404030094368
  0.6916803750877207  0.5319012757831203  0.0157020189231005
  0.6428638044149722  0.5232578249456594  0.6831264505626535
  0.5748083264126791  0.6098085493118148  0.3465021644853863
  0.5266987514784063  0.6190786038261820  0.9744964703298393
  0.3597939317434324  0.2172790188416514  0.3258194183537668
  0.2897113842355239  0.2395391488210521  0.9853911387880459
  0.2093295388011143  0.3099417106454467  0.6658784796062065
  0.1054832006021158  0.3328317201024262  0.3418907365537933
  0.0659258077087870  0.3643904828799336  0.9739825286495005
  0.0062815952321174  0.4242625307602239  0.6722591796832944
  0.9338918889893719  0.4470673886829104  0.3296756260685711
  0.8483497570806549  0.5032860346417678  0.0015203726911395
  0.7964069100253113  0.5673997953475407  0.6942499989233539
  0.7136295536480119  0.5884808111799771  0.3312434878102337
  0.6312398645842734  0.6372084549117218  0.0126744262563392
  0.5682524156680415  0.6641940668874398  0.6676699853145749
  0.4609308661660734  0.2416177235125474  0.0222319069951737
  0.3425348416410756  0.2738597410161603  0.6648529183516132
  0.2782887772682514  0.3381067482467941  0.3205430119335233
  0.1990059803689093  0.3596013548184658  0.9868929186961424
  0.1251540645819844  0.4245252484050397  0.6748092109059769
  0.0638274709906028  0.4616567818348472  0.3291488438995174
  0.9975765252265987  0.4976898974778408  0.0075961288183208
  0.9558350826504238  0.5515686922130669  0.6845020271055944
  0.8500744293182549  0.5864511692950742  0.3364526091394140
  0.7661477262791578  0.6283973905679687  0.0008425326115500
  0.7172865851215278  0.6778638157705359  0.6757203722604785
  0.6600964877061912  0.7466800608329223  0.3259546022230566
  0.1482263066253253  0.4842289487400677  0.0027197215367565
  0.0757939894546027  0.5331544812744156  0.6736476936129137
  0.9993678936281825  0.5963553253871652  0.3152024116828827
  0.9156052310742879  0.5943347089714877  0.0282908911598909
  0.8476326202529663  0.6733055841783084  0.6851801428060753
  0.8079463559853579  0.6805242758407672  0.3623509984797764
  0.7228306311423296  0.7711278150730791  0.0108371554200417
  0.2129877171410897  0.5231499257170569  0.6520903106333691
  0.1478052000628267  0.5779115922093681  0.3131676347850814
  0.0624715423990239  0.6368725688774006  0.0114204502095134
  0.0068595227163115  0.6554837794050457  0.6696445829726585
  0.9316154232291751  0.7174902737500730  0.3206400330745112
  0.8424059844401555  0.7514635675628796  0.9884418069533965
  0.8048932673979792  0.7822749666848949  0.6837223993660686
  0.2817431599222715  0.5506032070647322  0.3373355805049911
  0.2089878407374854  0.6316159693355701  0.9992001313505838
  0.1291708656932187  0.6843686033907801  0.6629355770597272
  0.0951209559329911  0.7150732774835902  0.2899859919983783
  0.9950165469713497  0.7236756177954078  0.0196388427367395
  0.9422347141813248  0.8112077835015086  0.6778613725920835
  0.8712868579945265  0.8193745702151531  0.3280055464399680
  0.3606667974805760  0.6458187845695704  0.9881049835704090
  0.2528453531974861  0.6772429459953102  0.6708454503171808
  0.2340817566087168  0.7370044249767744  0.3345063931129246
  0.1246718140417968  0.7490570475696927  0.9946342924079374
  0.1018944776298412  0.8117709511155695  0.6435668634772185
  0.0025909836357769  0.8490027681504415  0.3424287485519102
  0.9455210855417775  0.8810868529671936  0.9937436432776465
  0.4322061951061471  0.6516894957268562  0.6774886190100915
  0.3658672034522752  0.6988549383962877  0.3225862284294365
  0.2825222616369132  0.7438399312466260  0.9909325620254705
  0.2048538426931472  0.8022127910823897  0.6595657269716568
  0.1296320730873433  0.8670338310982046  0.3240039654957059
  0.0403469549049831  0.8780353091579940  0.9852444473154947
  0.9941993531843849  0.9271898674166650  0.6613501948725897
  0.9325883248553808  0.9541740798617440  0.3332744111833179
  0.8767475405887666  0.0070976624441315  0.0021532633084007
  0.7851963836842586  0.0233282338122294  0.6696355809356476
  0.7045593935986290  0.1051331335247596  0.3390891848942488
  0.6492717769465770  0.1309145939791989  0.0153384663419516
  0.5622269212129325  0.1465446552570953  0.7074683100562851
  0.4836870899779058  0.2058807733486390  0.3183392122410140
  0.0853472159948581  0.9612198711476054  0.3286887184920104
  0.1364254041227397  0.9745846592750453  0.9984743306503390
  0.2065468541861790  0.0377403548113335  0.6631029400998258
  0.3013503805805513  0.0897102245773738  0.3232794425567249
  0.3683255135996220  0.1025068989399074  0.9835417414934327
  0.4147228003449186  0.1589358070338633  0.6693938166173581
  0.8701054312810612  0.9225214407761584  0.6665972351778393
  0.7943005390684306  0.9656251657806578  0.3376488176294004
  0.7148048881460625  0.9867139595195340  0.9790170841892660
  0.6505871875069786  0.0287902942757725  0.6857735012036912
  0.5899078884301190  0.0941828019625888  0.3500533869071489
  0.5137503055792365  0.0949038850825943  0.9788247787496260
  0.1335679992952166  0.9274016021630374  0.6448691774008068
  0.2382170183534456  0.9842872298798255  0.3132115889975609
  0.2845324330339878  0.9874134657609375  0.9924091846358607
  0.3670372717067565  0.0183143072633811  0.6647719486828336
  0.4283042736491538  0.0915411446058840  0.3426893059090546
  0.7900451721313857  0.8993067637235654  0.9988380046769407
  0.7286561516711103  0.8981631366539133  0.6934581990758062
  0.6525536554578366  0.9391271668899890  0.3447465915599679
  0.5713873917592664  0.0063097094133440  0.0023479976572247
  0.5133629697593634  0.0322409389270959  0.6758079951594098
  0.2176428027654111  0.8511933266830098  0.0127955745619133
  0.3007360283541800  0.9046118349226902  0.6724708896956528
  0.3871979156962411  0.9642356429630894  0.3297942313406779
  0.4319205146469898  0.9810435374085813  0.9915513843490373
  0.7393068149029034  0.8041561147331961  0.3439017178933952
  0.6511978297765921  0.8704488622482174  0.9829248877060124
  0.5792914604154973  0.8873080925332957  0.6648711967545609
  0.5465253227459712  0.9739682243429826  0.3308257442840983
  0.2804316291893798  0.8540249291734341  0.3177824041894368
  0.3479220214412990  0.8879087294786103  0.9960949897288174
  0.4566614949909891  0.9063371816279755  0.6509142663962137
  0.6407812243828346  0.7600844820658850  0.6648217542409043
  0.6004959372181204  0.8493339604929915  0.3522891818796481
  0.5011752495681066  0.8630811000978440  0.0017871715697027
  0.3591353646132447  0.7872405868744394  0.6482938308290613
  0.4229721151457824  0.8419533737393650  0.3447468202391875
  0.5956728228419550  0.7464146305129589  0.9942855983772816
  0.4832502426309020  0.7914815177392498  0.6690767866909582
  0.4308092570001065  0.7691203208606723  0.0111861500497383
  0.5164369280453158  0.7368494180397960  0.3090299487948016
  0.9970678405467410  0.0130128551446873  0.7759694258902741
  0.9018869405051078  0.0574759387680359  0.4402888153899838
  0.8895622841415047  0.0855736286866957  0.0929333643406878
  0.7791720487647424  0.1109567102593161  0.7783170501673098
  0.6636058626608090  0.1632691212303001  0.4384588963105571
  0.6522309442788483  0.2193605549545978  0.1416892693031500
  0.5887631786087226  0.2594981920121526  0.7796732867361769
  0.4975191636213268  0.2743800504364344  0.4433801768280361
  0.4265278041814398  0.3584031256448483  0.1070194833830769
  0.3437202166321782  0.3814279718622444  0.7791124511741856
  0.3009650311715646  0.4527821920644968  0.4637405429731771
  0.2287383729387429  0.4476072540744553  0.0949339831957374
  0.0625292897171406  0.0344390124594085  0.4416108939160992
  0.9872617329315645  0.0658352590909885  0.0947945474433993
  0.8972731880514999  0.1172831414572499  0.7691941762165015
  0.8113349854251979  0.1449097719058230  0.4473658660740796
  0.7868697488980345  0.1910302408216324  0.1323389439412921
  0.7170137363466225  0.2505192806670564  0.7940741359930783
  0.6167014072613384  0.3035126704760458  0.4522811811216911
  0.5771080103933173  0.3135052135501368  0.1077186827904910
  0.4902799420876889  0.3729380866767755  0.8043136850083741
  0.4191256966767583  0.4180588417683708  0.4408922279212604
  0.3738356636026765  0.4740043706958375  0.1043849157848982
  0.2803390024832098  0.4943115208081466  0.7699905117504926
  0.1434222983697779  0.0892220650062541  0.1182763560332987
  0.0567166845764078  0.1241325949687848  0.7510975586017423
  0.9900476929621647  0.1784531182079121  0.4377586861496212
  0.9309843778671478  0.2170995365144321  0.1049852129386792
  0.8460506708055675  0.2656121647086209  0.7771676485661274
  0.7697160976049346  0.2862606107105279  0.4605993721011359
  0.6872448827768665  0.3287609451345475  0.1144760511276743
  0.6715528232464933  0.3703471598636767  0.8171357299431961
  0.5646827793967475  0.4308426805655046  0.4528756691343361
  0.4996363020789829  0.4660816626353608  0.0990011739727734
  0.4021228987773711  0.5022246924606932  0.7802773753999759
  0.3551995371433634  0.5536508621553011  0.4383279397768334
  0.1866378858438793  0.1203174466234458  0.8006812216035115
  0.1271640947082062  0.1523168721689032  0.4560389508318181
  0.0609305677117931  0.2075516102230779  0.1075972519734876
  0.9749925126013892  0.2468316397920560  0.7690873197159362
  0.9112329070290599  0.2944291619207391  0.4461254566047828
  0.8275922459581295  0.3253919081375400  0.0924254346412425
  0.7923217216681522  0.3855954782534923  0.8016624488055726
  0.7252086843156746  0.4331820167474660  0.4595341421084100
  0.6365114965720693  0.4299358609490369  0.1197778327584018
  0.5921512341590827  0.4703982392173458  0.7808671412514059
  0.4925087651003182  0.5553689037872758  0.4525736596857044
  0.4846149634571901  0.5811888050028031  0.0898022131497029
  0.2666823678696630  0.1684002666614575  0.4451481897305385
  0.2145934682218353  0.2278911166389150  0.1063147379663505
  0.1377696827898660  0.2338280131434018  0.7674485174610126
  0.0550029879073008  0.2963367721440804  0.4361286727561691
  0.0077312224427217  0.3350267455766058  0.1228769735963766
  0.9303443606369441  0.3670391077442545  0.7898439395701189
  0.8513557901212039  0.4203321525292196  0.4634234811781042
  0.7707944438956673  0.4611199303851947  0.1250212482181539
  0.7205517158434063  0.5053978787748932  0.7800368255362784
  0.6361870589553291  0.5431808182655047  0.4593445933084439
  0.5744671010583531  0.5888489062687157  0.1123552322752062
  0.4944060520814801  0.5967383598590530  0.7672815066988790
  0.3720058849318022  0.2035806976903132  0.0845654401536606
  0.2918717681097647  0.2391667973496396  0.7967056898489702
  0.1744283866057614  0.3160204665211239  0.4665442836655842
  0.1344334939584826  0.3324241666080781  0.1207940129972513
  0.0539697819106308  0.3822789581620114  0.7831022824855864
  0.9984296900382503  0.4052207566583661  0.4607919359353687
  0.9301151545555939  0.4800713507677017  0.1164276899953904
  0.8790699093326069  0.5186180709069035  0.7783685848158726
  0.7915311737463497  0.5489991555464329  0.4590975030469053
  0.7110359518545266  0.5904582462582084  0.1179653079417591
  0.6317609148513910  0.6321356972594572  0.7743651119925232
  0.5646979668967091  0.6770863804535097  0.4514307704896154
  0.4318841790188372  0.2342136120057958  0.7830028707639443
  0.3398923003487582  0.3105861664131098  0.4286660908773783
  0.2873390671188005  0.3406060681314429  0.0812266047380987
  0.1861038310473262  0.3733736471854101  0.7768359129727003
  0.1391012184623577  0.4163668900780024  0.4587311068332482
  0.0737229152053160  0.4373412359398827  0.1186750662136120
  0.0052849204592746  0.5045298922185708  0.7901476350434748
  0.9428332965840198  0.5402177872115814  0.4390237089960110
  0.8354493841665374  0.5709905254644525  0.1262895690408854
  0.7668301625932656  0.6163408765936680  0.8101785420515668
  0.7102861956758133  0.6733355459201036  0.4512292519907177
  0.6464760352805996  0.7135995661374039  0.1242767238149369
  0.1405125151957236  0.4844804724940985  0.7822356950599243
  0.0708707334150418  0.5594116168923691  0.4415870432337243
  0.9941470023458052  0.5913862116079258  0.1006181957166774
  0.9341824134047840  0.6265672674444787  0.7890655689203001
  0.8678431798854476  0.6575340991655452  0.4483714861565105
  0.7745302103536744  0.7002258800747896  0.1121317864110267
  0.7227311228607860  0.7584666301610028  0.7673067303178698
  0.2103881014166831  0.5354822324919155  0.4441475769046903
  0.1375558861036055  0.5819598397511498  0.0979224191763208
  0.0818515781711255  0.6143795699598371  0.7974723823550960
  0.9679217039236931  0.6778807543736391  0.4367833102931513
  0.9312605129687199  0.7042304244542592  0.1141200893183978
  0.8631360716780705  0.7603847577611944  0.7824518597950956
  0.7642867517091290  0.7937097454927837  0.4279754430390668
  0.3056043878166861  0.5567800152158497  0.0935789722785643
  0.1819247353317479  0.6171958198587859  0.7695095468189450
  0.1329814211777673  0.6944597424904089  0.4177172215690561
  0.0818049149204398  0.7075167378554497  0.1138721364495723
  0.0250336159344471  0.7689875879404582  0.7475409477913715
  0.9161222187521076  0.7838790522322299  0.4622790015632887
  0.8886593132298444  0.8210706601463755  0.0952412328867425
  0.3366763489493110  0.6382618653276637  0.7656832913442102
  0.2616523977616367  0.6622451936710263  0.4591479390877780
  0.2517985524082036  0.7066993242568955  0.0919169140794907
  0.1496748080397126  0.7534110544332009  0.7800964798043069
  0.0694084360495708  0.7759719967058203  0.4234483749133275
  0.0028479672258257  0.8117686704198732  0.1169246508443038
  0.9282630634006139  0.8690259766620230  0.7817021214196203
  0.4156139223175472  0.6825274932400589  0.4518665202430654
  0.3938127931276512  0.6891973555222961  0.0794926676227234
  0.2647000967068180  0.7594385961517958  0.7871233132216204
  0.1944116628910422  0.8155260735598802  0.4364055068194617
  0.1417970114233356  0.8141304839071068  0.0912499584415372
  0.0660377597743818  0.8828794974304373  0.7664052419650034
  0.0048113551765638  0.9282624267168202  0.4344457789089731
  0.9250551460869687  0.9700971819855653  0.1078011033449187
  0.8644929039637361  0.0007327244303497  0.7714490712867601
  0.7605190409393146  0.0201442851530302  0.4713860234363878
  0.7329220195136372  0.0747700119101822  0.1133650448099317
  0.6365263616049290  0.0878778528646293  0.8006362549148776
  0.5622455887642914  0.1701409508630860  0.4365205436622261
  0.4954090588206697  0.2149047089854861  0.1123212869773411
  0.0541275588379690  0.9293624295217455  0.0970218128103397
  0.1332993733010639  0.0122383511598869  0.7513225849795191
  0.2080222169234318  0.0255680144289343  0.4208310047673791
  0.2873211022045297  0.0922107092571665  0.1050083922257699
  0.3599138173927940  0.1293482747809520  0.7665669336744116
  0.4050752521244689  0.1741803891053664  0.4333354672420242
  0.8674441990966173  0.9168866237966142  0.4438237486165093
  0.7832004552805998  0.9667524937024439  0.1278529683079057
  0.7279374916974533  0.9685018991627672  0.7737614186724571
  0.6364705106692128  0.0420695321085915  0.4412598273924075
  0.5862878043976920  0.1159173448829023  0.1063336520199982
  0.5148470618535015  0.1191465035765660  0.7812816238377636
  0.1403027309526053  0.9208335417732627  0.4503185337829407
  0.2352565282860866  0.9361442142663208  0.1058112716028674
  0.2874916578986131  0.0148501456844699  0.7577740477082529
  0.3601360993987299  0.0588990285697122  0.4281127857951859
  0.4474289332728674  0.1035433590986585  0.0871892628432889
  0.8012937623570551  0.8593450259173636  0.7853595724430775
  0.6963637363865729  0.9124810998597823  0.4400951891233120
  0.6779093419625823  0.9716550357016018  0.0984916895991859
  0.5750213780056725  0.9681638262004739  0.7943162530199857
  0.5015950737260155  0.0626403592484905  0.4469163598230850
  0.1896979781822452  0.8966712242137262  0.7570829890225355
  0.2956062394265757  0.9158425715503640  0.4344091032415633
  0.3607211742183480  0.9785878027082546  0.0994956258101709
  0.4261139585059013  0.0044534777092409  0.7738169657584066
  0.7216134131038672  0.8467185109639246  0.1231994237800507
  0.6379065637385821  0.8346902887468630  0.7720135118839977
  0.5892037286415714  0.8964001617553521  0.4758010137681268
  0.5255882805879324  0.9664229638431863  0.1058755683604460
  0.3120820554956367  0.8368324749180474  0.1068845807332366
  0.3569071491843943  0.8780291035915937  0.7497628312295674
  0.4506185792141864  0.9543006517773520  0.4322468387574645
  0.6365062763961902  0.7781167018501662  0.4593446350822319
  0.5829714110159543  0.8530153880547218  0.1219571108039048
  0.5036882800650488  0.8648030725572511  0.7654003746721614
  0.3583196793508776  0.7688173674404268  0.4333948635461198
  0.4306690070315042  0.8335614292051758  0.1098326236095133
  0.5631976380795720  0.7429434239959178  0.7861451518714233
  0.4896093301389044  0.7740185380872333  0.4428168942692352
  0.4432514110851073  0.7185728795045847  0.7688369736825109
  0.5213888562711020  0.7163629242217269  0.1086285681063544
  0.9974397508148414  0.0053332699878510  0.2249057854549648
  0.9240060063602371  0.0524368834304241  0.8838122143124778
  0.8395697193537188  0.0901019448720035  0.5492396678768117
  0.7963550376401898  0.1497672019647709  0.2111978996826025
  0.7199038790687027  0.1539488444323425  0.9124513955461353
  0.6002253310715346  0.2283217924957484  0.5506130312700535
  0.5812688387631297  0.2532417642871962  0.2513184364543122
  0.5247734766289796  0.2742135070721190  0.8939034762686120
  0.4190670130707090  0.3191332306419099  0.5483496845432683
  0.3503817278246260  0.3804303063420704  0.2055378569613637
  0.3107372609410248  0.4215236678419174  0.8913497034922031
  0.2031865496856184  0.4535411436247045  0.5717083849045892
  0.0555400955732921  0.0437680067440382  0.8653472926706343
  0.0119990864830655  0.0941774128919590  0.5361830351029084
  0.9236410059810822  0.1194054099360784  0.2085341688091873
  0.8440997333949198  0.1805584607152966  0.8953956482043708
  0.7634693822871981  0.2363738168234164  0.5553264023289941
  0.7306815117664200  0.2782086163584196  0.2373696860075043
  0.6513914193557682  0.2912537250593132  0.9123989250784845
  0.5521741152937736  0.3201538221094680  0.5593528399719219
  0.4960795607342590  0.4125892136482534  0.2533504304423317
  0.4326831506854631  0.4259281163000352  0.8939552594066384
  0.3634807207356943  0.4644877515499459  0.5375711200975033
  0.2808255462991696  0.4891317665768184  0.2297761846315538
  0.1510011405284146  0.0607713732287678  0.5422731385899411
  0.0488481527474178  0.1124120284643055  0.2116087686205574
  0.9777494044097210  0.1712023786351793  0.8664222973002040
  0.9078815327138372  0.1871098644325286  0.5561649995908766
  0.8835157097162210  0.2511239664143190  0.2331911629048733
  0.7841249037822138  0.3148431369353659  0.9019072070558920
  0.6821518084192917  0.3498086409121512  0.5726842336231641
  0.6294492249193269  0.3656515874114419  0.2208016718130281
  0.5590521977358236  0.4166183895618616  0.9101923144834458
  0.4946854568676926  0.4315989572077896  0.5576685628523350
  0.4159220742224861  0.5067382650533787  0.2230767182163902
  0.3676104175656505  0.5364852640625273  0.8589508244940873
  0.2162375631561630  0.1071843286084331  0.2187745003294523
  0.1325307582568982  0.1514387791606282  0.8995473521013935
  0.0653239185797645  0.2286114323593935  0.5525954109120050
  0.0050357528549227  0.2294521525586788  0.2148797543528715
  0.9317964526714277  0.2873871260667187  0.8945704271693273
  0.8194592815197268  0.3251307237906715  0.5766980646244875
  0.7902202304843087  0.3764690070990824  0.2331380821953175
  0.7043611070282410  0.4208591509257147  0.9103008906000341
  0.6477521786692009  0.4559379076215180  0.5549841289733521
  0.5878511238905162  0.5024532800610046  0.2307329358363148
  0.5356345919886536  0.5293634535437732  0.8519500807483098
  0.4314556371401110  0.5829786905734480  0.5757566409564063
  0.2894258694916587  0.1673606211775294  0.8945163494873043
  0.2194528893866945  0.2042298613530917  0.5501895500919431
  0.1480202010456537  0.2319736519165261  0.2292720468727794
  0.0853351637573638  0.2914181160284883  0.8848565961680066
  0.0084161492253401  0.3292126686347459  0.5572322549665572
  0.9392967010155999  0.3973429259925467  0.1837837633450050
  0.8665080281708910  0.4490865748858255  0.8929039487000594
  0.7810778318794718  0.4488499048762549  0.5877030736036986
  0.7345867085971776  0.5072886519531608  0.2368053879579506
  0.6456676530670507  0.5474632798183094  0.8871017433021962
  0.5900824505648572  0.5829249770393616  0.5537753874842295
  0.5056682815154261  0.6205359678779416  0.2259164597356644
  0.3616205928944751  0.1965908489840018  0.5776334943992936
  0.2773171393477654  0.2423103588053408  0.1958115420558713
  0.2177191052112590  0.2796103626397866  0.8749098418194450
  0.1350327225903598  0.3472472437877343  0.5697321640977933
  0.0608194755221874  0.3554803757626317  0.2347372764348421
  0.9930936281521596  0.4333315951731507  0.8768365748935167
  0.9241842871954589  0.4490085854501160  0.5605418780119109
  0.8674098119869029  0.5188922900536070  0.2459738651094057
  0.7873206550272513  0.5368136162104022  0.8919381734947436
  0.7292157465449094  0.5792489320740088  0.5624495471634745
  0.6330321054200496  0.6388586943648775  0.2436051080304722
  0.5686723591224947  0.6720519567411998  0.8829625749882624
  0.4300531471860012  0.2766963276845686  0.2173668273019729
  0.3786734599740527  0.2829072249630116  0.8936671085214201
  0.2786169610796989  0.3445884739468354  0.5622309543804320
  0.2139639151493853  0.3595969990633776  0.2043529971619691
  0.1462540083856467  0.4312437418662185  0.8940404219583726
  0.0817246608256497  0.4762305840411685  0.5377889773172626
  0.0035090175186880  0.5137621232202250  0.2275098146880126
  0.9110893331468333  0.5250752783281314  0.8997545087703429
  0.8623184000703787  0.5854579199484959  0.5511213494227007
  0.7716991345604711  0.6366272682388399  0.2283798077544219
  0.7261253350952188  0.6777870441885128  0.8984192938937028
  0.6355558871269551  0.6849406417837471  0.5453956934234299
  0.1429213741737172  0.4723169040302011  0.2316669164481056
  0.0552902226123066  0.5254925661896337  0.9087842228567240
  0.0041021065820246  0.5852622067905671  0.5518101781630733
  0.9206968478279194  0.6369687559854000  0.1990088650878761
  0.8869493295869333  0.6576435205570803  0.8971490531991435
  0.7936945253571892  0.7166778210073730  0.5379090003143787
  0.7417124753623625  0.7526565393004034  0.2300695589634927
  0.2058670730279317  0.5669132225609914  0.8901622347687166
  0.1507246882797730  0.5992938161246002  0.5508089098762738
  0.0681504562903541  0.6251159700278919  0.2048521138831134
  0.0078155877491568  0.6717942234916734  0.8769121079400364
  0.9466241984210626  0.6820966332642939  0.5738210182469672
  0.8620199383698832  0.7524137565196369  0.2173729262757149
  0.7911526624955556  0.7586151462398050  0.8898848533395380
  0.2702833524921644  0.5695371162370577  0.5748096174468031
  0.2282911757286215  0.6212378954666704  0.2235036631740357
  0.1304567582889860  0.6734630688070666  0.8833482706941780
  0.0723179623856893  0.7206267673063422  0.5458596279979133
  0.0137300906443301  0.7473249805784548  0.2208078280642383
  0.9361072043209759  0.7932384702520778  0.8906791458336016
  0.8846786640460493  0.8404251038654849  0.5572480359857508
  0.3630625782640280  0.6355971093526449  0.1983093069426332
  0.2674867202238147  0.6875142922318886  0.8559771863412635
  0.1915820441853526  0.7140874943937021  0.5481484291761944
  0.1617640315719342  0.7520206830287037  0.1824155359749895
  0.0571434093324825  0.8217635886455597  0.8901736295396674
  0.0220509266067026  0.8381123174179308  0.5402826065985380
  0.9300045189165189  0.8867252247861401  0.2176616370158868
  0.4164349842371848  0.6520917581168888  0.8846618097096055
  0.3455030604539999  0.6847326449632405  0.5826478305620526
  0.3082134815791875  0.7463621337220943  0.2098205772535238
  0.2061276664692500  0.8206600553382302  0.8635045968398316
  0.1254218538265590  0.8432422404159823  0.5284418857637476
  0.0857078692893651  0.8725751419783023  0.1927668712290540
  0.9993964603891570  0.9216359880488483  0.8819233959078900
  0.9187325473709009  0.9629400779978283  0.5375231456957934
  0.8613549709426849  0.0202578089574246  0.2071934363466426
  0.7976659284683834  0.0240460573689987  0.8854461449679789
  0.6900919751258670  0.1039112453146487  0.5637315043302635
  0.6617882157764754  0.1522899829947022  0.2262178735847513
  0.5889289415769525  0.1518576738500172  0.9008659646946882
  0.5088410623258000  0.1804021768567097  0.5519893791208546
  0.0779404250705724  0.9552918886816215  0.5493048806432270
  0.1451779691968156  0.9706881139727628  0.2389321270612328
  0.2216558244194218  0.0323071705657370  0.8921123284367525
  0.2625064287919159  0.0756596388161199  0.5595450411924077
  0.3689244799058216  0.1216929806792777  0.2297300762694690
  0.4354298986393488  0.1599429926157114  0.8825201801871643
  0.8722851171849584  0.8950365947862977  0.8735416247852115
  0.7819810056428480  0.9671145692176282  0.5831194898429359
  0.7279159982459902  0.0321606590799277  0.2171555048815037
  0.6337851966295247  0.0052035062350271  0.8976451036377640
  0.5662752536548155  0.0836751024414752  0.5616732118017396
  0.5297078473140644  0.1125972560380220  0.2442871965478446
  0.1266146755997752  0.9420599801637550  0.8765284350331370
  0.2225844962227939  0.9404464121657412  0.5409260801970674
  0.3166148302881169  0.0150862176157247  0.2159319771923691
  0.3667358946025132  0.9999290744968548  0.8867565582701360
  0.4059010708098256  0.0630917663353827  0.5613620258997543
  0.8002671375498238  0.8842202080635531  0.2206558270134309
  0.7190731554977461  0.8666846177040313  0.8715442044245734
  0.6566831277136558  0.9593381866500508  0.5781100916008839
  0.5891031593443188  0.0046766432743368  0.2139036842762607
  0.5066025980434361  0.0299368407502030  0.8879100584402408
  0.2217123239085055  0.8785004419989022  0.2135307976210470
  0.2677771082698328  0.9177288661100889  0.8792290680998960
  0.3562676007653067  0.9365005288719672  0.5359233231267453