Li                                      
   1.00000000000000     
    22.0829999999999984   -0.0000000000000006    0.0000000000000000
    -0.0000000000000006   22.0829999999999984    0.0000000000000000
     0.0000000000000006    0.0000000000000006   22.0829999999999984
   Li
   500
Direct
  0.9902271258434112  0.0077072988271496  0.0090632160485455
  0.9959538645111650  0.0899952900421113  0.1063733677489438
  0.0070767087805095  0.2023279586106952  0.1960494008966194
  0.9949257963139075  0.2939292718380671  0.3042747842231606
  0.0116682063125495  0.3960448100348657  0.4274298523751270
  0.9965996893538005  0.5122355920844086  0.4938855228003476
  0.0075868532355230  0.6005788887379424  0.6226310238645141
  0.0048650686048077  0.7249711692251992  0.7109310474120392
  0.0035770479554387  0.8323922592039139  0.8392465824389816
  0.9792675184531063  0.9033947099578867  0.9429622841099459
  0.0905766308925422  0.0146082982384641  0.0997661440927402
  0.1065609912602454  0.0983204351763831  0.2020290241362162
  0.1044657795589359  0.1948431082733322  0.3125491925915895
  0.1234562622832058  0.3075396332020119  0.4301308911832606
  0.1126514789657236  0.4278014603994009  0.5256560041661018
  0.1080723158085419  0.5053028130235901  0.6103838531902355
  0.0771283906172187  0.6217598247520755  0.6955416542136490
  0.0882678386088855  0.7272615151926800  0.8087258112575313
  0.0822676697006770  0.8209024878866131  0.9238007403885362
  0.0804140642122917  0.8959688701716289  0.0189197749400023
  0.1856713693791576  0.9979685223927888  0.1960713512656795
  0.2308155920844115  0.0938013118688588  0.2840315355703495
  0.2110971416927043  0.1944806801612131  0.3955831857084604
  0.2230685658651481  0.3122722039577965  0.4902241466286270
  0.1859685183172601  0.3897724059231109  0.6268531336322027
  0.2163642888194559  0.5261381836706960  0.6972227364941332
  0.1867157954082330  0.6360016071186010  0.8167361065072711
  0.1785296304849879  0.7330829013268101  0.8990542276864559
  0.2019221980709176  0.8140595358420484  0.0010392265543615
  0.1830240569669002  0.8927563714169295  0.0907640777974024
  0.3147459552597027  0.9821448136575626  0.3051285278268381
  0.2949255449893613  0.1009061241679134  0.3739329307612209
  0.2852538310012207  0.2121136494135740  0.4817284820902969
  0.2943400466422119  0.3072449793959180  0.5932985169587468
  0.2897606846895826  0.3928418973871288  0.7074527464565534
  0.2888660969976939  0.5407529728750617  0.8143235851107207
  0.3038905764615336  0.6260972050898914  0.8938620124077374
  0.2798118697640746  0.6905357034823183  0.0056960200153995
  0.2969076828329520  0.7935612249241473  0.1081243001403820
  0.3124382719739174  0.8914164796449739  0.2295517714984356
  0.4140762468867436  0.0003299719241028  0.4097170896164499
  0.4141494846714693  0.1134260806955609  0.4939696295793112
  0.3946884748449051  0.2235757782004271  0.6064988153783446
  0.3920112194901080  0.3149413281709883  0.6915021265226642
  0.3998799809808418  0.4096922967893875  0.8106332441244390
  0.3999374496218806  0.4824441004392526  0.9057276887198284
  0.3739196327491712  0.6041410546574255  0.0072168790472276
  0.3920289897206004  0.6801308137481357  0.0997620187474553
  0.4090983715980627  0.7622595698048258  0.2148398428655511
  0.4038461377530211  0.8807076556627251  0.3132775759634114
  0.5245672232033698  0.0223212453018178  0.5012765054566870
  0.5156836571118077  0.1134473441108526  0.6139798510166159
  0.5022747833174819  0.1987978019290892  0.7141437381696321
  0.5016771149753225  0.2981599578861562  0.8006276452474737
  0.5288341710818258  0.3884319471992015  0.9020066906670294
  0.4809196064846262  0.5046604138930419  0.9969304301951709
  0.4981444160666584  0.5780434302404558  0.1015541891953120
  0.5132352488339436  0.7065855055925354  0.1913140501743413
  0.5065855938957569  0.8045455839333400  0.3098730136303942
  0.5329775275098498  0.8871554530634427  0.4150424263007721
  0.6076591187791536  0.9964127115880999  0.5879390386269989
  0.6344464914187355  0.1107743571978475  0.7180238427749828
  0.5973977149843748  0.2030542381017071  0.8184025911334487
  0.5855396354661977  0.3119496793913896  0.9114899461123969
  0.6194761943576523  0.4279716034959051  0.0155664479463837
  0.6147434112213048  0.4909632504641550  0.0899772838835275
  0.6087550436987712  0.5973965579857818  0.2052254507992544
  0.5985046039940229  0.7067090318344427  0.3150765480233630
  0.6270608653715541  0.7933169229724228  0.4138255277815546
  0.6302926767196482  0.8794896418059110  0.5039580446497283
  0.7345672861477155  0.9827958049178136  0.7136369193497245
  0.7047536159036341  0.0774143830095539  0.8005704809129170
  0.7026776013222857  0.1928776891726685  0.9023266711950342
  0.7046406140470012  0.3061399583389957  0.0015220862201701
  0.7070202119277269  0.4159101680025330  0.1085088063216020
  0.7096908970701463  0.4927139573427510  0.2095964035683551
  0.7103931952180389  0.6111606262736018  0.3020156337454125
  0.7227996404474055  0.6811810614499834  0.4019671394285211
  0.7023956129149127  0.7763378331748427  0.4988690259475632
  0.7233479744599904  0.8801504152515491  0.5954363397183329
  0.8192603858171452  0.9895477081918216  0.8127963025857028
  0.7887788398315436  0.0981948091291969  0.8883064411538300
  0.7956155848390196  0.1874036299415849  0.9916322750532061
  0.7985250590952333  0.2908494611239405  0.1074429461576756
  0.8136052769098399  0.3810477081918222  0.2145409749581120
  0.8211798233935639  0.5125350020377653  0.2924464497577333
  0.8101366431191437  0.6150620590499472  0.4031785690350063
  0.8076164379839668  0.7061140008151057  0.4918484689580254
  0.8242337064710412  0.7985301512475687  0.5894254747996186
  0.8229599139609647  0.8771682063125468  0.6952225635103915
  0.8745752049087514  0.9978444984829977  0.9189594638409631
  0.8948586917538393  0.0929603858171433  0.0179326740026298
  0.9148257129918917  0.2028574238101726  0.1069061264320936
  0.8958220327854036  0.3100752397772055  0.2120091930444232
  0.9030529180817837  0.3840507136711508  0.3071743576506805
  0.9230470882579382  0.4930530068378403  0.4053201838518348
  0.9076555495177274  0.6053855332155962  0.5087772331657803
  0.9072409179006513  0.7007712910383574  0.6013733505411381
  0.9046859199384159  0.7906487950006778  0.7139082013313427
  0.9122999868677297  0.8739569913508163  0.8161070497667922
  0.0907107652945740  0.0876405732916723  0.0138069256894440
  0.1154921106733653  0.1943876316623658  0.0983263283974125
  0.0857442589322090  0.2875845818050067  0.2170816533079716
  0.0990571589005143  0.3624174890187035  0.2942292555359316
  0.0788113947380324  0.4976124068287788  0.4089207734456366
  0.0706527663813787  0.5919597328261545  0.4927974654711775
  0.0830260363175270  0.7170167721776934  0.5888835103926127
  0.0924737879817030  0.8331243544808231  0.6906249707920153
  0.0821297400715508  0.9131947457320138  0.8147588244350885
  0.0789105049132814  0.0063138934927309  0.9276879192138736
  0.2040934057872548  0.0985174147534309  0.1136249558483868
  0.1948078395145600  0.2039182425395083  0.1929258986550764
  0.2021067952723783  0.3105773653941952  0.2975711542815773
  0.1930803903455143  0.4212295100303436  0.3776551156998593
  0.1956094199157690  0.5212683213331530  0.4987435737897954
  0.1771971172395084  0.6357629543087455  0.5994968491599906
  0.1713625490196051  0.7311077652492841  0.6935797672417721
  0.2070174641126670  0.8370018815378373  0.8155690313816066
  0.1762570067472709  0.9187032423130930  0.9417406045374292
  0.1971635099397702  0.9905044871620703  0.0171026269075796
  0.3163679749128292  0.1120947606756317  0.2252503038536418
  0.3231038033781672  0.2075239007381242  0.2547018915002468
  0.3088704211384297  0.3004471249377332  0.3634291038355286
  0.2995127844948584  0.4116911429606489  0.5045232735588456
  0.2882413055291408  0.5014265634198267  0.6263488801340387
  0.2708590182493325  0.6229314884752952  0.7093869904451395
  0.2872723171670515  0.7345274776977746  0.7902560675632841
  0.3112207716342894  0.8205493913870399  0.9049829552144217
  0.3159362093012703  0.9154155372911319  0.0375782932572548
  0.3030068251596276  0.0085325992845213  0.1377711633383143
  0.4015835973373214  0.0975141855726136  0.3005100661142066
  0.4033237467735376  0.2048234501652857  0.3858653561563159
  0.3966702495131997  0.2802969247837694  0.4854672539962834
  0.3814911266585170  0.3798535040528890  0.5897301014354923
  0.3799040393062540  0.4955052076257758  0.6983533845039176
  0.3768527301544182  0.6252858379749142  0.8024840202870962
  0.3946135611103543  0.7278051953991778  0.9092544482180855
  0.3958287845854258  0.7849829212516397  0.0125614830412530
  0.4038033020875815  0.9001002160032598  0.0983252121541440
  0.4124729977811015  0.9893902390979505  0.1913284499388652
  0.5009122075804910  0.1277426069827499  0.3919034909206189
  0.4893565040981755  0.1898428555902711  0.5194654132137870
  0.4900157759362429  0.2846524756600104  0.6194368582167300
  0.5146929728750607  0.4180820694651999  0.6807492437621718
  0.4816331621609393  0.4801452791740246  0.7815191844405192
  0.4690973246388594  0.6060230992165927  0.8781804333650314
  0.4912747633926529  0.6926584997509408  0.0023723058461229
  0.5219661046959203  0.7933589856450638  0.0874628768736159
  0.4975025141511580  0.8766808314087768  0.1992820527102310
  0.5196958905040105  0.9974217139881389  0.3076898066385922
  0.6209866807046112  0.1184244110854493  0.5096219286328818
  0.6192270502196280  0.2091000113209276  0.6072125802653616
  0.5793192614228175  0.3038363057555600  0.6932067395734265
  0.6052408785038281  0.4163085278268355  0.7881746343341050
  0.5673954177421550  0.4861929878186828  0.9212352637775680
  0.6032177765702116  0.5921284988452626  0.0198801367567825
  0.6163966281755222  0.6800384703165321  0.0865569791242109
  0.6115348562242460  0.7960527555132941  0.2150584426934756
  0.6048278109858245  0.8853972549019602  0.2977667074219994
  0.6150687048861130  0.9920524887922824  0.4068451990218733
  0.7142243734999809  0.0792004926866809  0.5965098138839835
  0.6972542412715654  0.2214362124711329  0.7171326409455219
  0.6663475003396258  0.3162975637368106  0.8041198233935631
  0.6718765792691244  0.4178014794185572  0.9038437001313255
  0.7084786899424884  0.4763457564642479  0.9865187913779820
  0.7188794615767762  0.5835898917719504  0.1071715396458828
  0.7096676706063505  0.6954613761717141  0.2045367105918601
  0.7027305923108287  0.7841903246841468  0.3095841421002561
  0.7118478829869161  0.9024662926232878  0.3701453013630385
  0.7007632894081439  0.9869148815831181  0.4806370194267089
  0.7933008463523947  0.1275249146402189  0.7090545845220291
  0.8034605497441447  0.2220852171353513  0.7940844178780040
  0.7999578775528704  0.3014174206403126  0.8849296467871213
  0.8236332531811783  0.4001099302630990  0.9919894710863559
  0.8258418018385214  0.4785300543404460  0.0962054286102401
  0.8127861354888353  0.6082880134039783  0.2028491880632188
  0.8375040384005814  0.6963261948104886  0.3044509595616560
  0.7735866829687978  0.7914331300095085  0.3951760988090385
  0.7847554575918139  0.9287302581171062  0.4966844663315655
  0.7828913286238262  0.0255748820359543  0.6166787393017259
  0.8989673554317790  0.1023225318118008  0.8124749653579713
  0.9010008223520387  0.2016380509894518  0.8956267699135054
  0.8874784834488096  0.2703831223112800  0.9991954929131026
  0.9118722841099469  0.3543132038219454  0.0874233645790881
  0.9251239143232368  0.4992466653081564  0.2044180768011614
  0.9223264103609097  0.5876162808495238  0.3083165539102453
  0.8912590508535985  0.7309107557849899  0.3962232432187633
  0.8784043581035164  0.8225437621699925  0.4874924593578740
  0.8742399139609631  0.9113896594665576  0.6040359262781294
  0.8867203491373488  0.0037326056242364  0.7079361821310499
  0.0017509618258416  0.1020038758320894  0.8920714047004452
  0.9904283806548051  0.1588122696191618  0.9888251451342640
  0.0233388144726732  0.2747648100348670  0.0588774056966912
  0.9832301766064404  0.3799648331295558  0.1777253819680311
  0.0183509201648349  0.4986137300185689  0.2961820278041927
  0.9912554761581305  0.6293172961101305  0.3981789571163361
  0.9821752963818327  0.7047337019426720  0.4964327709097489
  0.9631873160349613  0.8173072041842175  0.5769433840510771
  0.9854724398858821  0.9103577969478778  0.6923014925508326
  0.9910436145451271  0.9961233731829893  0.8256245455780444
  0.1987912797174332  0.1883864751166087  0.0109990227777033
  0.1773753747226365  0.3056919499162234  0.0981567875741547
  0.1936312203957797  0.3829698732056315  0.2006856726893957
  0.1886093999909448  0.4825216795725211  0.3023079798940387
  0.1934062867364048  0.5995860589593818  0.4101738785491094
  0.2106888117556522  0.7108684666938387  0.4738236747724471
  0.1884626318887825  0.8282858465788152  0.5568079699316186
  0.1908773776207937  0.9068997079201182  0.6530249268668200
  0.1884255617443316  0.9984317991214979  0.7847571774668296
  0.1971753466467447  0.0824280084227667  0.9114625644160697
  0.3151187402074029  0.1965601969841089  0.1026703921568597
  0.2922393347824084  0.3101313607752587  0.2020676724176980
  0.3157159837884365  0.4165371249377330  0.2848179151383405
  0.3043981922745971  0.5232709649956959  0.4048484589956090
  0.2959824140741745  0.5824307172938461  0.5066176832857821
  0.2944584549200755  0.7093407625775470  0.5890557727663790
  0.3066551691346291  0.8381699098854298  0.6742822515056801
  0.3137834574106790  0.9269407417470461  0.7922451646062569
  0.2911836856405401  0.0116790331929550  0.8919030543857289
  0.2998379617805540  0.1020151745686704  0.9997778680432887
  0.4243730557442404  0.1951617103654399  0.1817631956708752
  0.4080432722003380  0.3224220857673359  0.2700026844178751
  0.4120643938776425  0.3910115491554578  0.4083854041570447
  0.4450966557985794  0.4940595299551660  0.5001936851877034
  0.3912227790608185  0.5731150495856525  0.5951459575238900
  0.3836902069465182  0.6964169071231296  0.6963780401213597
  0.3813508907304239  0.7795709708825811  0.7907762151881528
  0.4025245958429551  0.8744993818774631  0.8972477702304928
  0.3854789602861928  0.0004025232078959  0.9890153801566797
  0.4119952080786149  0.0781955631028382  0.0849459339763641
  0.4814625965674963  0.1898073309785815  0.2745448924512104
  0.5006553249105679  0.2814235343929710  0.4144407462754174
  0.5168610474120356  0.4050973893945553  0.5104898120726347
  0.5091981777838157  0.5243912801702635  0.5947908164651565
  0.5088106991803656  0.5928346175791361  0.7045127632115182
  0.4712327903817410  0.7151504935923541  0.7942828927229115
  0.5007138183217847  0.7648897423357326  0.9004366770819203
  0.4973717837250362  0.8743242806683895  0.9777749096590114
  0.5065973314314149  0.9752101471720351  0.0760281030657097
  0.5297877068333108  0.0867406117828224  0.1991561635647301
  0.5979559231082732  0.2070543273106011  0.4103411497532008
  0.6130031866141366  0.2869643359145044  0.5263845415025159
  0.6262917868948961  0.3847564112665864  0.6036085368835771
  0.6230945342571204  0.5208224530181553  0.6677820893900304
  0.5915141819499183  0.6024459190327391  0.8114449164515705
  0.5651701933614106  0.6928442951591691  0.8986153955531435
  0.6044192351582680  0.7795791183263177  0.9821103971380722
  0.6042898496581088  0.8720604609880880  0.0844870651632448
  0.5770524072816201  0.9821760290721357  0.1886258026536254
  0.6156738205859682  0.0946917257618978  0.3162220336910764
  0.7210916646289007  0.1986621559570736  0.5185670230494068
  0.7202111144319190  0.2850727428338544  0.6036062328487972
  0.7066062020558803  0.3873520925598868  0.6864461259792591
  0.7064953031743855  0.4996666399492824  0.8088283439750015
  0.7048223203369091  0.5687268912738332  0.8982657252184936
  0.6916514210025824  0.6675632803514020  0.0161190386269965
  0.7173928266087017  0.7837686369605592  0.0885119404066472
  0.6841738939455695  0.8738209342027830  0.1957539369650831
  0.6920145098039185  0.0160680478195872  0.2971336847348667
  0.6906195376533972  0.1002431476701560  0.3931400937372658
  0.8013871774668289  0.1743197572793562  0.5871790413440223
  0.8092923307521644  0.2864871973916578  0.6983803079291775
  0.8024159851469435  0.3881683892587091  0.8034067536113767
  0.8136980514422874  0.4848971276547545  0.8843888067744388
  0.8245111859801639  0.5932779731014790  0.0010566843273097
  0.7930254738939482  0.6843100371326329  0.0976883865416838
  0.7966097445999196  0.7960159855997802  0.1957036548476196
  0.7736562133768032  0.8986327079654046  0.2702034347688240
  0.7848465611556392  0.0344020925598869  0.3523488425485652
  0.7921114296064857  0.0800880840465510  0.4867702735135637
  0.9223392668568593  0.1894272644115418  0.7077907752569885
  0.9024421736177146  0.3136882040483613  0.8049924149798500
  0.9249186129601981  0.3845249952452079  0.9213953647602224
  0.9125841380247266  0.5153575564914163  0.0178213462844710
  0.9032080604990256  0.6207574251686836  0.1350589883620898
  0.9133528818548200  0.6768304143458792  0.1840796649006009
  0.9051136951501135  0.7923559674863014  0.2913922601095891
  0.8580915324004863  0.9148832957478632  0.3637625598876966
  0.8952508069555734  0.9952100461893778  0.4956128560431097
  0.8919349716976868  0.1007223610922452  0.5992957695965231
  0.0140178214010760  0.2118692129692548  0.8038232554453657
  0.9973579785355255  0.2809666218358018  0.8858690005886913
  0.0242236353756269  0.3975949662636395  0.0092698641488909
  0.9842105379703838  0.5025097092786339  0.0988584997509392
  0.0009210057510316  0.5907805103473294  0.1991365620613124
  0.0084262808495197  0.7134568613865895  0.2981223081103082
  0.9889758280124994  0.8075081352171338  0.4051635570348253
  0.9974700792464759  0.9155286279038179  0.4961706262736030
  0.9872612181315930  0.0009864995698052  0.5800339985509240
  0.9692732214825881  0.0898271122582983  0.6980032038219477
  0.1076578666847823  0.2121025743784841  0.9133393356880859
  0.1163627220033518  0.3017190667028942  0.0097035588461694
  0.0990639292668547  0.4008734660145805  0.1119846669383691
  0.1041549961508821  0.4828767599510968  0.1850497033917478
  0.0804008617488563  0.6129731386134125  0.3174382543132737
  0.0911339985509230  0.7302115464384400  0.4256766381379364
  0.0769839750033938  0.7953529217044775  0.4976019059910328
  0.0850454114024330  0.9109003052121523  0.5864714685504708
  0.0738296295793148  0.0093254630258599  0.6859458352578898
  0.0994371792781763  0.1062696712403195  0.7897419372367906
  0.2985614178327225  0.3058538092650451  0.0079776262283175
  0.2781467676493250  0.3923259163157198  0.0846397858080863
  0.2705955173663028  0.4887437399809826  0.2009542512339806
  0.2889658334465395  0.6116484648824922  0.2806607444640647
  0.3056912484716747  0.6799082918987480  0.3916281786894871
  0.3098102839288117  0.7949533605035555  0.4854585142417278
  0.2855548005252899  0.9333756314812334  0.5784109011456806
  0.2994107856722366  0.9797021016166312  0.6788300688312248
  0.2725697382602021  0.0730690277589119  0.7765459511841684
  0.3017167898383377  0.2016836756781260  0.8939443064801011
  0.4026361373001848  0.3245040596839175  0.1007553394013527
  0.4001969383688788  0.4189511416021361  0.1793709989584755
  0.4028090291174209  0.5090023094688192  0.2823275143775774
  0.3962978530996679  0.5825961902821177  0.3768597821853916
  0.3996344618031955  0.6950581560476365  0.4906185364307376
  0.3901773884888797  0.8027817687814149  0.5830001240773441
  0.4120964941357599  0.8975973490920595  0.6819379857809196
  0.4030356047638435  0.0098695643707813  0.7995578571752020
  0.3966488199067157  0.0909241294208201  0.8861959946565250
  0.4141707960874896  0.1934111497532029  0.0108260376760398
  0.5119456346510916  0.3215825227550582  0.1925126187565098
  0.4871752918534611  0.4154784091835353  0.2982139247384836
  0.4864887388488910  0.5082240605895905  0.4145558660508115
  0.5016597654304249  0.5887819290857195  0.4733184730335580
  0.4759655468007082  0.6835502178146058  0.5780077081918193
  0.5026502938912287  0.7872206448399197  0.6733139881356678
  0.5060186428474367  0.8639548104877051  0.7911289879092536
  0.4731435348458106  0.9922743313861346  0.8737910102793975
  0.4946929565729263  0.0759736204320092  0.9845370375401927
  0.4990605855182721  0.2049665099850557  0.1103506760856803
  0.6102751202282306  0.3049597133541653  0.3069618249332038
  0.6060560272607916  0.3766234660145784  0.3947452773626807
  0.5902050409817505  0.5255727392111567  0.5059600873975469
  0.6094809391839888  0.6142535905447630  0.5970199501879279
  0.6005977684191492  0.7047065597971311  0.7112954299687573
  0.6305045446723696  0.8129464429651776  0.8113545881447237
  0.6110270239550815  0.8933534773355092  0.8829853869492368
  0.5954265059095221  0.9919289231535586  0.9680964153421172
  0.5895090744011213  0.0937944550106451  0.0938361581306921
  0.5885741846669390  0.2177470194267102  0.1984249943395398
  0.7170178331748431  0.3077400398496550  0.4163655151021146
  0.6800094855771377  0.4124595525970207  0.5074631019336167
  0.7214719521804085  0.5471955132907667  0.5900674989811137
  0.7379500575103037  0.6228150849069394  0.7133698899606031
  0.7161140085133368  0.7089961001675533  0.8040469288593002
  0.7056299302631004  0.7708129438934961  0.9263362274147511
  0.6952514200969091  0.8758236371869756  0.0077702101163766
  0.6500686682063161  0.9917367739890395  0.0834425367930081
  0.6770079586106945  0.1139115640990838  0.1825654729882729
  0.6996093415749698  0.1912917696870906  0.2814791219490118
  0.7988177013992654  0.3222448521487138  0.5206289113797951
  0.7953806629534057  0.4096677050219597  0.6170219974641142
  0.8019627903817437  0.5128422881854817  0.7062060557895222
  0.8352571521079568  0.5985324833582411  0.8060947529774012
  0.8356393968210867  0.6810539532672166  0.9144822211655992
  0.8040490137209630  0.7889881515192698  0.0141857931440441
  0.7958571176923428  0.8920209568446325  0.1115646071638849
  0.7648030004981194  0.9882755631028388  0.1804288108499748
  0.7904465471176891  0.1144785002037736  0.2646904700448331
  0.7737239170402574  0.1810516410813747  0.3996214078703062
  0.8875423864511163  0.2846023149028696  0.6021138717565577
  0.9033898270162553  0.3944863655300423  0.6980720744464080
  0.9198069655391024  0.4791412131503847  0.8129823520355046
  0.9353034334103185  0.5882396889009627  0.8942296168998780
  0.9091033745415018  0.6834855123850900  0.0383399506407613
  0.8933588910021300  0.7825208345786336  0.1225940723633556
  0.8791579798940390  0.8855273509034092  0.2009409437123608
  0.8807396096544835  0.0042360041661027  0.2718960489969646
  0.8763260883937889  0.1140831295566755  0.3594394828601182
  0.8823880161209985  0.2041253203821967  0.4880905135171858
  0.0097923533940119  0.2999678802698895  0.6808555689897204
  0.0134378277407947  0.3930761386586994  0.7969215736086568
  0.0187248584884330  0.5133979337046597  0.9193449055834790
  0.0026681257075580  0.6178999221120307  0.0410814436444298
  0.0055192383281266  0.6973879644975796  0.1133741570438787
  0.0222199981886533  0.7971476130960440  0.2068601603043092
  0.0074129678938561  0.9058296757686932  0.2975809133722791
  0.9928406199338866  0.0041892736494162  0.3921267848571333
  0.9785469578408765  0.0946024426029055  0.4586576642666316
  0.9924727297015821  0.1928458538242097  0.5798416813838685
  0.1183789725127937  0.3008688353031772  0.7806289707014429
  0.0968228904587249  0.3978774233573361  0.8923313689263210
  0.1192728773264520  0.5167335796766750  0.0300434601277004
  0.0948394357650670  0.5894631041977973  0.1181998129783111
  0.1072674582257847  0.7075348779604198  0.2194852239279115
  0.1215108074084128  0.8358768319521772  0.3082534266177603
  0.1033895476158122  0.8868782330299325  0.4037245084454071
  0.0742098233935593  0.9944752574378484  0.4861803785717527
  0.0826263754924597  0.0979987121315062  0.5849055069510456
  0.0860234637503936  0.1835569664447760  0.6997846429380061
  0.2033844432368781  0.2933266594212753  0.8881167450074727
  0.1843462342073110  0.3905841144771998  0.0007859031834414
  0.2148539999094297  0.4963332898609778  0.1013730602726071
  0.1731649612824313  0.6082674677353594  0.2179426395870152
  0.1854763039442133  0.7050326151338169  0.3048025517366284
  0.2029103808359380  0.8176071072770910  0.4023809559389591
  0.1943634999773565  0.9148654535162777  0.5010062776796644
  0.1688045587103204  0.0121271625232069  0.5940489082099347
  0.1503641239867761  0.1037429429878216  0.6793937186976393
  0.2028911058280158  0.1846910972241105  0.7998599049042241
  0.3932072915817599  0.3905440130417048  0.9870068559525436
  0.3902610840918328  0.4908256228773240  0.0918235633745397
  0.3850198482995992  0.5736593338767406  0.1935525947561487
  0.4159992211203161  0.6831419168591211  0.2969075401892880
  0.4032274487162084  0.7864792573472812  0.3869058203142686
  0.4142556975954363  0.8933172811665102  0.4690309704297420
  0.4187285504686855  0.9974522800344161  0.5657642199882247
  0.4088529887243553  0.0981867979894062  0.6862976303038550
  0.3723050645292787  0.2093629959697481  0.8039954539691152
  0.4371254440067034  0.3114761037902483  0.8966137146221058
  0.5473491939500974  0.4255453000045293  0.0987679468369365
  0.4877243793868615  0.4949837562831121  0.1982854680070645
  0.4923632418602537  0.5835161517909739  0.2805951614364020
  0.5287842788570387  0.6783574645655008  0.4030404301951762
  0.4984287506226508  0.7849238070008582  0.4856753036272252
  0.5133234959018225  0.8998366503645343  0.6043708436353725
  0.5134026604175190  0.0088616397228662  0.6790455196304848
  0.5063839537200536  0.1058778662319426  0.7975279350631723
  0.5006687306978250  0.1953807073314309  0.8879925490196072
  0.4985880251777388  0.3183093388579437  0.0109398614318721
  0.6225087134900136  0.4194317601775097  0.2238169804827237
  0.6053896028619334  0.4813315133813347  0.3297485468459911
  0.6040836725082670  0.5998392523660740  0.4124160707331441
  0.6168119743694263  0.6947243490467798  0.5031288398315468
  0.6033495779558962  0.7906192523660707  0.5957124570936898
  0.6242196965991909  0.8969364841733451  0.7015426033600534
  0.5937303862699821  0.9923142168183645  0.7747002196259558
  0.6008705764615314  0.0768752193995397  0.8831789131911449
  0.5830607689172638  0.2019131463116395  0.0090789992301765
  0.5736231571797319  0.3161054009871833  0.0942229289498684
  0.7185933813340597  0.3978375016981417  0.2865881003486876
  0.7179585549970540  0.5055816841008891  0.4172123479599676
  0.7255794774260735  0.6074301711723962  0.5010790431553716
  0.7169752827967244  0.6934874455463458  0.5886145895032371
  0.7188019408594855  0.7871457378979301  0.6867381411040157
  0.7191907657474061  0.8922758203142678  0.7941673952814412
  0.6991509102024196  0.9860533446542590  0.8953881750667918
  0.7152928094008999  0.1034134447312383  0.0114485853371349
  0.6846791649685287  0.2071261780555176  0.1065815844767499
  0.6762466997237695  0.3189883398994695  0.1851760431100828
  0.7911647194674671  0.4050738699452054  0.3847173893945595
  0.8275778589865510  0.5111735180908425  0.4674876656251428
  0.8228694978037439  0.6066248050536629  0.6170374740750830
  0.8241954901960753  0.7047673735452591  0.7112415871937685
  0.7994641371190525  0.8110425381515185  0.7963767581397434
  0.7946330946882227  0.8705398084499407  0.9112002843816498
  0.7727555386496405  0.0037570737671544  0.9915905728388381
  0.8036068677263088  0.0846354290630771  0.1147976402662678
  0.7851928632885006  0.2203591273830554  0.1990090771181485
  0.8044977131730278  0.2742670579178537  0.3070778096273159
  0.8893394416519484  0.4082555151021126  0.5239274183761253
  0.8825852456640888  0.5270997341846666  0.6054419924829091
  0.8952631816329273  0.6134705800842255  0.7237889430783895
  0.9132853217407089  0.7240785885069982  0.8115268536883562
  0.8829556387266209  0.7843803382692585  0.9392267567812311
  0.8749861413757216  0.9006306308019774  0.0351460000905703
  0.8937395906353274  0.9968901467191955  0.1020840836842822
  0.8989928116650816  0.1151949517728568  0.1961487877552841
  0.9109950799257334  0.2097353090612657  0.2995427460037163
  0.8854467889326614  0.3195211678666823  0.4124773146764511
  0.9943735343929703  0.4224100529819310  0.6191127949101087
  0.9854355789521350  0.5105351609835651  0.6993406421228983
  0.9996329565729312  0.6145254607616693  0.8236729529502327
  0.0072985808087651  0.7091947398451310  0.9217461046959201
  0.9572128216274933  0.7911474066023629  0.0079543404428719
  0.9909820264456854  0.8940295480686515  0.0986181107639368
  0.9844968455372936  0.9958341104016668  0.1952829611012987
  0.9823614726260033  0.0782798455825713  0.3164057695965212
  0.0031775904541931  0.2046671394285227  0.4053534442784041
  0.9825125639632262  0.3213905791785550  0.5246108911832650
  0.0966972716569288  0.3950029180817793  0.6948808010686989
  0.0915387085088071  0.5185345220305209  0.7757571561834880
  0.0929544409726972  0.6042934134854860  0.9309594792374227
  0.0807250346420290  0.7211726839650439  0.0059662681700843
  0.1067572277317410  0.7971169985962021  0.1016427749852795
  0.0937322899968294  0.9151835642802126  0.1866143802925322
  0.0992676937010373  0.9874069546710160  0.3150633405787246
  0.1205855182719731  0.1025868238011114  0.3876102961554153
  0.1165055721595820  0.1908328379296265  0.5235177643436160
  0.1151467219127866  0.2966094593125916  0.5881747516188938
  0.1961069795770527  0.4368302640039872  0.7848212597926008
  0.2070523207897494  0.5098847131277466  0.9073700796993194
  0.1841593510845456  0.6180493556129179  0.0145431829914386
  0.1760540189285891  0.6901975347552423  0.0979728510619040
  0.1849877756645384  0.8027457215957980  0.2109839623239580
  0.2072172558076346  0.8968566123262249  0.2859003491373429
  0.2103520694652019  0.9891772132409571  0.3960400996241447