Li 
 1.0000000000000000
    22.0829999999999984   -0.0000000000000006    0.0000000000000000
    -0.0000000000000006   22.0829999999999984    0.0000000000000000
     0.0000000000000006    0.0000000000000006   22.0829999999999984
 Li 
 500
Cartesian
 -0.2158143800000000  0.1702002800000000  0.2001430000000000
 -0.0893508100000000  1.9873659900000000  2.3490430800000000
  0.1562749600000000  4.4680083100000001  4.3293589199999998
 -0.1120536400000000  6.4908401099999997  6.7193000600000001
  0.2576690000000000  8.7458575399999994  9.4389334300000005
 -0.0750890600000000 11.3116985799999998 10.9064739999999993
  0.1675404800000000 13.2625835999999993 13.7495609000000005
  0.1074353100000000 16.0095383300000016 15.6994903200000007
  0.0789919500000000 18.3817182599999995 18.5330822799999986
 -0.4578353900000000 19.9496653799999990 20.8234361200000002
  2.0002037399999999  0.3225950500000000  2.2031357599999999
  2.3531863700000000  2.1712101700000002  4.4614069399999998
  2.3069178099999998  4.3027203600000004  6.9020238200000001
  2.7262846399999998  6.7913977200000000  9.4985804700000003
  2.4876826099999998  9.4471396500000004 11.6080615399999996
  2.3865609499999998 11.1586020200000000 13.4791066300000004
  1.7032262499999999 13.7303222100000006 15.3596463500000002
  1.9492186800000000 16.0601160400000005 17.8590920900000008
  1.8167169500000000 18.1279896399999991 20.4002917500000009
  1.7757837800000000 19.7856805599999994 22.5008053900000000
  4.1001808500000001 -0.0448611200000000  4.3298436499999999
  5.0971007200000003  2.0714143699999998  6.2722683999999997
  4.6616581799999999  4.2947168600000003  8.7356634900000003
  4.9260231399999999  6.8959070799999997 10.8256198300000008
  4.1067427900000002  8.6073440399999992 13.8427977500000008
  4.7779725900000001 11.6187095100000004 15.3967696899999993
  4.1232449100000004 14.0448234900000006 18.0359834399999990
  3.9424698299999998 16.1886697099999992 19.8538145099999994
  4.4590478999999998 17.9768767300000007  0.0229492400000000
  4.0417202500000000 19.7147389500000010  2.0043431300000001
  6.9505349299999999 -0.3942960800000000  6.7381532799999997
  6.5128408100000001  2.2283099399999999  8.2575609100000005
  6.2992603500000000  4.6841057199999998 10.6380100700000000
  6.4999112500000003  6.7848908799999998 13.1018111499999996
  6.3987851999999998  8.6751276199999996 15.6226789999999998
  6.3790300200000001 11.9414479000000000 17.9827077300000013
  6.7108156000000001 13.8261045800000009 19.7391548199999995
  6.1790855200000001 15.2490999400000007  0.1257852100000000
  6.5566123599999999 17.5242125299999998  2.3877089200000001
  6.8995743599999999 19.6851501199999994  5.0691917699999998
  9.1440457599999991  0.0072867700000000  9.0477824899999995
  9.1456630699999995  2.5047881400000001 10.9083313299999993
  8.7159055900000002  4.9372239100000002 13.3933133400000006
  8.6567837599999997  6.9548493499999999 15.2704414600000007
  8.8305496199999993  9.0472349899999998 17.9012139300000008
  8.8318186999999995 10.6538130700000000 20.0011845500000014
  8.2572672499999999 13.3412469100000006  0.1593703400000000
  8.6571761800000004 15.0193287600000005  2.2030446600000002
  9.0341193400000002 16.8329780800000002  4.7443082499999996
  8.9181342600000004 19.4486671599999994  6.9181087100000003
 11.5840179899999995  0.4929200600000000 11.0696890700000008
 11.3878421999999997  2.5052577000000000 13.5585170500000007
 11.0917340400000004  4.3900518599999998 15.7704361700000000
 11.0785357300000005  6.5842663500000000 17.6802602899999997
 11.6782450000000004  8.5777426899999991 19.9190137500000013
 10.6201476699999997 11.1444159200000001 -0.0677853100000000
 11.0005231400000003 12.7649330699999997  2.2426211600000001
 11.3337740000000000 15.6035277200000007  4.2247881700000001
 11.1869296699999996 17.7667801300000008  6.8429257600000000
 11.7697427399999999 19.5910538699999996  9.1653818999999999
 13.4189363200000003 -0.0792180900000000 12.9834577899999992
 14.0104818699999996  2.4462301300000000 15.8561205199999993
 13.1923337400000005  4.4840467400000001 18.0727844200000014
 12.9304717700000005  6.8887847700000000 20.1284324800000007
 13.6798927999999993  9.4508969199999999  0.3437538700000000
 13.5753787500000005 10.8419414599999993  1.9869683600000001
 13.4431376300000007 13.1923081900000003  4.5319936299999997
 13.2167771700000003 15.6062555500000002  6.9578354100000004
 13.8473850899999995 17.5188176099999993  9.1385091299999992
 13.9187531799999995 19.4217697600000001 11.1289055000000001
 16.2214493799999993 -0.3799202400000000 15.7592440899999993
 15.5630740999999997  1.7095418200000001 17.6789979300000013
 15.5172294700000002  4.2593180100000003 19.9260798799999996
 15.5605786800000008  6.7604886999999998  0.0336122300000000
 15.6131273400000001  9.1845442399999992  2.3961999700000001
 15.6721040800000004 10.8806023199999995  4.6285173799999999
 15.6876129300000002 13.4962601099999997  6.6694112399999996
 15.9615844599999992 15.0425213800000002  8.8766403399999998
 15.5110023199999993 17.1438683699999999 11.0165246999999997
 15.9736933200000006 19.4363616199999996 13.1490206900000004
 18.0917271000000000 -0.2308179600000000 17.9489807500000005
 17.4186031200000002  2.1684359700000000 19.6164711400000016
 17.5695789600000012  4.1384343599999998 -0.1847844700000000
 17.6338288799999994  6.4228286499999996  2.3726625800000001
 17.9668453300000017  8.4146765400000003  4.7377083500000001
 18.1341140400000000 11.3183104500000002  6.4580949499999996
 17.8902474900000001 13.5824154499999992  8.9033923399999999
 17.8345938000000004 15.5931154799999998 10.8614897399999997
 18.2015529399999991 17.6339413299999990 13.0162827599999993
 18.1734237800000002 19.3705055000000002 15.3525998700000006
 19.3132442500000003 -0.0475999400000000 20.2933818399999986
 19.7611644899999988  2.0528442000000000 22.4790072400000014
 20.2020962200000014  4.4797004899999999  2.3608079900000001
 19.7824379499999985  6.8473915200000004  4.6817990099999998
 19.9421175899999987  8.4809919100000002  6.7833313400000002
 20.3836488500000002 10.8880895500000001  8.9506856199999998
 20.0437575000000017 13.3687287300000008 11.2353276399999995
 20.0346011900000001 15.4751324199999996 13.2801276999999995
 19.9781791700000007 17.4598973400000013 15.7652348100000008
 20.1463206100000001 19.2995922399999991 18.0220919799999990
  2.0031658299999999  1.9353667800000001  0.3048983400000000
  2.5504122800000002  4.2926620700000004  2.1713403100000002
  1.8934904699999999  6.3507303200000003  4.7938141500000002
  2.1874792400000000  8.0032654099999991  6.4974646500000004
  1.7403920300000000 10.9887747800000000  9.0301974400000002
  1.5602250400000000 13.0722467800000004 10.8824464299999999
  1.8334639600000000 15.8338813799999993 13.0043145599999992
  2.0420986600000002 18.3978851200000015 15.2510712300000009
  1.8136710500000000 20.1660795700000008 17.9923191200000012
  1.7425806800000001 22.2224297100000001 20.4861323199999994
  4.5069946800000000  2.1755600700000000  2.5091798999999999
  4.3019415199999997  4.5031265500000002  4.2603826199999997
  4.4631243600000001  6.8584799600000004  6.5712637999999997
  4.2637942600000001  9.3020112699999995  8.3397579200000003
  4.3196428200000003 11.5111683399999993 11.0137543400000002
  3.9130439400000001 14.0395533199999996 13.2386889199999995
  3.7841991699999999 16.1450527800000003 15.3163219999999995
  4.5715666600000002 18.4835125500000004 18.0102109199999987
  3.8922834800000001 20.2877237000000008 20.7964577700000000
  4.3539617899999996 21.8733105899999991 22.4606773100000012
  6.9863539899999996  2.4753886000000001  4.9742024599999999
  7.1351012899999997  4.5827502999999998  5.6245818700000001
  6.8207855100000003  6.6347738600000001  8.0256048999999994
  6.6141408200000003  9.0913755100000007 11.1413874499999999
  6.3652327499999997 11.0730027999999994 13.8316623199999995
  5.9813796999999997 13.7561960600000006 15.6653929099999996
  6.3438345800000002 16.2205702900000013 17.4512247400000007
  6.8726883000000001 18.1201922099999990 19.9847386000000000
  6.9768193099999998 20.2151213100000007  0.8298414500000000
  6.6912997200000000 22.2714253900000010  3.0424006000000001
  8.8681705799999992  2.1534057600000001  6.6361637900000003
  8.9065983000000006  4.5231162500000002  8.5210646600000004
  8.7596691199999999  6.1897969899999996 10.7205733700000003
  8.4244685500000003  8.3883049300000003 13.0230098299999995
  8.3894208999999993 10.9422414999999997 15.4217377899999999
  8.3220388399999994 13.8081871599999992 17.7212546199999998
  8.7142512700000001 16.0721221300000003 20.0790659799999993
  8.7410870500000009 17.3347778499999983  0.2773952300000000
  8.9171883199999993 19.8769130700000005  2.1713156599999999
  9.1086412100000000 21.8487046499999984  4.2251061600000002
 11.0616442799999994  2.8209399899999998  8.6544047899999992
 10.8064596799999997  4.1922997799999999 11.4713547200000008
 10.8210183799999999  6.2859806200000001 13.6790241399999992
 11.3659649199999997  9.2325063400000005 15.0329855499999994
 10.6359051200000003 10.6030481999999999 17.2582881499999985
 10.3590762200000004 13.3828081000000001 19.3928585099999999
 10.8488205999999998 15.2959776499999993  0.0523876300000000
 11.5265774899999993 17.5197464799999985  1.9314427100000000
 10.9863480199999994 19.3597427999999994  4.4007455699999998
 11.4764443499999995 22.0260637099999990  6.7947139999999999
 13.7132488699999993  2.6151662700000000 11.2539810500000002
 13.6743909499999994  4.6175555499999996 13.4090754099999998
 12.7931072500000003  6.7096171399999998 15.3080844299999992
 13.3655343200000001  9.1933412200000006 17.4052604500000001
 12.5297930100000006 10.7365997499999999 20.3436383300000010
 13.3208581600000002 13.0759736400000008  0.4390130600000000
 13.6118867399999992 15.0172895400000002  1.9114377700000000
 13.5045242299999995 17.5792329999999986  4.7491355899999999
 13.3564125499999999 19.5522275800000003  6.5755822000000004
 13.5825622100000007 21.9074951099999993  8.9843625300000003
 15.7722168400000005  1.7489844800000001 13.1727262199999995
 15.3974654100000006  4.8899758799999997 15.8364401099999998
 14.7149518500000003  6.9847991000000000 17.7573780600000006
 14.8370505000000001  9.2263100700000003 19.9595804299999990
 15.6453349100000008 10.5191433399999994 -0.2977055300000000
 15.8750151499999994 12.8874155800000008  2.3666691100000001
 15.6715911699999992 15.3578735700000006  4.5167841800000001
 15.5183996700000009 17.3172749400000008  6.8365466100000001
 15.7197367999999997 19.9291631400000000  8.1739186900000007
 15.4749557200000005 21.7940413299999989 10.6139072999999993
 17.5184625899999986  2.8161326899999999 15.6580523899999999
 17.7428193199999988  4.9043078500000004 17.5357662000000012
 17.6654698100000012  6.6562009000000000 19.5419013899999996
 18.1882931300000017  8.8356275899999996 -0.1768965100000000
 18.2370645099999997 10.5673791900000005  2.1245044800000001
 17.9487562300000008 13.4328242000000007  4.4795186200000003
 18.4946016799999988 15.3769713600000006  6.7231905400000000
 17.0831147200000011 17.4772178099999991  8.7266737899999995
 17.3297547700000010 20.5091502900000009 10.9682830700000000
 17.2885892100000014 22.6477701200000006 13.6181166000000005
 19.8518961099999984  2.2595884700000002 17.9418846599999995
 19.8968011599999990  4.4527730800000000 19.7781259600000006
 19.5981873499999999  5.9708704900000003 -0.0177659300000000
 20.1368756500000003  7.8242984800000004  1.9305701600000000
 20.4295113999999991 11.0248641099999993  4.5141643900000004
 20.3677341200000015 12.9763303299999997  6.8085544599999999
 19.6816736200000015 16.1407022200000014  8.7497978799999991
 19.3978034400000006 18.1642338999999993 10.7652959799999994
 19.3058400200000015 20.1262178499999997 13.3389253599999993
 19.5814454699999985 22.1654271300000012 15.6333547100000008
 22.1216664899999991  2.2525515899999999 19.6996128299999995
 21.8716299300000010  3.5070513499999998 21.8362256799999983
 22.5983910399999992  6.0676313000000004  1.3001897499999999
 21.7126719900000005  8.3907634099999999  3.9247096099999998
 22.4882433699999993 11.0108870000000003  6.5405877200000004
 21.8898946800000012 13.8972138500000000  8.7929859100000005
 21.6893770699999990 15.5626343400000007 10.9627248799999997
 21.2700655000000012 18.0485949900000016 12.7406407500000007
 21.7621878899999999 20.1034312300000018 15.2880938600000000
 21.8852161400000007 21.9973924499999995 18.2322668400000012
  4.3899078300000003  4.1601385300000002  0.2428914200000000
  3.9169803999999999  6.7505953300000003  2.1675963399999998
  4.2759582399999996  8.4571237099999994  4.4317417099999998
  4.1650613800000000 10.6555262499999994  6.6758671200000004
  4.2709910300000002 13.2406589399999994  9.0578697600000009
  4.6526410299999998 15.6981083500000000 10.4634482099999992
  4.1618202999999996 18.2910363499999988 12.2959904000000009
  4.2151451299999998 20.0270662500000007 14.4207494599999997
  4.1610016800000000 -0.0346305800000000 17.3297927499999993
  4.3542231800000000  1.8202577099999999 20.1278278099999994
  6.9587671400000000  4.3406388299999996  2.2672702700000000
  6.4535212299999998  6.8486308400000002  4.4622604099999998
  6.9719560700000001  9.1983893299999995  6.2896340200000003
  6.7220252800000004 11.5553927200000004  8.9402685200000001
  6.5361796500000002 12.8618175299999997 11.1876382999999997
  6.5025260600000001 15.6643720599999998 13.0081186300000002
  6.7718661000000004 18.5093061200000015 14.8901749599999995
  6.9292800899999998 20.4696323999999983 17.4951499699999999
  6.4302093300000003  0.2579080900000000 19.6958951499999984
  6.6213217100000001  2.2528011000000001 22.0780946600000014
  9.3714301899999999  4.3097560499999998  4.0138766500000003
  9.0108195799999997  7.1200469200000001  5.9624692799999996
  9.0996180100000004  8.6347080399999996  9.0183748799999996
  9.8290694500000004 10.9103165999999998 11.0457771499999993
  8.6393726300000004 12.6560996400000008 13.1426081799999999
  8.4730308399999998 15.3789745599999996 15.3781162600000005
  8.4213717199999998 17.2152657500000004 17.4627111600000013
  8.8889506500000000 19.3115698500000015 19.8139225100000012
  8.5125318799999992  0.0088889200000000 -0.2425733600000000
  9.0980901799999998  1.7267926199999999  1.8758610600000001
 10.6321385199999998  4.1915152899999999  6.0627748600000002
 11.0559715399999998  6.2146759100000004  9.1520949999999992
 11.4138425100000003  8.9457656500000002 11.2731465199999992
 11.2446233600000003 11.5801326400000004 13.1347655999999997
 11.2360666699999996 13.0915668600000004 15.5577553500000008
 10.4062337100000004 15.7926683499999996 17.5401491199999988
 11.0572632500000001 16.8910601800000002 19.8843431399999986
 10.9834610999999995 19.3077030900000004 -0.4907966700000000
 11.1871888700000000 -0.5474343200000000  1.6789286000000001
 11.6993019300000007  1.9154929300000001  4.3979655600000003
 13.2046606499999992  4.5723807100000000  9.0615636100000003
 13.5369493700000003  6.3370334300000000 11.6241498300000003
 13.8304015299999996  8.4965758299999994 13.3294873200000001
 13.7597965999999996 11.5013222299999995 14.7466318800000007
 13.0624076799999997 13.3038132299999994 17.9191380900000006
 12.4806533799999997 15.3000805700000004 19.8441237800000003
 13.3473899700000000 17.2154456700000011 -0.3950561000000000
 13.3445327500000008 19.2577111599999995  1.8657278600000000
 12.7430483100000007 -0.3936067500000000  4.1654235999999996
 13.5959249799999995  2.0910773800000002  6.9831311700000001
 15.9238672300000008  4.3870563899999997 11.4515155699999998
 15.9044220400000000  6.2952613800000004 13.3294364400000003
 15.6039847599999995  8.5538962600000001 15.1587897999999992
 15.6015357800000007 11.0341384100000006 17.8613563199999987
 15.5645913000000000 12.5591959400000004 19.8364020100000005
 15.2737383300000005 14.7417999200000001  0.3559567300000000
 15.8421857900000003 17.3079628099999994  1.9546091800000001
 15.1086121000000002 19.2965876899999991  4.3228341900000000
 15.2817564200000007  0.3548307000000000  6.5616031599999998
 15.2509512500000000  2.2136694299999999  8.6817126899999995
 17.6970330400000009  3.8495032000000000 12.9666747699999991
 17.8716025400000014  6.3264967800000003 15.4223323400000005
 17.7197521999999985  8.5719225399999992 17.7416313400000014
 17.9688940700000011 10.7079832699999997 19.5299580199999987
 18.2076805200000003 13.1013574800000008  0.0233347600000000
 17.5123815399999998 15.1116185499999993  2.1572526399999998
 17.5915329900000010 17.5784210099999996  4.3217238099999999
 17.0846501599999989 19.8445060899999994  5.9669024500000001
 17.3317666099999990  0.7597014100000000  7.7809194899999996
 17.4921967000000009  1.7685851600000000 10.7493479500000007
 20.3680180300000018  4.1831222800000001 15.6301436900000006
 19.9286305199999987  6.9271766100000001 17.7766474999999993
 20.4249777299999984  8.4914654699999996 20.3471738400000000
 20.1525955199999984 11.3806409199999994  0.3935487900000000
 19.9455436000000006 13.7081862200000000  2.9825076400000001
 20.1695716900000015 14.9464460399999997  4.0650312399999997
 19.9876257300000013 17.4975968299999991  6.4348152799999996
 18.9492353099999988 20.2033678200000004  8.0329686099999993
 19.7698235699999998 -0.1057765500000000 10.9446186999999995
 19.6965999799999985  2.2242519000000001 13.2342484799999998
  0.3095555500000000  4.6787078299999996 17.7508289499999989
 -0.0583437600000000  6.2045859099999996 19.5626451400000008
  0.5349305400000000  8.7800896399999999  0.2047064100000000
 -0.3486786900000000 11.0969219100000007  2.1830922500000001
  0.0203385700000000 13.0462060100000006  4.3975327000000002
  0.1860775600000000 15.7552678700000008  6.5834349300000001
 -0.2434467900000000 17.8322021500000005  8.9472268300000000
 -0.0558682400000000 20.2176186899999983 10.9569359399999993
 -0.2813105200000000  0.0217848700000000 12.8088907899999995
 -0.6785394500000000  1.9836521199999999 15.4140047500000001
  2.3774086699999999  4.6838611500000003 20.1692725499999987
  2.5696379899999999  6.6628621499999996 22.2972836900000004
  2.1876287500000000  8.8524887499999991  2.4729573999999999
  2.3000547800000000 10.6633674900000006  4.0864526000000003
  1.7754922300000000 13.5362858199999998  7.0099889700000002
  2.0125120900000000 16.1252615800000001  9.4002172000000002
  1.7000371200000000 17.5637785700000002 10.9885428899999997
  1.8780578200000000 20.1154114399999990 12.9510494400000002
  1.6303797099999999  0.2059342000000000 15.1477418799999999
  2.1958712299999998  2.3467531500000001 17.4398711999999989
  6.5931317900000002  6.7541696699999996  0.1761699200000000
  6.1423150700000004  8.6637332100000002  1.8691003900000001
  5.9755608100000002 10.7929280100000007  4.4376727300000001
  6.3812325000000003 13.5070330500000004  6.1978312200000003
  6.7505798400000003 15.0144148099999999  8.6483250700000003
  6.8415404999999998 17.5549550600000011 10.7203803700000009
  6.3059066599999998 20.6117340700000007 12.7730479300000006
  6.6118883799999999 -0.4482384900000000 14.9906044099999995
  6.0191575300000002  1.6135833399999999 17.1484642399999991
  6.6628118699999996  4.4537806099999999 19.7409721199999986
  8.8914138200000004  7.1660231500000000  2.2249801599999999
  8.8375489900000002  9.2516980600000007  3.9610497699999998
  8.8952317900000004 11.2402979999999992  6.2346385000000000
  8.7514454900000000 12.8654716699999998  8.3221945700000006
  8.8251278200000005 15.3489692600000005 10.8343291399999995
  8.6162872700000008 17.7278297999999985 12.8743917400000001
  9.1003268800000008 19.8216422600000008 15.0592365400000006
  8.9002352600000005  0.2179495900000000 17.6566361600000015
  8.7591958900000009  2.0078775499999999 19.5698661499999993
  9.1461336899999992  4.2710984200000004 22.3220713900000014
 11.3052954499999991  7.1015068499999998  4.2512561599999996
 10.7582919700000001  9.1750097099999994  6.5854581000000003
 10.7431308199999993 11.2231119300000000  9.1546371900000008
 11.0781525999999992 13.0020713400000005 10.4522918399999991
 10.5107471700000001 15.0948394599999993 12.7641442200000004
 11.1000264400000006 17.3841934999999985 14.8687927999999996
 11.1744096899999992 19.0787140800000010 17.4705014399999996
 10.4484286799999992 -0.1706059400000000 19.2959268799999997
 10.9243045599999995  1.6777254600000000 -0.3414686000000000
 11.0207549100000008  4.5262754400000000  2.4368739800000001
 13.4767054799999997  6.7344253500000004  6.7786379800000001
 13.3835352499999996  8.3169760000000004  8.7171599600000000
 13.0334979200000003 11.6062227999999994 11.1731166099999992
 13.4591675800000008 13.5645620400000002 13.1839915600000008
 13.2630005200000003 15.5620349600000001 15.7075369800000004
 13.9234318600000009 17.9522963000000004 17.9171433700000016
 13.4933097699999998 19.7279248400000000 19.4989662999999993
 13.1488035300000004 -0.1782335900000000 -0.7045268600000000
 13.0181288899999998  2.0712629499999999  2.0721838799999999
 12.9974837200000000  4.8085074299999997  4.3818191500000001
 15.8339048099999999  6.7958233000000003  9.1945996700000006
 15.0166494700000008  9.1083443000000006 11.2063076800000001
 15.9322651200000003 12.0837185199999997 13.0304605799999997
 16.2961511200000011 13.7536255199999999 15.7533472799999998
 15.8139456500000009 15.6567608800000002 17.7557683299999987
 15.5824257500000005 17.0218622400000008 20.4562829099999988
 15.3532371100000002 19.3408133800000002  0.1715895500000000
 14.3554663999999992 -0.1824768200000000  1.8426615399999999
 14.9503667500000006  2.5155090699999998  4.0315933399999997
 15.4494730899999997  4.2242961499999998  6.2159034499999999
 17.6402913000000012  7.1161330700000001 11.4970482500000006
 17.5643911800000012  9.0466919299999997 13.6256967699999993
 17.7097443000000005 11.3250962499999996 15.5951483300000007
 18.4449836900000008 13.2173928299999996 17.8009904299999988
 18.4534248000000005 15.0397144500000000 20.1945108900000001
 17.7558143699999995 17.4232253499999992  0.3132648700000000
 17.5749127300000012 19.6984987899999986  2.4636812199999998
 16.8891446599999995 -0.2589107400000000  3.9844094299999999
 17.4554310999999984  2.5280287200000000  5.8451596500000003
 17.0861452599999986  3.9981633900000002  8.8248395500000001
 19.5995985200000007  6.2848729199999998 13.2964806299999996
 19.9495575500000015  8.7114424100000001 15.4155256200000004
 20.3120972199999983 10.5808754100000009 17.9530892800000004
 20.6543057200000000 12.9900970499999993 19.7472726300000012
 20.0757298199999994 15.0934105699999996  0.8466611300000000
 19.7280443900000009 17.2804075899999994  2.7072449000000001
 19.4144456699999992 19.5551004900000009  4.4373788599999999
 19.4493727999999990  0.0935436800000000  6.0042804500000004
 19.3519090100000000  2.5192977499999998  7.9375020999999997
 19.4857745599999994  4.5076994499999996 10.7785028100000009
  0.2162445400000000  6.6241906999999998 15.0353335300000008
  0.2967475500000000  8.6803003699999994 17.5984191099999983
  0.4135010500000000 11.3373665700000004 20.3018935499999991
  0.0589202200000000 13.6450839800000008  0.9072015200000000
  0.1218813400000000 15.4004184199999994  2.5036415100000000
  0.4906842200000000 17.6034107400000011  4.5680929199999998
  0.1637005700000000 20.0034367300000007  6.5714793100000000
 -0.1581005900000000  0.0925117300000000  8.6593357900000001
 -0.4737475300000000  2.0891057399999999 10.1285372000000002
 -0.1662247100000000  4.2586149899999999 12.8046438499999997
  2.6141628500000000  6.6440864900000003 17.2386295599999997
  2.1381398900000002  8.7863271399999991 19.7053536200000003
  2.6339029500000000 11.4110276400000004  0.6634497300000000
  2.0943392599999999 13.0171137300000002  2.6102064700000001
  2.3687872799999998 15.6244927100000002  4.8468922000000001
  2.6833231600000000 18.4586680799999989  6.8071604199999998
  2.2831513800000001 19.5849320200000001  8.9154483199999994
  1.6387755300000000 -0.1220028900000000 10.7363213000000002
  1.8246382500000000  2.1641055599999999 12.9164683100000008
  1.8996561500000000  4.0534884900000003 15.4533442700000005
  4.4913386600000003  6.4775326199999999 19.6122820800000000
  4.0709178899999996  8.6252689999999994 22.1003551000000016
  4.7446208800000003 10.9605280399999998  2.2386212900000002
  3.8240018400000002 13.4323704900000003  4.8128273100000003
  4.0958732199999996 15.5692352399999994  6.7309547500000004
  4.4808699399999998 18.0552177500000006  8.8857786500000007
  4.2921291699999999 20.2029738099999996 11.0637216299999999
  3.7277110699999998  0.2678041300000000 13.1183820400000002
  3.3204909499999999  2.2909554100000000 15.0030514900000007
  4.4804442900000003  4.0785334999999998 17.6633062800000005
  8.6831966200000004  8.6243834400000008 -0.2869276000000000
  8.6181355199999992 10.8389022300000004  2.0277397499999998
  8.5023933100000004 12.6681190699999995  4.2742219500000003
  9.1865108000000006 15.0858229500000007  6.5566092100000004
  8.9044717500000008 17.3678214400000002  8.5440412299999995
  9.1480085700000000 19.7271255200000013 10.3576109200000008
  9.2467825799999996 -0.0562613000000000 12.4937712699999999
  9.0287005499999999  2.1682590600000000 15.1555105700000006
  8.2216127399999994  4.6233630400000001 17.7546316100000006
  9.6530411800000007  6.8783268000000000 19.7999206600000015
 12.0871122500000006  9.3973168600000001  2.1810925700000001
 10.7704174699999999 10.9307262900000008  4.3787379900000003
 10.8728574699999996 12.8857871799999995  6.1963829500000003
 11.6771432300000004 14.9801678900000006  8.9003418199999995
 11.0068020999999998 17.3334724300000005 10.7251677300000008
 11.3357227599999995 19.8710927499999990 13.3463213399999994
 11.3374709500000002  0.1956915900000000 14.9953622099999997
 11.1824768500000005  2.3381009200000000 17.6118093900000012
 11.0562675800000001  4.3145921600000001 19.6095394600000006
 11.0103193600000004  7.0292251300000004 22.3245849599999993
 13.7468599200000003  9.2623115600000006  4.9425503800000001
 13.3688186000000009 10.6292438100000002  7.2818371600000003
 13.3399797400000004 13.2462502099999995  9.1073840900000000
 13.6210588300000008 15.3415978000000006 11.1105941700000006
 13.3237687299999994 17.4592449499999987 13.1551181899999996
 13.7846435599999992 19.8070483800000012 15.4921653100000007
 13.1113481200000006 -0.1697251500000000 17.1077049499999987
 13.2690249399999995  1.6976354700000000 19.5032399400000003
 12.8757309600000003  4.4588480099999996  0.2004915400000000
 12.6673201800000008  6.9805555699999999  2.0807249400000001
 15.8686976400000006  8.7854455500000004  6.3287250200000003
 15.8546787699999996 11.1647603300000000  9.2133002800000003
 16.0229716000000018 13.4138804700000005 11.0653285100000005
 15.8329651699999996 15.3142832599999998 12.9983759800000005
 15.8733032600000001 17.3825393300000002 15.1652383700000009
 15.8818896800000005 19.7041269399999983 17.5375985900000018
 15.4393495499999993 -0.3079839900000000 19.7728570700000006
 15.7958111100000007  2.2836791000000001  0.2528191100000000
 15.1197700000000008  4.5739673900000000  2.3536411300000002
 14.9335558699999993  7.0442195099999996  4.0892425599999997
 17.4712904999999985  8.9452462700000002  8.4957141099999998
 18.2754018599999988 11.2882447999999993 10.3235301199999991
 18.1714271200000006 13.3960955700000000 13.6260385399999997
 18.2007090100000006 15.5633779099999998 15.7063479699999995
 17.6545665400000011 17.9102523699999985 17.5863879499999989
 17.5478826300000001 19.2241305900000015 20.1220358799999985
 17.0647605599999999  0.0829674600000000 -0.1857053800000000
 17.7460504599999993  1.8690041799999999  2.5350762900000001
 17.3394140000000014  4.8661906100000003  4.3947174499999999
 17.7657230000000013  6.0566394399999997  6.7811992700000001
 19.6392828900000005  9.0155065400000005 11.5698891800000006
 19.4901299799999990 11.6399434300000006 13.3699755200000006
 19.7700968400000008 13.5472708199999996 15.9834312300000008
 20.1680797600000012 15.9898274699999998 17.9209475100000013
 19.4983093700000012 17.3214710099999998 20.7409444699999987
 19.3223189600000005 19.8886262199999990  0.7761291200000000
 19.7364513799999983 -0.0686748900000000  2.2543228200000001
 19.8524582599999988  2.5438501200000001  4.3315536799999999
 20.1175043500000008  4.6315848300000004  6.6148024599999999
 19.5533214400000013  7.0559859500000002  9.1087365400000007
 -0.1242492400000000  9.3280811999999997 13.6718678499999999
 -0.3216261100000000 11.2741479600000005 15.4435394000000006
 -0.0081054200000000 13.5705657500000001 18.1891698200000000
  0.1611745600000000 15.6611474400000006 20.3549192300000001
 -0.9448692600000000 17.4709081799999986  0.1756557000000000
 -0.1991439100000000 19.7428545100000008  2.1777837400000002
 -0.3423561600000000 -0.0919953400000000  4.3124336300000001
 -0.3895116000000000  1.7286538300000001  6.9871886099999996
  0.0701707300000000  4.5196644399999997  8.9514201100000008
 -0.3861750500000000  7.0972681599999996 11.5849823099999991
  2.1353658499999999  8.7228494399999992 15.3450527300000008
  2.0214493000000000 11.4507978500000007 17.1310452799999986
  2.0527129199999998 13.3446114500000004 20.5583781799999983
  1.7826509399999999 15.9256563799999995  0.1317531000000000
  2.3575198600000000 17.6027346800000011  2.2445773999999998
  2.0698901599999999 20.2099986499999993  4.1210053599999998
  2.1921284800000000 -0.2780922200000000  6.9575437500000001
  2.6628900000000000  2.2654248300000002  8.5595981699999992
  2.5727925500000000  4.2141615600000000 11.5608427900000006
  2.5427850599999999  6.5500266900000002 12.9886630400000005
  4.3306304300000003  9.6465227200000001 17.3312078800000009
  4.5723364000000002 11.2597841200000008 20.0374534699999991
  4.0667909499999997 13.6483839200000006  0.3211571100000000
  3.8878008999999998 15.2416321600000000  2.1635344700000001
  4.0850850500000000 17.7270337699999985  4.6591588399999999
  4.5759786599999996 19.8052845700000013  6.3135374100000003
  4.6452047500000004 -0.2389996000000000  8.7457535199999992