Li                                      
   1.00000000000000     
    20.2271999999999998    0.0000000000000000    0.0000000000000000
     0.0000000000000000   20.2271999999999998    0.0000000000000000
     0.0000000000000000    0.0000000000000000   20.2271999999999998
   Li
   432
Direct
  0.9861756565416897  0.9939400935374181  0.0234823826332828
  0.9038852970257878  0.0916255907886381  0.0882642476467339
  0.8309559845159029  0.1707136751502958  0.1829625672361956
  0.7445430801099491  0.2462695256881844  0.2730712298291422
  0.6514692152151582  0.3438621939764275  0.3181222250237283
  0.5830491303788961  0.4172029193363400  0.3958106297460873
  0.4974862764000960  0.4951146322773283  0.4920635421610484
  0.4102342642580297  0.5890418654089515  0.5806263160496741
  0.3260450487462450  0.6708883167220350  0.6723522543901268
  0.2541113480857433  0.7618320716658786  0.7511953943205185
  0.1521916824869507  0.8351625939329210  0.8125653343023274
  0.0887214226388195  0.9177879286307515  0.9111838781442785
  0.0738102480817915  0.9195301321982257  0.0912441207878487
  0.9934938765622547  0.0044127887201384  0.1718098041251395
  0.9048998136173054  0.0781078597136542  0.2732019468834039
  0.8311226467331139  0.1787877763605437  0.3491131199572877
  0.7374874040895421  0.2651220005734842  0.4137627219783298
  0.6554845510006331  0.3289445845198529  0.4953531947081160
  0.5765726907332720  0.4009769132653034  0.5876953770170843
  0.5064572486552734  0.5025310833926611  0.6569133241377969
  0.4156819797104916  0.5838953236236364  0.7399312737304200
  0.3284789377669668  0.6696244008068319  0.8272977703290607
  0.2378575220495165  0.7737312771911107  0.9172950096899228
  0.1662550629844972  0.8381845158993855  0.0045271263447262
  0.1566893811303558  0.8443725528001877  0.1694714705940541
  0.0741328508147419  0.9141160447318484  0.2600018603662377
  0.9966254573050151  0.0020843779663053  0.3456801420859037
  0.9163046773651331  0.0790782337644345  0.4154137962743221
  0.8162492678175894  0.1776261731727544  0.4874773532668897
  0.7497446576886588  0.2523439764277811  0.5804854319925639
  0.6692307269419402  0.3401096770685044  0.6711926737264662
  0.5830033163265327  0.4256035635184290  0.7431026775826624
  0.4935012448584075  0.4969208793110269  0.8442510268351526
  0.4009107029148851  0.5692980407569976  0.9066047450957129
  0.3303716129765846  0.6821582458274023  0.9809725073168778
  0.2541091673588056  0.7437236350063259  0.0814967652467971
  0.2355138012181612  0.7599811531007745  0.2556529054935908
  0.1547772726823311  0.8266153387517789  0.3525676341757631
  0.0803520437826322  0.9238057650094902  0.4256830510401812
  0.9929766754667000  0.9943120535714272  0.5107416162395211
  0.9058685626285410  0.0917753994621080  0.5687736107815198
  0.8374619818857809  0.1670573905434267  0.6593465763921813
  0.7507953443877540  0.2500109298370532  0.7557584050189874
  0.6496076644320539  0.3309197372844466  0.8295979354532506
  0.5813265716461018  0.4211423335904101  0.9178827123872821
  0.4919250336180951  0.5045392812648331  0.0159941539115636
  0.3936361883997819  0.5884331340966611  0.0803220391354245
  0.3570057066722043  0.6703269908835594  0.1843763036900796
  0.3281261499367218  0.6804572338237591  0.3292120535714318
  0.2452349188221774  0.7510542680153449  0.4135252595514984
  0.1614782396970398  0.8380835246598650  0.4960356084875812
  0.0893444950363858  0.9318433248299343  0.5778545216342366
  0.0046621801336784  0.0091208511311507  0.6601483799042853
  0.9024302137715523  0.0758291177226695  0.7420264529939899
  0.8394876695736428  0.1818791424418578  0.8417746781561490
  0.7454181260876425  0.2449188795285551  0.9209587372448951
  0.6536721459223216  0.3372192681142252  0.0039362689843401
  0.5732996573920275  0.4139974954516674  0.0996238846701445
  0.4870795473421907  0.5111295957918074  0.1812027304817292
  0.4260984802642014  0.5778926430746694  0.2594536010916002
  0.4098602604413841  0.5737637384314169  0.4147714048410052
  0.3309468745056137  0.6612873764040472  0.5153277285041895
  0.2436370407174522  0.7628381649462099  0.5852876250791041
  0.1534375830564798  0.8514416874307855  0.6764712204358503
  0.0768319836655564  0.9287263111058408  0.7405913151597829
  0.9927665816326510  0.0040556972789147  0.8449796017244111
  0.9094430015029289  0.0833376893489941  0.9169349257435542
  0.8436639307467146  0.1784076797579530  0.9917031413146660
  0.7375908375850315  0.2316403748417954  0.0837225053393453
  0.6826172391631076  0.3302481223303246  0.1657089409310259
  0.5760110445340914  0.4079465521673811  0.2348350997666486
  0.4961510851724427  0.4867268514673313  0.3336572476665083
  0.0690927286030671  0.0864018845910479  0.9287417081949059
  0.9937711087051113  0.1656905582581842  0.0027560201115335
  0.9306694549912962  0.2528544415440592  0.0801630784290452
  0.8353193981371589  0.3301798266690383  0.1667071675763339
  0.7421532050901760  0.4226253426079722  0.2415323465432664
  0.6656352169356126  0.4986237759057133  0.3209449800268942
  0.5833570049240606  0.5853415059919342  0.4163338741892133
  0.5075623047183981  0.6776115878618896  0.4854444184068996
  0.4082649867505168  0.7589983853425082  0.5888945261825640
  0.3441368385144727  0.8533282747982938  0.6773602085310841
  0.2569888788364167  0.9203939902705258  0.7645668253638647
  0.1769590274481914  0.0127212891551949  0.8488561120669189
  0.1516220332028126  0.9953265805450116  0.0039590635382041
  0.0771228009808596  0.0951294311620003  0.0855471894280981
  0.9824926218161707  0.1745114687153944  0.1848885228800796
  0.9130629686758454  0.2461509803630761  0.2754384912395196
  0.8156829279386173  0.3379179317948129  0.3388817013724079
  0.7374397573564337  0.4240725839463693  0.4218339992683156
  0.6654780107973437  0.4948550852317695  0.5082856248022480
  0.5833595786861281  0.5969202321626312  0.5739203908598327
  0.5148427231648469  0.6621773498061998  0.6590922515227007
  0.4264698040262616  0.7366797752531227  0.7515908563716209
  0.3409624050783080  0.8364958150411326  0.8306169138585702
  0.2503607548251878  0.9255139732637261  0.9159693457324778
  0.2619568175526013  0.9020700502293906  0.0827746549201080
  0.1712276459420963  0.0169939769221656  0.1715731841283059
  0.0797662276538489  0.0853929273453602  0.2517664422164216
  0.0081055702222770  0.1677077173311190  0.3425168876562239
  0.9138232923983551  0.2499160966421456  0.4254474361256158
  0.8324800545799746  0.3428995090768865  0.4927053541765574
  0.7401867579299193  0.4050623081790832  0.5955448549477964
  0.6581366521317804  0.5049367317275752  0.6714120461556732
  0.5591294534092697  0.5810077766571737  0.7444396387043213
  0.5022981979710508  0.6672465897405502  0.8475307472116782
  0.4216515671966476  0.7560708036703048  0.9156741976150897
  0.3408754662039257  0.8209290890484127  0.0000829496915031
  0.3318763674655898  0.8233296625336166  0.1783256857103339
  0.2387211220534695  0.9097211497389637  0.2489833644795141
  0.1671503010797366  0.0019390276459390  0.3391948826332865
  0.0814048410061687  0.0683634843181480  0.4309874204042075
  0.9958341129765884  0.1602370975715885  0.4988022721879446
  0.9182179634353744  0.2575183772346179  0.5845098150015815
  0.8371615295246002  0.3366134996440451  0.6619683876166746
  0.7409843774719178  0.4085464364815721  0.7539808277962337
  0.6673475577440300  0.5003021817157105  0.8278424285120991
  0.5826474692493306  0.5795551059958868  0.9130809459539648
  0.4660774946606523  0.6575718428650532  0.9951851506881795
  0.4152162924181297  0.7549402314704921  0.0764168273414043
  0.4249331306359778  0.7584893396021215  0.2727518890404994
  0.3198186268984315  0.8293168228919470  0.3236215452460058
  0.2546791063518441  0.9186586299636161  0.4000332977376999
  0.1781454279386168  0.9911411945301367  0.4953026296274317
  0.0896893534448679  0.0829160096305941  0.5856434449651928
  0.9943229893410859  0.1647900282787518  0.6561041147563671
  0.9264216396733076  0.2652889253084965  0.7595620723580154
  0.8310959786821712  0.3412789031601022  0.8242901167734544
  0.7512961082107239  0.4158570489242237  0.9157402917853190
  0.6747104458353093  0.5040189175961061  0.9915670987581109
  0.5847464335152637  0.5903154623477320  0.0848394671531381
  0.4915196819134664  0.6721285373160910  0.1704533192928324
  0.4864144720969819  0.6787220841243453  0.3451961655592442
  0.4029949231727556  0.7612656774046798  0.4337141522306567
  0.3119866659745298  0.8539778565495979  0.4977961566603355
  0.2400669395665247  0.9270697961161218  0.5897239286703027
  0.1704457482993220  0.0081451283420364  0.6603519424339481
  0.0794939047421295  0.0828578429046019  0.7508754513724085
  0.9936711531996494  0.1724766576688808  0.8290146995135288
  0.9293760589700995  0.2658107039036537  0.9137425367821521
  0.8479447570597998  0.3404699058693268  0.0034710394913802
  0.7536459935136861  0.4240019414451837  0.0866852826886557
  0.6500793654089563  0.5156069075304544  0.1682906536742621
  0.5777346029109296  0.5962275352001285  0.2675329279386176
  0.1553361997706091  0.1674742035476982  0.8398441197990820
  0.0860889327242518  0.2641450225439002  0.9234176401083687
  0.9954406487304226  0.3450645121420663  0.0155417709816490
  0.9083643662988479  0.4416264529939866  0.0894064942255994
  0.8235854438577732  0.4969062030335394  0.1768437618652143
  0.7430443714404333  0.5704921842865076  0.2488627981134286
  0.6703910214958100  0.6779444500474625  0.3241929807388075
  0.6057837624584721  0.7478717865053000  0.4119025347057459
  0.4997500479552315  0.8348373076847011  0.4906446730145575
  0.4221581865013420  0.9205867791884188  0.5611931399303884
  0.3435687836180961  0.9859744769419407  0.6684906373595965
  0.2501157990230993  0.0861725626878638  0.7412184479315016
  0.2587555964246135  0.0903026973580126  0.9282449029030246
  0.1648569154405948  0.1662101323959817  0.9948529880556904
  0.0695622562687888  0.2731609342865084  0.0827803996598675
  0.9855131511034614  0.3469844921689571  0.1815135080485675
  0.9087414145309296  0.4347524007277315  0.2669453211517165
  0.8278798716579630  0.4894542625771265  0.3529508389693063
  0.7292158845514933  0.5930555890088627  0.4248698836220512
  0.6634015434662217  0.6814705797144427  0.5178935769656690
  0.5748869423350769  0.7629472551811389  0.5848163393845880
  0.4890372854374334  0.8425639599153598  0.6601694050585323
  0.4199762468359438  0.9111827366120835  0.7596080184108516
  0.3498117505141565  0.0146415480145521  0.8198511726783764
  0.3417377674616375  0.9988582675802888  0.0002265667022598
  0.2544590190436651  0.0861964211556696  0.0683401523690890
  0.1661821942730555  0.1767925773216277  0.1446824355323528
  0.0893672668485976  0.2478649551099537  0.2475660318778665
  0.9896787830248357  0.3266542556557539  0.3379612116358146
  0.9210188197081166  0.4208792373635504  0.4334416251384283
  0.8178386978919505  0.5148065154841035  0.5039087817394403
  0.7311667675209605  0.5851849623279577  0.5891643218043043
  0.6497619591441222  0.6632596449335537  0.6782793115211234
  0.5559380106984619  0.7454198396218956  0.7560962723461486
  0.5124847265068837  0.8345610153654519  0.8436194732834963
  0.4146283202816008  0.9231431522899882  0.9218805558851457
  0.4297866659745324  0.8974202786347121  0.0845007109239049
  0.3378860395902521  0.9810541641947452  0.1514428398394259
  0.2613213558970102  0.0823461784132249  0.2426198460488820
  0.1650740666033883  0.1602574696448329  0.3392694446092364
  0.0894192503164035  0.2488087110425568  0.4288294988925827
  0.0042902947516197  0.3259455881189695  0.5063718557190313
  0.9262577771515552  0.4120012196448357  0.5737652171333636
  0.8301250138427463  0.4807077464997604  0.6661953384551467
  0.7595218443482068  0.5794523181656359  0.7459939611018811
  0.6732858304659075  0.6582706326135082  0.8285032589780101
  0.5923137784765089  0.7371930326491025  0.9286897810868524
  0.5212488732993208  0.8328563646970437  0.9960669415440577
  0.4959778936283783  0.8288875459776932  0.1757414792952048
  0.4278289995649445  0.9243015266571746  0.2481793233863314
  0.3392477025984846  0.9953976882613489  0.3130172114776144
  0.2603154148868825  0.0796785081474454  0.4074407174497736
  0.1862143677820001  0.1451686877076384  0.4938739637715557
  0.1003478168011398  0.2375423311184974  0.5713490863787385
  0.0189651236948265  0.3194132821151712  0.6473370268747018
  0.9290302157490871  0.4164560304935918  0.7402787009571270
  0.8309061155276041  0.4954433683357067  0.8199893915124221
  0.7518344748655252  0.5787756061145402  0.9003158741694364
  0.6779429337723428  0.6550810636173097  0.9964069693284259
  0.5828530167299490  0.7496379543387093  0.0639688340452480
  0.5624122542912531  0.7438627234614756  0.2586240740191457
  0.4865190698663184  0.8418224791370008  0.3433450428136382
  0.4141714172005990  0.9204937050110757  0.4014580263209950
  0.3380269409507974  0.9926287607775635  0.4827110311857297
  0.2785085721207068  0.0779302740863770  0.5780204323880724
  0.1742594585508641  0.1566426326926091  0.6630757796432505
  0.0878158375850333  0.2476800664451844  0.7489815624505596
  0.0091591381901566  0.3474202924774588  0.8380117020645486
  0.9198130967212492  0.4319559365606693  0.9100387438696416
  0.8186187257751953  0.5052072916666646  0.9947654850893812
  0.7542870881782946  0.5801374159547521  0.0854933371895257
  0.6591828157134927  0.6631154326847053  0.1796015078705935
  0.2645100503282691  0.2540024625257047  0.7531528792912496
  0.1731224138783389  0.3336876873714587  0.8163811748536602
  0.0707111310512545  0.4278123897524111  0.9286999283143516
  0.0038451060947651  0.5112853153179913  0.9935262409033356
  0.9088213039867128  0.5706554258622063  0.0808191356193646
  0.8267090180548990  0.6730529470218301  0.1671817458669480
  0.7462939601131140  0.7646713909982594  0.2539046299042838
  0.6551019300743519  0.8492798578152190  0.3266100053393473
  0.5743659161920576  0.9352146026143018  0.4133307773690902
  0.5077009625652593  0.0032018232874549  0.4884871969427280
  0.4117126651241918  0.0711141725003941  0.5660379167655449
  0.3445245748299328  0.1527142951075788  0.6715293980382882
  0.3561469318541342  0.1607090496954626  0.8281151320993487
  0.2493351037217195  0.2525799898156933  0.9044396708392668
  0.1752159582146788  0.3560942809682004  0.0011627575739581
  0.0704428660417662  0.4434200635777543  0.0897456815575097
  0.0086021634235109  0.5170272845475381  0.1718375405394710
  0.9031320647445042  0.5806555598402170  0.2568478054303114
  0.8384941904959646  0.6614254429678823  0.3297097650688201
  0.7355336996717270  0.7592936773255801  0.4194672876127186
  0.6686744799082405  0.8389277576728347  0.4928432358408514
  0.5767763818027234  0.9171088563913941  0.5727512235999086
  0.4897467059207372  0.9913084663225789  0.6587757880477767
  0.4429244052562851  0.0745136939368791  0.7473807551218172
  0.4288693605639935  0.0890775475597181  0.9298445375533930
  0.3399870926277515  0.1700789506209475  0.0042931246044944
  0.2496474030019016  0.2516103444866289  0.0699980674537244
  0.1604234263763615  0.3389668100379666  0.1587311486513201
  0.0804516690397108  0.4152411505299796  0.2565542566445203
  0.9952549210963468  0.5159968235840822  0.3364919440159753
  0.9150986028713817  0.5823090437628551  0.4272737793663950
  0.8290851462387252  0.6776760065654202  0.4943129879568104
  0.7216922569609210  0.7602873012577120  0.5970355773414013
  0.6561672886014875  0.8398025263012201  0.6740618582898250
  0.5699634773967759  0.9295093033143473  0.7493046432526498
  0.5081066781363717  0.9869050441979113  0.8531129251700662
  0.5054205055568772  0.0056107508701189  0.9928144098046161
  0.4027616931656368  0.0787568081593122  0.0829958328389466
  0.3389765983428248  0.1730701733309630  0.1686975804856843
  0.2421107666903950  0.2426138852634097  0.2581191415519726
  0.1582938206968834  0.3251362244897962  0.3485300076135118
  0.0644377442256001  0.4249203750395480  0.4164455193996233
  0.0074000004943855  0.5191428655473800  0.5028005897998753
  0.9169872997745614  0.5945940095514928  0.5833303699968369
  0.8244343250672372  0.6688744932566024  0.6555243182447370
  0.7532732815219134  0.7576946042952031  0.7418293065772801
  0.6571430311659583  0.8400805281996497  0.8438208985919928
  0.5924698025431070  0.9165207211082134  0.9289167487343803
  0.5816779425723766  0.9030787340808430  0.0949334050189847
  0.5052518895348825  0.0137369344249336  0.1459023443679826
  0.4195048162869810  0.0824843191346289  0.2383344278990691
  0.3401706133325391  0.1551980541053624  0.3459497231450754
  0.2506663379014427  0.2511791172282898  0.4215440357538398
  0.1815735989163088  0.3416062860900198  0.4929607948702710
  0.0944598199454205  0.4146865784685971  0.5646981386449923
  0.0184101121262472  0.4909015484100649  0.6497070523849047
  0.9251534330011069  0.5739088455149499  0.7222004573050143
  0.8501477821942700  0.6540946932842928  0.8138875845396285
  0.7725275658519237  0.7387750795957899  0.8817164417220411
  0.6859998492129407  0.8145969239439950  0.9941256367663343
  0.6592034784844145  0.8104406976744158  0.1530531442809675
  0.5714937692809698  0.9133415139020755  0.2328221093379241
  0.5073144414451818  0.9977427790302187  0.3350289906660322
  0.4117323786782165  0.0809171912078810  0.4071682269419412
  0.3492231688024034  0.1579218572021830  0.4946922134551528
  0.2659049339503241  0.2335551786703078  0.5986215432684716
  0.1754030498536636  0.3251998403140348  0.6620526009531744
  0.0834946403852257  0.4046878663383993  0.7531155894043664
  0.9985213558970116  0.5098292081949083  0.8183421674774536
  0.9114133434187650  0.5660396619403585  0.9154444312608732
  0.8505765894439179  0.6559768460291124  0.9940681962901436
  0.7587166468913153  0.7363449207008372  0.0881931265820270
  0.3429072560710296  0.3326072041607375  0.6627768109278591
  0.2551662563281099  0.4207479141947488  0.7550605669593438
  0.1660538873398210  0.4940922124663842  0.8234279786623944
  0.0717991110979241  0.5691277868414772  0.9222212599865500
  0.0069945726546408  0.6499477757672807  0.0035301776815402
  0.9157626344723937  0.7276170102634083  0.0805462970653394
  0.8352523769973104  0.8208029519656677  0.1840468695617758
  0.7508697412395193  0.9176814309444694  0.2366033113826944
  0.6631880546986224  0.9886022306597084  0.3170458071309952
  0.5886298350735615  0.0958314413265313  0.4034516962308174
  0.5121040934978609  0.1534414535872486  0.5012936367861087
  0.4200649734021482  0.2375057338633155  0.5831771510639143
  0.4296261756446782  0.2433209697832623  0.7354924374110112
  0.3500964127511494  0.3435265489044426  0.8325219644834689
  0.2632661228444846  0.4232831009729452  0.9012049903100774
  0.1735103612956834  0.4903145096701493  0.0111297623991433
  0.0858240641314651  0.5781421625336165  0.0907810201115353
  0.9917976724410664  0.6521182575937345  0.1591029099430443
  0.9082298014554624  0.7428205648829334  0.2520497582463221
  0.8320199790381295  0.8336289654524620  0.3496414985761760
  0.7368716787296279  0.9214064650569540  0.4164598145071992
  0.6698655043703496  0.9985915949810149  0.5051242702895138
  0.5832048815456403  0.0715505354176571  0.5906014450838484
  0.4973303685136869  0.1471193412830232  0.6473851259689951
  0.5063491343339663  0.1711282525510214  0.8341546936797997
  0.4273959252887209  0.2473278110662847  0.9303767857142873
  0.3208162672045560  0.3460099064625837  0.0022323005655736
  0.2739006224292027  0.4174193620471414  0.0899879281363738
  0.1900509541607320  0.4990159374505652  0.1662013343418778
  0.0879662464404376  0.5858941400688167  0.2588052409626656
  0.9947588781442818  0.6636015978484409  0.3233189566524288
  0.9225474128895712  0.7462435522464830  0.4212679387161842
  0.8303707389060264  0.8369271831988598  0.5059496054817245
  0.7405642258938485  0.9216192517995552  0.5957371366279034
  0.6779902556952990  0.9891673607815221  0.6765680247389625
  0.5746878841362104  0.0672942399343484  0.7596433282906219
  0.5959255996875470  0.0747619542002838  0.9301935665836112
  0.5090049591638959  0.1672125484496121  0.0114665104413874
  0.4201189022702110  0.2452626685848784  0.0926220989558644
  0.3386064591243496  0.3117928670305332  0.1605242475478548
  0.2545692211477615  0.4161133701154895  0.2452524437391261
  0.1789412662157872  0.5084115235919953  0.3395414936323391
  0.0756253831474467  0.5812861167141250  0.4307413853622819
  0.0044775712901455  0.6661588895151098  0.5087330722986891
  0.9207715432684722  0.7387789234298339  0.5791014445894618
  0.8423324750830545  0.8274738223777902  0.6637983724885288
  0.7617225799913001  0.9233618958629961  0.7346939314388550
  0.6819834203448849  0.0036695449691493  0.8457725196764727
  0.6698184335943651  0.9997296037019439  0.0224219620115491
  0.5984838282115206  0.0917310571903158  0.0858237719506434
  0.5112789234298347  0.1633476007554151  0.1604059652349292
  0.4262317335073575  0.2389987057032101  0.2498707285239661
  0.3362338025035569  0.3221495357736117  0.3133431913463056
  0.2625588479868668  0.4041272138506571  0.4084838148631533
  0.1827056463573768  0.4926828241180203  0.4950615898394233
  0.1120714359871826  0.5875864054342657  0.5846603207562069
  0.9942654188419553  0.6540349840808446  0.6610171388031958
  0.9387863248497084  0.7514044133641846  0.7490031966856492
  0.8596131659349808  0.8377760693521594  0.8217856406225295
  0.7559811051455441  0.9112212318066781  0.9269792531838306
  0.7545713232676761  0.9000366516374001  0.0917152517402329
  0.6731885174418579  0.9979106104651194  0.1517936797974997
  0.5864358274996064  0.0737557239756370  0.2299862412988460
  0.4969181755260266  0.1584926519735816  0.3202291345317221
  0.4130411050466734  0.2346676846029112  0.4115914076095564
  0.3408654346622342  0.3246763551059928  0.5036681666271150
  0.2561420290499896  0.4197406601012474  0.5836262774877383
  0.1712092514040506  0.4923509531719645  0.6613650500316410
  0.1018999822021840  0.5823975547777280  0.7190656477416582
  0.9976429837051128  0.6573261123635490  0.8308828340056920
  0.9310002382929952  0.7485150075146336  0.9220299522425250
  0.8277222052483779  0.8124462323010633  0.9961475088000284
  0.4376016062529686  0.4109543985326667  0.5681857963534256
  0.3448299705347253  0.4849470974727126  0.6572445983626025
  0.2487649130873280  0.5722570869917760  0.7294613288047742
  0.1725815070795775  0.6703613535239654  0.8271219115843991
  0.0843681775035563  0.7440133968122140  0.9206575190832140
  0.0042859985563979  0.8212054169632950  0.0033110974331620
  0.9203635920938140  0.8987468586853353  0.0920236602199012
  0.8386654326846994  0.9898335953567496  0.1644336784132250
  0.7728428670305334  0.0770636791053647  0.2592148661208640
  0.6582212036268018  0.1621891878262929  0.3220077133760455
  0.5807855926672971  0.2556295072971082  0.4123570726546433
  0.4961447802958361  0.3174426124228731  0.4835297515227026
  0.4963074548133193  0.3240823050150325  0.6565545028476478
  0.4245051035239698  0.4180515933989852  0.7374147445024519
  0.3364038774521418  0.5043404717410240  0.8245594278990680
  0.2426915554303122  0.5750647227495662  0.9095314630794178
  0.1632869566722022  0.6574979067789926  0.9917432318857777
  0.0889435730106030  0.7411530933594364  0.0864874762695749
  0.0045019567710796  0.8285776118296155  0.1637790208234478
  0.9110432546274296  0.9211540346661948  0.2523464349984152
  0.8309212248853015  0.9891778234258837  0.3467399724133813
  0.7416158178096808  0.0907514119601345  0.4106718067750350
  0.6654568842944144  0.1691589750435085  0.5011809588079430
  0.5923222314507228  0.2432277739874991  0.5837880166310683
  0.5706163690476203  0.2531071527448177  0.7411091134709693
  0.4988535447318441  0.3418142006802753  0.8361875875059326
  0.4233504582937826  0.4104463840768844  0.9134926025352001
  0.3320685062687900  0.5055309370550560  0.0036582809286472
  0.2635105219704172  0.5871714883918671  0.0824104221048856
  0.1709859936125611  0.6631321641156447  0.1554683826728365
  0.0738214167062168  0.7517815555291918  0.2347660150688213
  0.9972938726071803  0.8408044974094295  0.3353232652072435
  0.9114482493869644  0.9054611443996237  0.4257727169356116
  0.8308872414372743  0.0117076861849412  0.5003179807388065
  0.7539759773967702  0.0896376868770759  0.5781655147524134
  0.6603493479077684  0.1701664471602626  0.6804627269221655
  0.6522829368375227  0.1635849791370063  0.8357132484970720
  0.5736093423706663  0.2545382603622812  0.9267484535674768
  0.4993524294019949  0.3418719585508612  0.0087182966500521
  0.4112753841362107  0.4136136731727547  0.1035637938024081
  0.3184940594842587  0.5062143836022770  0.1727462723461457
  0.2458366101091585  0.5784329462308193  0.2444168055885143
  0.1513659542596102  0.6649432491892071  0.3360241565812387
  0.0678765182526533  0.7501246559088770  0.4152137260718263
  0.0030928581316232  0.8475379345633627  0.5119738604453374
  0.9091435463138708  0.9127280488648921  0.6072537256763155
  0.8278004207206138  0.0106283746638169  0.6550807803353891
  0.7525694742722635  0.0845192552602470  0.7532284364617965
  0.7450130141591487  0.0884641660734076  0.9316551687826262
  0.6595683713020080  0.1753336003005828  0.9977967726625536
  0.5839603439922456  0.2554037780809963  0.0942675031640547
  0.5059263620273668  0.3400172455900972  0.1793705629053974
  0.4159720425961098  0.4205017857142863  0.2629289194747670
  0.3237534947990852  0.4983115399066591  0.3271282876522719
  0.2583606856114571  0.5819131857103272  0.4196223150015825
  0.1720976309128304  0.6475682130991913  0.4910296961517133
  0.0937169534092703  0.7566246237739307  0.5886204566128797
  0.0102529445499115  0.8364124278199654  0.6620364346029106
  0.9166875613035899  0.9162291459025482  0.7361730471839891
  0.8162107983309568  0.0012607553195707  0.8250197862284452
  0.8228595005734860  0.9812413532273396  0.0095363377036861
  0.7590341411564623  0.0934788779465308  0.0724586423232054
  0.6791430024916920  0.1704746573920275  0.1733560448307259
  0.5858539639693063  0.2378230303749405  0.2427074177345361
  0.4960719115844014  0.3132965244818848  0.3400105842627781
  0.4011702074434425  0.4043638738925779  0.4062433090096533
  0.3172277537177663  0.4927334084796726  0.5057770106589174
  0.2455945820479357  0.5789091179204249  0.5958871751898442
  0.1792026632455332  0.6880885095317169  0.6729836714918491
  0.0788999115053031  0.7490337075818729  0.7487333778278753
  0.0068090927068525  0.8388751542477451  0.8318169415440622
  0.9067804866714155  0.9117623141116908  0.9269125899778530
 
  0.00000000E+00  0.00000000E+00  0.00000000E+00
  0.00000000E+00  0.00000000E+00  0.00000000E+00
  0.00000000E+00  0.00000000E+00  0.00000000E+00
  0.00000000E+00  0.00000000E+00  0.00000000E+00
  0.00000000E+00  0.00000000E+00  0.00000000E+00
  0.00000000E+00  0.00000000E+00  0.00000000E+00
  0.00000000E+00  0.00000000E+00  0.00000000E+00
  0.00000000E+00  0.00000000E+00  0.00000000E+00
  0.00000000E+00  0.00000000E+00  0.00000000E+00
  0.00000000E+00  0.00000000E+00  0.00000000E+00
  0.00000000E+00  0.00000000E+00  0.00000000E+00
  0.00000000E+00  0.00000000E+00  0.00000000E+00
  0.00000000E+00  0.00000000E+00  0.00000000E+00
  0.00000000E+00  0.00000000E+00  0.00000000E+00
  0.00000000E+00  0.00000000E+00  0.00000000E+00
  0.00000000E+00  0.00000000E+00  0.00000000E+00
  0.00000000E+00  0.00000000E+00  0.00000000E+00
  0.00000000E+00  0.00000000E+00  0.00000000E+00
  0.00000000E+00  0.00000000E+00  0.00000000E+00
  0.00000000E+00  0.00000000E+00  0.00000000E+00
  0.00000000E+00  0.00000000E+00  0.00000000E+00
  0.00000000E+00  0.00000000E+00  0.00000000E+00
  0.00000000E+00  0.00000000E+00  0.00000000E+00
  0.00000000E+00  0.00000000E+00  0.00000000E+00
  0.00000000E+00  0.00000000E+00  0.00000000E+00
  0.00000000E+00  0.00000000E+00  0.00000000E+00
  0.00000000E+00  0.00000000E+00  0.00000000E+00
  0.00000000E+00  0.00000000E+00  0.00000000E+00
  0.00000000E+00  0.00000000E+00  0.00000000E+00
  0.00000000E+00  0.00000000E+00  0.00000000E+00
  0.00000000E+00  0.00000000E+00  0.00000000E+00
  0.00000000E+00  0.00000000E+00  0.00000000E+00
  0.00000000E+00  0.00000000E+00  0.00000000E+00
  0.00000000E+00  0.00000000E+00  0.00000000E+00
  0.00000000E+00  0.00000000E+00  0.00000000E+00
  0.00000000E+00  0.00000000E+00  0.00000000E+00
  0.00000000E+00  0.00000000E+00  0.00000000E+00
  0.00000000E+00  0.00000000E+00  0.00000000E+00
  0.00000000E+00  0.00000000E+00  0.00000000E+00
  0.00000000E+00  0.00000000E+00  0.00000000E+00
  0.00000000E+00  0.00000000E+00  0.00000000E+00
  0.00000000E+00  0.00000000E+00  0.00000000E+00
  0.00000000E+00  0.00000000E+00  0.00000000E+00
  0.00000000E+00  0.00000000E+00  0.00000000E+00
  0.00000000E+00  0.00000000E+00  0.00000000E+00
  0.00000000E+00  0.00000000E+00  0.00000000E+00
  0.00000000E+00  0.00000000E+00  0.00000000E+00
  0.00000000E+00  0.00000000E+00  0.00000000E+00
  0.00000000E+00  0.00000000E+00  0.00000000E+00
  0.00000000E+00  0.00000000E+00  0.00000000E+00
  0.00000000E+00  0.00000000E+00  0.00000000E+00
  0.00000000E+00  0.00000000E+00  0.00000000E+00
  0.00000000E+00  0.00000000E+00  0.00000000E+00
  0.00000000E+00  0.00000000E+00  0.00000000E+00
  0.00000000E+00  0.00000000E+00  0.00000000E+00
  0.00000000E+00  0.00000000E+00  0.00000000E+00
  0.00000000E+00  0.00000000E+00  0.00000000E+00
  0.00000000E+00  0.00000000E+00  0.00000000E+00
  0.00000000E+00  0.00000000E+00  0.00000000E+00
  0.00000000E+00  0.00000000E+00  0.00000000E+00
  0.00000000E+00  0.00000000E+00  0.00000000E+00
  0.00000000E+00  0.00000000E+00  0.00000000E+00
  0.00000000E+00  0.00000000E+00  0.00000000E+00
  0.00000000E+00  0.00000000E+00  0.00000000E+00
  0.00000000E+00  0.00000000E+00  0.00000000E+00
  0.00000000E+00  0.00000000E+00  0.00000000E+00
  0.00000000E+00  0.00000000E+00  0.00000000E+00
  0.00000000E+00  0.00000000E+00  0.00000000E+00