Li 
 1.0000000000000000
    20.2271999999999998    0.0000000000000000    0.0000000000000000
     0.0000000000000000   20.2271999999999998    0.0000000000000000
     0.0000000000000000    0.0000000000000000   20.2271999999999998
 Li 
 432
Cartesian
 -0.2796277600000000 -0.1225749400000000  0.4749828500000000
 18.2830686799999995  1.8533291500000000  1.7853385900000001
 16.8079128900000008  3.4530596500000001  3.7008204400000002
 15.0600217900000004  4.9813429500000002  5.5234663800000003
 13.1773981100000004  6.9553693699999997  6.4347218699999997
 11.7934513699999997  8.4388468900000007  8.0061407700000000
 10.0627544100000001 10.0147826900000005  9.9530676800000002
  8.2978905100000002 11.9146676199999995 11.7444446199999994
  6.5949784100000004 13.5701921599999995 13.5998035200000000
  5.1399610600000001 15.4097296799999999 15.1945794799999998
  3.0784115999999999 16.8930008200000010 16.4359215300000017
  1.7945859600000000 18.5642799899999993 18.4306985400000016
  1.4929746500000001 18.5995198899999998  1.8456130799999999
 -0.1316006600000000  0.0892583600000000  3.4752312700000001
 18.3035895099999983  1.5799033000000000  5.5261104200000002
 16.8112840000000006  3.6163761100000000  7.0615809000000000
 14.9173052199999994  5.3626757300000003  8.3692613300000005
 13.2586171099999994  6.6536279000000000 10.0196081400000008
 11.6624511300000009  8.1106402200000005 11.8874319300000000
 10.2442120600000006 10.1647967300000008 13.2875171900000009
  8.4080825400000005 11.8105674900000004 14.9667378600000003
  6.6442091699999999 13.5446266800000004 16.7339174600000007
  4.8111916700000004 15.6504172900000000 18.5543096200000015
  3.3628744099999999 16.9541258399999997  0.0915710900000000
  3.1693874499999999 17.0792925000000011  3.4279333300000001
  1.4995000000000001 18.4900080600000010  5.2591096300000002
 -0.0682575500000000  0.0421611300000000  6.9921413699999997
 18.5342779700000015  1.5995312500000001  8.4026579399999992
 16.5104371900000011  3.5928801300000002  9.8603019199999995
 15.1652351400000001  5.1042120799999999 11.7415949299999998
 13.5366637599999997  6.8794664599999997 13.5763484499999993
 11.7925246799999996  8.6087684000000007 15.0308864799999995
  9.9821483799999999 10.0513180099999992 17.0768343700000003
  8.1093009699999996 11.5153053300000003 18.3380754999999986
  6.6824926900000001 13.7981512700000000 19.8423270999999986
  5.1399169499999999 15.0434467099999996  1.6484513700000001
  4.7637847600000001 15.3722907800000002  5.1711424499999996
  3.1307108499999998 16.7201137799999984  7.1314560499999997
  1.6252968600000000 18.6860039700000016  8.6103762100000001
 -0.1420621900000000 -0.1150512300000000 10.3308728199999997
 18.3231845900000003  1.8563593599999999 11.5046975800000002
 16.9395109999999995  3.3791032500000000 13.3367350699999996
 15.1864875900000005  5.0570210800000002 15.2868764099999996
 13.1397441500000003  6.6935797099999998 16.7804433599999996
 11.7586088300000000  8.5185302099999998 18.5661972000000013
  9.9502660400000007 10.2054169500000000  0.3235169500000000
  7.9621579100000002 11.9023546899999992  1.6246899500000000
  7.2212258299999998 13.5588381099999999  3.7294163700000000
  6.6370732600000002 13.7637445599999992  6.6590380500000004
  4.9604157500000001 15.1917248899999997  8.3644581299999992
  3.2662526500000002 16.9520830700000005 10.0334114599999999
  1.8071889699999999 18.8485812999999993 11.6883789799999995
  0.0943028500000000  0.1844892800000000 13.3529533100000002
 18.2536364199999994  1.5338107299999999 15.0091174699999996
 16.9804849900000008  3.6789057900000000 17.0267447700000005
 15.0777215200000008  4.9540231600000002 18.6284165699999988
 13.2219572299999992  6.8210015799999999  0.0796197000000000
 11.5962468300000001  8.3740101399999993  2.0151122400000001
  9.8522554200000005 10.3387205600000005  3.6652238700000002
  8.6187791800000007 11.6891500700000002  5.2480198800000002
  8.2903254600000000 11.6056338900000000  8.3896641600000006
  6.6941286199999999 13.3759920200000000 10.4236370300000001
  4.9280951499999999 15.4300801300000003 11.8387298500000000
  3.1036126799999999 17.2222812999999988 13.6831186700000007
  1.5540959000000001 18.7855328399999983 14.9800886500000008
 -0.1463118000000000  0.0820354000000000 17.0915713999999994
 18.3954854800000014  1.6856881100000001 18.5470261299999990
 17.0649590599999996  3.6086878200000001 20.0593777799999984
 14.9193973900000003  4.6854361899999999  1.6934718600000001
 13.8074354199999991  6.6799948200000001  3.3518278900000000
 11.6510905999999999  8.2516165000000008  4.7500565300000002
 10.0357472300000001  9.8451213699999993  6.7489518799999999
  1.3975524399999999  1.7476681999999999 18.7858442799999992
 -0.1259930300000000  3.3514560599999998  0.0557465700000000
 18.8248372000000010  5.1145373599999999  1.6214746200000001
 16.8961725300000012  6.6786133899999998  3.3720192199999999
 15.0116813100000002  8.5485273300000006  4.8855230799999996
 13.4639366599999999 10.0857628399999992  6.4918183000000003
 11.7996788099999996 11.8398197100000004  8.4212685399999998
 10.2665642500000001 13.7061851099999998  9.8191813400000001
  8.2580575399999994 15.3524121400000002 11.9116873600000002
  6.9609246599999999 17.2604416799999996 13.7011004100000005
  5.1981654500000003 18.6169933199999988 15.4650460899999995
  3.5793856399999999  0.2573160600000000 17.1699823500000015
  3.0668891899999999 -0.0945301900000000  0.0800807700000000
  1.5599783199999999  1.9242020300000000  1.7303801100000000
 -0.3541252400000000  3.5298783800000000  3.7397771299999998
 18.4687072800000003  4.9789451099999997  5.5713494499999996
 16.4989817199999997  6.8351335899999999  6.8546279500000002
 14.9163414599999999  8.5778009700000002  8.5325206700000003
 13.4607568200000003 10.0095327800000007 10.2811949899999995
 11.7997308699999994 12.0740249199999994 11.6088025300000002
 10.4138267300000003 13.3939936900000003 13.3315907899999999
  8.6262900200000008 14.9009691499999999 15.2025785700000000
  6.8967147600000001 16.9199681499999990 16.8010544400000015
  5.0640970599999999 18.7205562400000005 18.5274951500000000
  5.2986529400000002 18.2463513199999987  1.6742995000000001
  3.4634558400000000  0.3437405700000000  3.4704451100000000
  1.6134474400000001  1.7272598200000000  5.0925301799999998
  0.1639529900000000  3.3922575400000001  6.9281575899999996
 18.4840865000000001  5.0551028699999998  8.6056103799999999
 16.8387405600000015  6.9358969500000001  9.9660497400000008
 14.9719055900000004  8.1932763200000007 12.0462048900000003
 13.3122616899999997 10.2134562599999992 13.5807857399999996
 11.3096232800000003 11.7521605000000005 15.0579294600000004
 10.1600861099999999 13.4965302200000004 17.1431739299999997
  8.5288305799999993 15.2931953600000003 18.5215251300000006
  6.8949562300000000 16.6050968700000006 20.2288778399999991
  6.7129296600000004 16.6536537500000001  3.6070293100000002
  4.8286598800000000 18.4011116399999999  5.0362363099999996
  3.3809825700000000  0.0392211000000000  6.8609627299999998
  1.6465920000000001  1.3828018700000000  8.7176687499999996
 -0.0842642300000000  3.2411478200000001 10.0893733200000000
 18.5729783899999994  5.2088757200000000 11.8229969300000004
 16.9334336900000011  6.8087485799999996 13.3897669700000002
 14.9880391999999993  8.2637504800000006 15.2509209999999999
 13.4985725199999997 10.1197122900000007 16.7449343699999993
 11.7853268900000003 11.7227770400000004 18.4690709099999992
  9.4274427000000003 13.3008371800000003 20.1298090800000011
  8.3986629900000001 15.2703270500000006  1.5456984499999999
  8.5952074199999995 15.3421155700000007  5.5170070100000004
  6.4690353299999996 16.7747572399999996  6.5459577199999996
  5.1514452200000003 18.5818918400000008  8.0915535199999997
  3.6033832000000001 -0.1791888300000000 10.0185853500000004
  1.8141644900000000  1.6771587100000001 11.8459270900000000
 -0.1148300300000000  3.3332408600000001 13.2711491499999994
 18.7389157900000001  5.3660521499999998 15.3638139500000008
 16.8107445800000015  6.9031166300000004 16.6730810500000004
 15.1966166400000002  8.4116236999999998 18.5228620299999989
 13.6475031300000005 10.1948914500000001 20.0566260199999995
 11.8277830599999998 11.9404289200000004  1.7160648700000001
  9.9420669099999994 13.5952783499999992  3.4477933799999998
  9.8388028100000007 13.7286473400000002  6.9823518800000004
  8.1514589100000006 15.3982731099999999  8.7728228999999995
  6.3106166899999998 17.2735808999999989 10.0690224199999996
  4.8558820000000003 18.7520261800000014 11.9284638500000000
  3.4476402400000001  0.1647531400000000 13.3570708099999997
  1.6079391100000000  1.6759821600000000 15.1881079299999993
 -0.1280148500000000  3.4887198499999998 16.7686461300000005
 18.7986754199999986  5.3766062699999999 18.4824530399999993
 17.1515481899999997  6.8867528800000004 20.2974094100000002
 15.2441482399999995  8.5763720699999997  1.7534005500000001
 13.1492853400000005 10.4292840400000006  3.4040487100000001
 11.6859533599999992 12.0600135999999996  5.4114420399999998
  3.1420163799999998  3.3875342100000001 16.9876949800000006
  1.7413380599999999  5.3429142000000001 18.6781532900000009
 -0.0922229100000000  6.9796889000000002  0.3143665100000000
 18.3736677099999994  8.9328665899999997  1.8084430400000000
 16.6588274900000002 10.0510211500000004  3.5770541400000000
 15.0297071100000004 11.5394595100000004  5.0337975899999998
 13.5601332699999997 13.7129179800000003  6.5575162599999999
 12.2533093199999996 15.1273522000000007  8.3316349499999998
 10.1085441700000001 16.8864211900000001  9.9243679300000007
  8.5390780700000004 18.6208929000000012 11.3513658799999995
  6.9494344999999997 19.9435029399999983 13.5216938199999994
  5.0591422899999996  1.7430296599999999 14.9927737899999993
  5.2339012000000000  1.8265707200000001 18.7757952999999986
  3.3345937999999999  3.3619655900000001 -0.1041096400000000
  1.4070496699999999  5.5252808499999997  1.6744157000000000
 -0.2930283900000000  7.0185247200000003  3.6715100299999999
 18.3812943400000002  8.7938237600000004  5.3995563999999998
 16.7456917400000016  9.9002892599999992  7.1392072100000004
 14.7499955400000005 11.9958540100000004  8.5939281100000002
 13.4187557000000002 13.7842417099999999 10.4755369599999995
 11.6283531599999996 15.4322867200000005 11.8291970600000003
  9.8918549799999997 17.0427097299999986 13.3533785900000002
  8.4949435399999995 18.4306754499999990 15.3647433099999997
  7.0757122399999997 20.5233575200000011 16.5832936400000008
  6.9123981700000003 -0.0230940500000000  0.0045828100000000
  5.1469934700000000  1.7435122500000000  1.3823299300000000
  3.3614004799999999  3.5760188199999998  2.9265205600000002
  1.8076495800000001  5.0136140200000003  5.0075676400000004
 -0.2087693200000000  6.6073009599999999  6.8360090199999997
 18.6296318700000008  8.5132085100000001  8.7673104399999993
 16.5425869100000007 10.4130943499999997 10.1926637099999997
 14.7894564400000004 11.8366532699999993 11.9171445699999996
 13.1428650999999999 13.4158854900000009 13.7196912900000001
 11.2450693299999998 15.0777561799999997 15.2937105199999994
 10.3661310600000007 16.8808325699999990 17.0640598099999998
  8.3867699600000005 18.6726011700000001 18.6470623800000013
  8.6933808500000005 18.1522994599999983  1.7092127800000001
  6.8344885000000000 -0.3832212100000000  3.0632646100000001
  5.2857993299999997  1.6656326200000000  4.9075201499999999
  3.3389861600000001  3.2415598900000000  6.8624709099999999
  1.8087010600000000  5.0327035599999999  8.6740200400000003
  0.0867806500000000  6.5929665999999996 10.2424847999999997
 18.7356013099999998  8.3336310699999991 11.6056638000000003
 16.7911046800000001  9.7233717300000002 13.4752663500000001
 15.3630002500000007 11.7206979300000000 15.0893690500000002
 13.6186871499999995 13.3149717400000007 16.7583011199999987
 11.9808492599999994 14.9113509099999995 18.7847939400000001
 10.5434052099999995 16.8463522599999997 20.1476452399999992
 10.0322440499999992 16.7660741699999996  3.5547580499999998
  8.6537827400000005 18.6960318399999998  5.0199728099999996
  6.8620311300000001 -0.0930918800000000  6.3314617399999999
  5.2654519600000000  1.6116731200000001  8.2413848800000000
  3.7665952599999999  2.9363560799999999  9.9896874400000009
  2.0297553599999998  4.8048162400000001 11.5567922400000000
  0.3836113500000000  6.4608363400000002 13.0938155100000007
 18.7916799800000014  8.4237394200000004 14.9737653399999999
 16.8069041800000001 10.0214321000000002 16.5860894200000004
 15.2075062899999995 11.7070099400000007 18.2108692499999982
 13.7128873099999993 13.2504556900000008 20.1545230500000017
 11.7894845400000001 15.1630768299999996  1.2939103999999999
 11.3760251500000003 15.0462600799999997  5.2312408699999997
  9.8409185299999997 17.0277116500000005  6.9449088500000000
  8.3775280900000002 18.6190102700000004  8.1203717900000001
  6.8373385400000002 -0.1490995300000000  9.7638925699999994
  5.6334485900000004  1.5763112399999999 11.6917348899999993
  3.5247809200000000  3.1684418600000002 13.4121664099999993
  1.7762685100000000  5.0098742400000003 15.1497998599999999
  0.1852637200000000  7.0273397400000004 16.9506303000000003
 18.6052434700000013  8.7372591199999992 18.4075356799999987
 16.5583646900000012 10.2189289300000006 20.1213204200000000
 15.2571157900000003 11.7345555400000006  1.7292908300000001
 13.3334226499999993 13.4129684800000000  3.6328356199999998
  5.3502976899999997  5.1377586099999997 15.2341739199999999
  3.5017816900000001  6.7495675899999998 16.5131052999999994
  1.4302881900000000  8.6534467700000004 18.7849991900000006
  0.0777757300000000 10.3418703300000008 -0.1309460200000000
 18.3829102800000008 11.5427614300000005  1.6347448200000001
 16.7220086499999994 13.6139765700000002  3.3816186099999999
 15.0954371900000002 15.4671611599999999  5.1357797300000003
 13.2508777599999998 17.1785535399999993  6.6064059000000004
 11.6178142599999994 18.9167728100000012  8.3605242999999998
 10.2693689100000007  0.0647639200000000  9.8807282300000008
  8.3277944200000000  1.4384405899999999 11.4493621500000007
  6.9687674800000003  3.0889825900000001 13.5831594399999993
  7.2038552200000003  3.2506940900000001 16.7504503999999983
  5.0433510100000003  5.1089859700000000 18.2942821100000010
  3.5441282300000001  7.2027902399999997  0.0235193300000000
  1.4248619400000000  8.9691463099999993  1.8153038500000001
  0.1739976800000000 10.4580142899999995  3.4757923000000002
 18.2678328999999984 11.7450361399999998  5.1953119299999999
 16.9603896899999995 13.3787847200000005  6.6691053599999996
 14.8777872500000008 15.3583850700000006  8.4846487199999991
 13.5254124400000002 16.9691595399999997  9.9688386999999992
 11.6665712300000006 18.5505442599999988 11.5851535499999994
  9.9062045699999999 20.0513946099999991 13.3251896199999997
  8.9591205299999999  1.5072033899999999 15.1174200100000000
  8.6748263300000001  1.8017893700000001 18.8081514299999988
  6.8769869200000002  3.4402209500000001  0.0868378900000000
  5.0496679499999999  5.0893727599999998  1.4158649100000000
  3.2449167299999999  6.8563494599999997  3.2106866900000002
  1.6273120000000001  8.3991658000000005  5.1893742600000001
 -0.0959796600000000 10.4371709500000005  6.8062898499999998
 18.5098824600000000 11.7784814900000008  8.6425521900000000
 16.7700710700000002 13.7074881200000007  9.9985676699999999
 14.5978136200000002 15.3784832999999992 12.0763580299999997
 13.2724269800000005 16.9868536600000013 13.6343840200000006
 11.5287652499999993 18.8013705800000004 15.1563348799999993
 10.2775753999999999 -0.2648742900000000 17.2560857600000013
 10.2232416500000003  0.1134897800000000 -0.1453443700000000
  8.1467413200000003  1.5930297099999999  1.6787733100000000
  6.8565474499999999  3.5007250100000000  3.4122797000000000
  4.8972229000000000  4.9073995799999999  5.2210274999999999
  3.2018407700000000  6.5765954400000002  7.0497861700000000
  1.3033951399999999  8.5949494099999999  8.4235268100000003
  0.1496812900000000 10.5008065700000000 10.1702480899999994
 18.5480855099999999 12.0269719500000001 11.7991400599999992
 16.6759979800000018 13.5294581500000000 13.2594214899999994
 15.2366093199999995 15.3260403000000007 15.0051297500000000
 13.2921635200000008 16.9924768600000000 17.0681340800000001
 11.9840051899999995 18.5386479299999998 18.7893848599999984
 11.7657160800000007 18.2667541699999987  1.9202369699999999
 10.2198310200000009  0.2778597200000000  2.9511959000000001
  8.4854078200000007  1.6684268200000001  4.8208381400000002
  6.8806990299999997  3.1392220800000001  6.9975942399999997
  5.0702781500000000  5.0806502399999998  8.5266555200000003
  3.6727254999999999  6.9097386700000003  9.9712165899999992
  1.9106576700000000  8.3879483599999993 11.4222621899999996
  0.3723850200000000  9.9295638000000004 13.1417544900000003
 18.7132635200000017 11.6085689999999992 14.6080930900000006
 17.1961092200000003 13.2305041800000005 16.4626669499999991
 15.6260695799999993 14.9433512900000007 17.8346548100000000
 13.8758561500000006 16.4770149000000004 -0.1188219200000000
 13.3338406000000003 16.3929460800000015  3.0958365600000000
 11.5597187699999999 18.4743414699999988  4.7093393700000004
 10.2615506700000001 -0.0456572600000000  6.7766983999999999
  8.3281931700000005  1.6367282100000000  8.2358731600000006
  7.0638068799999996  3.1943169899999999 10.0062383399999995
  5.3785122799999998  4.7241673100000003 12.1084376799999998
  3.5479125699999998  6.5778822100000003 13.3914703700000004
  1.6888627899999999  8.1857024099999993 15.2334196500000001
 -0.0299088300000000 10.3124173599999995 16.5527706899999991
 18.4353399799999984 11.4493974499999993 18.5168776000000008
 17.2047827899999994 13.2685748599999993 -0.1199837800000000
 15.3467133600000007 14.8941959799999992  1.7839000100000000
  6.9360536499999998  6.7277124400000003 13.4061191100000006
  5.1612989000000002  8.5105522100000002 15.2727611000000003
  3.3588051900000000  9.9941019999999998 16.6556424099999987
  1.4522949800000000 11.5118615700000007 18.6539538699999987
  0.1414806200000000 13.1466236500000004  0.0714056100000000
 18.5233139599999994 14.7176547899999992  1.6292260599999999
 16.8948168800000005 16.6025454699999990  3.7227528400000001
 15.1879924299999995 18.5621258400000002  4.7858225000000001
 13.4144374200000005 -0.2305449600000000  6.4129489499999996
 11.9063333999999994  1.9384017300000000  8.1606981500000000
 10.3584319199999992  3.1036909700000002 10.1397666500000003
  8.4967382300000001  4.8040759800000004 11.7960408700000006
  8.6901345800000005  4.9217019200000003 14.8769526299999999
  7.0814701600000003  6.9485802100000003 16.8395882800000010
  5.3251365200000000  8.5618319399999994 18.2288535799999991
  3.5096287799999999  9.9176896499999998  0.2251239300000000
  1.7359805100000001 11.6941971500000008  1.8362458500000001
 -0.1659101200000000 13.1905264199999994  3.2182063799999998
 18.3709458400000010 15.0251801300000007  5.0982608699999998
 16.8294345199999995 16.8619798100000011  7.0722685199999997
 14.9048508200000001 18.6374728500000018  8.4238159600000007
 13.5495035300000009 -0.0284880900000000 10.2172496400000004
 11.7966017799999996  1.4472669899999999 11.9462135499999995
 10.0596008300000008  2.9758123400000001 13.0947884200000004
 10.2420252099999995  3.4614453900000002 16.8726138200000015
  8.6450228599999992  5.0027490999999999 18.8189173200000006
  6.4892148000000001  6.9988115799999999  0.0451531900000000
  5.5402426699999996  8.4432249200000005  1.8202038199999999
  3.8441986600000000 10.0936951700000002  3.3617876299999998
  1.7793108600000000 11.8509979500000000  5.2349053699999999
 -0.1060132200000000 13.4228022399999993  6.5398372000000000
 18.6605510300000006 15.0944175800000000  8.5210708499999992
 16.7960750099999991 16.9286935199999995 10.2339438600000001
 14.9795407100000002 18.6417769299999989 12.0500942099999993
 13.7138445000000004 -0.2191139600000000 13.6850767500000003
 11.6243267699999997  1.3611740500000000 15.3654575300000005
 12.0539062900000005  1.5122249999999999 18.8152113099999987
 10.2957451100000004  3.3822416600000000  0.2319354000000000
  8.4978290600000008  4.9609770500000003  1.8734857199999999
  6.8490605699999998  6.3066966799999999  3.2469560600000000
  5.1492225500000002  8.4168083599999992  4.9607702299999996
  3.6194807800000000 10.2837415700000001  6.8679737000000003
  1.5296897500000000 11.7577905400000002  8.7126921500000005
  0.0905687300000000 13.4745290900000008 10.2902456000000004
 18.6246301599999988 14.9434290399999998 11.7136007400000004
 17.0380274400000005 16.7374785000000017 13.4267824400000002
 15.4075149699999994 18.6770257400000013 14.8608010900000007
 13.7946150400000001  0.0742246200000000 17.1076099100000008
 13.5485514200000008 -0.0054693600000000  0.4535335100000000
 12.1056520899999995  1.8554624399999999  1.7359746000000000
 10.3417410400000005  3.3040645899999999  3.2445635400000001
  8.6214745199999996  4.8342746200000004  5.0541852000000000
  6.8010683700000003  6.5161830900000002  6.3380554000000000
  5.3108303299999999  8.1743619800000005  8.2624838199999999
  3.6956236499999999  9.9655940199999993 10.0137097900000001
  2.2668913499999999 11.8852277399999995 11.8260412400000003
 -0.1159945200000000 13.2292964299999998 13.3705258699999998
 18.9890187499999996 15.1988073499999992 15.1502374599999996
 17.3875674300000007 16.9458641099999987 16.6224225099999998
 15.2913810100000003 18.4314540999999998 18.7501947499999986
 15.2628650700000001 18.2052213599999995  1.8551427400000000
 13.6167187799999994 -0.0422625000000000  3.0703611199999998
 11.8619547700000005  1.4918717800000001  4.6519776999999998
 10.0512633200000003  3.2058625699999999  6.4773387500000004
  8.3546650400000004  4.7466701899999997  8.3253417200000008
  6.8947533200000004  6.5672935700000004 10.1877967399999996
  5.1810360500000003  8.4901782800000003 11.8051254399999994
  3.4630837699999999  9.9588812000000004 13.3775631399999995
  2.0611513200000000 11.7802718199999994 14.5446846700000005
 -0.0476758400000000 13.2958667399999992 16.8064332599999986
 18.8315280200000004 15.1403627600000004 18.6500842499999990
 16.7425025900000009 16.4335124300000004 -0.0779251100000000
  8.8514552099999992  8.3124568100000005 11.4928077399999999
  6.9749447800000004  9.8091219299999999 13.2942179399999993
  5.0318176499999998 11.5751585499999994 14.7549601900000003
  3.4908406599999999 13.5595331699999999 16.7303603299999999
  1.7065319999999999 15.0493077799999995 18.6223237700000013
  0.0866937500000000 16.6106862100000008  0.0669742300000000
 18.6163784499999991 18.1791324600000017  1.8613809800000001
 16.9638534400000012 20.0215621000000006  3.3260329000000000
 15.6324472399999994  1.5587824500000000  5.2431909399999999
 13.3139719299999992  3.2806331399999999  6.5133144200000004
 11.7476663400000003  5.1706691700000000  8.3408289799999995
 10.0356196999999998  6.4209752099999999  9.7804529900000006
 10.0389101499999995  6.5552776000000001 13.2802592399999995
  8.5865496300000004  8.4560131900000002 14.9158355199999999
  6.8045085099999998 10.2013955900000006 16.6785284599999990
  4.9089706299999998 11.6319491599999996 18.3972748099999990
  3.3028379299999999 13.2993416599999996 -0.1670113000000000
  1.7990794400000001 14.9914518500000007  1.7493994799999999
  0.0910619800000000 16.7598050699999988  3.3127910100000002
 18.4278541199999992 18.6323668900000001  5.1042618099999997
 16.8072097999999990 20.0082976700000010  7.0135787699999996
 15.0008114700000004  1.8356469600000000  8.3067407699999993
 13.4603294899999995  3.4216124200000002 10.1374874899999998
 11.9810202399999994  4.9198168300000003 11.8083969700000004
 11.5419714199999994  5.1196489999999999 14.9905622600000008
 10.0904104199999995  6.9139442000000004 16.9137335700000015
  8.5631943899999996  8.3021811000000003 18.4773975700000008
  6.7168160900000000 10.2254753699999998  0.0739967800000000
  5.3300800300000004 11.8768351299999999  1.6669320900000000
  3.4585678899999999 13.4133069099999993  3.1446900699999998
  1.4932005600000000 15.2064358800000008  4.7486591400000000
 -0.0547373800000000 17.0071207300000005  6.7826507500000002
 18.4360460300000000 18.3149436600000008  8.6121899000000006
 16.8065224099999995  0.2368137100000000 10.1200318599999992
 15.2508228900000002  1.8131194200000000 11.6946694999999998
 13.3570183300000007  3.4419907599999999 13.7638556699999999
 13.1938574200000005  3.3088660900000000 16.9041390199999988
 11.6025108899999996  5.1485963000000003 18.7455263199999997
 10.1005014600000003  6.9151124800000003  0.1763467300000000
  8.3189494499999999  8.3662464900000000  2.0948055700000001
  6.4422430400000001 10.2392995800000008  3.4941734000000002
  4.9725862799999998 11.7000788900000003  4.9438676099999999
  3.0617094300000001 13.4499400900000001  6.7968278199999999
  1.3729519100000001 15.1729214399999996  8.3986110800000002
  0.0625598600000000 17.1433193099999990 10.3557976699999994
 18.3894283399999985 18.4619327899999988 12.2830425600000002
 16.7440846699999994 20.4421822599999992 13.2504499599999992
 15.2223732700000003  1.7095878799999999 15.2357022299999993
 15.0695272399999993  1.7893823799999999 18.8447754299999986
 13.3412213600000005  3.5465078000000001 -0.0445651200000000
 11.8118826699999993  5.1661032999999996  1.9067676400000000
 10.2334737100000002  6.8775968299999999  3.6281642500000002
  8.4139496999999999  8.5055737199999992  5.3183158400000003
  6.5486266899999999 10.0794471800000007  6.6168893000000004
  5.2259132599999996 11.7704743900000004  8.4877844899999992
  3.4810531999999998 13.0984917599999999  9.9321558700000008
  1.8956315600000000 15.3043975900000007 11.9061436999999994
  0.2073883600000000 16.9182814599999993 13.3911433700000000
 18.5420226399999990 18.5327501800000007 14.8907194599999997
 16.5096590600000006 20.2527015500000012 16.6878402199999982
 16.6441436899999999 -0.3794349000000000  0.1928934100000000
 15.3531353799999994  1.8908159600000001  1.4656354500000000
 13.7371613400000001  3.4482249899999999  3.5065073899999999
 11.8501852999999997  4.8104940000000003  4.9092914800000003
 10.0341457700000003  6.3371114600000000  6.8774620899999999
  8.1145500199999994  8.1791489500000001  8.2171646599999999
  6.4166292199999999  9.9666172000000000 10.2304527499999995
  4.9676907300000002 11.7097105100000007 12.0531290700000007
  3.6247681100000002 13.9181039000000002 13.6125753199999995
  1.5959242899999999 15.1508546099999997 15.1447797800000004
  0.1377288800000000 16.9680955199999985 16.8253276400000011
 18.3416302599999987 18.4423986800000002 18.7488463400000001
