Li                                      
   1.00000000000000     
    21.6720000000000006    0.0000000000000000    0.0000000000000000
     0.0000000000000000   21.6720000000000006    0.0000000000000000
     0.0000000000000000    0.0000000000000000   21.6720000000000006
   Li
   432
Direct
  0.0237668180140247  0.9888320741048346  0.0181250119970500
  0.9209701555001857  0.0662323195828733  0.0699964876338157
  0.8541125955149482  0.1662001365817645  0.1982090282392051
  0.7581450839793291  0.2815320501107408  0.2426256289221129
  0.6455440937615364  0.3688280809339233  0.3598685317460308
  0.5916846853082305  0.4211992155777011  0.4416538736618705
  0.5044438445921031  0.4812229674234061  0.5032523947951262
  0.4380088515134730  0.5585191772794360  0.5915662070874887
  0.3282368383167196  0.6387207978036145  0.6794657788851950
  0.2437351758028825  0.7447784699150972  0.7478023938722771
  0.1396691726651866  0.8338899349390942  0.8380738353636019
  0.0456725692137354  0.9113304660391321  0.9211651942598778
  0.0919092926356555  0.9085795496493176  0.1038362158545567
  0.9802168567737155  0.0006994416758985  0.1637005047988183
  0.8832090716131447  0.0679146451642652  0.2592634906792171
  0.8293230998523455  0.1874840402362494  0.3004985022148361
  0.7261148181985959  0.2684626531930618  0.4009282548911060
  0.6885387292358800  0.3123078146917706  0.5093366989664077
  0.5993134463824319  0.4163236267995600  0.5653473186600237
  0.5245835617386518  0.4776426398117408  0.6712372162237017
  0.4441614211886318  0.5675504891103742  0.7851417077334801
  0.3263594089147261  0.6575333314876346  0.8433068484680675
  0.2337707618124796  0.7796205975452182  0.9100466528239224
  0.1707249506275375  0.8388186517165011  0.0163704697305249
  0.1627428165374667  0.8446396770025828  0.1866877620893348
  0.0733455790882260  0.9282420108896261  0.2442870579549634
  0.9804473232742694  0.9939746271686971  0.3336578017718708
  0.8873421290143995  0.0725426416574351  0.4233718803063837
  0.8087114377999285  0.1704394767441855  0.4662470035068296
  0.7781565780730872  0.2607926822628244  0.6017230592469573
  0.6737187933739364  0.3203705837024700  0.6462260068290888
  0.5955483204134353  0.4115167769472095  0.7464557650424481
  0.4957451822628300  0.4924652930047984  0.8585641782022861
  0.4248619066076031  0.6235585049833858  0.8757575295311923
  0.3232440310077536  0.6715329212809138  0.9721974976928749
  0.2331080984680725  0.7586037453857486  0.0813551818014062
  0.2113243696936138  0.7629487610741990  0.2481983679401978
  0.1713765780730867  0.8468717201919560  0.3176647586747876
  0.0591011235695831  0.9064288667404981  0.4137755661683258
  0.9965001499630830  0.0040435312846085  0.5218788810446640
  0.8818455767811031  0.0777107807308965  0.5494646340900715
  0.8239468503137672  0.1603044070690274  0.6753927122554444
  0.7470347868217075  0.2635675018456993  0.6943968004798791
  0.6993104535806580  0.3092339211886284  0.8187206856773699
  0.6075456247692870  0.4016354180509438  0.9250797623661882
  0.4767872872831305  0.4910499524732401  0.9835096719269103
  0.3990183540974499  0.5986994725913632  0.0685849187892202
  0.2992041754337365  0.6922229595791833  0.1516357050572168
  0.3193746497785170  0.6777890471576242  0.3483881533776270
  0.2335868641565142  0.7692557004429688  0.4039714880952374
  0.1670517428017746  0.8470836069582859  0.5221835483573258
  0.0742787412329307  0.9145734814507165  0.5906232295127367
  0.9854864447212961  0.0155981478405280  0.6626860986526424
  0.8984065485418995  0.0817271585455899  0.7492338252122579
  0.8157916980435616  0.1864023315799201  0.8123171220930203
  0.7702437029346640  0.2436566961978599  0.9357348075858241
  0.7007422960502012  0.3515654771133256  0.9871389382613529
  0.5500246059431504  0.4146250816722059  0.0657459542266494
  0.4790487416943492  0.4955924021779268  0.1570732742709495
  0.3897880878552940  0.6010053636028090  0.2521754365079332
  0.4473476398117384  0.5929153137689198  0.4147466689737911
  0.3562427939276489  0.6579034786821722  0.4896851656515295
  0.2470222319121476  0.7361143369324452  0.5829071423957188
  0.1766821188630487  0.8469903792912490  0.6792857655038773
  0.0548273957179788  0.9193542783314896  0.7619610552787037
  0.9994803765227047  0.9983411023440354  0.8284227085640481
  0.9140536812476938  0.0861256815245497  0.9130353433001090
  0.8467514318014011  0.1596350101513480  0.0110696973052811
  0.7767102740863763  0.2502987440014763  0.0689302625507580
  0.6829904711147989  0.3577512583056475  0.1382023906423058
  0.5871593618493876  0.4085364894795163  0.2418434971391648
  0.5256022056109231  0.4824622743632361  0.3371740859173116
  0.0682334477667013  0.0845345293466195  0.9114927081026210
  0.9955128031561458  0.1547028926725744  0.9987230186415630
  0.9284688939645633  0.2215849086378725  0.0858729157438134
  0.8579165130121851  0.3339992344961260  0.1525516495939456
  0.7600603229974183  0.4316229069767417  0.2608899570874854
  0.6499682073643385  0.5002448818752327  0.3368267174234063
  0.5861498122000768  0.5739447951273533  0.4581453419158379
  0.4863877177925460  0.6950653502214834  0.4974911710963426
  0.3969242488002962  0.7550718876891835  0.5991256473791040
  0.2941290328534549  0.8417496179402022  0.6940797143779989
  0.2460199266334442  0.9388799054079016  0.7811499183277988
  0.1458984066998923  0.0007816237541505  0.8195925189184194
  0.1382047720561062  0.9993092543373905  0.9712677334809925
  0.0841187177002567  0.1019026490402339  0.0865230080287915
  0.9864180749354006  0.1190987966039145  0.2067675544481347
  0.9364226651901078  0.2725454738833548  0.2611085225175316
  0.8264496174787723  0.3609388528977462  0.3202741629752666
  0.7722333194905886  0.4373316380583248  0.4156591901993352
  0.6804303059246948  0.4769617049649284  0.4782022148394276
  0.5728581690660732  0.5815861037283128  0.5631530550941335
  0.4944607078257661  0.6605739267257320  0.6545198186600203
  0.4096435202104090  0.7500200087670734  0.7370782027500908
  0.3521545787190874  0.8337232830380188  0.8203843632336643
  0.2209690134736064  0.9249942026578069  0.9026793498523418
  0.2579318429309723  0.9443573306570698  0.0964803322259158
  0.1571455043373930  0.0222663201365805  0.1620857129014368
  0.0733687993724601  0.0762369758213381  0.2716675756736819
  0.9780634772978942  0.1683212029346635  0.3177578059246926
  0.9378167967884821  0.2490059616094484  0.3721135958840875
  0.8608809339239585  0.3335470907161309  0.4886688076781098
  0.7458861254152822  0.4311057668881517  0.6020363099852375
  0.6603441878922141  0.5060512389257994  0.6629394019933557
  0.5752130998523413  0.5542136180324846  0.7517054531192287
  0.5071581782945742  0.6720923454226622  0.8401959648394239
  0.4248182212070901  0.7530501656515298  0.9017313667404920
  0.3485907082871904  0.8420853303802147  0.9732360026762663
  0.3468511614064198  0.8285139876338121  0.1545459911406439
  0.2351305006459938  0.9347330057216681  0.2359379494278357
  0.1586373458840882  0.9903667381875252  0.3512344301402734
  0.0435925203026954  0.0558472203765206  0.4071683947028433
  0.0029577985418996  0.1629812739940917  0.4993777431709105
  0.8954035418973803  0.2601441883536353  0.5634756446105555
  0.8368558181063150  0.3377595436507903  0.6753019153746749
  0.7452352113325986  0.4268610566629718  0.7542225909007030
  0.6872466311369507  0.4918337970653397  0.8336321027131817
  0.5866530075673708  0.5708154531192307  0.9096764627168668
  0.5078616440568453  0.6630326148947958  0.0030059634551520
  0.3936913925802870  0.7247176628829806  0.0676547872831321
  0.4194272189922472  0.7377378391472860  0.2373522319121477
  0.3202724824658532  0.8160460372831295  0.3288736955518630
  0.2502855121816197  0.9184043909191573  0.4170414848652655
  0.1519562763012203  0.0041482013658154  0.5041545247323711
  0.0737579452750126  0.1113765120893291  0.5889296719269126
  0.9968823241971236  0.1497483254891137  0.6543674215577724
  0.9492420916389790  0.2298172563676601  0.7291162375415254
  0.8340769910483559  0.3290816689737923  0.7919030657069044
  0.7853224723145047  0.4234488888888919  0.8980043032484275
  0.6779567395717976  0.4848901859542281  0.9944812550756765
  0.5614949810815801  0.5475679489664103  0.0487478829826529
  0.4846217603359193  0.6495379886489445  0.1117743180140280
  0.4976148025101494  0.6582647093023226  0.3246933254891076
  0.4214543258582495  0.7798053257659632  0.4146352828534532
  0.3391259177740835  0.8276161378737541  0.5118519647471373
  0.2630912966039105  0.9271357844222976  0.5924935465116263
  0.1497369319859700  0.9912986692506465  0.6794505407899578
  0.0649516980435578  0.0719209228497633  0.7422839041159079
  0.0048608388704352  0.1712679314322614  0.8183744135289786
  0.9103717741786639  0.2404044038390580  0.9172828576042846
  0.8556596110188295  0.3364541869693625  0.9967918189368774
  0.7645890494647460  0.4106753017718745  0.0765838695090437
  0.6534170907161325  0.5276315388519777  0.1447271091731253
  0.5528117321889994  0.5927174395533399  0.2631026721114793
  0.1353550558324130  0.1560241182170543  0.8161726670358078
  0.0690617238833511  0.2507673172757450  0.9201132470468778
  0.0142903317644922  0.3482828146917711  0.9954075765965271
  0.9272568609265406  0.4013299054078985  0.0789305546327057
  0.8432339451827247  0.4832310658914736  0.1601172946659304
  0.7438615208564059  0.5770342354189708  0.2422165462347721
  0.6399472162236961  0.6510194688999604  0.3329302131782939
  0.5845238026024333  0.7546307834994437  0.4137168235511268
  0.4840610428202297  0.8531329881875251  0.5015048301956426
  0.4116987343115568  0.9339843018641574  0.5885569015319305
  0.3131593549280183  0.0285028640642295  0.6520143456995200
  0.2412100862864506  0.0732797937430760  0.7539348218899988
  0.2364064377999284  0.0903371566998885  0.8855505532484287
  0.1587101984126988  0.1645556413805807  0.9985346940753033
  0.0673267820228887  0.2208647231450698  0.0967100175341429
  0.0086610031376892  0.3543494859726835  0.1680173592654128
  0.9189249409376146  0.4216455481727550  0.2297093706164617
  0.8372138856589117  0.5153626748800306  0.3093946811554105
  0.7557656256921348  0.5952772037652281  0.4175785289774794
  0.6523831709117758  0.6584547217607977  0.5123983702473254
  0.5507744204503524  0.7660248214285730  0.5884555970837937
  0.4876938971945393  0.8549491703580685  0.6739407225913610
  0.4045289018087885  0.8937396313215231  0.7531260594315228
  0.3220872803617567  0.9875054323551140  0.8325158305647875
  0.3111725101513443  0.9841619227574725  0.0008965914544135
  0.2457629457364305  0.1171520099667802  0.0483983545588771
  0.1736911471022538  0.1642194855112606  0.1699860091362098
  0.0862826411960143  0.2792108831672238  0.2472037606127699
  0.0205372614433372  0.3748405837024720  0.3148278400701372
  0.9329814354927990  0.4268941929678860  0.4106183693244745
  0.8417505287929146  0.5053022637504583  0.5210971428571440
  0.7527380237172423  0.5728568138612005  0.5526760649686224
  0.6590816758951661  0.6452192815614595  0.6648291200627554
  0.5684934925249152  0.7276382073643433  0.7416299049464712
  0.4821004425064572  0.8081905435585099  0.8104156672203757
  0.4249142806386104  0.9604385880398638  0.9356784177740849
  0.4494230790882270  0.9369410622000771  0.0951250346068662
  0.3415272319121456  0.0262056732188967  0.1715547369878152
  0.2488432618124747  0.0934509699150965  0.2362036817091209
  0.1326446802325592  0.1466810635843458  0.3315093184754545
  0.0753737624584687  0.2491710248246619  0.4152834034699140
  0.9819868355481702  0.3124577948504950  0.4758051268918422
  0.9095346322443731  0.3968441408268717  0.5880602897748233
  0.8489248218899945  0.4862274247877423  0.6733600669066107
  0.7418928428386877  0.5944286078811345  0.7357432751937978
  0.6603605366371355  0.6694085183647118  0.8470689700996701
  0.5924957959579160  0.7481010202104130  0.9314529586563296
  0.5133343253968263  0.8427167534145426  0.9940992141934260
  0.4907019398301955  0.8208174423218892  0.1590937703026967
  0.4125898920265811  0.9219855200258422  0.2575051398117409
  0.3231215863787398  0.9969103262273933  0.3107685861941647
  0.2372132548911026  0.0858536567921746  0.4022291089885570
  0.1327430910852740  0.1487252311738629  0.4837953511443303
  0.0913658568660054  0.2376586618678473  0.5748687177002552
  0.9847411572536018  0.3173905744739756  0.6676855246400919
  0.9412323887966068  0.4320757438169096  0.7717040642303417
  0.8415551296603923  0.5326455823181959  0.8350819804355822
  0.7592784749907722  0.5947294116832751  0.9054364677925406
  0.6579319527500900  0.6534050669066076  0.9999067068106342
  0.5809472272978979  0.7450666989664114  0.0617749104835710
  0.5616750733665583  0.7210176084348490  0.1958692603359182
  0.5275127703949778  0.8456185931155389  0.3080519439830169
  0.4292468604651134  0.9244896668512368  0.3884325835179041
  0.3432174570874835  0.0316120155038746  0.4886797535991150
  0.2253343327796244  0.0855231524547833  0.5950174150978214
  0.2000557396640801  0.1792436134182367  0.6673727256367670
  0.0582100696751553  0.2331572928202306  0.7266994545957886
  0.0168352127168703  0.3091941694352158  0.8085854323551160
  0.9300448140457718  0.4123413012181629  0.9074710944998188
  0.8302719296788510  0.5032169499815424  0.9893822762089357
  0.7471170810262109  0.6029750622923586  0.0769311009597615
  0.6339620182724275  0.6217169767441888  0.1461348440383929
  0.2238585299003333  0.2482456769103010  0.7188994536729396
  0.1589434191583621  0.3299827044112220  0.8115206127722416
  0.0859823006644547  0.4160819236803235  0.8925431755260220
  0.0004958107235140  0.4960358993170928  0.9920486946290126
  0.9338381016980435  0.5780693595422690  0.1140404046696233
  0.8322338478220743  0.6761396474713948  0.1583598112772222
  0.7398532756552214  0.7209112827611648  0.2368170496493178
  0.6673610728128452  0.8052546340900690  0.3144770011997053
  0.5791376518087858  0.9121565402362464  0.4240497549833862
  0.5285717428017733  0.9845977916205229  0.5149280813953467
  0.4008110894241383  0.0839980366371336  0.5903058374861558
  0.3171820464193402  0.1525871806939847  0.6728038044481366
  0.3327276093576970  0.1909593267810976  0.8241794176818047
  0.2138198500369128  0.2328906206164660  0.9015354886489462
  0.1570737832225930  0.3177161484865252  0.0181198726467358
  0.1057335598929470  0.4306028225359881  0.0908508356404596
  0.0308177141011470  0.5136550747508295  0.1724002814691801
  0.9281983457918059  0.5747232013658206  0.2619567248062040
  0.8523073389627172  0.6524738584348455  0.3541026430417133
  0.7354919033776284  0.7234485294389046  0.4425740180878535
  0.6564178732927246  0.8302172268364743  0.5075207087486149
  0.5792655103359152  0.9320667506459941  0.6066299810815821
  0.4825215873015907  0.0236350512181644  0.6879982041343666
  0.3810373994093794  0.0733375890550008  0.7800446442414142
  0.4076980158730166  0.0886354332779646  0.9046861157253616
  0.3486010843484664  0.1810386069582890  0.9913704628091580
  0.2562664521041000  0.2140650152270211  0.0998129840346991
  0.1979150207641212  0.3201831575304510  0.1575290863787373
  0.1015768586194170  0.4141646673126615  0.2330312601513498
  0.0148463556663003  0.4920628589885538  0.3301350909007041
  0.9435782452011807  0.5661559643779981  0.4165081506090829
  0.8188236438722782  0.6516276522702071  0.5072195044296777
  0.7527249677002601  0.7288379401993339  0.5797079637320053
  0.6810186166482097  0.8164205938538203  0.6739628631413837
  0.5808241514396428  0.9595441989664053  0.7415141615909917
  0.5087202763935039  0.0027382599667760  0.8541843646179430
  0.5078293959948326  0.0191079554263567  0.0076798929494259
  0.3874789138058290  0.0802694582871908  0.0738973818752342
  0.3293762735326666  0.1590950844407502  0.1814145044296822
  0.2687460534329986  0.2529408259505317  0.2722767132705783
  0.1886807216685114  0.3395665490033224  0.3521812790697680
  0.1014503935954210  0.4140110718899948  0.4423954023624930
  0.0195085128276133  0.4924961028054611  0.5157827722406765
  0.9618455541712834  0.5765485594315223  0.5657433319490579
  0.8158550050756759  0.6605464013473608  0.6437683688630500
  0.7542805564784061  0.7362061392580301  0.7532972097637511
  0.6536369333702439  0.8306769287559987  0.8040298491140661
  0.5928663039867104  0.9384999118678508  0.9314139876338103
  0.5744778137689153  0.9283483647102244  0.0726075692137300
  0.5078744389073435  0.0167298929494279  0.1948689101144367
  0.4370835686600216  0.0961129614248790  0.2883114073458870
  0.3350312416943524  0.1200360700442999  0.3464338284422297
  0.2539864954780384  0.2336158504060535  0.4149519010705092
  0.1486035778885224  0.3242330975452177  0.5132874861572532
  0.0717042206533804  0.3972373615725360  0.5695158176448842
  0.9916358790143960  0.5032345722591387  0.6617378285345126
  0.9082957276670385  0.6082655246400890  0.7453266214470275
  0.8277425410668116  0.6858608462532274  0.8311128705241799
  0.7221450807493568  0.7586573528054643  0.9191837643041723
  0.6797648689553313  0.8397596830011054  0.0071077431709128
  0.6799894061461771  0.8284611332595020  0.1516799409376119
  0.6012200226098159  0.8983237384643772  0.2203791998892584
  0.5177351033591719  0.0172709879106705  0.3146142958656313
  0.4583527736249522  0.0849281912144733  0.4047550466039098
  0.3264393743078600  0.1319110585086776  0.5099357673495746
  0.2532559883720964  0.2381691578995913  0.5682640568475463
  0.1842134819121455  0.3234024709302332  0.6823409205426358
  0.0705943364710251  0.4365712624584717  0.7639613552048701
  0.0203759819121458  0.5517194139904049  0.8539095371908445
  0.9314907775009260  0.6133503534514588  0.9404801887227734
  0.8418699607788867  0.6524949852344051  0.0010866329826484
  0.7413590310077538  0.7196419329088215  0.0654811272609805
  0.3375162703026930  0.3402039364156479  0.6589395441122150
  0.2450474044850495  0.4291022046880784  0.7398203645256558
  0.1706729771133269  0.4908680412513817  0.8264819578257629
  0.1251254042081982  0.5885596234772947  0.9670780107973442
  0.0088446903839028  0.6904020441122185  0.0057781658361051
  0.9092652113325954  0.7445718207825749  0.0638605403285339
  0.8340443973791096  0.7947428059246988  0.1399010391288300
  0.7498563390550004  0.8953932350498306  0.2407202625507594
  0.6669441662052407  0.0010054706533751  0.3276037463086041
  0.5907559159283835  0.1063920528792934  0.4253579835732708
  0.5063281976744207  0.1574909256183119  0.5238312416943529
  0.3949752196382406  0.2218328580657101  0.5772133328719065
  0.4263386817091188  0.2712251928755975  0.7296953502214834
  0.3213772208379453  0.3011771566998860  0.8334875558324129
  0.2324566422111474  0.3958210483573268  0.8949203119232152
  0.1756926315060880  0.4845391468253979  0.9878194296788507
  0.1038207682724277  0.5872748052787031  0.0756298149686216
  0.0079874413990382  0.7010053460686620  0.1612793863049120
  0.9138575166112943  0.7477610525101497  0.2621391943521587
  0.8193001504245103  0.8070188256736799  0.3497047120708743
  0.7138715277777763  0.9052769896640811  0.4145639234957557
  0.6723565448505013  0.0254644232188994  0.5230948514211917
  0.5835598961794020  0.0831432881136962  0.5921762767626433
  0.4781973767995567  0.1661209500738252  0.6599479577334790
  0.5089393489294949  0.1687664950166123  0.8292630970837962
  0.4400485358988533  0.2717037412329262  0.9220044246031733
  0.3214664124215574  0.3044039876338118  0.9827599760059087
  0.2429851255075661  0.4449007548911013  0.0979863685861915
  0.2012164825581380  0.5133287153931363  0.1747857396640811
  0.1037365254706515  0.5924031718346257  0.2331243350867496
  0.0139157013658178  0.6591917451088989  0.3425625115356254
  0.9273057299741581  0.7478631330749366  0.4279839710225204
  0.8279158314876369  0.8408003949796949  0.5066760215946857
  0.7262192640273142  0.9047003373015841  0.5692562555370984
  0.6769941865079332  0.0186292811000399  0.6864098795681031
  0.5763674007936501  0.1008913298265028  0.7500453959025464
  0.5599222083794757  0.0884689516426747  0.9235554434293078
  0.5288290411590992  0.1684049543189374  0.0041309459210055
  0.4052777233296396  0.2593000927464004  0.1101301384274649
  0.3308685691214492  0.3024984459210032  0.1593823823366591
  0.2822711590992952  0.4315888349021790  0.2712007115171673
  0.1825898371170140  0.4972279318936899  0.3387251495016628
  0.1006346211701725  0.5909850941306729  0.4358065619232221
  0.0297463275193763  0.6763743766149872  0.5137052593207798
  0.9172081035437429  0.7472611281838297  0.5873555610926573
  0.8262623740310104  0.8624570994832013  0.6724085123661894
  0.7487912873754183  0.9264001873385013  0.7807534417681836
  0.6495319781284579  0.0274963884274655  0.8388214996308605
  0.6774090960686578  0.0124099224806216  0.0125558342561831
  0.5921329060538909  0.0817358517903273  0.1295448348098915
  0.4985012822997419  0.1826351042820207  0.1807504881875204
  0.4021662712255463  0.2486489645625696  0.2642166491325213
  0.3517149538575097  0.3279315346991538  0.3362490942229570
  0.2685042201919501  0.4220764036544864  0.4272709865263948
  0.1828013422849750  0.4963658217977098  0.5379349529346626
  0.0922635672757508  0.5769073098929525  0.5718266089885589
  0.0114521765411624  0.6756552191768179  0.6727462827611674
  0.9113298583425617  0.7363437813768883  0.7433063307493555
  0.8299127865448526  0.8362040554632699  0.8626888164451856
  0.7220047420634899  0.9166548140457706  0.9153103460686580
  0.7514633873200438  0.9153736849390910  0.0750049700073845
  0.6792636148025082  0.9993802920819519  0.1853996119416763
  0.5914712504614243  0.0945239876338135  0.2796906741417473
  0.5165016966592830  0.1731574617017344  0.3662929231266148
  0.4193847960502026  0.2382116357511990  0.4539598883351772
  0.3253969864341073  0.3243475530638591  0.5070126467331093
  0.2601044675156885  0.4053907498154317  0.5980615886858587
  0.1459562301587312  0.5058086794019943  0.6506267524916964
  0.0708230610926535  0.5968090882244397  0.7732912250830566
  0.0117166477482442  0.6721303423772582  0.8378652422480641
  0.9169140997600564  0.7602516260612759  0.8872393595422636
  0.8246115900701341  0.8235108407161320  0.9702748980251030
  0.4129993886120360  0.4224719024547809  0.5882196594684359
  0.3260123449612422  0.5147050742894024  0.6680669956626062
  0.2171480287929128  0.5839144241417529  0.7433174603174635
  0.1412812873754135  0.6633788598191188  0.8418365000922847
  0.0891410405131055  0.7771968540051688  0.9538918987633807
  0.9555205758582517  0.8518082733480981  0.0130070441122214
  0.9171698795681067  0.8897999810815804  0.0956191366740526
  0.8353172143780014  0.0117178926725714  0.1781661415651499
  0.7343972102251755  0.0997523172757440  0.2790005061830954
  0.6640049072535987  0.1839573444998166  0.3748852325581424
  0.5662157687338478  0.2629372877445562  0.4378661890919133
  0.4846559210040624  0.3338130943152464  0.5071508573274244
  0.5181726698043576  0.3200728903654451  0.6544815559246970
  0.4250060511258766  0.4253139350313759  0.7524122046880777
  0.3367392423403501  0.5082536314138082  0.8426091016057597
  0.2347471257844234  0.5911142903285338  0.8872670584163913
  0.1902095376522723  0.6480810086747866  0.9968323417312632
  0.0825055735511242  0.7697982996493167  0.0716349736987851
  0.0165448601882616  0.8075051425802897  0.1648647549833910
  0.9119652920819519  0.8807876476559642  0.2501785829641960
  0.8292700313768933  0.9748943909191610  0.3122177081026223
  0.7501477528608334  0.0844131146179379  0.3851318941491328
  0.7000875673680298  0.1452538750461443  0.5331482742709497
  0.5946240153193045  0.2268313639719466  0.5900121202473230
  0.5969883633259485  0.2636713427463988  0.7275121087117000
  0.4954511526393475  0.3406759113141362  0.7983668724621609
  0.4152804365079348  0.4017982807308940  0.9018219006090789
  0.3291244882798097  0.5206913436692489  0.9593157308970106
  0.2628003156146193  0.5609558785529742  0.0605834786821688
  0.1971533222591333  0.6710167128091555  0.1583905071059419
  0.0865989959394611  0.7406723458840929  0.2464979203580668
  0.0045833637873756  0.8066929701919534  0.3341609473052785
  0.9031684482281293  0.9237163690476180  0.4239202948504968
  0.8092962052417860  0.9636074866186775  0.4898655324843091
  0.7791424427833178  0.0879639216500578  0.6018818161683299
  0.6688140748431124  0.1371135040605367  0.6879355098744924
  0.6811747033038031  0.1739651005906211  0.8258796354743438
  0.5915328603728298  0.2609729148209681  0.9116439544112183
  0.5206631335363596  0.3217680578626769  0.0192347153008470
  0.3904929784975977  0.4085512486157228  0.0911909685308245
  0.3415311424880016  0.5488516228313003  0.1769687320044326
  0.2515320833333305  0.6127445067368029  0.2674106399963065
  0.1678419933554807  0.6598513293650825  0.3334775350682904
  0.0995754443521619  0.7699032521225533  0.4309806279992614
  0.9797469379844941  0.8347725161498687  0.4992402233296431
  0.9184758342561850  0.9171599003322228  0.5611556289221085
  0.8514004568106301  0.9758314405684771  0.6564045196566966
  0.7608033568659991  0.0575147046880744  0.7719201172019226
  0.7677174709302292  0.0746996756183123  0.9194627888519733
  0.6556221825396804  0.1747593733850152  0.9978866823551158
  0.5975057345884096  0.2477743166297515  0.0775547383720934
  0.5087376711886336  0.3276730135658923  0.1924288496677775
  0.4240140213178307  0.4162011004983412  0.2288808093392376
  0.3458303151531936  0.4991167483388708  0.3224176448874090
  0.2796567990956049  0.5582997568290864  0.4121888335179023
  0.1956559906792208  0.6620626693429301  0.5342799773901774
  0.0778756593761543  0.7846254992617219  0.5945083167220346
  0.9741824307862714  0.8432264285714268  0.6604160188261332
  0.9244666403654449  0.8929536217238834  0.7543109473052780
  0.8725749870800996  0.9870109228497626  0.8636862121631594
  0.8302105966223721  0.0044182650424531  0.0205514677925436
  0.7523926919527497  0.0811826130490942  0.1189595759505337
  0.6898010806570696  0.1720999501661140  0.1901980181801406
  0.6030985811184948  0.2613981935215932  0.2708668835363568
  0.5272807793466256  0.3349294024547831  0.3749799833887053
  0.4196228820597980  0.4140187486157245  0.4409686923218885
  0.3305521816168309  0.4969661480251020  0.5027446548541903
  0.2671838875046149  0.5648015794573666  0.5659762615356243
  0.1645687555370969  0.6651491800479903  0.6614624261720223
  0.0891148966408295  0.7714971031746032  0.7550957267441873
  0.9962004346622351  0.8049667363418251  0.8389189940937598
  0.8928529803432994  0.9220231935215963  0.9409304245108885
 
  0.00000000E+00  0.00000000E+00  0.00000000E+00
  0.00000000E+00  0.00000000E+00  0.00000000E+00
  0.00000000E+00  0.00000000E+00  0.00000000E+00
  0.00000000E+00  0.00000000E+00  0.00000000E+00
  0.00000000E+00  0.00000000E+00  0.00000000E+00
  0.00000000E+00  0.00000000E+00  0.00000000E+00
  0.00000000E+00  0.00000000E+00  0.00000000E+00
  0.00000000E+00  0.00000000E+00  0.00000000E+00
  0.00000000E+00  0.00000000E+00  0.00000000E+00
  0.00000000E+00  0.00000000E+00  0.00000000E+00
  0.00000000E+00  0.00000000E+00  0.00000000E+00
  0.00000000E+00  0.00000000E+00  0.00000000E+00
  0.00000000E+00  0.00000000E+00  0.00000000E+00
  0.00000000E+00  0.00000000E+00  0.00000000E+00
  0.00000000E+00  0.00000000E+00  0.00000000E+00
  0.00000000E+00  0.00000000E+00  0.00000000E+00
  0.00000000E+00  0.00000000E+00  0.00000000E+00
  0.00000000E+00  0.00000000E+00  0.00000000E+00
  0.00000000E+00  0.00000000E+00  0.00000000E+00
  0.00000000E+00  0.00000000E+00  0.00000000E+00
  0.00000000E+00  0.00000000E+00  0.00000000E+00
  0.00000000E+00  0.00000000E+00  0.00000000E+00
  0.00000000E+00  0.00000000E+00  0.00000000E+00
  0.00000000E+00  0.00000000E+00  0.00000000E+00
  0.00000000E+00  0.00000000E+00  0.00000000E+00
  0.00000000E+00  0.00000000E+00  0.00000000E+00
  0.00000000E+00  0.00000000E+00  0.00000000E+00
  0.00000000E+00  0.00000000E+00  0.00000000E+00
  0.00000000E+00  0.00000000E+00  0.00000000E+00
  0.00000000E+00  0.00000000E+00  0.00000000E+00
  0.00000000E+00  0.00000000E+00  0.00000000E+00
  0.00000000E+00  0.00000000E+00  0.00000000E+00
  0.00000000E+00  0.00000000E+00  0.00000000E+00
  0.00000000E+00  0.00000000E+00  0.00000000E+00
  0.00000000E+00  0.00000000E+00  0.00000000E+00
  0.00000000E+00  0.00000000E+00  0.00000000E+00
  0.00000000E+00  0.00000000E+00  0.00000000E+00
  0.00000000E+00  0.00000000E+00  0.00000000E+00
  0.00000000E+00  0.00000000E+00  0.00000000E+00
  0.00000000E+00  0.00000000E+00  0.00000000E+00
  0.00000000E+00  0.00000000E+00  0.00000000E+00
  0.00000000E+00  0.00000000E+00  0.00000000E+00
  0.00000000E+00  0.00000000E+00  0.00000000E+00
  0.00000000E+00  0.00000000E+00  0.00000000E+00
  0.00000000E+00  0.00000000E+00  0.00000000E+00
  0.00000000E+00  0.00000000E+00  0.00000000E+00
  0.00000000E+00  0.00000000E+00  0.00000000E+00
  0.00000000E+00  0.00000000E+00  0.00000000E+00
  0.00000000E+00  0.00000000E+00  0.00000000E+00
  0.00000000E+00  0.00000000E+00  0.00000000E+00
  0.00000000E+00  0.00000000E+00  0.00000000E+00
  0.00000000E+00  0.00000000E+00  0.00000000E+00
  0.00000000E+00  0.00000000E+00  0.00000000E+00
  0.00000000E+00  0.00000000E+00  0.00000000E+00
  0.00000000E+00  0.00000000E+00  0.00000000E+00
  0.00000000E+00  0.00000000E+00  0.00000000E+00
  0.00000000E+00  0.00000000E+00  0.00000000E+00
  0.00000000E+00  0.00000000E+00  0.00000000E+00
  0.00000000E+00  0.00000000E+00  0.00000000E+00
  0.00000000E+00  0.00000000E+00  0.00000000E+00
  0.00000000E+00  0.00000000E+00  0.00000000E+00
  0.00000000E+00  0.00000000E+00  0.00000000E+00
  0.00000000E+00  0.00000000E+00  0.00000000E+00
  0.00000000E+00  0.00000000E+00  0.00000000E+00
  0.00000000E+00  0.00000000E+00  0.00000000E+00
  0.00000000E+00  0.00000000E+00  0.00000000E+00
  0.00000000E+00  0.00000000E+00  0.00000000E+00
  0.00000000E+00  0.00000000E+00  0.00000000E+00