Li 
 1.0000000000000000
    21.6720000000000006    0.0000000000000000    0.0000000000000000
     0.0000000000000000   21.6720000000000006    0.0000000000000000
     0.0000000000000000    0.0000000000000000   21.6720000000000006
 Li 
 432
Cartesian
  0.5150744800000000 -0.2420312900000000  0.3928052600000000
 19.9592652100000016  1.4353868299999999  1.5169638800000000
 18.5103281700000011  3.6018893599999999  4.2955860599999998
 16.4305202600000015  6.1013625899999999  5.2581826300000003
 13.9902315999999995  7.9932421700000003  7.7990708199999998
 12.8229904999999995  9.1282294000000004  9.5715227499999997
 10.9323069999999998 10.4290641500000003 10.9064858999999998
  9.4925278300000002 12.1042276100000006 12.8204228400000009
  7.1135487599999996 13.8423571299999999 14.7253823599999993
  5.2822287299999999 16.1408389999999997 16.2063734799999999
  3.0269103099999999 18.0720626700000011 18.1627361600000015
  0.9898159200000000 19.7503538600000006 19.9634920899999990
  1.9918581900000001 19.6907360000000011  2.2503384700000000
 -0.4287402800000000  0.0151583000000000  3.5477173400000002
 19.1409069999999986  1.4718461899999999  5.6187583700000001
 17.9730902199999996  4.0631541200000001  6.5124035400000002
 15.7363603399999992  5.8181226199999996  8.6889171399999992
 14.9220113399999992  6.7683349599999998 11.0383449400000000
 12.9883210099999999  9.0225656399999998 12.2522070900000006
 11.3687749500000006 10.3514712899999992 14.5470529499999994
  9.6258663200000001 12.2999542000000002 17.0155910900000009
  7.0728611099999998 14.2500623599999994 18.2761460199999988
  5.0662799500000002 16.8959375899999991 19.7225310600000014
  3.6999511300000001 18.1788778200000003  0.3547808200000000
  3.5269623200000000 18.3050310799999991  4.0458971799999999
  1.5895453900000001 20.1168608599999992  5.2941891200000004
 -0.4237456100000000 -0.1305818800000000  7.2310318799999997
 19.2304786199999995  1.5721441300000001  9.1753153899999997
 17.5263942800000017  3.6937643400000000 10.1045050599999993
 16.8642093600000003  5.6518990100000002 13.0405421399999994
 14.6008336900000000  6.9430712899999998 14.0050100200000003
 12.9067232000000001  8.9183915900000006 16.1771893400000017
 10.7437895900000004 10.6727078300000002 18.6068028699999992
  9.2076072399999997 13.5137599200000000 18.9794171799999987
  7.0053446399999997 14.5534614700000002 21.0694641699999998
  5.0519187099999998 16.4404603700000003  1.7631295000000000
  4.5798217399999999 16.5346255500000012  5.3789550300000002
  3.7140732000000001 18.3534039200000016  6.8844306499999997
  1.2808395500000000 19.6441264000000011  8.9673440699999993
 -0.0758487500000000  0.0876314100000000 11.3101591100000007
 19.1113573400000014  1.6841480400000000 11.9079975499999993
 17.8565761400000014  3.4741171099999999 14.6371108599999999
 16.1897379000000008  5.7120348999999999 15.0489674600000001
 15.1554561499999991  6.7017175399999998 17.7433146999999991
 13.1667287799999997  8.7042427799999995 20.0483286099999987
 10.3329340900000002 10.6420345699999999 -0.3573783900000000
  8.6475257699999997 12.9750149700000001  1.4863723600000001
  6.4843528900000003 15.0018559800000002  3.2862490000000002
  6.9214874100000001 14.6890442300000004  7.5502680599999996
  5.0622945200000000 16.6713095399999993  8.7548700900000007
  3.6203453699999999 18.3579959300000013 11.3167618599999997
  1.6097688800000001 19.8206364899999983 12.7999866299999994
 -0.3145377700000000  0.3380430600000000 14.3617331299999993
 19.4702667200000015  1.7711909800000001 16.2373954599999983
 17.6798376799999986  4.0397113300000003 17.6045366700000017
 16.6927215300000000  5.2805279199999999 20.2792447500000002
 15.1864870399999994  7.6191270199999996 -0.2787249300000000
 11.9201332600000001  8.9857547699999998  1.4248463200000001
 10.3819443299999996 10.7404785399999998  3.4040919999999999
  8.4474874399999997 13.0249882400000008  5.4651460600000004
  9.6949180500000001 12.8496606799999995  8.9883898099999993
  7.7204938299999997 14.2580841899999999 10.6124569100000006
  5.3534658100000003 15.9530699100000000 12.6327635899999997
  3.8290548800000002 18.3559754999999996 14.7214811099999991
  1.1882193200000000 19.9242459200000006 16.5132199899999996
 -0.0112612800000000 -0.0359516300000000 17.9535769400000014
 19.8093713800000017  1.8665157699999999 19.7873019600000006
 18.3507970299999990  3.4596099400000000 21.9119024799999984
 16.8328650599999996  5.4244743800000004  1.4938566499999999
 14.8017694899999999  7.7531852700000004  2.9951222099999999
 12.7249176899999998  8.8538028000000004  5.2412322700000002
 11.3908509999999996 10.4559224099999994  7.3072367900000001
  1.4787552799999999  1.8320323199999999 19.7538699700000002
 -0.0972465300000000  3.3527210900000002 -0.0276747400000000
 20.1217778699999990  4.8021881400000002  1.8610378299999999
 18.5927666699999996  7.2384314099999996  3.3060993500000002
 16.4720273199999987  9.3541316400000003  5.6540071500000000
 14.0861109899999999 10.8413070800000000  7.2997086199999996
 12.7030387299999994 12.4385315999999992  9.9289258500000006
 10.5409946199999993 15.0634562699999996 10.7816286600000009
  8.6021423200000005 16.3639179500000012 12.9842510299999994
  6.3743644000000002 18.2423977199999996 15.0420955700000007
  5.3317438499999996 20.3474053099999992 16.9290810299999990
  3.1619102699999999  0.0169393500000000 17.7622090700000008
  2.9951738200000002 -0.0149698400000000 -0.6226856800000000
  1.8230208500000000  2.2084342100000001  1.8751266300000000
 -0.2943474800000000  2.5811091199999998  4.4810664400000002
 20.2941520000000004  5.9066055100000003  5.6587439000000002
 17.9108161099999990  7.8222668200000003  6.9409816600000003
 16.7358404999999983  9.4778512599999996  9.0081659700000003
 14.7462855899999994 10.3367140699999993 10.3635984000000008
 12.4149822400000005 12.6041340399999999 12.2046530099999995
 10.7159524600000005 14.3159581399999993 14.1847535100000002
  8.8777943700000002 16.2544336300000012 15.9739588099999992
  7.6318940299999998 18.0684509899999988 17.7793699200000006
  4.7888404600000003 20.0464743600000013 19.5628668700000006
  5.5898988999999997 20.4661120700000012  2.0909217600000001
  3.4056573700000001  0.4825556900000000  3.5127215700000001
  1.5900486199999999  1.6522077399999999  5.8875796999999999
 -0.4754083200000000  3.6478571099999999  6.8864471700000003
 20.3243656199999982  5.3964572000000004  8.0644458500000002
 18.6570116000000006  7.2286325500000004 10.5904304000000007
 16.1648441100000007  9.3429241800000007 13.0473309099999994
 14.3109792400000000 10.9671424500000008 14.3672227199999991
 12.4660183000000000 12.0109175300000004 16.2909605800000001
 10.9911320400000001 14.5655853099999995 18.2087269499999991
  9.2066604900000009 16.3201031900000011 19.5423221799999993
  7.5546578300000000 18.2496732799999997 21.0919706500000004
  7.5169583700000002 17.9555551400000013  3.3493207200000001
  5.0957482100000000 20.2575336999999998  5.1132472399999997
  3.4379885600000000 -0.2087720500000000  7.6119525699999997
  0.9447371000000000  1.2103209600000000  8.8241534500000007
  0.0641014100000000  3.5321301699999998 10.8225144499999999
 19.4051855599999996  5.6378448499999996 12.2116441699999996
 18.1363392899999987  7.3199248299999997 14.6351431099999996
 16.1507375000000017  9.2509328199999992 16.3455119899999985
 14.8940089899999997 10.6590220500000008 18.0664749299999983
 12.7139439799999998 12.3707124999999998 19.7145082999999985
 11.0063775499999998 14.3692428299999992 21.7371452400000003
  8.5320798599999996 15.7060811900000008  1.4662145499999999
  9.0898266900000007 15.9882544499999995  5.1438975700000000
  6.9409452399999996 17.6853497200000014  7.1273507299999999
  5.4241876199999997 19.9036599599999988  9.0381230600000002
  3.2931964200000001  0.0898998200000000 10.9260368600000000
  1.5984821899999999  2.4137517700000002 12.7632838500000005
 -0.0675662700000000  3.2453457100000001 14.1814507600000006
 20.5719746100000016  4.9805995799999998 15.8014071000000005
 18.0761165499999983  7.1318579299999998 17.1621232399999997
 17.0195086199999999  9.1769843200000007 19.4615492600000017
 14.6926784599999998 10.5085401100000002 21.5523977600000016
 12.1687192300000007 11.8668925900000009  1.0564641200000000
 10.5027227900000000 14.0767872900000004  2.4223730200000002
 10.7843079999999993 14.2659127800000007  7.0367537499999999
  9.1337581500000002 16.8999410200000000  8.9859758500000009
  7.3495368900000004 17.9360969399999988 11.0928557800000007
  5.7017145800000000 20.0928867199999992 12.8405201400000006
  3.2450987900000001 -0.1885752400000000 14.7250521200000009
  1.4076332000000000  1.5586702400000001 16.0867767700000002
  0.1053441000000000  3.7117186100000001 17.7358102899999999
 19.7295770899999994  5.2100442400000002 19.8793540899999996
 18.5438550900000010  7.2916351400000003 21.6024722999999987
 16.5701738799999987  8.9001551400000007  1.6597256199999999
 14.1608551899999995 11.4348307100000000  3.1365259100000000
 11.9805358599999998 12.8453723499999999  5.7019611100000001
  2.9334147700000002  3.3813546900000002 17.6880940399999993
  1.4967056800000000  5.4346293000000001 19.9406942899999997
  0.3097000700000000  7.5479851599999996 -0.0995270000000000
 20.0955106900000011  8.6976217100000000  1.7105829800000001
 18.2745660600000015 10.4725836599999997  3.4700620099999999
 16.1209668800000010 12.5054859500000006  5.2493169899999996
 13.8689360700000002 14.1088939300000007  7.2152635800000002
 12.6677998499999998 16.3543583400000010  8.9660709999999995
 10.4905709199999997 18.4890981200000013 10.8686126800000000
  8.9223349699999996 20.2413077900000005 12.7552051700000000
  6.7867895400000000 22.2897140699999987 14.1304549000000002
  5.2275049899999999  1.5881196900000001 16.3392754599999996
  5.1234003200000000  1.9577868599999999 19.1916515899999993
  3.4395674199999999  3.5662498600000001 -0.0317561100000000
  1.4591060199999999  4.7865802799999999  2.0958994999999998
  0.1877012600000000  7.6794620599999996  3.6412722099999999
 19.9149413200000005  9.1379023200000002  4.9782614799999996
 18.1440993299999995 11.1689398900000008  6.7052015300000001
 16.3789526400000014 12.9008475600000008  9.0497618800000001
 14.1384480799999999 14.2700307300000002 11.1046974800000005
 11.9363832399999996 16.6012899300000001 12.7530096999999998
 10.5693021399999996 18.5284584199999998 14.6056433400000003
  8.7669503599999992 19.3691252899999995 16.3217479599999997
  6.9802755400000001 21.4012177299999991 18.0422830800000007
  6.7437306399999999 -0.3432428100000000  0.0194309300000000
  5.3261745600000001  2.5389183599999998  1.0488891400000000
  3.7642345399999999  3.5589646899999998  3.6839367900000002
  1.8699174000000001  6.0510582599999996  5.3573998999999999
  0.4450835300000000  8.1235451300000001  6.8229489499999998
 20.2195736699999991  9.2516509500000002  8.8989212999999996
 18.2424174599999986 10.9509106599999999 11.2932172800000004
 16.3133384499999998 12.4149528700000005 11.9775956800000003
 14.2836180800000001 13.9831922700000000 14.4081766899999995
 12.3203909700000001 15.7693752299999996 16.0726033000000008
 10.4480807900000006 17.5151054600000009 17.5633283400000018
  9.2087422900000000 20.8146250799999990 20.2780226699999986
  9.7398969700000002 20.3053866999999997  2.0615497500000002
  7.4015781699999996  0.5679293500000000  3.7179342599999998
  5.3929311699999998  2.0252694199999999  5.1190061900000003
  2.8746755099999999  3.1788720100000001  7.1844699500000004
  1.6335001800000000  5.4000344499999997  9.0000219200000000
 -0.3903813000000000  6.7715853299999997 10.3116487100000001
 19.7114345499999999  8.6004062200000000 12.7444425999999993
 18.3978987399999987 10.5375207500000005 14.5930593700000006
 16.0783016900000000 12.8824567900000009 15.9450282600000008
 14.3113335500000005 14.5074214099999992 18.3576787199999991
 12.8405688900000001 16.2128453099999987 20.1864485199999990
 11.1249815000000005 18.2633574799999998 21.5441181700000008
 10.6344924400000007 17.7887556099999991  3.4478801899999998
  8.9416481399999999 19.9812701900000000  5.5806513899999999
  7.0026910200000003 -0.0669594100000000  6.7349768000000001
  5.1408856600000004  1.8606204500000001  8.7171092500000000
  2.8768082700000002  3.2231732100000001 10.4848128500000009
  1.9800808500000000  5.1505385199999996 12.4585548500000005
 -0.3306896400000000  6.8784885300000003 14.4700806899999996
 20.3983883299999995  9.3639455199999997 16.7243704800000010
 18.2381827700000017 11.5434950599999997 18.0978966800000016
 16.4550831100000003 12.8889758099999998 19.6226191300000004
 14.2587012800000004 14.1605946100000004 21.6699781499999986
 12.5902883100000000 16.1470854999999993  1.3387858600000000
 12.1726221900000002 15.6258936100000003  4.2448786099999998
 11.4322567599999996 18.3262461499999993  6.6761017300000001
  9.3026379600000002 20.0355400599999989  8.4181109500000009
  7.4382087300000004  0.6850956000000000 10.5906676199999996
  4.8834456599999996  1.8534577600000000 12.8952174199999998
  4.3356079899999997  3.8845675900000001 14.4633017099999996
  1.2615286299999999  5.0529848499999996 15.7490305799999994
  0.3648527300000000  6.7008560399999997 17.5236634900000006
 20.1559312099999985  8.9362606800000002 19.6667135600000016
 17.9936532599999985 10.9057177400000000 21.4418926899999995
 16.1915213800000011 13.0676755500000006  1.6672508200000000
 13.7392248600000002 13.4738503200000004  3.1670343399999998
  4.8514620600000002  5.3799803099999997 15.5799889599999997
  3.4446217799999999  7.1513851700000002 17.5872747199999999
  1.8634084200000001  9.0173274499999998 19.3431956999999990
  0.0107452100000000 10.7500900099999992 -0.1723206900000000
 20.2381393400000000 12.5279191599999997  2.4714836500000001
 18.0361719500000000 14.6532984400000004  3.4319738300000000
 16.0341001900000002 15.6235893200000007  5.1322991000000000
 14.4630491699999997 17.4514784300000017  6.8153455699999999
 12.5510711900000000 19.7682565399999994  9.1900062899999995
 11.4552068100000000 -0.3337966600000000 11.1595213799999993
  8.6863779300000008  1.8204054500000000 12.7931081100000004
  6.8739693099999997  3.3068693800000002 14.5810040500000007
  7.2108727500000001  4.1384705300000002 17.8616163400000012
  4.6339037899999997  5.0472055300000003 19.5380771099999997
  3.4041030299999999  6.8855443699999999  0.3926938800000000
  2.2914577100000000  9.3320243699999992  1.9689193100000000
  0.6678815000000000 11.1319327799999996  3.7362589000000002
 20.1159145499999994 12.4554012200000006  5.6771261400000004
 18.4712046500000007 14.1404134599999995  7.6741124799999998
 15.9395805300000006 15.6785765300000008  9.5914641199999995
 14.2258881499999994 17.9924677399999986 10.9989887999999993
 12.5538421400000004 20.1997506199999997 13.1468849500000005
 10.4572078400000006 22.1842188299999989 14.9102970799999994
  8.2578425200000005  1.5893722299999999 16.9051275300000015
  8.8356314000000005  1.9209071099999999 19.6063575000000014
  7.5548827000000003  3.9234686900000000 -0.1870193300000000
  5.5538065500000000  4.6392170100000003  2.1631469900000000
  4.2892143300000001  6.9390093899999998  3.4139703600000000
  2.2013736800000001  8.9757766700000001  5.0502534700000004
  0.3217502200000000 10.6639862799999996  7.1546876900000003
 20.4492277300000005 12.2697320600000008  9.0265646400000001
 17.7455460100000018 14.1220744800000002 10.9924610999999999
 16.3130555000000008 15.7953758400000002 12.5634309900000005
 14.7590354599999998 17.6934671100000003 14.6061231700000000
 12.5876210099999994 20.7952418799999990 16.0700949100000017
 11.0249858300000003  0.0593435700000000 18.5118835500000003
 11.0056786700000000  0.4141076100000000  0.1664386400000000
  8.3974430200000008  1.7395997000000001  1.6015040599999999
  7.1382425999999999  3.4479086699999999  3.9316151399999999
  5.8242644700000001  5.4817335800000002  5.9007809299999998
  4.0890886000000002  7.3590862499999998  7.6324726800000002
  2.1986329300000000  8.9724479499999994  9.5875931600000008
  0.4227884900000000 10.6733755400000003 11.1780442400000002
 20.8451168500000001 12.4949603800000002 12.2607894900000005
 17.6812096700000012 14.3153616100000001 13.9517480900000006
 16.3467682200000013 15.9550594500000003 16.3254571300000002
 14.1656196199999993 18.0024304000000015 17.4249348899999994
 12.8485985399999993 20.3391700899999996 20.1856039400000000
 12.4500831800000000 20.1191657600000013  1.5735512400000000
 11.0066548399999995  0.3625702400000000  4.2231990200000000
  9.4724751000000005  2.0829601000000002  6.2482848200000003
  7.2607970699999997  2.6014217099999999  7.5079139300000000
  5.5043953300000004  5.0629227099999996  8.9928375999999997
  3.2205367400000000  7.0267796899999997 11.1239664000000005
  1.5539738700000001  8.6089281000000000 12.3425467999999992
 -0.1812672300000000 10.9060996499999998 14.3411822200000003
 19.6845850099999993 13.1823304500000003 16.1527185399999986
 17.9388363499999990 14.8639762599999994 18.0118781299999995
 15.6503281899999998 16.4416221500000006 19.9205505400000007
 14.7318642400000002 18.1992718499999988  0.1540390100000000
 14.7367304099999998 17.9544096800000013  3.2872076799999999
 13.0296403299999994 19.4684720599999999  4.7760580199999998
 11.2203551600000004  0.3742968500000000  6.8183210200000000
  9.9334213099999999  1.8405637600000000  8.7718513700000003
  7.0745941200000004  2.8587764600000001 11.0513279499999992
  5.4885637799999998  5.1616019900000003 12.3154186400000007
  3.9922745800000001  7.0087783500000000 14.7876924299999999
  1.5299204600000000  9.4613724000000001 16.5565704899999986
  0.4415882800000000 11.9568631399999994 18.5059274900000013
 20.1872681299999996 13.2925288599999991 20.3820866500000015
 18.2450057900000004 14.1408713200000005  0.0235495100000000
 16.0667329199999998 15.5960799699999999  1.4191069900000000
  7.3146526100000004  7.3728997100000004 14.2805377999999994
  5.3106673500000001  9.2995029799999998 16.0333869399999998
  3.6988247599999999 10.6380921900000001 17.9115169899999991
  2.7117177600000000 12.7552641599999994 20.9585146500000015
  0.1916821300000000 14.9623930999999999  0.1252244100000000
 19.7055956600000002 16.1363604999999986  1.3839856300000000
 18.0754101799999987 17.2236660899999983  3.0319353200000001
 16.2508865799999995 19.4049621899999991  5.2168895300000004
 14.4540139700000001  0.0217905600000000  7.0998283899999999
 12.8028622100000007  2.3057285699999999  9.2183582200000007
 10.9731447000000006  3.4131433400000000 11.3524706700000007
  8.5599029600000005  4.8075616999999999 12.5093673499999998
  9.2396119100000007  5.8779923800000002 15.8139576300000009
  6.9648871300000001  6.5271113400000003 18.0633423099999995
  5.0378003500000004  8.5782337599999998 19.3947129999999994
  3.8076107100000001 10.5009323899999991 -0.2639773200000000
  2.2500036899999998 12.7274195799999994  1.6390493500000001
  0.1731038300000000 15.1921878600000007  3.4952468600000000
 19.8051200999999999 16.2054775299999996  5.6810806200000004
 17.7558728600000002 17.4897119900000000  7.5788005199999997
 15.4710237500000005 19.6191629200000008  8.9844293499999992
 14.5713110399999994  0.5518649799999999 11.3365116199999996
 12.6469100700000006  1.8018813400000000 12.8336442700000006
 10.3634935499999994  3.6001732299999998 14.3023921400000003
 11.0297335699999994  3.6575074800000000 17.9717898399999996
  9.5367318700000006  5.8883634799999998 19.9816798899999988
  6.9668200899999997  6.5970432199999998 -0.3736258000000000
  5.2659736400000003  9.6418891599999998  2.1235605799999999
  4.3607636100000002 11.1248599200000005  3.7879565500000001
  2.2481779799999999 12.8385615400000006  5.0522705900000000
  0.3015810800000000 14.2860034999999996  7.4240147500000004
 20.0965697799999994 16.2076898199999988  9.2752686200000003
 17.9425919000000000 18.2218261599999991 10.9806827400000007
 15.7386238899999995 19.6066657100000015 12.3369215699999994
 14.6718180100000009  0.4037337800000000 14.8758749100000003
 12.4910343099999999  2.1865169000000000 16.2549838199999996
 12.1346340999999995  1.9172991200000000 20.0152935700000008
 11.4607829799999994  3.6496721700000001  0.0895258600000000
  8.7831788199999998  5.6195516100000003  2.3867403600000001
  7.1705836300000003  6.5557463199999999  3.4541349900000000
  6.1173805600000000  9.3533932300000000  5.8774618199999997
  3.9570869499999999 10.7759237399999996  7.3408514399999998
  2.1809535100000002 12.8078289600000002  9.4447998099999992
  0.6446624100000000 14.6583854900000006 11.1330203799999996
 19.8777340199999983 16.1946431699999991 12.7291697199999998
 17.9067581699999998 18.6911702599999998 14.5724372800000008
 16.2278047799999996 20.0769448600000011 16.9204885900000015
 14.0766570299999998  0.5959017300000000 18.1789395399999982
 14.6808099300000006  0.2689478400000000  0.2721100400000000
 12.8327043399999994  1.7713793799999999  2.8074956599999998
 10.8035197899999993  3.9580679800000000  3.9172245800000001
  8.7157474300000004  5.3887203599999998  5.7261032199999997
  7.6223664800000002  7.1069322200000000  7.2871903700000003
  5.8190234600000004  9.1472398199999994  9.2598168199999993
  3.9616706900000001 10.7572400899999998 11.6581262999999993
  1.9995360300000000 12.5027352199999999 12.3926262699999992
  0.2481915700000000 14.6427999100000008 14.5797574399999998
 19.7503406900000016 15.9580424300000008 16.1089348000000001
 17.9858699100000017 18.1222142899999987 18.6961920299999989
 15.6472867699999991 19.8657431299999985 19.8366058199999991
 16.2857145299999999 19.8379784999999984  1.6255077099999999
 14.7210010600000007 -0.0134303100000000  4.0179803900000000
 12.8183649400000004  2.0485238600000000  6.0614562899999997
 11.1936247699999996  3.7526685099999999  7.9383002300000003
  9.0889073000000007  5.1625225700000001  9.8382187000000005
  7.0520034899999997  7.0292601699999997 10.9879780799999995
  5.6369840199999999  8.7856283299999998 12.9611907500000001
  3.1631634200000001 10.9618856999999998 14.1003829799999991
  1.5348773800000000 12.9340465600000005 16.7587674299999989
  0.2539231900000000 14.5664087799999997 18.1582155299999997
 19.8713623699999999 16.4761732400000014 19.2282514000000013
 17.8709823800000009 17.8471269399999990 -0.6442024100000000
  8.9505227499999993  9.1558110700000004 12.7478964599999998
  7.0653395400000001 11.1546883700000006 14.4783479300000000
  4.7060320800000000 12.6545933999999995 16.1091760000000015
  3.0618480600000000 14.3767466499999994 18.2442806299999987
  1.9318646300000000 16.8434102199999991 20.6727452300000003
 -0.9639580800000001 18.4603889000000017  0.2818886600000000
 19.8769056299999995 19.2837451900000012  2.0722579300000001
 18.1029946700000011 21.9259501700000001  3.8612166200000000
 15.9158563399999995  2.1618322200000000  6.0464989700000000
 14.3903143500000006  3.9867235700000001  8.1245127600000000
 12.2710281400000003  5.6983769000000004  9.4894360500000001
 10.5034631199999993  7.2343973799999999 10.9909733799999998
 11.2298381000000003  6.9366196799999997 14.1839242799999994
  9.2107311400000000  9.2174036000000008 16.3062773000000014
  7.2978128599999996 11.0148726999999997 18.2610244500000007
  5.0874397099999999 12.8106288999999993 19.2288516899999991
  4.1222211000000000 14.0452116199999999 -0.0686494900000000
  1.7880607900000001 16.6830687500000003  1.5524731500000000
  0.3585602100000000 17.5002514500000004  3.5729489700000001
 19.7641118099999993 19.0884299000000013  5.4218702499999996
 17.9719401199999993 21.1279112399999995  6.7663821700000000
 16.2572021000000007  1.8294010199999999  8.3465784099999993
 15.1722977599999993  3.1479419800000001 11.5543893999999998
 12.8866916600000003  4.9158893199999998 12.7867426700000006
 12.9379318100000003  5.7142853400000000 15.7666424200000002
 10.7374173800000001  7.3831283499999998 17.3022068599999983
  8.9999576200000000  8.7077723400000000 19.5442842299999988
  7.1327859100000000 11.2844227999999998 -0.8817094800000000
  5.6954084399999996 12.1570357999999992  1.3129651499999999
  4.2727067999999999 14.5422741999999996  3.4326390700000000
  1.8767734400000000 16.0518510799999987  5.3421029300000002
  0.0993306600000000 17.4826500500000002  7.2419360499999996
 19.5734666100000005 20.0187811499999988  9.1872006299999995
 17.5390673600000007 -0.7886985500000000 10.6163658200000004
 16.8855750200000010  1.9063541100000001 13.0439827200000007
 14.4945386299999992  2.9715238600000000 14.9089383699999996
 14.7624181700000001  3.7701716599999999 17.8984634599999985
 12.8197001499999992  5.6558050099999999 19.7571477800000004
 11.2838114300000001  6.9733573499999997  0.4168547500000000
  8.4627638300000001  8.8541226599999998  1.9762906700000000
  7.4016629199999997 11.8947123700000006  3.8352663599999999
  5.4512033100000004 13.2793989499999991  5.7953233900000001
  3.6374716800000000 14.3002980100000006  7.2271251400000001
  2.1579990300000000 16.6853432800000014  9.3402121699999991
 -0.4389243600000000 18.0911899699999985 10.8195341200000001
 19.9052082800000001 19.8766893600000003 12.1613647900000004
 18.4515506999999985 21.1482189799999993 14.2255987499999996
 16.4881303499999987  1.2464586799999999 16.7290527800000000
 16.6379730300000013  1.6188913700000001 19.9265975600000012
 14.2086439400000000  3.7873851400000000 -0.0457998200000000
 12.9491442800000005  5.3697649900000002  1.6807662900000000
 11.0253628100000007  7.1013295500000000  4.1703180299999998
  9.1892318700000004  9.0199102500000006  4.9603048999999997
  7.4948345900000000 10.8168581699999997  6.9874352000000002
  6.0607221500000001 12.0994723299999993  8.9329564000000001
  4.2402566300000002 14.3482221699999997 11.5789156700000007
  1.6877212900000000 17.0044038200000003 12.8841842399999997
 -0.5595183600000000 18.2744031599999985 14.3125359599999999
 20.0350410299999986 19.3520908899999995 16.3474268500000015
 18.9104451199999986 21.3905007199999986 18.7178075899999996
 17.9923240500000006  0.0957526400000000  0.4453914100000000
 16.3058544199999993  1.7593895900000001  2.5780919299999998
 14.9493690200000007  3.7297501199999998  4.1219714500000002
 13.0703524499999997  5.6650216499999999  5.8702271000000001
 11.4272290499999993  7.2585900099999998  8.1265661999999992
  9.0940671000000002  8.9726143199999999  9.5566735000000005
  7.1637268799999996 10.7702503600000004 10.8954821600000002
  5.7904092100000000 12.2403798300000002 12.2658375399999997
  3.5665340699999999 14.4151130300000005 14.3352137000000006
  1.9312980399999999 16.7198852199999983 16.3644345899999983
 -0.0823441800000000 17.4452391099999993 18.1810524399999984
 19.3499097900000017 19.9820866499999994 20.3918441600000016
