Li                                      
   1.00000000000000     
    21.0527999999999977    0.0000000000000000    0.0000000000000000
     0.0000000000000000   21.0527999999999977    0.0000000000000000
     0.0000000000000000    0.0000000000000000   21.0527999999999977
   Li
   432
Direct
  0.0338181434298548  0.9847362588349284  0.0269603910168712
  0.9204845911232695  0.0519690231228154  0.0878684488524115
  0.8261036180460550  0.1661562215002306  0.1624666638166872
  0.7502461169060624  0.2737426836335288  0.2382979874411006
  0.6622093393752877  0.3604766453868393  0.3147587313801523
  0.5642597754217960  0.4186033658230741  0.3965712731798163
  0.5004023365063048  0.5003848167464682  0.4679476093441224
  0.4113785667464640  0.5790989241336035  0.5611036826455376
  0.3442434887520918  0.6537881569197452  0.6524402274281798
  0.2621067525459821  0.7531118492552054  0.7426264031387717
  0.1705295780133724  0.8141862103853157  0.8397302116583063
  0.0769932821287398  0.9149117647058844  0.9220385207668329
  0.0857367917806684  0.9204514857881136  0.0805510449916369
  0.0038703417122647  0.9850976140940872  0.1719079405114741
  0.8948857339641307  0.0661197042673649  0.2523386775155814
  0.8227261613657078  0.1460906957744328  0.3236113752089977
  0.7369083523331810  0.2429725651694810  0.4215720659484745
  0.6826674660852703  0.3256580877602957  0.4874435144018818
  0.5736322840667256  0.4231340733774118  0.5847704253115964
  0.5064476003191984  0.4998793324403437  0.6751782655988734
  0.4298444596443218  0.5719444586943325  0.7503092895006844
  0.3335789239436053  0.6463215619775013  0.8394535990462089
  0.2455947845417228  0.7510110541115651  0.9252309692772442
  0.1713595854233176  0.8342590396526859  0.0227148208314318
  0.1717969999239983  0.8271576730886139  0.1771860151618796
  0.0883534622473050  0.9221174931600515  0.2703672195622460
  0.9829302444330423  0.9938208632580938  0.3497524965800238
  0.9119295257637958  0.0945543300653569  0.4164918599901171
  0.8276942530209794  0.1719037999695985  0.4885855358907136
  0.7726871309279559  0.2394100694444461  0.5936102081433319
  0.6866647296321631  0.3383833133834955  0.6536117419060616
  0.6067276994034074  0.4156629260715903  0.7523421525877794
  0.5054281264249880  0.5088913431942572  0.8314693247453988
  0.3916441903214789  0.5553179083067334  0.9301435809013512
  0.3203701973134230  0.6476055284807742  0.0024177339831297
  0.2627735047119657  0.7772739041837653  0.1036978425672572
  0.2573118497302005  0.7428116687566515  0.2635587736548075
  0.1549213895538841  0.8277291410168743  0.3394682113543084
  0.1043398065815495  0.9161912196952429  0.4370725661194683
  0.9865375166248640  0.9995750465496300  0.4917306187300525
  0.9229784399224812  0.1110231479898189  0.6148412657698756
  0.8285111866355095  0.1773418262653905  0.6843568575201431
  0.7639343693000455  0.2337595930232581  0.7631674979100183
  0.6669341750265971  0.3353386651656791  0.8381125607995159
  0.5834879749962028  0.4266375911992739  0.9141001738486096
  0.4889944491944078  0.5208622705768349  0.9938271835575350
  0.4040019498593992  0.5780641330369392  0.0919449175406584
  0.3347117746808053  0.6648264439884457  0.1822336406558733
  0.3412124558253566  0.6645902891776885  0.3451763304643549
  0.2606465187528499  0.7463043528651738  0.4090538232444132
  0.2025104993160056  0.8445394859591104  0.4913521693076461
  0.1105284707972345  0.9095651728036174  0.5713704770861838
  0.0008788370193074  0.9864567591959243  0.6632403732520160
  0.9215898103815192  0.0887969804491533  0.7427397837817296
  0.8442444924190582  0.1384992955806368  0.8318586967054244
  0.7531757775687780  0.2404379730962134  0.9211971096481193
  0.6528961720056259  0.3158090738524066  0.9907658491982048
  0.5863903442772482  0.4118144242096093  0.0545837380300966
  0.4734162329951346  0.4880672347621200  0.1551881037201710
  0.3948300701094425  0.5869956637596871  0.2456460157318716
  0.4180151884784920  0.5936683386532877  0.4351688734990091
  0.3337134471424221  0.6666551608337130  0.5059099440454489
  0.2620559198776391  0.7618526219790240  0.5950688373993032
  0.1884182617039087  0.8306239730582163  0.6624179315815439
  0.0989865851573200  0.9109672637368931  0.7574552525079810
  0.0218555740804049  0.0196219514743916  0.8379552976326181
  0.9218312818247441  0.0828163241944040  0.9368406254749928
  0.8469746622777024  0.1560717586259344  0.9848278575771374
  0.7565208737080127  0.2543822498669996  0.0750567183462536
  0.6702981546397595  0.3533352765427864  0.1394664828431402
  0.5708172827367406  0.4224917721158263  0.2608522424570623
  0.4950193499201987  0.5083239882580912  0.3353572275421826
  0.0849326251139999  0.0793949740652096  0.9224021431828575
  0.0118592728758173  0.1547658026485763  0.0137602774927785
  0.9128562414500720  0.2522766187870502  0.0793668300653607
  0.8379084891320900  0.3352301717586244  0.1609804444064480
  0.7431427031083757  0.4097245131288929  0.2339366041571651
  0.6653758492932056  0.5094201920884629  0.3161743806049557
  0.5979792269911854  0.5879338249543977  0.3821398550311628
  0.5095251405988748  0.6562333756079965  0.4743120511285923
  0.4261461473058219  0.7296397614569088  0.5888224288455675
  0.3594879398464812  0.8568971504977938  0.6656661018961856
  0.2517833993578051  0.8998586976554179  0.7686125916742697
  0.1385820161688684  0.9966664595683241  0.8261410420466646
  0.1581807978036167  0.9909076588387293  0.9810670917882689
  0.0949792797157656  0.0747496280779743  0.1133045020139818
  0.9975547000873988  0.1652441869965031  0.1594449811901484
  0.9060423459112315  0.2349571002432000  0.2390865276827796
  0.8090985959112302  0.3261424998100040  0.3415987526599764
  0.7356640180878529  0.4545720041989654  0.3939941594467271
  0.6615831409598698  0.5117520206338355  0.4998589204286361
  0.5698634148426791  0.5797098889458852  0.5759119461544273
  0.4877305109059122  0.6594149766301882  0.6613547789367686
  0.4177604176166625  0.7574260212418267  0.7634210095569216
  0.3267060666514681  0.8154116929814563  0.8538593199004438
  0.2376591322769386  0.9197681443798444  0.9126809512273937
  0.2376677054833536  0.9133362764097868  0.0775202486130127
  0.1833724031957757  0.0000899329305355  0.1652592325011426
  0.0874167873157035  0.0451075757143968  0.2516545642384855
  0.0026412448700412  0.1405137815397453  0.3218820546435595
  0.9284853658420715  0.2492262278651793  0.3942581951094368
  0.8258891624867033  0.3429090045029639  0.5039945327937403
  0.7501030969752236  0.4263129654962725  0.5657396987574117
  0.6899903157774716  0.4964513337893308  0.6586724107957167
  0.5944788056695529  0.5772388841389287  0.7421749667502695
  0.4780000427496560  0.6432197009423959  0.8484728829419339
  0.4135936611757103  0.7496511627906983  0.9301106489398094
  0.3273586017061874  0.8427693090705262  0.9866382362441115
  0.3249223566461481  0.8556042046663634  0.1835242979556142
  0.2475344590743305  0.9281357947636408  0.2519692311711523
  0.1580499491754068  0.0004581148350837  0.3418988908838756
  0.0875683020785800  0.0775121200030426  0.4455475086449283
  0.0015773146564797  0.1764465619775066  0.5048861890104845
  0.9114750750494025  0.2500242917806688  0.5680677140332904
  0.8304335779563772  0.3328145429586584  0.6820323158914761
  0.7347984063877462  0.4008242433310514  0.7759179211316294
  0.6573329386114892  0.5105707126842987  0.8468559312775525
  0.5744242647058826  0.5833395975832190  0.9373670822883398
  0.4793979366165075  0.6581950605145153  0.0133169131896977
  0.3957911907204732  0.7465795471386230  0.1019900873043014
  0.4063445123689036  0.7515733660130692  0.2441322679168536
  0.3287886979404178  0.8360458689580454  0.3518195560685484
  0.2523252161232676  0.9232509110427145  0.4084714004787955
  0.1757030585005310  0.0102309488524099  0.5109338686540497
  0.0755947166172675  0.0787277388280927  0.5925913037695665
  0.0167916177420580  0.1792874126007007  0.6706622829267346
  0.9243036436958505  0.2512605430156540  0.7591375118749042
  0.8557833775079828  0.3333024182056548  0.8379803541571675
  0.7549364540583667  0.3851764511133879  0.9199766876614959
  0.6804320503685943  0.4945991592567225  0.9822108161384691
  0.5807225893942842  0.5716549057607523  0.0901996418528626
  0.4907031596747231  0.6554221571477399  0.1686149524053775
  0.4978919131896973  0.6745917070413441  0.3112433320033432
  0.4248755353207159  0.7598455412106730  0.4069672865367053
  0.3380184830521387  0.8242832164842682  0.4934865519075871
  0.2626540127678965  0.9164574864151120  0.5808852152682746
  0.1649033088235328  0.9814606712646281  0.6548340315777494
  0.0719795423886609  0.0665736809355550  0.7366034745972030
  0.0126359168376666  0.1728031406748727  0.8443150844543226
  0.9251903352523172  0.2376800634594929  0.9144931467548290
  0.8439759775421791  0.3334415555175525  0.0063199878401008
  0.7556991051071620  0.4283473713710322  0.0718410524965805
  0.6778457711088279  0.4955708651580792  0.1574237659598694
  0.5826804130566927  0.5721199921150628  0.2224438155494752
  0.1607241526067824  0.1447885663664721  0.8235674955350376
  0.0909015038379692  0.2603251325239384  0.9042834283325760
  0.0067631298449626  0.3394188587741311  0.9925671858375154
  0.9154226050691605  0.4241611073111429  0.0667156387748875
  0.8285241478568182  0.5056522267821890  0.1627388105145187
  0.7520838928788578  0.6014035163968714  0.2379923739360095
  0.6444200120649057  0.7000210936312499  0.2880082635088925
  0.5840874824251401  0.7678308628780997  0.3937696249429976
  0.5131143306353536  0.8336234956870356  0.4917237241602095
  0.4418177867077091  0.9216770529335747  0.5550331841845235
  0.3275469343745243  0.9754350870193065  0.6959693190454459
  0.2618580844353247  0.0635514449384402  0.7500884699422414
  0.2473436060761500  0.0792763356893147  0.9101024723552200
  0.1599045067639437  0.1764099326455408  0.9865845725984173
  0.0745807137292900  0.2418200125398968  0.0983961758055969
  0.9884735303617589  0.3395057849787193  0.1725852204932394
  0.9236582597089225  0.4159025326797376  0.2413163740690081
  0.8155692468460245  0.5049828355373123  0.3123191114721067
  0.7239304543813674  0.6167240880072953  0.4096085451816407
  0.6327762506649961  0.6719830573605421  0.4892847502469948
  0.5742263409142723  0.7417516083371325  0.5830917284161714
  0.4945314186236516  0.8226565687224507  0.6580964289785669
  0.4300998043015625  0.9122721267479861  0.7629351506687954
  0.3317773179814552  0.0100139967130275  0.8459952224882201
  0.3286662006953947  0.9980993335803348  0.9900739687832498
  0.2322482990386092  0.0778346367229048  0.0606704523863826
  0.1553517156862725  0.1695661166210698  0.1772073101915197
  0.0776848746960042  0.2463078497872004  0.2363764924380618
  0.0144008136684874  0.3261532161992733  0.3147777146032809
  0.8966912239702083  0.4081122401770756  0.3953546426128582
  0.8406588767289875  0.4984371846025226  0.4605976934184497
  0.7719519156596775  0.5789339137786911  0.5635593806999566
  0.6735288142194875  0.6471320166438659  0.6588957753837974
  0.5803227964926307  0.7304504165716708  0.7634952671378628
  0.5112572075923367  0.8373617803807605  0.8466442017213893
  0.4335944420694631  0.9081138081395324  0.9088441157470726
  0.3930089494034021  0.9260908230734159  0.0648319525193770
  0.3240153865519062  0.0064778314523508  0.1697201412638734
  0.2481788526941813  0.0778051085841298  0.2718681120801065
  0.1624424181106576  0.1677566442468432  0.3455987004103989
  0.0865193912448703  0.2487565877222977  0.4047757158192766
  0.9959048549361640  0.3318120957782327  0.5053061312509470
  0.9057431576797370  0.4246559312775489  0.5816656477998166
  0.8220393719600239  0.5029309141776892  0.6624138888888922
  0.7717136114911085  0.5868931510297912  0.7600097915716688
  0.6594419663892666  0.6670107786137720  0.8624892057113556
  0.5661892375361006  0.7404216175520588  0.9448980496656034
  0.4749736666856634  0.8191844946990443  0.0209948249164000
  0.4469560296017647  0.8584217044763633  0.1640386784655732
  0.3837390043129645  0.9235982577139410  0.2634821866925066
  0.3358241602067196  0.9912296421378599  0.3543322365671102
  0.2407359619623008  0.0767928361073089  0.4236446828925367
  0.1623587318551429  0.1689791481418155  0.5150852190682471
  0.1035875227998204  0.2490913108945136  0.5821343260753906
  0.9938990167578652  0.3183937998745989  0.6683321125930988
  0.9048674646602848  0.4352755975452212  0.7397762924646614
  0.8304633231684164  0.5049711302059592  0.8499766064371457
  0.7477253529221741  0.5976286028461786  0.9081280366507087
  0.6675175321097413  0.6723701536137696  0.0067459615823040
  0.5558539980430126  0.7645311901504783  0.1046770648084845
  0.5582128657470733  0.7653709292825681  0.2134083751329996
  0.5014410957212334  0.8411929453564397  0.3242312860997103
  0.4226707036593709  0.9083043485902138  0.4239211553807536
  0.3542985108869132  0.9927878809469490  0.4867328697370397
  0.2629674166856688  0.0754775920542627  0.5742120843783241
  0.1763867552059608  0.1605247439770494  0.6664427677078564
  0.0906012283401765  0.2492885283667761  0.7504315953222402
  0.9876974554453568  0.3540136718156219  0.8277538612441120
  0.9327526542787652  0.4504324436654485  0.9222583756079956
  0.8341134167426674  0.5204768591351296  0.9816950652644749
  0.7361999192506445  0.5971283244984065  0.0786925667844685
  0.6637193071705454  0.6626328972868194  0.1524772847317237
  0.2397494874791022  0.2495797893866865  0.7440948847659214
  0.1644032836487312  0.3466555759803924  0.8235330882352940
  0.0780102223932175  0.4194874449004402  0.9213493796549628
  0.0301876006991932  0.5269807655038790  0.0238013242894084
  0.9079962442050444  0.5776569966940244  0.0963468982748168
  0.8402252716978253  0.6772486975604224  0.1569936388508921
  0.7377007167692682  0.7549311241260099  0.2185960223818242
  0.6589779649262795  0.8235142731608178  0.2870863300843567
  0.6003963985788090  0.9131156715496260  0.4071810215268243
  0.5160301784085704  0.0142527307531566  0.4676414500683990
  0.4020030808253523  0.0802579015617866  0.5843425587095297
  0.3267609443874449  0.1632173060115534  0.6752846428978572
  0.3310100361947121  0.1673908928978562  0.8278009628172995
  0.2238491849065198  0.2437494138546867  0.9018325624144978
  0.1790749596253249  0.3413835157318772  0.9985925135848888
  0.0960212917046661  0.4073017128363006  0.0937206898844778
  0.0137009176926597  0.4992508378932996  0.1584251956984346
  0.9299392983356114  0.5808294117647037  0.2633909788721667
  0.8056651680536575  0.6673243777549800  0.3309187224502210
  0.7409316394968855  0.7417649034807710  0.3917799950600411
  0.6672629232216138  0.8239588216294251  0.5073227736928132
  0.5764278466522299  0.9059815487726084  0.5722958247834029
  0.5073903575771368  0.9856464598533208  0.6576177914576675
  0.4479138755889949  0.0646031838995285  0.7546661579457350
  0.4244972454970366  0.0918125641244885  0.9105407090743256
  0.3442685680764583  0.1767924428104592  0.9982035154468747
  0.2432037909446692  0.2486098523711817  0.0730822009423946
  0.1599566238220120  0.3263867001063971  0.1871232952386350
  0.0654961710556350  0.4277519237346112  0.2427423715610288
  0.9963634153176741  0.4992667250911964  0.3484169616393089
  0.8960058077785362  0.5996597383720896  0.4327699161156744
  0.8401987227352166  0.6740296639876888  0.5055536964204279
  0.7424334050577599  0.7457438136494901  0.5979841242020072
  0.6503888703640399  0.8067241198320403  0.6691270857083111
  0.5872576664386671  0.9158649115557083  0.7591844671492609
  0.5278295723134221  0.9961320237688085  0.8495079105867163
  0.4787789510183913  0.0171082198092449  0.0081969348495221
  0.3715796164880700  0.0852431505547955  0.0941542706908365
  0.2992645306087525  0.1340945869433057  0.1958276656786779
  0.2392379194216474  0.2600583699080374  0.2599418162904712
  0.1557183362783121  0.3458391401618783  0.3121063098495185
  0.0655855767403892  0.3970312514249912  0.4076689955730330
  0.9672500199498373  0.4992258412182693  0.4926969139496862
  0.8997625061749517  0.5746383117685028  0.5879023550311615
  0.8308660439466493  0.6784126101991177  0.6645857434640519
  0.7416463183044542  0.7490132941936452  0.7568929334815309
  0.6428374876500982  0.8377036949954402  0.8503430360807087
  0.5703551698586438  0.9286671972374236  0.9472096362479121
  0.5608074265655887  0.9336726254939975  0.0787594690492455
  0.4775290583675300  0.9981900250798006  0.1761093996998042
  0.4224533211734283  0.0887867048563606  0.2830220455236372
  0.3442763575391368  0.1613018729100162  0.3399152027283776
  0.2510368521051802  0.2400636822655429  0.3835476620687004
  0.1693755804453545  0.3132424100357198  0.5077977071933404
  0.0689318290203644  0.4034526704286350  0.5820146816575473
  0.0256141292369634  0.5228496694026461  0.6778719044497663
  0.9155988761589882  0.5798772833067360  0.7589502303731592
  0.8528418186654534  0.6957510302667558  0.8561167483660128
  0.7523348590211256  0.7615132029943794  0.9233670756383958
  0.6321911968954268  0.8263672133872930  0.9919107909636722
  0.6618994205046391  0.8445632196192463  0.1389628320223437
  0.5755550192848489  0.9213101511437927  0.2287370459036353
  0.5054852029183792  0.9937944069197471  0.3227993967548244
  0.4368116397818795  0.0876044777891778  0.4175403067525494
  0.3438176119091025  0.1825081162600668  0.4926560904012760
  0.2379663607691143  0.2437733626880956  0.5893746713026289
  0.1572559930270572  0.3251506958694321  0.6598087389800895
  0.0898693290203667  0.4160731845645245  0.7504193969448210
  0.0217918576151419  0.5023491687566519  0.8242361548107624
  0.9354253543471671  0.5888976145690847  0.8903009718422226
  0.8332662206452355  0.6801750246997997  0.0107777236282089
  0.7336013646640822  0.7597321263679859  0.0930551575087435
  0.3176806629046993  0.3249835323567396  0.6473753405722746
  0.2436752802477571  0.4536894831091374  0.7200871717776280
  0.1746912937946519  0.4784197593669219  0.8238178779069756
  0.1192619513793858  0.6049946881174932  0.9125741245820009
  0.0097479622663030  0.6554848086715310  0.0026588548791580
  0.9354853895918822  0.7532743212304283  0.0937640456376343
  0.8296202975376161  0.8368354779411789  0.1472851364189083
  0.7577992856057136  0.9391385511665931  0.2366541243920040
  0.6581072465420306  0.0088484125626991  0.3201514302135564
  0.6035634072427456  0.0884363937338506  0.4173260535415722
  0.5083720640484870  0.1467955887102903  0.5011957027093814
  0.4320074788151729  0.2412778571021406  0.5854311303009609
  0.4226841726516213  0.2504079956110346  0.7482342139762892
  0.3061535767213854  0.3327730710404282  0.8295866521317805
  0.2673624268505819  0.4142618635050894  0.9148726867685042
  0.1761525996542019  0.4984952106133136  0.0071165341427246
  0.1143162942696492  0.6125551589337306  0.0997248199764371
  0.9811122753268009  0.6636119328545362  0.1861699189656463
  0.9234239008587934  0.7650721647476786  0.2819995981532131
  0.8083300468346266  0.8416876643486830  0.3204150716294265
  0.7342040236928113  0.9353110864113106  0.4106108892878879
  0.6798950847393215  0.9842639216636258  0.5181771745326031
  0.5906618958048355  0.0469363633340905  0.5951881022951824
  0.5312454827861401  0.1574370943532486  0.6705329058367511
  0.5166106769645822  0.1593311307759535  0.8279886950904398
  0.4149105748403983  0.2559845079989387  0.8757202818627476
  0.3336474288455662  0.3313631136950903  0.9738649619053064
  0.2575261689656472  0.4123931681296540  0.0866905466256256
  0.1689329115367073  0.4851242699308429  0.1729523298563578
  0.0883974815701478  0.5899724943950417  0.2368189722982237
  0.9854246157280713  0.6701378980468178  0.3468301342339259
  0.9049466508017971  0.7585644237346116  0.4317838496542024
  0.8129161807455532  0.8355934341275244  0.4915365390826878
  0.7421031036251691  0.8907424988600070  0.5853472744718076
  0.6716644056847514  0.9736864721082199  0.6814359591123278
  0.6077830407356757  0.0627547532869741  0.7425948971158221
  0.5747973765959884  0.0991498304263558  0.9381621380528955
  0.4731705725604201  0.1692826564637500  0.0175919074897379
  0.3920754669212627  0.2467703003875954  0.1009122287771689
  0.3247978012425889  0.3256101582687307  0.1534188606741154
  0.2630439328735363  0.4226788897438851  0.2614249506003929
  0.1646092500759977  0.5023566038721725  0.3256469006497937
  0.0679046848875231  0.5802688962988327  0.4240756516947854
  0.9869639045637655  0.6782749529753787  0.5298708551831552
  0.9059374401504812  0.7443910344467213  0.5838516078621367
  0.8403330782603717  0.8368995872283023  0.6807833523331794
  0.7532452799627620  0.9078661854955143  0.7485564589983298
  0.6790186336259296  0.0093418210404295  0.8686233075885426
  0.6538638314143483  0.0027644028347780  0.0049783582231342
  0.5785526500038003  0.0934451925634576  0.0943076065891475
  0.4701130828203404  0.1567151153290780  0.1796627973476177
  0.4038422903366765  0.2411813758739925  0.2443949864151094
  0.3361096438478484  0.3521810999012018  0.3260012492400080
  0.2450180826303381  0.4076333713330271  0.4146646360579140
  0.1520068209454308  0.5033091042521676  0.4835433339033273
  0.0982173672860611  0.5959297627868949  0.5782269584093314
  0.0071150003799971  0.6789852195432431  0.6632071619927018
  0.9236330127109014  0.7434909380224966  0.7460934146526839
  0.8377777431030538  0.8517362165602691  0.8446562642498847
  0.7466025459796342  0.9206609415374700  0.9216660553465559
  0.7388672998365990  0.9218380367457044  0.0656066219220222
  0.6523075780893777  0.0065435006269965  0.1565496133530928
  0.5956386580407340  0.0963778765769874  0.2557540849673217
  0.5177655133758918  0.1791253899718797  0.3469848879958946
  0.4186338620041070  0.2280877949726374  0.4134746893524834
  0.3338052786327736  0.3162845621485033  0.4877112393600882
  0.2568018382352975  0.4139717629008999  0.5754958447332399
  0.1798848813459486  0.5145726406938778  0.6447804548563596
  0.0975768529601737  0.5964040987422123  0.7549965638774907
  0.0150418723400207  0.6732622249772007  0.8315291353169201
  0.9374105059659499  0.7638112664348711  0.9205533981228129
  0.8232200339147298  0.8230028138774870  0.9856749862251135
  0.4298789738182123  0.4025539766681874  0.5737214612783106
  0.3284612227352213  0.5227256621447012  0.6687756108451168
  0.2417499482254115  0.5813502085233324  0.7653389777131778
  0.1727934293775633  0.6799168343403252  0.8401879198966427
  0.0837232776637791  0.7555822465420263  0.9433158453982387
  0.0258806762045936  0.8300056500797979  0.0029602732178162
  0.9154266653366747  0.9089771156330784  0.0839221319729475
  0.8201628633720901  0.9939728159674743  0.1612697983166100
  0.7475180503305978  0.0923836648806784  0.2422717933006524
  0.6727890104879179  0.1758995663284679  0.3349360123118998
  0.5976289063687474  0.2598076992134040  0.4008887454400352
  0.5154435015769891  0.3155096471728243  0.4964095949232430
  0.5134954975110233  0.3284196966674244  0.6716833889078870
  0.4169511589907273  0.4246132462190317  0.7395680004559964
  0.3525085447066445  0.4794151210290352  0.8299247306771562
  0.2647154939010505  0.5866229176166584  0.9178968023255791
  0.1913046620877026  0.6846883483432151  0.0241038921188661
  0.0816984562623517  0.7449591332269350  0.1030923473362222
  0.0049366397818815  0.8508968522001794  0.1976642494110052
  0.8811036370459036  0.9229511860655109  0.2641274942050487
  0.8214861700106368  0.0324572550919626  0.3464885074669368
  0.7310083642080869  0.0694064057987518  0.4322781278499761
  0.6557660458466330  0.1629025645044848  0.5190627161232726
  0.5896852936426527  0.2351123731760154  0.5813129754711994
  0.6095297846367203  0.2468529421264662  0.7475858864379106
  0.5180807997036041  0.3386900165298670  0.8075398004065946
  0.4285710342567270  0.4204074512653904  0.9154305816803472
  0.3302093194254425  0.4899858232634173  0.0292192297461611
  0.2645181899794835  0.5734675658344699  0.1251897039823646
  0.1775237137102934  0.6774484287125730  0.1843781938744513
  0.0577374273255842  0.7202272543319665  0.2575877132732955
  0.0055090676774583  0.8441712603549192  0.3429954148616829
  0.8948842154012766  0.9303240789823661  0.4157676100091194
  0.8376625284997701  0.0024431686046498  0.4947225865443059
  0.7497124050007571  0.0839813549741635  0.5832356047651643
  0.6794661674456606  0.1597581775345773  0.6624770918832681
  0.6710550026599762  0.1642565653974799  0.8520418243654078
  0.5734028832269331  0.2546481266149883  0.9300881531197760
  0.4827217795257610  0.3178808628780985  0.9940167602409176
  0.4208186896754853  0.4056908691480459  0.0531479541913669
  0.3325363509841921  0.4882294488144083  0.1567593313003499
  0.2476293690150513  0.5870969818741472  0.2475808415032645
  0.1665851126690967  0.6861186326759352  0.3340615751823961
  0.0729598799209583  0.7534110199118373  0.4345404511513919
  0.9915808058785558  0.8536597877716972  0.5067461150060808
  0.9067113196344394  0.9120114217586277  0.5870932032793732
  0.8282899851801204  0.9933631573947395  0.6720689471234209
  0.7443608508131945  0.0772577861377144  0.7509001173240648
  0.7754650478796137  0.0876434574023435  0.9387832905836788
  0.6686970920732662  0.1789286736206108  0.0001970056239529
  0.5767209872321004  0.2455752949726389  0.0874863676090598
  0.4741014715382263  0.3500516852865161  0.1529271203830405
  0.4103058709530316  0.4148116568817457  0.2566114127336974
  0.3338866036821670  0.5136981019151818  0.3674943024205817
  0.2435632761437887  0.5842360778613767  0.4069395990082114
  0.1963506854195174  0.6754565231228185  0.5023850062699466
  0.1041868720550241  0.7627448852409202  0.5851365694824437
  0.0208544122397001  0.8317027777777781  0.6474030067259449
  0.9445917787657692  0.9070376833485341  0.7590084506573973
  0.8700377023483838  0.9924607315891478  0.8402575282147708
  0.8373777407280727  0.9841850333447297  0.0001333281083760
  0.7501419592643259  0.0672409850471212  0.0439893325353395
  0.6899889596633244  0.1622534460974308  0.1582965819273454
  0.5886614293585666  0.2341687960746341  0.2230475447446452
  0.4891000916742669  0.3284808833029302  0.3179854252165981
  0.4276761608907123  0.4008668115405101  0.4203757856437136
  0.3342481874145022  0.4860567606209116  0.4771555731304176
  0.2614505405456740  0.5852571045181634  0.5698284598723191
  0.1867114716332239  0.6910572940416486  0.6548210067069462
  0.1103953350623215  0.7521883317183438  0.7526737559849508
  0.9995220265237847  0.8347978416172666  0.8274384224426186
  0.9402660990462053  0.9102584354575143  0.9386509390674860
 
  0.00000000E+00  0.00000000E+00  0.00000000E+00
  0.00000000E+00  0.00000000E+00  0.00000000E+00
  0.00000000E+00  0.00000000E+00  0.00000000E+00
  0.00000000E+00  0.00000000E+00  0.00000000E+00
  0.00000000E+00  0.00000000E+00  0.00000000E+00
  0.00000000E+00  0.00000000E+00  0.00000000E+00
  0.00000000E+00  0.00000000E+00  0.00000000E+00
  0.00000000E+00  0.00000000E+00  0.00000000E+00
  0.00000000E+00  0.00000000E+00  0.00000000E+00
  0.00000000E+00  0.00000000E+00  0.00000000E+00
  0.00000000E+00  0.00000000E+00  0.00000000E+00
  0.00000000E+00  0.00000000E+00  0.00000000E+00
  0.00000000E+00  0.00000000E+00  0.00000000E+00
  0.00000000E+00  0.00000000E+00  0.00000000E+00
  0.00000000E+00  0.00000000E+00  0.00000000E+00
  0.00000000E+00  0.00000000E+00  0.00000000E+00
  0.00000000E+00  0.00000000E+00  0.00000000E+00
  0.00000000E+00  0.00000000E+00  0.00000000E+00
  0.00000000E+00  0.00000000E+00  0.00000000E+00
  0.00000000E+00  0.00000000E+00  0.00000000E+00
  0.00000000E+00  0.00000000E+00  0.00000000E+00
  0.00000000E+00  0.00000000E+00  0.00000000E+00
  0.00000000E+00  0.00000000E+00  0.00000000E+00
  0.00000000E+00  0.00000000E+00  0.00000000E+00
  0.00000000E+00  0.00000000E+00  0.00000000E+00
  0.00000000E+00  0.00000000E+00  0.00000000E+00
  0.00000000E+00  0.00000000E+00  0.00000000E+00
  0.00000000E+00  0.00000000E+00  0.00000000E+00
  0.00000000E+00  0.00000000E+00  0.00000000E+00
  0.00000000E+00  0.00000000E+00  0.00000000E+00
  0.00000000E+00  0.00000000E+00  0.00000000E+00
  0.00000000E+00  0.00000000E+00  0.00000000E+00
  0.00000000E+00  0.00000000E+00  0.00000000E+00
  0.00000000E+00  0.00000000E+00  0.00000000E+00
  0.00000000E+00  0.00000000E+00  0.00000000E+00
  0.00000000E+00  0.00000000E+00  0.00000000E+00
  0.00000000E+00  0.00000000E+00  0.00000000E+00
  0.00000000E+00  0.00000000E+00  0.00000000E+00
  0.00000000E+00  0.00000000E+00  0.00000000E+00
  0.00000000E+00  0.00000000E+00  0.00000000E+00
  0.00000000E+00  0.00000000E+00  0.00000000E+00
  0.00000000E+00  0.00000000E+00  0.00000000E+00
  0.00000000E+00  0.00000000E+00  0.00000000E+00
  0.00000000E+00  0.00000000E+00  0.00000000E+00
  0.00000000E+00  0.00000000E+00  0.00000000E+00
  0.00000000E+00  0.00000000E+00  0.00000000E+00
  0.00000000E+00  0.00000000E+00  0.00000000E+00
  0.00000000E+00  0.00000000E+00  0.00000000E+00
  0.00000000E+00  0.00000000E+00  0.00000000E+00
  0.00000000E+00  0.00000000E+00  0.00000000E+00
  0.00000000E+00  0.00000000E+00  0.00000000E+00
  0.00000000E+00  0.00000000E+00  0.00000000E+00
  0.00000000E+00  0.00000000E+00  0.00000000E+00
  0.00000000E+00  0.00000000E+00  0.00000000E+00
  0.00000000E+00  0.00000000E+00  0.00000000E+00
  0.00000000E+00  0.00000000E+00  0.00000000E+00
  0.00000000E+00  0.00000000E+00  0.00000000E+00
  0.00000000E+00  0.00000000E+00  0.00000000E+00
  0.00000000E+00  0.00000000E+00  0.00000000E+00
  0.00000000E+00  0.00000000E+00  0.00000000E+00
  0.00000000E+00  0.00000000E+00  0.00000000E+00
  0.00000000E+00  0.00000000E+00  0.00000000E+00
  0.00000000E+00  0.00000000E+00  0.00000000E+00
  0.00000000E+00  0.00000000E+00  0.00000000E+00
  0.00000000E+00  0.00000000E+00  0.00000000E+00
  0.00000000E+00  0.00000000E+00  0.00000000E+00
  0.00000000E+00  0.00000000E+00  0.00000000E+00
  0.00000000E+00  0.00000000E+00  0.00000000E+00