Li 
 1.0000000000000000
    21.0527999999999977    0.0000000000000000    0.0000000000000000
     0.0000000000000000   21.0527999999999977    0.0000000000000000
     0.0000000000000000    0.0000000000000000   21.0527999999999977
 Li 
 432
Cartesian
  0.7119666100000001 -0.3213444900000000  0.5675917200000000
 19.3787780000000005  1.0940934499999999  1.8498768800000001
 17.3917942500000002  3.4980536999999998  3.4203781800000002
 15.7947814500000003  5.7630499700000000  5.0168398700000001
 13.9413607800000001  7.5890427200000001  6.6265526200000000
 11.8792481999999993  8.8127729400000003  8.3489357000000002
 10.5348703100000005 10.5345014700000004  9.8516074299999996
  8.6606706899999999 12.1916538299999999 11.8128036099999996
  7.2472893200000001 13.7640713100000003 13.7356936199999993
  5.5180810400000002 15.8551131400000003 15.6343651399999999
  3.5901250999999998 17.1408994499999991 17.6786722000000012
  1.6209241700000001 19.2614544000000016 19.4114925700000001
  1.8049995299999999 19.3780810400000014  1.6958250399999999
  0.0814815300000000 -0.3137369500000000  3.6191434899999999
 18.8398503800000015  1.3920049100000000  5.3124357099999999
 17.3206893300000004  3.0756182000000001  6.8129255600000000
 15.5139841599999997  5.1152528200000003  8.8752723899999992
 14.3720616299999993  6.8560145900000000 10.2620508200000007
 12.0765657500000003  8.9081570200000009 12.3110548099999999
 10.6621400400000006 10.5238596100000006 14.2143929900000003
  9.0494294400000008 12.0410322999999995 15.7961114100000000
  7.0227703699999999 13.6068785800000001 17.6728487299999983
  5.1704578799999998 15.8108855199999994 19.4787025500000013
  3.6075990800000000 17.5634887100000014  0.4782105800000000
  3.6168078800000001 17.4139850600000017  3.7302617400000000
  1.8600877700000000 19.4131551599999987  5.6919870000000001
 -0.3593661500000000 -0.1300881300000000  7.3632693600000003
 19.1986699200000004  1.9906334000000001  8.7683198299999994
 17.4252815699999992  3.6190563199999999 10.2860935700000002
 16.2672276300000007  5.0402523099999996 12.4971569900000006
 14.4562152200000007  7.1239162199999999 13.7603572799999991
 12.7733169100000001  8.7508684500000005 15.8389088699999991
 10.6406772600000004 10.7135876700000008 17.5047573999999990
  8.2452068100000009 11.6909968600000003 19.5821267799999994
  6.7446896900000004 13.6339096699999995 21.1037000699999986
  5.5321180400000003 16.3637920500000007  2.1831299400000002
  5.4171349099999997 15.6382654999999993  5.5486501500000003
  3.2615290300000002 17.4260160599999985  7.1467563600000004
  2.1966450800000001 19.2883905099999993  9.2016013200000000
 -0.2834229700000000 -0.0089464600000000 10.3523063700000009
 19.4312804999999997  2.3373481300000001 12.9441302000000000
 17.4424803100000005  3.7335419999999999 14.4076280499999996
 16.0829574899999983  4.9212939599999999 16.0668126999999998
 14.0408317999999994  7.0598178500000000 17.6446161199999985
 12.2840556400000001  8.9819158800000007 19.2443681399999988
 10.2947023400000006 10.9656092100000002 -0.1299550700000000
  8.5053722500000006 12.1698685799999993  1.9356979599999999
  7.0466200499999996 13.9964581599999995  3.8365283899999998
  7.1834775899999999 13.9914864399999992  7.2669282500000003
  5.4873390300000002 15.7117962799999997  8.6117283300000000
  4.2634130399999997 17.7799208899999996 10.3443389499999991
  2.3269337900000000 19.1488936699999996 12.0289483799999992
  0.0185019800000000 -0.2851231400000000 13.9630669300000001
 19.4020459599999988  1.8694250699999999 15.6367521200000006
 17.7737104499999994  2.9157979699999999 17.5129547700000003
 15.8564590100000000  5.0618925600000004 19.3937785100000006
 13.7452925300000004  6.6486652700000004 -0.1944047300000000
 12.3451586399999993  8.6698467099999998  1.1491405200000000
  9.9667372699999994 10.2751818799999999  3.2671441099999998
  8.3122784999999997 12.3579023100000001  5.1715364399999997
  8.8003901599999992 12.4983807999999996  9.1615232599999992
  7.0256024600000000 14.0349577700000001 10.6508208700000004
  5.5170108700000000 16.0391308799999983 12.5278652200000007
  3.9667319800000000 17.4869603799999993 13.9457522300000001
  2.0839447799999999 19.1784116100000013 15.9465539399999994
  0.4601210300000000  0.4130970200000000 17.6413052899999983
 19.4071296099999984  1.7435155099999999 19.7231183200000011
 17.8311881700000008  3.2857475200000001 20.7333839200000014
 15.9268826499999996  5.3554586300000002  1.5801540800000000
 14.1116529899999996  7.4386969100000000  2.9361599699999998
 12.0173020899999994  8.8946347800000005  5.4916700900000004
 10.4215433700000002 10.7016432600000009  7.0602086399999999
  1.7880695700000000  1.6714865100000000 19.4191478400000008
  0.2496709000000000  3.2582534900000000  0.2896923700000000
 19.2181798800000010  5.3111291999999999  1.6708940000000001
 17.6403198400000001  7.0575337600000001  3.3890891000000001
 15.6452346999999996  8.6258482300000008  4.9250205400000002
 14.0080246800000001 10.7247214199999998  6.6563559999999997
 12.5891370699999996 12.3776532300000000  8.0451139400000002
 10.7269308799999994 13.8155500100000008  9.9855967499999991
  8.9715696099999995 15.3609599699999997 12.3963608300000008
  7.5682276999999996 18.0400843299999991 14.0141353100000003
  5.3007455500000003 18.9445451899999995 16.1814471699999984
  2.9175394699999999 -0.0701803600000000 17.3925821300000010
  3.3301487000000001 -0.1914192400000000 -0.3985907300000000
  1.9995797799999999  1.5736889700000001  2.3853770200000000
 -0.0514804100000000  3.4788528200000002  3.3567632999999999
 19.0747283000000003  4.9465048400000002  5.0334408499999999
 17.0337909200000013  6.8662128200000003  7.1916102200000003
 15.4877874400000000  9.5700134899999991  8.2946802399999999
 13.9281775499999991 10.7738129399999991 10.5234298800000001
 11.9972204999999992 12.2045163500000005 12.1245590199999995
 10.2680928999999992 13.8825316200000000 13.9233698900000000
  8.7950265200000004 15.9459385400000002 16.0721498300000007
  6.8780774800000000 17.1666992900000004 17.9761294900000017
  5.0033901800000002 19.3636947900000003 19.2144895300000016
  5.0035706700000002 19.2282859600000009  1.6320182900000000
  3.8605025300000002  0.0018933400000000  3.4791695699999998
  1.8403681400000000  0.9496407700000000  5.2980332099999998
  0.0556056000000000  2.9582085400000002  6.7765185199999998
 19.5472167100000007  5.2469099300000002  8.3002389300000008
 17.3872793600000008  7.2191946900000001 10.6104961000000007
 15.7917704800000003  8.9750815999999993 11.9104047299999998
 14.5262281200000007 10.4516906400000007 13.8668985300000003
 12.5154434000000006 12.1524947799999996 15.6248611400000001
 10.0632392999999993 13.5415757200000009 17.8627299099999988
  8.7073046299999994 15.7822560000000003 19.5814334700000003
  6.8918151700000001 17.7426537099999990 20.7714974599999991
  6.8405253899999998 18.0128641999999992  3.8637003399999998
  5.2112934600000003 19.5398572600000016  5.3046578300000000
  3.3273939700000001  0.0096446000000000  7.1979289700000004
  1.8435579499999999  1.6318471600000000  9.3800225899999994
  0.0332068900000000  3.7146941800000000 10.6292679600000000
 19.1891024600000009  5.2637114100000000 11.9594159700000002
 17.4829520299999999  7.0066780099999999 14.3586899399999997
 15.4695638899999999  8.4384726299999997 16.3352448099999989
 13.8386988899999999 10.7489431000000000 17.8286885499999990
 12.0932391599999995 12.2809318800000007 19.7342017100000007
 10.0926688799999997 13.8568489699999997 21.3331583100000017
  8.3325127800000001 15.7175898899999993  2.1471769100000002
  8.5546897499999996 15.8227237600000006  5.1396678099999997
  6.9219226999999997 17.6011064700000013  7.4067867500000002
  5.3121523100000001 19.4370167800000004  8.5994667000000007
  3.6990413499999999  0.2153901200000000 10.7565885500000000
  1.5914804499999999  1.6574393400000000 12.4757061999999994
  0.3535105700000000  3.7745020399999998 14.1193189100000005
 19.4591797500000006  5.2897379600000001 15.9819702100000001
 18.0166362900000010  7.0169491500000003 17.6418327999999995
 15.8935261800000003  8.1090427900000002 19.3680852100000003
 14.3249998699999992 10.4126971800000003 20.6782878699999983
 12.2258365300000005 12.0349363999999994  1.8989550200000000
 10.3306754800000000 13.7984715900000001  3.5498168699999999
 10.4820188699999992 14.2020442899999999  6.5525436199999998
  8.9448196699999993 15.9968762099999999  8.5678008899999991
  7.1162355200000000 17.3534697000000016 10.3892736800000005
  5.5296023999999999 19.2939961699999998 12.2292602600000002
  3.4716763799999999 -0.3903047800000000 13.7860899000000003
  1.5153709099999999  1.4015623900000000 15.5075656300000002
  0.2660214300000000  3.6379899600000001 17.7751966099999983
 19.4778470900000009  5.0038308400000000 19.2526413199999986
 17.7680574600000014  7.0198783799999998 21.1858534399999989
 15.9095821199999996  9.0179115400000001  1.5124553100000000
 14.2705514499999992 10.4331543100000008  3.3142110599999999
 12.2670542000000005 12.0447277699999997  4.6830651599999999
  3.3836934400000001  3.0482047300000001 17.3384017700000008
  1.9137311800000001  5.4805729500000000 19.0376981600000015
  0.1423828200000000  7.1457173500000000 -0.1564815500000000
 19.2722090199999982  8.9297789600000002  1.4045510000000001
 17.4427531800000004 10.6453951999999994  3.4261076300000002
 15.8334717800000000 12.6612279500000007  5.0104058499999997
 13.5668456299999995 14.7374040799999992  6.0633803700000000
 12.2966769500000002 16.1649895900000011  8.2899531599999996
 10.8024933799999996 17.5501087300000016 10.3521612199999993
  9.3015015000000005 19.4038826600000007 11.6850026200000006
  6.8957800999999996 20.5356397999999984 14.6521028799999993
  5.5128458800000004  1.3379358600000000 15.7914625399999995
  5.2072754699999999  1.6689888399999999 19.1602053300000001
  3.3664375999999998  3.7139230300000001 -0.2824323100000000
  1.5701328500000000  5.0909883599999999  2.0715150100000002
 -0.2426644600000000  7.1475473899999997  3.6334021299999999
 19.4455926099999985  8.7559128400000006  5.0803853600000002
 17.1700162399999989 10.6313026399999995  6.5751917899999999
 15.2407630699999999 12.9837688799999995  8.6234067799999998
 13.3217118499999998 14.1471249100000005 10.3008139900000000
 12.0890723100000006 15.6159482599999997 12.2757135399999999
 10.4112710499999999 17.3192242100000016 13.8547724999999993
  9.0548051600000008 19.2058826300000014 16.0619211399999990
  6.9848415199999998 21.2636226700000002 17.8105682200000004
  6.9193437900000001 -0.0400143500000000 -0.2089707500000000
  4.8894769900000004  1.6386370400000001  1.2772829000000001
  3.2705886000000000  3.5698415400000001  3.7307100599999998
  1.6354841300000000  5.1854699000000002  4.9763870199999998
  0.3031774500000000  6.8664384299999996  6.6269522700000003
 18.8778609999999993  8.5919053699999992  8.3233222199999997
 17.6982232000000010 10.4934983600000002  9.6968711200000008
 16.2517492899999993 12.1881798999999997 11.8645029300000004
 14.1796674199999995 13.6239409200000008 13.8716009800000002
 12.2174197699999993 15.3780265299999996 16.0737131600000005
 10.7633957400000000 17.6288100900000018 17.8242310500000016
  9.1283770700000009 19.1183383800000009 19.1337134000000013
  8.2739388100000006 19.4968048799999991  1.3648941299999999
  6.8214311299999997  0.1363764900000000  3.5730841899999999
  5.2248597500000002  1.6380153900000001  5.7235849900000000
  3.4198677399999999  3.5317470800000001  7.2758203200000002
  1.8214754399999999  5.2370226899999999  8.5216621900000007
 -0.0862142700000000  6.9855736899999998 10.6381089200000005
 19.0684295500000012  8.9401963900000005 12.2456905500000008
 17.3062304900000008 10.5881039500000007 13.9456671199999995
 16.2467323199999996 12.3557441299999997 16.0003341399999996
 13.8830998300000008 14.0424445200000001 18.1578127500000015
 11.9198687799999998 15.5879482300000003 19.8927496599999998
  9.9995256099999992 17.2461273300000002 21.4947998499999997
  9.4096758999999999 18.0721804599999984  3.4534734899999999
  8.0787805099999996 19.4443294000000009  5.5470377800000001
  7.0700388800000002 -0.1846405900000000  7.4596857099999996
  5.0681660600000003  1.6167042199999999  8.9189067800000004
  3.4181059100000000  3.5574842100000001 10.8439861000000004
  2.1808074000000000  5.2440695499999999 12.2555575399999999
 -0.1284427800000000  6.7030809900000001 14.0702622999999996
 19.0499937599999996  9.1637701000000007 15.5743623299999996
 17.4835782500000008 10.6310562100000006 17.8943875000000006
 15.7417123100000005 12.5817554499999993 19.1186379299999984
 14.0531130999999991 14.1552743700000008 21.1948213800000005
 11.7022830500000001 16.0955222400000011  2.2037453100000000
 11.7519438199999993 16.1132011000000013  4.4928438399999999
 10.5567390999999997 17.7094668400000010  6.8259764199999999
  8.8984017899999994 19.1223497900000012  8.9247273000000007
  7.4589756899999999 -0.1518353000000000 10.2470897599999997
  5.5362004300000001  1.5890146500000000 12.0887721700000004
  3.7134350800000000  3.3794953300000001 14.0304862999999997
  1.9074095400000000  5.2482215300000004 15.7986862899999991
 -0.2590030100000000  7.4529790299999998 17.4265364900000002
 19.6370550799999997  9.4828641499999993 19.4161211300000005
 17.5604229399999987 10.9574952200000002 20.6674298699999994
 15.4990696600000000 12.5712231899999995  1.6566988700000000
 13.9731498300000005 13.9502778599999999  3.2100737800000001
  5.0473980100000002  5.2543533900000003 15.6652807900000006
  3.4611494500000002  7.2980705099999996 17.3376774000000005
  1.6423336100000001  8.8313852799999992 19.3969842200000002
  0.6355335200000000 11.0944206600000008  0.5010845200000000
 19.1158633299999998 12.1612972199999998  2.0283719800000002
 17.6890946000000007 14.2579813800000004  3.3051556799999999
 15.5306656499999995 15.8934139699999992  4.6020583400000001
 13.8733313000000003 17.3372812900000000  6.0439710900000003
 12.6400252999999996 19.2236416100000014  8.5723006099999992
 10.8638801399999991  0.3000598900000000  9.8451619200000007
  8.4632904599999996  1.6896535500000001 12.3020470199999998
  6.8792328100000004  3.4361812999999999 14.2166325300000000
  6.9686880899999997  3.5240469900000000 17.4275281100000008
  4.7126521199999996  5.1316076600000002 18.9861005700000014
  3.7700293100000000  7.1870788799999996 -0.0296315300000000
  2.0215170499999999  8.5748414999999998  1.9730829400000001
  0.2884426800000000 10.5106280400000003  3.3352939600000000
 19.5778260599999996 12.2280854399999992  5.5451176000000002
 16.9615076500000015 14.0490466600000001  6.9667656800000000
 15.5986856199999995 15.6162281600000004  8.2480658800000004
 14.0477528700000001 17.3466402799999990 10.6805648899999994
 12.1354201699999997 19.0734483499999996 12.0484295400000008
 10.6819877200000004 20.7506177899999997 13.8446958400000000
  9.4298412400000000  1.3600779100000000 15.8878356899999993
  8.9368556100000003  1.9329115500000000 19.1694314400000003
  7.2478173100000003  3.7219759400000001 -0.0378210300000000
  5.1201207699999998  5.2339335000000000  1.5385849599999999
  3.3675348100000000  6.8713539199999998  3.9394693099999998
  1.3788777900000000  9.0053757000000001  5.1104066000000001
 -0.0765602900000000 10.5109625100000006  7.3351526099999997
 18.8634310700000007 12.6245165400000001  9.1110184899999993
 17.6885356700000003 14.1902117099999998 10.6433208599999993
 15.6303019899999995 15.6999953600000008 12.5892401700000001
 13.6925068099999994 16.9838015499999990 14.0869987099999996
 12.3634181999999999 19.2815208100000000 15.9829587499999999
 11.1122904200000008 -0.0814317300000000 17.8845201399999993
 10.0796375000000005  0.3601759300000000  0.1725684300000000
  7.8227913500000001  1.7946070000000001  1.9822110300000000
  6.3003563099999997  2.8230665199999998  4.1227206799999996
  5.0366280699999999  5.4749568499999999  5.4725030700000001
  3.2783069899999999  7.2808822500000003  6.5707117200000003
  1.3807600300000000  8.3586195300000004  8.5825738299999994
 -0.6894787800000000 10.5101017900000002 10.3726495900000000
 18.9425200899999986 12.0977454499999997 12.3769907000000003
 17.4920566499999985 14.2824849999999994 13.9913907399999999
 15.6137316100000003 15.7688270799999994 15.9347155500000000
 13.5335290599999993 17.6360083500000009 17.9021018699999992
 12.0075733200000005 19.5510447700000007 19.9414150300000017
 11.8065665899999992 19.6564230500000008  1.6581073500000001
 10.0533237599999996 -0.0381050400000000  3.7075959699999999
  8.8938252799999997  1.8692087399999999  5.9584065199999996
  7.2479813000000002  3.3958560699999998  7.1561667800000004
  5.2850286400000002  5.0540126900000004  8.0747522200000006
  3.5658302200000001  6.5946298099999998 10.6905635700000001
  1.4512080100000000  8.4938083800000008 12.2530386900000003
  0.5392491400000000 11.0074495199999998 14.2711016300000004
 19.2759200200000009 12.2080404700000003 15.9780274099999993
 17.9547082399999987 14.6475072900000001 18.0236546799999999
 15.8387553200000006 16.0319851600000014 19.4394623700000011
 13.3093948300000005 17.3973436700000015 -0.1703005000000000
 13.9348361199999999 17.7804205499999988  2.9255567099999999
 12.1170447100000001 19.3961583500000003  4.8155552799999999
 10.6418788800000002 -0.1306451100000000  6.7958311399999998
  9.1961080899999992  1.8443195500000000  8.7903925699999998
  7.2383234200000004  3.8423068699999998 10.3717901399999999
  5.0098582000000000  5.1321118500000003 12.4079870799999998
  3.3106789700000001  6.8453325700000001 13.8908214200000000
  1.8920010100000000  8.7595055399999993 15.7984294799999994
  0.4587796200000000 10.5758565800000000 17.3524789199999994
 19.6933228999999983 12.3979437000000008 18.7433283000000017
 17.5425870900000014 14.3195887600000002  0.2269012600000000
 15.4443628099999994 15.9944885100000000  1.9590716200000000
  6.6880674600000001  6.8418133100000000 13.6290635699999996
  5.1300469399999997  9.5514339499999998 15.1598512099999994
  3.6777408700000001 10.0720755099999995 17.3436730200000007
  2.5107980099999998 12.7368321699999996 19.2122405299999990
  0.2052219000000000 13.7997905799999998  0.0559763400000000
 19.6945868100000006 15.8585336300000002  1.9739956999999999
 17.4658301999999992 17.6177299500000011  3.1007645199999998
 15.9537967999999992 19.7714960899999994  4.9822319500000001
 13.8550002400000007  0.1862838600000000  6.7400840300000002
 12.7066996999999997  1.8618337100000000  8.7858819399999994
 10.7026553900000003  3.0904581699999998 10.5515728899999992
  9.0949670499999993  5.0795744699999998 12.3249645000000001
  8.8986853499999992  5.2717894500000000 15.7524252600000008
  6.4453900199999996  7.0058049100000002 17.4651218700000008
  5.6287276999999998  8.7213721599999996 19.2606317000000011
  3.7085054500000001 10.4947199700000002  0.1498229700000000
  2.4066780799999998 12.8960012499999994  2.0994866900000000
 -0.3976394900000000 13.9708892999999996  3.9193980700000002
 19.4406587000000002 16.1069112700000012  5.9368811399999997
 17.0176108100000008 17.7198820599999998  6.7456344200000000
 15.4570504700000004 19.6909172400000010  8.6445089300000006
 14.3136952399999995 -0.3312885100000000 10.9090804200000004
 12.4350867600000008  0.9881418700000000 12.5303760799999999
 11.1842048999999992  3.3144916599999998 14.1165951599999993
 10.8761012600000004  3.3543664299999998 17.4314804000000017
  8.7350293499999996  5.3891906499999997 18.4363639500000005
  7.0242125900000003  6.9761213599999996 -0.5502157300000000
  5.4216469299999996  8.6820308900000001  1.8250787399999999
  3.5565107999999999 10.2132242299999998  3.6411308099999999
  1.8610145000000000 12.4205729300000005  4.9857024599999997
 -0.3068526500000000 14.1082791400000005  7.3017454500000003
 19.0516608500000011 15.9699051000000001  9.0902590300000004
 17.1141617699999991 17.5915814499999996 10.3482204499999995
 15.6233482200000005 18.7526236799999992 12.3231991000000001
 14.1404163999999994 -0.5539734400000000 14.3461349600000005
 12.7955348000000004  1.3211632700000000 15.6337018499999996
 12.1010942099999994  2.0873815499999999 19.7509398599999990
  9.9615654300000003  3.5638739099999999  0.3703589100000000
  8.2542863900000008  5.1952057800000002  2.1244849700000001
  6.8379031499999998  6.8550055399999996  3.2298965900000001
  5.5378113100000004  8.8985741300000001  5.5037272000000002
  3.4654856199999999 10.5760131099999999  6.8557790699999996
  1.4295837499999999 12.2162850200000008  8.9279798800000005
 -0.2744463100000000 14.2795869300000007 11.1552651399999991
 19.0725197400000006 15.6715155700000004 12.2917111299999995
 17.6913642300000014 17.6190796300000017 14.3323957600000007
 15.8579222299999998 19.1131252300000014 15.7592094199999995
 14.2952434900000007  0.1966714900000000 18.2869527699999992
 13.7656644700000008  0.0581984200000000  0.1048083800000000
 12.1801532300000002  1.9672829500000000  1.9854391800000000
  9.8971967099999993  3.2992919800000000  3.7824049400000002
  8.5020109700000006  5.0775432699999996  5.1451987700000004
  7.0760491099999996  7.4143982599999996  6.8632391000000004
  5.1583166900000004  8.5818238400000002  8.7298516500000005
  3.2001691999999999 10.5960659100000001 10.1799411000000006
  2.0677505900000002 12.5459901100000000 12.1732965100000001
  0.1497906800000000 14.2945400300000003 13.9623677399999995
 19.4450610899999994 15.6525660200000001 15.7073554400000006
 17.6375672700000017 17.9314322200000014 17.7823793999999999
 15.7180740799999992 19.3824906699999993 19.4036511300000001
 15.5552254899999998 19.4072718199999983  1.3812030900000001
 13.7329009800000001  0.1377590100000000  3.2958077000000001
 12.5398615400000004  2.0290241600000001  5.3843395999999997
 10.9004138000000008  3.7710910100000001  7.3050034500000001
  8.8134149700000002  4.8018867299999997  8.7047999399999991
  7.0275357700000001  6.6586756300000003 10.2676871799999994
  5.4063977400000001  8.7152647299999995 12.1157989199999996
  3.7870804300000001 10.8331948899999997 13.5744339600000004
  2.0542659699999999 12.5559762100000007 15.8947916599999992
  0.3166735300000000 14.1740549700000003 17.5060165800000007
 19.7351159000000003 16.0803658300000016 19.3802265799999986
 17.3310867299999991 17.3265136400000017 -0.3015816500000000
  9.0501560600000008  8.4748883599999996 12.0784431800000007
  6.9150284299999996 11.0048388199999998 14.0795991800000007
  5.0895133100000001 12.2390496700000000 16.1125284300000011
  3.6377855100000001 14.3141531299999993 17.6883082400000013
  1.7626094200000000 15.9071219199999998 19.8594398299999995
  0.5448607000000000 17.4739429500000014  0.0623220400000000
 19.2722945000000010 19.1365134200000000  1.7667958600000000
 17.2667247300000000 20.9259109000000016  3.3951808099999998
 15.7373480099999998  1.9449348200000001  5.1004996100000000
 14.1640924800000008  3.7031783900000002  7.0513408799999997
 12.5817618400000004  5.4696795299999996  8.4398305800000006
 10.8515289500000005  6.6423614999999998 10.4508119199999996
 10.8105180099999991  6.9141541899999996 14.1408160499999997
  8.7779893599999994  8.9392977499999997 15.5699772000000003
  7.4212918900000000 10.0930306600000002 17.4722393700000005
  5.5730023500000003 12.3500549599999996 19.3242978000000001
  4.0274987900000001 14.4146068599999992  0.5074544200000000
  1.7199812600000000 15.6834756399999993  2.1703825700000001
  0.1039300900000000 17.9137612500000003  4.1613859099999999
 18.5496986499999998 19.4307067300000007  5.5606233100000004
 17.2945840400000002 21.7361161000000003  7.2945532499999999
 15.3897728899999997  1.4611991799999999  9.1006649700000004
 13.8057114100000007  3.4295551099999999 10.9277235499999996
 12.4145265499999997  4.9497737700000002 12.2382658099999997
 12.8323086499999999  5.1969456200000002 15.7387761499999996
 10.9070514599999999  7.1303731800000003 17.0009739099999990
  9.0226202700000009  8.8507539899999994 19.2723769500000017
  6.9518307600000000 10.3155735400000008  0.6151466000000000
  5.5688485500000002 12.0730979699999992  2.6355938000000001
  3.7373712399999999 14.2621862799999999  3.8816772400000001
  1.2155345099999999 15.1628003400000004  5.4229426099999998
  0.1159813000000000 17.7721687099999990  7.2210138700000002
 18.8398184099999995 19.5859267700000004  8.7530723399999992
 17.6351416800000003  0.0514355400000000 10.4152956700000008
 15.7835453200000000  1.7680426700000000 12.2787425399999997
 14.3046653300000006  3.3633569600000000 13.9469977200000006
 14.1275867599999998  3.4580606199999999 17.9378661199999989
 12.0717362200000000  5.3610560800000000 19.5809598700000009
 10.1626450800000008  6.6922822300000000 -0.1259639500000000
  8.8594117099999998  8.5409287299999992  1.1189132500000001
  7.0008212900000002 10.2785969399999999  3.3002228499999999
  5.2132915799999999 12.3600353399999996  5.2122699399999997
  3.5070830599999998 14.4447183500000005  7.0329315299999999
  1.5360097600000000 15.8614115200000008  9.1482932100000003
 -0.1772476100000000 17.9719287799999989 10.6684246100000006
 19.0888120699999995 19.2003940600000007 12.3599557900000008
 17.4378233999999992 20.9130758800000010 14.1489331299999996
 15.6708801199999996  1.6264927199999999 15.8085499899999995
 16.3257105600000010  1.8451401800000000 19.7640168600000017
 14.0779461399999999  3.7669495799999999  0.0041475200000000
 12.1415915999999999  5.1700475700000004  1.8418330000000001
  9.9811634599999994  7.3695681200000003  3.2195440799999999
  8.6380874399999996  8.7329468499999994  5.4023887500000001
  7.0292478899999997 10.8147833999999996  7.7367840499999998
  5.1276889399999996 12.2998052999999992  8.5672179899999996
  4.1337317100000002 14.2202510899999996 10.5766110599999994
  2.1934253799999999 16.0579155200000017 12.3187631700000004
  0.4390437700000000 17.5096722400000004 13.6296460199999991
 19.8863017999999983 19.0956829399999997 15.9792531100000001
 18.3167297399999995 20.8940772899999985 17.6897736899999991
 17.6291460999999998 -0.3329493300000000  0.0028069300000000
 15.7925886400000000  1.4156110099999999  0.9260986200000000
 14.5261995699999993  3.4158893500000000  3.3325862800000001
 12.3929713400000008  4.9299088299999996  4.6957753499999999
 10.2969264099999993  6.9154423400000002  6.6944835600000001
  9.0037806800000002  8.4393688099999995  8.8500873400000000
  7.0368602400000002 10.2328557700000005 10.0454608499999996
  5.5042659399999998 12.3213007700000006 11.9964846000000005
  3.9307992700000001 14.5486909999999998 13.7858156899999997
  2.3241309100000000 15.8356705099999999 15.8458900499999995
 -0.0100626800000000 17.5748320000000007 17.4198956199999984
 19.7952341300000008 19.1634887899999988 19.7612304899999991
