Li                                      
   1.00000000000000     
   -11.1791050000000016   19.3627778431472777   -0.0000000000000023
   -19.1641800000000018  -11.0644444817984429   -0.0000000000000019
     0.0000000000000000   -0.0000000000000001   23.4479499999999987
   Li
   504
Direct
  0.0107503514578724  0.0071379929778175  0.0045784130382387
  0.9134745845542369  0.0445528817010086  0.6670467627233947
  0.8510256247272636  0.0783484956561296  0.3247810857665598
  0.7912970416443699  0.1117681902000598  0.9897422764036961
  0.7088335368379077  0.1669275483828514  0.6702253019986841
  0.6587067017099599  0.2039178408562563  0.3262968536695112
  0.5693230347676774  0.2488726684582119  0.9959981145473265
  0.5013989454815899  0.2958688334993766  0.6580350341927570
  0.4235291424574328  0.3322111165679118  0.3487832543996419
  0.3597365762153331  0.3725412092846270  0.9874553728577524
  0.2809380730911499  0.4168563007870105  0.6655017282960785
  0.2248377288808925  0.4514081401280379  0.3375908896086841
  0.0628993471989645  0.0345968021189194  0.6552594870766981
  0.9930216599634605  0.0726049440150405  0.3356338873974067
  0.9241776729957323  0.1203313408100470  0.0090870536656737
  0.8536808513607284  0.1566629329378557  0.6576426531956940
  0.7890480076239612  0.2058824266277526  0.3569581114766933
  0.7189411565016144  0.2369990603640204  0.9959845914035128
  0.6454609089992402  0.2909802649997033  0.6669223245528926
  0.5766339624104546  0.3303472132722334  0.3420696316735601
  0.5002804770842175  0.3768953953273950  0.9945526163267999
  0.4254336334748388  0.4159125864426869  0.6687274900364457
  0.3578134731187745  0.4616784789952177  0.3415544314108487
  0.2873567446547511  0.5169955859862725  0.9915458084821935
  0.1427117144486516  0.0857518119454355  0.3513737081493247
  0.0679236307906379  0.1241412468162082  0.0034748108043559
  0.9964399164990922  0.1529362397590361  0.6473667736411954
  0.9243240028107493  0.2056697139433226  0.3108508347211583
  0.8564154304000269  0.2277084425181712  0.0050849310920569
  0.7946570352018156  0.2780783860561868  0.6669867570512551
  0.7087405528546427  0.3323625546138658  0.3384515367015055
  0.6439758684993677  0.3625873874373653  0.9893600212385323
  0.5713007043827076  0.4226765788638858  0.6697759838280106
  0.4908262511757897  0.4611128908906892  0.3326547493490892
  0.4260771255205071  0.5010778810107226  0.0034496550871168
  0.3591974035238934  0.5428620421160204  0.6655873579566673
  0.2170877422273065  0.1385098436472632  0.0137330286869428
  0.1392530892343800  0.1649907271730129  0.6717238504858614
  0.0618470365847799  0.2015068097920150  0.3361586641902576
  0.9994624151967173  0.2523438361026820  0.9927154753400629
  0.9283797287324234  0.2806418068828762  0.6566137129258607
  0.8537121429957253  0.3278927516687773  0.3340972929403208
  0.7862921632024396  0.3685057313635554  0.9966041240278969
  0.7180320359866883  0.4218846851960762  0.6737736770165412
  0.6448529121271989  0.4598293016332704  0.3673031284184773
  0.5801109914778806  0.4974226705559346  0.0129020340797368
  0.5043809816121509  0.5510011384027251  0.6607648928797616
  0.4249285781499239  0.5857321240648545  0.3361648318936190
  0.2826610997962007  0.1758528513071127  0.6642647971357860
  0.2218661529629458  0.2091914144033922  0.3373393367010777
  0.1450766045635419  0.2534720788753120  0.9829794668617069
  0.0725142462685469  0.2798433826528495  0.6769180307873413
  0.9978990458352612  0.3260457513552808  0.3375156203420744
  0.9254210456164884  0.3847974143346349  0.9897204979539822
  0.8655311789462203  0.4024465920162754  0.6550633053209367
  0.7816300469894912  0.4541854002388632  0.3357835772423599
  0.7261503774591986  0.4994169014585523  0.0027243136393622
  0.6505182494891173  0.5560106409220182  0.6755010898607310
  0.5678700924786710  0.5797214668105397  0.3406013050181329
  0.4947928435097992  0.6371242332912459  0.0032182966954437
  0.3610243546157719  0.2209796052945165  0.3372832187888477
  0.2881108498496374  0.2559316280629602  0.9927335391793335
  0.2107679607323476  0.2957502354046539  0.6970248729633113
  0.1439837903535022  0.3366056345400708  0.3334800500683457
  0.0670821232997341  0.3796927877952143  0.9933888847425862
  0.0156285958926787  0.4061620166118871  0.6635332709256048
  0.9349045805635043  0.4565583953448353  0.3217485515791338
  0.8575895122995334  0.5003061641617208  0.9905775268200401
  0.7875349133109424  0.5360735326495103  0.6765849278934866
  0.7064316130383119  0.5838333198981331  0.3466330122675956
  0.6351973030848086  0.6215561095281998  0.0048625837226695
  0.5703467332839267  0.6729637689800398  0.6652422237338413
  0.4133512992007695  0.2420876314221729  0.9965955339379349
  0.3548639440156762  0.2982404130588776  0.6676310035632085
  0.2873974388550167  0.3303011594708778  0.3216492196545957
  0.2133640401023342  0.3780972930995148  0.9992515077010964
  0.1450302202818463  0.4139300037515881  0.6464820327576604
  0.0724167421085085  0.4566319256138840  0.3290337931460954
  0.0013787992721532  0.4977630938637958  0.0057028384144431
  0.9352257311360930  0.5347392094484533  0.6577635733614215
  0.8629175746797486  0.5891388416467436  0.3493870747762600
  0.8008415331908623  0.6159078782446414  0.0065453649466178
  0.7153007514446159  0.6576196629869742  0.6755334607076549
  0.6407531165221059  0.7081354188554982  0.3253115304322947
  0.1441708354216686  0.5113653755539502  0.9938300623295433
  0.0835941039518531  0.5414683912664842  0.6391120025418005
  0.0112966697591474  0.5880214917941800  0.3083110553374624
  0.9351411466852966  0.6340768022104086  0.9956909252194777
  0.8456480805323281  0.6720192684832185  0.6581229936945476
  0.7732999114060846  0.6988623345168250  0.3237138811708462
  0.7142855057401860  0.7462695273866302  0.9931953940536360
  0.2255176674916868  0.5421593804564182  0.6432022752522073
  0.1490474363596590  0.5819907143929228  0.3026878831624913
  0.0807708294225407  0.6362270964345100  0.9947932582592500
  0.0044456864873794  0.6721841693179940  0.6340092037896738
  0.9334303654968252  0.7088140152055828  0.3276171707974456
  0.8631558759264593  0.7416067831574935  0.0113103810780899
  0.7860011651238992  0.7863662987384572  0.6600405741226822
  0.2861075207229788  0.5913909807019166  0.3300607494471777
  0.2118361074539550  0.6335247259199690  0.9955370243454098
  0.1438783095636751  0.6655628438140937  0.6542169097938171
  0.0750048058461203  0.7012495462859150  0.3133500323055927
  0.0077607594579021  0.7518183744433813  0.9925449909267101
  0.9272816760097271  0.7960138147998634  0.6618006324646686
  0.8543806897139916  0.8388756763772278  0.3412401173663397
  0.3567808740343210  0.6271487288878816  0.0043297251998595
  0.2904125149909618  0.6592269203066294  0.6854977194168370
  0.2101699659788778  0.7124413777409586  0.3405128448329151
  0.1506571783749919  0.7541737263969708  0.9878869478994972
  0.0669855319238550  0.7943423791230515  0.6457492083529672
  0.0050848523780829  0.8306605636847451  0.3118459895214727
  0.9293285401760585  0.8738052319418372  0.0019885405760434
  0.4231929842698534  0.6638749465713616  0.6703907458861025
  0.3601046722472887  0.7010062928837542  0.3384790858049413
  0.2914054034685378  0.7620112833973494  0.9905196582217215
  0.2110386495646281  0.7887380032674898  0.6662074420151853
  0.1512821766751529  0.8348960269794929  0.3500024889169424
  0.0815615507576055  0.8789399389964956  0.9895016856484276
  0.9930551099618299  0.9237492209398042  0.6553304821956729
  0.9116821490570430  0.9528691777610945  0.3557482803400731
  0.8563904992551414  0.0010845247657016  0.9971306310359722
  0.7812824634966304  0.0383634961638037  0.6423010612868083
  0.7038348200842464  0.0899370321935038  0.3294451753778063
  0.6395725472105198  0.1061618717636819  0.0031085915826310
  0.5641244446233245  0.1743362940908071  0.6441978906471562
  0.5047878736435791  0.2175832739940731  0.3364302614940726
  0.0674051312299397  0.9564419062251375  0.3482772024846525
  0.1500047695731723  0.0121938872647149  0.0196573832680471
  0.2028052737572281  0.0321509002792766  0.6953729699184805
  0.2923909841278203  0.0832105254376501  0.3344252879249581
  0.3531752258170329  0.1425293822742546  0.9921264383453590
  0.4240750654822207  0.1686807995485538  0.6657922624365895
  0.8573875304895608  0.9139279197422780  0.6569180324932447
  0.7656645509360800  0.9612647747155236  0.3366398529508956
  0.7158023981845361  0.9929382713710311  0.9859111883981342
  0.6408299813947167  0.0467200459837258  0.6553897773579322
  0.5761992727649243  0.0924940283819780  0.3331770866962813
  0.4948222060648106  0.1324799595949244  0.0093758810471698
  0.1341058168818705  0.9106692058813266  0.6703029855488438
  0.2182151886611550  0.9572006735149685  0.3302508475154582
  0.2849603539678256  0.0112612719227485  0.0209522939105540
  0.3423799707636590  0.0468693347138327  0.6957981793717565
  0.4333592570940397  0.0879223808283882  0.3149503803104352
  0.7829374576938477  0.8690737898520808  0.9939215615864043
  0.7062633520572774  0.9292573650268210  0.6537003750860961
  0.6383134841916913  0.9627027155508472  0.3223884808693285
  0.5737745177888343  0.9973358129236018  0.0053230137389377
  0.4899529361319281  0.0503475051853428  0.6754622451003200
  0.2162262542842726  0.8908003598170851  0.0003922846133690
  0.2898757755903176  0.9157715935521082  0.6816554278732241
  0.3542960739053598  0.9558693603756723  0.3383699986565958
  0.4270313224921054  0.0119542160202997  0.0167495806669677
  0.7091528359405288  0.8358324789254254  0.3245166353561828
  0.6449874998597309  0.8672675358601651  0.9987325228857955
  0.5603970364389710  0.9328879283099951  0.6656484413349588
  0.5005343600935532  0.9660353301005529  0.3415224388485996
  0.2857697220789532  0.8223769903569362  0.3452583398548725
  0.3510339733716421  0.8921673806607515  0.0146607187408705
  0.4184287385330094  0.9070828674601188  0.6714534114922657
  0.6494251156815025  0.8059940582983103  0.6525169859198812
  0.5685280715075933  0.8353387430700963  0.3258009949697112
  0.4996968063550042  0.8858397668772042  0.0058350141483601
  0.3521328679864695  0.7970072450179515  0.6668733705931658
  0.4267738909861407  0.8356350285484382  0.3343508596700389
  0.5681530328758697  0.7362215753250183  0.9959959216050862
  0.4846591415656789  0.7951512533918716  0.6788907584671549
  0.4214216227315504  0.7550983741654278  0.0077806396721272
  0.4985106840652307  0.6987599667302717  0.3204062188805423
  0.9898076980782662  0.9983080905822632  0.7663316477559903
  0.9348007032668875  0.0418783858273954  0.4365605342897751
  0.8682221688203953  0.0822487631314814  0.1010245599295487
  0.7860233611572340  0.1325118603128530  0.7713811667970987
  0.7100001340622271  0.1451916774578592  0.4395127676406716
  0.6362771758353816  0.2048138653588509  0.1246841719638638
  0.5766066821618026  0.2416762291113699  0.7692081294953326
  0.4960574176826142  0.2954736337112891  0.4447107064796683
  0.4381573062508437  0.3339860936864838  0.1032458240485852
  0.3579485912514713  0.3695621536532059  0.7943016613392615
  0.2863239267158093  0.4229667817371592  0.4358358146447756
  0.2200578877257726  0.4416348195975672  0.1028128497373970
  0.0767091576579872  0.0416189433662097  0.4540814668233253
  0.0105684690355972  0.0710403192289917  0.1063284189022937
  0.9206654153658249  0.1279934874206390  0.7619086393480003
  0.8688228091689254  0.1709557883460491  0.4549567936642660
  0.7833148808719912  0.1960061974302860  0.0917427903078973
  0.7151207587363402  0.2605581235621202  0.7714403813552977
  0.6580731142998317  0.3005656092546189  0.4539256664228617
  0.5743371805668716  0.3172600775529659  0.1160442776447397
  0.4977293210897784  0.3594543193582354  0.7845125023722730
  0.4323848477216714  0.4287882375823244  0.4505192534955071
  0.3704983954508521  0.4560160259882480  0.1305580223431022
  0.2713270420058720  0.4922317280508182  0.7804650598453193
  0.1558540805906077  0.0770882306677976  0.1234599869071715
  0.0674833714283523  0.1150112733781725  0.7687397648834988
  0.0049215911030984  0.1734493673244231  0.4263268464833843
  0.9161782819941990  0.1757210867810315  0.1395239814141505
  0.8496782914024195  0.2577039885970436  0.7750853844365935
  0.7758163493755745  0.2866036939547527  0.4542130983732022
  0.7108258767275686  0.3388000972306386  0.0887202463328336
  0.6392997695414735  0.3729538242606836  0.7779832620762193
  0.5813833625844609  0.4299755436661172  0.4644652108180054
  0.5150634834248535  0.4513758917484481  0.1099402732435024
  0.4363326369930505  0.4909292694040559  0.7841480150716791
  0.3524424980423433  0.5443850698502288  0.4470173315790902
  0.2230254984089939  0.1255491743246253  0.7981847265965669
  0.1320274645074804  0.1815676763309000  0.4616378851882601
  0.0741009064610552  0.2071290170556068  0.1051701828944545
  0.9942177647035066  0.2471487032324973  0.7761416729394242
  0.9303898313037635  0.3027025040947748  0.4328440524651427
  0.8472167630711027  0.3222183494346211  0.1143329395533499
  0.8011389733490688  0.3951098647235938  0.7895123164285138
  0.7217854419011402  0.4260024784528085  0.4571750340648109
  0.6466503045995040  0.4626043502304924  0.1322906595246067
  0.5775435470149048  0.4909789673154776  0.7958607375058406
  0.5070094016451847  0.5467811862037024  0.4480853618333356
  0.4284931439856337  0.5881534843444598  0.1193599692083964
  0.2635186565195582  0.1607520211826952  0.4462896265984853
  0.2186438519310485  0.2237992902205264  0.1142458888730147
  0.1336144578840361  0.2587404979391934  0.7843530816126787
  0.0707200824840584  0.3027159060446110  0.4416231030857745
  0.9776460353840903  0.3210121798901682  0.1054023878420054
  0.9310663376429247  0.3811833101924691  0.7646580417477864
  0.8433410179401335  0.4092474533030028  0.4231257124823316
  0.7866461866868306  0.4542694892856503  0.1041385797052641
  0.7033423765284823  0.5081113004489879  0.7894190050729364
  0.6524141402501513  0.5587655032805401  0.4649892387180969
  0.5809137405621030  0.5819012698854564  0.1175310988807112
  0.5079999009136458  0.6012733342985115  0.8017316503148493
  0.3729512287588648  0.2007753378347346  0.1199185877656674
  0.2866673441360277  0.2458535215089910  0.7871380308299862
  0.2020398351339168  0.3056667344418216  0.4408910152060201
  0.1278951380134288  0.3443969167038929  0.0840321772265824
  0.0611174885209351  0.3751805523893097  0.7718136451160973
  0.9859629959594187  0.4079331790901080  0.4538217805820963
  0.9350995328583451  0.4340548333779779  0.1230390695135384
  0.8550199681146893  0.4943850532268641  0.7815209086508617
  0.8037915375268341  0.5440585745842554  0.4450603506916408
  0.7259579391227291  0.5939704726715931  0.1098461635238905
  0.6542168429421480  0.6203474320310676  0.7819187387383550
  0.5828767018883383  0.6768461978303577  0.4433170029789366
  0.4356696749088727  0.2505012757591416  0.7818662292439242
  0.3368972127769965  0.2868955908449280  0.4295603479195407
  0.3035679449695934  0.3445516107942339  0.1008362581803510
  0.2141554885634207  0.3579945532249909  0.7870518271320108
  0.1405878352718091  0.4268961916332330  0.4641319053478057
  0.0765078737136662  0.4381284717858094  0.1002236165634969
  0.0033712529561711  0.5138843440847154  0.7767264119038160
  0.9368383260280098  0.5634792584555441  0.4304488439287866
  0.8489408061171488  0.5828692169261487  0.1158494192456061
  0.7963248350131664  0.6236628384454832  0.7887652357668813
  0.7201275652259937  0.6667629935089465  0.4550266091492006
  0.6292653141772604  0.7121073810595817  0.1124125443802129
  0.1462998784079730  0.4833912360346275  0.7634106508244827
  0.0635381170270151  0.5509868863814020  0.4341834736085701
  0.9822079522143454  0.5573350433131452  0.0871494305472353
  0.9422710702534616  0.6223721175220760  0.7839230086212226
  0.8554905629623235  0.6864992887843400  0.4440278936964646
  0.7890702349603842  0.7211269671336424  0.1349366562961762
  0.7143544723873134  0.7432170176841666  0.7854812813060406
  0.2202910867096435  0.5568222293418685  0.4309957348083771
  0.1418219626675850  0.5640701651744564  0.1111730641697903
  0.0812595111010808  0.6357424091796418  0.7776266586204770
  0.0042769517350862  0.6660961516471602  0.4292075332811578
  0.9335112005146939  0.7147029588936320  0.1169348953746479
  0.8489574875977652  0.7413324115933122  0.7981316490354189
  0.7643951765593613  0.7907568854889391  0.4436471909058142
  0.2778807571174866  0.5597393793370813  0.1200225883286166
  0.2182040806949459  0.6109156614310010  0.7805257623800799
  0.1510468657810904  0.6768689976566833  0.4362728473064834
  0.0764173950345892  0.6834604254959942  0.0880652001560875
  0.9942667144807800  0.7651807194888747  0.7563235596288820
  0.9277365526841663  0.8089638401019812  0.4419180299343850
  0.8624380843664028  0.8413907111532595  0.1009018711657106
  0.3610912264712098  0.6054688692497976  0.7858437236517517
  0.2713565123749433  0.6537136389726399  0.4367632185329668
  0.2115035796983378  0.6867730909789174  0.1034069545525327
  0.1458291165005008  0.7442224866695923  0.7600447953872305
  0.0737342367453238  0.7937071815923886  0.4219354088523701
  0.0032980213399654  0.8214548315215282  0.1076588848918547
  0.9160082193540831  0.8764195219924744  0.7781649188948307
  0.4229796636410654  0.6718367218055690  0.4496522446525191
  0.3695504622275081  0.6919851759877105  0.1108113361722474
  0.3000062750016710  0.7167407100693808  0.7731756174846822
  0.2028042689954219  0.7928658660298495  0.4442967009909182
  0.1396718541722279  0.8103376855500244  0.0955849466584482
  0.0652121235955718  0.8732264658885569  0.7581338765222583
  0.0101427209669112  0.9186236753842465  0.4244970737313949
  0.9257228725158626  0.9448646483827403  0.1154725346991938
  0.8665905217533023  0.9979717611353607  0.7735634765512529
  0.7885387104172707  0.0473092310592307  0.4426341057533847
  0.7100984306699019  0.0797228899543825  0.0985531588049255
  0.6505478154751074  0.1267554407902196  0.7901471117944183
  0.5628514197067531  0.1613988331198684  0.4472179141460160
  0.4860202275849232  0.2210740691072743  0.1204949882612354
  0.0910748887047248  0.9456043585640828  0.1294063498088320
  0.1458679270208023  0.0074317355452820  0.7820954991801017
  0.2105773513015095  0.0288772240282924  0.4772890329431760
  0.2902223510640596  0.0757508666746034  0.1330796653865249
  0.3599437502205305  0.1124235548920396  0.7809085254787718
  0.4103188869016847  0.1785882865764634  0.4562378378493648
  0.8501963037898719  0.9105385218319313  0.4392680814314289
  0.7928767089889988  0.9676613770147000  0.1160929172912759
  0.7294579766768834  0.9793820338590820  0.7591368320045007
  0.6420371910492335  0.0412117036761046  0.4516173000198336
  0.5791618613227314  0.0882707358351738  0.1080704240669235
  0.5056684498431139  0.1318770995689178  0.7654130761964240
  0.1323459849239583  0.9249089858374688  0.4638719171611996
  0.2284350503062385  0.9524884496464878  0.1303441059879447
  0.2970273288104153  0.9906824948084818  0.8061571463603414
  0.3469598762208292  0.0288241731678767  0.4536131802566956
  0.4425174507582881  0.0816481181892854  0.1203801645772842
  0.7776617063650448  0.8614962669973849  0.7592363468874694
  0.6892865276946623  0.9157967218955321  0.4399128947306679
  0.6588850321675608  0.9606128549445074  0.1184391202642416
  0.5865287909629728  0.9964071298799055  0.7634585650344690
  0.4780426518465504  0.0338974837707084  0.4375320247612251
  0.2198991851585248  0.8702117820693829  0.7695641068835428
  0.2802567077074869  0.8925310833849238  0.4631652626349023
  0.3667539798450434  0.9559190714209720  0.1257963514934133
  0.4432354987500915  0.9977608423499120  0.7826560901912529
  0.7099675088769573  0.8310007859285449  0.1157360140225450
  0.6416174501870984  0.8778748281703770  0.7674373401512682
  0.5496439324274363  0.9204947499335105  0.4322612949106457
  0.5154233372720824  0.9633945899686296  0.1266029367172834
  0.2764349585167949  0.8166650205263224  0.1067378538422332
  0.3618099920077071  0.8588267736629831  0.7814649685793427
  0.4220310680573007  0.9086662986324114  0.4485753014655884
  0.6356363212140650  0.7827926951914606  0.4412545924057341
  0.5674140901827656  0.8381516296218976  0.1274420036719661
  0.5050399510509820  0.8812363413413067  0.7658591151891727
  0.3466801796503560  0.7754139817237089  0.4404642051863803
  0.4297490818471488  0.8219631301927421  0.1311952136540739
  0.5787203627112589  0.7483294348943090  0.7736675875716230
  0.4971042342659189  0.7886671931278428  0.4573449683234543
  0.4371762243529602  0.7345354512666162  0.7719331950127852
  0.4968540030139863  0.7134018606919952  0.1292182028706108
  0.9885882541945250  0.9919981379110752  0.2256396307566320
  0.9368604579427995  0.0354154135637117  0.8724445382218917
  0.8646945322125887  0.0829726156542918  0.5569655760951377
  0.7763432090126088  0.1106310622427387  0.2016824818374303
  0.7262222606606130  0.1789964133470647  0.9022677202058205
  0.6583100532439232  0.1963952990543092  0.5564890406197591
  0.5758917547001730  0.2595190488490786  0.2412620770685692
  0.5024492997308840  0.3002718567208191  0.8913624261396009
  0.4363922692424396  0.3387087248685035  0.5458363178870655
  0.3546227728354410  0.3676650974412397  0.2207302352657692
  0.2871720692961333  0.4019026863800690  0.9027393823340617
  0.1984930134001104  0.4565243027060788  0.5393959130755590
  0.0737579433507278  0.0382811963098959  0.8992732294294399
  0.9946279643494478  0.0797129723578749  0.5312240848347116
  0.9150931993006779  0.1197435032561671  0.2222127281915931
  0.8694659595867051  0.1803475882534258  0.8889683955313785
  0.7689373658329757  0.2123038209268415  0.5465386522062730
  0.7031908647833802  0.2473210806591126  0.2163687699777626
  0.6441928266239429  0.2905098982019609  0.8861308532302417
  0.5987883110416448  0.3450974034940586  0.5548860011216306
  0.5128955811004090  0.3827186399231550  0.2325365931776560
  0.4178202344556752  0.4201886335807430  0.8846937493469582
  0.3482825469638016  0.4732004478054535  0.5520091897159460
  0.2900972815211915  0.4984272110604309  0.2209244799651984
  0.1497494348645745  0.0888977933811006  0.5770473239664895
  0.0575628766333267  0.1335675681408759  0.2363908972852613
  0.0083833268814359  0.1578352712478761  0.8888530191338688
  0.9460988837017581  0.2171378623408486  0.5474552922536944
  0.8359684531149156  0.2343718643814015  0.2109057666021954
  0.7914077705768818  0.3234837945012572  0.8972580980426841
  0.7294859949829089  0.3368198960799091  0.5547669246138796
  0.6573881945127269  0.3740900877460831  0.2283330785846971
  0.5649141704234779  0.4115795266402245  0.8887068379112009
  0.5074599993666666  0.4750730333246764  0.5673421949466828
  0.4360018635202891  0.4966520173318685  0.2187243153452627
  0.3555111175613064  0.5343700887862042  0.8956627074008594
  0.2047520792870472  0.1420141460099913  0.2423094070057275
  0.1303937086949887  0.1629599377150157  0.8797092645625710
  0.0644917293836826  0.2068612836859316  0.5621484415481959
  0.9775101000810054  0.2528234916721672  0.2267507133885900
  0.9353258951061392  0.3004330432812381  0.8740475700434374
  0.8560560798180816  0.3367282569786596  0.5536368117468697
  0.7825046541444749  0.3674879571330578  0.2249267023343222
  0.7209333570556709  0.4375021114116109  0.9008564377696118
  0.6604548874535752  0.4621843708101991  0.5907869758337085
  0.5684664915889641  0.4950344915120510  0.2588658961657657
  0.5084039116218051  0.5512144568444413  0.9138378523495660
  0.4307598625274593  0.5668946825285488  0.5582259357427830
  0.2662883092177850  0.1675038097628985  0.8863921012284663
  0.2215315041999233  0.2215782279096246  0.5673750634916885
  0.1393329249166655  0.2539948911145444  0.2039589964154658
  0.0648067960206689  0.2839131516491378  0.8896447680927366
  0.0102478190774633  0.3467723249579180  0.5539954917167620
  0.9206892949402103  0.3593591966620764  0.2179355129126463
  0.8658426589837163  0.4235803985217146  0.8764324851426224
  0.7780345911518438  0.4541851966471526  0.5387375941180395
  0.7074076186324874  0.5100099886093474  0.2147133122511775
  0.6437722718786603  0.5469258761178324  0.9050486805882798
  0.5751186031528448  0.5810681843888403  0.5625697470354538
  0.5033444224488832  0.6318381209255790  0.2315378504304206
  0.3649652230960854  0.2144232228908578  0.5489645572427406
  0.2797800817961047  0.2502591208542597  0.2105307700673222
  0.2113895856553896  0.2907793835192507  0.8966976904164312
  0.1426307547916039  0.3320620989760812  0.5645026678238381
  0.0507402143420492  0.3498949146870771  0.2127117274644448
  0.9929426573914952  0.4107975835147357  0.8951085706852808
  0.9266896706665975  0.4675563514432994  0.5518804897656295
  0.8507014499723198  0.4962112653454085  0.2272582174561109
  0.7848931981174445  0.5466577147813894  0.8993582176693522
  0.7219168623018106  0.5815911369574636  0.5614459831243224
  0.6366715529037066  0.6193393006941292  0.2264349770449030
  0.5696035126442283  0.6750682238311967  0.8841715450604397
  0.4396735234371718  0.2372921688157774  0.2255370209336007
  0.3648475907616557  0.2895401537596882  0.8894863998771783
  0.2854202171965738  0.3326464264495854  0.5437701931298875
  0.2109427505632269  0.3681460016794276  0.2237483106199036
  0.1336491429054192  0.4062031121759588  0.8794363831379712
  0.0544759200013516  0.4758272297762431  0.5461921912150132
  0.0040415433912244  0.4915525961490417  0.2227030546380391
  0.9250230915746442  0.5554138946650724  0.8784397143460296
  0.8780975803022386  0.5843414364483834  0.5514212820310505
  0.7846020498690365  0.6231244196881249  0.2255398800321586
  0.7019037015004557  0.6593036253592786  0.8873629025138641
  0.6421039648700670  0.7075336088369681  0.5572127307504502
  0.1364613496388856  0.4781584593729136  0.2073116344925694
  0.0636543676619894  0.5458668015118846  0.8734814557349395
  0.0059221744341826  0.6097800573868497  0.5312058990231563
  0.9277568275826411  0.6187003555584809  0.2150118176642337
  0.8490229265714504  0.6719393100279021  0.8881745726172241
  0.7993624291082142  0.6948110945495287  0.5581945001588622
  0.7131642227944823  0.7378972975173994  0.2120058772728513
  0.2192331518829533  0.5396754202694538  0.8987154744871120
  0.1371125161712214  0.5993657884087753  0.5268176254214154
  0.0506244091936523  0.6154490358607134  0.1991912683198294
  0.9970570577640387  0.6620454880023416  0.8791854064001328
  0.9428453916869657  0.7181215923439055  0.5422268198285991
  0.8642029526418895  0.7589730706508888  0.2241232943604885
  0.7834682325816402  0.7890387772294645  0.9029557991210311
  0.2754912269226821  0.5873242308125128  0.5471563219812410
  0.2143929514274063  0.6190178486495697  0.2163962841101252
  0.1497757942899653  0.6730317065052631  0.8790038395680639
  0.0832880163800311  0.7314872600677873  0.5453519412144772
  0.0064088242810385  0.7510028386518854  0.2162754564897966
  0.9211334468175636  0.8009435628873547  0.8909308340387980
  0.8507914650285429  0.8223874811936724  0.5623826850534925
  0.3696724629810504  0.6458093740888557  0.2237554340571322
  0.2919699132241362  0.6574080504997610  0.8841278133056392
  0.2237997555616857  0.7202534208926039  0.5486612262479227
  0.1458899848820820  0.7593598901990433  0.2192685859531451
  0.0519283711758760  0.7963590128117062  0.8790550879714445
  0.9898942755571127  0.8353887202399548  0.5441511982923899
  0.9366945396779442  0.8638888743485822  0.2354596555349175
  0.4487525576706020  0.6653829184855198  0.8899695414737749
  0.3604053848175539  0.7186027886692372  0.5585181493478117
  0.2788872777752900  0.7431651147393623  0.2205683430747669
  0.2174518166458341  0.8006233274408530  0.8751666973018999
  0.1594698602768290  0.8438647663312508  0.5588050652615664
  0.0693209378283655  0.8839944368774582  0.2296085252655331
  0.0015419179364073  0.9121301014438146  0.8668633616158345
  0.9220285603626195  0.9495702352361235  0.5582473875114857
  0.8514555797921020  0.0023697904459397  0.2302000793246322
  0.7907314019543890  0.0399860390976698  0.8850007787461180
  0.7127971616827864  0.0806977530917692  0.5562233790160747
  0.6408608456071718  0.1146456267144558  0.2083307585524565
  0.5882262234326774  0.1733362139414609  0.9020210457630640
  0.5078423987056055  0.2063563732660683  0.5489761740365395
  0.0760240929696323  0.9633320905023197  0.5377356097228088
  0.1452591315450178  0.0137077540625015  0.2365859748933303
  0.2124620239243598  0.0409329361359099  0.9086456547374056
  0.2846088462859768  0.1007933479773300  0.5786718416748613
  0.3702388261552017  0.1341867404362844  0.2317360089048321
  0.4400266759546696  0.1699383186080397  0.8920379171739938
  0.8446819862709916  0.9220375342888687  0.8713494612535442
  0.7870959469142704  0.9531259503078644  0.5448003437400715
  0.7127376021733696  0.9926820050665199  0.2177444966404281
  0.6610314669918864  0.0506966231893884  0.8910897366294250
  0.5692463027000443  0.0858084035557169  0.5484071490258202
  0.5199347674483406  0.1220153218945157  0.2301555739414312
  0.1388407512407284  0.9277055164166228  0.8825559765352651
  0.2223898736986669  0.9818214748027785  0.5767729315355936
  0.2802876238279879  0.0190247212782566  0.2441036623670740
  0.3534017006462520  0.0393006255053407  0.8961833128269205
  0.4211639510934546  0.1010459361429170  0.5512613976914835
  0.7887934866755657  0.8716888220178305  0.2062719871033494
  0.7036552106655520  0.9117048929916507  0.8936327892203764
  0.6542329033655037  0.9535198891276409  0.5620874571124546
  0.5725672934329182  0.9922878598065523  0.2190890111928780
  0.5160213644487825  0.0445981009666880  0.8912838926217432
  0.1962377376982545  0.8898521932745780  0.2133827946579530
  0.2758782291265121  0.9190242039774574  0.9010855942630371
  0.3648535697711708  0.9770657744763014  0.5668055203120090