Li 
 1.0000000000000000
   -11.1791050000000016   19.3627778431472777   -0.0000000000000023
   -19.1641800000000018  -11.0644444817984429   -0.0000000000000019
     0.0000000000000000   -0.0000000000000001   23.4479499999999987
 Li 
 504
Cartesian
 -0.2569730900000000  0.1291787400000000  0.1073544000000000
 -11.0656477399999993 17.1944525599999984 15.6408791399999991
 -11.0151894899999991 15.6113375300000001  7.6154506599999996
 -10.9879384299999998 14.0850558899999996 -0.2405225900000000
 -11.1231541200000006 11.8780257099999993 15.7154093699999997
 -11.2716695900000001 10.4981539000000001  7.6509923100000004
 -11.1339626000000003  8.2700376200000001 -0.0938360100000000
 -11.2752750400000004  6.4348521099999996 15.4295725800000003
 -11.1012303899999996  4.5249692399999999  8.1782523099999995
 -11.1609797499999992  2.8435378800000000 -0.2941457900000000
 -11.1293454000000001  0.8274581000000000 15.6046512499999999
 -11.1643514300000000 -0.6410973100000000  7.9158143000000001
 -1.3661777500000001  0.8351116900000000 15.3644916899999995
 -1.3134026200000000 -0.9384534200000000  7.8699266100000003
 -12.6375307200000009 16.5632475300000017  0.2130727800000000
 -12.5457045199999992 14.7962443500000003 15.4203720499999992
 -12.7664184100000000 13.0001865999999993  8.3699359500000003
 -12.5790113300000002 11.2984349500000008 -0.0941531000000000
 -12.7920734500000002  9.2783812000000001 15.6379613200000005
 -12.7770850700000000  7.5101269100000003  8.0208316199999992
 -12.8155791800000003  5.5166815600000003 -0.1277299800000000
 -12.7265909300000004  3.6357352100000000 15.6802887500000008
 -12.8477238600000003  1.8200468900000000  8.0087512299999997
 -13.1201876899999998 -0.1562441500000000 -0.1982334600000000
 -3.2387524000000001  1.8144990599999999  8.2389931399999998
 -3.1383906000000001 -0.0583637600000000  0.0814771900000000
 -2.8910990800000000 -1.7610876400000000 15.1794237400000007
 -14.2746065000000009 15.6218591900000003  7.2888148299999997
 -13.9378036000000005 14.0631143000000005  0.1192312100000000
 -14.2126986800000008 12.3099847699999998 15.6394721299999997
 -14.2925408800000007 10.0457788400000005  7.9359947100000001
 -14.1477638100000007  8.4573336599999998 -0.2494856900000000
 -14.4868805999999992  6.3852870800000003 15.7048737799999998
 -14.3238486399999996  4.4018016800000002  7.8000719299999997
 -14.3659076300000006  2.7058883300000001  0.0808873400000000
 -14.4190113800000006  0.9485926000000000 15.6066590900000008
 -5.0812742399999999  2.6708872499999998  0.3220113700000000
 -4.7186368999999999  0.8707958900000000 15.7505472599999994
 -4.5531072899999998 -1.0320304800000000  7.8822315500000002
 -4.8299529799999998 -2.8024534999999999 -0.1708071700000000
 -15.7567245699999994 14.8708647500000009 15.3962455100000000
 -15.8275334000000001 12.9022874200000004  7.8338966200000000
 -15.8521528200000006 11.1474892699999995 -0.0796263300000000
 -16.1120295700000007  9.2351751199999992 15.7986114900000008
 -16.0211299199999999  7.3983879000000004  8.6125053900000008
 -16.0178192800000012  5.7288547300000001  0.3025262500000000
 -16.1980129499999990  3.6696953899999998 15.4935821699999998
 -15.9753970499999998  1.7469970900000000  7.8823761699999997
 -6.5299738100000004  3.5273899700000002 15.5756477499999999
 -6.4892469400000001  1.9813582400000000  7.9099158999999997
 -6.4794111399999998  0.0045583200000000 -0.3990966100000000
 -6.1736133300000002 -1.6922343300000000 15.8723401400000004
 -17.4040176799999990 15.7145824199999993  7.9140493899999997
 -17.7197059500000016 13.6611524899999992 -0.2410332500000000
 -17.3884228599999986 12.3062399599999992 15.3598916299999999
 -17.4420151300000015 10.1092198100000008  7.8734365300000002
 -17.6886267100000012  8.5345178599999993  0.0638795700000000
 -17.9276998200000008  6.4438914799999996 15.8391157800000002
 -17.4581659299999998  4.5812464600000000  7.9864023700000004
 -17.7413046399999992  2.5311382000000000  0.0754624600000000
 -8.2708221000000002  4.5454178000000001  7.9086000500000004
 -8.1255412299999996  2.7468850900000001 -0.1703836100000000
 -8.0240079099999999  0.8087411400000000 16.3438043700000009
 -8.0603808800000003 -0.9364282100000000  7.8194235399999998
 -8.0264190299999996 -2.9021935200000000 -0.1550171000000000
 -19.1375807100000017 15.1714337900000000 15.5584949600000009
 -19.2009637399999988 13.0507846799999996  7.5443439500000000
 -19.1750405899999983 11.0697054300000008 -0.2209376800000000
 -19.0773451600000001  9.3175077300000009 15.8645295599999994
 -19.0859600100000009  7.2186870299999999  8.1278335399999992
 -19.0125505100000005  5.4220112000000000  0.1140176200000000
 -19.2727648199999990  3.5975268300000001 15.5985663999999993
 -9.2603085200000006  5.3250642199999998 -0.0798277500000000
 -9.6825942499999993  3.5712872199999999 15.6545783899999993
 -9.5427970200000001  1.9102139199999999  7.5420148200000003
 -9.6311435900000006 -0.0521160000000000 -0.0175506100000000
 -9.5539371600000003 -1.7717176100000001 15.1586783799999996
 -9.5605307800000006 -3.6501893000000001  7.7151679299999998
 -20.7337402699999984 13.8820031099999994  0.1337198700000000
 -20.7028251099999991 12.1919757700000009 15.4232073799999991
 -20.9370089800000017 10.1899872899999995  8.1924106600000002
 -20.7560610300000015  8.6918381700000005  0.1534753900000000
 -20.5991637999999995  6.5740132899999999 15.8398748099999995
 -20.7338810000000002  4.5716352200000001  7.6278885000000001
 -11.4115990099999998 -2.8664259500000000 -0.1446723900000000
 -11.3113049799999992 -4.3724328899999998 14.9858662799999998
 -22.5743413699999991 13.0753816000000000  7.2292622099999999
 -22.6056030399999983 11.0912226999999994 -0.1010389700000000
 -22.3322869100000005  8.9385760300000001 15.4316350500000006
 -22.0379244800000009  7.2407108899999999  7.5904268999999998
 -22.2867162199999989  5.5734938100000004 -0.1595540600000000
 -12.9111256399999998 -1.6320438700000000 15.0817747900000008
 -12.8195917500000007 -3.5534315500000000  7.0974103499999996
 -13.0957161800000002 -5.4755517600000001 -0.1220874200000000
 -24.1106622100000010 12.0115142600000002 14.8662161099999999
 -24.0187554399999996 10.2311714800000004  7.6819510400000004
 -23.8615960499999993  8.5076283900000007  0.2652052500000000
 -23.8568548500000013  6.5184596900000003 15.4765983800000004
 -14.5319492199999996 -1.0035763099999999  7.7392479500000002
 -14.5091199700000004 -2.9078636699999998 -0.1046476300000000
 -14.3633968700000008 -4.5781993900000000 15.3400453900000002
 -14.2773591300000007 -6.3066352800000001  7.3474158899999997
 -25.6738460000000011 11.1945950399999994 -0.1748046800000000
 -25.6211312500000012  9.1472984299999993 15.5178681399999991
 -25.6275759000000001  7.2614901400000003  8.0013812099999999
 -16.0072819799999984 -0.0307834900000000  0.1015231800000000
 -15.8800953600000003 -1.6707866499999999 16.0735162500000008
 -16.0028669199999989 -3.8132937099999999  7.9843281599999996
 -16.1373334600000007 -5.4273718500000001 -0.2840262400000000
 -15.9717586300000001 -7.4919311799999999 15.1414951500000008
 -27.1548776600000004 10.2704370199999993  7.3121491699999996
 -27.1348220799999993  8.3262125900000008  0.0466272000000000
 -17.4535377800000013  0.8487842500000000 15.7192886900000008
 -17.4598587199999997 -0.7836184400000000  7.9366406800000000
 -17.8609730000000013 -2.7888134500000001 -0.2222945800000000
 -17.4747402899999997 -4.6406533599999999 15.6211987899999993
 -17.6912970799999982 -6.3084175599999996  8.2068408599999998
 -17.7559483399999998 -8.1457239700000006 -0.2461639500000000
 -28.8043636899999989  9.0075335100000000 15.3661563799999996
 -28.4527469099999983  7.1097308000000004  8.3415678900000003
 -9.5944633400000008 16.5700993200000006 -0.0672808200000000
 -9.4692436400000002 14.7033280000000008 15.0606431700000005
 -9.5918128300000003 12.6330939600000001  7.7248140000000003
 -9.1843538799999997 11.2092790099999995  0.0728901000000000
 -9.6474185200000004  8.9940820499999994 15.1051199300000007
 -9.8128816699999994  7.3666574000000002  7.8885999499999997
 -19.0829538899999989 -9.2773477900000003  8.1663864299999993
 -1.9106049199999999  2.7695904400000000  0.4609253400000000
 -2.8833270899999999  3.5711416100000002 16.3050706299999995
 -4.8633309999999996  4.7408234299999998  7.8415874299999997
 -6.6796416699999996  5.2614450000000001 -0.1846188800000000
 -7.9734088900000000  6.3449119400000002 15.6114636800000000
 -27.0995043899999999  6.4892995500000001 15.4033811800000002
 -26.9812955800000012  4.1895318699999997  7.8935144399999997
 -7.8666979299999999 13.9380569199999993 -0.3303537500000000
 -8.0592570200000004 11.8913172100000004 15.3675467300000008
 -8.2139643800000002 10.1334234700000003  7.8123196699999999
 -8.0705391899999999  8.1153152899999998  0.2198451900000000
 -18.9514115899999993 -7.4793877300000000 15.7172308899999997
 -20.7834165099999986 -6.3656414899999998  7.7437053599999999
 -3.4014147600000002  5.3930243100000004  0.4912883400000000
 -4.7257140099999999  6.1108441600000001 16.3150409200000013
 -6.5295289700000003  7.4182267199999998  7.3849407700000000
 -25.4076265899999996  5.5440253600000000 -0.1425269200000000
 -25.7038475800000015  3.3935038600000000 15.3279337099999999
 -25.5851815900000013  1.7077514400000000  7.5593489800000002
 -6.3632286200000001 11.1393462700000008  0.1248137600000000
 -6.4421039699999998  8.9297826800000006 15.8382049499999997
 -19.4886744400000005 -5.6694702000000001  0.0091982700000000
 -20.7905633899999991 -4.5197037099999999 15.9834223899999994
 -22.2791654900000005 -3.7160072999999998  7.9340828099999996
 -5.0029207400000004  8.1362458699999998  0.3927433300000000
 -23.9457380899999990  4.4831467600000003  7.6092498400000004
 -23.8308541500000004  2.8929161699999999 -0.0297197400000000
 -24.1427694899999992  0.5289566300000000 15.6080913700000004
 -24.1088011199999990 -0.9969086600000000  8.0080010700000006
 -18.9548303999999987 -3.5658489100000001  8.0956002900000001
 -21.0219019200000012 -3.0743436100000001  0.3437638000000000
 -22.0611581500000007 -1.9344253199999999 15.7442060200000000
 -22.7062067700000014  3.6567977300000001 15.3001856600000004
 -22.3642170399999998  1.7657236000000001  7.6393654399999997
 -22.5625558099999992 -0.1258066700000000  0.1368191200000000
 -19.2105206099999997 -2.0001719200000001 15.6368134500000000
 -20.7852102400000014 -0.9823093400000000  7.8398422400000003
 -20.4605251999999993  2.8551382099999998 -0.0938874300000000
 -20.6564771799999995  0.5864403900000000 15.9185965599999992
 -19.1819577300000006 -0.1948507800000000  0.1824400500000000
 -18.9640650599999994  1.9211607700000000  7.5128690000000002
  0.1463648700000000 -0.1786312400000000 17.9689061599999995
 -11.2528001399999997 17.6369772699999992 10.2364495800000004
 -11.2821768900000006 15.9011560999999997  2.3688188299999999
 -11.3265188299999995 13.7534255999999999 18.0873070300000016
 -10.7196454899999996 12.1411096100000009 10.3056733999999999
 -11.0380991399999999 10.0539419599999995  2.9235882300000000
 -11.0774734000000006  8.4906938699999994 18.0363537600000008
 -11.2079878599999994  6.3357979599999998 10.4275544100000008
 -11.2987761500000001  4.7885719900000003  2.4209029200000001
 -11.0839005200000003  2.8418791200000002 18.6247456400000004
 -11.3066567800000009  0.8641341100000000 10.2194563899999995
 -10.9236194100000006 -0.6255119500000000  2.4107505599999999
 -1.6551326500000001  1.0248118900000001 10.6472795300000005
 -1.4795754900000000 -0.5813867500000000  2.4931834500000001
 -12.7451055800000006 16.4104630699999987 17.8651956799999994
 -12.9888889100000000 14.9312922100000005 10.6678041500000003
 -12.5130573500000004 12.9984523299999992  2.1511803600000001
 -12.9877928300000001 10.9637934900000005 18.0886954899999992
 -13.1167618800000003  9.4165320200000000 10.6436263300000000
 -12.5006048799999991  7.6104567200000002  2.7210004200000002
 -12.4528156200000009  5.6602599099999997 18.3952099300000000
 -13.0510505800000001  3.6278681000000002 10.5637529299999997
 -12.8810136699999997  2.1283141200000002  3.0613179800000001
 -12.4664109300000003 -0.1926253900000000 18.3003056999999991
 -3.2196418599999999  2.1648294899999998  2.8948836000000000
 -2.9585004399999999  0.0341296800000000 18.0253715700000008
 -3.3790338800000002 -1.8238252200000000  9.9964905799999997
 -13.6096037499999998 15.7955003299999994  3.2715513399999998
 -14.4373284599999998 13.6007805200000007 18.1741633399999998
 -14.1654572099999996 11.8508489600000004 10.6503660199999999
 -14.4392231599999992 10.0149286699999998  2.0803079000000002
 -14.2941534699999995  8.2520925300000005 18.2421126300000012
 -14.7394743699999999  6.4997563600000001 10.8907570400000004
 -14.4081975999999994  4.9788363100000002  2.5778740299999998
 -14.2860652500000000  3.0167522700000000 18.3866634500000004
 -14.3726851599999996  0.8009474100000000 10.4816400400000003
 -4.8992724399999998  2.9292613099999998 18.7157955600000001
 -4.9555445200000001  0.5474729900000000 10.8244620499999993
 -4.7978395799999998 -0.8569681200000000  2.4660251899999999
 -15.8508670200000008 16.5162545999999999 18.1989311399999991
 -16.2019708899999983 14.6656965600000007 10.1493056999999993
 -15.6461755999999994 12.8393029300000006  2.6808730500000002
 -16.5279732700000004 11.1406048000000002 18.5124453200000012
 -16.2329034199999995  9.2622903900000004 10.7198173400000005
 -16.0944046900000011  7.4024860400000003  3.1019447699999998
 -15.8656292600000004  5.7504378699999998 18.6613027799999998
 -16.1465244100000014  3.7672803300000002 10.5066831599999997
 -16.0616490899999995  1.7892259800000001  2.7987465899999999
 -6.0265833999999998  3.3238213900000000 10.4645768500000003
 -6.7331724599999996  1.7573375099999999  2.6788318900000001
 -6.4522395299999999 -0.2756728100000000 18.3914718400000012
 -6.5918893399999998 -1.9800460900000001 10.3551564400000000
 -17.0811428800000016 15.3781215499999995  2.4714699200000001
 -17.7135539199999990 13.8104490799999997 17.9296635299999991
 -17.2706896500000013 11.8013290499999997  9.9214305500000002
 -17.4997025800000010 10.2054158099999999  2.4418362100000000
 -17.6002746999999999  7.9966929100000002 18.5102573600000007
 -18.0016888600000016  6.4501201699999999 10.9030444200000005
 -17.6457563800000017  4.8096894099999998  2.7558633299999999
 -17.2018946399999990  3.1835338000000002 18.7989636500000010
 -8.0169556600000007  4.9999042100000004  2.8118450500000001
 -7.9162654799999999  2.8304434600000001 18.4567731899999998
 -8.1164768499999997  0.5300198300000000 10.3379904800000002
 -8.0298376800000000 -1.3341554200000001  1.9703822900000001
 -7.8732664600000000 -2.9677600399999999 18.0974477600000014
 -18.8398887299999984 14.5774284400000003 10.6411904199999992
 -18.7718808199999998 13.3035489099999999  2.8850139499999998
 -19.0328421500000005 11.0854657200000002 18.3250631900000016
 -19.4121064499999996  9.5439310800000001 10.4357528500000001
 -19.4985170799999992  7.4846089800000000  2.5756673499999998
 -19.2020086300000017  5.8036556700000004 18.3343914900000016
 -19.4872422199999988  3.7971849099999999 10.3948749199999995
 -9.6710485800000008  5.6641176700000004 18.3331602499999988
 -9.2643280600000004  3.3489255500000001 10.0723095600000008
 -9.9966670200000003  2.0656465100000001  2.3644035400000001
 -9.2547387499999996  0.1856342900000000 18.4547518900000007
 -9.7527616300000002 -2.0011981900000002 10.8829417100000008
 -9.2516624499999995 -3.3662431900000001  2.3500383500000002
 -21.0649646600000011 13.7422098699999999 18.2126420700000011
 -21.2716319499999997 11.9052074099999992 10.0931429700000006
 -20.6606090000000009  9.9887281399999992  2.7164313899999999
 -20.8541858399999995  8.5185780199999996 18.4949278100000001
 -20.8283476900000011  6.5663079399999997 10.6694411799999997
 -20.6815770500000013  4.3052519000000000  2.6358437200000000
 -10.8992983599999995 -2.5156834500000000 17.9004147700000011
 -11.2695111499999996 -4.8660893700000001 10.1807123799999992
 -21.6610749200000008 12.8516717299999996  2.0434754900000001
 -22.4609985200000004 11.3587836600000003 18.3813875099999997
 -22.7198147699999993  8.9689404499999998 10.4115438499999993
 -22.6409060099999984  7.2997223699999996  3.1639879700000000
 -22.2289883599999989  5.6086035200000000 18.4179258099999998
 -13.1336986200000005 -1.8954812700000001 10.1059664399999996
 -12.3953847899999996 -3.4950558699999998  2.6067804500000000
 -13.0918905700000003 -5.4607267300000002 18.2337510099999989
 -23.9921040400000010 12.0756076199999995 10.0640367800000003
 -24.1325158799999997 10.1675787799999995  2.7418835800000001
 -23.6976126700000016  8.2357439200000009 18.7145510000000002
 -23.6994612300000007  6.0515283300000000 10.4026171499999993
 -13.8334043799999993 -0.8126619200000000  2.8142836500000001
 -14.1470240300000007 -2.5344052800000001 18.3017290499999987
 -14.6602080800000003 -4.5644925399999998 10.2297039099999996
 -13.9522367000000003 -6.0824568899999996  2.0649484100000000
 -25.7790730400000001 10.7854659200000000 17.7342370100000011
 -25.8743929799999997  9.0128212699999999 10.3620718699999994
 -25.7658489400000015  7.3896762200000001  2.3659420299999998
 -15.6399911300000003  0.2925525100000000 18.4264243400000005
 -15.5614087899999998 -1.9787623999999999 10.2412021099999997
 -15.5258638599999994 -3.5034659100000001  2.4246810999999999
 -15.8926526999999993 -5.4107516000000002 17.8214923600000006
 -16.0350300700000012 -7.3542294000000004  9.8935203699999992
 -26.9584821800000007 10.3376953199999999  2.5243801499999998
 -27.0360135399999990  8.0393685099999992 18.2463721099999994
 -17.6037339400000015  0.7565611500000000 10.5434233499999994
 -17.3925718899999993 -0.5009080600000000  2.5982986700000001
 -17.0895496300000005 -2.1213829400000002 18.1293832200000011
 -17.4617943900000014 -4.8457663499999999 10.4178468300000002
 -17.0908635900000014 -6.2615012500000002  2.2412710499999999
 -17.4636823499999991 -8.3990778899999992 17.7766852299999982
 -28.8971610100000014  9.3951084399999996  9.9535861600000004
 -28.4563093900000013  7.4701638800000003  2.7075942199999998
 -9.6488368999999992 16.8020410899999995 18.1384777200000009
 -9.7217996600000003 14.7448495099999999 10.3788623799999993
 -9.4660887299999992 12.8673886700000004  2.3108695400000001
 -9.7017064200000007 11.1939342899999996 18.5273299700000003
 -9.3852514100000004  9.1125785700000002 10.4863432900000006
 -9.6699744100000000  6.9646399299999997  2.8253604600000002
 -19.1398678800000006 -8.6991240899999998  3.0343136199999998
 -1.7730959900000001  2.7421802400000002 18.3385361600000003
 -2.9074746400000002  3.7578520300000000 11.1914493799999999
 -4.6961293800000004  4.7813696500000002  3.1204453399999998
 -6.1783542200000001  5.7256066900000002 18.3107040599999991
 -8.0094959899999996  5.9689332700000000 10.6978420100000005
 -26.9541578800000003  6.3875592299999999 10.2999360099999997
 -27.4080887900000008  4.6456599900000004  2.7221409200000002
 -7.7595609000000003 14.3524590900000000 17.8002024799999994
 -7.9671896799999997 11.9756388900000008 10.5894998699999991
 -8.1661475299999999 10.2375158000000006  2.5340299000000002
 -8.1802371699999998  8.3319990100000005 17.9473675399999983
 -19.2046319499999996 -7.6710182199999997 10.8768455199999998
 -20.8073595100000013 -6.1156184400000004  3.0563020800000000
 -3.1419373500000001  5.8543672000000004 18.9027324599999993
 -4.4310925299999999  6.3991835400000001 10.6362991699999991
 -6.5116682800000003  7.6649760200000001  2.8226680800000001
 -25.2034313999999995  5.5257132400000000 17.8025358999999987
 -25.2560996899999992  3.2137199200000000 10.3150555599999993
 -25.7751026199999984  2.1291969000000002  2.7771545700000000
 -6.4880125299999998 11.3965797900000005 17.9015382599999988
 -5.9937064800000002  8.8811768400000002 10.2592290399999992
 -19.1351713100000005 -5.3705508799999997 18.0447006999999999
 -20.2376454999999993 -4.4488122499999996 10.8602759199999994
 -22.4193864000000005 -3.4753376600000001  2.9496665599999998
 -4.9120645600000001  8.6070455300000006 18.3516808699999991
 -23.8622499700000006  4.5523810899999999  2.7137722700000002
 -23.9964600700000013  2.7102988500000000 17.9948323799999983
 -23.7850543099999996  0.4578703000000000 10.1356412299999992
 -24.2246389399999984 -0.6793983800000000  2.9685793299999998
 -18.7410108800000010 -3.6833960900000000  2.5027838600000001
 -20.5034227700000002 -2.4967946599999999 18.3237515100000010
 -22.1317741300000002 -1.8821939999999999 10.5181712399999991
 -22.1074252899999983  3.6465185600000001 10.3465156199999999
 -22.4056703900000009  1.7130308000000001  2.9882537299999998
 -22.5340665099999988  0.0285858000000000 17.9578262399999993
 -18.7357472499999993 -1.8668336500000000 10.3279826600000000
 -20.5564594900000017 -0.7734294200000000  3.0762588100000001
 -20.8106956899999993  2.9257843299999999 18.1409189099999999
 -20.6713404800000013  0.8991544800000000 10.7238019500000004
 -18.9640085200000001  0.3377193900000000 18.1002509600000003
 -19.2261447399999987  1.7270783999999999  3.0299019600000001
  0.2809222300000000 -0.1324269400000000  5.2907867800000004
 -11.1519687899999997 17.7483690400000000 20.4570359099999983
 -11.2566131100000000 15.8248422299999998 13.0597009800000006
 -10.7989758400000007 13.8080898399999992  4.7290407500000002
 -11.5488343899999997 12.0811844199999996 21.1563283899999988
 -11.1230720699999992 10.5737064299999997 13.0485272000000005
 -11.4114241599999993  8.2794299999999996  5.6571011200000001
 -11.3713973900000003  6.4064728799999999 20.9006216000000009
 -11.3695499699999996  4.7021426799999997 12.7987426899999992
 -11.0103653200000000  2.7984719100000000  5.1756715199999999
 -10.9124621400000006  1.1136190200000000 21.1673879000000014
 -10.9678881500000003 -1.2078116800000001 12.6477284000000001
 -1.5581755300000000  1.0045984999999999 21.0861137200000002
 -1.4675792000000001 -0.9859972900000000 12.4561157799999993
 -12.5247090100000005 16.3938509799999999  5.2104329399999996
 -13.1760649000000001 14.8398303400000007 20.8444864900000013
 -12.6646601899999993 12.5397395500000002 12.8152109900000006
 -12.6007502200000001 10.8792581300000002  5.0734041000000003
 -12.7688832300000001  9.2590319500000007 20.7779519400000012
 -13.3074261600000003  7.7758939800000002 13.0109392100000001
 -13.0682024600000002  5.6965140500000002  5.4525064099999998
 -12.7234268799999999  3.4410065699999999 20.7442548000000002
 -12.9619857199999995  1.5080175000000000 12.9434838800000005
 -12.7949767600000008  0.1022690100000000  5.1802261600000001
 -3.3777179700000000  1.9159603400000000 13.5305768000000004
 -3.2032143600000000 -0.3632737500000000  5.5428819400000000
 -3.1185016399999999 -1.5840350999999999 20.8417811499999992
 -14.7378078400000003 15.9165926800000008 12.8367043200000008
 -13.8369237100000007 13.5934769600000003  4.9453078699999997
 -15.0465322300000004 11.7446843600000008 21.0388630200000009
 -14.6098776499999996 10.3981502199999998 13.0081471099999995
 -14.5181414300000000  8.5897625600000005  5.3539426099999998
 -14.2028189600000001  6.3844087600000003 20.8383535000000002
 -14.7773337399999996  4.5694160300000002 13.3030114200000007
 -14.3920392699999997  2.9470285500000002  5.1286368099999997
 -14.2150606800000006  0.9711746100000000 21.0014543799999984
 -5.0105296499999996  2.3932613900000002  5.6816588599999998
 -4.5806785400000001  0.7217232300000000 20.6273788499999995
 -4.6852866899999999 -1.0400661600000001 13.1812285500000002
 -15.7728429499999994 16.1299594199999987  5.3168393900000002
 -16.2136593100000006 14.7863827899999993 20.4946237199999999
 -16.0230617299999984 12.8499125900000006 12.9816482799999999
 -15.7903070499999991 11.0854136800000003  5.2740700699999996
 -16.4437589099999997  9.1185546100000003 21.1232367100000005
 -16.2406790100000009  7.6744279500000001 13.8527434700000001
 -15.8418767000000003  5.5298087400000000  6.0698745900000004
 -16.2470737800000009  3.7452302400000002 21.4276242699999990
 -15.6795814700000005  2.0683327800000000 13.0892538300000005
 -6.1869381299999997  3.3027447699999999 20.7840776699999985
 -6.7228889900000004  1.8378253000000000 13.3037821199999993
 -6.4252212100000001 -0.1124399000000000  4.7824203499999998
 -6.1654447200000000 -1.8865017100000001 20.8603460399999996
 -17.9392737000000011 15.7243609499999994 12.9900585900000003
 -17.1793066299999992 13.8509924000000009  5.1101410100000004
 -17.7969170000000005 12.0784372500000003 20.5505450900000000
 -17.4018172500000006 10.0396040499999994 12.6322921699999995
 -17.6821072699999995  8.0543993599999997  5.0345870100000001
 -17.6781837599999996  6.4137884900000000 21.2215362100000000
 -17.5650065300000016  4.7066970799999996 13.1911073000000005
 -17.7355996299999994  2.7552084200000002  5.4290879399999996
 -8.1892297900000006  4.6942666900000001 12.8720934899999992
 -7.9237017500000002  2.6483414199999999  4.9365149700000002
 -7.9356948200000001  0.8757772400000000 21.0257226099999990
 -7.9581820199999997 -0.9123550400000000 13.2364303299999992
 -7.2726793100000000 -2.8889213599999999  4.9876539500000003
 -18.9728090599999994 14.6808810300000001 20.9884610100000017
 -19.3198952099999985 12.7700349299999996 12.9404661300000008
 -19.0195628399999990 10.9816411899999995  5.3287393200000004
 -19.2506503199999983  9.1492486900000003 21.0881065200000002
 -19.2161016400000015  7.5433329799999997 13.1647573399999995
 -18.9865479800000010  5.4750845300000002  5.3094360199999997
 -19.3047864300000001  3.5598513899999999 20.7320101799999996
 -9.4626663200000003  5.8877947300000004  5.2883807899999997
 -9.6274691499999996  3.8608618899999998 20.8566326300000000
 -9.5656385700000008  1.8459803400000001 12.7502963000000005
 -9.4133674000000003  0.0111066200000000  5.2464392000000002
 -9.2786273599999998 -1.9065931199999999 20.6209803399999991
 -9.7278307099999992 -4.2099588299999997 12.8070871900000007
 -20.6444882700000001 14.0022769399999998  5.2219300899999999
 -20.9849821200000015 11.7656704199999993 20.5976104999999983
 -21.0147695200000015 10.5369949900000002 12.9296986500000006
 -20.7128172399999997  8.2975496399999997  5.2884478300000000
 -20.4816685300000003  6.2959770800000001 20.8068409699999997
 -20.7374490800000011  4.6044500900000003 13.0654962500000007
 -10.6890305399999992 -2.6482869299999998  4.8610328400000000
 -11.1726884999999996 -4.8071875400000001 20.4813495000000003
 -22.9312443899999998 12.7305700000000002 12.4556893599999992
 -22.2283759699999983 11.1183736100000008  5.0415863500000002
 -22.3684823299999991  9.0048071200000006 20.8258729699999989
 -22.2516414100000013  7.7901783499999997 13.0885167300000003
 -22.1137343599999987  5.6444167299999997  4.9711032099999999
 -12.7932673200000000 -1.7262459100000001 21.0730355100000004
 -13.0191490699999992 -3.9767703000000001 12.3527933399999998
 -12.3605116899999992 -5.8293724999999998  4.6706269000000002
 -23.8337644399999995 11.9806287600000001 20.6150954499999983
 -24.3023790899999987 10.3104893700000009 12.7141073599999999
 -24.2061120900000013  8.3357543799999991  5.2552317999999998
 -23.8797547899999998  6.4398455900000000 21.1724624299999995
 -14.3353326299999999 -1.1641409199999999 12.8296940799999994
 -14.2596907900000005 -2.6978455299999999  5.0740492499999998
 -14.5724601000000007 -4.5466465200000004 20.6108380800000006
 -14.9494389999999999 -6.4808128199999997 12.7873850499999993
 -25.6431034999999987 11.1774412699999992  5.0712160900000001
 -25.6468741300000005  8.9737067100000001 20.8905016500000009
 -25.2714688400000007  7.3744255000000001 13.1867210799999999
 -16.5090143699999992  0.0123638100000000  5.2466062300000003
 -15.8626485299999995 -1.6205063099999999 20.7309847599999983
 -16.3049471699999984 -3.6358190399999999 12.8649810000000002
 -16.1834290799999998 -5.5770599799999996  5.1413988399999999
 -15.8420801800000000 -7.8057925700000004 20.6120397500000010
 -27.0756718499999991  9.9239908299999993 12.7592300900000009
 -27.0271284999999999  8.5785577899999996  5.5210462299999996
 -17.7681699799999997  1.3270037200000000 20.8679613099999983
 -17.8004428300000015 -0.9724912600000000 13.0961056399999993
 -17.3598601899999991 -2.8226767499999998  5.1718754799999997
 -17.7742062499999989 -4.6479811399999997 20.5208649600000008
 -17.9547065900000007 -6.2491153800000001 13.1028332299999999
 -17.7159745499999985 -8.4386614499999997  5.3838492200000001
 -28.6765677100000005  9.3004207900000004 20.3261687600000016
 -28.5051890000000014  7.3465670300000001 13.0897568300000007
 -9.5639264199999996 16.4603248200000003  5.3977199499999999
 -9.6059690199999999 14.8683331600000006 20.7514540099999998
 -9.5149405799999993 12.9088572799999994 13.0422979800000007
 -9.3613401100000004 11.1403560099999996  4.8849292100000001
 -9.8976891200000008  9.4718247699999996 21.1505443799999995
 -9.6318741800000005  7.5500209099999998 12.8723658800000003
 -19.3113509000000008 -9.1866968100000008 12.6087976899999994
 -1.8865649499999999  2.6609516100000001  5.5474561099999997
 -3.1595814299999998  3.6609547700000000 21.3058778800000006
 -5.1132940400000004  4.3955954600000000 13.5686684100000008
 -6.7105175600000004  5.6841504000000000  5.4337343499999999
 -8.1758329399999994  6.6398656799999998 20.9164604800000014
 -27.1128818900000006  6.1535565400000003 20.4313585999999994
 -27.0649055099999991  4.6945547999999997 12.7744512199999996
 -7.8275251199999998 13.8815494000000008  5.1056620700000002
 -8.3612993899999992 12.2384754699999991 20.8942275899999999
 -8.0081118799999995 10.0727673800000002 12.8590234100000007
 -8.1507289499999995  8.7173496400000001  5.3966763899999997
 -19.3308308400000008 -7.5762035599999997 20.6941284100000011
 -21.3019232199999990 -6.5572234800000002 13.5241428599999995
 -3.4979579599999999  5.2166490200000002  5.7237304699999996
 -4.7038789799999998  6.4079990300000000 21.0136615099999986
 -6.6446985400000003  7.0368868700000000 12.9259496899999995
 -25.5232066999999994  5.6284804700000004  4.8366552399999998
 -25.3383121600000010  3.5372113500000002 20.9538569599999995
 -25.5871651100000008  2.1175984900000002 13.1797985900000008