Li                                      
   1.00000000000000     
    21.6720000000000006    0.0000000000000000    0.0000000000000000
     0.0000000000000000   21.6720000000000006    0.0000000000000000
     0.0000000000000000    0.0000000000000000   21.6720000000000006
   Li
   432
Direct
  0.0087981547619052  0.9908508767072703  0.9745865854558886
  0.9063491994278365  0.0608654997231426  0.0820647120708742
  0.8375877464008852  0.1508794315245510  0.1553004378922083
  0.7764875073827966  0.2375481432262845  0.2256190406976728
  0.6726875461424910  0.3369546387043201  0.3078051762643028
  0.6048923154300496  0.4165155680140273  0.4328074644702866
  0.5099533997785173  0.5043647863602772  0.4915784279254325
  0.4021529268180117  0.5797179245108879  0.5753382964193463
  0.3319674026393500  0.6580531469176805  0.6678960538944239
  0.2673361826319649  0.7677433517903296  0.7538493203211516
  0.1619575636766299  0.8457527427094860  0.8014202860834274
  0.1019271317829435  0.9380226674972292  0.8963767054263556
  0.0805642691029931  0.9177657715024026  0.1017297582133594
  0.9740759145441089  0.9971881386120316  0.1795440517718703
  0.8962423440383915  0.0982605463270545  0.2467897314507184
  0.8334739654854175  0.1799329152823930  0.3447413205980041
  0.7574445990217811  0.2734486457179770  0.3879167607973386
  0.6790967677187183  0.3241512204688064  0.4972717068106292
  0.5817798698781829  0.4303670201181262  0.5854171576227358
  0.4770677094868958  0.5011331446105558  0.6511605407899594
  0.4064270348837198  0.5859826914913242  0.7431348260428194
  0.3001644965854524  0.6705052611664826  0.8193284228497575
  0.2480511637135479  0.7690865646917686  0.9036199607788831
  0.1473588390550020  0.8357014853266875  0.0003164534883737
  0.1729575013842748  0.8297930435585101  0.1949453294573615
  0.0691404245108913  0.8978843120155062  0.2584412855297131
  0.9870699612403087  0.9780972503691387  0.3502081376891866
  0.9087370980989320  0.0941987624584684  0.4143973237356988
  0.8317542631044645  0.1684518018641583  0.4856060820413433
  0.7574519347545206  0.2724329771133256  0.5723014221114795
  0.6625313538205972  0.3366097434477666  0.6864780084902193
  0.5688848237356936  0.4219502422480588  0.7477525133813216
  0.5049051167404954  0.5062116057585797  0.8071419532115200
  0.3970934094684395  0.5751668609265437  0.9066298758767104
  0.3352487523071233  0.6966038445920972  0.9926742792543379
  0.2539838418235476  0.7685391052971582  0.0680761660206741
  0.2626037278516051  0.7521563169066070  0.2753405172572911
  0.1733907202842389  0.8284178986710984  0.3388031090808425
  0.1050047176079758  0.9040169785898868  0.4252398251199736
  0.9744731436877103  0.9831392704872641  0.4901791057585854
  0.9145878289959413  0.0988824736987794  0.5819000249169406
  0.8432512753783712  0.1814733656330745  0.6476544767441865
  0.7528541975821312  0.2545593461609457  0.7482006972129938
  0.6646111023440398  0.3457032825765936  0.8365159237726090
  0.5626374847729778  0.4320197379106716  0.9042604752676269
  0.5023754683462514  0.5157713086009608  0.9885356030823189
  0.3992960857327432  0.5950278340716153  0.0756681469176783
  0.3136739964008868  0.6673511683277980  0.1686717178848269
  0.3267818803063847  0.6492943443152441  0.3576429240494647
  0.2484701028977483  0.7400513155223294  0.4265115762273908
  0.1832075765965300  0.8045939507198199  0.5078581012366215
  0.0877606233850159  0.8985200304540442  0.5841766652823921
  0.0125451961055774  0.0114663861203397  0.6631395182724233
  0.9134739290328540  0.1037756136950918  0.7257756639904045
  0.8236250166112953  0.1528631081579945  0.8349119629014368
  0.7584102999261688  0.2410554609634517  0.9005305564784081
  0.6424494181432294  0.3257779988002980  0.9949658268733828
  0.5653513759689943  0.4362745501107383  0.1283783887043199
  0.4918796742340348  0.5337942137320013  0.1519859505352557
  0.3836993766149845  0.5754499354005134  0.2261044522886664
  0.4426539890180905  0.5718075973606460  0.4299754189737897
  0.3347387716869719  0.6627682867294169  0.4909901458102652
  0.2678213081395313  0.7478474049464765  0.5820007613510541
  0.2052814770210389  0.8432406021594687  0.6739886863233693
  0.1152577311738625  0.9548252611664836  0.7208066749723159
  0.9868778677556307  0.0046928552971579  0.8047551933370229
  0.8865623731081556  0.0786166380583211  0.9083635903469940
  0.8285351448874110  0.1807566625138435  0.0065761064968655
  0.7716076015134732  0.2691214377999245  0.1155959186969326
  0.6775155763196778  0.3336323892580282  0.1720298934108513
  0.5717258236434120  0.4487529743447780  0.2322752477851608
  0.4838353696013300  0.5112635049833898  0.3304526758028814
  0.0698702722406779  0.1001748288113689  0.9062039396456285
  0.0007275461424854  0.1541708093392415  0.0207445353451448
  0.9041664733296386  0.2600513745847195  0.0806285852713202
  0.8370519961240319  0.3598523255813930  0.1664669093761546
  0.7560221054817262  0.4212799183277980  0.2530347180694008
  0.6594476827242488  0.5066208208748648  0.3546154914174977
  0.5822938838132146  0.6114052703949824  0.4153533937799949
  0.4899698620339592  0.6694336447951272  0.5027917335732752
  0.4086369430601664  0.7531452763935036  0.5770759413067523
  0.3270299169435233  0.8478711383351794  0.6686954300479897
  0.2775137527685487  0.9700941625138455  0.7738251504245142
  0.1716385220561065  0.0203817266518982  0.8424074469361358
  0.1585380703211499  0.0216772406792174  0.9961245824104807
  0.0778002367109636  0.0889905306386112  0.0848975812107824
  0.9813360358988561  0.1416685635843464  0.1580880560169788
  0.9026863007567343  0.2480879401993334  0.2546870501107392
  0.8354917921742313  0.3302869504429680  0.3158518876891847
  0.7454056321520852  0.4227625036914020  0.4117821179401986
  0.6652337181616801  0.5067358421004045  0.5024716472868249
  0.5838281999815464  0.5902745265780709  0.5918146945367297
  0.5007790263935021  0.6747443549280163  0.6600861484865277
  0.4177886411037264  0.7735720699520101  0.7535675346068658
  0.3553620182724231  0.8671340877630129  0.8300474035621974
  0.2474785552787040  0.9239286964747109  0.8858089691768214
  0.2459735700442991  0.9002229055924715  0.0930669693613879
  0.1563462504614250  0.9899222812846062  0.1622291643595446
  0.0580246253230001  0.0686813750461397  0.2628530034145413
  0.9695343475452205  0.1959247245293483  0.3432705080287946
  0.8931634210040613  0.2728825572166826  0.4232787587670757
  0.8380335585086769  0.3268260317460303  0.4965415037836820
  0.7486823214285678  0.4184268683093393  0.5799947494462927
  0.6816699524732357  0.4927235192875585  0.6629431192321888
  0.5737419135289770  0.5828882973421941  0.7497218927648603
  0.4771627833148742  0.6696684080841635  0.8078352440937593
  0.4299474298634181  0.7482769227574764  0.8952339788667416
  0.3461144938169056  0.8347979457364332  0.9723111401808779
  0.3327510418973816  0.8339374372462132  0.1819546686969389
  0.2444420921004067  0.9254257848837213  0.2322157945736407
  0.1638629111295700  0.0068959030084912  0.3413908891657442
  0.0473182562753749  0.0844511304909545  0.4288433388704291
  0.9884674510889653  0.1799702164082717  0.4994301550387590
  0.9090536821705442  0.2588255140273148  0.6002585598929500
  0.8245856243078649  0.3554743789221106  0.6777858960871157
  0.7503735760428185  0.4209043415466951  0.7616778732927258
  0.6522369449058658  0.5066445427279405  0.8218590942229582
  0.5446112615356213  0.5976053875969001  0.9012109537652293
  0.4803021285529709  0.6604178289959393  0.9743055523255819
  0.4006537809154693  0.7579201485788118  0.0853401338132187
  0.4182166459025467  0.7567286263381305  0.2610003654485027
  0.3124582304355883  0.8422550295311950  0.3422750862864490
  0.2524718512366206  0.9275804305094155  0.4271721373200421
  0.1703503322259152  0.0144672476005923  0.5057599760059048
  0.0965625733665547  0.0828639267257287  0.5745395911775546
  0.0008846184016207  0.1799376965670021  0.6535559689922508
  0.8949715240863796  0.2607135474344773  0.7540766011443338
  0.8235958065706868  0.3340656030823155  0.8409138210594307
  0.7285501439645614  0.4177368839977831  0.9005065457733465
  0.6352768263196751  0.5175653442229589  0.9947505800110719
  0.5659451896456247  0.6178020085825011  0.0775638538205996
  0.4932703779069740  0.6634694665928365  0.1681177353266889
  0.4724560455887783  0.6817299298634154  0.3103203142303457
  0.4143353626799566  0.7447528105389409  0.4164385266703547
  0.3370710266703583  0.8432078313030615  0.5062486415651506
  0.2524340531561435  0.9186389894795113  0.5782436872462142
  0.1865650041528255  0.0043785815799211  0.6381756016980447
  0.1154595376522707  0.1028896022517500  0.7474417298818778
  0.9919498260428199  0.1795647217607979  0.8325149003322281
  0.9120107936507935  0.2533423555740129  0.9276950655223359
  0.8210121650055342  0.3528926748800316  0.9955384436138814
  0.7533176495016605  0.4442363588962692  0.0878743323182007
  0.6560629835732712  0.5317945990217794  0.1785207170542620
  0.5871193950719800  0.6034514133444091  0.2641015568475424
  0.1918834856035403  0.1573916828165380  0.8451137744555197
  0.1068065282392041  0.2477920524178643  0.9390155204872670
  0.0003184034699117  0.3364545344222947  0.0205561503322258
  0.9093299234034689  0.4284550669066078  0.0882453169988935
  0.8465295233480958  0.5076596996124039  0.1624252846991538
  0.7457580107973456  0.6074538570505723  0.2508831630675559
  0.6590820058139499  0.6900428294573615  0.3562003073089670
  0.5836256773717210  0.7192022549833865  0.4393251531930602
  0.4933612467700286  0.8225799986157227  0.4895068166297492
  0.4534683453303785  0.9022414285714291  0.5916848426541179
  0.3421693346253250  0.0082953280730891  0.6404998818752290
  0.2515663971945372  0.0862799953857518  0.7584967801771896
  0.2726548288113690  0.0817296982281306  0.9265093452380952
  0.1578180467884849  0.1544649644702858  0.0041301144333730
  0.0952050581395341  0.2400217308047274  0.1018186120339593
  0.9708779951088928  0.3161921788482829  0.1559678446843833
  0.9248282871908486  0.4127269241417508  0.2432730167958681
  0.8443428202288672  0.5000646982281296  0.3365959533037994
  0.7618500844407521  0.5988792058877834  0.4110465577703977
  0.6743765388519734  0.6660774695459608  0.5182309210040614
  0.5732353160760439  0.7629106358434825  0.5901543346253249
  0.4973620021225571  0.8144216140642300  0.6966291306755252
  0.4367490582318183  0.9487268567737175  0.7443027828534525
  0.3369032941122185  0.0238739133444099  0.8447450729051340
  0.3524897208379443  0.0104585944998163  0.9997231612218513
  0.2563690208564040  0.0926774889258013  0.0788500844407523
  0.1598786840162418  0.1452851933370241  0.1864433148763354
  0.0779403123846407  0.2485534583794760  0.2460149598560335
  0.9968828123846407  0.3225505458656315  0.3265442663344373
  0.9026295030454037  0.4093798440383907  0.4287652136397213
  0.8151006515319281  0.5086957968807653  0.5030168530823147
  0.7599357170542618  0.5672526398117412  0.5793245168881498
  0.6687162758397918  0.6776886766334442  0.6692612453857478
  0.5787814664082660  0.7349852099483201  0.7558043909191596
  0.5020531072351417  0.8219896280915435  0.8301561563307516
  0.4450237260059069  0.9364032087486152  0.9204613787375422
  0.4213183799372473  0.9094560861941687  0.0709869675156867
  0.3483633970099689  0.0033116140642306  0.1671092058877832
  0.2546727676264311  0.0767080532484314  0.2337955777039511
  0.1616804771133289  0.1574741034514560  0.3334120367294204
  0.0963261973975662  0.2361084103912887  0.4041335252860847
  0.0079657009043927  0.2982289142672556  0.4969829351236612
  0.9326018050941300  0.4130343295496459  0.5704747194536708
  0.8526688648947953  0.4969510986526373  0.6764556413805849
  0.7438611798634156  0.5731840919158344  0.7557485437430813
  0.6359127791620551  0.6483521746954608  0.8237107941122161
  0.5713531570690265  0.7404391066814355  0.9026707073643436
  0.5054698920265750  0.8447739230343316  0.0109335165190103
  0.4998431695275016  0.8254701185861961  0.1700903714470314
  0.4319829171280887  0.9031616071428559  0.2694114511812487
  0.3512398957179741  0.9938359846806932  0.3091049829272805
  0.2601154438907329  0.0815693996862308  0.3956384339239563
  0.1685890937615326  0.1776363330564763  0.4783453253045380
  0.0901320334994438  0.2490839008859353  0.5552574949243265
  0.9787587846068675  0.2956167640273151  0.6692617312661469
  0.9349242820228838  0.4054093166297505  0.7516964710225196
  0.8481963182908814  0.4910064950166131  0.8475766186784810
  0.7177836489479503  0.5632379775747509  0.9163266334440721
  0.6631792354189727  0.6567768936877059  0.0146056206164644
  0.5641968590808446  0.7408932761166511  0.0697225609080832
  0.5464894287559972  0.7427382530454025  0.2597100581395324
  0.4836764991694338  0.8385297891288275  0.3728822033038028
  0.4113769209117777  0.9308986055740149  0.4523717105020282
  0.3375665988372063  0.9985649326319646  0.5230764760981899
  0.2469568826135102  0.0937072845145792  0.5677466551310459
  0.1770031972129971  0.1449625521410098  0.6462945104282056
  0.0941748274270964  0.2165780749353985  0.7610400507567334
  0.9946340794573629  0.3151206653746783  0.8365098223514238
  0.9222562546142470  0.4104851891842003  0.9229043775378400
  0.8152094102990048  0.5026609745293484  0.9958556861387962
  0.7422070588778169  0.5843199510889647  0.0856645879475835
  0.6503464041159077  0.6871693535437444  0.1520397065337775
  0.2614102279438910  0.2273832382798062  0.7480693092469579
  0.1743074021779236  0.3111499598560385  0.8305060354374305
  0.0909679180509428  0.3831561531007779  0.9079397286821731
  0.0125254651162763  0.4873005657069029  0.9911744352159459
  0.9169381759874469  0.5694284228497608  0.0945860017534130
  0.8383285986526374  0.6587789036544862  0.1550694619785915
  0.7431803340716101  0.7420031026208918  0.2284829351236652
  0.6728534274640054  0.8212789198043566  0.3422293779992600
  0.6027691422111445  0.9034610354374308  0.4517236217238860
  0.5148065683831646  0.0105183988556661  0.5138248048172755
  0.4412451315060935  0.0996713404392793  0.5587834749907685
  0.3151643060169818  0.1528547752860803  0.6575090586932433
  0.3510359929863398  0.1576491371354720  0.8365637296973034
  0.2528459791435935  0.2495487587670695  0.9302440143964574
  0.1793722037652259  0.3321315997600607  0.0172654069767475
  0.0845537873754125  0.3989389747139143  0.0822987504614261
  0.0209645275009223  0.4873418253968254  0.1653878566814342
  0.9452813487449276  0.5786174423218924  0.2544480786268011
  0.8377087453857541  0.6646005643226260  0.3245553451458107
  0.7492938695090459  0.7389418516980442  0.4213561678663709
  0.6883446271686964  0.8090390134736083  0.4816526864156501
  0.5842971608527137  0.8975538395164264  0.5826640342377232
  0.4954975175341474  0.0085938339793259  0.6472427094868962
  0.4108950945920995  0.0759612236987834  0.7394960917312687
  0.4287412804540409  0.0944294716685121  0.9240633854743479
  0.3533526213547447  0.1513243660022141  0.0214268932262840
  0.2520099570874876  0.2533757207456659  0.0914044472129945
  0.1815372379106677  0.3337366546696217  0.1723350484496109
  0.0882408194905864  0.4035466606681410  0.2494809920634893
  0.0183975650609085  0.4716315051679558  0.3235280066445156
  0.9177483005721641  0.5728203774455523  0.4134674312476960
  0.8130111471022516  0.6529130407899615  0.5194782775009230
  0.7561716112956844  0.7559187541528232  0.6089825904392754
  0.6392302436323334  0.8371981672203788  0.6831524884643798
  0.5896341495939481  0.9416855961609443  0.7702896645441086
  0.5135058384090101  0.0582071982281249  0.8443481353820630
  0.5095051808785556  0.9974556012366165  0.9855483845514925
  0.4353233508674776  0.0478687435400502  0.0954332470468842
  0.3168075682908835  0.1720474289405658  0.1560248006644542
  0.2592627085640444  0.2455136203396080  0.2542953935954202
  0.1523259685308247  0.3140608725544496  0.3351297868217031
  0.0848466306755284  0.4127227094868928  0.4258762458471779
  0.9965468018641559  0.4976413699704665  0.5080281907530448
  0.9075143443152456  0.5828063879660377  0.5954164525655230
  0.8352218941491287  0.6746572743632342  0.6634449626245811
  0.7376193618493900  0.7475085649686264  0.7464811327980811
  0.6553390300849031  0.8368833863971972  0.8392942423403440
  0.5834176919527465  0.9437194762827588  0.9103947328349946
  0.5823411300295334  0.9018402044112221  0.0782239945551879
  0.5257478977482464  0.9862448546511615  0.1801773431155382
  0.4441283753229968  0.0683577385566636  0.2469210442045053
  0.3178983421004062  0.1463207936507942  0.3207608416389789
  0.2583086258767082  0.2579438150609050  0.3943446207087504
  0.1905675258397963  0.3180894246031727  0.5051588755075684
  0.0870588939645600  0.3921293110926527  0.5829960723514205
  0.9914440494647465  0.5055834030084867  0.6542678073089689
  0.9257806981358456  0.5653173048172775  0.7550069329088203
  0.8173094984311575  0.6629924294019958  0.8340994735142147
  0.7406340540789955  0.7568080140273139  0.8986222794389107
  0.6497322102251744  0.8522074086378737  0.9894615476190509
  0.6628539557954980  0.8116803820597980  0.1562217068106335
  0.6025092594130683  0.9152351974898494  0.2584823874123288
  0.5089249317091173  0.9746958730158752  0.3375305726282747
  0.4345275599852343  0.0882774607788832  0.4209263851974896
  0.3376047706718310  0.1565884117755658  0.4844525687523102
  0.2579698606496876  0.2280873500369154  0.5669411798634201
  0.1639403433001121  0.3234648311184927  0.6658290919158389
  0.0834424077150260  0.4071544532115183  0.7377403806755254
  0.0225993046327062  0.4639516519010698  0.8374916371354715
  0.9176998615725367  0.5601791805094152  0.8973406058508644
  0.8342703382244352  0.6691275258397908  0.9840859920634912
  0.7357228077703937  0.7535596262458455  0.0814490559246934
  0.3528998131229244  0.3176413279808017  0.6740267068106292
  0.2614197319121416  0.3897290282392021  0.7539006884459241
  0.1613179069767412  0.4811966029900319  0.8382470224252501
  0.0645808319490584  0.5999225106127710  0.8973725272240642
  0.9907205846253220  0.6768556676817994  0.9976172157622756
  0.9148788575119937  0.7485972757475068  0.0747309071613174
  0.8240616279069783  0.8199943484680716  0.1866852754706514
  0.7519853345330390  0.9284259330011082  0.2858319818198609
  0.6638649206349214  0.9953665660760436  0.3450112112403119
  0.6037934666851257  0.0974614567183494  0.4139148209671433
  0.5269934380767793  0.1655645842561810  0.4858948818752324
  0.4349026015134712  0.2277207456626087  0.5644351896456286
  0.4000271382428906  0.2094539954780359  0.7286572540605363
  0.3281478169988929  0.3076158711701709  0.8175187241602089
  0.2546179688076791  0.3926129111295680  0.9205455652454759
  0.1186499040236271  0.4933977657807276  0.0038643706164621
  0.0847667423403493  0.6113072683647118  0.0943668858434847
  0.9989792977113297  0.6833878751384290  0.1617809533038042
  0.8992580606312259  0.7378516634366932  0.2605410580472522
  0.8265961060354385  0.8217714179586579  0.3272100756736833
  0.7626345367294221  0.9221200249169428  0.4361143286268003
  0.6620805753968284  0.9998687412329303  0.5053594130675521
  0.5944763159837549  0.0755287098560373  0.5900874852344060
  0.4909693641565127  0.1687556556847554  0.6629563755075694
  0.4925892898671123  0.1668094896640824  0.8215315296234778
  0.4407778986710937  0.2470790107050576  0.9205970514950153
  0.3399267691029877  0.3322265083979303  0.0102926112033970
  0.2573588616648195  0.4180074755444778  0.0777015217792538
  0.1700629941860470  0.5113565125507549  0.1471045413436727
  0.1010669601328900  0.5975318563122940  0.2311969462901473
  0.0142917321890010  0.6689022748246600  0.3189107101328901
  0.9412708397932832  0.7372668198597268  0.4302046488556641
  0.8259587338501291  0.8234628437615328  0.5169596077888485
  0.7241541948135861  0.9028116763565919  0.5938510668143238
  0.6521727210225166  0.9935967206533789  0.6505206985972691
  0.5842922351421223  0.1133868286268012  0.7493670662606107
  0.5930562453857533  0.1018748721853058  0.9389109759136218
  0.5210682368955304  0.1917765669988896  0.0224938099852352
  0.4223875664451811  0.2340315282391998  0.0898280172572896
  0.3417740577703938  0.3294219712070898  0.1733561863233675
  0.2581492298818731  0.4003066269841256  0.2483924132521196
  0.1466679577334844  0.5020342852528614  0.3282133148763364
  0.0956833287190832  0.5969545667220402  0.4075822720561106
  0.0043460871170140  0.6412475041528225  0.5114583310262120
  0.9296684237726112  0.7356759616094521  0.5785887647655983
  0.8275392658730141  0.8263878137689176  0.6657896908453296
  0.7450696986895551  0.8838364179586549  0.7493335714285720
  0.6575573694167574  0.0056722351421215  0.8368779641934267
  0.6644433250276833  0.9941444633628649  0.0167871114802480
  0.5798205675526020  0.0862438990402339  0.0998956612218507
  0.4960117192691058  0.1640444522886639  0.1745663699704707
  0.4278775378368422  0.2324917289590260  0.2581827445551852
  0.3296948809523812  0.3489436734034683  0.3150293807678111
  0.2292772263750464  0.3893626001291963  0.4053101444259894
  0.1551211004983415  0.4947658642487980  0.4932811226467351
  0.1032563759689893  0.5768790891472833  0.6256737698412707
  0.0151896557770428  0.6662520265780714  0.6813779374307884
  0.9256220990217798  0.7335281686046500  0.7314443244739763
  0.8676618844592099  0.8358542095791819  0.8107142137320054
  0.7391371557770370  0.9210231875230690  0.9124992778700616
  0.7555458051864150  0.8910293807678116  0.0896213178294545
  0.6672518300110752  0.0011504937246229  0.1715683896271685
  0.5999771631598350  0.0642903419158358  0.2522045621077922
  0.5163661314138039  0.1525416519010676  0.3278975369139872
  0.4189492940199315  0.2455075203026951  0.4066301144333693
  0.3441909385382047  0.3297041006829105  0.4799325959763721
  0.2661915665374650  0.4063603036175678  0.5772015628460707
  0.1967051974898482  0.4675845639534870  0.6709452870062762
  0.0914689654854186  0.5570867501845669  0.7492512103174604
  0.9967794855112615  0.6588199506275387  0.8281765882244372
  0.9265773168143241  0.7357565937615362  0.9090553612956782
  0.8391183513289064  0.8346477745478040  0.9827109113141361
  0.4196064114987053  0.4097354406607607  0.5885203677556277
  0.3546620570321153  0.4985515568475449  0.6786323509597665
  0.2614847180693971  0.5803558319490563  0.7519644024547816
  0.1622507567368032  0.6792890250092256  0.8265678363787359
  0.0678467732558161  0.7531865891472833  0.9060664571797687
  0.0088870233481018  0.8547980334071639  0.0014882968807655
  0.9066924381690669  0.9033404844961268  0.0882863985788092
  0.8078605763196762  0.0016743014027298  0.1934564447212992
  0.7579397194536739  0.0875888173680295  0.2817629309708352
  0.6586699981543020  0.1790092483388719  0.3301029171280945
  0.5919569947397534  0.2673232290513070  0.3916308914728717
  0.5108077053340736  0.3216569015319308  0.5154764276485793
  0.5053201425802882  0.3297089760981891  0.6633047526762610
  0.4128203451458106  0.4312011124953870  0.7480061664820994
  0.3205001864156500  0.4935119652085618  0.8416254208194900
  0.2388107392026555  0.5982501162790683  0.9185407950350708
  0.1429892095791772  0.6646897360649717  0.9745621160944964
  0.0787835885012953  0.7719689230343292  0.0832980186415639
  0.0019432461240285  0.8190327422480621  0.1900927228682150
  0.9154390854558869  0.9147782959579160  0.2621438261351017
  0.8382825069213737  0.0258504480435562  0.3568393521594686
  0.7496135322074551  0.1004205804725018  0.4388390753045428
  0.6679250807493560  0.1963772005352524  0.5058682147471387
  0.5876053797526737  0.2487668526208964  0.5803874427833122
  0.5938819804355830  0.2570439867109613  0.7542289797895876
  0.4828800350682911  0.3221910285160590  0.8218309874492462
  0.4461692741786649  0.4262151628829827  0.9150535562015492
  0.3273389484126952  0.5048582465854565  0.9974168844592128
  0.2552226430417122  0.5993431861387961  0.0542466357511984
  0.1775630740125536  0.6819691122185318  0.1615028543743051
  0.0818625346068629  0.7596718743078625  0.2538248564968626
  0.0003472540605358  0.8154023569582876  0.3468877076411943
  0.9123289917866373  0.9202839585640490  0.4083387061646349
  0.8187204817275742  0.0047855786268016  0.5329114581026175
  0.7356815711517157  0.0895078926725716  0.5980859186969383
  0.6601198528054653  0.1614363501292004  0.6481336157253565
  0.6679416648209653  0.1725204591177558  0.8417935562015515
  0.5880780689368805  0.2325366565153217  0.9020514700996642
  0.5157221502399381  0.3317956030823197  0.0263801181247700
  0.4240889797895875  0.4084931478405309  0.0653473444998127
  0.3264299856958317  0.4698330011074177  0.1693761415651522
  0.2343917709486902  0.5851671280915482  0.2503236581764483
  0.1655683111849413  0.6739106990586947  0.3432880601698045
  0.0863332798080449  0.7366410188261341  0.4256219532115182
  0.9860293069398267  0.8432102713178296  0.5060636983204105
  0.9048064119601307  0.8934164433370242  0.5836715619232180
  0.8135448352713155  0.0071622872831298  0.6590038132152074
  0.7314563939645637  0.0876623675710562  0.7210069744370600
  0.7418295418050960  0.0521316380583272  0.9278453839054990
  0.6731942081949072  0.1978461554079018  0.0310731976744165
  0.5860728599114040  0.2637920095053516  0.1103340471576217
  0.5029361734034694  0.3528504526578047  0.1678798924880027
  0.4287951827242509  0.4273595828719081  0.2404218318567715
  0.3210127828534510  0.5048111877076380  0.3387714322628241
  0.2310187924510885  0.5691792552602450  0.4246748495754886
  0.1536460460502056  0.6543185806570690  0.5238980301771861
  0.0810498343484696  0.7557703926725736  0.6026893650793639
  0.9933787767626399  0.8387392764857893  0.6770054434293087
  0.9076233047249929  0.9317766246769992  0.7313117077334823
  0.8318319642857119  0.9968054388150591  0.8158058605574041
  0.8251506930601664  0.9785835751199699  0.0220228017718682
  0.7623027953119248  0.0812649238648930  0.0783828843669241
  0.6660523006644539  0.1605528349944620  0.1729299976928758
  0.5878249820044275  0.2530605495570342  0.2259790937615378
  0.5016482899593910  0.3413137398486512  0.3255346936138821
  0.4283985672757495  0.4093345381136970  0.4103136000369147
  0.3255998726467340  0.5010339096530103  0.4903809768364695
  0.2519395076596496  0.5966342921742367  0.5817004023624932
  0.1798130675526011  0.6839331146179433  0.6903531547619082
  0.0719505246400871  0.7623531224621658  0.7425862887596892
  0.9994203206902910  0.8458231404577319  0.8115279540420843
  0.9207734191583583  0.9284433863971913  0.9118340997600569
 
  0.00000000E+00  0.00000000E+00  0.00000000E+00
  0.00000000E+00  0.00000000E+00  0.00000000E+00
  0.00000000E+00  0.00000000E+00  0.00000000E+00
  0.00000000E+00  0.00000000E+00  0.00000000E+00
  0.00000000E+00  0.00000000E+00  0.00000000E+00
  0.00000000E+00  0.00000000E+00  0.00000000E+00
  0.00000000E+00  0.00000000E+00  0.00000000E+00
  0.00000000E+00  0.00000000E+00  0.00000000E+00
  0.00000000E+00  0.00000000E+00  0.00000000E+00
  0.00000000E+00  0.00000000E+00  0.00000000E+00
  0.00000000E+00  0.00000000E+00  0.00000000E+00
  0.00000000E+00  0.00000000E+00  0.00000000E+00
  0.00000000E+00  0.00000000E+00  0.00000000E+00
  0.00000000E+00  0.00000000E+00  0.00000000E+00
  0.00000000E+00  0.00000000E+00  0.00000000E+00
  0.00000000E+00  0.00000000E+00  0.00000000E+00
  0.00000000E+00  0.00000000E+00  0.00000000E+00
  0.00000000E+00  0.00000000E+00  0.00000000E+00
  0.00000000E+00  0.00000000E+00  0.00000000E+00
  0.00000000E+00  0.00000000E+00  0.00000000E+00
  0.00000000E+00  0.00000000E+00  0.00000000E+00
  0.00000000E+00  0.00000000E+00  0.00000000E+00
  0.00000000E+00  0.00000000E+00  0.00000000E+00
  0.00000000E+00  0.00000000E+00  0.00000000E+00
  0.00000000E+00  0.00000000E+00  0.00000000E+00
  0.00000000E+00  0.00000000E+00  0.00000000E+00
  0.00000000E+00  0.00000000E+00  0.00000000E+00
  0.00000000E+00  0.00000000E+00  0.00000000E+00
  0.00000000E+00  0.00000000E+00  0.00000000E+00
  0.00000000E+00  0.00000000E+00  0.00000000E+00
  0.00000000E+00  0.00000000E+00  0.00000000E+00
  0.00000000E+00  0.00000000E+00  0.00000000E+00
  0.00000000E+00  0.00000000E+00  0.00000000E+00
  0.00000000E+00  0.00000000E+00  0.00000000E+00
  0.00000000E+00  0.00000000E+00  0.00000000E+00
  0.00000000E+00  0.00000000E+00  0.00000000E+00
  0.00000000E+00  0.00000000E+00  0.00000000E+00
  0.00000000E+00  0.00000000E+00  0.00000000E+00
  0.00000000E+00  0.00000000E+00  0.00000000E+00
  0.00000000E+00  0.00000000E+00  0.00000000E+00
  0.00000000E+00  0.00000000E+00  0.00000000E+00
  0.00000000E+00  0.00000000E+00  0.00000000E+00
  0.00000000E+00  0.00000000E+00  0.00000000E+00
  0.00000000E+00  0.00000000E+00  0.00000000E+00
  0.00000000E+00  0.00000000E+00  0.00000000E+00
  0.00000000E+00  0.00000000E+00  0.00000000E+00
  0.00000000E+00  0.00000000E+00  0.00000000E+00
  0.00000000E+00  0.00000000E+00  0.00000000E+00
  0.00000000E+00  0.00000000E+00  0.00000000E+00
  0.00000000E+00  0.00000000E+00  0.00000000E+00
  0.00000000E+00  0.00000000E+00  0.00000000E+00
  0.00000000E+00  0.00000000E+00  0.00000000E+00
  0.00000000E+00  0.00000000E+00  0.00000000E+00
  0.00000000E+00  0.00000000E+00  0.00000000E+00
  0.00000000E+00  0.00000000E+00  0.00000000E+00
  0.00000000E+00  0.00000000E+00  0.00000000E+00
  0.00000000E+00  0.00000000E+00  0.00000000E+00
  0.00000000E+00  0.00000000E+00  0.00000000E+00
  0.00000000E+00  0.00000000E+00  0.00000000E+00
  0.00000000E+00  0.00000000E+00  0.00000000E+00
  0.00000000E+00  0.00000000E+00  0.00000000E+00
  0.00000000E+00  0.00000000E+00  0.00000000E+00
  0.00000000E+00  0.00000000E+00  0.00000000E+00
  0.00000000E+00  0.00000000E+00  0.00000000E+00
  0.00000000E+00  0.00000000E+00  0.00000000E+00
  0.00000000E+00  0.00000000E+00  0.00000000E+00
  0.00000000E+00  0.00000000E+00  0.00000000E+00
  0.00000000E+00  0.00000000E+00  0.00000000E+00