Li 
 1.0000000000000000
    21.6720000000000006    0.0000000000000000    0.0000000000000000
     0.0000000000000000   21.6720000000000006    0.0000000000000000
     0.0000000000000000    0.0000000000000000   21.6720000000000006
 Li 
 432
Cartesian
  0.1906736100000000 -0.1982798000000000 -0.5507595199999999
 19.6423998500000003  1.3190771100000001  1.7785064399999999
 18.1522016400000012  3.2698590400000000  3.3656710900000002
 16.8280372599999986  5.1481433599999997  4.8896158500000002
 14.5784845000000001  7.3024809299999998  6.6707537800000001
 13.1092262599999998  9.0267253899999993  9.3798033699999994
 11.0517100799999994 10.9305936500000005 10.6534876900000004
  8.7154582299999994 12.5636468600000004 12.4687315600000002
  7.1943975499999997 14.2613278000000001 14.4746432800000004
  5.7937097499999997 16.6385339200000004 16.3374224699999999
  3.5099443199999998 18.3291534399999989 17.3683804399999993
  2.2089648000000000 20.3288272499999998 19.4262759600000017
  1.7459888400000001 19.8898198000000015  2.2046873200000001
 -0.5618267800000000 -0.0609386600000000  3.8910786900000001
 19.4233640799999989  2.1295025600000002  5.3484270599999997
 18.0630477800000016  3.8995061400000002  7.4712338999999997
 16.4153393500000000  5.9261790500000000  8.4069320399999992
 14.7173851500000001  7.0250052500000004 10.7768724299999992
 12.6083333399999997  9.3269140600000000 12.6871606400000001
 10.3390114000000004 10.8605575099999996 14.1119512399999998
  8.8080867000000005 12.6994168900000002 16.1052179500000001
  6.5051649700000000 14.5311900200000004 17.7564855799999997
  5.3757648199999997 16.6676440300000017 19.5832517899999985
  3.1935607600000000 18.1113225900000003  0.0068581800000000
  3.7483349700000002 17.9832748400000000  4.2248551799999996
  1.4984112800000000 19.4589488099999990  5.6009395399999997
 -0.2802198000000000 -0.4746763900000000  7.5897107600000000
 19.6941503900000008  2.0414755800000002  8.9808187999999998
 18.0257783899999993  3.6506874499999999 10.5240550099999997
 16.4154983299999984  5.9041674799999999 12.4029164200000004
 14.3583794999999999  7.2950063600000004 14.8773514000000002
 12.3288718999999993  9.1445056499999993 16.2052924699999998
 10.9423036899999992 10.9706179200000005 17.4923804099999991
  8.6058083700000001 12.4650162099999999 19.6484826699999999
  7.2655109600000003 15.0967985200000001 21.5132369799999985
  5.5043378199999999 16.6557794900000005  1.4753466700000000
  5.6911479900000002 16.3007317000000000  5.9671796900000000
  3.7577236900000002 17.9534726999999990  7.3425409799999999
  2.2756622399999999 19.5918559600000002  9.2157974899999999
 -0.5532180300000000 -0.3654057300000000 10.6231615799999997
 19.8209474300000004  2.1429809700000000 12.6109373399999996
 18.2749416400000015  3.9328907800000001 14.0359678199999998
 16.3158561700000000  5.5168101500000004 16.2150055100000010
 14.4034518100000000  7.4920815400000000 18.1289730999999996
 12.1934795699999992  9.3627317600000008 19.5971330200000011
 10.8874811499999993 11.1777958000000002 -0.2484564100000000
  8.6535447699999999 12.8954432200000007  1.6398800800000000
  6.7979428500000001 14.4628345199999995  3.6554534699999999
  7.0820169100000001 14.0715070299999994  7.7508374499999997
  5.3848440699999998 16.0383921100000002  9.2433588800000006
  3.9704746000000002 17.4371600999999998 11.0063007699999993
  1.9019482299999999 19.4727260999999991 12.6602766899999999
  0.2718794900000000  0.2484995200000000 14.3715596399999992
 19.7968069900000003  2.2490250999999999 15.7290101900000003
 17.8496013600000012  3.3128492800000000 18.0942120600000003
 16.4362680200000000  5.2241539499999998 19.5162982199999995
 13.9231637900000003  7.0602607900000001 -0.1091006000000000
 12.2522950200000000  9.4549420499999997  2.7822164400000000
 10.6600163000000006 11.5683881999999993  3.2938395200000001
  8.3155328900000001 12.4711510000000008  4.9001356899999999
  9.5931972499999993 12.3922142500000003  9.3184272799999999
  7.2544586600000001 14.3635143099999993 10.6407384399999998
  5.8042233899999998 16.2073489600000009 12.6131205000000008
  4.4488601699999997 18.2747103300000013 14.6066828100000006
  2.4978655500000002 20.6929730599999999 15.6213222599999995
 -0.2843828500000000  0.1017035600000000 17.4406545500000014
 19.2135797500000010  1.7037797800000001 19.6860557299999996
 17.9560136600000000  3.9173583900000000 21.8145173800000016
 16.7222799400000000  5.8323998000000001  2.5051947499999998
 14.6831175700000003  7.2304811400000002  3.7282318499999998
 12.3904420500000008  9.7253744599999994  5.0338691700000000
 10.4856801300000004 11.0801026799999995  7.1615703899999996
  1.5142285400000000  2.1709888899999998 19.6392517799999986
  0.0157673800000000  3.3411897800000001  0.4495755700000000
 19.5950958100000001  5.6358333900000002  1.7473827000000000
 18.1405908599999997  7.7987196000000001  3.6076708599999998
 16.3845110699999985  9.1299783899999998  5.4837684099999997
 14.2915501799999998 10.9794864299999997  7.6852269299999998
 12.6194730499999999 13.2503750199999999  9.0015387499999999
 10.6186268500000001 14.5079659500000009 10.8965024499999998
  8.8559798300000008 16.3221644300000008 12.5063897999999991
  7.0873923599999999 18.3750633100000016 14.4919673600000003
  6.0142780499999997 21.0238806899999986 16.7703386600000002
  3.7197500500000000  0.4417127800000000 18.2566541899999990
  3.4358370599999999  0.4697891600000000 -0.0839880500000000
  1.6860867300000000  1.9286027800000001  1.8399003800000000
 -0.4044854300000000  3.0702411100000000  3.4260843500000000
 19.5630175100000017  5.3765618399999999  5.5195777499999998
 18.1067781200000013  7.1579787899999996  6.8451421100000003
 16.1544308600000015  9.1621089799999993  8.9241420599999994
 14.4169451399999993 10.9819791700000007 10.8895655399999995
 12.6527247500000009 12.7924295400000005 12.8258080600000000
 10.8528830599999999 14.6230596599999991 14.3053870100000005
  9.0543154300000008 16.7648538999999985 16.3313156100000008
  7.7014056599999998 18.7925299499999987 17.9887873300000010
  5.3633552499999997 20.0233827099999999 19.1972519800000008
  5.3307392100000000 19.5096308100000009  2.0169473600000001
  3.3883359400000002 -0.2184043200000000  3.5158304500000002
  1.2575096800000001  1.4884627600000000  5.6965502900000002
 -0.6602516200000000  4.2460806299999998  7.4393584500000003
 19.3566376600000005  5.9139107800000001  9.1732972600000000
 18.1618632799999986  7.0829737599999998 10.7610474699999994
 16.2254432699999995  9.0681470900000001 12.5696462100000002
 14.7731512100000000 10.6783041099999991 14.3673032799999998
 12.4341347500000001 12.6323551799999994 16.2479728600000008
 10.3410718399999997 14.5130537400000001 17.5074054100000005
  9.3178207000000004 16.2166574700000012 19.4015107899999997
  7.5009933100000001 18.0917410799999985 21.0719270300000012
  7.2113805800000002 18.0730921400000000  3.9433215800000001
  5.2975490199999999 20.0558276100000015  5.0325806999999996
  3.5512370099999999  0.1494480100000000  7.3986233500000003
  1.0254812499999999  1.8302248999999999  9.2938928399999998
 -0.2499334000000000  3.9003145300000002 10.8236503200000005
 19.7010113999999987  5.6092665400000001 13.0088035099999999
 17.8704196499999988  7.7038407400000004 14.6889759400000006
 16.2620961400000006  9.1218388899999994 16.5070828700000014
 14.1352790699999993 10.9800005299999999 17.8113302900000008
 11.8028152599999991 12.9513039600000006 19.5310437899999982
 10.4091077300000006 14.3125751900000004 21.1151499300000012
  8.6829687399999997 16.4256454599999984  1.8494913799999999
  9.0635911500000006 16.3998227900000018  5.6563999200000001
  6.7715947700000001 18.2533509999999985  7.4177856699999998
  5.4715699600000001 20.1025230899999983  9.2576745599999999
  3.6918324000000000  0.3135341900000000 10.9608302000000002
  2.0927040899999998  1.7958270199999999 12.4514220200000008
  0.0191714500000000  3.8996097600000001 14.1638649599999997
 19.3958228699999999  5.6501840000000003 16.3423480999999988
 17.8489683200000009  7.2398697500000004 18.2242843299999997
 15.7891387200000004  9.0531937500000002 19.5157778600000000
 13.7677193800000008 11.2166761400000006 21.5582345699999998
 12.2651641500000004 13.3890051299999993  1.6809638400000000
 10.6901556299999996 14.3787102800000000  3.6434475599999998
 10.2390674199999996 14.7744510400000006  6.7252618499999999
  8.9794759800000001 16.1402829099999998  9.0250557499999999
  7.3050032900000001 18.2740001200000002 10.9714205600000003
  5.4707508000000002 19.9087441799999993 12.5316971899999992
  4.0432367700000000  0.0948926200000000 13.8305416399999999
  2.5022391000000002  2.2298234600000000 16.1985571700000008
 -0.1744633700000000  3.8915266499999999 18.0422629199999989
 19.7650979199999988  5.4904355300000001 20.1050074599999995
 17.7929756400000016  7.6478900500000000 21.5753091499999989
 16.3259000999999984  9.6274903700000003  1.9044125300000001
 14.2181969800000001 11.5250525499999998  3.8689009799999998
 12.7240515300000006 13.0779990300000009  5.7236089400000001
  4.1584988999999997  3.4109925500000000 18.3153057200000013
  2.3147110799999999  5.3701493600000001 20.3503443600000011
  0.0069004400000000  7.2916426699999999  0.4454928900000000
 19.7069980999999999  9.2854782100000008  1.9124525100000000
 18.3459878299999986 11.0020010100000007  3.5200807699999999
 16.1620676100000011 13.1647399899999993  5.4371399100000000
 14.2836252300000002 14.9546081999999991  7.7195730600000001
 12.6483356800000006 15.5865512699999993  9.5210547200000004
 10.6921249399999994 17.8269537299999996 10.6085917300000006
  9.8275659799999993 19.5533762399999986 12.8229939099999992
  7.4154938200000000 21.8517763500000015 13.8809134400000005
  5.4519469599999999  1.8698600599999999 16.4381422199999996
  5.9089754499999998  1.7712460200000000 20.0793105300000008
  3.4202327100000001  3.3475647099999999  0.0895078400000000
  2.0632840200000002  5.2017509500000001  2.2066129600000002
 -0.6311320900000000  6.8525169000000004  3.3801351300000002
 20.0428786400000014  8.9446179000000008  5.2722128200000000
 18.2985976000000008 10.8374021400000000  7.2947075000000003
 16.5108150299999998 12.9789101500000008  8.9082010000000000
 14.6150883500000006 14.4352309200000004 11.2311005200000000
 12.4231557699999993 16.5337992999999983 12.7898247400000002
 10.7788293100000008 17.6501452199999989 15.0973465200000003
  9.4652255899999993 20.5608084399999989 16.1305299099999999
  7.3013681899999998 22.1893954499999992 18.3073152199999996
  7.6391572300000004  0.2266586600000000 -0.0059996500000000
  5.5560294199999998  2.0085065400000000  1.7088390300000000
  3.4648908399999998  3.1486207099999999  4.0405995199999998
  1.6891224499999999  5.3866505499999997  5.3316362100000001
 -0.0675556900000000  6.9903154299999999  7.0768673399999997
 19.5617865900000005  8.8720799800000005  9.2921997100000002
 17.6648613200000000 11.0244553100000005 10.9013812399999992
 16.4693268599999989 12.2934992100000002 12.5551209299999993
 14.4924191300000000 14.6868689999999997 14.5042297100000006
 12.5433519400000009 15.9285994700000000 16.3797927600000008
 10.8804949400000002 17.8141592200000005 17.9911442199999989
  9.6445541899999991 20.2937303399999998 19.9482390000000009
  9.1308119300000001 19.7097322999999989  1.5384295600000000
  7.5497315399999998  0.0717693000000000  3.6215907100000000
  5.5192682199999998  1.6624169300000000  5.0668177600000002
  3.5039392999999999  3.4127787700000001  7.2257056600000000
  2.0875813499999998  5.1169414700000004  8.7583817600000007
  0.1726326700000000  6.4632170300000000 10.7706141700000000
 20.2113463200000005  8.9512799899999997 12.3633281200000003
 18.4790396399999999 10.7699242099999992 14.6601466600000006
 16.1209594900000006 12.4220456400000003 16.3785824399999989
 13.7815017500000003 14.0510883300000007 17.8514603299999983
 12.3823656199999999 16.0467963199999986 19.5626795700000002
 10.9545434999999998 18.3079404600000011 21.9089511700000017
 10.8326011700000002 17.8895884100000018  3.6861985300000000
  9.3619337799999993 19.5733183500000010  5.8386849700000001
  7.6120710200000001 -0.1335865400000000  6.6989231900000004
  5.6372219000000001  1.7677720299999999  8.5742761400000003
  3.6536628400000000  3.8497346100000001 10.3666998899999996
  1.9533414300000000  5.3981462999999996 12.0335404300000004
 -0.4603396200000000  6.4066065099999996 14.5042402399999997
 20.2616790400000006  8.7860307100000004 16.2907659199999983
 18.3821106100000016 10.6410927599999994 18.3686804799999983
 15.5558072400000000 12.2064934500000000 19.8586308000000002
 14.3724203900000003 14.2336688400000000 21.9885330100000012
 12.2272743300000002 16.0566390800000001  1.5110273400000001
 11.8435188999999994 16.0966234200000002  5.6284363800000001
 10.4822370899999999 18.1726175900000015  8.0811031100000008
  8.9153606300000003 20.1744345799999998  9.8037997099999998
  7.3157433300000001 -0.0311007800000000 11.3361133899999995
  5.3520495600000002  2.0308242700000001 12.3042055099999992
  3.8360132899999999  3.1416284299999999 14.0064946300000006
  2.0409568600000001  4.6936800400000003 16.4932599800000013
 -0.1162902300000000  6.8292950599999998 18.1288408700000012
 19.9871375499999999  8.8960350199999993 20.0011836699999996
 17.6672183400000016 10.8936686399999996 21.5821844300000016
 16.0851113800000007 12.6633819800000005  1.8565229500000000
 14.0943072699999998 14.8923342299999995  3.2950045200000000
  5.6652824600000002  4.9278495400000004 16.2121580700000010
  3.7775900199999999  6.7432419299999999 17.9987268000000000
  1.9714567199999999  8.3037601500000005 19.6768697999999986
  0.2714518800000000 10.5607778600000000 -0.1912676400000000
 19.8718841499999996 12.3406527799999992  2.0498678300000002
 18.1682573900000008 14.2770563999999993  3.3606653799999999
 16.1062042000000005 16.0806912400000002  4.9516821699999998
 14.5820794800000009 17.7987567499999990  7.4167950800000000
 13.0632128499999993 19.5798075599999990  9.7897543299999992
 11.1568879499999998  0.2279547400000000 11.1356111700000007
  9.5626644899999995  2.1600772899999998 12.1099554699999992
  6.8302408400000001  3.3126686900000002 14.2495363200000007
  7.6076520399999996  3.4165720999999998 18.1300091499999994
  5.4796780600000004  5.4082207000000002 20.1602482800000011
  3.8873544000000000  7.1979560300000003  0.3741759000000000
  1.8324496800000001  8.6458054600000001  1.7835785200000001
  0.4543432400000000 10.5616720399999995  3.5842856300000001
 20.4861373899999997 12.5397972099999997  5.5143987599999997
 18.1548239299999992 14.4032234300000006  7.0337634400000004
 16.2386967400000017 16.0143478100000003  9.1316308700000004
 14.9178047599999992 17.5334934999999987 10.4383770200000008
 12.6628880699999993 19.4517868100000015 12.6274949500000009
 10.7384222000000005 21.8582455700000011 14.0270440000000001
  8.9049184900000000  1.6462316400000001 16.0263592999999993
  9.2916810299999995  2.0464755100000001 20.0263016900000004
  7.6578580100000000  3.2795016600000002  0.4643636300000000
  5.4615597899999999  5.4911586200000002  1.9809171800000001
  3.9342750199999998  7.2327407800000003  3.7348451699999998
  1.9123550400000000  8.7456632299999999  5.4067520599999996
  0.3987120300000000 10.2211979799999995  7.0114989599999999
 19.8894411700000013 12.4141632200000007  8.9606661699999997
 17.6195775800000014 14.1499314199999997 11.2581332300000003
 16.3877511600000005 16.3822712400000015 13.1978706999999993
 13.8533978399999995 18.1437586800000012 14.8052807299999998
 12.7785512899999993 20.4082102399999989 16.6937176100000002
 11.1286985299999994  1.2614664000000000 18.2987127899999997
 11.0419962799999993 -0.0551422100000000 -0.3131954100000000
  9.4343276599999992  1.0374114100000000  2.0682293299999999
  6.8658536200000002  3.7286118799999999  3.3813694800000000
  5.6187414200000001  5.3207711800000004  5.5110897699999999
  3.3012083900000002  6.8063272300000000  7.2629327400000001
  1.8387961799999999  8.9445265599999999  9.2295900000000000
 -0.0748377100000000 10.7848837700000004 11.0099869500000000
 19.6676508699999992 12.6305800399999999 12.9038653599999993
 18.1009288899999987 14.6211724499999995 14.3781792300000006
 15.9856868100000007 16.2000056199999989 16.1777391100000010
 14.2025074599999996 18.1369367500000003 18.1891848200000013
 12.6438282199999996 20.4522884900000008 19.7300746499999988
 12.6204969699999996 19.5446809100000003  1.6952704100000000
 11.3940084400000003 -0.2981015100000000  3.9048033800000002
  9.6251501499999996  1.4814489099999999  5.3512728699999998
  6.8894928699999998  3.1710642400000002  6.9515289600000001
  5.5980645400000002  5.5901583600000002  8.5462366200000002
  4.1299794199999997  6.8936340100000004 10.9478031500000004
  1.8867403500000000  8.4982264300000008 12.6346908800000008
 -0.1854245600000000 10.9570035099999998 14.1792919200000007
 20.0635192899999986 12.2515566299999996 16.3625102499999997
 17.7127314499999997 14.3683719300000003 18.0766037900000001
 16.0510212199999991 16.4015432799999985 19.4749420399999984
 14.0809964599999997 18.4690389599999989 -0.2283893400000000
 14.3653709299999992 17.5907372399999993  3.3856368300000002
 13.0575806700000001 19.8349772000000009  5.6018302999999996
 11.0294211200000003 -0.5483910400000001  7.3149625699999996
  9.4170812799999997  1.9131491300000001  9.1223166199999994
  7.3165705900000004  3.3935840599999998 10.4990560700000000
  5.5907228199999999  4.9431090500000003 12.2867492499999997
  3.5529151200000002  7.0101298200000004 14.4298480799999993
  1.8083638600000000  8.8238513100000002 15.9883095300000004
  0.4897721300000000 10.0547602000000005 18.1501187600000016
 19.8883913999999997 12.1402032000000002 19.4471656099999990
 18.0803067700000000 14.5013317399999995 -0.3448883800000000
 15.9445846899999992 16.3311442199999988  1.7651639400000001
  7.6480447500000004  6.8839228600000002 14.6075067900000004
  5.6654884299999999  8.4462074999999999 16.3385357199999994
  3.4960816800000001 10.4284927799999991 18.1664894699999984
  1.3995957900000000 13.0015206499999998 19.4478574100000010
 -0.2011034900000000 14.6688160300000003 -0.0516397000000000
 19.8272545999999998 16.2236001600000002  1.6195682199999999
 17.8590635999999989 17.7709175200000011  4.0458432899999996
 16.2970261699999988 20.1208468200000006  6.1945507099999997
 14.3872805600000007 -0.1004157800000000  7.4770829699999997
 13.0854120100000006  2.1121846899999999  8.9703619999999997
 11.4210017900000000  3.5881156700000001 10.5303138799999996
  9.4252091799999995  4.9351640000000003 12.2324394299999994
  8.6693881400000006  4.5392869899999999 15.7914600099999998
  7.1116194899999998  6.6666511599999998 17.7172657899999990
  5.5180806200000001  8.5087070100000002 19.9500634900000016
  2.5713807200000001 10.6929163799999998  0.0837486400000000
  1.8370648400000000 13.2482511200000008  2.0451191500000001
 -0.0221206600000000 14.8103820299999995  3.5061168199999999
 19.4887206900000010 15.9907212500000000  5.6464458100000003
 17.9139908100000014 17.8094301699999988  7.0912967599999996
 16.5278156799999998 19.9841851800000008  9.4514697299999995
 14.3486102300000002 -0.0028446400000000 10.9521491999999991
 12.8834907199999993  1.6368582000000000 12.7883759799999996
 10.6402880599999996  3.6572725699999999 14.3675905700000008
 10.6753950900000003  3.6150952599999999 17.8042313099999987
  9.5525386200000000  5.3546963200000004 19.9511792999999997
  7.3668929399999996  7.2000128900000000  0.2230614700000000
  5.5774812499999999  9.0590580099999993  1.6839473800000000
  3.6856052099999999 11.0821183399999992  3.1880496200000001
  2.1903231600000002 12.9497103899999999  5.0105002199999999
  0.3097304200000000 14.4964501000000006  6.9114329100000003
 20.3992216400000004 15.9780465199999995  9.3233951499999996
 17.9001776799999988 17.8460867500000013 11.2035486199999994
 15.6938697099999995 19.5657346499999996 12.8699403199999995
 14.1338872099999993 -0.1387718700000000 14.0980845800000001
 12.6627813200000006  2.4573193500000001 16.2402830599999994
 12.8527149499999993  2.2078322300000002 20.3480786699999996
 11.2925908300000000  4.1561817599999999  0.4874858500000000
  9.1539833399999999  5.0719312800000003  1.9467527899999999
  7.4069273799999999  7.1392329600000002  3.7569752699999999
  5.5946101099999996  8.6754452200000003  5.3831603799999996
  3.1785879800000001 10.8800870300000003  7.1130389599999999
  2.0736490999999999 12.9371993700000001  8.8331230000000005
  0.0941884000000000 13.8971159100000001 11.0843249499999992
 20.1477740800000014 15.9435694399999992 12.5391757100000003
 17.9344309700000011 17.9094766999999990 14.4289941800000001
 16.1471505099999995 19.1545028500000001 16.2395571600000004
 14.2505833099999997  0.1229286800000000 18.1368192400000012
 14.3998157399999993 -0.1269011900000000  0.3638102800000000
 12.5658713399999993  1.8690777800000000  2.1649387700000000
 10.7495659799999999  3.5551713700000001  3.7832023700000001
  9.2729619999999997  5.0385607500000003  5.5953364399999996
  7.1451474599999996  7.5623072899999997  6.8273167399999997
  4.9688960499999997  8.4382662699999997  8.7838814500000009
  3.3617844899999998 10.7225658100000008 10.6903884900000001
  2.2377721799999999 12.5021236200000008 13.5596019400000003
  0.3291902200000000 14.4390139200000007 14.7668226600000008
 20.0600821300000014 15.8970224699999996 15.8518614000000007
 18.8039683599999989 18.1146324300000003 17.5697984399999996
 16.0185804400000009 19.9604145200000005 19.7756843499999988
 16.3741886900000004 19.3103887400000005  1.9422732000000000
 14.4606816600000005  0.0249335000000000  3.7182301400000002
 13.0027050800000001  1.3933002900000000  5.4657772700000002
 11.1906867999999999  3.3058826799999999  7.1061954199999997
  9.0794691000000007  5.3206389800000000  8.8124878399999993
  7.4593060199999996  7.1453472700000003 10.4010992200000008
  5.7689036299999996  8.8066405000000003 12.5091122699999993
  4.2629950399999998 10.1334926700000008 14.5407262599999996
  1.9823154199999999 12.0731840500000001 16.2377722300000009
 -0.0697949900000000 14.2779459699999993 17.9482430199999996
 20.0807836100000010 15.9453168999999999 19.7010477900000005
 18.1853729100000017 18.0884865700000006 -0.3746891300000000
  9.0937101499999997  8.8797864700000009 12.7544134099999997
  7.6862361000000003 10.8046093400000007 14.7073203100000001
  5.6668968099999999 12.5774715900000000 16.2965725299999988
  3.5162984000000002 14.7215517499999997 17.9133781499999998
  1.4703752699999999 16.3230597599999996 19.6362722599999984
  0.1925995700000000 18.5251829800000003  0.0322543700000000
 19.6498385199999994 19.5771949800000016  1.9133428299999999
 17.5079544100000000 21.7082854599999990  4.1925880700000002
 16.4260696000000017  1.8982248500000001  6.1063662399999998
 14.2746961999999993  3.8794884299999999  7.1539904200000004
 12.8288919900000007  5.7934290199999996  8.4874246800000002
 11.0702245900000005  6.9709483700000003 11.1714051399999992
 10.9512981299999996  7.1454529300000003 14.3751405999999999
  8.9466425199999993  9.3449905100000006 16.2107896400000016
  6.9458800399999996 10.6953913099999998 18.2397061200000010
  5.1755063400000001 12.9652765199999997 19.9066161100000016
  3.0988621500000000 14.4051559600000001 -0.5512898200000000
  1.7073979300000000 16.7301104999999986  1.8052346600000000
  0.0421140300000000 17.7500775900000001  4.1196894899999998
 19.8393958599999998 19.8250752299999995  5.6811809999999996
 18.1672584899999983 22.2322309099999984  7.7334224400000000
 16.2456244699999992  2.1763148200000000  9.5105204400000005
 14.4752723499999991  4.2558866899999996 10.9631759500000001
 12.7345837900000003  5.3912752299999998 12.5781566599999994
 12.8706102799999993  5.5706572799999998 16.3456504500000008
 10.4649761199999993  6.9825239699999999 17.8107211599999999
  9.6693805099999999  9.2369350099999998 19.8310406700000001
  7.0940896899999997 10.9412879200000006 -0.0559812800000000
  5.5311851200000000 12.9889655299999998  1.1756330900000000
  3.8481469399999999 14.7796345999999996  3.5000898600000001
  1.7741248500000000 16.4636088600000008  5.5008922900000004
  0.0075256900000000 17.6713998799999992  7.5177503999999997
 19.7719939099999991 19.9443939499999985  8.8495164400000004
 17.7433102799999993  0.1037130600000000 11.5492571200000000
 15.9436910100000002  1.9398150500000000 12.9617180300000001
 14.3061174500000003  3.4986485799999998 14.0463517200000005
 14.4756317600000006  3.7388633900000001 18.2433499499999989
 12.7448279099999997  5.0395344199999998 19.5492594599999983
 11.1767304400000000  7.1906743100000003  0.5717099200000000
  9.1908563700000006  8.8528634999999998  1.4162076500000000
  7.0743906499999998 10.1822207999999996  3.6707197400000000
  5.0797384599999997 12.6817419999999998  5.4250143199999998
  3.5881964399999999 14.6049926699999997  7.4397388400000004
  1.8710148400000000 15.9644841599999996  9.2240789700000008
 -0.3027728600000000 18.2740529999999985 10.9674124699999993
 19.6089645600000004 19.3621211600000009 12.6493300899999994
 17.6311436700000002 21.8272210899999983 14.2819306400000006
 15.8521229699999999  1.8998188300000001 15.6256631499999994
 16.0769298300000010  1.1297968599999999 20.1082651599999984
 14.5894648799999995  4.2877218800000003  0.6734183400000000
 12.7013710199999998  5.7169004299999999  2.3911594699999998
 10.8996327500000003  7.6469750100000002  3.6382930299999998
  9.2928491999999991  9.2617368800000008  5.2104219399999998
  6.9569890299999999 10.9402680599999993  7.3418544800000003
  5.0066392700000000 12.3352528199999991  9.2035533399999991
  3.3298171100000000 14.1803922799999995 11.3539181100000004
  1.7565120100000000 16.3790559500000015 13.0614839200000006
 -0.1434951500000000 18.1771576000000010 14.6720619699999997
 19.6700122600000000 20.1934630099999985 15.8489873299999999
 18.0274623299999988 21.6027674699999999 17.6801446099999993
 17.8826658199999997 -0.4641367600000000  0.4772781600000000
 16.5206261800000007  1.7611734299999999  1.6987138700000000
 14.4346854600000007  3.4795010400000002  3.7477389099999998
 12.7393430100000007  5.4843282300000000  4.8974189199999998
 10.8717217399999999  7.3969513700000000  7.0549878799999997
  9.2842537499999995  8.8710981100000001  8.8923163400000007
  7.0564004400000000 10.8584068899999995 10.6275365300000004
  5.4600330100000001 12.9302583799999997 12.6066111200000002
  3.8969087999999998 14.8221984599999992 14.9613335700000007
  1.5593117700000001 16.5217168699999988 16.0933300499999987
 -0.0125628100000000 18.3306791000000011 17.5874338200000011
 19.9550015400000014 20.1212250700000013 19.7612686099999983
