hr9
1.0
0 -1.7366522892143186 -7.360683333333333
-1.503985 0.8683261446071593 -7.360683333333333
1.503985 0.8683261446071593 -7.360683333333333
Li
3
Direct
0.0 0.0 0.0
0.222391789 0.222391789 0.222391789
0.777608211 0.777608211 0.777608211
