Li                                      
   1.00000000000000     
    22.7325000000000017   -0.0000000000000006    0.0000000000000000
    -0.0000000000000006   22.7325000000000017    0.0000000000000000
     0.0000000000000006    0.0000000000000006   22.7325000000000017
   Li
   500
Direct
  0.0119020855603225  0.0031819945012614  0.0195740380512461
  0.0088851169031088  0.1107625527328722  0.0956346495106146
  0.0034958935444820  0.2090407671835450  0.1911177670735711
  0.9861111883866727  0.2996472917628950  0.2971467058176600
  0.9923999617288004  0.3920138225008216  0.3897150203453208
  0.0097754276916291  0.4960695871549561  0.4895603008907941
  0.9851586649070683  0.5940753639062990  0.5748438271197642
  0.9941451710106648  0.6811749759155390  0.6944727557461761
  0.0047567992961604  0.7874217142857134  0.8016037809303853
  0.0084587000989771  0.9036198319586504  0.9362470568569208
  0.1298714175739590  0.0167408098537365  0.1220235693390492
  0.0942637211041486  0.1038590797316630  0.1862289550203471
  0.0744862562410660  0.2143328358077667  0.2924953718244794
  0.0899950814912600  0.3073655717584955  0.3930587176949274
  0.0978656786539105  0.3706247575057731  0.4850301590234238
  0.1153361434070135  0.4934610205652703  0.5902290091279028
  0.1023644390190270  0.5969507955570208  0.6804725797866524
  0.1148094279115810  0.6967485089629406  0.7900936799736087
  0.1280669508413084  0.7918938937644313  0.9185723294842205
  0.1006291802485393  0.9244243242054324  0.0046144088859563
  0.2205937120862203  0.9997830141867396  0.2047957039480934
  0.1912227814802563  0.1143526871219649  0.2921712323765533
  0.1920838966237781  0.2150676054107521  0.3885256109094897
  0.2066175594413266  0.2841195812163235  0.4838900662047720
  0.2093414613438895  0.3861908905751648  0.5671396603981051
  0.2064018532937411  0.5103025474540885  0.6791819509512820
  0.1882580195754997  0.6031052154404506  0.7833004029473187
  0.2146089026723885  0.7156897261629851  0.8804889721764013
  0.2016760453095756  0.8019951976245494  0.0021776289453399
  0.1999642274276923  0.9130909354448491  0.0831320998570320
  0.3014228940943582  0.0014262395249105  0.3103285322775733
  0.3037584009677801  0.1127204350599342  0.4124543560980953
  0.3039878539535934  0.2122482247882971  0.4902691692510714
  0.3000226349939510  0.2905145923237669  0.5800851921258143
  0.2870559907621271  0.3966010966677658  0.6702712007038372
  0.2931916573188147  0.4796497151655146  0.7972205621906951
  0.2997393247553077  0.5987102012537093  0.8853896597382587
  0.2917985632904418  0.7085024643132058  0.9930723136478576
  0.2740970166061771  0.8008873436709578  0.0906620402507414
  0.3061251925657089  0.9170189767953403  0.1789517052677851
  0.4147697965467927  0.0028622100516884  0.4132701075552632
  0.4073733438909031  0.1213915957329803  0.5137688402067511
  0.4084440426701832  0.2197572801055756  0.6128621383481772
  0.4011956199274138  0.3139077708127118  0.6900599546904189
  0.4163829363246450  0.4049607377103257  0.7804858027053783
  0.4067934059166376  0.5024630823710581  0.8892404381392254
  0.3743794615638407  0.5741698700098965  0.9992554100956781
  0.3995494160343114  0.7037861423072727  0.0750835957329841
  0.3776927421093177  0.8087514817991845  0.2039326598482347
  0.3941420600461925  0.9216307330913907  0.3000438011657351
  0.5036000457494794  0.9825827885186413  0.5282406563290465
  0.5064560567469485  0.0865693425712095  0.5915179104805901
  0.5044140266138797  0.1924645085230381  0.7092743182668002
  0.5167346323545559  0.3016875367865381  0.7986120598262403
  0.5110165243593983  0.4106263376223467  0.8915237664137265
  0.4977207707027418  0.4855501123941508  0.9988544559551329
  0.5036749965907816  0.5927243602771384  0.0899718143626984
  0.4871944704717919  0.7196865804464991  0.2132421427471698
  0.4931828122731758  0.8265696826129982  0.2805724482568976
  0.4828545980424508  0.9036060956779934  0.3922994180138559
  0.6077205151215210  0.9916212669086093  0.6242530619157591
  0.5834859183987717  0.0998847605850628  0.7016597668536235
  0.5945124126250931  0.1804814710216647  0.8058403646761221
  0.5768098858462523  0.2971833199164209  0.9105164605740654
  0.5811671492356751  0.3985507986363146  0.0089759208182087
  0.5933443567579459  0.4987131081051359  0.1069727434290115
  0.5903142949521580  0.6165448155724178  0.2045445432750483
  0.5989775774771786  0.7233218946442292  0.2968450874298938
  0.6251058400967793  0.8143911553942615  0.4104981651820054
  0.5719640532277595  0.8972170689541414  0.5053722217090098
  0.7034089202683376  0.0039047838997064  0.7165791004069035
  0.6889709851534178  0.0865923673155180  0.8023058519740474
  0.6849028523039706  0.1807716533597272  0.9169792640492673
  0.6894309015726350  0.2717688384471586  0.0018162859342326
  0.6779036599582113  0.4157029341251501  0.1043569734960954
  0.6999261106345571  0.5466736636973479  0.1980790880897416
  0.6875265113823801  0.6167868611019500  0.3328825368965127
  0.7037854723413588  0.7049508694600206  0.3958919758055615
  0.6889533113383948  0.7983620750027498  0.5167983503794105
  0.6969686075002741  0.8951023552182988  0.6049204187836779
  0.8025568155724159  0.9916891732101618  0.8109988149125726
  0.8070896562190697  0.1075356115693396  0.9278321856373068
  0.7940416161882737  0.1991642208292106  0.0066333944792731
  0.7897275596612801  0.2848138159023392  0.1111426090399235
  0.7890158671505532  0.4119666987792812  0.2011946943802911
  0.8015310902892310  0.5105714844385787  0.2987026609479813
  0.8098314963158444  0.5998465421752996  0.3854197285824270
  0.7992978620917199  0.6728960778620916  0.4966266099197156
  0.7841669710766510  0.7830436291652916  0.6021295101726594
  0.8121147902782369  0.8969512504124069  0.7107743354228546
  0.9004520708237109  0.9949994131749662  0.9183356428021554
  0.8977744005278794  0.1066691142637168  0.0144678328384487
  0.9179090825910023  0.1914299302760369  0.1139930117672918
  0.9119835820961200  0.2841272420543248  0.2053703767733452
  0.8946319546904178  0.3914600026393913  0.2923746151985043
  0.9176001944352805  0.4833151738700110  0.3834784502364457
  0.9046370465192979  0.6003075455845135  0.4989343116683145
  0.8851087196744771  0.6969843655559202  0.5949086149785572
  0.9012904445177625  0.7953049620587294  0.6940858818871689
  0.8928256658968436  0.8819478891454935  0.8048950616958095
  0.0970905650500384  0.1084447456285034  0.9994900424502333
  0.1117082230287068  0.2084157430990885  0.0919064212031202
  0.1059545954030554  0.3237679731661700  0.1821433410315620
  0.0898035416254288  0.3858963743538979  0.2991954831188792
  0.1049981906961364  0.4689401649620564  0.3834054441878365
  0.1045468351479144  0.5785033361926750  0.4868710920488297
  0.0964164297811507  0.6915346970196836  0.5890463802925296
  0.1041431800285935  0.7895859368745164  0.6835683202463443
  0.0913237888485625  0.9092029103706167  0.8265040651050271
  0.0921246827229751  0.0082395988122741  0.9008205476740372
  0.2063788479049791  0.1026426754646437  0.1235203818321793
  0.2045155315077523  0.2097693553282767  0.2139125943033093
  0.2157236599582077  0.2945036111294428  0.3100500824810268
  0.2039086488507635  0.3838516705157815  0.4127401763994314
  0.2235928160123137  0.4815999727262721  0.5041143868910183
  0.1946410922687747  0.5975650592763628  0.5954769906521520
  0.2013814534257108  0.7050556252061995  0.6894703389420442
  0.1923712143407030  0.8099541805784654  0.7854243176069531
  0.2042364425382175  0.9112852704278041  0.9063544616738142
  0.1922556370834698  0.0058539060816045  0.9925445309578791
  0.3138810777521144  0.0975510973276172  0.2085305668096353
  0.3158906042010372  0.1716209004728881  0.2953170284834457
  0.3151870520180324  0.2747335902342485  0.3974659980204578
  0.3004873634664023  0.3917138436159675  0.4906307022984748
  0.2977426411525315  0.5148806862421651  0.5993508940943570
  0.3010044790498156  0.5888782553612657  0.7191155596612759
  0.3177728265698860  0.7020684249422615  0.8005896469811944
  0.2924429112504114  0.8018603114483653  0.8866194765204014
  0.2824304506763440  0.9021281983943723  0.9996867885186376
  0.2848148487847766  0.0185286180578501  0.0925279010227626
  0.4115558205212793  0.0934277835697799  0.3110898528538470
  0.4271118491147021  0.1922288797976464  0.4026587797206673
  0.4100246206972429  0.2918758491147031  0.4899215524029472
  0.3835738488947555  0.4010724658528559  0.5865439872429334
  0.4038122168701221  0.4924543187066988  0.6831580943582978
  0.4021587511272386  0.5873927130759924  0.7881852523919477
  0.3781581827779590  0.6938472983613764  0.8991313999780033
  0.3879377503574162  0.8049038266798618  0.9911326369734965
  0.3957501317497005  0.9041859403937096  0.0997697754316533
  0.3871424973056179  0.0051174191136028  0.1839865140217753
  0.5054095304080093  0.0751016931705735  0.4165091833278325
  0.5236849246673287  0.2057129405036875  0.4985425668096326
  0.4914409418233774  0.3003774331903628  0.6127826336742572
  0.5107221739799854  0.4062872961618851  0.7005451248212893
  0.5318080479489709  0.5133985694490235  0.7984718684702514
  0.4898011622126930  0.5783326387330945  0.9181788971736466
  0.4911066921808001  0.7136806479709676  0.9847446294952178
  0.4906488371274591  0.7857956819531537  0.1117539861431851
  0.4876490645551499  0.8959414806994417  0.1994475781370255
  0.5094295598812266  0.0009184643132087  0.2940735546024413
  0.6015756133289329  0.0825200167161526  0.5153581757395784
  0.6035161539645912  0.1778425848454859  0.6214533320136368
  0.5867969893324556  0.2949711263609345  0.7149378920048406
  0.5905467115363479  0.3962901898163409  0.7922771257010908
  0.6012279203783137  0.5072675381062339  0.9032492611899272
  0.6196405335972699  0.5996693795227088  0.9962233511492329
  0.5909328459254368  0.7061287113163957  0.1108969193885372
  0.6089646778840887  0.8003110995271072  0.1914494701418690
  0.6037928406466477  0.9138020428901328  0.2875020794017402
  0.5911992226987763  0.9891160884196637  0.4205731129440196
  0.6952449000329892  0.0825184396788714  0.6068003215660411
  0.6887486809633785  0.1750073529088283  0.6984156916309274
  0.6756527460684012  0.3054322819751434  0.8054498647311092
  0.6923370034092144  0.4032366444517734  0.8965449233476335
  0.6899152842846163  0.5007262052127999  0.0025438645111606
  0.7027784924667344  0.6059976689761370  0.0767453320136369
  0.7070974916969064  0.7027609576597413  0.1871540710436577
  0.7253489383041867  0.8249845577917085  0.2744917699329150
  0.6980333795227125  0.9070292132409534  0.3924513216760133
  0.7084105096227873  0.0001558222808740  0.4857460556471977
  0.7850632649290645  0.0903533320136347  0.7256729070713703
  0.7918010434400102  0.1975837822500850  0.8070366739249977
  0.7813267995161084  0.3111046083800701  0.8842789354448470
  0.7826928556032087  0.4025318605520738  0.0125971956450002
  0.7864868003959060  0.5063357778510920  0.0814790194655259
  0.8005716274056951  0.6172742984713508  0.2049629121302132
  0.8017242419443562  0.7098517743319022  0.2923994501264744
  0.8041542298471356  0.7975951857472765  0.4178646053007782
  0.7941299139997824  0.8962159621687036  0.4920587388100728
  0.8063655673595065  0.9967686264159212  0.5976400255141314
  0.8934287535466865  0.1182079643681959  0.8054106257560747
  0.8948998200813847  0.2167803030902888  0.9155276581986129
  0.8978199063015495  0.3010844398988226  0.0286299496315863
  0.8746428813372944  0.4200646066204783  0.1019489752556879
  0.8734594932365525  0.5203991355988151  0.2013263112284207
  0.8999417719124594  0.6082209998900225  0.2787009383041905
  0.8890765907841214  0.7001637628945332  0.4002695889145471
  0.8931924627735626  0.7872509512812087  0.5047961447267113
  0.9158894846585284  0.8976565225998030  0.6121902540415718
  0.8792710001099735  0.0201079590894082  0.6962208600021995
  0.9933224352798860  0.1106501181128365  0.9155788936544624
  0.9985857147256141  0.2038564486967971  0.0178666455515213
  0.0148519076212494  0.3084495145716488  0.1003564354998332
  0.9895287913779853  0.4046994452875836  0.1977413438909039
  0.0034397765314012  0.4981322731771698  0.2868843074892808
  0.0090593458704475  0.6116684390190272  0.3855291820081348
  0.9955612972616308  0.6939536210271626  0.5049462707577277
  0.9953704049268666  0.7936507572858247  0.6129686967997330
  0.9808666539096009  0.8974235908940926  0.7024008709996679
  0.9699247979764678  0.9928735550423369  0.8219894274716779
  0.2269443220059415  0.2079275499835020  0.0032214912570083
  0.2141606316947104  0.2975221625426130  0.0997390990872091
  0.1996895620807209  0.4098910524579367  0.2046332114813580
  0.1943852823050705  0.4992449000329913  0.2965872257780688
  0.2005323325635118  0.6030382527218734  0.3963020032992404
  0.1945215796766746  0.6815912477730137  0.4866089541405501
  0.2148123642362236  0.7942850680743447  0.5895347304519944
  0.2160040070383786  0.8827112746068408  0.7170983631364791
  0.1905879243374002  0.9915032825250165  0.8097011595733008
  0.1926071193225525  0.1213254767403527  0.8773843409215871
  0.3135332598702263  0.2042967473880992  0.1083360646651244
  0.2916393911800270  0.3053069794347323  0.2234493716045307
  0.3241606387330904  0.4027190801715577  0.2993465676894331
  0.3145571806884391  0.5090044610139657  0.3944561970746747
  0.2855250825910076  0.6229091239414970  0.4905920466292741
  0.2931747924777284  0.6899115235895721  0.5949738374573883
  0.3168980296931707  0.7828553691850857  0.7013424528758350
  0.3069738462553602  0.9119176623776539  0.7967357716925108
  0.2947668976135489  0.9864950238645136  0.9026821163532404
  0.2882535123721510  0.0943822997910502  0.9929770931485749
  0.4064185294182323  0.1891680593863398  0.2035508817771898
  0.4151786763444392  0.2809230163862324  0.2954972000439895
  0.4079319260969996  0.3862213786429152  0.4107598033652238
  0.3826033771032655  0.5107113581876135  0.4968748795776960
  0.4205652708676979  0.6027462641592436  0.5783353278346013
  0.4186726484108689  0.6768972158803450  0.6941245912240177
  0.3885843937094435  0.8006199683272825  0.8125532026833824
  0.4101519982404014  0.8996910269438061  0.8935244834488074
  0.3996236164082276  0.9995773707247366  0.9827840761024973
  0.3815688758385605  0.1060339949411642  0.0931033278345978
  0.5086526624876271  0.1682927619047589  0.3119459901022736
  0.5117951479159828  0.3015617705927625  0.4021063710546571
  0.4840447922577837  0.4064977050478404  0.4911212079621663
  0.5161029600791807  0.4928226688661610  0.5857665232596503
  0.4911874008578039  0.5988403404816864  0.6920442771362616
  0.4742017609149869  0.6756305976025487  0.8255090240844609
  0.4737146283954701  0.7759025500934769  0.8973499491916854
  0.4879600294732214  0.8880800532277604  0.9931355235895722
  0.4933476590784096  0.0114173733641252  0.0789875143517023
  0.4930728679203753  0.0802015066534665  0.2041667467282551
  0.5997146508303075  0.1745021968547249  0.4043080395908945
  0.6124076084900452  0.2876050095677982  0.5065838297591583
  0.6131631932255601  0.3813443022104934  0.6065530152864866
  0.6095239502914325  0.4770015326075026  0.6970502725173233
  0.5996671523149644  0.6166539491916865  0.8124302953920619
  0.6014646712856049  0.7030023917299033  0.9203139474320920
  0.5950733658858454  0.8058601249312645  0.0141667379302746
  0.5853113379522696  0.9028696667766383  0.0978504841086547
  0.6101726110194647  0.9747626345540539  0.1860805749477592
  0.6069465179808660  0.0670021211921252  0.3017628954140577
  0.7121339285164439  0.1912995754976379  0.5207452277576152
  0.6931494521060131  0.2784651045859476  0.6121774991751892
  0.7010083985483320  0.3915651199824026  0.7112872728472439
  0.6885573258550508  0.5204659188386671  0.7801276018915644
  0.7211862509622762  0.6110127940173768  0.8929627458484575
  0.6982241451666127  0.7265037628945308  0.9953855119322554
  0.6897914883976668  0.8292138396568802  0.1079449875728571
  0.7230467066974597  0.9098176799736066  0.2078180015396427
  0.7107235631804656  0.9970511967447493  0.3213767605850677
  0.7124402995710994  0.1009063160673023  0.3903390828109536
  0.7988769651380210  0.2086008067744416  0.5993427885186406
  0.8032267445287573  0.2963798627515644  0.7174550159463351
  0.7849358825470176  0.3968980208951933  0.8066303121082115
  0.7995514488067741  0.5037654763004511  0.8956646382931908
  0.8102431250412394  0.6178718574727782  0.0034925305179812
  0.8039674061365858  0.7105797356208043  0.0938854551853083
  0.8082361917958849  0.8173708866160752  0.1856898414164760
  0.8047102659188354  0.8898622654789392  0.3051070973276140
  0.8038369941713412  0.9841193762234681  0.4066281829979133
  0.7918753903002340  0.1062088916749175  0.4897679410535574
  0.9009155697789524  0.2086200761024983  0.6938764143846896
  0.8964768797976461  0.3043201887165949  0.8070872671285585
  0.8920058748487847  0.4011871487957777  0.9105852972616333
  0.9107956243264042  0.4928817767513465  0.9948329858132610
  0.9043021106345535  0.5853724992851639  0.1083273287143953
  0.8971611749697601  0.6957757263829336  0.1843164574947735
  0.8784792380952382  0.7978380323325638  0.3083579285164433
  0.9068188602221454  0.8926136500604827  0.3989829143297072
  0.8953291494556268  0.9883287557461813  0.4996646426921814
  0.8945297565160004  0.1071925318376756  0.5992298027053806
  0.0070528089739383  0.2170225610909498  0.8094336271857472
  0.0050454045969417  0.3250635706587488  0.9125688283294835
  0.0079507995161094  0.4272825575717576  0.0176775752776877
  0.9776906086000210  0.5154009277466187  0.1237689330254028
  0.9906136447817033  0.5899789438029259  0.2076531820081371
  0.9876439472121419  0.7062834109754732  0.2973881407676231
  0.9778066213570895  0.7987468558231612  0.3861671509952700
  0.0132547612449159  0.9004197505773703  0.4960709350049513
  0.9952626275156717  0.9991814644231809  0.5987558543934881
  0.9926298779280742  0.1059281302100530  0.7109245340371686
  0.1195418823270629  0.2265504634334121  0.9141385228197549
  0.1047404803695144  0.3126431430770893  0.9927685327174771
  0.1004910704937885  0.4188382887935802  0.1045575999120203
  0.1008805450346415  0.5059752702078555  0.2178658352578893
  0.1023835007148364  0.6063110467392505  0.3093491463763343
  0.0951370680743437  0.7196956049708589  0.4045694248322889
  0.0927986015616398  0.7857054257120879  0.5045782593203541
  0.1044787022984721  0.9131693957989668  0.6001060745628521
  0.0998650214450691  0.9697622619597510  0.7159284759705287
  0.0910578462553602  0.1027155337072472  0.8000724086660043
  0.3081527262729580  0.3187623798526360  0.0143981964148239
  0.2989533935994686  0.4099961680413529  0.1176234329704187
  0.2972377956669945  0.5300554580446502  0.2200797162652606
  0.3055108580226573  0.6021816197074656  0.2924441851974038
  0.3021962489827317  0.6898425562520600  0.3881588932145590
  0.3089180279335721  0.8079124456175109  0.4868115266688662
  0.2909848129330257  0.8821867066974605  0.5872797140657653
  0.2929679956010105  0.0111468408666013  0.6866398539535936
  0.2957059060816007  0.0875547964368195  0.7811436458814498
  0.2927770539975825  0.1978019927416668  0.8955820266138801
  0.3976945105025820  0.2948607051578165  0.1154374657428789
  0.4054418554932369  0.4085644108655018  0.2151523022104911
  0.3873778181018395  0.5126386499505102  0.3063827920378301
  0.4043823081491240  0.6155894173540091  0.4074175774771831
  0.4057308047948993  0.7125541467062604  0.4849291688111705
  0.4049213940393699  0.7634787594853165  0.5948274149345636
  0.3982397039480929  0.8887018598922225  0.7015736478609895
  0.3847120563070519  0.0105304383591758  0.7943541643022130
  0.3996507480479465  0.1174166783239841  0.8997282450236455
  0.3987387256131072  0.2026163783129888  0.0156321680413498
  0.5109788483448838  0.2899547625646122  0.2065263024304400
  0.5189928899153173  0.3905299593093616  0.3115354206532501
  0.4817785795667007  0.5006651938854034  0.3988203717145069
  0.5013330064885082  0.6023281733201387  0.5101510445397537
  0.5164628100736834  0.7024009009127923  0.5792560219949436
  0.4842727368305262  0.7808395988122712  0.7186633181568212
  0.4958464348399900  0.8807470115473421  0.7900676920708207
  0.4904632600901806  0.9964803404816891  0.8877162529418214
  0.4911549961508825  0.0793254833388346  0.9904721535246921
  0.5064681407676233  0.1855122731771672  0.1049991404376982
  0.5992623948091946  0.2830749270867727  0.3135283382821967
  0.5884387335312908  0.3975109759155373  0.4042780068184300
  0.5895817727922577  0.4884119758055618  0.5066554756405992
  0.5929383059496303  0.5816388501044756  0.6125860270537800
  0.5960862663587392  0.7183804495765997  0.7029670102276455
  0.6070067229737148  0.7814136927306734  0.8122796428021530
  0.6072727513471889  0.9021769932915404  0.8967082001539666
  0.5873631778290971  0.9979426983393793  0.9709666596282887
  0.5931897142857139  0.0698554725613079  0.0846831452765855
  0.5896200202353441  0.1880516159683268  0.2189696931705711
  0.6772887509072945  0.3131336258660511  0.3939630740129800
  0.6994480246343358  0.3964327104365992  0.4940870075882557
  0.7084638684702540  0.5256733628065575  0.5859860996370827
  0.6985646677664121  0.6202876102496404  0.7112889765753891
  0.7086830287033976  0.7140134287913753  0.8055489026723848
  0.6989923853513673  0.8072862795557043  0.9116029895524065
  0.6937293487297893  0.8956525401957549  0.0033655484438597
  0.6929949737160470  0.9833072042230313  0.0799457886286135
  0.6876509037721306  0.0822991395579038  0.2225186380732396
  0.6845798746288381  0.2086569968107312  0.2837099615088547
  0.7971244777301223  0.2962890940283742  0.4895389231276823
  0.7899300499285147  0.3871982157703755  0.5984890781920171
  0.7860052361156917  0.4892842700978761  0.7083622241284502
  0.8146012625096262  0.6031635513031972  0.8057974459474337
  0.8000788017156069  0.7182094512262154  0.8970943842516235
  0.7950663640162787  0.7902144062465624  0.0130280752226994
  0.8058764438579118  0.9266063714945574  0.1092179034422074
  0.8213357074672842  0.0228987449686571  0.1908187674034991
  0.7977212378752867  0.1178064704717912  0.3119468382272075
  0.7890669495216116  0.2134782707577259  0.3882844315407468
  0.8865650579566733  0.2935605921038160  0.5971342316067307
  0.8917826578686885  0.3931964759705266  0.6959062426042024
  0.9020334705817632  0.4874892501924535  0.8016132251182242
  0.8970809721763970  0.6092379223578561  0.8965156612779026
  0.9196582412845018  0.7075003602771375  0.9943366875618622
  0.9014279199384134  0.7932486558891441  0.0839679516111289
  0.9087986833828197  0.9075755666996557  0.2096258898053449
  0.8984723642362269  0.0039103473001205  0.3238627542065302
  0.8946774142747174  0.1144473656658960  0.4029593507093381
  0.8800351026063993  0.2222530839107009  0.4882433665456958
  0.0054455154514486  0.3004151624326425  0.6872790515781375
  0.0123346996590783  0.3936838667106599  0.7938733830418983
  0.0191344634334101  0.4986204975255717  0.9090034408885970
  0.9886662786759075  0.5719150067084584  0.9930337758715524
  0.0085560633454307  0.7017305813262951  0.1072640448696802
  0.0084791061255913  0.8193587361706776  0.2033942993511459
  0.9941342536016720  0.8965856109094901  0.3080138264599128
  0.0083360431100843  0.0099546314747627  0.3914579685472361
  0.9824277365006040  0.1028318891454987  0.5040676137688322
  0.9847941612229221  0.1980736531397795  0.6040624792697713
  0.1025914320906196  0.3036286818431790  0.7945621577037301
  0.1238206440118788  0.3873013544484749  0.9142491564940087
  0.0900443228857384  0.4908718170020876  0.0080100626855852
  0.1064334340701620  0.6069023437809307  0.0996115469042138
  0.1141774956560013  0.7104227555262312  0.2078345870449780
  0.1110209211481390  0.8075958055647234  0.3045024080061580
  0.0989990401407681  0.9036456056307074  0.3845224898273401
  0.1086098414164738  0.0011846796436785  0.4882207095567992
  0.1000010984273629  0.1137059914219734  0.5976354417683964
  0.0921250482788949  0.2138352204992842  0.6932191685912272
  0.2133556876718359  0.3141804869679987  0.9038637804904894
  0.2036481702408466  0.3858736830528997  0.0129554664027296
  0.1974969831738704  0.5166174067964349  0.1103828677004302
  0.2010654886176155  0.5976106565489943  0.2094886721653992
  0.2352645727482710  0.6986587493676453  0.2981150388210736
  0.2116731063455433  0.8019035944132824  0.3827248226107969
  0.2048476516001330  0.9030316137688317  0.4767892541515479
  0.1844697147256156  0.9994348764984053  0.6052733438909073
  0.2026000277136291  0.0972690236445644  0.7103753920598237
  0.2007426521500051  0.1921616109094941  0.7952236304849905
  0.4219518838667113  0.4113957769712968  0.0164059518310822
  0.3925506341141514  0.4925359238975062  0.1076412862641618
  0.4143842357857679  0.5933422294072344  0.1655576817332047
  0.4071806734851009  0.6968421612229179  0.3101114584845490
  0.4020523765533923  0.8212900552072995  0.4033788162322693
  0.4112730649950507  0.8946052101616644  0.5030021084350622
  0.3962698594523246  0.0090454054767406  0.6024415431650709
  0.3929787674034984  0.1008762261079923  0.7013025817661926
  0.3766865896843754  0.2284217639942838  0.7889130526778843
  0.4139685379962614  0.3189737829099286  0.9119880347520066
  0.4912358939843813  0.4117531767293556  0.1165116837127442
  0.4952852902232507  0.4798504339601877  0.2065503508193132
  0.4892205617507983  0.5834870718134795  0.3011441785989248
  0.5144469891125070  0.7132215845155585  0.4144929567799380
  0.5176920567469452  0.8110165740679633  0.4950651006268529
  0.4762371428571441  0.9054077030682919  0.6280385580116601
  0.4853821599032244  0.9963284794897191  0.7004595279885635
  0.4890818854063568  0.1036855906741465  0.8025826327944543
  0.4932597897283628  0.2081994074562843  0.8812846752446930
  0.5115647922577793  0.3010992389750342  0.0087217846695253
  0.6117255334872951  0.3987445885846270  0.2062849792147787
  0.6116485815462411  0.4965881262509626  0.3056670942483208
  0.6032705936434652  0.5824867339711872  0.4114302518420772
  0.5993232592103794  0.6796621629825168  0.4980998447157177
  0.5820904823490594  0.8051041236115708  0.6219518816672149
  0.6001230440998597  0.8767324618937664  0.7079040607060350
  0.6089595218299806  0.0012285274386912  0.7902774195535045
  0.5858215933135398  0.1125571371384595  0.8984775713185940
  0.5796566664467164  0.1915743288243732  0.0057613438909030
  0.6013044592543721  0.2964022307269332  0.0933798592323782
  0.7054572915429418  0.4131868241504435  0.2819821581436273
  0.7059913793027590  0.4853222267678419  0.4021996661167933
  0.7115475979324728  0.5882037109864697  0.4844893025404176
  0.6764378286594095  0.6731468193115617  0.5922199005828688
  0.7038793924997222  0.7894732330364036  0.6822252532717457
  0.7006579923017711  0.9125388171120647  0.8037685225998032
  0.6964540569668998  0.0094205107225349  0.9089197070273869
  0.6865060710436595  0.1038600519080646  0.0091475882546987
  0.6803538990432187  0.1700547674034993  0.1317931098647307
  0.6799580411305399  0.2933039120202352  0.1975635873749013
  0.7903379751457180  0.4037951690311203  0.3866904757505765
  0.8170990247443086  0.4993478935444813  0.4933289990102310
  0.8062899562300672  0.5866255941933360  0.6018318548333852
  0.7987954347300104  0.6847660054987372  0.6950227264929083
  0.8081575867150548  0.7971795882546999  0.8012963422412867
  0.7907304110854483  0.8896263134279110  0.9427288375673584
  0.8024551905861657  0.0294059729462219  0.0101027388100761
  0.8068686844825663  0.1060210438799061  0.0999940613658836
  0.7865019491916883  0.1898062162102718  0.1966548452655914
  0.8034715838557105  0.3213371886066199  0.2865272007038371
  0.8783714303310219  0.3905960272737303  0.4827627278126059
  0.8881256698559312  0.4986301920158382  0.5887646057406783
  0.8869119960409080  0.5914857692730706  0.7077508272297379
  0.9113498488947513  0.7139843202463467  0.8010368402067556
  0.9122153515891327  0.8159576324645315  0.9078050988672572
  0.8824699201583641  0.9003304823490623  0.0206786591883841
  0.9029102104915836  0.0212501207522280  0.1048380393709465
  0.9252548100736817  0.0929458634114155  0.2013413711646308
  0.9167829244473751  0.1968583310238614  0.2973643259650274
  0.8881473295941902  0.3021226825030254  0.3859614415484458
  0.0011712090619156  0.4043423640162729  0.5972002542615229
  0.0159299109204909  0.5049518477950059  0.6858876208072147
  0.0035688023754545  0.5927181942153297  0.8051646910810533
  0.0217287363906280  0.6962938216210262  0.9045991589134488
  0.0008162740569659  0.8029500534477094  0.0093647575057716
  0.0328599788848578  0.9074965824260417  0.1199739813042981
  0.9983940252941821  0.9932004253821631  0.2060050891894889
  0.0138851318596735  0.1088159736060703  0.2893618304190042
  0.0043969871329566  0.2137100226547872  0.3901705901242707
  0.9856846057406798  0.2929532334763039  0.4891696610579572
  0.1193993885406357  0.3791058194215324  0.6813011947652043
  0.0970230401407690  0.4986694279115795  0.7785416531397757
  0.1117532523919493  0.6117188786979000  0.8937836925107234
  0.1102470234246127  0.6753317457384824  0.9976027898383393
  0.1002992244583751  0.8066519784449611  0.0969589319256556
  0.1270762775761582  0.9158320250742307  0.2259713032002608
  0.1212448415264475  0.0088775858352577  0.2770179465522915
  0.1142303890905083  0.1012094041570464  0.3931559129000348
  0.0937713216760159  0.1829635908940972  0.4912149336852494
  0.0895015576817357  0.2945334908171091  0.5829701748597813
  0.2005514435279920  0.3805652523919463  0.7678177815902316
  0.1952764473771040  0.4820373579676698  0.8880520835807744
  0.2043425316177263  0.5894934538656145  0.9825656311448370
  0.2017626349939547  0.7088244500164933  0.1013505118222824
  0.2065686959199411  0.7901181159133372  0.2199187396898736
  0.2253264066864631  0.9165443281645196  0.3045473106785437
  0.2113044997250597  0.0205283884306624  0.3930535295282098