Li 
 1.0000000000000000
    22.7325000000000017   -0.0000000000000006    0.0000000000000000
    -0.0000000000000006   22.7325000000000017    0.0000000000000000
     0.0000000000000006    0.0000000000000006   22.7325000000000017
 Li 
 500
Cartesian
  0.2705641600000000  0.0723346900000000  0.4449668200000000
  0.2019809200000000  2.5179097300000000  2.1740146700000000
  0.0794704000000000  4.7520192400000001  4.3445846399999999
 -0.3157274100000000  6.8117320599999998  6.7548874899999998
 -0.1727678700000000  8.9114542199999995  8.8591967000000000
  0.2222199100000000 11.2769018899999995 11.1289295399999997
 -0.3373806500000000 13.5048182099999998 13.0676372999999995
 -0.1330949000000000 15.4848101400000004 15.7871019199999996
  0.1081339400000000 17.9000641199999997 18.2224579499999990
  0.1922874000000000 20.5415378299999993 21.2832362199999992
  2.9523020000000000  0.3805604600000000  2.7739007899999999
  2.1428500399999999  2.3609765299999999  4.2334497200000003
  1.6932588200000001  4.8723211900000001  6.6491510399999996
  2.0458131900000001  6.9871878599999997  8.9352073000000001
  2.2247315400000001  8.4252272999999995 11.0259480900000000
  2.6218788800000001 11.2176026499999999 13.4173809500000001
  2.3269996100000001 13.5701839599999996 15.4688429200000002
  2.6099053200000002 15.8388354800000002 17.9608045800000014
  2.9112819600000002 18.0017279399999985 20.8814454800000000
  2.2875528400000000 21.0144759500000013 22.8373970499999999
  5.0146465600000001 -0.0049326300000000  4.6555183400000004
  4.3469718799999999  2.5995224600000002  6.6417825400000003
  4.3665471800000004  4.8890243399999997  8.8321584499999997
  4.6969336699999999  6.4587483800000003 11.0000309299999994
  4.7588547700000001  8.7790844200000002 12.8925023299999992
  4.6920301300000000 11.6004526600000002 15.4395036999999995
  4.2795754300000004 13.7100893100000008 17.8063764099999986
  4.8785968799999999 16.2694167000000007 20.0157155600000003
  4.5846007000000002 18.2313558299999983  0.0495029500000000
  4.5456868000000004 20.7568396899999996  1.8898004600000000
  6.8520959399999999  0.0324219900000000  7.0545433600000003
  6.9051878499999999  2.5624172900000000  9.3761186500000004
  6.9104038900000004  4.8249327700000002 11.1450438900000002
  6.8202645500000001  6.6041229699999997 13.1867866300000003
  6.5255003100000000  9.0157344300000002 15.2369400699999993
  6.6649793500000003 10.9036371499999998 18.1228164300000003
  6.8138242000000000 13.6101796499999992 20.1271204399999988
  6.6333108400000000 16.1060322700000000 -0.1574836300000000
  6.2309104299999998 18.2061715399999997  2.0609748300000001
  6.9589909399999996 20.8461338900000008  4.0680196400000002
  9.4287544000000008  0.0650651900000000  9.3946627199999995
  9.2606145400000006  2.7595344499999999 11.6792501600000005
  9.2849541999999996  4.9956323700000000 13.9318885600000009
  9.1201794300000003  7.1359083999999999 15.6867879200000004
  9.4654250999999991  9.2057699700000004 17.7423935099999994
  9.2474311000000000 11.4222420200000006 20.2146582600000002
  8.5105811100000004 13.0523165700000003 -0.0169263900000000
  9.0827571000000002 15.9988184800000006  1.7068378399999999
  8.5859002600000007 18.3849430600000012  4.6358991899999999
  8.9598343800000002 20.9509706400000013  6.8207457099999997
 11.4480880400000000 -0.3959367600000000 12.0082307200000002
 11.5130123100000006  1.9679375800000001 13.4466809000000005
 11.4665918599999994  4.3751994400000003 16.1235784399999993
 11.7466700300000007  6.8581119299999997 18.1544486499999991
 11.6166831399999992  9.3345632199999997 20.2665640200000006
 11.3144374200000009 11.0377679299999993 -0.0260410800000000
 11.4497918599999995 13.4741065199999994  2.0452842699999998
 11.0751483000000004 16.3602751899999994  4.8475270100000003
 11.2112782800000002 18.7899953099999983  6.3781131799999997
 10.9764921500000003 20.5412255700000017  8.9179465199999992
 13.8150066099999993 -0.1904695500000000 14.1908327300000003
 13.2640936400000005  2.2706303200000000 15.9504806499999994
 13.5147534199999999  4.1027950400000002 18.3187660900000004
 13.1123307300000000  6.7557198200000004 20.6983154399999982
 13.2113822200000008  9.0600560300000001  0.2040451200000000
 13.4882005899999999 11.3369957299999999  2.4317578900000001
 13.4193197099999999 14.0156050200000006  4.6498088299999996
 13.6162577799999998 16.4429149700000004  6.7480309500000004
 14.2102185100000007 18.5131469399999986  9.3316495400000008
 13.0021728400000001 20.3959870199999997 11.4883740299999992
 15.9902432799999996  0.0887655000000000 16.2896344000000006
 15.6620329199999997  1.9684609900000001 18.2384177799999989
 15.5695540900000005  4.1093916100000003 20.8452311200000011
 15.6724879700000006  6.1779851199999998  0.0412887200000000
 15.4104449500000005  9.4499669500000003  2.3722949000000000
 15.9110703099999995 12.4272590600000008  4.5028328699999998
 15.6291964199999995 14.0211073200000005  7.5672522700000000
 15.9988032499999999 16.0252956399999995  8.9996143400000008
 15.6616311499999998 18.1487658699999983 11.7481185000000004
 15.8438388700000008 20.3479142899999985 13.7513534199999992
 18.2441228100000004 -0.1889258700000000 18.4360305599999990
 18.3471656100000011  2.4445532900000000 21.0919451600000016
 18.0505510399999984  4.5275006500000003  0.1507936400000000
 17.9524817500000005  6.4745300700000001  2.5265493600000002
 17.9363032000000011  9.3650329800000005  4.5736583900000003
 18.2208055100000017 11.6065662700000001  6.7902582400000000
 18.4094944900000002 13.6360115200000003  8.7615539800000004
 18.1700386499999986 15.2966100899999997 11.2895644100000005
 17.8260756700000016 17.8005393000000005 13.6879090899999998
 18.4613994699999999 20.3899442999999998 16.1576775800000014
 20.4695266999999994 -0.1136758400000000 20.8760650000000005
 20.4086565600000007  2.4248556400000001 23.0613900100000002
 20.8663682199999982  4.3516808899999999  2.5913461400000002
 20.7316667800000012  6.4589225299999997  4.6685820900000001
 20.3372209099999992  8.8988645099999992  6.6464059400000002
 20.8593464200000014 10.9869621899999999  8.7174238699999993
 20.5646616599999987 13.6464912799999993 11.3420242400000006
 20.1207339699999999 15.8441970899999998 13.5237600899999997
 20.4885850299999994 18.0792700500000016 15.7783073100000006
 20.2961594500000011 20.0488803900000008 18.2972769900000003
  2.2071112700000000  2.4652201800000002 -0.0115926100000000
  2.5394071800000000  4.7378108799999996  2.0892627199999998
  2.4086128400000000  7.3600554499999999  4.1405735000000004
  2.0414590100000001  8.7723893299999993  6.8014613199999996
  2.3868713700000002 10.6601823000000007  8.7157642600000003
  2.3766109300000000 13.1508270899999999 11.0677970999999999
  2.1917864900000001 15.7203125000000004 13.3904968400000008
  2.3674348400000000 17.9492623100000017 15.5392168399999999
  2.0760180300000002 20.6684551600000006 18.7885036599999999
  2.0942243500000002 22.9198066800000007 20.4779030999999989
  4.6915071599999996  2.3333246200000000  2.8079270799999998
  4.6491493200000003  4.7685818700000002  4.8627680499999997
  4.9039381000000004  6.6948033400000000  7.0482135000000001
  4.6353533599999999  8.7259080999999998  9.3826160600000001
  5.0828236899999997 10.9479713800000003 11.4597803000000003
  4.4246786299999998 13.5841477099999999 13.5366806900000007
  4.5779038900000000 16.0276770000000006 15.6733844799999993
  4.3730786300000002 18.4122834100000006 17.8546583000000005
  4.6428049299999996 20.7157924099999988 20.6037028000000007
  4.3704512700000002 22.8655739199999992 22.5630185499999989
  7.1353016000000000  2.2175803200000002  4.7404211099999998
  7.1809831600000003  3.9013721200000000  6.7132943500000000
  7.1649896599999998  6.2453813399999998  9.0353957999999999
  6.8308289899999997  8.9046349500000002 11.1532624400000007
  6.7684345900000000 11.7045252000000009 13.6247442000000003
  6.8425843200000003 13.3866749400000007 16.3472944600000005
  7.2237707799999997 15.9597704700000005 18.1994041499999994
  6.6479584799999998 18.2282895300000014 20.1550772500000015
  6.4203502200000004 20.5076292699999989 -0.0071200800000000
  6.4745535500000004 23.1537018100000012  2.1033905100000001
  9.3556926899999997  2.1238470899999999  7.0718500799999999
  9.7093201100000002  4.3698430100000003  9.1534407099999999
  9.3208846899999998  6.6350677400000002 11.1371416900000000
  8.7195925200000008  9.1173798300000009 13.3336111899999992
  9.1796612199999998 11.1947177999999994 15.5298913800000005
  9.1420738099999994 13.3529048499999998 17.9174212500000003
  8.5964808900000005 15.7728837100000003 20.4395045499999988
  8.8187949099999994 18.2974762400000017 -0.2015773300000000
  8.9963898699999998 20.5544068899999992  2.2680164199999999
  8.8007168199999999 22.8488317300000006  4.1824734299999999
 11.4892221499999998  1.7072492399999999  9.4682950100000003
 11.9046675499999992  4.6763694200000003 11.3331189000000006
 11.1716812099999991  6.8283300000000002 13.9300812199999999
 11.6099918199999994  9.2359259599999994 15.9251420499999998
 12.0893264499999997 11.6708329800000001 18.1512617499999998
 11.1344049199999997 13.1469467099999999 20.8725017800000003
 11.1640828800000005 16.2237453299999999 -0.3467927100000000
 11.1536746900000008 17.8631003399999990  2.5404474900000000
 11.0854823600000003 20.3669897099999986  4.5339420700000002
 11.5806074700000003 22.7533789900000016  6.6850270800000002
 13.6753176300000003  1.8758862800000000 11.7153797300000004
 13.7194309699999994  4.0428065599999998 14.1271878700000002
 13.3393625599999996  6.7054311300000000 16.2523256300000014
 13.4246031200000004  9.0086667400000007 18.0104397600000006
 13.6674137000000009 11.5314593100000007 20.5331138300000013
 14.0859784300000008 13.6319841700000008 -0.0858526700000000
 13.4333809199999994 16.0520709299999993  2.5209642200000002
 13.8432895400000007 18.1930720699999995  4.3521250800000004
 13.7257207500000007 20.7730049399999999  6.5356410199999999
 13.4394363299999995 22.4850814800000016  9.5606782900000002
 15.8046546899999996  1.8758504300000001 13.7940883099999994
 15.6569793900000001  3.9783546500000000 15.8767347099999991
 15.3592760500000001  6.9432393499999998 18.3098890499999989
 15.7385509300000006  9.1665770200000001 20.3807074700000008
 15.6834992000000000 11.3827584599999998  0.0578284000000000
 15.9759120800000005 13.7758420099999999  1.7446132599999999
 16.0740937300000013 15.9755134699999992  4.2544799199999996
 16.4889947399999990 18.7539614599999993  6.2398841599999999
 15.8680438000000006 20.6190415899999984  8.9213996699999996
 16.1039419099999996 22.7360422299999989 11.0422222100000003
 17.8464506699999994  2.0539571200000002 16.4963593599999996
 17.9996172200000011  4.4915733299999996 18.3459611900000006
 17.7615114699999985  7.0721855099999997 20.1018709000000015
 17.7925653399999995  9.1505555199999993  0.2863657500000000
 17.8788111900000004 11.5102780700000000  1.8522218100000001
 18.1989945199999994 14.0321879900000006  4.6593194000000002
 18.2251963299999993 16.1367054600000017  6.6469705000000001
 18.2804360300000006 18.1313325600000006  9.4991071399999996
 18.0525582699999987 20.3732293599999998 11.1857252799999998
 18.3307052599999984 22.6590428000000017 13.5858518799999999
 20.3098691400000000  2.6871625500000000 18.3089970499999986
 20.3433101600000015  4.9279582399999997 20.8122324899999995
 20.4096910200000003  6.8444020300000004  0.6508303300000000
 19.8828193000000013  9.5491186700000004  2.3175550800000000
 19.8559179300000004 11.8299733499999995  4.5766503700000003
 20.4579263299999994 13.8263838799999998  6.3355690800000000
 20.2109336000000006 15.9164727399999997  9.0991284300000004
 20.3044976599999991 17.8961822499999990 11.4752783600000008
 20.8204577099999995 20.4059768999999989 13.9166149499999996
 19.9880280100000007 23.1896041799999999 15.8268407000000000
 22.5807022599999989  2.5153538100000001 20.8133972000000007
 22.7003497600000017  4.6341667199999996 23.1386535199999983
 23.0701209899999995  7.0118285900000004  2.2813526700000000
 22.4944632499999990  9.1998301399999995  4.4951550999999998
 22.8106947200000008 11.3237918999999998  6.5215975200000003
 22.9384415799999992 13.9047527899999999  8.7640421300000000
 22.6315971900000008 15.7753006899999999 11.4786911000000007
 22.6272577300000002 18.0416658400000003 13.9343108999999998
 22.2975512100000017 20.4006817799999993 15.9673277999999996
 22.0488154700000010 22.5704980900000010 18.6858746599999996
  5.1590118000000000  4.7267130300000000  0.0732325500000000
  4.8684065600000004  6.7634225600000004  2.2673190700000001
  4.5394429699999996  9.3178483500000002  4.6518244800000002
  4.4188634300000000 11.3490846899999998  6.7421691099999999
  4.5586012499999997 13.7085670799999999  9.0089352900000002
  4.4219618100000000 15.4942730399999995 11.0618380500000004
  4.8832220700000004 18.0560853100000003 13.4015982600000001
  4.9103110900000004 20.0662340499999985 16.3014385399999995
  4.3325399899999999 -0.1931516300000000 18.4065316099999983
  4.3784413400000002  2.7580314000000001 19.9451395299999987
  7.1273948300000001  4.6441758100000001  2.4627495900000000
  6.6296924600000002  6.9403909099999996  5.0795628400000004
  7.3689817199999998  9.1548114900000002  6.8048958500000003
  7.1506711100000002 11.5709439100000004  8.9669755000000002
  6.4906989399999997 14.1602816600000008 11.1523836999999997
  6.6645959699999997 15.6834137100000000 13.5252427599999994
  7.2038844600000003 17.7962596799999986 15.9432673099999995
  6.9782829599999996 20.7301682599999992 18.1117959299999995
  6.7007884999999998 -0.3070018700000000 20.5202212099999990
  6.5527229699999996  2.1455456300000000 22.5728517699999998
  9.2389092200000000  4.3002629099999998  4.6272204199999996
  9.4380492599999997  6.3860824699999998  6.7173901000000003
  9.2733125100000002  8.7797774900000007  9.3375972300000001
  8.6975312700000007 11.6097459500000006 11.2952081999999994
  9.5605000199999992 13.7019294499999997 13.1470078400000006
  9.5174759800000004 15.3875659599999999 15.7791872699999995
  8.8334947300000000 18.2000934299999990 18.4713656800000017
  9.3237802999999992 20.4522262700000006 20.3120453199999993
  9.0844438600000004 -0.0096074200000000 -0.3913609900000000
  8.6740144699999995  2.4104177899999999  2.1164714000000000
 11.5629466500000007  3.8257152099999998  7.0913122199999998
 11.6343832000000003  6.8552529499999997  9.1408830800000000
 11.0035482400000006  9.2407090800000002 11.1644128600000005
 11.7323105400000003 11.2030913200000004 13.3159374899999996
 11.1659175899999994 13.6131380400000008 15.7318965300000002
 10.7797915300000007 15.3587725600000002 18.7658838900000013
 10.7687177900000002 17.6382047200000009 20.3990077200000002
 11.0925513700000007 20.1882798100000009 -0.1560467100000000
 11.2150256600000002  0.2595454400000000  1.7955836700000001
 11.2087789699999991  1.8231807499999999  4.6412205699999998
 13.6330133000000000  3.9668711900000000  9.1909325099999997
 13.9215559599999992  6.5379808800000001 11.5159169099999996
 13.9387322900000008  8.6689093499999998 13.7884664200000007
 13.8560032000000000 10.8434373399999995 15.8456953200000008
 13.6319335400000003 14.0180859000000009 18.4685716900000010
 13.6727956400000004 15.9810018700000001 20.9210368100000004
 13.5275052900000006 18.3192152899999989  0.3220453700000000
 13.3055899899999996 20.5244846999999986  2.2243861300000001
 13.8707488800000007 -0.5737084099999999  4.2300766699999999
 13.7974117199999995  1.5231257199999999  6.8598250199999997
 16.1885845300000000  4.3487175999999996 11.8378408900000007
 15.7570199199999994  6.3302079899999999 13.9163250000000005
 15.9356734200000005  8.9012540900000001 16.1693379300000011
 15.6526294099999994 11.8314915000000003 17.7342507100000013
 16.3943664499999997 13.8898483400000003 20.2992756199999995
 15.8723803799999992 16.5152467899999991 -0.1048988500000000
 15.6806850099999995 18.8501036100000015  2.4538594300000001
 16.4366592599999990 20.6824304099999985  4.7242227200000002
 16.1565234000000011 -0.0670336700000000  7.3056972099999999
 16.1955491100000017  2.2938528300000001  8.8733831999999992
 18.1604706100000008  4.7420178399999999 13.6245599399999993
 18.2593519700000009  6.7374552300000001 16.3095461499999992
 17.8435549500000015  9.0224842600000006 18.3367235700000002
 18.1758033099999992 11.4518486900000003 20.3606963900000011
 18.4188518399999985 14.0457719999999995  0.0793939500000000
 18.2761890600000001 16.1532538400000014  2.1342511100000001
 18.3732292299999997 18.5808836799999995  4.2211943200000004
 18.2930761199999985 20.2287939500000000  6.9358470900000002
 18.2732244699999988 -0.3610062800000000  9.2436751699999995
 18.0013073100000014  2.4143936300000002 11.1336497199999993
 20.4800631899999992  4.7424558799999996 15.7735455899999995
 20.3791606700000010  6.9179586899999999 18.3471113000000017
 20.2775235500000015  9.1199868599999991 20.6998802700000013
 20.7046615299999992 11.2044349899999993 -0.1174591500000000
 20.5570477300000007 13.3069803400000009  2.4625509999999999
 20.3947164100000009 15.8167217000000004  4.1899738700000002
 19.9700292799999986 18.1368530700000008  7.0097466099999997
 20.6142597400000014 20.2913397999999994  9.0698790999999996
 20.3530698900000004 -0.2653165600000000 11.3586264900000007
 20.3348976899999982  2.4367542300000000 13.6219914899999992
  0.1603279800000000  4.9334653700000004 18.4004499300000006
  0.1146946600000000  7.3895076199999998 20.7449708900000012
  0.1807415500000000  9.7132007399999996  0.4018554800000000
 -0.5071482400000000 11.7163515900000004  2.8135772700000001
 -0.2133753200000000 13.4116963400000007  4.7204759599999999
 -0.2808839700000000 16.0555876399999988  6.7603759099999996
 -0.5045109800000001 18.1575129000000004  8.7785447600000008
  0.3013138600000000 20.4687919799999989 11.2769325299999998
 -0.1076923200000000 -0.0186073600000000 13.6112174600000007
 -0.1675413000000000  2.4080112200000001 16.1610919700000011
  2.7174858400000002  5.1500584099999998 20.7806539699999995
  2.3810129700000000  7.1071602499999997 22.5681106699999994
  2.2844132600000000  9.5212413999999992  2.3768556400000000
  2.2932669899999998 11.5020828300000009  4.9526351000000002
  2.3274329300000001 13.7829658700000000  7.0322794699999998
  2.1627033999999998 16.3604803399999987  9.1968744499999993
  2.1095442100000001 17.8610485899999993 11.4703252800000008
  2.3750621000000001 20.7586232899999992 13.6419113400000001
  2.2701815999999999 -0.6873793800000000 16.2748440800000012
  2.0699724900000001  2.3349808699999999 18.1876460299999998
  7.0050818499999998  7.2462657999999998  0.3273070000000000
  6.7959580199999996  9.3202378899999996  2.6738746899999999
  6.7569581899999998 12.0494857000000000  5.0029621500000001
  6.9450255800000003 13.6890936700000001  6.6479874399999996
  6.8696762299999996 15.6818459099999998  8.8238220399999996
  7.0224790700000002 18.3658696699999986 11.0664430300000003
  6.6148122599999999 20.0543093100000007 13.3503360999999998
  6.6598949599999999  0.2533955600000000 15.6090404800000009
  6.7221345100000001  1.9903394100000000 17.7573479300000017
  6.6555543799999999  4.4965337999999999 20.3588184199999986
  9.0405904600000007  6.7029209800000000  2.6241821900000000
  9.2167069799999997  9.2876904699999994  4.8909497100000001
  8.8060662500000007 11.6535581100000005  6.9648468200000000
  9.1926208200000001 13.9938864299999999  9.2616200800000001
  9.2232755199999996 16.1981371400000000 11.0236523300000009
  9.2048755900000003 17.3557808999999992 13.5219142100000003
  9.0529840700000008 20.2024150300000009 15.9485229499999992
  8.7454668200000008  0.2393831900000000 18.0576560400000012
  9.0850606299999992  2.6691746400000000 20.4530723300000012
  9.0643280799999992  4.6059768200000004 23.0878582600000009
 11.6158266700000006  6.5913966400000001  4.6948591700000000
 11.7980058700000008  8.8777223000000003  7.0819789499999999
 10.9520315600000000 11.3813715200000001  9.0661840999999992
 11.3965525700000008 13.6924252000000006 11.5970086200000004
 11.7404908300000006 15.9673284800000008 13.1679375200000006
 11.0087299900000009 17.7504361800000012 16.3370138800000007
 11.2718290799999998 20.0215814399999985 17.9602138099999991
 11.1494560600000003 -0.0800106600000000 20.1800097200000010
 11.1651809499999999  1.8032665500000000 -0.2165917700000000
 11.5132870100000009  4.2171577500000001  2.3868929600000000
 13.6227323899999995  6.4350007800000002  7.1272829499999997
 13.3766835099999994  9.0364182599999996  9.1902497899999993
 13.4026676499999997 11.1028252399999996 11.5175456000000001
 13.4789700400000001 13.2221051599999999 13.9256118600000001
 13.5505310500000000 16.3305835700000017 15.9801975600000006
 13.7987803299999996 17.7634867700000001 18.4651469800000001
 13.8048278199999999 20.5087384999999998 20.3844191600000002
 13.3522334399999991 -0.0467676100000000 -0.6600004100000000
 13.4846851799999996  1.5879895300000000  1.9250596000000000
 13.4035371100000003  4.2748833599999996  4.9777285500000001
 15.3964665299999997  7.1183101500000001  8.9557655799999996
 15.9002022200000006  9.0119065900000006 11.2318329000000006
 16.1051548900000014 11.9498697200000006 13.3209290100000004
 15.8801213099999998 14.1006880999999993 16.1693766600000011
 16.1101369500000011 16.2313102700000016 18.3121404299999995
 15.8898443999999994 18.3516353499999987 20.7230149600000004
 15.7702024200000004 20.3604213700000010  0.0765073300000000
 15.7535082400000004 -0.3794689800000000  1.8173676400000001
 15.6320241699999993  1.8708651900000000  5.0584049400000000
 15.5622120000000006  4.7432951799999996  6.4494366999999997
 18.1206321899999985  6.7353918300000002 11.1284435700000000
 17.9570848599999984  8.8019834400000008 13.6051529700000007
 17.8678640299999998 11.1226546699999993 16.1028442600000012
 18.5179231999999985 13.7114154300000006 18.3177904399999996
 18.1877913599999985 16.3266963499999989 20.3931980899999985
 18.0738461199999989 17.9635489899999996  0.2961607200000000
 18.3195862600000012 21.0640793399999993  2.4827959900000001
 18.6710139700000006  0.5205457200000000  4.3377876300000002
 18.1341980400000011  2.6780355899999999  7.0913314999999999
 17.9374644299999986  4.8528947899999997  8.8266758400000001
 20.1538401799999995  6.6733661599999996 13.5743539200000001
 20.2724492699999992  8.9383388900000007 15.8196886600000006
 20.5054758700000015 11.0818493799999995 18.2226726399999990
 20.3928931999999996 13.8495010700000005 20.3800422700000006
 20.9061309699999995 16.0832519400000002 -0.1287412500000000
 20.4917101899999992 18.0325250699999984  1.9088014600000001
 20.6592660700000010 20.6314615699999990  4.7653205400000003
 20.4245230199999988  0.0888919700000000  7.3622100599999998
 20.3382543200000008  2.6016747400000000  9.1602734399999992
 20.0053979700000006  5.0523682299999999 11.0989923299999997
  0.1237901800000000  6.8291876800000004 15.6235710399999999
  0.2803985600000000  8.9494185000000002 18.0467266799999990
  0.4349741900000000 11.3348904600000004 20.6639207200000001
 -0.2576438200000000 13.0010578900000002 -0.1583596900000000
  0.1945007100000000 15.9520904399999992  2.4383799000000002
  0.1927512800000000 18.6260724700000004  4.6236609099999999
 -0.1333430800000000 20.3816324000000009  7.0019243099999997
  0.1894991000000000  0.2262936600000000  8.8988182699999996
 -0.3994614800000000  2.3376259199999998 11.4587170300000007
 -0.3456667300000000  4.5027093200000001 13.7318503100000004
  2.3321597299999999  6.9022390099999997 18.0623842500000009
  2.8147527900000000  8.8043280399999997 20.7831689500000003
  2.0469325700000001 11.1587435799999994  0.1820887500000000
  2.4194980400000001 13.7964075299999998  2.2644194899999999
  2.5955399199999998 16.1496852900000007  4.7245997500000003
  2.5237830899999998 18.3586716500000016  6.9221009899999997
  2.2504956800000002 20.5421237300000001  8.7411574999999999
  2.4689732200000001  0.0269307300000000 11.0984772799999991
  2.2732749700000001  2.5848214500000002 13.5857476800000008
  2.0942326599999999  4.8610091500000001 15.7586047499999999
  4.8501081700000004  7.1421079199999999 20.5470833900000009
  4.6294320300000003  8.7718734999999999 23.0270101400000016
  4.4896001700000001 11.7440052000000001  2.5092785399999999
  4.5707212200000003 13.5851842499999993  4.7622012399999996
  5.3481519000000004 15.8822600200000004  6.7769001199999996
  4.8118588899999999 18.2292734600000017  8.7002920300000000
  4.6566992400000000 20.5281661600000014 10.8386117199999994
  4.1934577900000001 -0.0128466700000000 13.7593762900000005
  4.6056051299999998  2.2111680800000002 16.1486085999999993
  4.5633823400000004  4.3683138200000000 18.0774211800000018
  9.5920211999999996  9.3520544999999995  0.3729483000000000
  8.9236572899999995 11.1965728900000006  2.4469555399999998
  9.4199896400000007 13.4881522300000007  3.7635399999999999
  9.2562346600000005 15.8409644299999997  7.0496087300000001
  9.1396556499999999 18.6699761799999990  9.1698089399999994
  9.3492649500000002 20.3366129399999984 11.4344954300000001
  9.0082045799999992  0.2056246800000000 13.6950023800000000
  8.9333898299999994  2.2931688100000001 15.9423609400000004
  8.5630278999999998  5.1925977500000000 17.9339659699999991
  9.4105397899999996  7.2510715200000000 20.7317679999999989
 11.1670199599999993  9.3601790900000008  2.6486018499999999
 11.2590728599999998 10.9081999900000000  4.6954058500000002
 11.1212064200000000 13.2641198599999992  6.8457600400000000
 11.6946661800000005 16.2133096700000010  9.4224611399999993
 11.7684346800000004 18.4364342699999995 11.2540674000000003
 10.8260608499999993 20.5821806100000018 14.2768865199999997
 11.0339499500000002 -0.0834628400000000 15.9231962199999995
 11.1180539599999992  2.3570326900000000 18.2447097000000014
 11.2130281699999994  4.7328930299999996 20.0338038800000007
 11.6291466400000001  6.8447384500000004 22.9307679700000016
 13.9060506900000007  9.0644613599999992  4.6893732899999998
 13.9043013799999997 11.2886895799999998  6.9485772199999998
 13.7138487700000002 13.2413796799999997  9.3528382000000008
 13.6241159900000000 15.4504201200000004 11.3230547200000000
 13.2323718899999996 18.3020294899999989 14.1385211500000008
 13.6422971000000004 19.9303206899999985 16.0924290600000006
 13.8431723299999998  0.0279275000000000 17.9649814399999990
 13.3171893699999995  2.5587051199999999 20.4246413900000015
 13.1770451699999995  4.3549634299999997  0.1309697500000000
 13.6691536199999994  6.7379637099999998  2.1227576500000001
 16.0368078800000013  9.3927694800000001  6.4101594100000003
 16.0489490299999993 11.0325875199999999  9.1430039099999991
 16.1752557699999997 13.3713408600000001 11.0136530700000002
 15.3771229399999996 15.3023100700000008 13.4626388899999991
 16.0009382900000006 17.9467002700000009 15.5086855700000008
 15.9277078099999994 20.7442886599999987 18.2716679400000004
 15.8321418499999993  0.2141517600000000 20.6620172400000008
 15.6059992600000008  2.3609986300000001  0.2079475500000000
 15.4661450100000000  3.8657699999999999  2.9959868699999999
 15.4571461699999997  6.6675311800000001  4.4911142499999999
 17.9663580200000013  9.1792736799999997  8.7904412399999998
 18.5747035800000013 11.3514259899999992 11.2146014699999998
 18.3289864300000005 13.3354663200000001 13.6811426399999991
 18.1586172200000000 15.5664432200000000 15.7996041300000005
 18.3714423400000015 18.1218849900000016 18.2154691000000000
 17.9752790699999991 20.2234301700000003 21.4305832999999986
 18.2418126200000010  0.6684712800000000  0.2296605100000000
 18.3421423700000013  2.4101233799999999  2.2731150000000002
 17.8791555600000009  4.3147698099999996  4.4704562699999997
 18.2649177800000011  7.3047976400000003  6.5134795900000002
 19.9675785400000017  8.8792241900000004 10.9744037100000007
 20.1893167899999995 11.3351108400000005 13.3840914000000009
 20.1617269499999985 13.4459502499999992 16.0889456799999984
 20.7172604400000004 16.2306485599999988 18.2095699700000004
 20.7369354799999996 18.5487568799999991 20.6366794099999993
 20.0607474600000018 20.4667626899999995  0.4700776200000000
 20.5254063600000016  0.4830683700000000  2.3832307300000002
 21.0333549700000013  2.1128918400000001  4.5769927199999998
 20.8407678300000008  4.4750820100000004  6.7598345399999999
 20.1898091700000002  6.8680038799999998  8.7738684700000000
  0.0266245100000000  9.1917127900000004 13.5758547800000002
  0.3621267000000000 11.4788178799999994 15.5919403400000007
  0.0811278000000000 13.4739663499999995 18.3034063399999987
  0.4939485000000000 15.8284993000000007 20.5638003800000000
  0.0185559500000000 18.2530620900000002  0.2128843500000000
  0.7469894700000000 20.6296660600000017  2.7273085300000002
 -0.0365078200000000 -0.1545713300000000  4.6830106899999997
  0.3156437600000000  2.4736591200000002  6.5779178099999998
  0.0999545100000000  4.8581630899999997  8.8695529400000002
 -0.3254247000000000  6.6595593800000001 11.1200493199999997
  2.7142466000000001  8.6180230400000006 15.4876794100000001
  2.2055762600000000 11.3360027700000003 17.6981981300000015
  2.5404308100000002 13.9058994100000000 20.3179377899999984
  2.5061904600000000 15.3519789099999997 -0.0544945800000000
  2.2800521200000001 18.3372160999999991  2.2041189200000000
  2.8887614799999999 20.8191515100000011  5.1368926500000001
  2.7561983600000000  0.2018097200000000  6.2973104700000002
  2.5967423200000002  2.3007427800000002  8.9374167900000003
  2.1316565700000001  4.1592198299999996 11.1665434799999996
  2.0345941600000002  6.6954825800000002 13.2523695000000004
  4.5590356900000000  8.6511996000000000 17.4544177199999986
  4.4391218400000003 10.9579142399999991 20.1876439900000015
  4.6452166000000004 13.4006599400000006 -0.3963267900000000
  4.5865691000000002 16.1133518100000011  2.3039505100000000
  4.6958228799999997 17.9613600700000013  4.9993027500000000
  5.1222325399999997 20.8353439400000013  6.9231217400000000
  4.8034795399999997  0.4666615900000000  8.9350893599999992