Li                                      
   1.00000000000000     
    21.2169999999999987    0.0000000000000006    0.0000000000000000
     0.0000000000000006   21.2169999999999987    0.0000000000000000
    -0.0000000000000006   -0.0000000000000006   21.2169999999999987
   Li
   500
Direct
  0.0041263467973778  0.9922251105245792  0.9809633053683342
  0.0034245157185282  0.1133123594287611  0.0785154668426244
  0.9935269972192131  0.1926768562944829  0.1909955262289671
  0.9754841367771121  0.3007658768911696  0.3071766295894776
  0.0029758948013381  0.4045578328698696  0.3849087670264382
  0.9911764401187710  0.5090234326247796  0.5083580199839730
  0.9925824287128222  0.6168888820285616  0.6198530202196366
  0.0025758863175724  0.7126112358014822  0.6903591384267358
  0.0033935028514875  0.8108988975821276  0.8043497600980345
  0.0124917217325731  0.8953322835462103  0.8914154409200137
  0.1111410279492873  0.0199425154357371  0.0889276094641076
  0.0969504326719175  0.1136084168355538  0.2002892421171723
  0.1108088763727224  0.2026697153226209  0.2938332205307077
  0.1098402733656982  0.3115242404675485  0.3900540033935087
  0.0980594306452360  0.4058313456190774  0.4907821322524413
  0.1118087797520886  0.5054771056228518  0.5949746679549435
  0.0942845029928847  0.6292353603242660  0.7025169170947834
  0.0817585959372167  0.7195361205636956  0.7988640660790907
  0.0994929938257059  0.8073070900692869  0.9141674251779222
  0.1161535480982252  0.9188600608002986  0.0134986166753066
  0.1973522175613880  0.0314790912947132  0.2005945760475072
  0.2107432888721306  0.1189479530565123  0.2876771899891608
  0.2122375590328502  0.1953319517368115  0.4074767592025239
  0.2055042927840915  0.3232949064429462  0.4989259513597588
  0.2122358981005803  0.3989344685865106  0.5993179827496817
  0.1956192864212625  0.5059279120516535  0.7056167653296868
  0.2064248531837691  0.6134431936654536  0.7901387514728739
  0.2023777602865593  0.6825717999717185  0.9023540288447975
  0.1942980063156909  0.7920369519724773  0.0010371089220911
  0.1830780345948995  0.9038920653249747  0.0981450247443121
  0.2957483810152226  0.0050142041758932  0.2813810614130148
  0.2930610453881286  0.1049073516519741  0.3863194876749745
  0.2980723773389258  0.1952913687137681  0.5169998831125966
  0.2842933953904918  0.2788544370080572  0.6022891337135334
  0.2935088636470766  0.3814896757317214  0.7150608177404933
  0.2935226002733629  0.4842407192345775  0.7959965965970710
  0.2933754965357949  0.5769910623556598  0.9044194556252094
  0.2979909176603641  0.6790721265965942  0.9898478686901981
  0.2867052472074292  0.7842224956402859  0.0939458698213684
  0.2736185827402551  0.9100833633407177  0.1803823518876371
  0.3961915878776452  0.0131624668897601  0.3918457510486846
  0.3989442070038152  0.0966039091294704  0.4874972253381742
  0.4219965362680895  0.1829134274402620  0.5925494344158011
  0.4158716086157312  0.2848959329782730  0.6900815836357665
  0.4021000900221523  0.3953922821322493  0.7843649870386926
  0.3889588513927507  0.4907372540886996  0.8967189046519266
  0.3935069844935697  0.5649032733185635  0.9963141297073079
  0.3858568176462285  0.6851794160343090  0.1070453230899773
  0.4094858896168176  0.7968842569637573  0.1915347471367284
  0.3801578338125111  0.8989427864448345  0.2859566211057185
  0.5012309431116577  0.0023393491068475  0.4745095074704224
  0.5043782108686443  0.0739215968327258  0.5807439482490437
  0.5059536880803108  0.1949406240279004  0.6898716694160356
  0.5081110161662821  0.2740697567987951  0.7887204543526423
  0.5087383866710624  0.3832612094075500  0.8928265975397096
  0.5203205891502094  0.5012309902436698  0.9887843639534353
  0.5007181627939872  0.5967785007305437  0.1066784993165868
  0.5065388513927545  0.6846510929914658  0.1856812013951057
  0.4979842932554064  0.7841145538954635  0.2784977041994594
  0.4948723905358889  0.8799778338125108  0.3783820196069172
  0.5927225880190434  0.9958011481359321  0.5824886279869901
  0.6016799288306558  0.0828796389687483  0.6860443502851510
  0.6165487519441939  0.1852620615544112  0.7796381453551362
  0.6161803751708561  0.2971400485459768  0.8836428397040095
  0.6210329523495304  0.4186525781213177  0.9828293264834826
  0.6170625602111528  0.4802322868454567  0.1163649860960518
  0.6173644855540346  0.5953147132016809  0.2150405127963424
  0.5883775788283003  0.6993438671819803  0.2875645619079066
  0.5817128406466523  0.8099896752604039  0.3959714238582279
  0.6062712631380478  0.8795095004006228  0.5035734477070264
  0.7175541042560241  0.9989348838195795  0.6953141636423652
  0.7056647301692038  0.0769430678229739  0.7785101729744994
  0.7115360168732607  0.1980132177027869  0.8968188476221925
  0.7015309233162057  0.3254453593816251  0.9996162775133115
  0.6945762077579332  0.4011749677145673  0.0971874086817195
  0.7244615383890292  0.5036891685912224  0.2170960658905585
  0.7078594358297607  0.5971388928689265  0.2927032982985338
  0.6716846410896906  0.7314625979167673  0.3993113885092114
  0.7081418334354552  0.8061059343922352  0.5068159819955724
  0.7080034802281219  0.9157231974360158  0.6104546641843811
  0.7981795517745169  0.0036840594806051  0.8221493052740740
  0.7849995616722438  0.1127944115567701  0.9017267775840097
  0.7992591445538935  0.2048191553942615  0.0078528722251008
  0.7970307362021032  0.2992591087335654  0.0993914262148294
  0.7876752476787487  0.4134927039638043  0.1681103280388356
  0.8136391120328028  0.5213017528397046  0.2992448621388490
  0.7942010458594524  0.5910380378941440  0.3969863812037531
  0.7838402955177486  0.6998328411179742  0.4907260262996687
  0.7735328288636438  0.8138322071923483  0.6244031488900390
  0.8010947075458361  0.9288661978602093  0.7185749974077424
  0.8934317834755134  0.9931369359475894  0.8825714738181674
  0.8828575477211658  0.0921149309515954  0.9974164151388010
  0.8843820054673159  0.1992672423057016  0.0780076193618342
  0.8870606075316942  0.2921559876514124  0.1823537408681730
  0.8940818956497125  0.4131912654946532  0.2879381816467941
  0.9075857878116622  0.5063985686006518  0.4037002983456688
  0.8817912013951101  0.5876888141584544  0.5080910416175684
  0.8644772135551690  0.6956730612244897  0.6154905000706989
  0.8889001593062176  0.8001070165433362  0.7003291728331078
  0.9068444897959154  0.8857781849460338  0.8162964405900937
  0.0961157025027077  0.1072651425743487  0.9895228161380061
  0.1003355441391349  0.2092756006975520  0.1079725823631961
  0.1161243422727054  0.2833265970683883  0.2099868704340864
  0.1011700348776898  0.3829637620775799  0.2865874426167707
  0.0996294740066901  0.4873945755761895  0.3973431884809315
  0.0928052929254832  0.6133089942027610  0.5075514370551915
  0.1439723174812642  0.7114249069142673  0.6120118664278635
  0.1016664391761353  0.8196484220200801  0.7038397780082022
  0.1144447452514470  0.8964075005891488  0.8061103134279080
  0.1149194353584377  0.0170744638733069  0.9034280864401154
  0.2007006419380701  0.1363500009426417  0.0951894617523692
  0.2146712414573244  0.2095039605033691  0.1963687858792511
  0.2109049366074345  0.2856122764764137  0.2974370396380266
  0.2045852839704025  0.3972641820238465  0.3905652618183524
  0.1993916161568521  0.5205983484941328  0.4899342875995671
  0.2200626181835332  0.5906308172691723  0.6042576509402835
  0.1952329872272216  0.7209795475326359  0.7204616279398621
  0.1957349073855852  0.7900131323938382  0.8112901286704073
  0.2028430682942926  0.9154325003534893  0.9044819479662536
  0.2120163373709758  0.0235417504831048  0.0082838323042864
  0.3172742480086725  0.1118942079464560  0.1986617170193696
  0.3195235490408663  0.1896518042136037  0.2990719390111707
  0.3198452589904335  0.3098707621247101  0.3978844261676926
  0.2906660262996681  0.4044358344723591  0.5129860121600629
  0.3118721214120725  0.4903421685440890  0.6304819324126854
  0.3005431031719823  0.6175546161097216  0.7067003374652430
  0.2997626770985562  0.6794279393882263  0.8134876339727555
  0.3049807781495986  0.8020736880803128  0.8919206659753982
  0.2825492633265796  0.9041848729792150  0.9919968407409172
  0.3102154456332187  0.0347162341518583  0.0870176603666906
  0.4051928981477104  0.0892246486308181  0.3078144044869688
  0.4007556492435285  0.2018209049347206  0.4076348640241321
  0.4133879568270729  0.2993454065136447  0.5184230635810891
  0.4017285346656010  0.3851162473488259  0.6018056021115115
  0.3872427614648615  0.4663615266060219  0.7129125441862669
  0.3780530994014200  0.5800742833576820  0.7999103294527998
  0.4134349022010682  0.6794760083895000  0.9147356252062053
  0.3958426228967369  0.8152213908658155  0.0055786586228024
  0.3766440816326551  0.8933221671301297  0.1095587689117252
  0.4185379992458849  0.9960985143988310  0.1989454899373158
  0.5204838572842547  0.1108641165103421  0.4001575340528802
  0.5048939850120178  0.1894299335438561  0.4964314658057205
  0.5162039053589069  0.2975384290898830  0.5988214681623205
  0.5149948055804288  0.3894192647405390  0.7026958132629488
  0.5077302102087913  0.5034696055050176  0.8052323264363466
  0.4945809581939002  0.5814216920393989  0.8871861031248542
  0.4773975340528835  0.6731730164490770  0.9963744714144340
  0.4935980600461889  0.8023222189753483  0.0947386378847170
  0.5028695046425042  0.9072910698967789  0.2109250959136517
  0.4996972418343759  0.9991707621247130  0.3042903582033247
  0.6117058283451939  0.0837091709478273  0.4869656558420132
  0.6008491766036670  0.2012760852146869  0.5879648041664680
  0.6050819262855285  0.2794051717961992  0.7021777715982438
  0.6216518829240698  0.3882608342366964  0.7870628854220669
  0.6240122293443946  0.4824903850685800  0.8860583829005009
  0.5954238209926004  0.5824740750341704  0.9971459457039131
  0.6051925526700259  0.6935522533817249  0.0971456369892039
  0.6012520257340839  0.7858020841777815  0.2012189824197606
  0.6026025488994691  0.8885155460244150  0.2958102441438442
  0.6058096611208015  0.0050248357449192  0.3890938652966938
  0.7012425946175256  0.0996620549559282  0.6083704675496051
  0.7208571027949304  0.1897848060517475  0.7029851802799669
  0.7055140297874374  0.3052277923363320  0.7973240491115590
  0.7054301244285242  0.4093338120375165  0.8939351571852754
  0.7107786883159761  0.5227646118678422  0.0055760319555063
  0.7129089517839446  0.5989255559221363  0.0999270231418237
  0.7191811094876783  0.6996267233821953  0.1953684078804727
  0.6946574741952176  0.7874563114483664  0.2791798223122939
  0.6844462662016326  0.8878238874487465  0.3817107380873850
  0.7018556713955775  0.9974582066267601  0.4948363632935866
  0.8146076193618299  0.1031664943205897  0.6982389414148997
  0.8033309459395781  0.2156216477353041  0.7994190253098949
  0.7992307979450430  0.3119895112409878  0.9098155380119692
  0.7927991982843920  0.4091169326483453  0.0185069849648869
  0.8100071569967469  0.5115456827072649  0.1130845675637460
  0.8220478229721451  0.6048262662016342  0.1942051967761671
  0.8197394985153394  0.6886925583258687  0.3005591327708927
  0.7950703534901251  0.8069033557995979  0.3841625526700270
  0.7885095508318827  0.8961051552999919  0.4934731969647004
  0.8181486972710559  0.0044334660885141  0.5837661408304626
  0.9035565965970704  0.1015852778432418  0.8095290224819749
  0.8692864966771907  0.1956272705849074  0.9100876226610737
  0.8758674723099418  0.2923866225196790  0.9943818998915930
  0.9053522538530387  0.3812033435452733  0.0975808936230393
  0.8981422873167730  0.5073962398077043  0.1987931404062806
  0.9111083197436045  0.6025976509402824  0.3076561563840343
  0.9080369712966032  0.7079798953669254  0.4465118885799129
  0.8839541594004814  0.8127406353395870  0.5171253961445998
  0.8918200782391494  0.9081006438233459  0.5962526596597044
  0.9080528151953615  0.9970115020973722  0.7058169312343878
  0.9879640057501078  0.1137987887071716  0.9034228514870151
  0.9838841914502510  0.2054311240986024  0.0035759862374505
  0.9999187180091411  0.2889250944996959  0.1071594674082093
  0.9914478993260119  0.3911254583588644  0.1926320153650352
  0.9976241980487330  0.4886737875288674  0.2931208691143894
  0.0088225276900573  0.6009252538059116  0.4182529528208505
  0.9751590455766603  0.7020491327708882  0.5279243012678521
  0.9995711024178746  0.8271329080454350  0.6040692982042728
  0.0138463090917682  0.9064312325022357  0.7083054649573484
  0.0053234670311539  0.0081942197294609  0.8146616034312117
  0.2054817933732380  0.2232104081632684  0.0064162869397180
  0.1998855809021052  0.3102548984305002  0.1119674176367980
  0.2011814587359169  0.3872771386152607  0.2170206626761555
  0.2042837253146033  0.5178300268652478  0.2972207658952755
  0.2072890248385733  0.6018663529245387  0.3996070537776291
  0.2068119102606403  0.6856991341848513  0.5116596092755827
  0.2094038341895654  0.8109253207333751  0.5876331587877672
  0.1961012909459399  0.9155095249092682  0.7046304147617448
  0.1918499189329310  0.0296342517792354  0.8205974586416573
  0.2168167125418279  0.1107958995145424  0.9086456548993738
  0.3048604105198649  0.2258941513880401  0.0920665928265052
  0.2973539741716564  0.3032287363906292  0.2063783489654512
  0.3060226902955208  0.4048843733798364  0.3064595739265670
  0.3138724598199545  0.4918745100626865  0.4094630734788112
  0.3046227982278396  0.5876706273271424  0.5129296917566109
  0.2936054484611361  0.7227514936136146  0.5998634580760722
  0.3101766107366757  0.8020191549229381  0.7356904076919477
  0.2653156153084808  0.9143290941226354  0.8020132742612063
  0.2951654456332165  0.0043968996559371  0.9134226945374024
  0.2992697864919620  0.1201935278314537  0.9968658038365490
  0.4120933020690956  0.2072534170712146  0.2000448574256524
  0.4024365692605016  0.2960163944007164  0.3109555700617435
  0.3980304684922444  0.3947875670452916  0.4111887354479933
  0.3960510797945034  0.5204423976056916  0.5110549625300465
  0.4069278149597011  0.5975714997407735  0.6243623976056938
  0.3874259956638539  0.7153119639911409  0.7208130932742591
  0.4089581797615125  0.8110529749728954  0.8038619239289275
  0.3826838945185429  0.9073801998397499  0.8900688886270416
  0.3807084088231107  0.0070786902012543  0.9995219786020613
  0.4044379096950550  0.1170201168874030  0.0911067460055648
  0.5024848852335424  0.2091386359994374  0.2994103676297328
  0.4859065706744587  0.2922362369797824  0.3963799750200323
  0.5055758448414025  0.3898826577744288  0.5082794259320380
  0.4909398326813417  0.4870862218975347  0.6189834090587709
  0.4783627209313295  0.5976162921242434  0.7118493806853010
  0.5053142498939565  0.7007877018428630  0.7874000428901340
  0.4873324843286042  0.8005645981995571  0.9098470632040332
  0.4737191695338652  0.9098925823631987  0.0019436602724241
  0.4963486435405571  0.0086114290427517  0.0818364570862968
  0.4969144963944032  0.1039865885846254  0.2029065390960056
  0.6195853890747998  0.1851885662440509  0.3841259956638510
  0.6046665178865993  0.2934836527313038  0.4976634142432985
  0.6066985926379758  0.3759857119291112  0.5972812824621769
  0.6017437502945739  0.4908941216948648  0.6996397615119960
  0.5967056021115127  0.5992034170712159  0.7796552142150190
  0.5785587632558773  0.6963160300702285  0.9148149498044020
  0.5699029287835202  0.8035163303011714  0.0170889249186956
  0.5930825729367939  0.9113279690813982  0.1109842748739212
  0.5917416925107233  0.0065589367017012  0.1984518475750576
  0.5970592058255164  0.0990516279398577  0.2938462921242433
  0.7076786397699948  0.1900203746995359  0.4954751831078852
  0.7164675340528817  0.2956693071593506  0.6211073238440861
  0.7092337295564874  0.3984688315973060  0.7000483866710638
  0.7264210241787268  0.5010291176886454  0.7963118296648943
  0.7008347532638908  0.6123967742847682  0.8829529792147781
  0.6878612084649092  0.6807277258801889  0.0000729391525667
  0.7020372672856681  0.8104820964321036  0.0995473601357375
  0.7103434792854770  0.8914552057312548  0.2076675576188904
  0.6872660300702265  0.9839767822972121  0.2982831983786554
  0.6999197492576741  0.0844292496582923  0.3817754253664489
  0.8185880591035470  0.1916610684828228  0.6104899297732942
  0.8111423556581983  0.3049046938775533  0.6943563873309131
  0.8112181279162911  0.4021341103831801  0.7830260333694667
  0.8148109487674944  0.5001407583541493  0.8982709468822137
  0.8233985030871480  0.6001648093509928  0.9910390135268869
  0.7785335499835071  0.6898178668049226  0.0937071984729201
  0.8161984847056587  0.7997443733798377  0.1774692138379592
  0.7934540505255185  0.8661953212046924  0.2746536268086928
  0.7727267879530544  0.9957079026252558  0.3877190611302268
  0.7834675675166167  0.1017908695857130  0.4973498147711766
  0.9077875679879313  0.2028451930056079  0.7109351774520434
  0.8848040264881902  0.3115793330819656  0.8093602639392969
  0.9025164976198354  0.3848169958052523  0.9047339199698357
  0.9174727261158537  0.5131531781118923  0.0062511443653648
  0.9105248635528085  0.6337240665504069  0.0917529353820044
  0.9126022104915847  0.7049465188292388  0.1811207583541474
  0.9082741259367495  0.7987863986425978  0.3042019347692886
  0.8885331446481572  0.8966017269170976  0.3919778993260152
  0.8841561045388104  0.9812112584248496  0.4896344110854471
  0.9062484545411706  0.0976116793137578  0.5815870806428833
  0.9845788400810704  0.1952402705377736  0.8034930739501362
  0.9941258533251656  0.3048248998444620  0.9078707225338150
  0.9928296403827090  0.3645811175001157  0.0164215322618659
  0.9944602926898227  0.4862071560541068  0.1021452849130426
  0.0030580972804799  0.6008956049394385  0.2082813079134667
  0.0045043154074591  0.6922098972522051  0.3168807508130271
  0.9998468030353038  0.7899210953480704  0.4169459136541462
  0.0044228147240446  0.9030346264787639  0.4922409987274321
  0.0155866503275703  0.9808469137955385  0.5944332478672791
  0.9871105019559820  0.1126781962577184  0.6881548588396100
  0.1025107446858655  0.2045146231795272  0.8990485450346455
  0.0870196498091147  0.3135040274308309  0.0128617476551796
  0.0954703916670567  0.3940785846255395  0.1249584427581638
  0.0905937531224978  0.4960086826601326  0.2096959292077116
  0.0856600457180576  0.5913668826884120  0.3186443427440224
  0.0959973521232982  0.6948666960456222  0.4180946660696634
  0.1097469906207280  0.7794549446198786  0.5060024725456032
  0.1149586322288698  0.9004932478672742  0.5871430706508960
  0.1005448946599401  0.9942679210067382  0.7060024060894534
  0.0999198524767877  0.1105135636517858  0.7873610039119541
  0.3030750247443095  0.3153899326012137  0.9981371668944732
  0.3130604741480880  0.3848419413677746  0.1140076179478697
  0.3151424136305820  0.4866508163265308  0.2178197869632825
  0.3005601772163828  0.6063903322807178  0.3148627416694154
  0.3005228538436171  0.7169897106094183  0.3834511806570191
  0.3166766097940297  0.8124560724890415  0.4812510934627880
  0.2971803464203262  0.9128718720837057  0.6044385690719736
  0.2951171386152609  0.0173574897487896  0.7138533510863923
  0.3185013310081573  0.1075263769618715  0.7956814889004136
  0.3026975830701772  0.2145769741245260  0.8991223217231479
  0.4169383253994425  0.3085813880378936  0.0922923481170770
  0.4250098831126010  0.3951228882499862  0.2164858731206110
  0.4068850247443123  0.4993005768958838  0.3143778083612219
  0.3916664830089047  0.5855191817881860  0.4064973893575896
  0.3864800014139576  0.6834677513314773  0.5014243677239918
  0.3936547560918129  0.8188116576330273  0.6014798161851331
  0.3879243535843884  0.9075667789979747  0.7021917226752166
  0.3896996163453821  0.0033166404298441  0.8103997577414361
  0.3915173893575883  0.1024037498232531  0.9147538624687783
  0.3973138568129357  0.2118344162699728  0.9920399132770896
  0.5175072460762564  0.3069081166046104  0.2053172036574438
  0.4937274355469654  0.3936571824480382  0.3315276433991627
  0.5162873186595647  0.5167939769995726  0.4280345081774044
  0.4897135872177998  0.6049574822076664  0.5271733426026302
  0.4946476617806468  0.7165215402743073  0.6276909921289544
  0.4954902252910429  0.8193144044869669  0.6951278781166081
  0.5001734750435958  0.9011675156713963  0.7931890752698294
  0.5021313041429067  0.0139752622896765  0.8908456077673534
  0.5026683979827524  0.1089421242399951  0.9826523325635108
  0.5045508874958742  0.2063488372531452  0.0876608342366936
  0.5987305406042296  0.3026043460432675  0.3076508054861691
  0.6022721492199636  0.4001959669133228  0.4104945562520612
  0.5988352839704021  0.4989535443276623  0.5163612254324335
  0.5958301187726818  0.5983976881745789  0.6205619512654934
  0.5940111264552002  0.6911746646556978  0.7070110774379046
  0.5898223344487903  0.8006393302540431  0.8083510868643060
  0.5872245963142788  0.8862042418815079  0.9067498755714780
  0.6030763255879705  0.0031452933968055  0.9905653961446035
  0.5896021129283113  0.1139186586228007  0.0886271343733824
  0.6038092553141325  0.2060604402130366  0.2001238464438870
  0.7157842767592015  0.3007012574822099  0.4023720106518383
  0.7022799406136571  0.3833338629400984  0.5124378767026414
  0.6986788768440420  0.4981018343780903  0.6054647711740557
  0.7035516392515433  0.5988588810859241  0.7041659829382070
  0.6960462388650583  0.6998366762501789  0.7932839105434297
  0.6892453541971051  0.7796696672479584  0.9156690488758983
  0.6783411000612745  0.8953122081349889  0.9943727963425530
  0.6963885181693925  0.9954941791959300  0.0928605891502130
  0.6828332530517969  0.0877706461799477  0.1946703369939229
  0.7124601659047016  0.1895643733798380  0.2859326162982541
  0.7942370797002383  0.2735285926379802  0.5146777499175172
  0.8081181283876120  0.4040753405288200  0.5896035349012578
  0.7906592958476679  0.5083993033887921  0.7176111382382047
  0.8065069788377244  0.6089975133147973  0.8081642300985052
  0.8160448230192756  0.7047467667436464  0.8949901484658511
  0.7961695588443263  0.7732772220389279  0.0020075524343710
  0.8135695338643529  0.8950372347645725  0.0895810967620321
  0.8023613097987479  0.9755087797520829  0.1968285775557348
  0.7897540015082214  0.0946939039449504  0.2648657675448902
  0.8136557430362430  0.1671057029740268  0.3965772215676111
  0.9011091115614818  0.2986333539143118  0.5990340651364505
  0.8980483089032347  0.4067415808078394  0.7130812970731029
  0.9087306221426203  0.5028719771881072  0.7980853782344326
  0.9257305863222882  0.6098797525569140  0.8851456982608283
  0.9071147386529645  0.6997680798416397  0.9973641381910738
  0.9083670179572962  0.7865396686619235  0.0975862431069459
  0.9204416477353092  0.8808194716500921  0.1924123028703377
  0.9009283225715237  0.0077937653768174  0.2903366135645911
  0.8935559659706840  0.0823322251025118  0.4151491487957770
  0.8949906513644734  0.2001905995192530  0.5009246882217084
  0.9967101875854283  0.3213699967007599  0.7105033383607520
  0.9956567200829554  0.4111356591412516  0.8170963123910084
  0.0100107654239494  0.5145604750907324  0.8963554461045362
  0.0253112056369886  0.6103554050996820  0.0106762233114921
  0.0090485110995928  0.7019455059622004  0.0944687048121793
  0.0078788396097451  0.8053237870575458  0.2126655153886006
  0.9972426087571264  0.8828291040203595  0.2997027473252558
  0.9962121129283119  0.9907760536362318  0.4041116680020735
  0.0013937927133867  0.0891933534429938  0.5114369284064679
  0.9897527690059889  0.2158176405712382  0.5886956228495990
  0.0898295824103315  0.2785156874204660  0.8052114709902440
  0.0965536282226509  0.3901366135645929  0.8888678352264705
  0.0865788245274999  0.4727084762218965  0.0123826945374006
  0.1030568685488049  0.5971192567280923  0.1282937026912379
  0.1008307305462566  0.7106426436348201  0.2084429052175167
  0.1163452467361097  0.8137075543196488  0.3095275745864186
  0.1146091850874313  0.9041381340434569  0.4072214497808346
  0.1027513112127068  0.0028626992505991  0.5056412876466965
  0.0735479068671339  0.1156378003487788  0.5927045416411403
  0.0870064976198321  0.2071404029787445  0.7000751868784434
  0.1977088226422197  0.2992677466182769  0.9020681712777474
  0.2101882683697056  0.4158408262242546  0.0019393203563212
  0.2057192199651254  0.4854422128481843  0.1052637460526924
  0.2057268855163343  0.6089370212565370  0.1982415610123951
  0.1970810896922259  0.6959858636942045  0.3166977612292001
  0.2277949865673747  0.7873957623603687  0.3981411292831254
  0.2151502234057574  0.8980965895272632  0.4921042253853045
  0.1935847937974273  0.0120342197294647  0.5986459702125657
  0.2054741117971446  0.1108718164679274  0.6855302936324676
  0.1933860399679475  0.1956074605269364  0.8099370485931061
  0.3865511396521626  0.4049640180044278  0.9702769326483462
  0.3885655417825333  0.5027313310081567  0.0792541066126233
  0.3907357166423182  0.6033785308950357  0.1987077362492329
  0.3948528990903526  0.7069020705094999  0.3056386586228044
  0.4094352377810253  0.8115864980911525  0.3955821633595704
  0.4164363661215091  0.9087180633454324  0.5038569906207258
  0.3996296903426497  0.9908228981477123  0.5996600994485561
  0.3945737163595240  0.0899506546637099  0.6923693839845413
  0.3880432341989888  0.1921666936890247  0.7989892048828793
  0.4073638945185465  0.2881944134420493  0.8790263519818993
  0.5029219314700484  0.4026326648442264  0.0590285954658967
  0.4845759824668932  0.4810922218032729  0.2001230428430034
  0.4894228420606126  0.6086329188857960  0.3116445161898511
  0.4958573973700311  0.7006173907715478  0.4105734448791054
  0.4833758316444374  0.7972262567752253  0.4960091450252122
  0.5072014667483629  0.8883653994438419  0.5824811420087670
  0.4877334948390413  0.9920188136871388  0.6981450718763256
  0.4857084215487575  0.1066890012725636  0.7931731663288843
  0.5073044384220182  0.1674365405099678  0.8886382514021776
  0.5153613993495796  0.3043232648347995  0.9755918372060108
  0.5885316929820448  0.4187287217797078  0.2135802644106164
  0.5875405340057469  0.4966756855351875  0.3129170938398431
  0.5854823415185919  0.6050879266625842  0.3984225908469625
  0.5964622411273979  0.6950654913512722  0.5146790352076138
  0.6126072757694274  0.8009830923316201  0.6227818730263479
  0.6143218207098116  0.9006958203327500  0.6948673379836947
  0.5977240467549620  0.0025522788330079  0.8009679968892840
  0.6274302342461198  0.1102389305745390  0.8844996370834721
  0.5970046745534248  0.2080624207003794  0.9904145350426532
  0.5906136682848668  0.3104731851816922  0.0825498981948414
  0.7125194047226273  0.4055830833765413  0.3089458759485311
  0.6877613668284894  0.5005871282462167  0.3973408384785770
  0.7110598793420380  0.6041763246453300  0.5035367870104182
  0.7031485426780435  0.6877788457369078  0.6057264731111829
  0.7040864453032967  0.7846338139227953  0.7308580270537774
  0.6944786444831976  0.9053644454918199  0.8222691285290082
  0.7073693957675431  0.0045794047226266  0.9099226780411911
  0.7009036800678672  0.1110550096620599  0.0260713988782584
  0.7039832497525538  0.2085128797662250  0.1086719187444061
  0.6894337809303863  0.3061136711127901  0.2098376914738154
  0.8035908516755441  0.3993570179572998  0.4062359381627942
  0.7808598868831567  0.4897997869632817  0.5073707211198553
  0.7981915638403194  0.5819381840033913  0.5942488975821263
  0.8087950643352002  0.6794003695150082  0.7158751425743475
  0.8046945081774055  0.8022757878116593  0.7981748234905979
  0.8054404831031690  0.8816225210915789  0.9185827162181255
  0.7903522722345286  0.0038683960974666  0.0034653904887563
  0.7818206207286593  0.0978786209171858  0.1097786138473893
  0.7974974977612277  0.2028987788094483  0.1818467115991922
  0.8009459796389677  0.3001931257953530  0.2916159786963277
  0.8964832846302500  0.3872101248998447  0.4892619112032790
  0.9053329005043125  0.4843620822924990  0.6024309355705313
  0.9100850874298914  0.6003575623320927  0.7072798044021269
  0.9019301762737442  0.7031691290003295  0.7904462864683950
  0.9153348244332378  0.7874396384974318  0.8989759070556644
  0.8911452679455181  0.8893794815478131  0.9901722486685216
  0.9158772328792963  0.9855492845359848  0.1056324711316421
  0.8927531361643943  0.0973680704152358  0.1750376188905136
  0.8849842343403864  0.1989172691709484  0.2855441042560187
  0.8859683725314582  0.3058328001131159  0.3850279177074967
  0.9925592449450917  0.3997691770749867  0.5904045576660195
  0.0212982608285799  0.5005738172220404  0.6867828529009756
  0.9968047721166968  0.5999568167035889  0.7792906692746371
  0.9948666852052597  0.6968752085591774  0.9002530777206985
  0.0019003827119732  0.8090673747466681  0.9985188264127842
  0.0055284851769812  0.9159640114059471  0.0848207493990643
  0.0039075774143384  0.0035608299948180  0.2079907352594645
  0.9887329358533279  0.1223422477258822  0.3045509289720485
  0.9810623250223856  0.2066741367771101  0.3769079827496853
  0.9993731168402675  0.3123328868360247  0.4778575543196482
  0.1056116769571602  0.3806628764669853  0.6925022321723162
  0.1047130423716851  0.5038595998491786  0.7942338021397930
  0.0947725083659350  0.6072377810246508  0.8898779563557540
  0.0964304430409584  0.6953953933166801  0.0075531559598403
  0.1003521548758073  0.8133780760710749  0.1212243262478196
  0.0874827049064422  0.9084885200546751  0.2021185723712122
  0.0949202677098526  0.0119228844794250  0.3095306367535500
  0.0970933496724342  0.1064534359240241  0.4188871673657886
  0.0808097775368779  0.2275246194089675  0.4833188980534473
  0.0834409713908641  0.3142171631239066  0.5891353848329146
  0.1908474412028056  0.3855132049771441  0.8058108054861677
  0.1715789338737821  0.4980222477258778  0.8774217599095095
  0.1813148974878658  0.5727642409388665  0.0012911123155988
  0.1900020747513764  0.7043054833388354  0.1054811608615722
  0.1949744982796844  0.8059750271009065  0.2137038106235565
  0.1994065697318206  0.9221081741056665  0.2953106980251690
  0.2026622632794428  0.9988141702408413  0.3928113710703656