Li 
 1.0000000000000000
    21.2169999999999987    0.0000000000000006    0.0000000000000000
     0.0000000000000006   21.2169999999999987    0.0000000000000000
    -0.0000000000000006   -0.0000000000000006   21.2169999999999987
 Li 
 500
Cartesian
  0.0875487000000000 -0.1649598300000000 -0.4039015500000000
  0.0726579500000000  2.4041483299999999  1.6658626599999999
 -0.1373377000000000  4.0880248600000000  4.0523520800000004
 -0.5201530700000000  6.3813496100000000  6.5173665500000002
  0.0631395600000000  8.5835035400000006  8.1666093100000001
 -0.1872094700000000 10.7999501700000007 10.7858321099999994
 -0.1573786100000000 13.0885314099999999 13.1514215300000004
  0.0546525800000000 15.1194725900000009 14.6473498400000004
  0.0719999500000000 17.2048419099999990 17.0658888600000012
  0.2650368600000000 18.9962650599999989 18.9131614100000007
  2.3580791900000002  0.4231203500000000  1.8867770900000000
  2.0569973300000002  2.4104297799999999  4.2495368500000001
  2.3510319300000000  4.3000433500000002  6.2342594399999998
  2.3304810800000002  6.6096098100000003  8.2757757900000009
  2.0805269399999999  8.6105236600000001 10.4129245000000008
  2.3722468800000001 10.7247077500000003 12.6235775300000004
  2.0004343000000002 13.3504866399999997 14.9053014299999997
  1.7346721300000001 15.2663978700000005 16.9494988900000010
  2.1109428499999998 17.1286345299999994 19.3958902600000016
  2.4644298299999998 19.4954539099999984 21.5034001500000009
  4.1872220000000002  0.6678918800000000  4.2560151199999998
  4.4713403600000001  2.5237187200000002  6.1036469400000000
  4.5030442900000001  4.1443580200000003  8.6454343999999992
  4.3601845800000003  6.8593480299999996 10.5857119100000006
  4.5030090500000002  8.4641926200000004 12.7157296399999993
  4.1504544000000001 10.7342725100000003 14.9710709099999999
  4.3797161100000004 13.0154242399999998 16.7643738900000017
  4.2938489400000002 14.4821258799999999 19.1452454299999992
  4.1224208000000004 16.8046480100000011  0.0220043400000000
  3.8843666600000000 19.1778779499999992  2.0823429899999999
  6.2748933999999998  0.1063863700000000  5.9700619799999997
  6.2178762000000001  2.2258192800000001  8.1965405699999998
  6.3242016300000001  4.1434969700000002 10.9691865199999992
  6.0318529700000001  5.9164545899999998 12.7787685500000006
  6.2273775599999999  8.0940664499999997 15.1714453700000007
  6.2276690099999996 10.2741353400000008 16.8886597899999984
  6.2245479100000001 12.2420193699999995 19.1890675900000005
  6.3224733000000004 14.4078733099999994 -0.2153977700000000
  6.0830252299999996 16.6388486899999997  1.9932495200000000
  5.8053654699999999 19.3092387199999997  3.8271723600000001
  8.4059969199999998  0.2792680600000000  8.3137913000000001
  8.4643992400000005  2.0496451400000000 10.3432286300000005
  8.9535005099999996  3.8808741900000001 12.5721213499999998
  8.8235479199999993  6.0446370099999998 14.6414609599999999
  8.5313576100000006  8.3890380499999999 16.6418719300000006
  8.2525399499999992 10.4119723200000003 19.0256849999999993
  8.3490376899999994 11.9855527500000001 -0.0782031100000000
  8.1867240999999993 14.5374516699999994  2.2711806200000000
  8.6880621199999997 16.9074932800000006  4.0637927300000003
  8.0658087599999995 19.0728690999999984  6.0671416300000001
 10.6346169199999991  0.0496339700000000 10.0676682199999998
 10.7013925000000008  1.5683945200000000 12.3216443499999997
 10.7348193999999992  4.1360552200000003 14.6370072100000002
 10.7805914299999994  5.8149380300000004 16.7342818800000011
 10.7939023499999998  8.1316530799999995 18.9431019200000001
 11.0396419399999992 10.6346179200000002 -0.2379621500000000
 10.6237372600000004 12.6618494500000001  2.2633977199999999
 10.7472348100000001 14.5262422400000002  3.9395980499999999
 10.5657327500000005 16.6365584899999988  5.9088857900000002
 10.4997075100000004 18.6704897000000010  8.0281313099999991
 12.5757951499999994 -0.0890870400000000 12.3586612200000001
 12.7658430500000009  1.7584572999999999 14.5558029799999993
 13.0813148699999999  3.9307051600000000 16.5415825299999995
 13.0734990199999999  6.3044204099999996 18.7482501299999988
 13.1764561499999999  8.8825517499999993 -0.3643101800000000
 13.0922163400000002 10.1890884300000000  2.4689159100000002
 13.0986222899999998 12.6307922700000006  4.5625145600000003
 12.4836070899999996 14.8379788300000008  6.1012573100000003
 12.3422013400000008 17.1855509399999988  8.4013256999999992
 12.8632573899999993 18.6605530699999989 10.6843178400000003
 15.2243454299999996 -0.0225985700000000 14.7524806099999992
 14.9720885799999994  1.6325010700000000 16.5176503399999994
 15.0966596699999993  4.2012464400000002 19.0278054899999987
 14.8843815999999993  6.9049741899999999 -0.0081414400000000
 14.7368234000000005  8.5117292899999999  2.0620252500000000
 15.3709004599999997 10.6867730900000009  4.6061272300000002
 15.0186536499999992 12.6694958900000003  6.2102858799999998
 14.2511330300000001 15.5194419400000001  8.4721897300000002
 15.0246452799999997 17.1031496099999991 10.7531146900000003
 15.0217098399999998 19.4288990800000008 12.9520166099999994
 16.9349755500000008  0.0781646900000000 17.4435418099999993
 16.6553356999999984  2.3931590300000001 19.1319370400000004
 16.9578812700000015  4.3456480199999996  0.1666143900000000
 16.9106011299999999  6.3493805099999996  2.1087878899999999
 16.7121057300000011  8.7730747000000004  3.5667968299999999
 17.2629810399999997 11.0604592900000007  6.3490782399999999
 16.8505635900000001 12.5400540500000002  8.4228600500000006
 16.6307395500000013 14.8483533899999998 10.4117341000000003
 16.4120460299999991 17.2670779400000001 13.2479616100000008
 16.9968264100000006 19.7077541200000006 15.2460057199999994
 18.9559421499999985 -0.1456136300000000 18.7255189599999987
 18.7315885900000012  1.9544024900000001 21.1621840799999994
 18.7639330099999988  4.2278530800000000  1.6550876600000000
 18.8207649100000012  6.1986735900000003  3.8689993199999999
 18.9697355799999983  8.7666790799999994  6.1091844000000002
 19.2562476599999997 10.7442584300000004  8.5653092300000004
 18.7089639199999986 12.4689935700000003 10.7801676299999993
 18.3416130399999986 14.7600953399999995 13.0588619399999999
 18.8597946800000003 16.9758705700000014 14.8588840599999994
 19.2405195400000011 18.7935557499999994 17.3193615799999989
  2.0392868599999998  2.2758445300000001 -0.2222944100000000
  2.1288192399999999  4.4402004200000000  2.2908542800000000
  2.4638101699999999  6.0113404099999999  4.4552914299999999
  2.1465246300000000  8.1253421400000008  6.0805257700000004
  2.1138385500000001 10.3410507099999993  8.4304304299999995
  1.9690498999999999 13.0125769299999998 10.7687188400000000
  3.0546606600000001 15.0943022500000001 12.9850557700000007
  2.1570568400000001 17.3904805700000011 14.9333685700000007
  2.4281741600000002 19.0190779399999990 17.1032425199999984
  2.4382456600000002 21.5792688999999989 19.1680337099999996
  4.2582655200000001  2.8929379700000002  2.0196348099999999
  4.5546797300000001  4.4450455299999998  4.1663565299999998
  4.4747700400000001  6.0598356700000000  6.3107216700000004
  4.3406859700000000  8.4287541499999996  8.2866231599999995
  4.2304919200000004 11.0455351600000000 10.3949357800000008
  4.6690685700000003 12.5314140500000004 12.8205345800000003
  4.1422582900000000 15.2970230600000008 15.2860343600000004
  4.1529075300000002 16.7617086300000011 17.2131426599999990
  4.3037213799999998 19.4227313600000002 19.1903934900000017
  4.4983506300000000 21.7164853200000003 21.3927580699999993
  6.7316077200000004  2.3740594100000001  4.2150056500000002
  6.7793311400000000  4.0238423299999999  6.3454093299999998
  6.7861568600000002  6.5745279600000002  8.4419138700000005
  6.1670610799999999  8.5809151000000004 10.8840242200000006
  6.6169908000000000 10.4035897899999998 13.3769351600000004
  6.3766230200000003 13.1026562900000005 14.9940610599999999
  6.3600647199999996 14.4154225900000004 17.2597671300000002
  6.4707771699999999 17.0175974399999994 18.9238807700000002
  5.9948477200000001 19.1840904499999994 -0.1698030300000000
  6.5818411100000001 21.9535743399999994  1.8462537000000001
  8.5969777199999999  1.8930793699999999  6.5308982200000001
  8.5028326100000005  4.2820341400000004  8.6487889100000004
  8.7708522799999997  6.3512114899999998 10.9993821399999998
  8.5234743200000000  8.1710114199999992 12.7685094600000006
  8.2161296700000008  9.8947925100000003 15.1258654499999992
  8.0211526099999997 12.3074360699999996 16.9716974600000015
  8.7718483200000001 14.4164424699999998 19.4079457600000005
  8.3985929299999995 17.2965522500000013  0.1183624000000000
  7.9912574799999998 18.9536164199999995  2.3245084000000000
  8.8801207299999998 21.1342221799999983  4.2210264600000000
 11.0431059999999999  2.3522039600000002  8.4901423999999999
 10.7123356800000007  4.0191349000000001 10.5327864099999999
 10.9522982599999992  6.3128728499999998 12.7051950900000001
 10.9266447899999992  8.2623085399999994 14.9090970699999996
 10.7725118700000007 10.6821146200000001 17.0846142699999994
 10.4935241900000005 12.3360240399999999 18.8234275500000017
 10.1289434800000002 14.2827118899999999 -0.0769228400000000
 10.4726700400000006 17.0228705200000014  2.0100696800000000
 10.6693822800000007 19.2499946299999998  4.4751977600000004
 10.6020763799999997 21.1994060600000012  6.4561285300000000
 12.9785625600000003  1.7760574800000000 10.3319503200000007
 12.7482169800000005  4.2704747000000003 12.4748492500000001
 12.8380232299999992  5.9281395300000002 14.8981057799999999
 13.1895880000000005  8.2377301200000002 16.6991132399999991
 13.2396674700000005 10.2369985000000003 18.7995007100000002
 12.6331072100000004 12.3583524499999999 -0.0605544700000000
 12.8403703900000004 14.7150981600000001  2.0611389800000000
 12.7567642299999999 16.6723628200000000  4.2692631499999996
 12.7854182800000000 18.8516343400000004  6.2762059499999996
 12.8534635799999997 21.3236119399999993  8.2554045400000007
 14.8782641299999998  2.1145298200000000 12.9077962100000008
 15.2944251500000004  4.0266642299999997 14.9152365699999994
 14.9688911699999991  6.4760180700000003 16.9168243499999988
 14.9671109500000004  8.6848354899999993 18.9666222299999987
 15.0805914300000001 11.0914967699999991  0.1183066700000000
 15.1257892300000005 12.7074035199999997  2.1201516499999999
 15.2588656000000000 14.8439801899999999  4.1451315099999997
 14.7385476299999993 16.7074605600000012  5.9233582900000004
 14.5218964300000000 18.8369594199999995  8.0987567299999998
 14.8912717800000003 21.1630707700000009 10.4989431199999999
 17.2835298600000016  2.1888835100000001 14.8145356199999991
 17.0442726799999988  4.5748445000000002 16.9612734600000010
 16.9572798400000018  6.6194814600000003 19.3035562700000014
 16.8208205900000003  8.6802339600000007  0.3926627000000000
 17.1859218499999997 10.8534647500000005  2.3993152700000002
 17.4413886600000012 12.8325988899999999  4.1204516599999996
 17.3924129399999998 14.6119900099999995  6.3769631200000001
 16.8690076900000001 17.1200684999999986  8.1507768800000004
 16.7298071399999984 19.0126630799999994 10.4700208200000002
 17.3586609100000011 21.3110648500000011 12.3857662099999999
 19.1707603099999986  2.1553348400000001 17.1757772700000011
 18.4436515999999990  4.1506238000000000 19.3093290899999985
 18.5832801600000010  6.2035669699999998 -0.1191992300000000
 19.2088587699999991  8.0879913400000003  2.0703738199999999
 19.0558849099999996 10.7654260199999996  4.2177940600000001
 19.3309852199999987 12.7853143599999992  6.5275406699999996
 19.2658204200000007 15.0212094399999998  9.4736427400000007
 18.7548554000000003 17.2439180599999986 10.9718495300000001
 18.9217465999999988 19.2671713599999990 12.6506926800000006
 19.2661565800000005 21.1535930400000005 14.9753178299999998
 20.9616323099999988  2.4144689000000001 19.1679226400000005
 20.8750708899999999  4.3586321600000000 21.2928716999999992
 21.2152754399999992  6.1301237300000002  2.2736024200000000
 21.0355500800000002  8.2985088499999993  4.0870734700000000
 21.1665926099999986 10.3681917499999994  6.2191454799999999
 21.4041875700000013 12.7498311100000006  8.8740728999999998
 20.6899494699999984 14.8953764500000005 11.2009699000000005
 21.2079000800000017 17.5492789100000017 12.8165382999999995
 21.5107771399999983 19.2317514600000017 15.0281170500000005
 21.3299480000000017 21.3908567599999984 17.2846752399999986
  4.3597072099999998  4.7358552300000003  0.1361343600000000
  4.2409723699999997  6.5826781800000003  2.3756127000000000
  4.2684670100000002  8.2168590500000001  4.6045274000000003
  4.3342878000000002 10.9867996800000007  6.3061329900000000
  4.3980512400000000 12.7697984099999999  8.4784628600000005
  4.3879282999999996 14.5484785300000006 10.8558819300000007
  4.4429211500000001 17.2054025300000006 12.4678127300000003
  4.1606810899999997 19.4243655900000007 14.9501435100000002
  4.0704797299999997  0.6287499200000000 17.4106162799999993
  4.6002001899999998  2.3507566000000000 19.2787348600000001
  6.4682233299999998  4.7927962099999997  1.9533769000000001
  6.3089592699999999  6.4336041000000002  4.3787294299999999
  6.4928834200000001  8.5904317500000005  6.5021527800000003
  6.6594319799999999 10.4361014799999996  8.6875780299999992
  6.4631819100000003 12.4686076999999997 10.8828292700000002
  6.2294267999999997 15.3346184399999999 12.7273029900000001
  6.5810171500000001 17.0164404100000013 15.6091433800000008
  5.6292014100000003 19.3993203899999997 17.0163156399999984
  6.2625252600000003  0.0932890200000000 19.3800893099999989
  6.3496070600000003  2.5501460800000002 21.1505017600000009
  8.7433835900000005  4.3972957499999996  4.2443517399999999
  8.5384966900000006  6.2805798399999997  6.5975443299999998
  8.4450124500000001  8.3762078100000004  8.7241914000000005
  8.4030157600000006 11.0422263500000000 10.8430531400000003
  8.6337874499999998 12.6786745100000005 13.2470969899999993
  8.2200173499999991 15.1767739400000004 15.2934914000000006
  8.6768657000000005 17.2081109699999999 17.0555384399999994
  8.1194041899999991 19.2518856999999990 18.8845916100000011
  8.0774903100000000  0.1501885700000000 -0.0101421800000000
  8.5809591300000001  2.4828158199999999  1.9330118300000001
 10.6612218100000007  4.4372944399999996  6.3525897699999998
 10.3094797099999997  6.2003762399999998  8.4099939300000006
 10.7268027000000004  8.2721403500000008 10.7841645800000006
 10.4162704300000009 10.3345083700000000 13.1329709900000005
 10.1494218499999995 12.6796248699999996 15.1033083099999992
 10.7212524400000007 14.8686126699999992 16.7062667100000013
 10.3397333200000006 16.9855790800000008 19.3042251399999998
 10.0508996199999991 19.3051909200000011  0.0412386400000000
 10.5310291700000001  0.1827086900000000  1.7363241100000000
 10.5430348699999996  2.2062834499999999  4.3050680400000001
 13.1457432000000001  3.9291458100000001  8.1500012500000008
 12.8292095100000001  6.2268426600000000 10.5589246600000006
 12.8723240400000005  7.9772888499999999 12.6725169700000002
 12.7671971499999994 10.4153005800000003 14.8442568200000000
 12.6603027600000004 12.7132988999999998 16.5419446800000003
 12.2752812799999997 14.7737372100000002 19.4096287899999993
 12.0916304399999994 17.0482059799999988  0.3625757200000000
 12.5834329500000006 19.3356455199999999  2.3547533600000001
 12.5549834899999997  0.1391609600000000  4.2105528500000000
 12.6678051699999994  2.1015783899999998  6.2345367800000000
 15.0148177000000000  4.0316622899999999 10.5124969600000000
 15.2012916699999998  6.2732156899999998 13.1780340900000006
 15.0478120400000002  8.4543131999999996 14.8529266199999999
 15.4124748700000005 10.6303347899999991 16.8953480899999988
 14.8696109599999993 12.9932223600000007 18.7336133599999997
 14.5943512599999998 14.4430001600000004  0.0015475500000000
 14.8951247000000002 17.1959986399999991  2.1120963399999999
 15.0713576000000007 18.9140051000000007  4.4060825699999997
 14.5817233599999998 -0.3399646100000000  6.3286746200000001
 14.8501973199999995  1.7913353900000000  8.1001291999999996
 17.3679828500000006  4.0664728900000000 12.9527648400000004
 17.2100073599999988  6.4691628899999998 14.7321594699999991
 17.2116150200000000  8.5320794200000005 16.6134633500000000
 17.2878438999999986 10.6114864699999991 19.0586146800000016
 17.4700460399999997 12.7336967600000008 -0.1901252500000000
 16.5181463300000004 14.6358656800000002  1.9881856300000000
 17.3172832499999991 16.9681763699999983  3.7653643099999998
 16.8347145900000008 18.3780661300000006  5.8273260000000002
 16.3949442599999990 -0.0910654300000000  8.2262353200000007
 16.6228313800000009  2.1596968799999998 10.5522710199999992
 19.2605288299999984  4.3037664600000003 15.0839116600000001
 18.7728870299999997  6.6107787099999999 17.1721967199999987
 19.1486925300000017  8.1646622000000004 19.1957395800000015
 19.4660188299999994 10.8875709799999996  0.1326305300000000
 19.3186060300000015 13.4457235199999996  1.9467220300000001
 19.3626810999999996 14.9568502900000002  3.8428391300000002
 19.2708521300000015 16.9478510200000017  6.4542524500000003
 18.8520077300000004 19.0231988399999992  8.3165950899999999
 18.7591400700000008 -0.3986407300000000 10.3885732999999991
 19.2278734600000014  2.0710270000000000 12.3395330899999998
 -0.3271907500000000  4.1424128199999997 17.0477125500000000
 -0.1246317700000000  6.4674699000000002 19.2622931199999989
 -0.1521335200000000  7.7353175700000003  0.3484156500000000
 -0.1175359700000000 10.3158572300000007  2.1672165099999998
  0.0648836500000000 12.7492020499999992  4.4191045100000004
  0.0955680600000000 14.6866173900000003  6.7232588900000003
 -0.0032503800000000 16.7597558800000002  8.8463414500000006
  0.0938388600000000 19.1596856699999982 10.4438772699999998
  0.3307019600000000 -0.4063710300000000 12.6120902200000007
 -0.2734764800000000  2.3906932900000002 14.6005816399999997
  2.1749704699999999  4.3391867599999996 19.0751129800000001
  1.8462959100000000  6.6516149499999999 21.4898877000000006
  2.0255953000000000  8.3611653300000004  2.6512432800000001
  1.9221276599999999 10.5238162200000005  4.4491185299999998
  1.8174491900000000 12.5470311500000005  6.7606770200000001
  2.0367758199999999 14.7429866900000004  8.8707145300000008
  2.3285019000000000 16.5376955599999995 10.7358544600000005
  2.4390773000000001 19.1057652400000002 12.4574145299999994
  2.1332610299999999 -0.1216175200000000 14.9792530500000005
  2.1199995100000000  2.3447662800000000 16.7054384200000001
  6.4303428000000000  6.6916282000000002 -0.0395237300000000
  6.6422040800000000  8.1651914699999999  2.4188996299999999
  6.6863765900000001 10.3252703700000001  4.6214824200000004
  6.3769852800000004 12.8657836799999998  6.6804427899999999
  6.3761933900000001 15.2123706900000002  8.1356836999999995
  6.7189276299999996 17.2378804899999984 10.2107044499999997
  6.3052754100000001 19.3684025099999992 12.8243731200000006
  6.2615003299999996  0.3682738600000000 15.1458265500000007
  6.7576427399999996  2.2813871400000001 16.8819741500000013
  6.4223346200000000  4.5526796599999999 19.0766783000000011
  8.8461804500000003  6.5471713100000004  1.9581667500000000
  9.0174346900000000  8.3833223199999996  4.5931807700000000
  8.6328795700000001 10.5936603399999996  6.6701539600000004
  8.3099877699999993 12.4229604800000004  8.6246551100000008
  8.1999461900000004 14.5011352799999997 10.6387208100000006
  8.3521729600000008 17.3727269399999997 12.7615972600000003
  8.2305910099999995 19.2558443500000003 14.8984017800000004
  8.2682567599999999  0.0703691600000000 17.1942516599999990
  8.3068244500000006  2.1727003599999999 19.4083326999999990
  8.4298081000000007  4.4944908100000003 21.0481108399999997
 10.9799512400000001  6.5116695099999999  4.3562151099999999
 10.4754149999999999  8.3522244400000005  7.0340220100000002
 10.9540680399999992 10.9648178099999996  9.0816081600000000
 10.3902531800000002 12.8353829000000008 11.1850368099999997
 10.4949394399999996 15.2024375200000001 13.3177197799999991
 10.5128161099999993 17.3833937200000008 14.7485281900000000
 10.6121806200000002 19.1200711800000001 16.8290926100000000
 10.6537198800000006  0.2965131400000000 18.9010712599999984
 10.6651153999999995  2.3114250500000000 -0.3680654600000000
 10.7050561799999997  4.3781032800000004  1.8598999199999999
 12.7032658800000000  6.4203564100000001  6.5274271400000003
 12.7784081900000004  8.4909578299999993  8.7094629999999995
 12.7054882199999994 10.5862973500000006 10.9556361199999994
 12.6417276300000001 12.6962037500000005 13.1664629200000007
 12.6031340699999994 14.6646528600000003 15.0006540299999998
 12.5142604700000000 16.9871646699999985 17.1507850099999999
 12.4591442600000004 18.8025954000000013 19.2385121099999985
 12.7954703999999992  0.0667336900000000 -0.2001739900000000
 12.5095880299999997  2.4170121800000000  1.8804019100000000
 12.8110209699999995  4.3719843599999999  4.2460276500000003
 15.1867950000000000  6.3799785800000004  8.5371269499999993
 14.9002735000000008  8.1331945700000006 10.8723944299999999
 14.8238697300000002 10.5682266200000008 12.8461460499999998
 14.9272551300000007 12.7059888799999996 14.9402896599999995
 14.7680130500000004 14.8484347600000000 16.8311047299999998
 14.6237186799999996 16.5422513299999991 19.4277502099999992
 14.3923631200000006 18.9958391199999994 -0.1193923800000000
 14.7752751900000003 -0.0956000000000000  1.9702231200000000
 14.4876731299999992  1.8622297999999999  4.1303205399999996
 15.1162673400000003  4.0219873100000001  6.0666323200000001
 16.8513281200000016  5.8034561499999997 10.9199178200000002
 17.1458423300000007  8.5732665000000008 12.5096182000000002
 16.7754182800000002 10.7867080200000007 15.2255555200000003
 17.1116585699999995 12.9211002399999995 17.1468204700000015
 17.3140230099999997 14.9526121500000002 18.9890059800000017
 16.8923295300000014 16.4066228199999991  0.0425942400000000
 17.2615048000000009 18.9900050100000009  1.9006421300000000
 17.0236999100000013 -0.5196302200000000  4.1761119300000002
 16.7562106499999999  2.0091205599999999  5.6196569900000002
 17.2633338999999992  3.5454816999999998  8.4141789100000004
 19.1188320199999993  6.3361038699999996 12.7097057600000003
 19.0538909700000012  8.6298361200000002 15.1294458800000005
 19.2805376099999997 10.6694347399999998 16.9329774700000009
 19.6412258500000014 12.9398187100000008 18.7801362800000007
 19.2462534100000013 14.8469793499999998 -0.0559250800000000
 19.2728230200000006 16.6880121499999987  2.0704873199999998
 19.5290104400000004 18.6883467299999992  4.0824118299999999
 19.1149962199999983  0.1653603200000000  6.1600719300000000
 18.9585769299999995  1.7468428199999999  8.8082194900000008
 18.9890166499999999  4.2474439500000001 10.6281191100000001
 -0.0697999500000000  6.8185072199999999 15.0747493299999995
 -0.0921513700000000  8.7230652800000001 17.3363324600000013
  0.2123984100000000 10.9174296000000002 19.0179735000000001
  0.5370278500000000 12.9499106299999998  0.2265174300000000
  0.1919822600000000 14.8931778000000001  2.0043425099999999
  0.1671653400000000 17.0865547900000010  4.5121242400000003
 -0.0585035700000000 18.7309851000000016  6.3587931900000001
 -0.0803676000000000 -0.1957044700000000  8.5740372600000008
  0.0295721000000000  1.8924153800000001 10.8511573099999996
 -0.2174155000000000  4.5790028800000000 12.4903550299999999
  1.9059142499999999  5.9092673400000004 17.0841717799999984
  2.0485783299999998  8.2775285299999997 18.8591088599999992
  1.8369429200000000 10.0294557399999995  0.2627236300000000
  2.1865575800000001 12.6690792699999992  2.7220074900000002
  2.1393256100000002 15.0777049699999992  4.4225331199999998
  2.4684971000000000 17.2644331800000010  6.5672465500000001
  2.4316630799999999 19.1830987899999990  8.6400175000000008
  2.1800745699999999  0.0607378900000000 10.7281911999999995
  1.5604659400000001  2.4534872100000000 12.5754122600000002
  1.8460168600000000  4.3948979300000000 14.8534952400000009
  4.1947880900000003  6.3495637800000004 19.1391803899999999
  4.4595644900000000  8.8228948099999993 21.2581465600000001
  4.3647446900000002 10.2996274299999993  2.2333808999999998
  4.3649073300000003 12.9198167799999997  4.2060912000000004
  4.1814694799999996 14.7667320699999998  6.7193763999999998
  4.8331262300000004 16.7061758900000008  8.4473603399999995
  4.5648422899999996 19.0549153400000009 10.4409753500000004
  4.1072885699999997  0.2553300400000000 12.7014715500000008
  4.3595442300000000  2.3523673299999999 14.5448962399999999
  4.1030716099999998  4.1502034900000000 17.1844343600000009
  8.2014555300000005  8.5921215699999998 -0.6306343200000000
  8.2441951000000007 10.6664506499999998  1.6815343800000000
  8.2902397000000008 12.8018822900000000  4.2159820400000001
  8.3775939600000005 14.9983412299999994  6.4847354199999998
  8.6869874399999993 17.2194307299999991  8.3930667600000000
  8.8355303799999998 19.2802711500000008 10.6903337700000005
  8.4789431400000002 -0.1947105700000000 12.7229883299999997
  8.3716705400000002  1.9084830399999999 14.6900012199999992
  8.2331132999999994  4.0772007400000003 16.9521539600000004
  8.6430397499999998  6.1146208700000004 18.6503021099999984
 10.6704946199999995  8.5426572499999995  1.2524097100000000
 10.2812486199999995 10.2073336700000006  4.2460106000000000
 10.3840844400000005 12.9133646399999993  6.6121616999999997
 10.5206064000000001 14.8649991799999999  8.7111367800000004
 10.2557850199999994 16.9147494899999984 10.5238260300000004
 10.7612935200000006 18.8484486800000006 12.3585023899999999
 10.3482415600000000 -0.1693368300000000 14.8125439900000000
 10.3052755800000000  2.2636205399999998 16.8287550699999997
 10.7634782700000002  3.5525010799999999 18.8542377799999983
 10.9344228099999992  6.4568267099999996 20.6991320099999996
 12.4868769299999993  8.8841672900000006  4.5315324700000001
 12.4658475099999997 10.5379680199999992  6.6391619799999999
 12.4221788400000008 12.8381505400000009  8.4533321099999998
 12.6551393700000006 14.7472045299999994 10.9199450900000006
 12.9976885699999993 16.9944582699999991 13.2135630000000006
 13.0340660699999997 19.1100632200000007 14.7430003099999993
 12.6819111000000007  0.0541517000000000 16.9941379899999987
 13.3121872799999998  2.3389393900000002 18.7664287999999999
 12.6666481799999993  4.4144603800000004 -0.2033748100000000
 12.5310501999999993  6.5873095700000004  1.7514611899999999
 15.1175242099999991  8.6052562800000008  6.5549046500000001
 14.5922329200000007 10.6209571000000000  8.4303805700000005
 15.0865574599999999 12.8188090799999994 10.6835400099999998
 14.9187026300000003 14.5926037700000002 12.8516985800000008
 14.9386021099999997 16.6475756299999986 15.5066147599999997
 14.7347534000000007 19.2091174400000000 17.4460841000000002
 15.0082564699999992  0.0971612300000000 19.3058294600000018
 14.8710733800000003  2.3562541399999999  0.5531568700000000
 14.9364126099999996  4.4240177699999998  2.3056920999999999
 14.6277165300000007  6.4948137600000004  4.4521262999999998
 17.0497870999999996  8.4731578499999998  8.6191078999999995
 16.5675042200000000 10.3920820799999998 10.7648845899999994
 16.9352304099999991 12.3469824500000005 12.6081788600000007
 17.1602048799999984 14.4148376400000000 15.1887229000000001
 17.0732033799999989 17.0218853900000013 16.9348752299999994
 17.0890307300000011 18.7053850299999986 19.4895694900000009
 16.7689041600000017  0.0820757600000000  0.0735251900000000
 16.5878881100000015  2.0766906999999999  2.3291728500000000
 16.9205044099999995  4.3049033899999998  3.8582416799999999
 16.9936708500000009  6.3691975500000000  6.1872162199999998
 19.0206858499999996  8.2154372200000001 10.3806699699999996
 19.2084481499999988 10.2767102999999995 12.7817771600000007
 19.3092752999999995 12.7377863999999992 15.0063556100000000
 19.1362525499999983 14.9191394099999997 16.7708988599999991
 19.4206589700000016 16.7071068099999991 19.0735718200000015
 18.9074291499999987 18.8699644599999985 -0.2085154000000000
 19.4321672499999991 -0.3066008300000000  2.2412041399999998
 18.9415432899999985  2.0658583500000001  3.7137731600000001
 18.7767105000000001  4.2204277000000001  6.0583892600000002
 18.7975909600000008  6.4888545200000003  8.1691373299999999
 -0.1578705000000000  8.4819026300000004 12.5266134999999998
  0.4518852000000000 10.6206746800000005 14.5714717900000004
 -0.0677931500000000 12.7292837799999994 16.5342101300000017
 -0.1089135400000000 14.7856012999999997 19.1006695499999992
  0.0403204200000000 17.1659824900000011 -0.0314260600000000
  0.1172978700000000 19.4340084299999987  1.7996418400000000
  0.0829070700000000  0.0755501300000000  4.4129394299999998
 -0.2390533000000000  2.5957354700000002  6.4616570600000003
 -0.4018006500000000  4.3850051600000004  7.9968566699999997
 -0.0133005800000000  6.6267668600000000 10.1387037299999996
  2.2407629500000001  8.0765242500000003 14.6928198600000002
  2.2216966199999999 10.6903891299999998 16.8512585799999997
  2.0107883100000001 12.8837639999999993 18.8805405999999998
  2.0459647099999998 14.7542040599999993  0.1602553100000000
  2.1291716699999998 17.2574426400000007  2.5720165300000000
  1.8561205500000000 19.2754009300000000  4.2883497500000001
  2.0139233200000000  0.2529678400000000  6.5673115199999996
  2.0600296000000000  2.2586225500000001  8.8875290299999996
  1.7145410500000000  4.8273898500000003 10.2545770600000008
  1.7703670899999999  6.6667455499999999 12.4996854600000002
  4.0492101600000003  8.1794336699999999 17.0968878599999989
  3.6403902399999999 10.5665380300000002 18.6162574800000016
  3.8469581800000001 12.1523389000000002  0.0273935300000000
  4.0312740199999997 14.9432494400000007  2.2379937900000000
  4.1367739300000004 17.1003721499999983  4.5341537499999998
  4.2308091900000004 19.5643691299999993  6.2656070799999997
  4.2998852400000001 -0.0251597500000000  8.3342788599999995