Li                                      
   1.00000000000000     
    21.6720000000000006    0.0000000000000000    0.0000000000000000
     0.0000000000000000   21.6720000000000006    0.0000000000000000
     0.0000000000000000    0.0000000000000000   21.6720000000000006
   Li
   432
Direct
  0.9854677971576251  0.9951232816537470  0.9920472023809523
  0.9334796594684391  0.0847949561646359  0.1035115342377253
  0.8259818858434826  0.1871477468623084  0.1818252260981907
  0.7448392552602456  0.2446640826873363  0.2576856819859756
  0.6695105546327085  0.3318199298634212  0.3460401559616102
  0.5710367492617223  0.4104818484680663  0.4289309057770367
  0.4716013441306757  0.5138555952380983  0.5160557876522702
  0.4028612292358815  0.6072595321151724  0.5890324423218871
  0.3221719988925784  0.6724589991694359  0.6796726937984516
  0.2403040342377238  0.7686257235142122  0.7432359413067573
  0.1419858633259494  0.8411353146917691  0.8422698767995556
  0.0764146022517522  0.9057266745108876  0.9303456990586909
  0.0624876628829796  0.9369154715762278  0.0722703073089690
  0.9932834934477697  0.9795462306201586  0.1624499197120741
  0.9365910303617540  0.0982491122185323  0.2692302593207856
  0.8138563164451824  0.1779431510705081  0.3413135723514245
  0.7473311563307519  0.2305151984126965  0.4327213007567394
  0.6752426587301557  0.3053551319675165  0.4928140319305996
  0.5887454425064576  0.4008494808970084  0.6021676619601308
  0.5052873648025127  0.5140932927279422  0.6699910534330016
  0.4079242271133268  0.5816208956256901  0.7659542727943887
  0.3263329323551147  0.6737563270579514  0.8360656750646029
  0.2473044453672912  0.7677518863049073  0.9066478433001137
  0.1708149515503905  0.8396605569398332  0.9892229300479869
  0.1634462296973069  0.8593170888704336  0.1735721368586169
  0.1032981584533061  0.9276901056663007  0.2606821179401990
  0.9739205186415631  0.9776382401255077  0.3409455038759717
  0.9590179868032465  0.1183447185308211  0.4222886701734936
  0.8433497139165738  0.1606240840716140  0.4935242243447746
  0.7616723606496834  0.2488523754152823  0.5666648532668859
  0.6772047623661877  0.3220567072720542  0.6700747669804343
  0.5904369282945723  0.4048295436507914  0.7564654125138404
  0.4811152639350311  0.5069005813953495  0.8249544795127335
  0.4060032069029162  0.6020683707087500  0.9264671793097108
  0.3121731183093388  0.7064124741602100  0.0029311004983370
  0.2445206510705091  0.7697193687707653  0.0752285363602780
  0.2527453792912482  0.7592806376891872  0.2575965411591028
  0.1819489765596174  0.8506244767441871  0.3384843069398329
  0.0780701610372816  0.9182738141380611  0.4337616085271350
  0.9719966283684016  0.0000506722960480  0.4952588552048738
  0.9380777454780329  0.0941248403469928  0.5579174312476951
  0.8534290563861191  0.1845270579549663  0.6481630883167213
  0.7684445187338511  0.2402060068290908  0.7442935718899975
  0.6694133213362861  0.3454616994278297  0.8271280546327091
  0.5825376005906264  0.4084725973606496  0.8948900701365829
  0.5050888768918398  0.4797707442783334  0.9853695861018821
  0.3925771377814726  0.5880259053156180  0.0634350230712428
  0.3390178179217429  0.6692045510335944  0.1792255680140258
  0.3315080772425247  0.6594162901439660  0.3337065637689207
  0.2589770408822432  0.7667963395164250  0.4056483573274292
  0.1777063385935804  0.8307822056109231  0.4987098846437803
  0.0724911392580267  0.9188117464931693  0.5509904023624941
  0.9842357248984897  0.0007791938907360  0.6523869836655578
  0.9362205633997789  0.0925921862310801  0.7508674875415267
  0.8180692105020313  0.1597434694536730  0.8332079992617167
  0.7630849746216342  0.2499656833702488  0.9130517063492078
  0.6746277247139147  0.3286116851236613  0.9960640813030608
  0.5766517506459934  0.3957154388150599  0.0957939890180910
  0.4858226753414527  0.4699780454042113  0.1501547189922476
  0.4486866662052407  0.5825688916574379  0.2492559403839039
  0.4355418964562574  0.5787438132152118  0.4133749686231099
  0.3059228456072347  0.6457696936138788  0.5123668498523415
  0.2437748052786972  0.7637468087855268  0.5961821160944965
  0.1678987453857488  0.8616064908637853  0.6731969970468796
  0.0658203433001106  0.9176271885382050  0.7620492188076753
  0.9869951573458806  0.0047917677187144  0.8455031584533046
  0.8934992571059439  0.0903393558508654  0.9109148560354399
  0.8505396470099669  0.1751856021594662  0.0091587504614239
  0.7347604955703204  0.2285056589147274  0.0985513182908804
  0.6662442054263593  0.3284510395902558  0.1625829397379093
  0.5893421456256931  0.4130800064599498  0.2655216717423414
  0.5000442395717997  0.4883240563861193  0.3411750004614262
  0.0647433863971969  0.0708040314691800  0.9310302344038419
  0.9842631990586952  0.1488350539867085  0.9938841578995934
  0.9183446137873759  0.2519223874123284  0.0850633776301208
  0.8350486249538562  0.3262095178110016  0.1594230204872673
  0.7592803668327761  0.4185999035622032  0.2562419356773731
  0.6562088768918386  0.5217847997416030  0.3501979231266148
  0.5471925964378030  0.6142064788667412  0.4120304042081955
  0.4986754665005506  0.6841543761535647  0.5071699986157228
  0.4122390328534493  0.7756152680878543  0.6017387721483942
  0.3289872356035417  0.8628704314322633  0.6884669693613858
  0.2549893540051684  0.9533402344038393  0.7553421313215196
  0.1563196700812099  0.0076636452565495  0.8583807036729425
  0.1924389733296437  0.9972200364525676  0.9862183910114410
  0.0866495473421907  0.0650038755075641  0.0643399732373595
  0.9879396553156141  0.1842467880214116  0.1707278608342548
  0.9191145985603555  0.2548316565153215  0.2694521686969367
  0.8201594795127320  0.3303423754152846  0.3285738828903675
  0.7361798509597648  0.4316342949427820  0.4221842732558159
  0.6311539078073096  0.5086651536544835  0.5097078017718744
  0.5788729217423381  0.5874393899963053  0.5769687846068692
  0.4876004665005524  0.6720955490956086  0.6712269832041358
  0.4121299598560384  0.7626163478220747  0.7518603465300870
  0.3000535026762634  0.8391439576411983  0.8186000498338899
  0.2468227542451089  0.9421694933554789  0.9116160700442961
  0.2496979217423387  0.9426837070874825  0.0955026462716901
  0.1542890079365051  0.0118639211886276  0.1780296064045785
  0.0631985155961630  0.0752474584717575  0.2510036881690638
  0.0329532821151730  0.1855704784976027  0.3276676638058333
  0.9249815310077523  0.2258884200812119  0.3881802127168683
  0.8443982304355870  0.3301390582318220  0.4689107281284635
  0.7288621511627937  0.4272505481727578  0.5681027214839389
  0.6530827487080089  0.4932941246770000  0.6894707396640811
  0.5817696271686970  0.5687295934846830  0.7475794278331520
  0.4920827579365081  0.6651067063492064  0.8503753502214835
  0.4269779309708355  0.7475428608342582  0.9202079019010725
  0.3115466177556314  0.8211613870431904  0.9826320736434084
  0.3250609362310826  0.8167151218161663  0.1598036660206716
  0.2552524593946117  0.9318472540605356  0.2481034076227360
  0.1765161794019932  0.0082911572536020  0.3491937610741971
  0.0673529798818748  0.0778889899409378  0.4203432802694707
  0.0099419052233287  0.1735136632521233  0.4894997171465505
  0.9282573818752340  0.2390178705241794  0.5487360801956456
  0.8388195035068264  0.3349959583794728  0.6463327823920295
  0.7591865259320798  0.4206972503691375  0.7284873980251021
  0.6870736101882642  0.4901686115725354  0.8361113072166830
  0.5944377011812492  0.6040088672019195  0.9236543217054276
  0.4806399441675921  0.6879357959579195  0.9989492483388673
  0.4124825692137293  0.7500065633074939  0.0693856183093402
  0.4302133716315950  0.7672495598006677  0.2685843097083804
  0.3284858923957188  0.8473166209856018  0.3273549086378722
  0.2526418009413050  0.9290334362310801  0.4267786300295313
  0.1696599409376134  0.0130682715023980  0.5141567714101143
  0.0411035072905150  0.0799298680324867  0.5674570238095242
  0.9956201245847183  0.1898273509597672  0.6448996903839088
  0.9153742774086382  0.2512345399593912  0.7462036009597668
  0.8419692594130694  0.3486594199889268  0.8432202648578837
  0.7386028843669266  0.4268875562938348  0.9132318973791058
  0.6689814055001833  0.4883046659283892  0.0057301808785510
  0.5644974349390921  0.5787255518641530  0.0813045533407148
  0.5057103220745631  0.7015831962901444  0.1404585151347391
  0.4818163395164277  0.6854945750276826  0.3525364733296428
  0.3889186632521202  0.7628194029162074  0.4256381764488708
  0.3244714599483203  0.8429000890550000  0.4910211960132855
  0.2617565522332939  0.9226271027131787  0.5852203100775171
  0.1423987195459588  0.0047754978774464  0.6589157438169053
  0.0780506962901413  0.1026522097637539  0.7567603571428592
  0.9906522319121436  0.1713418904577324  0.8587590873015856
  0.8901129803432966  0.2497650526024344  0.9115692118863024
  0.8421831206164612  0.3334790868401640  0.0043880283314905
  0.7706298163528942  0.4246492358804019  0.0814023698781838
  0.6600556750645978  0.5074199252491667  0.1900093913805847
  0.5776150862864498  0.5830666666666673  0.2514724944629023
  0.1700969965854568  0.1452329849575520  0.8424975645994834
  0.0672813930417107  0.2148728986710964  0.9152668692321910
  0.9648286734034670  0.3389243369324504  0.9972096511627910
  0.9253339442598758  0.4388306247692881  0.0946220741048336
  0.8220580555555586  0.4991862172388366  0.1844847688261382
  0.7408556686046524  0.5841594555186447  0.2660749081764493
  0.6573140466962002  0.6681838990402369  0.3252727390180894
  0.5826321027131769  0.7404799773901800  0.3804098754152818
  0.5028322148394224  0.8314737721483922  0.4878745413436718
  0.4296455047988204  0.8948893295496489  0.5875752071797677
  0.3393688533591757  0.9877731284606881  0.6739279651162775
  0.2310995888704284  0.0839666080657082  0.7547137813768927
  0.2587280135658929  0.0728210275932071  0.9145097379106701
  0.1601377159468456  0.1530699220191920  0.9963428612956804
  0.0836481630675507  0.2502833111849370  0.0639321045588801
  0.0110610400516791  0.3421783259505347  0.1573723357327452
  0.9013756469176784  0.4197839331856770  0.2378346793097066
  0.8520047748246569  0.5017223163528968  0.3442675226098189
  0.7450842220376543  0.5885759422296033  0.4365905131044698
  0.6534314899409353  0.6741092870985597  0.5045533891657428
  0.5699046174787767  0.7461582110557430  0.5838616440568458
  0.5203224935400499  0.8208505370985577  0.6773901153562178
  0.4312439548726488  0.9178823301956456  0.7489066029900329
  0.3424074201734939  0.0230651790328551  0.8364147605204906
  0.3458175156884451  0.0003241818936885  0.9945036881690683
  0.2718223555740096  0.0767242584902164  0.0800320519564437
  0.1536307807309001  0.1403944988925829  0.1761015633074905
  0.1087918240125489  0.2752597272978932  0.2320227256367673
  0.9915566551310420  0.3512605680140268  0.3069523606496887
  0.9263537735326679  0.4137572023809497  0.4037298731081549
  0.8348006030823214  0.5254097337578472  0.5098273481912159
  0.7194816971207061  0.5934834496123997  0.5683115079365066
  0.6598026047434473  0.6945560377445545  0.6758440877630107
  0.5923644338316691  0.7427417534145420  0.7719832281284624
  0.5093131607604278  0.8252632756552245  0.8112388358250300
  0.4272664507198201  0.8982853617571038  0.8844843406238496
  0.4034929600406088  0.9071582428940559  0.0892955195644163
  0.3512818710778873  0.0074531736803252  0.1532632876522726
  0.2718738229051283  0.0665898288113667  0.2450964027316331
  0.1847229849575456  0.1533764880952404  0.3304889950166086
  0.0738782258213391  0.2665928285345132  0.3812025581395346
  0.9850362772240686  0.3451623444998120  0.4833484505352530
  0.9037266551310452  0.4316701794942759  0.5672303137689170
  0.8307473306570685  0.5162498412698397  0.6391230587855290
  0.7577742460317438  0.5932396423957158  0.7484850945920982
  0.6536998564968641  0.6417362015503869  0.8343517441860442
  0.5806652971576227  0.7548711664820971  0.9367032424326283
  0.5013687518456962  0.8436265074750864  0.0074266057585817
  0.5299730195644159  0.8331773325027712  0.1473553359173110
  0.4209244836655586  0.9034332894979684  0.2390253728312999
  0.3341540305463297  0.9869541897379079  0.3516975429125111
  0.2882168853820630  0.0758008259505374  0.4268285705057195
  0.1590955311000357  0.1670498020487230  0.4979892188076747
  0.0899403677556307  0.2643968461609418  0.5624435520487268
  0.9858105643226267  0.3479334911406440  0.6502951185861932
  0.9165152131782932  0.4332824381690656  0.7549673938722776
  0.8126655324843099  0.5165208900885929  0.8308374903100741
  0.7513009791435934  0.5816143978405321  0.9402481123108188
  0.6715465748431129  0.6580793304724963  0.0236533933185683
  0.6050030361757095  0.7420930661683300  0.0784334860649665
  0.5656611355666286  0.7648745367294225  0.2443512721483927
  0.5051598661867871  0.8646480846253226  0.3405709099298662
  0.4070538667404975  0.9227791560538918  0.4224129918789217
  0.3426764248800325  0.0039636406423043  0.5153278225359941
  0.2852550830564766  0.1026626144333704  0.5841146511627926
  0.1634466112956829  0.1503853732927283  0.6579121470099665
  0.0564454295865602  0.2437688455149498  0.7392938510520466
  0.9950067349575491  0.3276538533591733  0.8461131381506064
  0.9062666514396440  0.4240810552786982  0.9195550627537870
  0.8281601245847199  0.4902647849760058  0.0011747383720930
  0.7463106275378379  0.5860815517718692  0.1052181769102987
  0.6537250719822794  0.6447763159837550  0.1731418009413090
  0.2425686134182357  0.2279512846068670  0.7425329600406059
  0.1617261323366534  0.3088735608157975  0.8268166085271318
  0.0939024746216290  0.4112425004614266  0.9192634952934640
  0.9972678931340013  0.5186458776301208  0.9982704475821365
  0.9082822189922481  0.5785293332410504  0.0973739174972295
  0.8470776342746404  0.6673693097083770  0.1905452353266881
  0.7544004812661527  0.7564486987818384  0.2522661747877422
  0.6670879332779620  0.8264906935215919  0.3134496216315981
  0.6063173177371723  0.9178429508121084  0.4228645773348063
  0.5033153160760406  0.9847590873015903  0.5183485428202275
  0.4432724040236238  0.0805877357881144  0.5942117031192353
  0.3282938399778530  0.1664599963086033  0.6633599234034691
  0.3490340863787367  0.1368316168327794  0.8172331607604306
  0.2689445930232566  0.2320088164451803  0.8936611807862676
  0.1619930652454755  0.3179957678109986  0.0020766002214856
  0.0797814747139185  0.4178594472129902  0.0846199146363986
  0.0146461374123277  0.5011417395717999  0.1767078640642268
  0.9346373551125851  0.5696023025101482  0.2460235257475105
  0.8516548223514206  0.6697304674234061  0.3343852150239925
  0.7423337407714996  0.7269416477482480  0.4280585769656682
  0.6596989101144359  0.8071147775932062  0.5174922452934680
  0.5987808863971935  0.9063753313030602  0.6006761650978234
  0.5341538510520465  0.9800970436507939  0.6758724686231048
  0.4160479254337375  0.0823762841454396  0.7101742128091573
  0.4548096197858982  0.0560466897379115  0.9016592160391284
  0.3527144601328871  0.1520590550018426  0.9726693217054247
  0.2720836577150223  0.2370998611111119  0.0741170598006633
  0.1856880675526043  0.3242954724990739  0.1688290702288668
  0.0850851107419714  0.4233201370431914  0.2826287029346588
  0.0123009020856415  0.5153269795127358  0.3218786447951274
  0.9240491159099307  0.5921182682724222  0.4250360695828732
  0.8515184325396845  0.6713191223698800  0.5098272808231812
  0.7572203972868223  0.7322227607050564  0.5956724806201521
  0.6498805260243614  0.8206416620524166  0.6779246936138819
  0.6046413653562226  0.9032950544481366  0.7403443609265423
  0.4901246456256914  0.9778968923034341  0.7880762915282418
  0.5034203469915113  0.9792295519564433  0.9915454964931740
  0.4196802127168695  0.0889916288298238  0.0671281123108187
  0.3369832945736420  0.1671774856958308  0.1453507142857120
  0.2679973947951240  0.2293322946659302  0.2496899409376141
  0.1927649524732402  0.3263438349021754  0.3296160317460348
  0.0664825770579540  0.4049858462532328  0.4051591260612781
  0.0143263030638607  0.4985192391103723  0.4856447208379464
  0.9261516671280887  0.5946635885012910  0.5974954028239168
  0.8294453677556319  0.6580380615540804  0.6686074178663688
  0.7505315517718714  0.7425298897194565  0.7523261812476960
  0.6723250346068639  0.8186215836101880  0.8453253543743102
  0.5850568950719790  0.9136741431339956  0.9150257142857114
  0.5914224363233700  0.9168254365079349  0.0678726559616081
  0.5057733822443709  0.9802313284422297  0.1453789234957554
  0.4123459186969356  0.0726612384643772  0.2337022812846072
  0.3468616583610213  0.1484096774640093  0.3309106321520829
  0.2732054812661531  0.2344860552787011  0.4223407207456660
  0.1614628280730912  0.3439386512550726  0.4537830587855325
  0.0926519278331455  0.4201261046511604  0.5590260054448137
  0.0072152870062752  0.5007306713731978  0.6725617534145414
  0.9118174044850491  0.5899877385566654  0.7316485220561120
  0.8122751407345916  0.6688627205610942  0.8552968018641565
  0.7459475636766300  0.7436656155407917  0.9320722291435928
  0.6780114207272021  0.8399178714470281  0.0013614488741212
  0.6685255117201905  0.8318479988002920  0.1691060003691405
  0.5963019259874471  0.9071150382982651  0.2506168816906609
  0.5015275493724616  0.9768121110188233  0.3260141283683993
  0.4302664830195653  0.0662581224621661  0.4215627376338134
  0.3662315406976759  0.1658702288667371  0.4924239465670013
  0.2379731363049089  0.2549862001661154  0.5516458254891106
  0.1359793581579893  0.3382182267441891  0.6790511835548187
  0.0840079235880395  0.4198181990586960  0.7737255758582506
  0.9936530693982988  0.5048535095976376  0.8394574450904386
  0.9135070261166476  0.5792075175341438  0.9243339641011445
  0.8360572106865973  0.6713646691583577  0.0170570025839822
  0.7644027542451113  0.7724266279069738  0.1030793784606843
  0.3178316892764883  0.3132258227205611  0.6772878137689204
  0.2328317631044641  0.4017576102805478  0.7525744292174252
  0.1820290056293814  0.4894706579918804  0.8417578442229612
  0.1002709865263967  0.5779860718899954  0.9263554475821323
  0.0043080167958678  0.6469688607419712  0.0035935949612380
  0.9165953497600583  0.7473042875599845  0.0933333388704298
  0.8443849750830594  0.8381452740863793  0.1865037569213754
  0.7609427293281641  0.9099390729974175  0.2553781736803273
  0.6822317077334787  0.9866576407345917  0.3278385465116287
  0.5964919181432293  0.0646814636397224  0.4109056270764100
  0.4939790370062767  0.1529947309892918  0.5112955749354029
  0.4067059233111863  0.2576813893503171  0.5649994656699917
  0.3921975401439610  0.2552076698043564  0.7644171543927669
  0.3410532918050961  0.3445900733665539  0.8156350641380570
  0.2216369698228107  0.4109879877260951  0.9038426402731616
  0.1786889170358066  0.4854242031192300  0.0132271931524528
  0.0926839705610902  0.5784291283683984  0.0980759136212654
  0.0064180970837953  0.6805695468807684  0.1733559509966796
  0.9292106838316698  0.7503163312107759  0.2585936729420482
  0.8258751121262478  0.7925101568844610  0.3560369850498333
  0.7269744868955357  0.8872646613141413  0.4289711595607244
  0.6694819241417491  0.0151494453672925  0.5151747457548908
  0.5843621428571453  0.0869353086932421  0.5709305472499082
  0.4980125816722065  0.1872580897009968  0.6490248744924330
  0.5094041223698795  0.1693910100590656  0.8261786660206738
  0.4349538556663006  0.2462370178109978  0.9156446354743437
  0.3361193041712838  0.3113910898855679  0.9630760220561072
  0.2587938653562176  0.4111043387781450  0.0869162804540409
  0.1606580961609438  0.4953308157991856  0.1762577694721301
  0.1063961434108549  0.6065112896825369  0.2661657705795477
  0.0229043978405343  0.6854679185123658  0.3215203889811704
  0.9506143106312308  0.7217650687523047  0.4326809260797333
  0.8330545505721645  0.8120236088039832  0.4920507059800698
  0.7307695621077883  0.9078437656884475  0.5824231861387972
  0.6670356949058700  0.9944868152454802  0.6801119033776288
  0.5723180260243623  0.0777858277962338  0.7291450267626445
  0.5901355444813561  0.0880619075304523  0.9001347457548903
  0.4957886018826159  0.1666249750830531  0.9740474040236222
  0.4177821488556646  0.2365898103543742  0.0645524820044301
  0.3345723971022494  0.3074711955518623  0.1795217178848318
  0.2451815356220024  0.4240768244739783  0.2449467515688468
  0.1655898449612394  0.4992887813768903  0.3497698961794029
  0.0870690162421539  0.6135993696936168  0.3975209851421155
  0.0323396530084921  0.6762644153746749  0.5010818720007393
  0.9259540605389418  0.7461302990033190  0.5917410095976408
  0.8275438616648216  0.8078247803617558  0.6499682170542656
  0.7506542423403459  0.8980722046880771  0.7522826245847156
  0.6851353382244341  0.0212646622369874  0.8194657045957925
  0.6850193198597267  0.9961053769841257  0.0077056275378382
  0.5851555726282740  0.0679923938722808  0.0649282285898849
  0.5165089322628305  0.1709899298634170  0.1588502542451096
  0.4148022494462893  0.2412275526024388  0.2607812698412673
  0.3278981602990001  0.3506787283130279  0.3460000904392757
  0.2645773731081604  0.4170385686600255  0.4052076056662983
  0.1581618553894444  0.4927380071059417  0.4736391865079383
  0.1046933157991887  0.5687537380029539  0.5768331349206335
  0.0014885949612378  0.6667485538944291  0.6666806976744155
  0.8836319753599113  0.7237935511258797  0.7527904203580675
  0.8174034929863438  0.8316692151162783  0.8479154065153196
  0.7452099266334429  0.9245369476744187  0.8999522042266506
  0.7630755227943880  0.9329692751015131  0.0876095524178666
  0.6555200230712472  0.9843453783684026  0.1792794333702474
  0.5859234985234423  0.0668309136212599  0.2373563275193789
  0.5146541339055020  0.1649727224067945  0.3412983259505324
  0.4053443438538196  0.2464513630490970  0.4243003825212242
  0.3286766948135877  0.3372408014950139  0.5055894813584345
  0.2224822374492419  0.4241847120708755  0.5629407198228122
  0.1611099086378758  0.4891673491140622  0.6903806815245446
  0.0884793600036886  0.5903915411591001  0.7526414142672593
  0.9989632475083070  0.6389806746031752  0.8367625825950569
  0.9196261198781812  0.7319015859173135  0.9105316325212272
  0.8418909832964161  0.8220072780546346  0.9886191094499850
  0.3911428239202621  0.4304329097452921  0.5965752671650080
  0.3354683665559222  0.5100220750276847  0.6669821262458484
  0.2480992515688456  0.5808962947582117  0.7603484556109237
  0.1615703825212265  0.6736964931709082  0.8262692497231470
  0.0675295528792930  0.7448780338685879  0.8993814294942766
  0.9857954162052422  0.8366792543373904  0.9865264636397200
  0.9443363796603919  0.9356574677002598  0.0726198025101539
  0.8526969804355815  0.0031755707825738  0.1992896100959740
  0.7448949404761933  0.0664632036729387  0.2585046788482828
  0.6451599930786287  0.1495476545773329  0.3364024510889649
  0.5731947697489872  0.2594534422296064  0.4372018221668483
  0.4807509353082295  0.3392140333148745  0.5036290513104476
  0.4574146488556678  0.3302483499446254  0.6742166998892571
  0.4066031275378350  0.4261244938169071  0.7378599695459584
  0.3277170418050943  0.5126919725913623  0.8326197609819133
  0.2322752943890762  0.6021050825950525  0.9015948269656704
  0.1766103705241804  0.6738928995939446  0.0153329475821309
  0.0811750858250306  0.7631632599667739  0.0853051370431928
  0.9926711526393532  0.8602376116648216  0.1612882733480987
  0.9079149460132925  0.8980584685308202  0.2700520648763387
  0.8611802906976749  0.9889945953303823  0.3599232710409765
  0.7550571442414196  0.0790269693613865  0.4162409925249193
  0.6664104129752673  0.1761911881690637  0.4864746585455890
  0.5688865937615333  0.2728700825950554  0.5863052985418946
  0.5816607954964965  0.2548906999815443  0.7454328271502391
  0.5132413492063463  0.3406305334071646  0.8371623297342197
  0.3950780804725014  0.4132308098006661  0.8933212527685512
  0.3086629821889986  0.5022988630490985  0.9750733439461072
  0.2681826319675125  0.5686443489294959  0.0920423002030262
  0.1484764142672574  0.6848327450166138  0.1457918023255829
  0.0915934440753077  0.7744053137689164  0.2601744675156894
  0.0099292049649335  0.8321999012550734  0.3318752081026233
  0.8950590697674414  0.8823011101882585  0.4256947083794742
  0.8252017326504273  0.9957121077888544  0.4943852284053136
  0.7671747983573241  0.0684187292358800  0.5926589954780326
  0.6570958365633075  0.1823914225729055  0.6569171686969355
  0.6793850129198944  0.1402290623846412  0.8132191080657094
  0.5896084431524571  0.2432981769103009  0.9122617068106322
  0.4920250299926181  0.3366650798265027  0.0078503848283518
  0.4004562906053906  0.4205089622554468  0.0886497143780005
  0.3356726042820242  0.5018219767441892  0.1515385469730504
  0.2434984413067554  0.6083543996862346  0.2592023444998119
  0.1841384546880747  0.7082123703396093  0.3419428488372063
  0.0978871613141408  0.7548597111480220  0.4426562979881865
  0.0147762790697641  0.8307715056293858  0.4996484113141406
  0.9313734113141408  0.9031251153562181  0.5700510926541185
  0.8562939216500567  0.9853296843853840  0.6593715614617963
  0.7723800770579530  0.0932819707456645  0.7195257119785907
  0.7503449506275359  0.0767772452934636  0.9396323338870403
  0.6596587790697654  0.1674894213731974  0.0102200932078276
  0.5804021230158725  0.2598368110926543  0.0769960871170170
  0.4950240849944620  0.3252180980066441  0.1774257045957910
  0.4053766435954245  0.4193968041712779  0.2517226831856760
  0.3336186452565499  0.4966277431709116  0.3407592215762278
  0.2588011692506456  0.5879756584533027  0.4234348066629749
  0.1706567524916949  0.6761450526024362  0.5072744144518282
  0.1037237320044326  0.7512545810262097  0.5967535405131059
  0.0005126739571821  0.8333831939830176  0.6845401536544884
  0.9179116675895145  0.8954846133259480  0.7595152574750799
  0.8215405098744952  0.9894983337947565  0.8016479826504224
  0.8511746654669636  0.0084436083425601  0.0063779660391319
  0.7624374852344005  0.0786495210409726  0.0957287449243296
  0.6523988745847191  0.1637413547434505  0.1704624275562949
  0.5879334200812139  0.2532809242340335  0.2493007941122158
  0.5022120385751165  0.3193165513104432  0.3388615411590976
  0.3994293627722385  0.4147846253229943  0.4277922448320410
  0.3232582899593979  0.5062777523994129  0.5115376988741218
  0.2199376739571832  0.5682839248800278  0.5892274017164993
  0.1654779646548548  0.6729123098929506  0.6897283817829489
  0.0773979166666692  0.7492511660206702  0.7383907779623442
  0.9821031769103001  0.8354685271317805  0.8259801767257287
  0.9041706063122916  0.9154531169250646  0.9115614502583966
 
  0.00000000E+00  0.00000000E+00  0.00000000E+00
  0.00000000E+00  0.00000000E+00  0.00000000E+00
  0.00000000E+00  0.00000000E+00  0.00000000E+00
  0.00000000E+00  0.00000000E+00  0.00000000E+00
  0.00000000E+00  0.00000000E+00  0.00000000E+00
  0.00000000E+00  0.00000000E+00  0.00000000E+00
  0.00000000E+00  0.00000000E+00  0.00000000E+00
  0.00000000E+00  0.00000000E+00  0.00000000E+00
  0.00000000E+00  0.00000000E+00  0.00000000E+00
  0.00000000E+00  0.00000000E+00  0.00000000E+00
  0.00000000E+00  0.00000000E+00  0.00000000E+00
  0.00000000E+00  0.00000000E+00  0.00000000E+00
  0.00000000E+00  0.00000000E+00  0.00000000E+00
  0.00000000E+00  0.00000000E+00  0.00000000E+00
  0.00000000E+00  0.00000000E+00  0.00000000E+00
  0.00000000E+00  0.00000000E+00  0.00000000E+00
  0.00000000E+00  0.00000000E+00  0.00000000E+00
  0.00000000E+00  0.00000000E+00  0.00000000E+00
  0.00000000E+00  0.00000000E+00  0.00000000E+00
  0.00000000E+00  0.00000000E+00  0.00000000E+00
  0.00000000E+00  0.00000000E+00  0.00000000E+00
  0.00000000E+00  0.00000000E+00  0.00000000E+00
  0.00000000E+00  0.00000000E+00  0.00000000E+00
  0.00000000E+00  0.00000000E+00  0.00000000E+00
  0.00000000E+00  0.00000000E+00  0.00000000E+00
  0.00000000E+00  0.00000000E+00  0.00000000E+00
  0.00000000E+00  0.00000000E+00  0.00000000E+00
  0.00000000E+00  0.00000000E+00  0.00000000E+00
  0.00000000E+00  0.00000000E+00  0.00000000E+00
  0.00000000E+00  0.00000000E+00  0.00000000E+00
  0.00000000E+00  0.00000000E+00  0.00000000E+00
  0.00000000E+00  0.00000000E+00  0.00000000E+00
  0.00000000E+00  0.00000000E+00  0.00000000E+00
  0.00000000E+00  0.00000000E+00  0.00000000E+00
  0.00000000E+00  0.00000000E+00  0.00000000E+00
  0.00000000E+00  0.00000000E+00  0.00000000E+00
  0.00000000E+00  0.00000000E+00  0.00000000E+00
  0.00000000E+00  0.00000000E+00  0.00000000E+00
  0.00000000E+00  0.00000000E+00  0.00000000E+00
  0.00000000E+00  0.00000000E+00  0.00000000E+00
  0.00000000E+00  0.00000000E+00  0.00000000E+00
  0.00000000E+00  0.00000000E+00  0.00000000E+00
  0.00000000E+00  0.00000000E+00  0.00000000E+00
  0.00000000E+00  0.00000000E+00  0.00000000E+00
  0.00000000E+00  0.00000000E+00  0.00000000E+00
  0.00000000E+00  0.00000000E+00  0.00000000E+00
  0.00000000E+00  0.00000000E+00  0.00000000E+00
  0.00000000E+00  0.00000000E+00  0.00000000E+00
  0.00000000E+00  0.00000000E+00  0.00000000E+00
  0.00000000E+00  0.00000000E+00  0.00000000E+00
  0.00000000E+00  0.00000000E+00  0.00000000E+00
  0.00000000E+00  0.00000000E+00  0.00000000E+00
  0.00000000E+00  0.00000000E+00  0.00000000E+00
  0.00000000E+00  0.00000000E+00  0.00000000E+00
  0.00000000E+00  0.00000000E+00  0.00000000E+00
  0.00000000E+00  0.00000000E+00  0.00000000E+00
  0.00000000E+00  0.00000000E+00  0.00000000E+00
  0.00000000E+00  0.00000000E+00  0.00000000E+00
  0.00000000E+00  0.00000000E+00  0.00000000E+00
  0.00000000E+00  0.00000000E+00  0.00000000E+00
  0.00000000E+00  0.00000000E+00  0.00000000E+00
  0.00000000E+00  0.00000000E+00  0.00000000E+00
  0.00000000E+00  0.00000000E+00  0.00000000E+00
  0.00000000E+00  0.00000000E+00  0.00000000E+00
  0.00000000E+00  0.00000000E+00  0.00000000E+00
  0.00000000E+00  0.00000000E+00  0.00000000E+00
  0.00000000E+00  0.00000000E+00  0.00000000E+00
  0.00000000E+00  0.00000000E+00  0.00000000E+00