Li 
 1.0000000000000000
    21.6720000000000006    0.0000000000000000    0.0000000000000000
     0.0000000000000000   21.6720000000000006    0.0000000000000000
     0.0000000000000000    0.0000000000000000   21.6720000000000006
 Li 
 432
Cartesian
 -0.3149419000000000 -0.1056882400000000 -0.1723530300000000
 20.2303711799999988  1.8376762900000001  2.2433019700000001
 17.9006794300000003  4.0558659700000002  3.9405163000000001
 16.1421563399999997  5.3023600000000002  5.5845640999999997
 14.5096327400000007  7.1912015199999999  7.4993822600000000
 12.3755084300000000  8.8959626200000006  9.2957905899999993
 10.2205443299999992 11.1362784599999998 11.1839610300000007
  8.7308085599999998 13.1605285799999994 12.7655110900000004
  6.9821115599999999 14.5735314299999992 14.7298666199999992
  5.2078690300000003 16.6576566799999988 16.1074093199999986
  3.0771176300000000 18.2290845399999988 18.2536727700000014
  1.6560572600000001 19.6289084900000006 20.1624519900000010
  1.3542326300000000 20.3048320999999987  1.5662421000000000
 -0.1455601300000000 -0.4432740900000000  3.5206146600000001
 20.2978008099999983  2.1292547599999998  5.8347581799999997
 17.6378940899999996  3.8563839700000000  7.3969477399999999
 16.1961608199999993  4.9957253799999997  9.3779360300000008
 14.6338588999999999  6.6176564200000003 10.6802656999999996
 12.7592912300000005  8.6872099499999997 13.0501775700000007
 10.9505877700000003 11.1414298400000007 14.5200461099999991
  8.8405338499999999 12.6048880499999996 16.5997610000000009
  7.0722873100000001 14.6016471200000009 18.1192153100000013
  5.3595819400000000 16.6387188799999990 19.6488720599999986
  3.7019016300000001 18.1971235900000003 -0.2335606600000000
  3.5422066900000000 18.6231199499999995  3.7616553499999998
  2.2386776899999998 20.1048999700000017  5.6495028600000001
 -0.5651945200000000 -0.4846240600000000  7.3889709600000000
 20.7838378100000014  2.5647667400000000  9.1518400599999996
 18.2770750000000000  3.4810451499999999 10.6956569899999998
 16.5069634000000001  5.3931286800000002 12.2807607000000001
 14.6763816100000000  6.9796129599999999 14.5218603500000008
 12.7959491100000005  8.7734658700000008 16.3941184200000016
 10.4267299999999992 10.9855494000000000 17.8784134799999990
  8.7989014999999995 13.0480257300000009 20.0783967099999998
  6.7654158200000003 15.3093711399999997 21.7355228099999991
  5.2992515500000001 16.6813581599999985  1.6303528400000000
  5.4774978599999997 16.4551299799999988  5.5826322399999997
  3.9431982200000002 18.4347336599999991  7.3356319000000001
  1.6919365300000000 19.9008301000000003  9.4004815799999992
 -0.6068890700000000  0.0010981700000000 10.7332499099999996
 20.3300209000000009  2.0398735399999999 12.0911865699999996
 18.4955145099999996  3.9990703999999999 14.0469904499999991
 16.6537296099999992  5.2057445800000002 16.1303302899999998
 14.5075254999999999  7.4868459500000002 17.9255192000000001
 12.6247548799999993  8.8524181300000002 19.3940576000000000
 10.9462861399999998 10.3975915699999995 -0.3170703300000000
  8.5079317299999992 12.7436974200000002  1.3747638200000001
  7.3471941500000000 14.5030010300000001  3.8841765100000001
  7.1844430499999996 14.2908698399999992  7.2320886499999997
  5.6125504299999998 16.6180102699999992  8.7912111999999993
  3.8512517700000002 18.0047119600000016 10.8080406199999999
  1.5710279700000001 19.9124881699999996 11.9410640000000008
 -0.3416433700000000  0.0168866900000000 14.1385307099999995
 20.2897720499999998  2.0066578599999998 16.2728001900000017
 17.7291959299999995  3.4619604700000002 18.0572837600000007
 16.5375775699999998  5.4172562900000001 19.7876565800000002
 14.6205320499999996  7.1216724400000002 -0.0852992300000000
 12.4971967399999997  8.5759449900000000  2.0760473300000002
 10.5287490199999993 10.1853642000000004  3.2541530700000001
  9.7239374299999994 12.6254330199999991  5.4018747400000002
  9.4390639800000002 12.5425359200000006  8.9586623200000002
  6.6299599100000002 13.9951208000000005 11.1040143699999998
  5.2830875800000001 16.5519208400000011 12.9204588200000003
  3.6387016100000000 18.6727358700000003 14.5895253199999999
  1.4264584800000000 19.8868164299999997 16.5151306700000013
 -0.2818409500000000  0.1038471900000000 18.3237444499999995
 19.3639158999999985  1.9578345200000000 19.7413467599999990
 18.4328952299999997  3.7966223700000001 21.8704884399999990
 15.9237294600000006  4.9521746400000000  2.1358041700000001
 14.4388444200000006  7.1181909299999999  3.5234974700000001
 12.7722229800000004  8.9522698999999992  5.7543856699999996
 10.8369587599999999 10.5829589500000001  7.3939446100000001
  1.4031186700000000  1.5344649699999999 20.1772872399999983
 -0.3410479500000000  3.2255532900000001 -0.1325425300000000
 19.9023644699999984  5.4596619799999999  1.8434935200000000
 18.0971738000000002  7.0696126699999997  3.4550157000000001
 16.4551241099999999  9.0718971100000001  5.5532752299999997
 14.2213587799999992 11.3081201799999995  7.5894893899999998
 11.8587579499999993 13.3110828100000003  8.9295229200000001
 10.8072947100000007 14.8269936399999995 10.9913882100000002
  8.9340443199999999 16.8091340900000006 13.0408826700000002
  7.1298113699999996 18.7001279899999986 14.9204561600000005
  5.5261292800000001 20.6607895600000013 16.3697746700000017
  3.3877598899999999  0.1660865200000000 18.6028266100000010
  4.1705374300000004 -0.0602473700000000 -0.2986750300000000
  1.8778689900000001  1.4087639900000000  1.3943759000000000
 -0.2613717900000000  3.9929963900000001  3.7000142000000000
 19.9190515800000014  5.5227116599999997  5.8395674000000000
 17.7744962400000013  7.1591799600000003  7.1208531900000001
 15.9544897300000006  9.3543784399999996  9.1495775699999999
 13.6783674899999994 11.0237912100000006 11.0463874799999999
 12.5453339600000007 12.7309864600000004 12.5040674999999997
 10.5672773099999997 14.5656547399999994 14.5468311799999999
  8.9316804899999998 16.5274214899999983 16.2943174299999995
  6.5027595099999997 18.1859278499999988 17.7407002799999987
  5.3491427299999996 20.4186972599999983 19.7565434700000004
  5.4114533600000003 20.4298412999999996  2.0697333499999999
  3.3437513800000001  0.2571149000000000  3.8582576300000002
  1.3696382300000001  1.6307629200000000  5.4397519299999999
  0.7141635300000000  4.0216834099999996  7.1012136100000003
 20.0461997399999987  4.8954538400000001  8.4126415699999999
 18.2997984500000008  7.1547736700000000 10.1622333000000005
 15.7959005399999999  9.2593738800000001 12.3119221799999998
 14.1536093300000001 10.6906702700000000 14.9422098699999992
 12.6081113600000005 12.3255077499999999 16.2015413600000002
 10.6644175299999997 14.4141925400000002 18.4293345899999998
  9.2534657199999995 16.2007488799999990 19.9427456499999991
  6.7518383000000002 17.7962095799999993 21.2956022999999988
  7.0447206099999997 17.6998501200000007  3.4632650500000000
  5.5318313000000003 20.1949936900000004  5.3768970500000002
  3.8254586399999999  0.1796859600000000  7.5677271900000003
  1.4596737799999999  1.6880101900000000  9.1096795700000008
  0.2154609700000000  3.7603881100000001 10.6084378699999995
 20.1171939799999997  5.1799952899999999 11.8922083300000008
 18.1788962800000000  7.2600324100000000 14.0073240600000002
 16.4530903899999998  9.1173508099999996 15.7877788900000002
 14.8902592800000004 10.6229341500000007 18.1202042500000005
 12.8826538599999996 13.0900801700000002 20.0174364599999990
 10.4164288700000007 14.9089445699999992 21.6492281099999992
  8.9393222399999992 16.2541422400000002  1.5037251199999999
  9.3235841900000000 16.6278324600000005  5.8207591599999997
  7.1189462600000004 18.3630458099999991  7.0944355799999999
  5.4752531099999997 20.1340126300000009  9.2491464699999995
  3.6768702400000000  0.2832155800000000 11.1428055500000003
  0.8907952099999999  1.7322401000000001 12.2979286200000004
 -0.0949206600000000  4.1139383499999997 13.9762660899999993
 19.8379913399999985  5.4447549500000001 16.1717244399999984
 18.2471577899999993  7.5561469499999996 18.2742695799999986
 16.0070017100000008  9.2515071199999994 19.7915616800000009
 14.4981650200000001 10.5825387200000005 21.7961844800000009
 12.2337884100000007 12.5421401600000006  1.7620322799999999
 10.9597540999999996 15.2047110300000003  3.0440169400000001
 10.4419237099999993 14.8560384299999999  7.6401704500000003
  8.4286452700000005 16.5318220999999994  9.2244305600000001
  7.0319454800000001 18.2673307300000012 10.6414113599999993
  5.6727879999999997 19.9951745699999996 12.6828945599999994
  3.0860650500000002  0.1034945900000000 14.2800220000000007
  1.6915146900000000  2.2246786900000002 16.4005104599999996
 -0.2025848300000000  3.7133214500000000 18.6110269399999986
 19.2905285100000015  5.4129082200000003 19.7555279599999984
 18.2517925900000009  7.2271587700000000 21.7670973500000002
 16.7010893799999991  9.2029982399999994  1.7641521600000001
 14.3047265899999996 10.9968046200000007  4.1178835300000003
 12.5180741500000003 12.6362208000000003  5.4499119000000000
  3.6863421100000000  3.1474892500000000 18.2586072199999983
  1.4581223500000000  4.6567254599999997 19.8356635899999993
 -0.7622329900000000  7.3451682299999996 -0.0604724400000000
 20.0538372400000000  9.5103372999999998  2.0506495899999999
 17.8156421800000011 10.8183637000000008  3.9981539100000001
 16.0558240499999982 12.6599037200000009  5.7663754100000002
 14.2453100199999998 14.4808814600000009  7.0493107999999998
 12.6268029300000002 16.0476820700000005  8.2442428200000002
 10.8973797599999997 18.0196995899999983 10.5732170599999993
  9.3112773799999999 19.3940415500000007 12.7339298900000006
  7.3548017899999998 21.4070192400000003 14.6053668600000002
  5.0083902900000004  1.8197243299999999 16.3561570699999983
  5.6071535099999998  1.5781773100000001 19.8192550400000016
  3.4705045800000001  3.3173313499999999 -0.0792575100000000
  1.8128229899999999  5.4241399200000000  1.3855365700000000
  0.2397148600000000  7.4156886799999997  3.4105732600000001
 19.5346130199999983  9.0975573999999995  5.1543531700000003
 18.4646474800000000 10.8733260400000002  7.4609657499999997
 16.1474652600000006 12.7556178199999994  9.4617895999999995
 14.1611672500000001 14.6092964700000003 10.9346810500000000
 12.3509728699999997 16.1707407500000002 12.6534495499999995
 11.2764290799999998 17.7894728399999984 14.6803985800000003
  9.3459189899999995 19.8923458599999989 16.2303038999999991
  7.4206536099999996 22.1718685600000001 18.1267806900000004
  7.4945572000000000  0.0070256700000000 -0.1191160700000000
  5.8909340900000000  1.6627681299999999  1.7344546300000001
  3.3294862799999998  3.0426295799999998  3.8164730800000002
  2.3577364099999998  5.9654288099999997  5.0283965100000003
 -0.1829841700000000  7.6125190299999996  6.6522715600000000
 20.0759389800000001  8.9669460900000004  8.7496338100000006
 18.0917986699999993 11.3866797500000008 11.0489782900000009
 15.5926073400000007 12.8619733200000006 12.3164470000000001
 14.2992420500000001 15.0524184499999993 14.6468930700000008
 12.8377220100000002 16.0966992799999993 16.7304205199999991
 11.0378348200000005 17.8851057100000013 17.5811680499999987
  9.2597185199999998 19.4676403600000008 19.1685446299999995
  8.7444994299999994 19.6599334399999996  1.9352125000000000
  7.6129807100000004  0.1615251800000000  3.3215219700000000
  5.8920494899999998  1.4431347699999999  5.3117292400000000
  4.0033165300000002  3.3239752500000002  7.1623574999999997
  1.6010889100000001  5.7775997800000001  8.2614218400000006
 -0.3242938000000000  7.4803583299999996 10.4751276200000003
 19.5855640700000002  9.3551561299999992 12.2930153600000001
 18.0039561500000005 11.1881665600000009 13.8510749299999993
 16.4224834599999987 12.8566895300000006 16.2211689700000008
 14.1669832899999992 13.9077069600000005 18.0820709999999991
 12.5841783199999995 16.3595679199999999 20.3002326699999998
 10.8656635900000005 18.2830736700000003 21.8329494000000004
 11.4855752800000008 18.0566191499999995  3.1934848400000000
  9.1222754100000003 19.5792062499999986  5.1801578800000003
  7.2417861500000003 -0.2827288000000000  7.6219891500000001
  6.2462363400000003  1.6427555000000000  9.2502287800000005
  3.4479183500000001  3.6203033100000002 10.7924223500000007
  1.9491876500000000  5.7300084499999997 12.1892766600000009
 -0.3075134500000000  7.5404146200000000 14.0931958099999992
 19.8627177000000010  9.3900970000000008 16.3616533599999983
 17.6120874200000017 11.1940407299999993 18.0059100900000004
 16.2821948200000008 12.6047472299999992 20.3770570900000010
 14.5537573699999996 14.2618952500000002 22.1846163400000016
 13.1116258000000006 16.0826409300000002  1.6998105100000001
 12.2590081299999998 16.5763609599999988  5.2955807699999999
 10.9478246200000005 18.7386532899999985  7.3808527599999998
  8.8216713999999996 19.9984698700000010  9.1545343599999995
  7.4264834799999999  0.0859000200000000 11.1681845699999993
  6.1820481599999999  2.2249041799999998 12.6589327199999993
  3.5422149599999999  3.2591518100000001 14.2582720500000004
  1.2232853500000000  5.2829584199999999 16.0219763399999984
 -0.1082140400000000  7.1009143100000003 18.3369639299999996
 19.6406108699999997  9.1906846299999998 19.9285973200000015
 17.9478862200000009 10.6250184200000000 21.6974589299999998
 16.1740439199999990 12.7015593899999999  2.2802883299999999
 14.1675297600000007 13.9735923199999998  3.7523291099999998
  5.2569469900000003  4.9401602400000000 16.0921743100000008
  3.5049287400000000  6.6939078099999998 17.9187695399999996
  2.0350544300000002  8.9124474700000000 19.9222784699999984
 -0.0592102200000000 11.2400934600000006 -0.0374828600000000
 19.6842922499999986 12.5378877099999997  2.1102875399999999
 18.3578664899999993 14.4632276799999993  4.1294963400000002
 16.3493672299999986 16.3937561999999986  5.4671125399999996
 14.4571296900000004 17.9117063099999996  6.7930802000000003
 13.1401089100000004 19.8914924299999996  9.1643211200000003
 10.9078495300000000 -0.3303010600000000 11.2336496199999996
  9.6065995399999995  1.7464974099999999 12.8777560300000005
  7.1147840999999996  3.6075210400000000 14.3763362600000004
  7.5642667200000000  2.9654148000000000 17.7110770600000009
  5.8285672200000000  5.0280950700000000 19.3674251099999992
  3.5107137100000001  6.8916042800000001  0.0450040800000000
  1.7290241200000001  9.0558499399999999  1.8338827900000001
  0.3174110900000000 10.8607437800000000  3.8296128299999999
 20.2554607599999983 12.3444210999999999  5.3318218499999999
 18.4570633099999988 14.5143986900000002  7.2467963800000001
 16.0878568299999998 15.7542793900000007  9.2768854800000007
 14.2969947800000003 17.4917914600000017 11.2150919400000006
 12.9767793699999991 19.6429661799999984 13.0178538499999998
 11.5761822599999995 21.2406631300000015 14.6475081399999993
  9.0165906400000004  1.7852588300000001 15.3908955400000007
  9.8566340799999992  1.2146438600000000 19.5407585300000015
  7.6440277800000000  3.2954238400000002 -0.5923104600000000
  5.8965970299999997  5.1384281900000000  1.6062649200000001
  4.0242317999999999  7.0281314799999999  3.6588636100000000
  1.8439645200000001  9.1741940100000008  6.1251292499999996
  0.2665851500000000 11.1681662999999993  6.9757539900000003
 20.0259924399999996 12.8323871100000009  9.2113817000000004
 18.4541074700000003 14.5488280200000002 11.0489768300000009
 16.4104804500000014 15.8687316700000007 12.9094139999999999
 14.0842107599999995 17.7849460999999991 14.6919839600000000
 13.1037876700000009 19.5762104199999989 16.0447429899999996
 10.6219813199999997 -0.4790185500000000 17.0791893899999998
 10.9101257599999997 -0.4501371500000000 -0.1832260000000000
  9.0953095699999995  1.9286265800000000  1.4548004500000000
  7.3031019600000002  3.6230704700000000  3.1500406800000000
  5.8080395400000002  4.9700894900000003  5.4112803999999999
  4.1776020500000000  7.0725235900000003  7.1434386400000003
  1.4408104100000001  8.7768532599999993  8.7806085800000009
  0.3104796400000000 10.8039089500000003 10.5248923899999998
 20.0715589299999984 12.8875492900000008 12.9489203699999997
 17.9757400099999991 14.2610008700000002 14.4900599600000000
 16.2655197899999990 16.0921077699999984 16.3044130000000003
 14.5706281499999992 17.7411669600000010 18.3198910800000014
 12.6793530299999997 19.8011460300000017 19.8304372800000017
 12.8173070399999993 19.8694408600000010  1.4709361999999999
 10.9611207400000001 -0.4284266500000000  3.1506520299999998
  8.9363607500000004  1.5747143600000000  5.0647958400000004
  7.5171858599999997  3.2163345300000001  7.1714952199999997
  5.9209091899999997  5.0817817900000000  9.1529681000000007
  3.4992224099999998  7.4538384500000001  9.8343864500000002
  2.0079525800000000  9.1049729399999997 12.1152115899999995
  0.1563697000000000 10.8518351099999997 14.5757583200000003
 19.7609067899999999 12.7862142700000003 15.8562867700000005
 17.6036268500000013 14.4955928800000002 18.5359922899999994
 16.1661755999999990 16.1167212199999987 20.1998693500000002
 14.6938635099999999 18.2027001099999985  0.0295053200000000
 14.4882848899999992 18.0278098299999989  3.6648652400000001
 12.9230553399999994 19.6589971100000014  5.4313690599999997
 10.8691050499999999 -0.5025279300000000  7.0653781899999997
  9.3247352200000009  1.4359460300000000  9.1361076499999996
  7.9369699499999999  3.5947396000000000 10.6718117699999997
  5.1573538100000000  5.5260609299999999 11.9552683300000009
  2.9469446499999998  7.3298654100000000 14.7163972500000000
  1.8206197200000001  9.0983000100000009 16.7681806800000004
 -0.1375506800000000 10.9411852599999992 18.1927217500000005
 19.7975242700000003 12.5525853200000004 20.0321656700000013
 18.1190318700000006 14.5498151100000008  0.3696593600000000
 16.5661364900000017 16.7400298800000016  2.2339362899999999
  6.8880483699999999  6.7882300300000002 14.6781815000000009
  5.0459299700000004  8.7068909300000001 16.3097930300000016
  3.9449326100000000 10.6078080999999997 18.2425759999999997
  2.1730728199999998 12.5261141499999997 20.0759752599999999
  0.0933633400000000 14.0211091499999991  0.0778803900000000
 19.8644544200000013 16.1955785200000015  2.0227201199999998
 18.2995111799999997 18.1642843800000016  4.0419094199999996
 16.4911508299999987 19.7201995900000000  5.5345557799999998
 14.7853255699999995 -0.2891556100000000  7.1049169799999996
 12.9271728499999998  1.4017766800000000  8.9051467500000001
 10.7055136900000001  3.3157018100000002 11.0807976999999998
  8.8141307700000002  5.5844710700000002 12.2446684200000000
  8.4997050900000009  5.5308606200000003 16.5664485699999986
  7.3913069399999998  7.4679560699999996 17.6764431100000010
  4.8033164099999999  8.9069316700000005 19.5880776999999995
  3.8725462099999999 10.5201133299999992  0.2866597300000000
  2.0086470099999998 12.5357160699999994  2.1255012000000000
  0.1390930000000000 14.7493032199999998  3.7569701700000002
 20.1378539399999994 16.2608555300000006  5.6042420799999997
 17.8983654299999984 17.1752801200000000  7.7160335399999997
 15.7549910799999999 19.2287997399999995  9.2966629699999999
 14.5090122600000004  0.3283187800000000 11.1648670899999995
 12.6642963599999998  1.8840620100000001 12.3732068200000001
 10.7929286700000002  4.0582573200000001 14.0656670800000008
 11.0398061399999996  3.6710419700000001 17.9049440500000010
  9.4263199600000007  5.3364486500000003 19.8438505399999983
  7.2843775600000003  6.7484677000000000 -0.8002164500000000
  5.6085806500000004  8.9094532300000004  1.8836496300000001
  3.4817822600000001 10.7348094399999994  3.8198583799999999
  2.3058172199999998 13.1443126699999997  5.7683445799999999
  0.4963841100000000 14.8554607300000008  6.9679898700000003
 20.6017133399999999 15.6420925700000009  9.3770610300000001
 18.0539582199999984 17.5981756500000017 10.6637228999999998
 15.8372379500000005 19.6747900899999983 12.6222752899999993
 14.4559975800000000 -0.1194817400000000 14.7393851700000003
 12.4032762600000002  1.6857744600000000 15.8020310199999994
 12.7894175200000006  1.9084776600000000 19.5077202099999987
 10.7447305800000006  3.6110964600000002 -0.5624446600000000
  9.0541747299999997  5.1273743700000001  1.3989813900000001
  7.2508529900000003  6.6635157500000002  3.8905946700000000
  5.3135742400000003  9.1905929400000002  5.3084860000000003
  3.5886631200000001 10.8205864700000003  7.5802131900000003
  1.8869597199999999 13.2979255399999996  8.6150747899999995
  0.7008649600000000 14.6560024099999993 10.8594463300000008
 20.0672764000000008 16.1701358400000004 12.8242111600000008
 17.9345305699999997 17.5071786399999993 14.0861111999999995
 16.2681787399999997 19.4630208200000006 16.3034690399999995
 14.8482530500000003  0.4608477600000000 17.7594607499999988
 14.8457387000000001 -0.0844042700000000  0.1669963600000000
 12.6814915700000004  1.4735311600000001  1.4071245699999999
 11.1937815799999996  3.7056937599999999  3.4426027100000001
  8.9895943500000008  5.2278835199999998  5.6516516799999996
  7.1062089300000002  7.5999093999999996  7.4985139600000004
  5.7339208299999997  9.0380598600000006  8.7816592300000007
  3.4276837300000000 10.6786180900000005 10.2647084500000005
  2.2689135399999998 12.3260310099999995 12.5011276999999996
  0.0322608300000000 14.4497746599999992 14.4483040799999998
 19.1500721700000014 15.6860538399999996 16.3144739899999998
 17.7147685000000017 18.0239352299999993 18.3760226899999992
 16.1501895299999987 20.0365647299999985 19.5037641700000002
 16.5373727300000013 20.2193101300000002  1.8986742200000000
 14.2064299399999996 -0.3392669600000000  3.8853438800000002
 12.6981340599999992  1.4483595600000001  5.1439863299999997
 11.1535843900000007  3.5752888399999998  7.3966173199999998
  8.7846226200000004  5.3410939400000004  9.1954378899999991
  7.1230813299999998  7.3086826499999997 10.9571352399999995
  4.8216350500000003  9.1929310799999993 12.2000512800000003
  3.4915739399999999 10.6012347899999995 14.9619301300000007
  1.9175246900000000 12.7949654800000001 16.3112447299999985
 -0.0224685000000000 13.8479891800000008 18.1343186900000006
 19.9301372699999995 15.8617711700000008 19.7330415399999985
 18.2454613899999991 17.8145417299999984 -0.2466466600000000
  8.4768472799999994  9.3283420199999991 12.9289791899999997
  7.2702704400000000 11.0531984100000003 14.4548366399999999
  5.3768069799999996 12.5891845000000000 16.4782717299999995
  3.5015533300000001 14.6003504000000000 17.9069071800000010
  1.4635004700000001 16.1429967499999982 19.4913943399999994
 -0.3078417400000000 18.1325128000000007 -0.2919984800000000
 20.4656580199999993 20.2775686399999984  1.5738163599999999
 18.4796489599999987 21.7408209700000015  4.3190044299999997
 16.1433631499999990  1.4403905500000000  5.6023133999999999
 13.9819073700000001  3.2409967700000002  7.2905139200000004
 12.4222770499999999  5.6228749999999996  9.4750378899999994
 10.4188342699999996  7.3514465299999996 10.9146488000000002
  9.9130902699999996  7.1571422399999998 14.6116243200000007
  8.8119029799999993  9.2349700299999995 15.9909012599999993
  7.1022837299999999 11.1110604300000002 18.0445354599999987
  5.0338701800000001 13.0488213500000008 19.5393630899999984
  3.8274999500000000 14.6046069200000002  0.3322956400000000
  1.7592264600000000 16.5392741699999988  1.8487329299999999
 -0.1588307800000000 18.6430695200000009  3.4954394600000001
 19.6763327100000005 19.4627231300000005  5.8525683500000003
 18.6634992599999983 21.4334908700000000  7.8002571300000003
 16.3635984299999997  1.7126724799999999  9.0207747900000008
 14.4424464700000001  3.8184154299999999 10.5428788000000004
 12.3289102600000007  5.9136404300000001 12.7064084299999998
 12.6057527599999997  5.5239912499999999 16.1550202300000016
 11.1229665200000003  7.3821449200000000 18.1429820100000008
  8.5621321600000009  8.9555381100000009 19.3600581900000002
  6.6893441500000002 10.8858209600000002 -0.5402104900000000
  5.8120539999999998 12.3236603299999992  1.9947407300000000
  3.2177808500000000 14.8416952500000008  3.1595999400000001
  1.9850131200000001 16.7829119599999999  5.6385010600000003
  0.2151857300000000 18.0354362600000009  7.1923995100000004
 19.3977201599999987 19.1212296600000009  9.2256557200000007
 17.8837719499999999 -0.0929272000000000 10.7143166700000005
 16.6262122300000001  1.4827707000000001 12.8441057500000007
 14.2405809699999999  3.9527869099999999 14.2367088800000001
 14.7236320000000003  3.0390442400000000 17.6240845099999994
 12.7779941800000003  5.2727580900000000 19.7705357100000008
 10.6631664500000003  7.2962056100000003  0.1701335400000000
  8.6786887299999993  9.1132702299999995  1.9212166100000001
  7.2746966799999999 10.8754858799999994  3.2841433900000001
  5.2770982200000001 13.1842565500000006  5.6174332099999997
  3.9906485900000002 15.3483784900000000  7.4105854200000003
  2.1214105600000002 16.3593196600000006  9.5932472900000008
  0.3202315200000000 18.0044800699999996 10.8283803699999996
 20.1847245700000002 19.5725274999999996 12.3541472799999994
 18.5576018699999992 21.3540649199999990 14.2899004800000000
 16.7390210300000000  2.0216068699999998 15.5935612300000006
 16.2614757700000006  1.6639164600000000 20.3637119400000017
 14.2961250599999996  3.6298307400000001  0.2214898600000000
 12.5784748099999995  5.6311833699999996  1.6686592000000000
 10.7281619700000004  7.0481266199999997  3.8451698699999999
  8.7853226200000005  9.0891675400000000  5.4553339899999997
  7.2301832800000003 10.7629164500000005  7.3849338500000004
  5.6087389400000003 12.7426084700000004  9.1766791300000001
  3.6984731399999999 14.6534155800000008 10.9936511100000001
  2.2479007200000001 16.2811892799999995 12.9328427300000008
  0.0111106700000000 18.0610805799999987 14.8353542100000002
 19.8929816600000002 19.4069425399999993 16.4602146599999983
 17.8044259300000007 21.4444078900000008 17.3733150800000011
 18.4466573499999988  0.1829898800000000  0.1382232800000000
 16.5235451799999993  1.7044924200000000  2.0746333600000000
 14.1387884100000001  3.5486026399999999  3.6942617300000000
 12.7416930799999992  5.4891041899999999  5.4028468099999998
 10.8839392999999998  6.9202282999999998  7.3438073199999998
  8.6564331499999998  8.9892123999999995  9.2711135299999992
  7.0056536600000001 10.9720514500000004 11.0860450099999994
  4.7664892700000001 12.3158492200000005 12.7697362499999993
  3.5862384500000002 14.5833555799999992 14.9477934900000005
  1.6773676500000001 16.2377712699999996 16.0024049400000017
 -0.3878599500000000 18.1062739199999996 17.9006423900000016
 19.5951853800000002 19.8396999500000000 19.7553597500000002
