Li                                      
   1.00000000000000     
   -10.6364300000000007   18.4228371711498369    0.0000000000000014
   -18.2338799999999992  -10.5273355263713349    0.0000000000000078
    -0.0000000000000001    0.0000000000000000   22.3096999999999994
   Li
   504
Direct
  0.0040215109613371  0.0022030001385076  0.0075205323245058
  0.9276246590745458  0.0428156819875838  0.6396745487388884
  0.8473052774077772  0.0902627514397167  0.3221601662057338
  0.7817537200961695  0.1225946024081281  0.9959983778356474
  0.7205165893218179  0.1582989722340926  0.6826309484215400
  0.6480892741168631  0.2112865134631363  0.3255619031183770
  0.5831560178139554  0.2475292152544100  0.9921282652837107
  0.5012049700139087  0.2850900538335779  0.6518472646427327
  0.4400625225883275  0.3214353660803866  0.3008736065478246
  0.3684993784182709  0.3849566365694272  0.0180173987099792
  0.2973670392873160  0.4185740118018302  0.6641832117867992
  0.2201890337403185  0.4621268575779496  0.3421653881495459
  0.0833086689245661  0.0410315327615791  0.6492857626951505
  0.0015952436772793  0.0809959236483806  0.3370717651963062
  0.9174251697876272  0.1227024517719641  0.9823309793497899
  0.8536939767300282  0.1586491133587273  0.6455845336333539
  0.7846001851041606  0.1961340616013985  0.3201647019009641
  0.7196991403695989  0.2488460559353527  0.0069977713729870
  0.6456261397929239  0.2871942553050886  0.6516977081717812
  0.5603440835056617  0.3307546369657928  0.3101981788190784
  0.5064353791053335  0.3755259122371442  0.0190086953208706
  0.4355266979915910  0.4301149022413924  0.6520377741520491
  0.3745570266696419  0.4685561205196151  0.3316297036714957
  0.2880943727274641  0.4933153821945950  0.0164309255615294
  0.1432797951300984  0.0816909647691233  0.3361171167698345
  0.0638754826965240  0.1226014468441292  0.0083432560724717
  0.0072737390641890  0.1600499040031806  0.6705669695244652
  0.9242929383510798  0.2086467450556029  0.3319468459907569
  0.8609638828303048  0.2409065282730438  0.9991019686504075
  0.7904505845799434  0.2852577980471693  0.6593715962115141
  0.7162190633456973  0.3320427143349605  0.3258778069628931
  0.6397806027290684  0.3681239891736965  0.0159466232177010
  0.5697971871971603  0.4248478153953243  0.6748086330161343
  0.5000341410317830  0.4481685511424516  0.3273696903140788
  0.4430702377956592  0.5032150398381035  0.0032869460369227
  0.3514452684020526  0.5393776307516731  0.6709720175529057
  0.2180274135247657  0.1266272339163521  0.0063753595969445
  0.1465552446001084  0.1662088496621692  0.6617141992048303
  0.0707060270124416  0.2086776798522365  0.3584964764205694
  0.9980093160338299  0.2480907316851031  0.9898349395106152
  0.9210134775115435  0.2836619001217429  0.6553325450364653
  0.8558180680851919  0.3223482065296395  0.3128988919617939
  0.7831622079410252  0.3792623751275030  0.9916024321259371
  0.7078567208259585  0.4260951574160430  0.6771259358037085
  0.6367674367291372  0.4549787199954736  0.3405459853785544
  0.5746018250451854  0.4921131399370111  0.0029879137774174
  0.5001555684114223  0.5345639533375106  0.6890606870554095
  0.4352382940978856  0.5843868096920914  0.3293223055442240
  0.2761092196265906  0.1640840875933733  0.6683583244059790
  0.2164859209774690  0.2109227331504684  0.3208055912898899
  0.1527983812228229  0.2544043628679233  0.9876211925754248
  0.0748139632804268  0.2871921690032622  0.6855767715388339
  0.0039436125630701  0.3382952433067317  0.3382335172593116
  0.9143563531495928  0.3622875133909531  0.9641626332940376
  0.8583994336342826  0.4119213169171516  0.6654140571141696
  0.7824626471165672  0.4520888185251835  0.3329178482902080
  0.7099140768770198  0.5078272674429698  0.9947760485349448
  0.6383399025806966  0.5402117887138473  0.6740527828702341
  0.5734682359635883  0.5824632262003391  0.3028029337014857
  0.4988608856432251  0.6211571086415972  0.0286401811767973
  0.3469172204569020  0.2126481680704089  0.3202149378969708
  0.2843534500065275  0.2450418837760822  0.0107909124730483
  0.2136426185708160  0.2923215373006087  0.6647623199774060
  0.1329576950461089  0.3335623347132213  0.3571581903835579
  0.0731470922455202  0.3702258078712291  0.9892903086998004
  0.0017985682522834  0.4125894743567642  0.6632698198541433
  0.9338057109409661  0.4379118230445798  0.3495539653155362
  0.8611998192545869  0.4886433066624249  0.9837161051022676
  0.7842860013736797  0.5295543354683119  0.6542169585426976
  0.7222103525666626  0.5850258940855895  0.3488073730260837
  0.6465654930714919  0.6250117584699240  0.0160445375778266
  0.5650904415599598  0.6622925463301499  0.6764476079911432
  0.4346765179357632  0.2620099383308698  0.9984558622482567
  0.3618728718640298  0.2901983894551918  0.6959003482789967
  0.2937004448065892  0.3282634226969705  0.3236067177057507
  0.2136766663956777  0.3725361324769594  0.0002496918380785
  0.1440348126652111  0.4178401419513236  0.6758713200984303
  0.0768897544549674  0.4586402926323174  0.3223639385558741
  0.0082846894924202  0.5006757667672588  0.9957651201047071
  0.9302873899814443  0.5384702486020316  0.6734113363245555
  0.8553787696498887  0.5782046603977236  0.3231931249635807
  0.7866502962365587  0.6212203222572796  0.9781863185071984
  0.7166748934619491  0.6637497977904019  0.6541364025513587
  0.6414917696473879  0.7027741027455150  0.3647511925306048
  0.1509208505069850  0.5008616607130278  0.9971192414062031
  0.0816657008556305  0.5416985698846375  0.6646098997297116
  0.0105343547111758  0.5904063366392336  0.3436208138164147
  0.9430471365637132  0.6204310050981832  0.9759248797608180
  0.8658504602347676  0.6656781458057850  0.6798205238080328
  0.7938576586029811  0.6989749583909486  0.3379370175304928
  0.7226794370024265  0.7404020272089298  0.0232002384612997
  0.2329118848559162  0.5466868691996467  0.6409409902419156
  0.1469959115168464  0.5794811448174997  0.3249730498393077
  0.0895812001323861  0.6179314877292086  0.9775812503081625
  0.0033404956904093  0.6667306624494458  0.6789059328453533
  0.9410791180701352  0.7091732925842038  0.3377234821624668
  0.8698417589358769  0.7411333523090917  0.0043716114515178
  0.8017954072525342  0.7897577759882637  0.6528483538550489
  0.2822166627244656  0.5794424067778010  0.3110766482740672
  0.2157627160630895  0.6199758133751629  0.0118813323352640
  0.1579706625121347  0.6793757618310607  0.6645582948224344
  0.0897635603672668  0.7062800371398126  0.3356175860724235
  0.0071694198830059  0.7484538577238524  0.9823986951863972
  0.9374650309548045  0.7913281825262288  0.6785295414102350
  0.8727387238678403  0.8419235618140704  0.3389083721430595
  0.3608380363274435  0.6181099730428059  0.0208393075657654
  0.2870002019125408  0.6628280537313742  0.6725956884225255
  0.2134177707338409  0.7065912225392239  0.3126587031649919
  0.1547991052614748  0.7469403364957827  0.0028750606238575
  0.0807904590099682  0.7788504974296515  0.6758555659645822
  0.0115440797972610  0.8207813412900578  0.3516156120431901
  0.9302321334602155  0.8820571665876784  0.9850926036656702
  0.4303878065264257  0.6600534468269004  0.6578716334150627
  0.3650544333997559  0.7017163874586103  0.3359291864077036
  0.2821779053500393  0.7440118873326824  0.0274530917045084
  0.2092819494274920  0.7880337352582671  0.6726268999583169
  0.1442025443108435  0.8259236263272456  0.3160088427903531
  0.0751442647662799  0.8728807608645042  0.9814078575686835
  0.0042487111534726  0.9040020621626255  0.6499081861253160
  0.9253420594568240  0.9625711932145862  0.3515232701470623
  0.8554182194738758  0.0054020744812107  0.0093821987745244
  0.7880367103070824  0.0406322347952539  0.6574544444793062
  0.7148260217462976  0.0819609807411794  0.3227044088445865
  0.6429265919463205  0.1273800776151006  0.9887072766554468
  0.5755471183294674  0.1691206393914513  0.6704715540773734
  0.4932327878919409  0.2110526014146501  0.3311949170091921
  0.0778661086865284  0.9614260385383346  0.3557849020829522
  0.1483674519949645  0.9983320517946410  0.9990394397952471
  0.2064065632904075  0.0395086140756078  0.6763331994603234
  0.2870523196067154  0.0781109827510988  0.3591011331393972
  0.3471987759898951  0.1215652462941392  0.9776211065142064
  0.4266506264400931  0.1629536586515741  0.6726432838630743
  0.8568711456256750  0.9227975329733837  0.6718116572611876
  0.7939186816225074  0.9572113317204014  0.3482128146053043
  0.7131907224392222  0.9981651844876538  0.0196475326875785
  0.6394150400085294  0.0386635683684489  0.6681363303854368
  0.5721457786634474  0.0831983607137232  0.3172894238828832
  0.5003019329107730  0.1246861623379019  0.0038158115079980
  0.1427565407555491  0.9163601930697922  0.6705171880392840
  0.2143307865318889  0.9527548016225040  0.3527676203624424
  0.2802366831912408  0.9922711367961270  0.0054111888550707
  0.3596727806737334  0.0368414317445556  0.6792169316485683
  0.4313753582601194  0.0791484932521911  0.3406832144762149
  0.7857193808878407  0.8803807338615357  0.9949137249716458
  0.7249643063610307  0.9219242263792680  0.6491427293957344
  0.6538951978004661  0.9562430114303240  0.3000985831275216
  0.5703855427132254  0.9879365912202331  0.9802233185565044
  0.4988624874804088  0.0349539583615055  0.6424133789338242
  0.2228623016316149  0.8667654442749679  0.0028146286144590
  0.2791126107022919  0.9097574001884325  0.6695462032210173
  0.3555047764818866  0.9661625161668681  0.3225941321487937
  0.4349669186764231  0.9940741261422446  0.0074428324899003
  0.7209248503699257  0.8332872709362888  0.3454238147532251
  0.6586152285184923  0.8693829801956099  0.0133833592562880
  0.5712442935436002  0.9138150656264088  0.6297266139840545
  0.4970111159355000  0.9565540288808663  0.3551115994388070
  0.2879144614552231  0.8349275598360748  0.3392968202172142
  0.3583245103952351  0.8709643837678485  0.0072906130517225
  0.4284993471813721  0.9158442738824419  0.6732008126509967
  0.6422424907149278  0.7896659786334581  0.6491265781252125
  0.5720582146865780  0.8398440279063664  0.3483322285821870
  0.5041658802808442  0.8772946265964450  0.9956607318789565
  0.3574979786760082  0.7868138171728205  0.6724723761413216
  0.4219669628718776  0.8233869849478381  0.3414960205650459
  0.5804099521302035  0.7453297741821103  0.0146638238075809
  0.5086525270980502  0.7897886138988781  0.6567033622146425
  0.4289263779693187  0.7531168470767469  0.0206313885888179
  0.4995859297400926  0.7036357308117971  0.3216421305530801
  0.9981622174612070  0.0004319489504709  0.7428527550796318
  0.9110509360205512  0.0416850178120569  0.4372520809334048
  0.8821187362258271  0.0872616656710221  0.1095926955539497
  0.7981363911655563  0.1270306300641977  0.7749209438047160
  0.7192908142242587  0.1380525200813381  0.4351847810593625
  0.6412051981680023  0.2304530793254074  0.0993670237609621
  0.5708797880516059  0.2639816630346488  0.7713988865829648
  0.4903037445809844  0.2784657051612953  0.4353318305490461
  0.4403014893765160  0.3419854298345157  0.1226783829455371
  0.3640358194236200  0.3856286736124162  0.7611756249523722
  0.2892187803741564  0.4323189221309391  0.4472341981290668
  0.2184967576549823  0.4514367606881109  0.1100585920025807
  0.0606141931453053  0.0519306218755133  0.4776318695455330
  0.0112890729652975  0.0798832725475762  0.0967747580648748
  0.9272685199935182  0.1171141724024380  0.7506037732466169
  0.8456807613485537  0.1557043015293189  0.4524110785891367
  0.7988847836435156  0.2210881957493740  0.1169269290936228
  0.7343034820428471  0.2509827598127785  0.7677808782726814
  0.6416371559133225  0.2707409704203840  0.4319420794542310
  0.5847624821626454  0.3333865947264556  0.1133664827406946
  0.5060140576434478  0.3756871898279215  0.7759549545713327
  0.4057725012305298  0.4149554897112679  0.4330410866125476
  0.3692720826463471  0.4682208976903368  0.1084285714285684
  0.2854865811882874  0.4951086841227124  0.7718335181557805
  0.1402902135217445  0.0635488532441215  0.1210303406141691
  0.0628381083712597  0.1327028026386401  0.7818738866950241
  0.9891925318121508  0.1858787723105166  0.4629098257708506
  0.9401082112450680  0.2128184889155023  0.1038686544417899
  0.8692684141637415  0.2357835480729449  0.7654041295938541
  0.7636443931368504  0.2911159954714719  0.4190819930344176
  0.7116069124193558  0.3448538044856804  0.1206157917856387
  0.6474308120372143  0.3786241808064474  0.7872930393505939
  0.5480551823964532  0.4055995408713287  0.4436113497716221
  0.4956539893235927  0.4606297611007051  0.0926759759207911
  0.4430492361285445  0.5099676373522968  0.7972892356239640
  0.3739973232097924  0.5401243005598175  0.4264189343648752
  0.2083217459996050  0.1166974703791723  0.7835652814694924
  0.1589935848964572  0.1702994581405477  0.4696161216869825
  0.0639171963956073  0.2053980559673434  0.1108284575767513
  0.9989704904333863  0.2584152975910570  0.7584841261872626
  0.9097159662003591  0.2879574076185420  0.4333999538317386
  0.8499125705705310  0.3333575298842888  0.1074220029852455
  0.7889291477148817  0.3729671680065323  0.7743174910464958
  0.7084925201685905  0.4033585569118117  0.4581875480172286
  0.6483291384931604  0.4713850821359600  0.1022858285857708
  0.5740116165708642  0.5196054455309067  0.7864887461507806
  0.4882804544006518  0.5252239554279825  0.4098369646386999
  0.4279195373262255  0.5918383177687474  0.1272007391403704
  0.2921440772433428  0.1665052036366674  0.4301318175502118
  0.2028772063631052  0.2027016430909541  0.1100829845313953
  0.1447927980328600  0.2586170902308993  0.7843343281173674
  0.0775533634197174  0.2770121640990055  0.4651194440086570
  0.0029078404844114  0.3266351389960036  0.1145304558107014
  0.9456408576688204  0.3734764626215394  0.7823968457666410
  0.8527689582868732  0.4191885308562249  0.4441207407540233
  0.7863277444431205  0.4405448527232210  0.1048522705370303
  0.7095204037774963  0.4970945663593795  0.7934444685495521
  0.6434997883641316  0.5309346269718844  0.4594923880643833
  0.5521431173030393  0.5958564481517072  0.1410349879200510
  0.5153952383951221  0.6521248694450605  0.7815856004338926
  0.3554557063325703  0.2348840324436168  0.1059371237623097
  0.2725229076017612  0.2686750313097050  0.7787447944167809
  0.2344847146754319  0.2767415715297474  0.4498805461301600
  0.1361725263470603  0.3274264833149232  0.1052626274669777
  0.0863623821766666  0.3823957576415253  0.7654639528994096
  0.9953893598059409  0.3991803336250612  0.4358348095223121
  0.9212164120988646  0.4616169141103939  0.0976691587067506
  0.8539614366372845  0.4997717669803734  0.7909392228492536
  0.7941228384712034  0.5043837952865644  0.4441842306261421
  0.7007454277043124  0.5723712375206489  0.0878447876932427
  0.6448934228301013  0.6355189054993957  0.7755557882893953
  0.5582195048823380  0.6580970699425635  0.4298247762184175
  0.4295697050636704  0.2574446120063101  0.7990377400861490
  0.3428207320903383  0.2866648031341867  0.4422910424613491
  0.2964237770673250  0.3263660211040005  0.1035709552347157
  0.2339559104641609  0.3996165547465296  0.7730587578497250
  0.1412076038871461  0.4282689710465704  0.4533079028404714
  0.0757470531081879  0.4672603445842824  0.1243230213763553
  0.0075745293410776  0.5027557370609372  0.7787838003200420
  0.9292360332390501  0.5410234222762895  0.4696620752408123
  0.8352127285571811  0.5848032748703247  0.1032812207246181
  0.7687039232364725  0.6288559231370314  0.7673880226986469
  0.7007412483750670  0.6588072025013858  0.4525267332146967
  0.6183124344911803  0.7137263140047523  0.1150724801319569
  0.1506599922238081  0.5187795421989705  0.7905720924082331
  0.0741210911410732  0.5291958339395890  0.4528247959407778
  0.9923301481304563  0.5842092819806197  0.0904314410323792
  0.9434515556262468  0.6271867370077189  0.7916324975235014
  0.8513918449197675  0.6618923031708022  0.4443220410852646
  0.7688058830951618  0.7064592424031630  0.1195795972155622
  0.7197387860224040  0.7693521556677823  0.7623349027553061
  0.2163547944480513  0.5411901648847603  0.4348348884117641
  0.1416743529155795  0.5866036643006396  0.1245117119459280
  0.0710371688003377  0.6269526023346117  0.7747251141880014
  0.9860231029723181  0.6578447657246898  0.4530215820920915
  0.9144815095417371  0.7270060868813957  0.0682862889236517
  0.8456146481894322  0.7514761919875781  0.7811397782130669
  0.7969378353832184  0.7700965060423144  0.4595192400614962
  0.2799745188590848  0.5907350656235337  0.1352966463018319
  0.2258337807806754  0.6203932196049919  0.7633374841436691
  0.1165510278961150  0.6614961593667914  0.4216628381376708
  0.0640238850255557  0.7149161428394635  0.1129076365885666
  0.9904661357259954  0.7445782565191834  0.7900777590016901
  0.9164044710103525  0.7952529309401726  0.4419515999766901
  0.8501332918909057  0.8298019302601958  0.1006893974369873
  0.3804577309300043  0.6292896441681179  0.7815907641070936
  0.2675202350540431  0.6695567765206363  0.4426449374039123
  0.2207353849326168  0.7207984219289116  0.1385406993370566
  0.1361320920502962  0.7479375712768430  0.7732452251711166
  0.0630264391311783  0.8030021000484808  0.4378529666467941
  0.0025246823492537  0.8248464524785675  0.1077143771543305
  0.9329082528555546  0.8931248989287823  0.7694563956485325
  0.4274374544132655  0.6584943356408601  0.4204467881683769
  0.3543134176932554  0.7177192854535051  0.1404486640340323
  0.2841101626519560  0.7406033763885631  0.7778420301483209
  0.1837752699144630  0.7936523513275091  0.4488438405715911
  0.1520147249528065  0.8343749245399366  0.1196193211921255
  0.0535363141088681  0.8780848443953246  0.7659420041506593
  0.0034947310534719  0.9385485090271999  0.4729008700251427
  0.9220851144381115  0.9552029823733079  0.1153213216672597
  0.8470419019808872  0.0058876718785825  0.8019871567076180
  0.7658375834762978  0.0267362723668896  0.4072573006360471
  0.7317446794443896  0.0919812337921115  0.1247209594929544
  0.6433153800503604  0.1309132451332857  0.7761355840732946
  0.5757667979916334  0.1502062049787440  0.4254671290963117
  0.5012666931405576  0.2173881388425798  0.1169829437419594
  0.0641802647202496  0.9532490269170140  0.1072568429875815
  0.1407271987281291  0.0119495961162528  0.7787897739548271
  0.2153198737119126  0.0428521036474052  0.4405769853471782
  0.2926959644125517  0.0899654770813143  0.1130806873243486
  0.3647639205260020  0.1218074108637097  0.7843929295328920
  0.4366811831788269  0.1588577479286499  0.4351504923867182
  0.8536238583112379  0.9148728073642332  0.4381810450162931
  0.7888868983030335  0.9490590509690051  0.1011463583105083
  0.7131719793747990  0.9989041083641226  0.7642397445954003
  0.6410267837906076  0.0086689704048766  0.4325923132090495
  0.5764090024593500  0.1117480851015458  0.0904323877057962
  0.5095210488111874  0.1276738253620877  0.7703690453031626
  0.1231316894261170  0.9255550894618878  0.4534198554888675
  0.2205161957104949  0.9611098033144359  0.1066482888608959
  0.2729691247654031  0.9928999506562235  0.7785546233252774
  0.3749399928776427  0.0350190042687828  0.4458454976983077
  0.4347866166334740  0.0835675323760583  0.1204432901383683
  0.7685849704293730  0.8869317064155240  0.7706818222566838
  0.7147973551281481  0.8967970376022194  0.4289315114053522
  0.6501678261300725  0.9765823943732954  0.1208902517738935
  0.5650318756615533  0.0104343368913931  0.7909627215964363
  0.4996136230536905  0.0263562062129949  0.4387046562705876
  0.2046805564075882  0.8679540421133396  0.7870029117379431
  0.2811162322105005  0.9194149448295832  0.4604541284732662
  0.3492124008924620  0.9579277714219572  0.1264242894346381
  0.4267481082507629  0.9994318016219452  0.7697656732273401
  0.7123052359379471  0.8224912738985140  0.1125531885233784
  0.6396999018530138  0.8877543464656767  0.7744133587632263
  0.5798138390758041  0.9068944874946538  0.4213709946794424
  0.4992262744566247  0.9516019244166003  0.1220258775330905
  0.2935581091212214  0.8340839657494570  0.1256518568156437
  0.3526198049504714  0.8760120922168326  0.7900244902441500
  0.4324758353000675  0.9006538236041521  0.4442802767406135
  0.6433327555109827  0.7718328983902651  0.4359861221800401
  0.5629302904745899  0.8288727084135346  0.1144078557757382
  0.5074749873835387  0.8824691107950713  0.7817406782699905
  0.3460055632696779  0.7852638202440474  0.4644583894001286
  0.4237120146293734  0.8236557285797446  0.1172817142319289
  0.5682323098439568  0.7782118475391115  0.7677679928461600
  0.5002362838609784  0.7877063967324887  0.4515851172360001
  0.4383369400309007  0.7658075884533133  0.7930321295221390
  0.4978040387538840  0.7068040712167161  0.1265868241168633
  0.9921165935331828  0.9898170839692852  0.2176398548613392
  0.9148020684735485  0.0389510090461229  0.8948251590115532
  0.8186944194064552  0.0913914047143365  0.5201763986068855
  0.7805430883001989  0.1383236315754601  0.1989016871585036
  0.7057684419015544  0.1724869622650260  0.8602469387755107
  0.6346020234606371  0.1873394214288240  0.5462548891289458
  0.5644636200132211  0.2477379925820955  0.2452158747092099
  0.5054960500648065  0.2986330352184581  0.9051816487895366
  0.4313302048740937  0.3302936220360664  0.5855485179092526
  0.3597827615051727  0.3762924628243454  0.2114476357817452
  0.2919018952924191  0.4192868694899232  0.9057700332142531
  0.2177906169611248  0.4651470508765101  0.5367949994845276
  0.0544229940864795  0.0456275709288860  0.8906990779795336
  0.9808615558205460  0.0670332020296129  0.5589095335212946
  0.9268021947306551  0.1313594973697860  0.2081735043501283
  0.8680910822325103  0.1745334964478005  0.8882840083013193
  0.7575814197553541  0.2002239336592950  0.5409899285960833
  0.7078260474095046  0.2590504491941417  0.2155020753304626
  0.6480779388084059  0.2892670698348425  0.9005579299587154
  0.5558905486478025  0.3109883459607090  0.5585710955324359
  0.5139871223026020  0.3762866911884331  0.2015315131982973
  0.4440765334094792  0.4159620309965533  0.8766478858971638
  0.3720566115885546  0.4614236851839095  0.5606068571069969
  0.2855176269505222  0.5018670429538119  0.2217473798392646
  0.1425450235512500  0.0851357322275206  0.5641343944562252
  0.0687657082091206  0.1156384454780479  0.2175446648767121
  0.9868451845137685  0.1704472829744574  0.8860106944512935
  0.9061637971608505  0.2105213916601656  0.5665511243988064
  0.8669660262131273  0.2862672217764910  0.1926008906439804
  0.8030740551274533  0.2965733918299733  0.8970686262029517
  0.7065732825035340  0.3261053506319485  0.5593854637220588
  0.6593720897784863  0.3966348326915252  0.2202889702685411
  0.5811995522414080  0.4253719190075245  0.8881155273266756
  0.4962924810955016  0.4452992788864094  0.5404794040260512
  0.4264788216088107  0.5018533563605416  0.1978443430436059
  0.3472882025252488  0.5505937767504463  0.8992879240868348
  0.2155573376789732  0.1134355659240498  0.2511690932643660
  0.1278176649348453  0.1762132834129133  0.8940167958332026
  0.0709262223348404  0.2115308217982701  0.5759039762973046
  0.0056909000788465  0.2544521050744208  0.2277840396778075
  0.9456125115006984  0.2909980686666032  0.8703113744245741
  0.8424421374205622  0.3375243977845557  0.5384693725150953
  0.7973921076167727  0.3936982126010307  0.2218187559671350
  0.7282452096888008  0.4341007966658665  0.8986651954082774
  0.6447586591840135  0.4503417613089127  0.5669876215278578
  0.5874761477833061  0.4988676478858665  0.2143805801960568
  0.5106822053104807  0.5576308060034094  0.8808115259281806
  0.4299690439718873  0.5653951249885409  0.5605957426590251
  0.2770242894709369  0.1651630550789349  0.8892603970470248
  0.2344290086027527  0.2112312206742288  0.5610226748902960
  0.1285617181724845  0.2509822930708481  0.2495808177608865
  0.0712817436906690  0.3204749358313350  0.9006808926162151
  0.9757953503488679  0.3362111564674564  0.5733501194547657
  0.9125891112052500  0.3961160323476491  0.2143021376352010
  0.8651896691639962  0.4311328717318546  0.8934726890097124
  0.7859614666326067  0.4425446069330761  0.5506573113936994
  0.7281195515270724  0.5101252387616313  0.2273621003420061
  0.6534324442935429  0.5487691685227105  0.8789081135111658
  0.5734397019358255  0.5551813098001475  0.5683846304522220
  0.4912560789326577  0.6269239747304596  0.2175057091758319
  0.3730142579087001  0.1957168307980623  0.5764528146949530
  0.2805967024148401  0.2399448486297899  0.2246726302908613
  0.2091974361502338  0.3134070957036315  0.9160245946830301
  0.1550858687286620  0.3338318483657048  0.5452163982482929
  0.0717290569781781  0.3775286250916210  0.2252566784851453
  0.0172802103547198  0.4350068971703607  0.8868403250603976
  0.9253471085312768  0.4619537341698390  0.5520628609976796
  0.8393344037439476  0.5165652114627122  0.2075398916166478
  0.7899249638734815  0.5528290213880496  0.8795872849029820
  0.7177231772461781  0.5726007281962708  0.5699063447737984
  0.6493522216922898  0.6108262409660199  0.2176856344997944
  0.5835522162795144  0.6747805941575820  0.9040757459759661
  0.4317170384382294  0.2556765609318745  0.1977815470400799
  0.3544773452468419  0.3033072418320302  0.8894462726975263
  0.2871961131862477  0.3417679136762075  0.5662262791521187
  0.1925456412781941  0.3556383443753788  0.2330892369686737
  0.1356557122304451  0.4358372207539318  0.8691647140033254
  0.0621752590412115  0.4597844232536517  0.5594625351304572
  0.9888163439938182  0.5224646325550992  0.2230304437083390
  0.9233013905560128  0.5544290968487360  0.8860031753004307
  0.8515567065520102  0.5782637754404973  0.5763087087679324
  0.7884774818359404  0.6322671196627212  0.2313151131570592
  0.7182188818738453  0.6761618014526007  0.8806116949129716
  0.6310068621502083  0.6763049384563047  0.5404301057387570
  0.1436178300087008  0.5028103724693054  0.2199288520240046
  0.0692361469773743  0.5516391168092269  0.8780363796913448
  0.0021422757155989  0.5798967100973798  0.5561073770602007
  0.9077743654586641  0.6285277558042779  0.2043258147801197
  0.8523549670470487  0.6729859271779688  0.8611304916695417
  0.7915225023959849  0.6983589323742549  0.5774912441673337
  0.7108864739775811  0.7403350598770331  0.2424461131256805
  0.2174306454093013  0.5494258715231837  0.8966941568017504
  0.1394118405382443  0.5836914461948766  0.5558450203274816
  0.0775898267392847  0.6303020804774135  0.2249430897770921
  0.9968747312537332  0.6699066716601649  0.8931348507599850
  0.9224151345261191  0.7168694194912106  0.5667389386679318
  0.8535090941216481  0.7542384580797759  0.2294746231459825
  0.7629723050804600  0.8116771172714223  0.8953030475533055
  0.2874815847951169  0.5840275918804849  0.5542771458154974
  0.1986369690163485  0.6279715888031205  0.2228985432345567
  0.1588256504636902  0.6594539520189073  0.8946772601155573
  0.0586281375706008  0.7187870096051938  0.5665525542701175
  0.0014601540222614  0.7468224510610497  0.2150509249339976
  0.9156981956237686  0.7887770058331753  0.8665554117715644
  0.8513993805152609  0.8373186522619420  0.5687134591679879
  0.3549819079857315  0.6170441773469690  0.2132709516488376
  0.3177280733709580  0.6583227639183207  0.8845245543418301
  0.1916639406342568  0.7029617191689042  0.5621319954997119
  0.1480459286798421  0.7550823166990170  0.2023941061511323
  0.0644736162341957  0.7917352726944671  0.8908392102986582
  0.9959602548135891  0.8515848089870630  0.5509558268376509
  0.9204195138114457  0.8708490233954862  0.2262032815322499
  0.4394427337016111  0.6794667730605966  0.9026606848142293
  0.3574640831555485  0.6926247206848899  0.5422657615297410
  0.3074573258033624  0.7472711998820500  0.2188930088705803
  0.2346391834092216  0.7765303166638517  0.8912264579980871
  0.1305996701289800  0.8435143864416119  0.5731490396553980
  0.0795162380782202  0.8698709643705911  0.2280218855475411
  0.9865951691148993  0.9056679689331730  0.8685823762757892
  0.9135811035063170  0.9610273328130035  0.5470125465604667
  0.8587092781657475  0.0056441669265936  0.2195831642738355
  0.7823708974118659  0.0559627751000633  0.8958268833736014
  0.6872411204873430  0.0558609192785511  0.5596619309089732
  0.6387275901172629  0.1335640120834967  0.2068931657530158
  0.5595715227126092  0.1734185904850705  0.8701385424277319
  0.5093012236335852  0.1976987879654217  0.5430577264597929
  0.0820405109774427  0.9697729258843495  0.5590138065505101
  0.1362459608618778  0.9831793460585416  0.2441933463919312
  0.2105836624662061  0.0494846415044208  0.8902359901746806
  0.2957512780010276  0.0724945334800680  0.5624827451736252
  0.3506583150601443  0.1414812216568748  0.2415055747051724
  0.4331673255889896  0.1699315342146335  0.8853448889944744
  0.8505474938703657  0.9122603921805137  0.8936499011640677
  0.7630234143516716  0.9727698062555774  0.5436347395975716
  0.7123631459945088  0.0080968023837826  0.2156684634934578
  0.6334530637098013  0.0575138264354678  0.8882545995687963
  0.5587586907371644  0.0726373141143029  0.5527040390502762
  0.4971870063833919  0.1311811111893633  0.2251232445976399
  0.1504487979167664  0.9118377230942727  0.8785606018906549
  0.2117739069003903  0.9627990424104738  0.5692503323666358
  0.2800499898856046  0.0144888650183645  0.2339101955651586
  0.3381227981697208  0.0426095343318948  0.8816813058893658
  0.4300862184974434  0.0773084956678005  0.5528036302594828
  0.7913016801374511  0.8697339847764454  0.2214925068468006
  0.7168565992941254  0.9221207198670811  0.9016034975817675
  0.6358888019111006  0.9352140208605491  0.5506435088773074
  0.5661892475069408  0.0173066408323237  0.2098084850984065
  0.4858805278572049  0.0571183893435645  0.9007287301039426
  0.2453250526185897  0.8877182887337227  0.2279307287861343
  0.2889816885574206  0.9102871148859819  0.8888424734532521
  0.3592388509635143  0.9575042584708342  0.5597921200195444