Li                                      
   1.00000000000000     
   -10.6364300000000007   18.4228371711498369    0.0000000000000014
   -18.2338799999999992  -10.5273355263713349    0.0000000000000078
    -0.0000000000000001    0.0000000000000000   22.3096999999999994
   Li
   504
Direct
  0.0009424348025462  0.0086118954491923  0.0141741955293000
  0.9261836439312319  0.0424738873010355  0.6750004320990399
  0.8627486841157364  0.0757632722059611  0.3388205811821763
  0.7817282189100538  0.1311423783933279  0.9811376455084542
  0.7135881824204731  0.1639187967046709  0.6665852947372670
  0.6375324963667737  0.1948627083028711  0.3411397360789223
  0.5716301005768258  0.2529789117467942  0.0092456514430950
  0.5012409669779601  0.2996257818745462  0.6532481951796782
  0.4251461749100613  0.3349482787427220  0.3090067159128083
  0.3492134982852946  0.3701710349324117  0.0006794331613591
  0.2927076739993950  0.4227180235387422  0.6866904207586799
  0.2186896570909553  0.4537981022485624  0.3376908775106813
  0.0824705342019030  0.0465842303392847  0.6717154533678169
  0.0004797491021407  0.0820526521101144  0.3405446550155347
  0.9236138724271257  0.1228239830962963  0.9954883369117482
  0.8593923629425433  0.1629989529944851  0.6486648816434126
  0.7858947101524763  0.2023126700456999  0.3464150777464496
  0.7155985531139208  0.2402383031862954  0.0081976839670617
  0.6304869563446402  0.2840097095586458  0.6648898586713372
  0.5758795540478943  0.3342004693975369  0.3139458724232043
  0.5083084046746436  0.3837345938037586  0.0123345118939326
  0.4328774766347294  0.4007125702921215  0.6611164641389138
  0.3616969994660906  0.4659108293993839  0.3282695311904718
  0.2897983585053936  0.5081906174463384  0.9838410413407601
  0.1416920657918439  0.0855852978438847  0.3099855986409494
  0.0691632082524691  0.1291505624062026  0.9920945996584436
  0.9916197013618131  0.1764566131752616  0.6601190899026008
  0.9297421318762673  0.2173126600727500  0.3462124170203964
  0.8636731638626642  0.2486325718769820  0.0179197353617511
  0.7767670733157956  0.2932044023746840  0.6686814175000109
  0.7143778065682440  0.3362034562519511  0.3441293504619054
  0.6517564313559134  0.3755862449919078  0.0189879128809451
  0.5713064407101598  0.4195223882595087  0.6577084304136775
  0.4960148179069535  0.4627172785150506  0.3217849047723647
  0.4276072558041264  0.4934007417043063  0.0049569801476466
  0.3557450583113635  0.5447466293199952  0.6611265409216642
  0.2219544159344835  0.1337743915020866  0.0002243010887639
  0.1463555297318422  0.1783782153274203  0.6663058884700348
  0.0650532113617572  0.2137768407533400  0.3259023353070631
  0.9985642761541484  0.2557851173850949  0.0294094416330140
  0.9255211994874344  0.2906569149372373  0.6734470051143688
  0.8579686570419227  0.3293274293337234  0.3473859451270087
  0.7862367607446572  0.3774055686947975  0.9926511105035019
  0.7179002491973492  0.4232287281933296  0.6750191634132250
  0.6440228699026278  0.4628265380643910  0.3428939770593047
  0.5819577137195040  0.4983339741767807  0.0254697920635394
  0.4962566869904990  0.5451959125975208  0.6683846914122569
  0.4230930680346319  0.5792433655571045  0.3185327552589214
  0.2815779169018242  0.1645834456148592  0.6606063228102599
  0.2148946945778505  0.2195374804348447  0.3173592051887724
  0.1358632349881361  0.2529084276892846  0.9777849173229569
  0.0645588105657779  0.2950573026988081  0.6795931182400494
  0.9980179664411750  0.3442383146760903  0.3177118441754061
  0.9289176343967043  0.3777184952392929  0.0009223920536812
  0.8549702706877014  0.4052641195263575  0.6672415693622042
  0.7876953713317718  0.4579843906785399  0.3370063949761786
  0.7164979729314496  0.5000740591565105  0.0229293737701539
  0.6378354346555994  0.5429273324035293  0.6530400812202757
  0.5752209340238181  0.5785321736635893  0.3173438822574965
  0.5066800051162446  0.6230754558646510  0.0224282316660478
  0.3568880451132088  0.1959137512321263  0.3320700753483905
  0.2835945425844884  0.2557325368719177  0.0039842454179109
  0.2107529737593907  0.2875582754365169  0.6805155712537569
  0.1377994184021318  0.3414074899102673  0.3389497828298929
  0.0685879587555434  0.3638598092042784  0.9912211764389482
  0.9996616015421296  0.4176344859958050  0.6792487290281812
  0.9244372926625672  0.4486865366671893  0.3303922934866890
  0.8592711512801827  0.4943598931433613  0.0068740924351260
  0.7914855643291290  0.5431000000549915  0.6663703173955753
  0.7164065615882151  0.5914143932134195  0.3425304782224785
  0.6388268992589090  0.6243835450225390  0.0182535408364970
  0.5709940399900049  0.6689026341749056  0.6767880818657375
  0.4196664597771118  0.2556827991208124  0.9982086675302639
  0.3425864384798274  0.2877964595664793  0.6586967946677902
  0.2781372502767780  0.3294865205342248  0.3159101718086745
  0.2036035417309421  0.3796613052530091  0.9873416240469410
  0.1315099096231762  0.4194460307946954  0.6766538805990194
  0.0784164492307511  0.4536828111684699  0.3374434223678477
  0.9953573231877826  0.4944730933254888  0.0105351031165810
  0.9279617476277338  0.5293946586617864  0.6832402685827219
  0.8519489938212530  0.5821834542977058  0.3258820082744265
  0.7788673563294921  0.6276151650178861  0.0048574714137786
  0.7156064839484841  0.6637115702163143  0.6595007261415446
  0.6474819852208427  0.7013892220381734  0.3188022985517520
  0.1375461656579802  0.4929185975343984  0.9924291492041561
  0.0661310810978151  0.5380164197131236  0.6635465223647117
  0.0025287556091413  0.5919952696834798  0.3507624764116031
  0.9310835734100351  0.6161219996662410  0.9914428575910890
  0.8593785425352962  0.6675377867366308  0.6555890262979744
  0.7865220175457210  0.6987256616209052  0.3344021479446155
  0.7121459144959701  0.7543607340114988  0.0033902589456574
  0.2132869883698305  0.5384789402087478  0.6698141503471575
  0.1446792548816163  0.5675037344218268  0.3387597959631918
  0.0751553991687501  0.6208763295370758  0.9923481422878808
  0.9967245726355287  0.6609403793313504  0.6824724155860480
  0.9298762124431050  0.7112267612644061  0.3330056661452190
  0.8557107848035415  0.7436609524243920  0.9920444716872012
  0.7789281055160941  0.7917584782089975  0.6480075406661641
  0.2886209741040204  0.5874064852028624  0.3443121418037904
  0.2099810935990973  0.6225195178760501  0.9819691058149616
  0.1327115354163553  0.6689514844537428  0.6557588788733142
  0.0681998906769437  0.7162943151324370  0.3387089494704085
  0.0008682039556476  0.7466631429734107  0.9982977063788425
  0.9340822686349313  0.7885138750185590  0.6689484650174577
  0.8574861985861446  0.8225969098607848  0.3202066661586684
  0.3582655225592575  0.6292409261158411  0.0062918026687910
  0.2787710722535621  0.6721902987159112  0.6649120992214179
  0.2188824368283520  0.7063034577635605  0.3254038319654668
  0.1482995377182093  0.7549270768496825  0.9899652469553573
  0.0693126344663497  0.7887431257298516  0.6740200500230813
  0.0021431117353785  0.8310217678324321  0.3360598501996890
  0.9201063365873523  0.8756011961432364  0.9903775272639237
  0.4387176775210477  0.6595642591310664  0.6519447204579194
  0.3660098322493184  0.7016673472660955  0.3360512306306234
  0.2916193091458368  0.7476257034499483  0.9682149558263902
  0.2163999977774509  0.7967543650413376  0.6731522812946835
  0.1430789634395211  0.8338425382257100  0.3238836667458571
  0.0691264042859530  0.8822805321555691  0.9920831642738364
  0.9932127488919917  0.9252216978121339  0.6756844099203505
  0.9192209800006168  0.9563610510594600  0.3346093936718120
  0.8549132693091508  0.9953165999185032  0.9920539415590497
  0.7844002120328781  0.0448053015993963  0.6646432372465796
  0.7166284276777759  0.0862465220235791  0.3320541688144587
  0.6430865733529600  0.1275915196651169  0.9791860038458609
  0.5674337129044034  0.1657201666925658  0.6595855739879966
  0.5045409654383661  0.2122718076998638  0.3283360632370673
  0.0709663424801334  0.9676350560524725  0.3248813318870276
  0.1477066031765872  0.0063962072128589  0.9903885054483013
  0.2090321328171783  0.0412216676614818  0.6742568281958086
  0.2800917909705305  0.0813742457319719  0.3371841611496365
  0.3541792469866394  0.1202334079183274  0.9876923916502705
  0.4313275221455939  0.1613750092478909  0.6536469410166887
  0.8499553072895409  0.9103037938653955  0.6503686750606263
  0.7865123837789199  0.9561785728436476  0.3337910451507611
  0.7048544709804432  0.9978900518830613  0.9877004831978908
  0.6406730065674324  0.0495987772627657  0.6687697167599751
  0.5777321716832304  0.0832723669972211  0.3417867272979933
  0.4983575819922166  0.1231328309811488  0.9735947664020586
  0.1488009694074179  0.9129692300797103  0.6947266704617263
  0.2213043285619207  0.9621280128285434  0.3311561544978190
  0.2806158166403421  0.0014771940701692  0.9992442749118098
  0.3595762553847592  0.0431210482869204  0.6709704218344470
  0.4278453489486509  0.0780875318408434  0.3242813368176201
  0.7851100510711646  0.8746484510968102  0.9899534870482327
  0.7169796535617863  0.9142369936330539  0.6729239429485858
  0.6429594956021560  0.9585187514775981  0.3225991353536770
  0.5717183597858977  0.0008817539888639  0.9968336490405534
  0.4995904515332725  0.0491163703829329  0.6685854099337973
  0.2147274770206309  0.8735926068172830  0.9996218438616395
  0.2862117667870834  0.9175495406020460  0.6782913835685846
  0.3576358333011740  0.9612256252427045  0.3537084434125077
  0.4339754038962056  0.9994697302349422  0.9777442224682531
  0.7103818473860386  0.8282038785495871  0.3343819764497056
  0.6373207443286049  0.8668464186119991  0.9978076370368072
  0.5625168777357175  0.9088002496531473  0.6654190141507925
  0.5021526452817398  0.9583524438652660  0.3371332411462262
  0.2866486749835673  0.8361578475861720  0.3500744819517934
  0.3525460786579018  0.8684587395870054  0.9860883342223303
  0.4308483606358067  0.9222066883999744  0.6915584687378100
  0.6422026309215880  0.7776528106133540  0.6652201405666602
  0.5715992593282522  0.8282607218048597  0.3311306897896458
  0.4985350667181123  0.8722543216423162  0.0332011506205845
  0.3622693885860713  0.7836909071004925  0.6780064146985367
  0.4275451055106601  0.8308688651780756  0.3448620851019939
  0.5746990387307491  0.7492003919886017  0.0226208631223201
  0.5043043610949596  0.7850900979121676  0.6606773824838541
  0.4335587382434483  0.7500114429723794  0.0069168585861732
  0.5094489558564419  0.7095152464785244  0.3247904579622301
  0.9818507823335452  0.9958293908517604  0.7691280909200913
  0.9167144909525362  0.0481327680667931  0.4440614499522653
  0.8561499286239069  0.0828177554468326  0.1018635400744969
  0.7773281205907381  0.1301150752503091  0.7735116509858955
  0.7201758325584109  0.1786058934961048  0.4369849442170874
  0.6468290806710257  0.2058051019025200  0.1167927820634063
  0.5821239837639141  0.2519718773719006  0.7683112798468841
  0.5041328723481371  0.2983941779023525  0.4430773690367857
  0.4336035045481736  0.3386812629083096  0.1222621137890698
  0.3572231625403077  0.3648139681330278  0.7686613369969137
  0.2934598179944743  0.4144337550806014  0.4478218532745828
  0.2003680340876457  0.4653451059889164  0.0985155806667066
  0.0518981081135195  0.0503983428605466  0.4655691206067303
  0.9977557666752190  0.0809446410014090  0.1145103555852387
  0.9285032959386328  0.1449328902010691  0.7750228604597993
  0.8607761397178635  0.1789123589834247  0.4329389180490963
  0.7853777063648550  0.2062404059196226  0.1043562625225789
  0.7212718454744902  0.2610275352607232  0.7717087325244165
  0.6387870999611920  0.2932965318604559  0.4483110745550150
  0.5791716937083677  0.3239849303543494  0.1186575641985357
  0.5041527645373804  0.3676671262886302  0.7643117294271065
  0.4358420814920905  0.4271073956368596  0.4305024670883100
  0.3297778220216259  0.4615412452267122  0.1066583889518924
  0.2960928792143349  0.4916481866030864  0.7778346427787000
  0.1449183385352413  0.0682601929185438  0.0869532320022230
  0.0696795075962484  0.1287493980994725  0.7751148576628069
  0.9953933601825895  0.1778527966594652  0.4508539330425805
  0.9289303048636057  0.1963007652479689  0.1222045388328823
  0.8557383114223498  0.2552207161743922  0.7862945588690096
  0.7972194464512583  0.3023029867029123  0.4358181548833002
  0.7159102939613504  0.3129964506731824  0.1055164193153644
  0.6476733755928450  0.3682054750630712  0.7732706154721924
  0.5646212051592130  0.4223119596491998  0.4341302957906166
  0.4903225884887235  0.4391159659996049  0.1082524565547729
  0.4401526504172111  0.4941233815580048  0.7709905162328496
  0.3696782823989366  0.5396715919345496  0.4337961187286226
  0.2206823507869373  0.1227909618588754  0.7773128231217825
  0.1408550982915102  0.1925754067087837  0.4321826111512053
  0.0785526343949314  0.2015740485811435  0.1113893373734314
  0.0147534334694299  0.2554605441980939  0.7724497536945805
  0.9447017829958781  0.3054303727066952  0.4491442991165258
  0.8454670556159769  0.3247592698665613  0.1237128244664873
  0.7924594419047537  0.3834529347753204  0.7848351479401359
  0.7222778383767618  0.4166989840645101  0.4570016261984691
  0.6452719492273076  0.4521356025749981  0.1249284625073415
  0.5817458917834486  0.4961719312761588  0.7743764075715944
  0.4946871071215924  0.5610409766434046  0.4409852727737231
  0.4228864518998421  0.5726293666745050  0.1175648758163490
  0.2739011614286255  0.1721033487960710  0.4393743689964467
  0.2055594908709963  0.2107846001243274  0.1030001479177187
  0.1497760573777001  0.2373523709723955  0.7819794873978552
  0.0745923741524379  0.3111322342690528  0.4494882885023088
  0.9985632173970416  0.3298794676493202  0.1205852185372294
  0.9355217422676816  0.3685181856462663  0.7875866457191236
  0.8600459849696165  0.4250723024441143  0.4509151207770614
  0.7871545935534314  0.4550224673240422  0.1247161768199447
  0.7104554064181841  0.5106578123532373  0.7784426527474579
  0.6280382937795252  0.5333896549113319  0.4700399539213862
  0.5603734070136426  0.5875872092192083  0.1197104797464803
  0.5010794330988446  0.6214785155657765  0.7767929685293851
  0.3587497361836753  0.2185853665574129  0.1077981694061307
  0.2958673243745835  0.2396949099699270  0.7694440942728917
  0.2170116421997861  0.3012263094062817  0.4516048118083162
  0.1446246775939386  0.3357910686315506  0.1062787706692632
  0.0820192317591264  0.3820782753171699  0.7765578613786843
  0.0007953042000182  0.4227292014945689  0.4580703205332242
  0.9130016749286938  0.4499534846526458  0.1042586112767125
  0.8659615555188083  0.5016304040628299  0.7884207429951999
  0.7811032821134631  0.5338694094197152  0.4482373976342160
  0.7125398806267995  0.5834694556235220  0.1298483520621048
  0.6441897441533229  0.6205167364047171  0.7873146792650729
  0.5604722023804669  0.6671417801605770  0.4257231598811302
  0.4361804626347450  0.2364896819447040  0.7723332635580036
  0.3662474912213938  0.3085626184305283  0.4436919093488498
  0.2766312307396106  0.3383025202767769  0.1066648802987018
  0.2197467832900841  0.3647534162674049  0.7870590689251742
  0.1547294830239352  0.4191534486834243  0.4474190119096164
  0.0677599956307873  0.4579684416960532  0.1030102865569660
  0.0001370463669161  0.4954904230976354  0.7815157577197382
  0.9304226630530152  0.5390602852504784  0.4648363510042728
  0.8482731595386923  0.5807714791195195  0.1235096890590199
  0.7796294822761567  0.6300788617580793  0.7789732654405910
  0.7020410299078392  0.6720979998912640  0.4288207214798945
  0.6398627241416293  0.7106865113216827  0.1259533682658187
  0.1490905134564784  0.5092413402937908  0.7800046087576220
  0.0658017577764269  0.5407381511523610  0.4528726302908623
  0.9905903610876479  0.5836674446479009  0.1043468441978135
  0.9254159913671316  0.6222565689224098  0.7956380646086672
  0.8549332505333425  0.6865184451158868  0.4384784627314602
  0.7695468103231207  0.6968187034396891  0.1164503404348807
  0.7065377311502203  0.7491836235766556  0.7623827227618492
  0.2181677526852539  0.5240464180035218  0.4539519720121774
  0.1260049894929409  0.5880106033168815  0.0984113345316189
  0.0683441957947508  0.6283764067506681  0.7691158531939024
  0.9916399116445547  0.6627227893671801  0.4231404962863650
  0.9216282302212377  0.7097857780805796  0.1053799584933870
  0.8522775211638347  0.7454294980315410  0.7673430929147429
  0.7678000801394944  0.7965715812324063  0.4529867053344532
  0.2544299640710079  0.5971623953462597  0.1003000071717679
  0.2148118110326038  0.6238055185609710  0.7739862360318597
  0.1482218414037888  0.6653310309949134  0.4344931653047794
  0.0741420237878287  0.7191342930809270  0.0953499455393825
  0.9778249612665206  0.7527173759636412  0.7895803403900530
  0.9205124352662821  0.8056558877299125  0.4521434555372750
  0.8399348108611093  0.8385685383315291  0.0952280174094682
  0.3516481841391865  0.6169005568083392  0.7801269192324440
  0.2801062981451068  0.6582047236913056  0.4608782650595913
  0.2153061953587780  0.7230732391844228  0.1098930711753212
  0.1217455915527381  0.7517334647173683  0.7942639112135055
  0.0651017605445148  0.7869975249969556  0.4462545031981620
  0.0095066424110186  0.8349664988175931  0.1176686019982327
  0.9211023117511914  0.8849438401601972  0.7754895856959081
  0.4317416749651528  0.6782508536938039  0.4516355163897288
  0.3558657602101079  0.7011170629689545  0.1128562876237709
  0.2836397520446141  0.7530424595401612  0.7886294266619416
  0.2101880770272331  0.7911881004956243  0.4468458455290758
  0.1417901487538842  0.8334241756603475  0.1191490844789485
  0.0708723930435653  0.8851737207034134  0.7769247031560269
  0.9879259643576148  0.9276275353862005  0.4454189899460772
  0.9244524741759506  0.9661103950503502  0.1099211813695362
  0.8607792917146782  0.0129042046030392  0.7679173552311340
  0.7758511620789719  0.0643038702749124  0.4548009811875531
  0.7217057352444769  0.0868922372239851  0.1017468854354817
  0.6434407717732427  0.1158207776890023  0.7679145308991124
  0.5555750838437419  0.1824362994026458  0.4601777182122575
  0.5047961692507954  0.2106338147172053  0.0861053886874288
  0.0656660238276459  0.9682119781516008  0.1137742977269980
  0.1393152426890936  0.0085994458230729  0.7944670412421502
  0.2071418782425383  0.0598221822236837  0.4502536295871309
  0.2995485018001034  0.0874647655352732  0.1174538357754713
  0.3706437723404932  0.1198808723411773  0.7647107397230783
  0.4168439197115532  0.1641938241922460  0.4524994536009004
  0.8426843708874543  0.9346024135818354  0.4335308950815104
  0.7933022288933813  0.9571511951121536  0.0935868510109970
  0.7138007426626842  0.9864340900960400  0.7757743210352430
  0.6371311268376587  0.0655557291465172  0.4412157393420770
  0.5782964180441255  0.0832361411955631  0.1060501346947760
  0.5076521880299580  0.1198030039504729  0.7692989712994773
  0.1430800716791225  0.9238093265498080  0.4409416150822310
  0.2235386501182575  0.9498563627556322  0.1074441996082385
  0.2896539194337961  0.0000279019998359  0.7687168944450207
  0.3423709632129643  0.0272381284593664  0.4464965947547483
  0.4156769947152412  0.0913326194480248  0.1049627825564698
  0.7912460107462280  0.8889765976258772  0.7585068293163957
  0.7048226743289305  0.9327044102564841  0.4491981299614096
  0.6464863714125570  0.9613282666396969  0.1096713035137213
  0.5756870685528810  0.9877358320572540  0.7889808473444262
  0.5047870790144060  0.0354032909703648  0.4423509460010635
  0.2190973830921692  0.8778632124132102  0.7748171127357182
  0.2837238751547702  0.9236580043626219  0.4605245332747643
  0.3536887291213660  0.9711269000844425  0.1115056105640164
  0.4403573264130785  0.9912662435323796  0.7843007611039141
  0.6878154589345868  0.8387023232644069  0.1038714926691071
  0.6493718476756953  0.8717719151506316  0.7714450346710180
  0.5725413238822270  0.9152231634967052  0.4294362945265959
  0.4966665305901472  0.9646639889060964  0.1085942383806113
  0.2958382708101510  0.8387036149852207  0.1186786832633331
  0.3624104688619951  0.8772651468959012  0.7906638811817288
  0.4319792049689681  0.9154982151298512  0.4326348113152605
  0.6261957717223510  0.7997867759236783  0.4472631424895894
  0.5637279667039792  0.8367943110907206  0.1414475452381723
  0.4972309221435438  0.8526191421016662  0.7880859527470108
  0.3665312306030728  0.7989976797520058  0.4582413031103059
  0.4207133784294257  0.8362558440810091  0.1141935902320483
  0.5545967042717592  0.7656351284961147  0.7726514193377767
  0.4921923794415903  0.8162219796080734  0.4378741318798518
  0.4257035227404913  0.7550151662519085  0.7727889388920488
  0.5010356617798806  0.7164350262245094  0.1330782919537228
  0.0041787046175514  0.0046727915750608  0.2222859585740764
  0.9293201848940456  0.0502231799149371  0.8937400767379202
  0.8558830916845821  0.1014567753606670  0.5440384604006354
  0.7909397169046599  0.1139853397589405  0.2282930474188376
  0.7004112525463881  0.1586696134381711  0.8702861374200452
  0.6365964713516590  0.2161677434655189  0.5737249729938085
  0.5759283998817395  0.2319414145341483  0.2146327888765853
  0.5073116501854997  0.2754703817628226  0.8853380345768898
  0.4378115321127822  0.3477065871602534  0.5543565144309426
  0.3604181180901875  0.3671443047887735  0.2089994060879334
  0.3037029486850713  0.4057309127578819  0.8825494300685364
  0.2197583228447613  0.4439769880104691  0.5690622948762183
  0.0777469465058616  0.0485027227214800  0.8804470983473536
  0.9942792633295383  0.0999879995450144  0.5723497447298698
  0.9404849953531382  0.1116194414395650  0.2192486985481636
  0.8456888167928724  0.1622118127573415  0.8953625772645992
  0.7988636282779566  0.2031815410804185  0.5226304307095120
  0.7147942184973886  0.2239781303018233  0.2256104501629324
  0.6548194384552488  0.2910436210083347  0.9046683500898709
  0.5653642932647713  0.3324012898072084  0.5598825730511834
  0.4997260711543419  0.3679087722959551  0.2055776509769274
  0.4346479287244094  0.4038614886945524  0.8792662931370643
  0.3693262283109178  0.4550515954589471  0.5564359301111139
  0.2690246288918416  0.5133405142797898  0.2085300537434378
  0.1259851440049999  0.0988037639137076  0.5503090565986994
  0.0805125691639006  0.1092835180426732  0.2204961940321937
  0.0054516157688553  0.1729646230252513  0.8877370843175854
  0.9326220128130700  0.2255446193709005  0.5483244234570606
  0.8585117292181792  0.2414834076999455  0.2305403595745332
  0.7746175314821571  0.2823802969865525  0.8948260142449271
  0.7157768466275911  0.3374645053726866  0.5578958659237898
  0.6385514398820931  0.3660163326891990  0.2134997364375124
  0.5795189893767514  0.4236516493375717  0.8894204718127057
  0.5072925252097349  0.4747543504774328  0.5501500553570864
  0.4194142120078581  0.4832473166968967  0.2055771171284206
  0.3664308126607452  0.5378108242069644  0.9030422197519457
  0.2148067843222208  0.1137211479417175  0.2007001568824336
  0.1393519861918051  0.1564019810106174  0.8920924266126420
  0.0644967389196722  0.2239210190728826  0.5425556255799080
  0.9967493901527860  0.2350881301235503  0.2159570787594660
  0.9306502983242098  0.2927183104964755  0.8960069386858649
  0.8602300007429164  0.3420120014609083  0.5605606458177377
  0.7783566489293889  0.3647776424232205  0.2342443390094857
  0.7145896066200095  0.4248603994574225  0.9042444300012988
  0.6456468221125959  0.4637240906420885  0.5532707575628564
  0.5759545070484577  0.4970297458683817  0.2148835502046182
  0.4963529351857687  0.5347686060016912  0.9130756823265216
  0.4285968755485925  0.6030172330304211  0.5566003715872441
  0.2922093029933563  0.1562186267191805  0.8735291890971197
  0.2178198479981006  0.2182764334391578  0.5630992998561197
  0.1424219599628671  0.2491861716975308  0.2395116196094094
  0.0846178895782401  0.2850864906840087  0.8836000936812241
  0.0012857185804549  0.3348513549677463  0.5643605256906170
  0.9249893220043504  0.3618961716186178  0.2268321658292152
  0.8700238871864698  0.3997158671447423  0.9008724353084077
  0.7831462978071997  0.4570766794349055  0.5566135299891997
  0.7197707412168697  0.4963882155086381  0.2275698906753547
  0.6560875466518397  0.5521876554066409  0.9150420534565669
  0.5717003431333723  0.5895850575569170  0.5561494681685559
  0.5029365049565797  0.6205056713428334  0.2223279179011826
  0.3429914330745305  0.2139746555041029  0.5499950156210076
  0.2831424678926169  0.2536882742583018  0.2088073349260640
  0.2206208812663704  0.2748862534946994  0.8845563100355420
  0.1435126520950334  0.3484551045568409  0.5599407468500246
  0.0630980623092583  0.3739732183776567  0.2202803282876928
  0.0161049782651190  0.3985373215153061  0.8888741421892732
  0.9374314489998028  0.4476938140930500  0.5767515479813738
  0.8537136934738498  0.5004610038743209  0.2308728844404015
  0.7834133240927059  0.5484673337337185  0.8862210325553477
  0.7103612089396449  0.5858687271386103  0.5400435882149921
  0.6424453313973046  0.6242727967808150  0.2127622545350221
  0.5745406339498444  0.6737011088609108  0.9121902800127302
  0.4298324544253020  0.2607510116759073  0.2150167581814202
  0.3710185365356935  0.2781295246779933  0.8792168361744004
  0.2915716699481408  0.3328193397463153  0.5750352994437407
  0.2114723794425402  0.3735511338851580  0.2130837492211910
  0.1545273920051287  0.4222975111087095  0.8924656073367174
  0.0697638864598673  0.4643209517196354  0.5485964401134922
  0.0006916618458348  0.4977703438430581  0.2201818177743320
  0.9453682279217404  0.5293857439824308  0.8897792422130308
  0.8585495404677204  0.5852477098282378  0.5554955037494906
  0.7853508586823352  0.6231569493813396  0.2419792296624337
  0.7202216468515488  0.6706742080554875  0.8976163462529740
  0.6470105580554772  0.6959317161230629  0.5432765487657818
  0.1287739606870844  0.4997071819782235  0.2029793708566245
  0.0867325341385126  0.5415692574434559  0.8713319063008456
  0.0113817582563840  0.5736147361411312  0.5671159961810304
  0.9238123399982214  0.6207635474442483  0.2362444152095264
  0.8545882925357873  0.6571495127544722  0.8953609855802611
  0.7853499955510159  0.7174942901248258  0.5419850231065411
  0.7122085133794300  0.7496021528076113  0.2166143211248936
  0.2255659751119552  0.5571425947379254  0.8879734635606908
  0.1608751517487192  0.5685271264089380  0.5468609228272925
  0.0699312827225640  0.6295358287161719  0.2270348489670440
  0.0095452661651763  0.6571408309478173  0.8997695589810704
  0.9441750814513625  0.7114125248382805  0.5429918967982559
  0.8531315871668355  0.7423322821204863  0.2277498863722940
  0.7961226799097503  0.7856139874633143  0.8944112305409746
  0.3015937151478099  0.5798540058610868  0.5546587529191314
  0.2052369592238747  0.6270579953253161  0.2235739216573975
  0.1526470842213570  0.6696362882708158  0.8897778638888028
  0.0725505099265646  0.6970808456401940  0.5413863238860230
  0.0256772454928580  0.7467652203328328  0.2165834394904422
  0.9278251628413940  0.7888495999314955  0.8962512306306252
  0.8463544818528064  0.8385029389568430  0.5489570913100579
  0.3507312106857015  0.6185700036814055  0.2157095532436557
  0.2965920940039268  0.6698525269209696  0.8846282594566475
  0.2166561572009371  0.7016522725751884  0.5631106706948117
  0.1530300600354622  0.7541456096309176  0.2203712766195878
  0.0721009081889363  0.8098864123879252  0.8980436863785712
  0.9959382736262725  0.8405036255724667  0.5548320976974139
  0.9231693292725822  0.8763633895279099  0.2166795030860982
  0.4343169720249023  0.6500595928702637  0.8965654988637226
  0.3709564585056171  0.7070214389947225  0.5693756581217997
  0.2958481040382566  0.7457490633241193  0.2311916856793204
  0.2187731326275326  0.7831245559873494  0.8713327888765861
  0.1493806830338045  0.8281113258153923  0.5631060785218978
  0.0825368422453252  0.8626772313427793  0.2365195829616695
  0.0027653521950128  0.9249303776789333  0.8993460319950515
  0.9205480197391296  0.9735011789265968  0.5543348951352982
  0.8564031829652663  0.9978662200591799  0.2225602320963560
  0.7817423672565980  0.0382519509090145  0.8874518474027013
  0.7080986032433145  0.0958207569373428  0.5497732542347080
  0.6436338956586027  0.1132113424679773  0.2189246404030527
  0.5727405949240563  0.1633944807101884  0.8836247470831040
  0.4845160190857314  0.2137087832713576  0.5586809199585829
  0.0719182549702069  0.9630455555969064  0.5658361331618096
  0.1490787016392616  0.9938759400370643  0.2087290940711881
  0.2116427389055175  0.0392577330015982  0.8930357745733914
  0.2682486699716904  0.0909620820830810  0.5623320829056411
  0.3555917052975843  0.1306364162768219  0.2205565090521162
  0.4416646144566343  0.1595379982129401  0.8820095281424685
  0.8570136947839728  0.9239090098426033  0.8772662187299716
  0.7755691458944014  0.9731730421355422  0.5638052932132638
  0.7340242587703401  0.9859462595611745  0.2143042062421259
  0.6436688997531732  0.0193683541077547  0.8933924696432527
  0.5700586882084906  0.1028416884929939  0.5564422538178491
  0.4944880834147867  0.1249358340037574  0.2167056952805311
  0.1581348036215786  0.9136165095259656  0.8738237560343691
  0.2145791265524437  0.9674378766869012  0.5569936991532813
  0.2807785303805446  0.9985100195956349  0.2199933670107654
  0.3714292590709647  0.0412320809361404  0.8835716939268536
  0.4286644774349995  0.0716888282842731  0.5483273172655814
  0.7783201368143722  0.8705920899547195  0.2050456267901382
  0.7247035152564578  0.9044292437605534  0.8814085012348869
  0.6352891137443493  0.9670106879005544  0.5630095146954019
  0.5799484679809481  0.0115608420540951  0.2510644934714463
  0.5089134155165382  0.0418999296802127  0.8834565798733252
  0.2248699125159703  0.8621508662126658  0.2372203480997044
  0.2844422005421805  0.9052533341717250  0.8844326889200644
  0.3614629486745002  0.9533299505552364  0.5720347803870069