Li 
 1.0000000000000000
   -10.6364300000000007   18.4228371711498369    0.0000000000000014
   -18.2338799999999992  -10.5273355263713349    0.0000000000000078
    -0.0000000000000001    0.0000000000000000   22.3096999999999994
 Li 
 504
Cartesian
 -0.1670524100000000 -0.0732979900000000  0.3162220500000000
 -10.6257512599999995 16.6157935999999999 15.0590571400000002
 -10.5580244000000008 15.0966931399999993  7.5589855200000002
 -10.7060318700000003 13.0210718700000001 -0.4208134700000000
 -10.5789064199999991 11.4206907199999996 14.8713179499999999
 -10.3341730100000007  9.6937722599999994  7.6107251700000003
 -10.6928906700000006  7.8678543799999998  0.2062677100000000
 -10.7947550099999994  6.0800195800000001 14.5737712599999991
 -10.6294442500000006  4.3062858400000001  6.8938471300000002
 -10.4640391600000005  2.5365887300000001  0.0151579500000000
 -10.8211543999999993  0.9424113500000000 15.3198572800000008
 -10.6005773699999999 -0.7484009400000000  7.5337821700000003
 -1.7266033300000001  1.0289334000000001 14.9857702499999998
 -1.5012410300000001 -0.8549574599999999  7.5974490899999996
 -12.0635120699999998 15.7225786999999997 -0.1006538500000000
 -12.1129700600000003 14.1165009000000001 14.4715189100000003
 -12.0480590200000002 12.3485969200000003  7.7284164600000000
 -11.9918903100000005 10.6542864000000002  0.1828878700000000
 -11.8847293399999998  8.6254930299999995 14.8334932800000008
 -12.2190738200000002  7.0910947799999997  7.0040382299999999
 -12.4035572999999992  5.3247801499999996  0.2751792600000000
 -11.9108158999999993  3.7563955899999999 14.7493099799999996
 -12.3425269699999998  1.7586853000000000  7.3235947599999998
 -12.3487066900000002 -0.0109851700000000 -0.3605015200000000
 -3.0676497899999999  1.7093847099999999  6.9156857100000000
 -3.0905654800000000 -0.0854287800000000 -0.1763671100000000
 -3.1283522499999998 -2.0120068500000001 14.7270588599999996
 -13.8515900700000003 14.8407646199999999  7.7238951599999996
 -13.7199356300000002 13.2938715599999995  0.3997839200000000
 -13.6082824900000006 11.2235921899999997 14.9180818199999994
 -13.7287230099999995  9.6215394199999995  7.6774225700000001
 -13.7807561799999991  8.0532801900000006  0.4236146400000000
 -13.7261818499999997  6.1086325900000000 14.6732777700000003
 -13.7129582200000009  4.2668201799999999  7.1789246899999997
 -13.5448245600000003  2.6835436900000000  0.1105887400000000
 -13.7167020799999992  0.8191027400000001 14.7495347900000002
 -4.8000288099999997  2.6807421599999999  0.0050040900000000
 -4.8092273199999998  0.8184367700000000 14.8650844800000002
 -4.5899151900000001 -1.0520358100000000  7.2707833300000004
 -4.6486841600000002 -2.7191858600000001  0.6561158200000000
 -15.1440447599999999 13.9908834899999999 15.0244006500000005
 -15.1306403899999999 12.3392765200000003  7.7500762200000004
 -15.2443201199999994 10.5116367700000009 -0.1639515200000000
 -15.3529975899999993  8.7702885700000000 15.0594750299999998
 -15.2892277300000003  6.9923982100000002  7.6498617600000003
 -15.2765143699999992  5.4751832499999997  0.5682234200000000
 -15.2194363599999996  3.4029958400000000 14.9114619499999996
 -15.0620538199999991  1.6966854400000000  7.1063702099999997
 -5.9959785999999999  3.4548389600000000 14.7379288800000001
 -6.2887324500000004  1.6478252499999999  7.0801886600000001
 -6.0566017099999998 -0.1594656200000000 -0.4956118300000000
 -6.0667147200000002 -1.9168107700000001 15.1615185900000000
 -16.8921483600000002 14.7624102500000003  7.0880559300000003
 -16.7676411099999996 13.1369289899999995  0.0205782900000000
 -16.4833687600000012 11.4846267199999996 14.8859592400000000
 -16.7290990999999991  9.6902282199999998  7.5185115700000003
 -16.7392709199999992  7.9354780800000002  0.5115474500000000
 -16.6839637799999991  6.0351601600000002 14.5691282999999991
 -16.6671834300000015  4.5067993000000000  7.0798468100000003
 -16.7503494999999987  2.7751588500000000  0.5003671200000001
 -7.3682825400000000  4.5124405500000000  7.4083837600000004
 -7.6794298899999998  2.5324338599999998  0.0888873200000000
 -7.4849623400000000  0.8554452700000000 15.1820982400000002
 -7.6908770700000000 -1.0554549499999999  7.5618679699999998
 -7.3641071199999999 -2.5668894999999998 -0.1958529200000000
 -18.2479277499999988 14.0200245500000005 15.1538353699999995
 -18.0140090199999996 12.3072839999999992  7.3709529500000004
 -18.1536764200000000 10.6259200400000005  0.1533589400000000
 -18.3214010300000005  8.8640137499999998 14.8665218699999997
 -18.4037873199999993  6.9722236799999999  7.6417522099999999
 -18.1797722300000011  5.1959088700000002  0.4072310200000000
 -18.2700284999999987  3.4775677599999999 15.0989390700000001
 -9.1258423999999998  5.0397882400000000 -0.0399640900000000
 -8.8915427800000000  3.2816842799999999 14.6953278800000007
 -8.9662050700000009  1.6554621199999999  7.0478611600000001
 -9.0883134999999999 -0.2458670500000000 -0.2824045700000000
 -9.0469245399999991 -1.9928634500000000 15.0959450799999999
 -9.1064690099999996 -3.3314176999999998  7.5282615200000000
 -19.6032115400000002 13.1318217300000004  0.2350349900000000
 -19.5231188499999995 11.5225729799999996 15.2428854200000004
 -19.6771590799999991  9.5664770299999997  7.2703298399999996
 -19.7282277199999996  7.7418310600000000  0.1083687300000000
 -19.7135354000000014  6.1963873400000002 14.7132633500000001
 -19.6759437199999994  4.5446955100000004  7.1123836400000000
 -10.4508187199999991 -2.6551288500000001 -0.1689034100000000
 -10.5135254499999995 -4.4455572300000004 14.8035238499999995
 -21.4576976399999992 12.2372911900000005  7.8254056199999997
 -21.1376998600000015 10.6670780500000006 -0.1909072800000000
 -21.3125236099999995  8.8047967000000007 14.6259944999999991
 -21.1062662500000009  7.1342475800000003  7.4604115999999996
 -21.3296132699999994  5.1783396699999997  0.0756356600000000
 -12.0871724999999994 -1.7393970200000000 14.9433527500000007
 -11.8866657599999996 -3.3088998699999999  7.5576294199999996
 -12.1203696300000008 -5.1515977599999996 -0.1707106500000000
 -22.6530987099999983 11.4045533700000004 15.2257548499999995
 -22.8589866599999993  9.6436352999999997  7.4292565100000001
 -22.6615324300000012  7.9358520900000000 -0.1774854500000000
 -22.7218433500000003  6.0149584999999997 14.4568538300000000
 -13.7805961499999992 -0.8666079500000000  7.6815005899999997
 -13.5843953899999992 -2.6850243400000000 -0.4022638400000000
 -13.6091580499999996 -4.5973537200000001 14.6297838599999999
 -13.7862279500000007 -6.2842351100000000  7.5564950499999997
 -24.2602307400000008 10.5784585199999999 -0.0379776600000000
 -24.3129680400000012  8.9074954099999992 14.9240395699999997
 -24.1197252700000000  7.1375749400000004  7.1437146599999997
 -15.2841696900000006 -0.0239629700000000  0.1403682300000000
 -15.2217662399999991 -1.9406187399999999 14.8339894599999997
 -15.2067802099999998 -3.4030579900000002  7.2596618700000004
 -15.3426273799999997 -5.2152723999999999 -0.2238723300000000
 -15.1190864900000008 -7.0264281500000001 15.0371851099999994
 -25.8119762500000007  9.7138743900000009  7.4973944399999999
 -25.7522537800000002  7.7332216400000000 -0.2146744800000000
 -16.6928054199999991  1.1389700800000000 14.5446911300000004
 -16.6871561700000015 -0.6437480500000000  7.4972021399999997
 -16.7339057300000000 -2.4980515799999998 -0.7091148000000000
 -16.8296469100000010 -4.4009986100000003 15.0178254500000001
 -16.7260341600000011 -6.1422197299999999  7.2257474400000001
 -16.8226555100000006 -8.0145587000000003 -0.1766222300000000
 -27.4346192900000005  8.5576775000000005 15.0743164800000002
 -27.2154022500000004  6.8667247700000003  7.4650351900000000
 -9.0078285900000008 15.7992316800000001 -0.1772741800000000
 -9.1601924399999994 13.9791969399999996 14.8279912300000003
 -9.1949768400000007 12.2943827599999995  7.4080288899999998
 -9.1666337799999997 10.5042804899999993 -0.4643540100000000
 -9.0571906000000002  8.7091470999999991 14.7151562800000004
 -9.2370533300000002  7.0604195100000000  7.3250790700000001
 -18.3985700299999984 -8.8792175300000000  7.2480050499999997
 -1.6876986199999999  2.6538396799999999 -0.2144295600000000
 -2.9749865899999999  3.4170106200000001 15.0424675600000004
 -4.4629449599999997  4.3034314699999996  7.5224774800000000
 -5.9595243000000000  5.2592491700000004 -0.2745790500000000
 -7.5302775500000001  6.2474278400000003 14.5826671599999997
 -25.6388602699999986  6.0755147599999999 14.5095300300000005
 -25.8005292699999984  4.4237769199999999  7.4467780799999996
 -7.4586626999999996 13.0076312800000000 -0.2743985300000000
 -7.7188517399999999 11.2808715100000008 14.9200517500000007
 -7.6633861500000000  9.7668295799999996  7.6251593499999997
 -7.5459348000000004  7.8848999600000003 -0.5890928400000000
 -18.2296824800000010 -6.8697973799999996 15.4991436000000000
 -19.8972147300000017 -6.0515907999999996  7.3879944599999998
 -3.0116854700000002  5.1541885799999996 -0.0168600000000000
 -4.6108716899999997  6.1704650599999997 14.9691488199999991
 -5.9745857899999999  7.0600715500000000  7.2346193400000001
 -24.2990029999999990  5.2562369200000001 -0.2241346900000000
 -24.2961915300000015  3.5843198300000001 15.0127312899999996
 -24.3163095600000005  1.7544895899999999  7.1970899299999997
 -6.0971201099999996 10.5233917300000002 -0.0706403400000000
 -6.2094408699999999  8.6868090299999992 14.9159399199999996
 -18.2129165399999984 -5.2407131400000004 -0.0084365500000000
 -19.7747596399999992 -4.3865191000000001 15.1324772799999998
 -21.3308412099999991 -3.5304779499999999  7.8911292599999996
 -4.6062801300000000  8.0006405300000001 -0.4965197200000000
 -22.6572969300000011  4.3684689900000002  7.4599615799999999
 -22.5847910600000006  2.6156731999999998 -0.0489109600000000
 -22.5541260900000005  0.7959116899999999 14.8452985799999997
 -22.8155949199999988 -0.8378213100000000  7.5213414700000003
 -18.2953204199999995 -3.5216323500000000  7.8100566699999998
 -19.5852041300000010 -2.6476575400000000 -0.3103650900000000
 -21.3980945200000008 -1.7709300400000001 15.4284619700000007
 -21.0103713600000006  3.6445824400000002 14.8408617700000001
 -21.1821821200000002  1.8111015600000000  7.3874263500000001
 -21.2072139700000015  0.0019164500000000  0.7407077100000000
 -18.1429789499999998 -1.5761471700000000 15.1261197099999993
 -19.6975167700000000 -0.8702414600000000  7.6937696600000001
 -19.7735761399999994  2.7005029100000000  0.5046646700000000
 -19.6792366700000017  1.0258102499999999 14.7395142000000003
 -18.2871358199999996  0.0917599300000000  0.1543130400000000
 -18.3559340199999994  1.9161900999999999  7.2459776800000002
  0.2690892700000000 -0.2904546800000000 17.1590169699999997
 -10.6282166300000007 16.3817720000000016  9.9068777299999997
 -10.6164678000000006 14.9008604299999998  2.2725450199999999
 -10.6404988100000004 12.9508243400000005 17.2568128799999982
 -10.9167782599999992 11.3874379300000008  9.7490030099999991
 -10.6325777699999993  9.7498474700000006  2.6056119299999998
 -10.7861459800000006  8.0717828699999998 17.1407941599999987
 -10.8030576400000005  6.1462621899999998  9.8849231799999995
 -10.7874668299999996  4.4227954699999996  2.7276310800000001
 -10.4515532800000006  2.7405451099999998 17.1486038299999990
 -10.6781001700000004  1.0434792500000001  9.9907711999999993
 -10.6162473899999998 -1.2074963999999999  2.1978530500000000
 -1.4709679300000000  0.4255501300000000 10.3867074099999996
 -1.4520642399999999 -0.8934765400000000  2.5546916799999999
 -12.5186492400000002 15.5799078699999995 17.2905275100000004
 -12.4178516400000003 13.9744682299999994  9.6587373799999998
 -12.1141778099999993 12.2977236500000000  2.3281569100000001
 -12.4313022499999999 10.5399493199999998 17.2165903100000008
 -12.1423480399999999  8.6806397299999993 10.0016855800000002
 -12.0678215200000007  7.2592877400000004  2.6472146599999999
 -12.0663838499999994  5.4173690900000002 17.0515653900000004
 -12.4236287900000004  3.5331448399999998  9.6043808899999998
 -11.9233463999999998  1.2166435700000000  2.3795166600000002
 -12.1140252200000003  0.2791254800000000 17.3532575300000005
 -2.7860619299999998  1.9512090000000000  1.9399005199999999
 -3.0887422800000000 -0.0716938900000000 17.2925799399999995
 -3.1939483499999999 -1.9571834400000001 10.0584159900000003
 -13.4598267600000003 15.0470077300000007  2.7263465999999998
 -13.7556645599999996 13.0783334599999996 17.5419957199999992
 -13.9917252199999993 11.5045990800000002  9.7229722899999995
 -13.3218694499999994  9.8940801199999999  2.3540396600000002
 -13.6027469700000001  8.0557585599999992 17.2514354499999989
 -13.7059395199999994  5.9561048300000001  9.6853166599999998
 -13.2220697200000004  4.4104121000000003  2.4150798299999998
 -13.6914393000000008  2.9070579799999998 17.2005671199999988
 -13.7723642200000000  1.1292188800000000  9.6778612699999993
 -4.5862280400000000  2.7729333600000001 17.3416158899999999
 -5.0095922499999999  0.5676446200000000  9.6418643999999993
 -4.5109966100000003 -0.6748752500000000  2.4850626999999998
 -4.8149607699999999 -2.4175187600000001 17.2331222699999991
 -15.6174351500000004 14.1887191099999992 10.0202745699999998
 -14.9143727100000003 12.1570520999999996  2.7599960000000001
 -15.4207741800000004 10.5626135600000008 17.5094366999999984
 -15.2804969400000008  8.9196769899999993 10.1955691799999997
 -15.1075762400000002  7.1279568600000003  2.7871165200000001
 -15.2348389100000006  5.4940414400000002 17.2761053400000009
 -15.4916586299999999  3.2072734199999999  9.8382491400000003
 -14.9392572999999995  1.7625067699999999  2.6228371099999999
 -6.0514423400000004  3.2342468000000002  9.8023103599999999
 -6.0298402400000004  1.5679888200000001  2.2979023999999999
 -5.9209372000000000  0.2606118700000000 17.4457277700000013
 -6.4665443900000001 -1.9011902599999999 10.0279488699999995
 -16.6361303900000017 14.9236157200000008  2.6902200500000002
 -16.6701279000000007 13.3554501400000003 17.5708217900000001
 -16.8985362700000010 11.3696083899999998 10.0597810699999997
 -16.6693397999999995  9.7114467199999996  2.7823804900000000
 -16.8679824700000012  7.7127381399999999 17.3668220499999997
 -16.4058483099999997  5.9550753600000004 10.4864503599999992
 -16.6743671800000008  4.1379403300000002  2.6707048900000001
 -16.6616609900000014  2.6887919500000002 17.3300180899999994
 -7.8014758000000004  4.3080664799999999  2.4049448199999999
 -7.5175403100000002  2.9273668000000002 17.1660669100000014
 -7.8007535199999998  0.8268597200000000 10.0751678699999996
 -7.6610643100000004 -0.8705883600000000  2.3710474900000000
 -7.8391612400000001 -2.5112392500000000 17.3247729200000009
 -18.3528827300000010 13.9872767899999992 10.2194114299999992
 -17.9154762500000011 12.0832698900000004  2.3259783399999998
 -18.3574080600000009 10.6726371600000007 17.5894302499999995
 -18.0426611299999990  8.7699161799999992 10.0000418700000004
 -18.2177925999999992  6.9846274700000004  2.8968777800000001
 -18.1663068299999999  5.3354148800000001 17.5647543000000006
 -18.1260065099999998  3.3022627600000001  9.4977559800000009
 -8.9515274399999996  5.5460754100000003 17.2305234100000000
 -9.5218595599999993  3.4989756800000000  9.8986333900000005
 -9.1109362800000007  1.5349079800000001  2.3796614800000002
 -8.9881913000000004  0.2084776100000000 17.5590517099999985
 -9.2885629999999999 -1.5620129199999999  9.9817839300000006
 -9.0712660599999992 -3.5728560800000002  2.2981285900000001
 -19.6726005999999991 13.2091680199999999 17.4353821000000018
 -19.7255360800000012 11.4661567299999998 10.3703595400000008
 -19.6123155400000009  9.5136220700000003  2.7554641100000001
 -19.7812567699999988  7.7299354200000003 17.3786598599999991
 -19.7221645499999987  5.8581864299999999  9.5668616499999999
 -19.7644276400000010  4.3064514200000001  2.8099818600000002
 -10.8712362999999996 -2.6142842000000002 17.4016688200000011
 -10.5596503500000001 -4.4802768799999999 10.1034525199999994
 -21.1788671800000010 12.1050219000000006  2.3279467899999999
 -21.1892740199999992 10.4980844399999995 17.7504465300000014
 -21.6113326199999989  8.5230860499999999  9.7823229600000001
 -20.8909394000000006  6.8415912900000002  2.5979721599999999
 -21.1755634099999988  5.1295222000000003 17.0085298300000005
 -11.8759255300000000 -1.4975434900000000 10.1275323099999994
 -12.0619580299999996 -3.8688155100000001  2.1955273499999999
 -12.1846782499999993 -5.3560352800000004 17.1587439500000016
 -22.6315163199999994 11.2921154599999998  9.4401375299999994
 -22.7449828600000004  9.5068537800000001  2.3509952599999999
 -22.6572622099999990  7.8539835599999996 17.1191941999999990
 -22.6912424299999991  5.7592795499999996 10.1059975000000009
 -13.5948139599999998 -1.5992071000000001  2.2376630700000000
 -13.6592257600000000 -2.6095669799999999 17.2674007299999985
 -13.7081174200000007 -4.2734961499999997  9.6934121700000002
 -13.9012148500000006 -6.2046615599999999  2.1272286800000000
 -24.1255250600000011 10.0902016700000008 17.6153005200000017
 -24.4811988599999992  8.4770408600000007 10.0871848499999999
 -24.2242659200000006  6.6460898899999998  2.1245085000000001
 -14.9887720200000008 -0.0159619100000000 17.4043975300000007
 -14.9809569800000002 -1.7687892500000000 10.2820558299999991
 -15.4745199499999995 -3.6454836199999998  2.4516814500000002
 -15.0019562499999992 -5.6708512000000004 17.7197895800000005
 -15.0424687499999994 -7.0856278699999997  9.9558040900000009
 -25.9622256799999995  9.8080040099999994  2.6251512099999998
 -25.9332000499999999  7.6532171800000004 17.3009400100000015
 -16.9593347799999989  0.8137322700000000 10.0758528799999993
 -16.5692256399999991 -0.8248376100000000  2.5177899199999998
 -16.7478002100000012 -2.7020816700000001 17.5940859200000013
 -16.6620796499999990 -4.4568418799999998  9.9689967599999996
 -16.7046974000000006 -6.1615591099999998  2.6581803300000000
 -16.8939806499999996 -8.0128502000000008 17.3329570500000010
 -27.4222545300000000  8.4349528700000000  9.9371640400000008
 -27.4488150399999995  6.8604691200000003  2.4523085800000000
 -9.3909123999999995 15.7221498400000002 17.1320058199999998
 -9.4247956300000002 13.6164312100000000 10.1464734500000002
 -9.2607551600000004 12.3811235100000001  2.2699424900000000
 -8.9557748900000007 10.6347203799999992 17.1319428100000017
 -9.2358570800000006  8.3147011699999993 10.2664268399999994
 -9.2099008199999997  7.0823647899999997  1.9209853900000000
 -18.3527130900000017 -8.9829378900000005  2.5382704500000002
 -1.6386180900000000  2.4760527799999998 17.7243213500000003
 -3.2940405799999999  3.1863729099999998 10.0450233999999998
 -4.7809487099999997  4.5977623400000001  2.6203598399999999
 -6.1282199799999999  5.5662836999999996 17.0604671900000007
 -7.4276216599999998  5.9509241800000003 10.0951270599999994
 -26.0045815800000000  5.6857637600000004  9.6719442099999995
 -25.8904836600000010  4.5386260099999998  2.0878945700000000
 -7.3449324599999999 13.2930477400000004 17.3072923699999990
 -7.9721359300000003 11.0476358500000007  9.8433907800000000
 -7.6687271800000003  9.7776059600000007  2.3659466899999999
 -7.5840805600000003  8.0911871800000004 17.1628292599999988
 -18.3664895699999988 -7.0893098800000001  9.8372751500000000
 -19.6972201399999989 -5.8812404799999998  2.3970478599999998
 -3.0813923999999999  5.3359532600000001 17.1498433000000006
 -4.1382615500000002  6.0206995900000004  9.9612050799999992
 -6.0866672800000003  6.6964604599999999  2.3416881900000002
 -24.6255254100000016  5.2184415000000000 16.9220598100000004
 -24.5036173300000009  3.1659410900000000 10.0214755199999992
 -24.4050512899999994  1.7898879400000001  2.4467338800000000
 -24.1335118400000006  0.2075626100000000 17.6019260099999997
 -6.0146717900000004  8.9269078400000001  9.8687169000000008
 -18.3372664500000013 -5.2051651699999999 17.2859373400000003
 -19.8596783499999994 -4.4966589700000004 10.2741641799999996
 -21.4693967699999995 -3.7074288499999999  2.4876567199999999
 -22.7584596099999992 -2.3227610200000002 17.4975146899999991
 -22.6086984999999991  3.8422114399999998  2.3173418400000001
 -22.8027826900000008  2.7858363599999998 17.2107072899999984
 -22.7778650499999991  0.9129742600000000  9.5805948999999995
 -22.8723261999999998 -1.0053348600000001  2.4227048799999999
 -18.4394841300000003 -3.3791340700000001  2.6476858200000000
 -19.8507010000000008 -2.5586354899999999 17.6394739899999990
 -21.2878011700000016 -1.6794743299999999  9.6519528500000007
 -21.2437035899999991  3.1166790000000000  9.9783065299999993
 -21.2540601100000011  1.5762540599999999  3.1556522999999999
 -20.8353170200000015  0.1845965300000000 17.5819611800000004
 -18.4674115900000011 -1.6587714800000000 10.2232260000000004
 -19.7230771099999984 -1.0528117900000000  2.5476247399999998
 -19.8594280800000007  2.1571468899999999 17.2376213699999994
 -20.1180634199999986  0.4749374200000000  9.7688405199999995
 -18.2948216600000002 -0.1056313000000000 17.2406893900000000
 -18.3926210400000016  1.6883465099999999  2.9689367700000000
 -0.1296496200000000  0.0277915500000000  4.9591330500000002
 -10.8004125299999991 16.5919981800000009 19.9390729899999997
 -10.9534912599999998 14.6997253200000007 12.1373348399999994
 -10.4911699400000007 13.3713917000000002  5.0931493999999997
 -10.3430379499999994 11.2331941999999998 19.4158226399999982
 -10.7126905000000008  9.4522427699999998 12.7996320299999997
 -10.3550140299999995  8.1685100399999993  4.7883931300000002
 -10.4188787400000002  6.4461507899999999 19.7516259500000011
 -10.9967918999999998  4.4053066599999999 12.3675275300000003
 -10.5280272799999999  2.7748730199999998  4.6627140499999999
 -10.6283639300000008  1.3238045199999999 19.6894130199999999
 -10.4328671400000008 -0.6253229200000000 12.6956090800000005
 -1.7113427800000001  0.9217149000000000 19.6425106300000003
 -1.7623209700000000 -1.1579994199999999 12.7689511000000007
 -12.0386583199999997 16.1513466200000018  4.8913726899999999
 -11.9528606300000000 13.8723291900000003 19.9752704899999998
 -12.2018448999999993 12.5783742899999993 11.6597281200000005
 -11.6868490200000004 10.8106445699999991  5.0333014599999997
 -12.2717955799999991  8.9997180399999994 20.1828794900000013
 -12.0744229599999997  6.9163144100000000 12.4908122400000003
 -12.0237057800000002  5.3332729499999996  4.5863757200000004
 -11.9870641899999999  3.7558626199999998 19.6161672200000012
 -12.2256687599999996  2.0135561399999999 12.4139186699999993
 -12.2216509700000007 -0.4479109000000000  4.6522429399999998
 -3.1416081400000002  1.2808634200000000 12.2772299599999997
 -2.8490288600000002  0.3328056900000000  4.9192039400000001
 -13.8482319100000009 16.7024147800000016 19.8051480300000016
 -14.0323222800000007 14.8071596000000003 12.2329533900000005
 -13.5346793900000009 13.2740449399999996  5.1432862600000000
 -13.3880535999999992 11.2979405199999992 19.9632999300000016
 -13.7665976200000006  9.6340382200000008 12.4464894000000008
 -13.4658055799999996  7.9107524600000003  4.7631150699999996
 -13.8888265000000004  6.2164609200000003 19.8427039000000001
 -14.0523952899999998  4.3478692499999996 12.2736826899999993
 -13.2725434900000003  2.6394930900000002  4.5863638099999999
 -13.7038937199999999  1.0889802000000000 20.1466010100000013
 -4.3583550899999999  2.7601697299999999  4.4775602900000004
 -4.3340225999999999  0.9207628200000000 19.9023144099999989
 -4.7689640400000002 -1.1690787800000000 12.1042532400000002
 -4.2519938699999997 -2.5347370800000002  4.8179376400000002
 -15.2361872999999992 14.0636750399999997 19.9896460000000005
 -15.3859819800000004 12.2474021400000002 12.5059398399999999
 -14.9302477699999994 10.4994011700000005  5.2259209300000000
 -15.3475358699999997  8.6921199900000001 20.1734219599999989
 -15.3228666499999999  7.0128671799999998 12.3433046199999996
 -15.1888805399999995  5.3783171999999997  4.7939875399999998
 -15.0303298400000003  3.5145407600000000 20.3704445499999984
 -15.5540845300000008  1.5478057100000000 12.4175873100000000
 -5.9565354900000003  3.7387585099999998 19.4881741499999990
 -6.2968518600000003  1.7149903399999999 12.5625764499999999
 -6.0584919599999996  0.0005501400000000  5.3434323800000003
 -6.0982651199999998 -1.4422995400000000 19.7128530099999999
 -16.7557448800000017 14.9214311899999998 12.5907140200000001
 -16.4373555399999987 13.2311252400000008  5.0605575700000003
 -16.5423193300000015 11.8203653600000003 20.0981937700000017
 -16.6641620999999986  9.6159771599999999 12.4178808699999994
 -16.7068742599999993  8.0345738699999991  5.0770159899999996
 -17.0469527099999993  6.2739293199999997 20.4143137000000010
 -16.8312738700000004  4.3255826099999997 12.4075277899999996
 -16.6636748799999985  2.7332459400000002  4.9600691499999998
 -7.5497925600000002  4.0662923299999996 12.2702238000000001
 -7.6373465899999999  2.5456259999999999  4.6584289999999999
 -7.3588615199999996  1.1706427500000001 19.7341859100000008
 -7.8801508399999998 -1.0243935799999999 12.4921100799999998
 -7.4901209099999999 -2.7744962200000001  4.9143880400000004
 -18.0746111700000007 14.5240004599999999 19.8305154500000000
 -18.1341192699999993 12.5571239499999994 12.8671540100000001
 -18.2058118299999983 10.4593074599999998  5.1507047899999998
 -18.3334085299999998  8.6587964599999996 19.7713253699999996
 -18.2383673399999999  6.9192322199999996 12.0482104400000001
 -18.2162400600000005  5.2637365400000000  4.7466620700000002
 -18.3952464099999986  3.4923909300000000 20.3506914899999991
 -9.3263854700000000  5.1737199299999999  4.7969593699999997
 -9.0176930700000000  3.9072512599999998 19.6150638499999985
 -9.1698695600000004  1.8678765399999999 12.8288650200000003
 -9.0605977099999997 -0.0365769100000000  4.7538345199999998
 -9.3437419300000002 -1.5988346099999999 19.9106399600000010
 -9.2084112099999995 -3.6028137299999998 12.2390220000000003
 -19.7200715299999985 13.1953841199999999  4.9121902999999998
 -19.7080991099999991 11.8433435800000009 19.8507079600000012
 -19.8032386000000002  9.6558193800000005 12.3929380400000007
 -19.7158984699999991  7.9082087000000003  5.3984840199999997
 -19.8895801600000013  6.2081137100000001 20.0255514000000012
 -19.5714179100000010  4.5934634799999996 12.1203368200000003
 -10.4812960099999994 -2.8882034600000002  4.5284088699999998
 -10.7974333799999993 -4.1034219299999997 19.4391534300000011
 -21.2167135400000006 12.5938866600000008 12.6521877400000005
 -21.1449933200000011 10.4842581700000004  5.2705420299999997
 -21.0721539100000008  8.8259075500000002 19.9752349799999998
 -21.4360250400000005  6.9150719599999997 12.0915232699999997
 -21.2435116999999991  5.2295881000000000  4.8326005199999997
 -12.5580879200000002 -1.7096617999999999 19.8104215799999999
 -12.0775926899999995 -3.0212990899999999 12.2003031300000000
 -12.2226999500000009 -5.3390022600000000  5.0650793700000003
 -22.7201846100000004 11.6807460400000007 20.0735889299999997
 -23.0144627700000015  9.9051054399999998 12.1139863200000004
 -22.6098721599999983  7.9023233099999999  5.0810316400000000
 -22.7926943299999998  6.3964164600000002 19.9540462299999994
 -13.7808688000000004 -0.5481057700000000 12.3742703800000005
 -13.6166887899999995 -2.8202028299999999  4.9878671199999998
 -13.8336877499999993 -4.2372935099999998 19.8506772100000006
 -13.4821669100000001 -6.0018177200000000 12.0781664699999993
 -24.5259716400000016 11.0344368500000005  4.8319115600000000
 -24.2525363399999989  8.7886874800000001 19.9950960799999997
 -24.2913521699999997  6.7650490300000001 12.2470680200000004
 -15.0094591899999994 -0.0504299900000000  4.8124154199999998
 -15.3686916399999998 -1.5876944500000001 19.7357910799999985
 -15.0982913900000000 -3.3951077900000000 12.5628301300000000
 -15.3786940699999999 -5.1198959899999998  4.9164170699999996
 -15.5342679199999996 -7.1976427100000002 20.0350852300000000
 -25.9188699800000002  9.4997449700000001 12.3781376499999993
 -25.7987308300000002  7.7816267899999998  4.8340547100000002
 -16.4726906799999995  1.1579554100000000 20.0021073099999995
 -16.8373964799999989 -0.6089814800000000 12.7026001199999996
 -16.7446665800000005 -2.4003891600000000  5.1578171499999996
 -16.6063642899999984 -4.2137931599999998 19.4391731199999995
 -16.6885597200000007 -5.9657897799999997 12.5627276800000001
 -16.6078504600000016 -7.5611298600000003  5.2766809400000003
 -27.5309129900000009  8.7367303799999991 20.0641401700000017
 -27.5420482500000006  6.7107327300000001 12.3670452100000006
 -9.0701654200000004 15.7998394100000006  4.9652520100000004
 -9.0124294500000008 13.9992212200000008 19.7987844799999984
 -9.2788254099999996 12.0364480100000009 12.2652763700000005
 -8.9102489100000000 10.6657486699999993  4.8841430499999996
 -9.0712305999999998  8.8313982000000006 19.7134030200000012
 -9.0502610299999997  6.6763756599999997 12.4640037199999991
 -18.3250105800000007 -8.8133653899999995 12.6236343800000004
 -1.4739998000000001  2.8109226800000000  4.6566834699999999
 -2.9669439700000000  3.4857803900000000 19.9233602199999993
 -4.5117998899999998  3.9843132099999998 12.5454600700000007
 -6.1642350199999996  5.1757546999999997  4.9205495499999996
 -7.6067314699999997  6.4572052400000004 19.6773679699999988
 -25.9620121899999994  6.0623236100000000 19.5715461600000005
 -25.9940074000000010  4.0432649500000002 12.5783269499999992
 -7.5511434299999998 13.6707578400000003  4.7810625499999997
 -7.1994994400000003 11.6543101700000005 19.9313179799999993
 -7.9385923399999996  9.4194494300000002 12.4140597499999998
 -7.5376528900000004  7.7946320000000000  4.8346390499999998
 -18.3407635700000000 -6.7046558000000003 19.4947458500000010
 -19.9225020099999988 -6.2313868200000000 12.4263623299999999
 -2.9593130599999999  5.1884226699999996  4.9079860200000001
 -4.7025021300000001  6.4087168099999996 19.7122194200000003
 -5.8666251999999997  7.1425235200000001 12.2330179500000007
 -24.1528193500000015  5.1738501100000001  4.5745064199999996
 -24.1995125100000017  3.8298647500000000 19.6639592400000005
 -24.3895650300000000  1.5237819300000000 12.5605733700000002