Li                                      
   1.00000000000000     
   -10.8535000000000021   18.7988134399488125    0.0000000000000014
   -18.6059999999999981  -10.7421791085421763    0.0000000000000014
     0.0000000000000001    0.0000000000000001   22.7650000000000006
   Li
   504
Direct
  0.0190640326906930  0.0450915441895958  0.9743162736657140
  0.9218177616894607  0.0527556059068814  0.6591722055787415
  0.8496125927106135  0.0725900851883949  0.3384706009224701
  0.7873094818916968  0.1140354556749728  0.0057316099275226
  0.7006911321069467  0.1849576199977037  0.6679674245552363
  0.6521982436266782  0.2087300598085520  0.3230505249286182
  0.5821131627909040  0.2501188158469816  0.9983416389193920
  0.5054148720944838  0.2963030729722931  0.6720406984405898
  0.4375063185504047  0.3426971198330193  0.3303770344827583
  0.3457647389973246  0.3667763079271538  0.9918146198111160
  0.2834824316428382  0.4314095779944367  0.6735754381726338
  0.2188357737826792  0.4608270310249196  0.3345214614539884
  0.0558077591524793  0.0453825930365781  0.6672607370964201
  0.0105430626866934  0.0938305094663008  0.3567273063913916
  0.9359459514615907  0.1413635851774515  0.0112971864704576
  0.8541864681278142  0.1651474453496036  0.6469400241598962
  0.7796373706169248  0.1919684842528824  0.3389305679771581
  0.7242825994009081  0.2501729236484067  0.9910548671205817
  0.6439085245864149  0.2951771529829799  0.6617405113112227
  0.5742842821967216  0.3363089924313627  0.3331947766307906
  0.5076483644839698  0.3818301320043673  0.9985075444761691
  0.4275512079428267  0.4262064417173264  0.6647937179881396
  0.3503157178457599  0.4627732105966373  0.3340261449593669
  0.2780082172028671  0.4908793203584167  0.0002112049198360
  0.1407682975087425  0.0613465663220936  0.3431962934329036
  0.0802884509868917  0.1529739985603413  0.9983129624423484
  0.0028390684982327  0.1691482231567463  0.6729332831100407
  0.9300875695801381  0.2040176235387534  0.3377838484515721
  0.8640474262402194  0.2508342480544883  0.9969003843619575
  0.7956774710109329  0.2811116380943162  0.6538481950362396
  0.7316637084388518  0.3385527330140263  0.3318913424115948
  0.6431692992582896  0.3758078501827455  0.9959825328354910
  0.5697358276310283  0.4266298250460423  0.6545972062376464
  0.4907872465771774  0.4704002256946467  0.3255805433779955
  0.4226845883354287  0.4984552795066861  0.0030574706786766
  0.3438395326200521  0.5337880470121590  0.6799057645508455
  0.2243086202239226  0.1368361437385630  0.9948102336920712
  0.1448563405907919  0.1653514751906826  0.6671813432901388
  0.0716449898259910  0.2038914298034840  0.3554268802987011
  0.0139733735919165  0.2646821380049502  0.0032232804744154
  0.9332463484299964  0.2832167772393319  0.6647173520755558
  0.8564782452505995  0.3215854458332075  0.3238769747419283
  0.7882384941989429  0.3731390789644067  0.0026535269053340
  0.7148968133443816  0.4038991715772724  0.6517134733142953
  0.6421771619647529  0.4485954166728803  0.3386408794201614
  0.5797477746101762  0.5064549531478235  0.9928088332967278
  0.4873188857693833  0.5304870763894485  0.6719775339336707
  0.4338792998114229  0.5907122454851503  0.3456701950362415
  0.2728306210194020  0.1614542633970757  0.6640477579617823
  0.2174105100109855  0.1950570649035654  0.3358373990775334
  0.1634646314684218  0.2719533291603540  0.0065562227103015
  0.0824063607316106  0.3138481250026572  0.6703971056446321
  0.0014872296353232  0.3265940827234743  0.3443542991434185
  0.9175339932024755  0.3736656559592006  0.0087610375576546
  0.8652287433206567  0.4192771683526431  0.6571733819459666
  0.7924983524848201  0.4497414361660717  0.3383193494399279
  0.7231102281742992  0.5088523883967682  0.9914273951240915
  0.6344391507205955  0.5428503755591763  0.6572253204480560
  0.5848427478555251  0.5706023216247473  0.3167591851526481
  0.5065636413865704  0.6294742297221774  0.9953641014715586
  0.3675211751932892  0.2144427843190186  0.3480573279156616
  0.2985157320200074  0.2583632861722478  0.0043039262025033
  0.2105483321324613  0.2974911424916868  0.6575940733582257
  0.1484160249333044  0.3370500340420506  0.3367258699758366
  0.0588535147446478  0.3817403975985698  0.0011838651438580
  0.9823506138394151  0.4096251726697773  0.6660637658686568
  0.9224438987478578  0.4514042693185090  0.3326068855699518
  0.8465582527644173  0.5035014986359982  0.9831387858554805
  0.7838920550565831  0.5286605783319018  0.6504585297605985
  0.7370233025578870  0.5783364960597623  0.3325953823852430
  0.6426836331606083  0.6184124211271254  0.9948794008346127
  0.5636851037064190  0.6711820330496820  0.6456560742367685
  0.4421563569391225  0.2577463452628805  0.0143513714034711
  0.3480207346305733  0.2995053900186520  0.6803530340434847
  0.2744335215523535  0.3333805699146311  0.3333027375356892
  0.2004416444290982  0.3804211545839422  0.0036173815067002
  0.1467503344837553  0.4175511090336741  0.6584286518778839
  0.0835405402197935  0.4563521545052396  0.3301004173072712
  0.9911541025373509  0.5056545779915567  0.0004827827805869
  0.9300185249120787  0.5414799005625497  0.6662930256973425
  0.8657238037362660  0.5701265874528900  0.3311208925982854
  0.7812981752605879  0.6316004796737218  0.9878851741708772
  0.7141508068407063  0.6678255271393354  0.6577727204041324
  0.6687712752175301  0.6989361842645678  0.3158468174829778
  0.1395997678048460  0.5045203386074419  0.9952041401273917
  0.0834951926946985  0.5422980627801834  0.6746646312321545
  0.0066002331386912  0.5697466956696360  0.3500886167362154
  0.9258628457202249  0.6474070323538399  0.9994178436195895
  0.8464870671496527  0.6647300573305017  0.6675210972984829
  0.8000540632419089  0.6959830562508884  0.3284318642653190
  0.7212228370217844  0.7505850982685160  0.9826031522073322
  0.2008454443755099  0.5481402590277540  0.6720846220074677
  0.1446930736560645  0.5878506366265697  0.3263296499011616
  0.0786212167987301  0.6375236930815333  0.0018319319130242
  0.9843880419975122  0.6700256522723862  0.6588772440149384
  0.9266553761996192  0.7081909520809120  0.3277663742587293
  0.8645705993711701  0.7598766247299267  0.9939895383263746
  0.7936052643551292  0.7889829981361700  0.6575735110915844
  0.2926261431099064  0.5854573479391902  0.3428860448056241
  0.2123755290776117  0.6217836421130869  0.0021965012079974
  0.1352802515583420  0.6729016392406493  0.6797879182956308
  0.0759076270343328  0.7101097377180920  0.3444664199428971
  0.0137776180313196  0.7586354666611399  0.9971171394684788
  0.9187027523000353  0.8130744403908210  0.6687486505600688
  0.8484432224864236  0.8196350298153021  0.3084127160114178
  0.3624416247182793  0.6294170770783651  0.0031169097298474
  0.2799428983940047  0.6769452070450797  0.6617781322205118
  0.2098353608251102  0.7073336456672408  0.3365780347023914
  0.1563735901578838  0.7567857970128671  0.0075555036239834
  0.0591040992402796  0.7911542378208978  0.6770571917417101
  0.0016802186629548  0.8313621227959587  0.3338341300241581
  0.9541137086513274  0.8976581373295076  0.9953903004612314
  0.4259843679276116  0.6632477180854366  0.6602008644849562
  0.3535326105734384  0.6991796362002134  0.3393516081704391
  0.2888313655230306  0.7511957354775731  0.0052209163189119
  0.1973028688383565  0.7967579115910368  0.6688269369646420
  0.1485690141847371  0.8436945659758166  0.3438618660224009
  0.0795800118703909  0.8917389944730090  0.9996915888425235
  0.9862975256508761  0.9148415895597211  0.6705535365692938
  0.9403792264185498  0.9510266992403658  0.3221663777728949
  0.8527719519007562  0.0079986955844973  0.9957233727212795
  0.7814221049430472  0.0545223983661529  0.6700015611684620
  0.6998784705637178  0.0739014645671645  0.3281849580496399
  0.6501022167847097  0.1279531151309854  0.9961116920711603
  0.5655774524913184  0.1755866306237479  0.6614796200307467
  0.5056485289563213  0.1921073686430503  0.3319823848012291
  0.0725561741956753  0.9632421306765124  0.3421425200966368
  0.1404413557361082  0.0181369593420442  0.9968898027674058
  0.2038496590712313  0.0400675306498073  0.6748393924884724
  0.2821502562591576  0.0618057037348834  0.3461691710959798
  0.3725356804505680  0.1461656364737038  0.0124181511091592
  0.4148512660479611  0.1701624956437939  0.6638953410937845
  0.8391752212065455  0.9283693500287384  0.6768879732044795
  0.7925213628204162  0.9552835288954427  0.3250606452888221
  0.7196259772968432  0.9871239973884087  0.9992659169778193
  0.6348438425213061  0.0414437689559861  0.6816400439270822
  0.5753273507400252  0.0785275254618440  0.3319083496595638
  0.5094364108998803  0.1262734706169013  0.0020346268394462
  0.1270361913398901  0.9156172915883332  0.6703294109378461
  0.2180463744091199  0.9419251002553253  0.3352728776630798
  0.2984781463566790  0.0095827613951300  0.0149173850208655
  0.3396244581495438  0.0409052850410561  0.6696158089172002
  0.4332512419975174  0.0721977117585695  0.3385341634087382
  0.7941283085068633  0.8803508053112310  0.0000673112233684
  0.7025468986079630  0.9060927295473746  0.6622780751153101
  0.6466512314920223  0.9498440110180226  0.3351633265978506
  0.5798666354049118  0.0042843261653616  0.9965382407204046
  0.4832717300833735  0.0490098386294804  0.6737775339336736
  0.2253589802610634  0.8831050079402658  0.9890731254118137
  0.2622261634242804  0.9094982513852798  0.6844832475291014
  0.3636811628320515  0.9678398913899997  0.3337802503843648
  0.4367033356116181  0.9994658769719038  0.0261524467384149
  0.7296970274231711  0.8236085645954319  0.3359718444981326
  0.6344932260599023  0.8686733865935068  0.9959860052712486
  0.5507561101976464  0.9067944043840654  0.6653737895892817
  0.5053108234908166  0.9586124431496543  0.3298211289259854
  0.2863737439373892  0.8318736418454051  0.3325994768284630
  0.3508106027379441  0.8689885710622249  0.9953115229519014
  0.4118229879231095  0.9172852649992791  0.6741685130683095
  0.6472468595568444  0.7859163990003140  0.6637254575005471
  0.5717193990020633  0.8177195030060815  0.3071770261366140
  0.5081853821535276  0.8703499287754894  0.0023931126729622
  0.3559874456953978  0.7901655970195094  0.6759902372062356
  0.4286262226553035  0.8273158197576436  0.3432243786514420
  0.5690587561033311  0.7487370617345235  0.9915537816824056
  0.4884950494012799  0.7890358487220865  0.6479213331869076
  0.4181423831371873  0.7463264427937517  0.9981084423457034
  0.5078578726984588  0.6933810028306624  0.3411495110915865
  0.9926755608810680  0.0245474696322319  0.7762155414012710
  0.9287756782413510  0.0403506168014331  0.4518060030748927
  0.8512460429129689  0.0841733109343252  0.0989083869975858
  0.7801916136766351  0.1309387284188190  0.7711133353832622
  0.7245806857279291  0.1434929698727245  0.4371784902262235
  0.6423184274357183  0.2115077968304035  0.1185389984625544
  0.5808118102500828  0.2466563048183801  0.7859813362618056
  0.5034891383460049  0.2729674055122899  0.4360398458159480
  0.4180243534032400  0.3367648925259559  0.1239872650999345
  0.3738407123030356  0.3834851993453157  0.7781184502525775
  0.2893622943161205  0.4112026985187569  0.4389142451131107
  0.2106482424260392  0.4731970999048158  0.1073930362398414
  0.0777558595156904  0.0466081790146475  0.4543974232374239
  0.9964032337868858  0.1066601898362904  0.1116304014935210
  0.9325709593539173  0.1336154526847366  0.7850072440149347
  0.8670633453305925  0.1588834790634408  0.4545786997584003
  0.7835809194675463  0.1972736042437404  0.1035736024599174
  0.7059172445362876  0.2362866573377076  0.7822747814627746
  0.6463771246757233  0.2649433192159520  0.4430986031188198
  0.5599623438845569  0.3262998420213350  0.1108514961563785
  0.5086975249851093  0.3705933786184090  0.7724965991653860
  0.4389836907196880  0.4186112416840757  0.4511900918075966
  0.3672061592817357  0.4531053767728537  0.1053519121458351
  0.2832953334564934  0.5020150192588417  0.7794161427630115
  0.1464343085420197  0.0869850845017339  0.1180736143202310
  0.0813179376403994  0.1376509955831438  0.7605068438392237
  0.9979327342169597  0.1719640975586501  0.4545756951460547
  0.9349249921191003  0.2334566359257977  0.1172520272347910
  0.8680410797614471  0.2391411528974032  0.7682936028991847
  0.7941116275784736  0.2850858207071383  0.4575948073797491
  0.7150026287206686  0.3231570476824785  0.0987122578519646
  0.6535594284815787  0.3559911121667838  0.7685881357346815
  0.5698436686090744  0.4219192810250121  0.4410615857676277
  0.5095985681141926  0.4569733376852980  0.0985352137052473
  0.4318903240955265  0.4927991076765110  0.7824370599604649
  0.3496322618918484  0.5277800981165655  0.4381337724577179
  0.2082927472953315  0.1215431509851754  0.7715023426312300
  0.1442771056719749  0.1558115943023353  0.4502339609048960
  0.0733143730165153  0.2239799463863932  0.1056277228201168
  0.0117915579592776  0.2596332820428344  0.7760011109158782
  0.9150958797798623  0.2935845140712274  0.4430558453766764
  0.8385017790915654  0.3307902408163912  0.1162685222929909
  0.8022374212400081  0.3669320858095020  0.7557719604656299
  0.7129627068383542  0.4007949124653294  0.4476283030968560
  0.6499483150933685  0.4555072235909989  0.1210305851087199
  0.5748391912003967  0.4771440469905670  0.7701584533274755
  0.4968602864741882  0.5428266892804672  0.4486023571271716
  0.4425706984168798  0.5799904377476253  0.1048205534812183
  0.3009878773746451  0.1692284904285870  0.4408127028332984
  0.2192785578936309  0.2133290487961688  0.1230521497913486
  0.1381853545855520  0.2530684206173106  0.7594182903580062
  0.0759467275106758  0.2892050356316744  0.4538734061058634
  0.9877340238199750  0.3473165625319723  0.1043286887766328
  0.9305761372650778  0.3741509488441110  0.7892259600263571
  0.8634664736220685  0.4210196016630618  0.4383956753788709
  0.7825951137286609  0.4603708402206834  0.1054053424115935
  0.7097580983793108  0.4944136487821211  0.7747151776850458
  0.6572850424207175  0.5381988375839413  0.4382060777509338
  0.5589819619301153  0.5804843994513362  0.1032257403909540
  0.5040850166986743  0.6149656536203878  0.7767177496156350
  0.3563337290220758  0.2036582635740558  0.1276987911267327
  0.2843211851229697  0.2441272948117685  0.7780540694047886
  0.2215881000154809  0.2828140028207002  0.4440174162090926
  0.1275839133125061  0.3295737744202256  0.1152675616077303
  0.0665586614679086  0.3943183982456233  0.7826842275422763
  0.9918524291497022  0.4097722492864548  0.4322550573248378
  0.9252202355370827  0.4545490537245129  0.1086499345486516
  0.8625831652757228  0.4917999110867441  0.7657699978036447
  0.7925329976954245  0.5208082263524005  0.4439484691412261
  0.7137287764721947  0.5807672188841764  0.0989188697562042
  0.6389544251216250  0.6163088706300357  0.7689544616736228
  0.5710361906374430  0.6597581024893344  0.4296598229738606
  0.4317877479749441  0.2407267998147873  0.7771075471117967
  0.3521744849620632  0.3086521717437520  0.4588934987920084
  0.2840502589004430  0.3454834663562281  0.1127855857676252
  0.2212263414189195  0.3816605559179749  0.7867999771579193
  0.1435070367855076  0.4142719486320843  0.4421626198111142
  0.0665763201080054  0.4533553520212692  0.1185014012738819
  0.9932425226791466  0.5002938863862170  0.7896828091368349
  0.9339912842910820  0.5357073420373410  0.4537032141445181
  0.8597540934725600  0.5895104953507229  0.1052783276960270
  0.7814458694668858  0.6257271560647766  0.7671140478805185
  0.7234006557137604  0.6645116141680489  0.4312229721063048
  0.6376700048373465  0.6960144744973604  0.0875397935427173
  0.1425864187593007  0.4844726998815432  0.7836213186909760
  0.0705973087963514  0.5346252654508632  0.4532849800131800
  0.0037611706355491  0.5802226719610388  0.1110756788930374
  0.9277470259971423  0.6072881577630866  0.7774419051175059
  0.8640579497860585  0.6466834307211116  0.4344823184713391
  0.7884275598572117  0.7206745345098255  0.0939005947726770
  0.7035010128690260  0.7413523313353778  0.7742989229079740
  0.2071757836709125  0.5400649689308707  0.4425034184054439
  0.1274931537599855  0.5809049336593617  0.1113928152866208
  0.0623301339338980  0.6123105724684734  0.7716119341093801
  0.0034997349039401  0.6674227892733597  0.4552056064133509
  0.9475281418770010  0.7053314324485669  0.1039681805403063
  0.8490116857038501  0.7514220202737434  0.7782225903799684
  0.8046339048785711  0.7740406263248616  0.4438513573468015
  0.2960450841116469  0.5873522664513686  0.1153683861190444
  0.2117043008099984  0.6262941175512537  0.7718515945530413
  0.1477244505020749  0.6616894843854553  0.4554079806720850
  0.0657932451098944  0.7137453130280420  0.1155554285086779
  0.9969706048730629  0.7600567327749204  0.7777785490885094
  0.9321436728502235  0.7785670040159118  0.4421442776191498
  0.8722557836515463  0.8348910261280196  0.1104082560948854
  0.3407680692914425  0.6051277813579077  0.7686345420601768
  0.2818303774389861  0.6679966741086716  0.4651545754447639
  0.2138026428781146  0.7141501690595717  0.1214449382824512
  0.1456446090425061  0.7506718341264715  0.7922011636283770
  0.0738975498987031  0.7880940262374736  0.4547051860311910
  0.0078118354237233  0.8288670517160384  0.1048720957610385
  0.9229020575087574  0.8917673244560191  0.7759625547990368
  0.4121671682021031  0.6684694388862980  0.4384067700417305
  0.3760445401503461  0.6980206929742110  0.1204249874807815
  0.2891626180409403  0.7548928283936718  0.7790170300900527
  0.2190115799756072  0.7788889292021253  0.4510032378651445
  0.1400197539684385  0.8350408927390873  0.1045114443224264
  0.0556348391844992  0.8889384431318419  0.7811220654513491
  0.0024833540903870  0.9215252008158643  0.4481004972545577
  0.9414495281173174  0.9777790377608682  0.0973126742806940
  0.8483015824259823  0.9931541226023626  0.7840768499890203
  0.7917164788310416  0.0377203115665523  0.4494076841642851
  0.7125354692336145  0.0665487447421782  0.0976963167142557
  0.6348643338687125  0.1112540509704374  0.7813081924006156
  0.5830146333272168  0.1399165224757084  0.4427896613222018
  0.4911821651451120  0.2086185107275895  0.1196614394904429
  0.0713014451956724  0.9655239613333748  0.1053799174170891
  0.1333264848371911  0.9943140479855757  0.7735175005490902
  0.1967419061342284  0.0433558568081338  0.4549673050735805
  0.2946851767342125  0.0917438371662485  0.1244975084559599
  0.3478502670307577  0.1092061548307939  0.7771489905556805
  0.4239725154407878  0.1642135598013255  0.4377575383263803
  0.8655504392330258  0.9092693941623295  0.4435956024599150
  0.8129791512633133  0.9567225309987961  0.1079116837250140
  0.7040783643016155  0.9953870967995471  0.7823017316055356
  0.6504724443430092  0.0366028321682919  0.4546382903580053
  0.5806676001644249  0.0919800979047309  0.0964771034482723
  0.4851146336693688  0.1341840375937622  0.7875559165385440
  0.1597547118107840  0.9266920308159570  0.4613502727871719
  0.2069069062960480  0.9541302027580230  0.1132046966835034
  0.2910039799477531  0.0031881733654231  0.7681403386777959
  0.3532159651488556  0.0256871757635651  0.4418199674939629
  0.4472173655679583  0.0775989418901517  0.1214969554140097
  0.7817029343250113  0.8716910836452456  0.7704243193498783
  0.7312700000106744  0.9130347600174247  0.4474015699538754
  0.6475349823709919  0.9536529726344440  0.1124293490006565
  0.5544743413143465  0.0032633890435747  0.7816933823852423
  0.4987738515882612  0.0377649581740727  0.4486158084779248
  0.2037201249711060  0.8804224289812979  0.7878533547111815
  0.2830789629583990  0.9203947116807001  0.4491950955413984
  0.3479774163779012  0.9530413018027772  0.1170088460355814
  0.4168866716287596  0.9929184149993162  0.7851881260707216
  0.7217422347423081  0.8334653017964300  0.1079620180101060
  0.6331190963059257  0.8780457346148367  0.7725322969470696
  0.5678129106472056  0.9238130202241521  0.4411061669229071
  0.5028010683815083  0.9512381583532914  0.1285085736876752
  0.2882409295262960  0.8272009384814751  0.1107675620470019
  0.3540026829285736  0.8793359427515171  0.7923436235449159
  0.4355741677669940  0.9151258250102643  0.4354613889743035
  0.6416598352645764  0.7874512451873557  0.4250420232813497
  0.5804331972296595  0.8398800781397355  0.1124297153525120
  0.4803266332373397  0.8649690146274622  0.7831804493740364
  0.3481752581976494  0.7786369980195502  0.4422519371842739
  0.4400529017611419  0.8322147753808125  0.1144633169338931
  0.5536162203214872  0.7571791692325434  0.7608415255875229
  0.4919531579677781  0.7947073411800929  0.4434433318690978
  0.4242839580103563  0.7401521499373658  0.7697316028991850
  0.5146127595779575  0.7162416846135997  0.1050039130243761
  0.9896618993412432  0.0194294660593286  0.2122813617395138
  0.9284011421665923  0.0651585662417986  0.8899706176147575
  0.8490050855778435  0.0809879470966806  0.5596896657149131
  0.7834522186649195  0.1224155662001678  0.2168659349879221
  0.7191837219003787  0.1654583077692280  0.8736895712716901
  0.6401113471784114  0.2023062438675183  0.5573277869536568
  0.5679846130492194  0.2460449635746684  0.2154345547990317
  0.5047593185438828  0.2932845021059833  0.8852714491544020
  0.4177293087862921  0.3358662155803458  0.5602886422139264
  0.3582048923312371  0.3653387896959543  0.2232532145837922
  0.2766755785499058  0.4300448650010011  0.8864557219415801
  0.2110100051598351  0.4641546264107106  0.5536622850867587
  0.0911901806518642  0.0582556618453722  0.8862008548209985
  0.0056604168548375  0.0955226467626602  0.5405219683725022
  0.9264712040317420  0.1204269868344312  0.2200958238524038
  0.8580650060123389  0.1628521754942014  0.8990667524709011
  0.7924724884957897  0.2015345225255771  0.5600426707665278
  0.7274889052991043  0.2565476596977376  0.2292119762793732
  0.6470793143798730  0.2875262840684769  0.8864754693608603
  0.5656992768657219  0.3289058302987158  0.5579653226444137
  0.4946004375745829  0.3732132468442586  0.2346859991214600
  0.4396397433217842  0.4249032965633148  0.8941553564682607
  0.3558667023071251  0.4599275823126732  0.5585240333845789
  0.3012497946290367  0.4993600426740699  0.2240656573687687
  0.1308572927041425  0.0829500722151764  0.5745259973643755
  0.0667693356306742  0.1216442242143643  0.2409183487810225
  0.0130542962222293  0.1814759919355069  0.8901005499670518
  0.9338615316978434  0.2017618158506664  0.5498754285086775
  0.8494664350802239  0.2337283498256895  0.2272230968592126
  0.7935737345129183  0.2923450925757294  0.8798144173072728
  0.7158662786032721  0.3212280939040824  0.5430314943992940
  0.6456881619119059  0.3717896616515688  0.2333742165605059
  0.5832648784740257  0.4179290869333627  0.8775845170217451
  0.4960393108578458  0.4515609072129649  0.5539645091148699
  0.4209201750143663  0.5073560362507550  0.2243707349000630
  0.3544385013063405  0.5392003013045041  0.8979055774214828
  0.2113695457305695  0.1280590812325713  0.2222084840764325
  0.1590221234548679  0.1913775036591758  0.8870122749835261
  0.0743348527735321  0.2120380638193282  0.5765156094882471
  0.0035819984382144  0.2533439745217052  0.2266889909949512
  0.9357605321618934  0.2863434641610709  0.8821563167142514
  0.8585500683277232  0.3224153226596300  0.5640134816604458
  0.7891897564740162  0.3763934095511843  0.2347319376235433
  0.7294296716782327  0.4157440534472912  0.8764308464748538
  0.6591534414978852  0.4591870183114395  0.5420478379090738
  0.5630082628918629  0.4763140604484093  0.2191658181418816
  0.5100110134393105  0.5484927494161269  0.8920837522512599
  0.4134000511403357  0.5746441774131128  0.5484573788710705
  0.2862618757134854  0.1884716877321111  0.8857608021084999
  0.2205930885507286  0.2057263889828391  0.5478881981111385
  0.1380340027009765  0.2580154284470026  0.2378593946848255
  0.0702020117353754  0.2961926429984985  0.8911323360421690
  0.9871162720588060  0.3339787789535507  0.5427548047441277
  0.9293501880183968  0.3682289435849881  0.2152314267515933
  0.8535260235035196  0.4184268979847658  0.8857388486712026
  0.7865158198229096  0.4536375846260370  0.5506513011201406
  0.7183595734752473  0.4833712640700014  0.2410770762134860
  0.6394623119591287  0.5445344892589290  0.8798424168680015
  0.5732709037109487  0.5781684094686241  0.5500575971886690
  0.5118348776898927  0.6378463353215480  0.2234067854162092
  0.3445371900725434  0.2177094280096554  0.5546197825609482
  0.2872143213525078  0.2552345261313889  0.2207325179002879
  0.2026926902453212  0.3070977849307965  0.8973547146936056
  0.1457481911677476  0.3277163617736676  0.5480058300021966
  0.0770024840597898  0.3780076985519258  0.2188613015594143
  0.9959728276946578  0.4105678982379857  0.9049042323742569
  0.9303590229932297  0.4599436925692189  0.5492547542279809
  0.8548731835331580  0.4965384861078590  0.2095992545574319
  0.7869585701648489  0.5440958157968296  0.8729773349439895
  0.7155750494162376  0.5798283554316299  0.5605737298484499
  0.6528897643484939  0.5894366173623382  0.2005078840325041
  0.5637230251211065  0.6665124979494834  0.8801135378871052
  0.4322092606886230  0.2412034069179896  0.2228712488469142
  0.3629331522770087  0.2934909890229775  0.8916751728530627
  0.2793663753139555  0.3406550062092890  0.5596485908192435
  0.2237445500442234  0.3771712660483217  0.2258566022402846
  0.1306345434562459  0.4274175057829552  0.8886481089391580
  0.0574654246284823  0.4467905774371062  0.5553798717329244
  0.9892392318498580  0.4923300611156378  0.2283322987041529
  0.9244318839741652  0.5510940969196128  0.8967503527344576
  0.8673365597289333  0.5674351799947317  0.5691305956512167
  0.7902716398229614  0.6223215025895712  0.2231978923786500
  0.7046505886230463  0.6679051078350966  0.8721754157698243
  0.6431323674373104  0.6911189627012320  0.5381802420382158
  0.1507033842728376  0.5018712452324365  0.2069116406764735
  0.0654649551057460  0.5453721175835611  0.8971373305512813
  0.9981794105437629  0.5792965966711421  0.5514550819240043
  0.9288465220836954  0.6175000571087068  0.2341031298045237
  0.8492975227120496  0.6831236744730091  0.8880734645288797
  0.7950646182109509  0.7022560231241215  0.5547933960026370
  0.7270195182133605  0.7516781435596727  0.2118244401493499
  0.2134344917171731  0.5506338194210301  0.8868169655172409
  0.1428115453701366  0.5729135118953721  0.5591140430485382
  0.0663339312965050  0.6227874178583974  0.2324575572150209
  0.9810888410931184  0.6704826170695384  0.8917895607291868
  0.9133769954428033  0.7199072766828749  0.5571449356468250
  0.8688169379325998  0.7540365588599656  0.2069686567098614
  0.7844788154301057  0.8071062827437032  0.8890065222929948
  0.2751612099605154  0.5796914144734799  0.5695514179661743
  0.2184692921722160  0.6213228338927692  0.2128684660663325
  0.1239481456049063  0.6677818097214470  0.8894627375356876
  0.0579469802654984  0.7077402531273975  0.5596044871513257
  0.9989086811627317  0.7593737879716400  0.2362240531517656
  0.9175556990877709  0.7956198822933942  0.8973898906215680
  0.8574703255503735  0.8385856891131382  0.5617660465627026
  0.3581169866072571  0.6361931552111244  0.2212156340874145
  0.2695566746777871  0.6785235328057979  0.8930436446299126
  0.1967154399376128  0.6997148157925963  0.5616611043268165
  0.1424305805685648  0.7426625456196447  0.2278944484954977
  0.0742318877633323  0.8051954405116959  0.8937847963979806
  0.9987741328099062  0.8238605428113317  0.5533226892159036
  0.9376115832533500  0.8794313748876590  0.2110342218317598
  0.4259375045630378  0.6690652383223181  0.8857445288820571
  0.3570037616428650  0.6937168973991845  0.5614192123874346
  0.2859062345608692  0.7374061309896618  0.2252997786075142
  0.2179182650915266  0.7930549150719770  0.8970047515923554
  0.1410468695295037  0.8291703886682527  0.5635582372062373
  0.0765471852648858  0.8804184206561132  0.2235865684164295
  0.0018762072452674  0.9404356758391685  0.8904380184493732
  0.9360621832066585  0.9679658144989034  0.5678538119920944
  0.8603295251814416  0.9987068090101658  0.2127539929716704
  0.7818327321656042  0.0436371380974236  0.8854150661102551
  0.7070163399100977  0.0865227439957934  0.5717091640676486
  0.6298127344646431  0.1255969309087348  0.2053620913683289
  0.5729139157318031  0.1709101561649433  0.8839842503843585
  0.4962059351851664  0.2058659831488683  0.5495521221172837
  0.0650877494528928  0.9488390815496643  0.5682621779046784
  0.1424754420797782  0.0073614817471324  0.2303275431583600
  0.2242184830964291  0.0555726428954557  0.8824181629694721
  0.2804310419086775  0.0856598880277417  0.5393893371403493
  0.3581993218727604  0.1154397914680203  0.2340820781902053
  0.4287129291367080  0.1721777337210995  0.9057494535471093
  0.8604122665006670  0.9325335072307297  0.8730194443224235
  0.7764512583964347  0.9673754781787736  0.5579488201186038
  0.7289296281062221  0.9932198216354493  0.2230508135295395
  0.6426987460935791  0.0451098795696723  0.8882293160553445
  0.5654802170875612  0.0750757827496571  0.5698177636723045
  0.4965663682743013  0.1177545072522221  0.2306722798155079
  0.1444964656765180  0.9258463232172360  0.8920232914561836
  0.2040666176694472  0.9610371350706615  0.5672336512189773
  0.2668821492364870  0.9817768597904859  0.2312879587085419
  0.3677273661087455  0.0612245416499348  0.9014395607291874
  0.4242954844932001  0.0871017972188071  0.5628601207994706
  0.7975849782407209  0.8799441894369764  0.2203862442345681
  0.7149776823124512  0.9236566895099330  0.9000646149791365
  0.6361053825651055  0.9393989648677632  0.5558507498352725
  0.5832052290580876  0.9942099111264113  0.2236617856358478
  0.5004031658494341  0.0509443469554540  0.8922577816824102
  0.1981125701901547  0.8799679656799526  0.2220367748737075
  0.2794526668176402  0.9377830184185072  0.8904422490665524
  0.3525383165238196  0.9663349882623180  0.5560709747419281