Li 
 1.0000000000000000
   -10.8535000000000021   18.7988134399488125    0.0000000000000014
   -18.6059999999999981  -10.7421791085421763    0.0000000000000014
     0.0000000000000001    0.0000000000000001   22.7650000000000006
 Li 
 504
Cartesian
 -1.0458847499999999 -0.1260002500000000 -0.5846900300000000
 -10.9865198799999995 16.7623699600000009 15.0060552600000001
 -10.5718814000000005 15.1919329300000001  7.7052832300000000
 -10.6668071500000003 13.5754947799999997  0.1304801000000000
 -11.0462726799999995 11.1853139899999992 15.2062784200000003
 -10.9622651300000005 10.0183374199999999  7.3542452000000003
 -10.9716758999999993  8.2562156299999998 -0.0377525900000000
 -10.9985352899999995  6.3182592099999999 15.2990065000000008
 -11.1246974400000003  4.5432858200000004  7.5210331899999998
 -10.5769975800000005  2.5599900299999998 -0.1863401800000000
 -11.1035831799999993  0.6948543900000000 15.3339448500000000
 -10.9492818100000004 -0.8364336200000000  7.6153810699999998
 -1.4500980400000001  0.5616117100000000 15.1901906800000006
 -1.8602395899999999 -0.8097470700000000  8.1208971299999995
 -12.7885002500000002 16.0761203799999990  0.2571804500000000
 -12.3436462000000002 14.2836486199999992 14.7275896500000005
 -12.0335598200000007 12.5940976399999993  7.7157543799999999
 -12.5157186100000004 10.9282511099999997 -0.2036359500000000
 -12.4807272800000000  8.9338703800000001 15.0645227399999992
 -12.4903595700000007  7.1831716500000002  7.5851790899999996
 -12.6140929600000007  5.4414992299999998 -0.0339757500000000
 -12.5704240899999995  3.4590694599999998 15.1340289899999991
 -12.4125099999999993  1.6143271100000001  7.6041051900000003
 -12.1506628200000009 -0.0468889700000000  0.0048080800000000
 -2.6692429299999998  1.9872811600000000  7.8128636199999999
 -3.7176449200000001 -0.1339464800000000 -0.0384054100000000
 -3.1779856700000000 -1.7636493900000001 15.3193261900000000
 -13.8906573400000006 15.2929488500000001  7.6896493100000001
 -14.0449607600000004 13.5485599499999996 -0.0705627500000000
 -13.8662485699999998 11.9380407700000006 14.8848541599999997
 -14.2402242099999992 10.1176154599999997  7.5555064099999996
 -13.9729188499999992  8.0538244300000006 -0.0914576400000000
 -14.1215023300000002  6.1274235399999997 14.9019054000000004
 -14.0790259800000008  4.1730944100000000  7.4118410700000004
 -13.8618661099999994  2.5914728299999998  0.0696033200000000
 -13.6635227700000002  0.7297284200000000 15.4780547300000002
 -4.9805069000000000  2.7468175399999999 -0.1181450300000000
 -4.6487278400000003  0.9468921600000000 15.1883832800000000
 -4.5712028399999998 -0.8433974600000000  8.0912929299999998
 -5.0763358700000003 -2.5805800900000002  0.0733779800000000
 -15.3985205999999994 14.5015586499999998 15.1322905199999997
 -15.2792054400000001 12.6462462900000006  7.3730593300000002
 -15.4977722000000000 10.8096215800000000  0.0604075400000000
 -15.2740805500000008  9.1004545799999992 14.8362572200000002
 -15.3164361499999995  7.2532763500000001  7.7091596200000003
 -15.7153933299999995  5.4581404400000002 -0.1637069100000000
 -15.1593580699999997  3.4624296299999999 15.2975685600000002
 -15.6999010200000004  1.8108792700000000  7.8691819900000004
 -5.9651851699999998  3.3945213299999999 15.1170472100000008
 -5.9888967199999996  1.9917216900000001  7.6453383900000000
 -6.8341270200000004  0.1515697400000000  0.1492524100000000
 -6.7338556499999997 -1.8222709699999999 15.2615901100000002
 -16.9462511499999984 15.3184394600000005  7.8392256199999997
 -16.9108783900000006 13.2345669600000004  0.1994450200000000
 -17.1918311599999996 11.7613232900000000 14.9605520399999996
 -16.9692700300000006 10.0668256199999995  7.7018399899999999
 -17.3159844000000014  8.1274307799999992 -0.1951553500000000
 -16.9861594099999991  6.0953072700000002 14.9617344200000009
 -16.9642175600000016  4.8648373700000000  7.2110228500000000
 -17.2099860000000007  2.7608704700000000 -0.1055362300000000
 -7.9788135200000001  4.6053792099999997  7.9235250700000002
 -8.0470477999999996  2.8363568600000000  0.0979788800000000
 -7.8203065199999999  0.7623556800000000 14.9701290799999995
 -7.8819862599999997 -0.8306066700000000  7.6655644299999999
 -7.7414284599999998 -2.9943474800000001  0.0269506900000000
 -18.2834283500000012 14.0667589500000005 15.1629416300000006
 -18.4105726899999986 12.4917852499999995  7.5717957499999997
 -18.5562688800000011 10.5055873799999997 -0.3838455400000000
 -18.3442311400000015  9.0572738800000003 14.8076884300000007
 -18.7598112599999993  7.6425693399999997  7.5715338799999996
 -18.4815483200000017  5.4385927299999999 -0.1165704400000000
 -18.6059691799999989  3.3866534900000000 14.6983605300000004
 -9.5945725199999998  5.5432574600000004  0.3267089700000000
 -9.3498403299999993  3.3250363200000002 15.4882368199999991
 -9.1814431100000000  1.5777907799999999  7.5876368200000002
 -9.2536093899999994 -0.3184871000000000  0.0823496900000000
 -9.3617106900000007 -1.7266766400000000 14.9891282599999993
 -9.3975954399999999 -3.3317535500000002  7.5147360000000001
 -20.1657001300000012 13.2006890200000004  0.0109905500000000
 -20.1687310900000014 11.6665706700000005 15.1681607300000003
 -20.0039085900000018 10.1501783600000000  7.5379671200000002
 -20.2313782700000004  7.9027131600000002 -0.2757940100000000
 -20.1765975399999995  6.2512863599999999 14.9741959799999993
 -20.2629156799999990  5.0640087600000001  7.1902527999999997
 -10.9022515000000002 -2.7953378500000001 -0.1091777500000000
 -10.9962128299999993 -4.2558523700000004 15.3587403299999998
 -21.5258426500000013 12.8025689400000005  7.9697673599999996
 -22.0945076399999998 10.4505606100000001 -0.0132527900000000
 -21.5553148300000004  8.7723031200000001 15.1961177799999998
 -21.6328475199999986  7.5636924299999997  7.4767513900000004
 -21.7931783999999986  5.4952139999999998 -0.3960392400000000
 -12.3785736899999996 -2.1125647999999999 15.3000064200000008
 -12.5079752200000005 -3.5947387300000000  7.4288944800000003
 -12.7150812099999992 -5.3704081099999996  0.0417039300000000
 -23.1505529000000010 11.3077915900000008 14.9993404600000009
 -23.2340549799999998  9.8125074899999998  7.4616015100000004
 -23.5218814800000011  8.0901706000000004 -0.1368281600000000
 -23.2932124000000016  6.4434406299999996 14.9696609800000004
 -14.0690372600000000 -0.7880634200000000  7.8058008100000000
 -13.8739242500000000 -2.6869033000000000  0.0500033500000000
 -13.9882721100000005 -4.6853217200000001 15.4753719600000004
 -14.0361652100000001 -6.2011526699999999  7.8417780500000003
 -25.1182068700000016 10.9084182500000004 -0.0656283200000000
 -25.0992033600000006  8.5363303800000008 15.2240630299999999
 -24.4587078799999986  7.1450595600000000  7.0210154800000000
 -15.6446943100000002  0.0521615100000000  0.0709564500000000
 -15.6336027699999995 -2.0092723399999999 15.0653791800000008
 -15.4380979000000007 -3.6536489099999998  7.6621989599999996
 -15.7779573000000006 -5.1898906299999998  0.1720010400000000
 -15.3617020899999996 -7.3876335900000001 15.4132069699999992
 -26.3400599100000008  9.8997587300000003  7.5997339699999999
 -27.0573004399999988  8.2934011200000004 -0.1049398100000000
 -16.9638083799999997  0.8832748800000000 15.0294726799999996
 -16.8460025000000009 -0.8647192900000000  7.7253393600000004
 -17.1115790799999985 -2.6397921800000002  0.1188541600000000
 -16.9659043899999986 -4.8498563700000004 15.2258452200000001
 -17.3102748899999987 -6.2701969599999998  7.8280153800000001
 -17.4554173900000009 -8.0832101999999999 -0.0070209800000000
 -27.7263228099999992  8.7138309700000001 15.2651512599999997
 -27.9012087000000015  7.4619144999999998  7.3341175900000000
 -9.4043841100000005 15.9451774099999994 -0.0973574200000000
 -9.4956085600000009 14.1041190000000007 15.2525855400000001
 -8.9711416300000000 12.3630220299999998  7.4711305699999997
 -9.4365800699999998 10.8466550099999992 -0.0885173300000000
 -9.4054597300000005  8.7460019800000008 15.0585835499999998
 -9.0624060100000001  7.4419405999999997  7.5575789899999997
 -18.7095715200000008 -8.9833495100000000  7.7888744699999997
 -1.8617365200000000  2.4453003799999999 -0.0708036400000000
 -2.9579787500000001  3.4017191200000001 15.3627187700000007
 -4.2122747299999999  4.6401620899999996  7.8805411799999998
 -6.7628738400000001  5.4330913100000000  0.2826992100000000
 -7.6686316100000003  5.9707955500000001 15.1135774400000003
 -26.3812283900000004  5.8027885899999996 15.4093547100000006
 -26.3756359499999995  4.6366344799999997  7.4000055900000001
 -7.5708896399999999 13.6664308200000004 -0.0167114000000000
 -7.6613804099999996 11.4891145699999999 15.5175356000000004
 -7.7053985400000000  9.9719147899999996  7.5558935800000002
 -7.8786122799999996  8.2203478099999998  0.0463182800000000
 -18.4147626299999985 -7.4475952799999998 15.2600490400000002
 -19.8920247400000001 -6.0193150199999996  7.6324870599999999
 -3.4178294199999999  5.5080952500000002  0.3395942700000000
 -4.4471977899999997  5.9451249300000004 15.2438038900000006
 -6.0456029800000000  7.3690485199999998  7.7067302299999998
 -24.9988786800000007  5.4717838900000002  0.0015323400000000
 -24.4838540900000012  3.4736376899999999 15.0767603799999996
 -24.6912268099999999  1.9528813700000001  7.6299931299999999
 -6.3732967000000000 10.8547817000000002 -0.0788069500000000
 -6.1570667800000001  8.5584626299999993 15.3385455600000000
 -18.8769854700000010 -5.2499907400000003 -0.2487503000000000
 -19.7681961299999998 -4.8404523900000003 15.5822611299999991
 -21.9548425199999997 -3.5599351299999999  7.5985073999999999
 -4.7298217600000001  8.2152421800000006  0.5953604500000000
 -23.2438276399999992  4.8700875699999999  7.6483990400000001
 -23.0490092599999983  2.5962746800000001 -0.0913785900000000
 -22.8494481299999990  0.6126134600000001 15.1472343200000008
 -23.3203341399999999 -0.7983426600000000  7.5083780000000004
 -18.5859984099999984 -3.5526490700000002  7.5716270899999998
 -19.9759242300000004 -2.7400077999999999 -0.1067331800000000
 -21.5367304399999995 -2.1118590899999998 15.3474462000000003
 -21.6476543100000001  3.7250182399999998 15.1097100399999995
 -21.4196455700000001  1.9635569600000000  6.9928850000000002
 -21.7093208199999985  0.2038273700000000  0.0544792100000000
 -18.5655308400000010 -1.7959587900000000 15.3889177499999992
 -20.0451328500000017 -0.8295103200000000  7.8135029800000000
 -20.1072809799999987  2.6545617699999999 -0.1922781600000000
 -19.9826820199999986  0.7071628900000000 14.7499291499999998
 -18.4244581499999995 -0.1565916700000000 -0.0430613100000000
 -18.4130823600000006  2.0987024800000000  7.7662686200000000
 -0.3772344200000000 -0.4013840800000000 17.6705468000000003
 -10.8312304000000008 17.0264271500000000 10.2853636599999998
 -10.8051275499999999 15.0982107699999997  2.2516494300000001
 -10.9040556599999992 13.2601093199999998 17.5543950799999990
 -10.5340666699999996 12.0798299500000006  9.9523683300000005
 -10.9067171199999997  9.8027696500000001  2.6985402999999999
 -10.8931281900000005  8.2689466599999992 17.8928651199999997
 -10.5434509100000007  6.5327336200000001  9.9264470899999999
 -10.8028749099999999  4.2407730399999997  2.8225700900000001
 -11.1926057900000000  2.9082951100000001 17.7138665199999998
 -10.7914310699999998  1.0224547500000001  9.9918827900000000
 -11.0905759400000008 -1.1232309899999999  2.4448024699999999
 -1.7111149999999999  0.9610444900000000 10.3443573400000002
 -1.9454819900000000 -1.2133778000000000  2.5412660900000001
 -12.6077080200000005 16.0959063600000007 17.8706899099999994
 -12.3668580299999995 14.5930072800000001 10.3484841000000003
 -12.1750681899999993 12.6112431300000001  2.3578530600000001
 -12.0580223600000007 10.7321729900000005 17.8084853999999986
 -11.9449895200000000  9.3050543900000005 10.0871396999999998
 -12.1486861600000005  7.0214562899999997  2.5235343100000001
 -12.4164089900000008  5.5819294199999998 17.5858850800000006
 -12.5531902500000001  3.7555755700000000 10.2713424399999997
 -12.4159506900000007  2.0357009700000002  2.3983362800000001
 -12.4152373499999999 -0.0671191300000000 17.7434084900000002
 -3.2077692500000001  1.8183818899999999  2.6879458299999999
 -3.4437186600000000  0.0500090900000000 17.3129382999999990
 -3.1771269300000000 -1.8861312800000001 10.3484157000000003
 -14.4909025699999994 15.0676475100000005  2.6692423999999999
 -13.8707441500000002 13.7492452200000006 17.4902038699999984
 -13.9231973300000007 11.8659133899999993 10.4171457899999993
 -13.7729410600000008  9.9697901400000006  2.2471845500000001
 -13.7169778900000008  8.4620214800000007 17.4969089099999984
 -14.0350283999999998  6.1800523299999996 10.0407670000000007
 -14.0333739800000004  4.6709589700000000  2.2431541400000001
 -13.8565418299999994  2.8252893499999998 17.8121796699999990
 -13.6146102599999992  0.9031633200000000  9.9741153300000001
 -4.5221372000000004  2.6100181999999998 17.5632508300000012
 -4.4649420900000001  1.0384823400000001 10.2495761200000004
 -4.9630884300000000 -1.0278094799999999  2.4046151099999999
 -4.9587165200000003 -2.5673599199999999 17.6656652899999997
 -15.3944265999999992 14.0489792900000001 10.0861663200000002
 -15.2553622799999999 12.2094304999999999  2.6468529099999998
 -15.5342222400000001 11.1394614300000008 17.2051486800000006
 -15.1953308800000002  9.0974421799999998 10.1902583199999999
 -15.5293814399999999  7.3251169400000000  2.7552612700000001
 -15.1167593000000000  5.6807278999999999 17.5326571899999983
 -15.4925064999999993  3.5092423099999999 10.2124326599999993
 -15.5947431600000002  2.0894428299999999  2.3862399000000001
 -6.4154372200000003  3.8403322000000002 10.0351011799999998
 -6.3491401099999996  1.8305578499999999  2.8012821899999998
 -6.2083857800000004 -0.1207856000000000 17.2881573800000012
 -6.2052367000000004 -1.6789839300000000 10.3324280900000005
 -17.1825431900000005 14.8372909199999992  2.3750426000000000
 -17.0614606600000016 13.4745306899999999 17.9667289799999992
 -17.2051240800000009 11.7094771800000004  9.9800775500000007
 -17.0595559200000011  9.7664735199999999  2.3995526200000001
 -16.9024198699999992  8.0315301100000003 17.6363910200000014
 -17.1475707799999988  6.5747505799999999  9.9757613599999999
 -16.8674034599999985  4.2725302300000001  2.3499339799999999
 -16.9131376799999984  2.8701289900000000 17.6819795699999993
 -7.6567337799999997  4.5109177499999999  2.9070629800000001
 -7.6281124299999998  2.7224417900000000 17.7124008900000014
 -7.6670437800000002  1.1275546800000000 10.1080564800000001
 -7.5167816500000004 -1.1419143300000001  2.6240660400000002
 -8.0590825499999994 -2.9846149999999998 17.8178064399999982
 -18.3892928100000006 14.2438018799999995  9.8402863800000002
 -18.4992175199999984 12.5101952500000007  2.4734157600000000
 -18.5124755299999997 10.9325372699999992 17.4327539999999992
 -18.2919147500000001  9.3040647199999995 10.1064869000000002
 -18.5522101500000005  7.1785486299999999  2.2518880700000001
 -18.4019347000000018  5.3910847600000000 17.5052483199999998
 -18.4732005500000014  3.6475631100000001  9.7812058700000009
 -9.1653711599999994  5.5311669200000004 17.6908533100000014
 -9.5651080799999999  3.3048655299999998 10.4467105000000000
 -9.5110048599999999  1.6285625500000001  2.5675638599999999
 -9.5022564000000003  0.0589266700000000 17.9115014799999983
 -9.2654975000000004 -1.7524214600000001 10.0658320400000001
 -9.1577157699999994 -3.6184685700000001  2.6976844000000000
 -20.0886257700000002 13.2975343499999994 17.9771291499999997
 -20.1044452100000015 11.8032636899999996 10.3285536699999998
 -20.2997733300000007  9.8297294799999992  2.3966611300000000
 -20.1237022100000011  7.9685819300000000 17.4633512999999994
 -20.2153321099999985  6.4607711900000000  9.8167909600000005
 -19.8709967100000000  4.5107273100000000  1.9928433999999999
 -10.5616607499999997 -2.5238370300000001 17.8391393200000010
 -10.7134655799999994 -4.4158947199999998 10.3190325699999992
 -21.6899449000000004 12.6366631199999997  2.5286378300000001
 -21.3685058099999985 10.9169450999999995 17.6984649699999999
 -21.4102448699999997  9.2964749599999994  9.8909899800000005
 -21.9660689100000006  7.0798876799999997  2.1376470400000001
 -21.4290497199999983  5.2612447700000002 17.6269149799999987
 -12.2970311799999994 -1.9068157200000000 10.0735903199999992
 -12.1920641399999994 -3.8434648299999998  2.5358574400000000
 -12.0691506200000003 -5.4058172799999999 17.5657456799999991
 -23.3095527900000015 11.6950291600000007 10.3627556300000006
 -23.4073933200000006 10.2356081900000007  2.3668356300000002
 -23.1957064399999986  7.8885023600000004 17.7162372700000006
 -23.1348939800000011  6.8112796199999996 10.1042761500000005
 -14.1414015899999992 -0.7441469400000000  2.6263613100000001
 -13.9505609800000006 -2.7479739300000001 17.5712015500000014
 -13.9147218699999993 -4.3309425700000004 10.3673626799999994
 -13.9940322800000008 -6.4303450499999997  2.6306193300000000
 -24.9622360299999997 10.5771988500000003 17.7061286699999982
 -24.6030390300000015  9.1596887999999996 10.0654144799999994
 -25.0010105799999991  7.4288248100000001  2.5134439500000001
 -14.9575337400000006 -0.0943556500000000 17.4979653500000012
 -15.4875921200000004 -1.8776632300000000 10.5892439100000004
 -15.6079850300000000 -3.6522930300000001  2.7646940199999999
 -15.5477539100000008 -5.3259054600000004 18.0344594899999997
 -15.4653245100000003 -7.0766609300000001 10.3513635599999994
 -26.3601861200000016 10.0418283499999994  2.3874132600000002
 -26.6089403199999985  7.7699392800000000 17.6647875600000006
 -16.9109987400000001  0.5674352600000000  9.9803301199999996
 -17.0687724299999992 -0.4290721500000000  2.7414748400000000
 -17.1839624399999984 -2.6732798600000001 17.7343226899999991
 -16.8690496000000003 -4.2498065499999997 10.2670887099999995
 -17.0564752499999983 -6.3379535999999996  2.3792030300000002
 -17.1434214000000011 -8.5032670100000001 17.7822438200000015
 -28.0263509699999993  8.9463087899999998 10.2010078199999992
 -28.4105792299999997  7.1946564899999998  2.2153230300000000
 -9.0796668300000007 16.0206028300000014 17.8495094899999991
 -9.2947189199999993 14.4781320400000002 10.2307659300000005
 -8.9717096600000001 12.6799428200000008  2.2240566500000001
 -8.9604929200000001 10.7395852299999994 17.7864809999999984
 -8.9310361399999998  9.4569749800000000 10.0801066400000003
 -9.2126016400000008  6.9926244799999999  2.7240926700000001
 -18.7384090599999986 -9.0314487600000000  2.3989738200000001
 -1.3412661800000001  2.5674592299999999 17.6091258999999987
 -2.9420173500000000  3.2327780100000001 10.3573307000000003
 -4.9053513999999998  4.5542029299999998  2.8341857799999999
 -5.8072825899999998  5.3660601999999997 17.6917967699999998
 -7.6569431899999998  6.2061687499999998  9.9655503599999999
 -26.3121180400000014  6.5037865400000001 10.0984538900000000
 -26.6244486299999998  5.0057586100000000  2.4566094800000000
 -7.5558868500000003 13.2853904499999995 17.8090989200000003
 -7.7409349699999996 11.8349159499999992 10.3498406799999998
 -8.0136575000000008  9.9277952000000003  2.1963012599999998
 -7.7618198800000000  7.6781505299999999 17.9287104399999997
 -18.9759296900000010 -6.9514927499999999 10.5026389600000005
 -19.9982106600000016 -6.3598331999999997  2.5771049200000000
 -3.2177308500000001  5.4362816000000000 17.4867148099999987
 -4.3115650700000003  6.3641047899999998 10.0580315599999999
 -6.2976795900000004  7.5735740900000001  2.7658781900000000
 -24.7028971000000013  5.3312258799999999 17.5387096299999996
 -24.9247636899999989  3.9390253799999999 10.1850967400000005
 -24.7716881399999984  1.9285782899999999  2.5594541300000002
 -6.0787058800000002 10.3884037899999999 17.7952498500000011
 -6.1160968100000002  8.9706786399999991 10.2127388799999999
 -18.5922160900000009 -5.6279588000000000 17.9354816200000009
 -20.1972615299999987 -4.5654962299999999 10.2259263499999999
 -21.5090593500000011 -3.6961778299999999  2.6637063799999998
 -4.3929195200000004  7.9130464199999997 17.8748076900000008
 -23.3408847500000007  4.6146640699999999  2.4577553399999998
 -23.2084770499999991  2.4697632299999999 17.5866977400000017
 -23.3512224800000006  0.7504440500000000 10.0417818899999993
 -23.1558885699999983 -0.7663071900000000  2.9254976799999999
 -18.5193235899999991 -3.4673531799999999  2.5216235500000002
 -20.2030926700000002 -2.7911538000000000 18.0377025899999985
 -21.7543353300000000 -1.6421680000000001  9.9132785200000004
 -21.6155728899999993  3.6035012200000001  9.6760816599999995
 -21.9265404400000001  1.8893131599999999  2.5594624700000002
 -21.3068385999999990 -0.2620813100000000 17.8291029300000012
 -18.2662401500000016 -1.8189763699999999 10.0678653499999999
 -20.2603022800000012 -0.6673277700000000  2.6057574099999998
 -20.0967492700000001  2.2735737899999999 17.3205573299999998
 -20.1257383899999986  0.7112470400000001 10.0949874499999996
 -18.3762368400000007  0.0251880100000000 17.5229399400000005
 -18.9117423699999989  1.9801127999999999  2.3904140800000002
 -0.2493000700000000 -0.4030588300000000  4.8325851999999996
 -11.2887420800000005 16.7528948799999995 20.2601811100000013
 -10.7215384399999998 15.0903011800000009 12.7413352399999997
 -10.7808626800000003 13.4129621599999993  4.9369530099999999
 -10.8841777999999998 11.7424178399999999 19.8895430900000001
 -10.7115584800000008  9.8601238900000006 12.6875670700000001
 -10.7425335900000007  8.0343777099999993  4.9043676400000003
 -10.9352567100000009  6.3383616099999998 20.1532045400000008
 -10.7829518600000007  4.2448803000000002 12.7549709399999998
 -10.6852703200000008  2.8092922300000001  5.0823594300000003
 -11.0043131499999998  0.5815536200000000 20.1801645100000009
 -10.9262580699999994 -1.0192944100000001 12.6041219200000008
 -2.0736374700000000  1.0884744399999999 20.1743624600000011
 -1.8387297000000000 -0.9197122599999999 12.3049826099999997
 -12.2961197299999991 16.1229110599999998  5.0104814299999996
 -12.3430361200000007 14.3812167300000002 20.4672546199999985
 -12.3508514799999993 12.7326225300000004 12.7493713999999994
 -12.6691265899999994 10.9200473000000002  5.2180106400000001
 -12.3727893800000004  9.0756644699999995 20.1806140599999999
 -12.2594389800000005  7.1013098299999999 12.7020805699999997
 -12.3121515200000005  5.2887778100000000  5.3426267699999999
 -12.6773806899999997  3.7003181999999999 20.3554466900000008
 -12.4198118500000003  1.7492472800000001 12.7147996200000009
 -12.5607076000000006  0.2989236700000000  5.1008546900000002
 -2.9636286699999999  1.5688972999999999 13.0790843300000006
 -2.9879934200000000 -0.0515397600000000  5.4845062100000002
 -3.5182271100000002 -1.7040423300000000 20.2631390200000006
 -13.8896464799999997 15.3881271500000008 12.5179141299999994
 -13.5684336299999995 13.4582092400000004  5.1727337999999996
 -14.0524253199999993 11.7778212399999997 20.0289752099999987
 -13.7464245700000003 10.0067468999999996 12.3621119700000008
 -13.9254949099999994  8.1443401600000005  5.3127640400000002
 -14.1064539500000006  6.4752185300000002 19.9782115299999994
 -13.7855048999999994  4.4742023199999998 12.6110020499999997
 -14.0083235300000002  2.4626904299999999  5.1077997799999997
 -13.8792590800000006  0.8708370500000000 20.4408204699999985
 -4.6767666300000004  2.5978630699999998  5.0585761400000004
 -5.2867164500000001  0.9336158100000000 20.1928344399999986
 -4.7519735399999998 -0.8803438300000000 13.1243778500000001
 -4.7525952100000000 -2.6541290300000000  5.1605748800000004
 -15.4839834300000003 14.5152348900000003 20.0822885500000012
 -15.3171326600000004 12.6762794200000002 12.8397669099999998
 -15.5686467999999998 10.7925455800000005  5.3436725599999999
 -15.6521988000000007  9.2464152300000002 19.9519482199999985
 -15.6977555399999993  7.4586333800000002 12.3397190299999995
 -14.9729095900000004  5.4672363500000003  4.9893098499999997
 -15.7406606300000007  3.6955945400000001 20.3082866200000005
 -15.1786670200000007  1.5984997599999999 12.4856322300000002
 -6.6136474900000000  3.3567869699999999 20.1643446600000011
 -6.2219522800000000  1.9369386000000000 12.4726748300000008
 -6.2987871100000001 -0.1767724800000000  5.4148691199999996
 -6.2728978499999997 -1.8620399000000001 20.2866276300000017
 -16.9276756199999987 14.9689547800000007 12.3558131299999996
 -16.9379699899999991 13.5150995399999996  4.8997434300000000
 -17.0489955600000016 11.5504598000000005 20.1638448900000000
 -16.9768303500000002  9.9125079800000009 12.5355768699999999
 -16.7903213700000009  8.3118469099999999  5.4881196399999999
 -17.0720129100000015  6.1716456900000001 20.0296126200000018
 -16.9793971799999994  4.5660241600000004 12.5220611999999996
 -17.4229687599999998  2.7700288000000000  5.0858554700000003
 -7.7901360100000003  4.1382166900000001 12.6259193500000002
 -7.8661742300000004  2.6575134500000002  5.0249757700000002
 -7.9137864999999996  0.5114826600000000 20.4282800800000004
 -7.6793686200000000 -0.7804948000000000 12.4753527200000001
 -7.8689577000000002 -2.6130710700000002  4.9823775299999999
 -18.4488173999999994 14.3127134799999993 20.6001448499999995
 -18.6553639999999987 12.5488481800000002 12.5037844800000002
 -18.5169611699999983 10.7366961399999994  4.7715270299999997
 -18.6647015900000000  8.9491126399999992 19.8733290300000007
 -18.5547801800000016  7.2233418100000000 12.7614609600000009
 -18.0531967599999987  5.9417191599999999  4.5645619799999997
 -18.5194993900000000  3.4375273499999999 20.0357846899999998
 -9.1788138000000004  5.5339710599999998  5.0736639800000001
 -9.3997883099999999  3.6699798499999998 20.2989853099999991
 -9.3703299999999992  1.5923792800000001 12.7404001699999991
 -9.4460600499999998  0.1544907600000000  5.1416255499999997
 -9.3703721299999998 -2.1356209900000001 20.2300742000000007
 -8.9366864699999997 -3.7192226100000001 12.6432227800000003
 -19.8970011199999988 13.3078260700000008  5.1979847799999996
 -20.2869782200000017 11.4582710300000006 20.4145217800000012
 -19.9713363100000016 10.2094078400000008 12.9562580100000009
 -20.1561271200000007  8.1710800799999994  5.0811000200000001
 -20.0749676000000008  6.0718386600000001 19.8550733400000006
 -19.8391965699999986  4.6660017099999997 12.2516732099999999
 -10.9734755699999997 -2.5581459999999998  4.7103434999999996
 -10.8577175100000005 -4.6278214899999996 20.4233313299999999
 -21.6121327100000009 12.5416807200000004 12.5538749400000000
 -21.5704417900000003 10.8279162699999993  5.3293577499999998
 -21.9280497499999996  8.6275488199999995 20.2169924200000004
 -21.6954093999999991  7.4025114500000004 12.6298716599999992
 -21.8764298799999999  5.5924430400000000  4.8221833800000002
 -12.5616041000000003 -1.9026919200000001 20.1883882200000002
 -12.2096339100000009 -3.4696519600000002 12.7282311900000007
 -12.3075380200000009 -5.4430947900000000  5.2918962900000004
 -23.1232473100000000 11.2408617300000007 20.3015893500000004
 -23.3079320099999983  9.4370308299999994 12.6834044600000002
 -23.4593088499999993  8.2327317600000001  4.7116414700000000
 -23.5313603200000010  6.0771906500000004 20.2382334800000017
 -13.7722006500000003 -1.0544447500000000 12.9658380300000005
 -13.9314891099999993 -2.5673976999999999  4.8459506299999999
 -13.7700195500000007 -4.8433537400000004 20.2486192199999984
 -13.7971427000000002 -6.5133380900000004 12.7393961499999993
 -24.9705640699999982 10.6209687000000006  5.3776405699999996
 -24.7619943099999986  8.7022671299999992 20.4290808599999991
 -24.9092795100000011  7.1111870100000001 12.7886040500000000
 -15.7238325600000000 -0.1019264000000000  5.0359739100000001
 -15.5502422199999994 -2.2214756800000002 20.3301385699999990
 -15.1539448900000000 -3.8184450200000000 12.7862150400000001
 -15.3638496300000007 -5.3002881700000000  5.1880171199999996
 -15.7871421600000001 -7.2540822299999999 20.3470108900000000
 -26.1689443100000005  9.9257110799999992 12.5963910200000004
 -26.5390674799999999  8.1789758900000002  4.8041940600000004
 -17.0715405300000000  0.8199010600000000 20.1639741999999984
 -16.7820369199999995 -0.7407840500000000 12.7807083699999993
 -16.8232617900000001 -2.5466507699999998  5.1289494600000003
 -17.1207556399999987 -4.4225331299999997 20.4203131700000000
 -16.9583964499999986 -6.2555830400000003 12.8294032700000002
 -17.2118700099999984 -8.0186161100000000  5.0899482300000001
 -28.3716095999999993  8.7317554400000006 20.2708214899999994
 -28.1695228499999999  7.1987962000000003 12.9271920300000005
 -9.3135253900000006 16.1870659299999993  4.8433446499999997
 -9.2975341500000006 14.2287697200000007 20.1564739800000012
 -9.2834440199999992 12.3616254600000008 13.0149591200000003
 -9.1725290099999999 10.4905473699999998  4.6750680100000004
 -9.3980755499999997  8.9341543100000003 20.1239014599999990
 -9.2159136000000004  7.1166335399999996 12.5105540600000005
 -18.3605298400000017 -8.9690268999999994 12.9364884799999995
 -1.6833249400000001  2.5992909000000002  5.2434065199999997
 -3.4675398999999998  3.6180701499999999 20.0882494800000018
 -4.6374461900000004  4.3515969800000001 12.2791982599999994
 -6.0355891000000002  5.4936473100000001  5.3288785100000000
 -7.8565746900000004  6.2097303200000002 20.6193863099999994
 -26.6892029700000002  6.1572877200000002 19.8742876499999994
 -26.4262018800000007  4.2046416999999998 12.7017048900000002
 -7.7852857200000001 13.7758459799999997  5.0777517699999999
 -7.8148452600000002 11.5973954199999998 20.2205403799999992
 -7.5342995500000001  9.8238795999999997 12.9719013899999993
 -7.5804234399999997  8.0699185100000008  5.2512544500000002
 -18.7945890800000015 -7.2292449300000001 20.3069102299999997
 -20.0958939699999988 -6.4874227600000003 12.9130740700000004
 -2.5575456600000002  5.2128239699999996  5.2652703799999996
 -5.1302727900000002  6.2551531599999999 20.5212715999999986
 -6.2257070800000003  7.0405885499999998 12.8135106499999996
 -25.0288301500000010  5.5411331199999996  5.0170928500000000
 -24.9455666399999991  3.5186464700000002 20.4899709600000008
 -24.3824269099999995  1.8668344800000001 12.6539423200000005