hr9
1.0
0 -1.7903631847570296 -7.588333333333334
-1.5505 0.8951815923785148 -7.588333333333334
1.5505 0.8951815923785148 -7.588333333333334
Li
3
Direct
0.0 0.0 0.0
0.222354991 0.222354991 0.222354991
0.777645009 0.777645009 0.777645009
