Li                                      
   1.00000000000000     
   -10.6364300000000007   18.4228371711498369    0.0000000000000014
   -18.2338799999999992  -10.5273355263713349    0.0000000000000078
    -0.0000000000000001    0.0000000000000000   22.3096999999999994
   Li
   504
Direct
  0.9962216770354786  0.9987019119205272  0.0110564534709141
  0.9338799513683398  0.0396948876962711  0.6683517389297009
  0.8544956713924421  0.0801428552744312  0.3299074904637891
  0.7832130375771982  0.1300769874937586  0.9927207905081659
  0.7123423735190499  0.1701826785100451  0.6666011707911821
  0.6433384422390276  0.2100600614249686  0.3275776415639839
  0.5704980692028627  0.2557059085498281  0.9946648829881184
  0.5056323120051118  0.2978909929000011  0.6710219030287305
  0.4356301445824826  0.3383300258232751  0.3372056392510885
  0.3515823394974191  0.3671298120147455  0.0071602101328097
  0.2887540041244776  0.4194573298667237  0.6576136348763058
  0.2184805401822913  0.4580403906348423  0.3382926637292272
  0.0674226749253037  0.0419007801819617  0.6730353317166973
  0.9977805376790982  0.0814557030985128  0.3346593903100441
  0.9328074418418311  0.1221454650008837  0.0165090467375180
  0.8556293256572332  0.1635313713647122  0.6666620111431314
  0.7804943018212995  0.2168421078387510  0.3443681161109282
  0.7156397402689407  0.2559306646424844  0.9665462054622012
  0.6495569057436796  0.2902694561465111  0.6638728902674629
  0.5701342741945439  0.3398386192038600  0.3323355993133035
  0.4955410178506554  0.3777855805512971  0.0069891455286282
  0.4282889533175194  0.4201102413893807  0.6587338839159642
  0.3529507249217900  0.4551637375544928  0.3295346902916663
  0.2907088286391328  0.5011612977489079  0.0100512664894623
  0.1444847272871286  0.0892753139837126  0.3394840342989838
  0.0746762399789134  0.1327830851580174  0.9946149455169717
  0.9984231341212819  0.1615652528994573  0.6588797101709147
  0.9363797585942635  0.2116679436463968  0.3266999099046615
  0.8597118559699695  0.2538789744039818  0.9907321725527467
  0.7836182849733646  0.2939182683642088  0.6771240594898202
  0.7120555813505618  0.3339123506821053  0.3310362111547889
  0.6398994572956909  0.3714832046408318  0.0019197429817552
  0.5743607744029688  0.4144759035551928  0.6522292119571276
  0.4949574265122720  0.4585151031992112  0.3273389991797302
  0.4256548922096215  0.4964013673916270  0.0183880993469216
  0.3559406930603828  0.5353866129486278  0.6515297094985613
  0.2096658431615310  0.1270558277131073  0.9949830961420361
  0.1380798134822427  0.1725846446002208  0.6658949770727531
  0.0707771353831959  0.2133781396990742  0.3297465295364788
  0.0025067955949893  0.2477042705189234  0.9939221204229582
  0.9320056007475728  0.2960852883774834  0.6737656830885186
  0.8556754319480930  0.3377249271885319  0.3312071475636174
  0.7904945014260463  0.3733947602044623  0.9981973800633810
  0.7129388322169561  0.4236635782862805  0.6691524915171456
  0.6395351262395934  0.4599499858072633  0.3262567246534047
  0.5670387477255261  0.5030029835959127  0.0277127007534830
  0.5042905804070514  0.5433143111526988  0.6626213682837516
  0.4278730007709868  0.5783886708922878  0.3167791485318077
  0.2866982732035765  0.1684316435091873  0.6663647592751119
  0.2146895650263758  0.2056857267825905  0.3331772121543537
  0.1465425140821921  0.2420157967991869  0.0159235892907574
  0.0741166269560694  0.2970055026985818  0.6735908990259816
  0.9976810246879992  0.3369087028420594  0.3254727983791810
  0.9262260807062361  0.3756262654132740  0.9985791695988766
  0.8610001991771483  0.4169979215321291  0.6590084649278083
  0.7921281771800963  0.4613145486531849  0.3492867223674025
  0.7135622801982322  0.4958281691023032  0.9945599174350193
  0.6421476573330054  0.5387636801993594  0.6572923280008212
  0.5728637267956032  0.5817203255916681  0.3205164977565786
  0.4985488446601991  0.6256216390691876  0.0121558770400298
  0.3515356254426862  0.2134385411921471  0.3385513471718582
  0.2907764854961172  0.2501382347791292  0.9831812628587571
  0.2118862266084278  0.2856569151883903  0.6757357830898698
  0.1433694366774105  0.3349464437980956  0.3269073837837340
  0.0702289224053345  0.3790257099893282  0.0111827976171810
  0.9999634297212054  0.4169415339582372  0.6534373483283034
  0.9350110967333265  0.4616793381536297  0.3338621379937905
  0.8579137165333819  0.5033003928978843  0.0021135757092239
  0.7890848372568868  0.5342958231849622  0.6690510916776091
  0.7128978290008803  0.5858187228763256  0.3194988668606058
  0.6380339322928705  0.6205306222012084  0.0093767329905816
  0.5712885355256248  0.6684215697415610  0.6536858007951665
  0.4364551167051047  0.2510730603154272  0.0026111556856421
  0.3644627300979479  0.2906786160545209  0.6714718252598644
  0.2854038807999117  0.3307155476587198  0.3376945691784314
  0.2204961098050973  0.3754676943571980  0.0146378068732460
  0.1402837975004942  0.4168986956013683  0.6778868976274879
  0.0634608165356241  0.4557168533069174  0.3271647745151185
  0.9854254654881203  0.5030153766569825  0.0062560850213131
  0.9275506901983590  0.5458309587566390  0.6687343330479578
  0.8590181688004961  0.5831232523645724  0.3382207407540250
  0.7832323633852099  0.6223417579318635  0.9903533480952262
  0.7131627072607145  0.6625800721300621  0.6708606095106617
  0.6435020999730909  0.7041780437725365  0.3245453390229329
  0.1481002885970639  0.4974773530020826  0.0174318825443649
  0.0653994998500949  0.5458401551293193  0.6707282164260420
  0.0020889036153804  0.5903685103180578  0.3553991712125182
  0.9360591873074071  0.6314386032126933  0.0076759683007808
  0.8544732016406300  0.6663112307349621  0.6778369686728212
  0.7778378259591250  0.7060270031849285  0.3349840979484284
  0.7111477449539692  0.7488640169365581  0.0138884857259427
  0.2193910345212444  0.5389358780844873  0.6681837241199986
  0.1365808985858052  0.5861901313848179  0.3390588909756715
  0.0705970257568111  0.6301098415328781  0.0020156420749728
  0.0002593486972557  0.6687396722878560  0.6739952222575809
  0.9265093782019918  0.7148548056919850  0.3422693128997665
  0.8525257553757442  0.7444378481019243  0.0076592446335013
  0.7837803037097402  0.7931839155578899  0.6585537824354404
  0.2851094725274024  0.5772857588799170  0.3364552284432349
  0.2190769227122118  0.6246310273488760  0.9978074864296715
  0.1382555243239594  0.6640368842733935  0.6688766809952611
  0.0655961321192393  0.7099041340868197  0.3314678740637476
  0.0008930653516188  0.7519101893235032  0.0074423533261339
  0.9267601813385653  0.7921157890917954  0.6826339964230783
  0.8482399779539094  0.8340716474656915  0.3338226887855953
  0.3542570000194942  0.6250081363529105  0.0171539621778862
  0.2905651945004877  0.6695287946536439  0.6558012263723825
  0.2137299066371057  0.7068086649219936  0.3297031228568770
  0.1423819802603603  0.7430506882626915  0.0089641922571815
  0.0693572124800710  0.7895213286728122  0.6747845865251421
  0.9958795908712617  0.8295338514495612  0.3378027579931597
  0.9214914057442058  0.8719349544474397  0.0000490472753967
  0.4199518258587034  0.6632597165760501  0.6610013850477614
  0.3490455728528516  0.7095644140216351  0.3350328942119347
  0.2825999639823564  0.7498702659609009  0.9999364899572853
  0.2132335678191168  0.7842812512883555  0.6621715993491648
  0.1405146147793062  0.8278964754579405  0.3377484071950789
  0.0658036835318470  0.8711894860759983  0.0066758360713024
  0.0001668198568936  0.9132169742407825  0.6713999403846742
  0.9252054271751717  0.9642846387182118  0.3339248501772758
  0.8624626219498666  0.0036677182263887  0.0160014814183995
  0.7788228119105440  0.0545776827921642  0.6631187380377170
  0.7133528943034335  0.0851598844812003  0.3054069243423285
  0.6441736427053186  0.1218794448312650  0.9885662102134916
  0.5694450543107621  0.1667204791836596  0.6668998444622716
  0.5023144895650944  0.2140038715706751  0.3289198281465033
  0.0704727820593334  0.9573071385092291  0.3446462292186823
  0.1419213510108435  0.9935813597801300  0.0023679829849783
  0.2081306864014536  0.0450462108579757  0.6658045110422819
  0.2759175175615667  0.0871037677489710  0.3208169325450356
  0.3523660041133070  0.1285220837731273  0.0100322572692590
  0.4259070710798696  0.1778543322624699  0.6535304127800927
  0.8617102968698589  0.9183662137221802  0.6702745774259640
  0.7810483779319952  0.9589425153347904  0.3301970035455426
  0.7144497510199699  0.0107622417586768  0.0054403376109917
  0.6449873815067733  0.0481714262526651  0.6700866219626462
  0.5732967993498193  0.0847513060572709  0.3076827662406956
  0.4905738298894704  0.1316486621908624  0.0016775590886482
  0.1443376985022198  0.9152790839645775  0.6596550155313636
  0.2160556585714843  0.9598874760336500  0.3464875583266434
  0.2926238939412045  0.0022463823260281  0.0056039399902303
  0.3554189208610055  0.0429827106236473  0.6664603235363984
  0.4244720001511340  0.0875473570865068  0.3228052636297249
  0.7815745667797600  0.8809156455272671  0.9916413873785856
  0.7167936688530361  0.9171102566651470  0.6797595279183497
  0.6407869551659431  0.9657871339761073  0.3218791579447497
  0.5749030000359738  0.9995189237467486  0.9889641886712965
  0.5021812501352159  0.0484445480404787  0.6641133865538293
  0.2127327862543211  0.8798532885102333  0.0052674137258677
  0.2882189919771250  0.9194199258284428  0.6667302984800330
  0.3639762100484347  0.9605714329673418  0.3360273325055942
  0.4300475833954636  0.9975822338715048  0.9960596337019325
  0.7120842278305446  0.8339924731640380  0.3224143085742952
  0.6473161285435296  0.8729600250125458  0.0025967821171946
  0.5753135206215845  0.9194382062323001  0.6745385325665509
  0.4959229210598295  0.9587514930860337  0.3263880778316164
  0.2872368743130735  0.8351165233592752  0.3306749346696733
  0.3530651587066558  0.8762280860671297  0.9832402779956695
  0.4265984341753182  0.9175970943531837  0.6707845394604135
  0.6396054942114588  0.7856661101863338  0.6600904754434183
  0.5641313535914989  0.8337922448057569  0.3327493637296755
  0.4922702577299489  0.8789880164053656  0.0092504345643363
  0.3520016422939918  0.7971218803597964  0.6608869998251876
  0.4289194307604234  0.8301315808306811  0.3387451736240266
  0.5664985109970715  0.7480853418293592  0.0054570680018102
  0.5006268737176711  0.7909177329006880  0.6533767406105895
  0.4269472802229757  0.7530507643034809  0.9967660371945826
  0.4927152020898475  0.7048463992872342  0.3355092022752402
  0.0038898797501830  0.0021113957275603  0.7858654916919576
  0.9153105489449089  0.0313818708846370  0.4456960958686125
  0.8677924239288259  0.0791756235288759  0.1042591903970020
  0.7765619374730690  0.1258850821330029  0.7836309699368442
  0.7108053716779423  0.1565570213538550  0.4351782722313615
  0.6459178980819189  0.2018471565736206  0.0954717253033408
  0.5711500570980093  0.2597846003253821  0.7694065948892188
  0.4882518590153637  0.3047294815592281  0.4408606292330219
  0.4431283390573242  0.3324876620116228  0.1240892607251567
  0.3606152686645316  0.3756241544815779  0.7528521418934346
  0.2866336247199328  0.4199346866942264  0.4453459638632538
  0.2165338999810729  0.4562623989093026  0.1156116814659072
  0.0589471705280644  0.0449592257369318  0.4476300864646348
  0.0025811936639286  0.0804835780578372  0.1259004262719827
  0.9352509966470066  0.1297417824255689  0.7836505869644128
  0.8544816792745991  0.1633553940309653  0.4447132637372988
  0.7882802672969831  0.1984601596870448  0.0987880356974742
  0.7127704877604586  0.2669122057877971  0.7835435604243912
  0.6370190448615602  0.2944280241321735  0.4337679323343622
  0.5792907874195876  0.3413871622477842  0.1071964477335001
  0.4974620118348128  0.3813690351949148  0.7870507106774198
  0.4303523769168365  0.4149315964342435  0.4399131216466401
  0.3599016613517279  0.4486162688439634  0.1196764739104523
  0.2853326114576475  0.4987925242193896  0.7810839249295114
  0.1522190427432690  0.0826327104924545  0.1051748844672957
  0.0836231396815634  0.1289518922136637  0.7736819656920559
  0.9958627207486899  0.1610451204651469  0.4410913997050585
  0.9272655854805762  0.1994565681372720  0.0946430220935284
  0.8546877615193651  0.2510685971796747  0.7740244310770663
  0.7734536491098893  0.2893888011217669  0.4427976360058636
  0.7264108020710296  0.3213382956632174  0.1081118240048085
  0.6490586645846790  0.3724344258189447  0.7722373290541782
  0.5784662435170560  0.4189909642636636  0.4231249568573290
  0.5122684600014935  0.4576553083592927  0.1199012174076728
  0.4244327668244381  0.5013862757660732  0.7759738284244051
  0.3565563063448707  0.5426920296998858  0.4377867281944603
  0.2183291666811371  0.1199979144119467  0.7769867380556406
  0.1247612744069073  0.1746022162074183  0.4425491315436787
  0.0834107012721788  0.1987588979782444  0.1093295902679117
  0.0027091095275722  0.2551201552356162  0.7726769844507118
  0.9205769792239309  0.3016572715666186  0.4492928708140411
  0.8485918210022589  0.3261821459468308  0.1160684240487342
  0.7917474806107236  0.3736456927876901  0.7774488836694360
  0.7105316661592056  0.4076065648185789  0.4306536134506516
  0.6474676026628643  0.4519543397789505  0.1254176219312697
  0.5673760362752063  0.5037449882570968  0.7725317709337176
  0.5013398927869517  0.5387824875541654  0.4183737571549599
  0.4272465805481431  0.5815236884996651  0.1290250509867903
  0.2836888269035214  0.1750392072810953  0.4423247291536896
  0.2214575541584409  0.2053328066885669  0.1190432493489411
  0.1506965429461431  0.2543995825195395  0.7787126792381756
  0.0642547629617667  0.2982270411777748  0.4455571392712585
  0.9991305520306710  0.3264899369999341  0.1140892051439479
  0.9375187974054882  0.3880263233997567  0.7720149069687210
  0.8595622493804598  0.4146225232272087  0.4341211374424603
  0.7787735250163337  0.4520983759523745  0.1149031040309794
  0.7177195184192868  0.4978377291448410  0.7710769790718857
  0.6492352029476365  0.5462573264884725  0.4342567654428322
  0.5722966761955064  0.5843072184534392  0.1225624526551243
  0.5014332997634128  0.6196779192030135  0.7710205834233506
  0.3626393615729100  0.2039781267281029  0.1131684872499434
  0.2810484881696738  0.2592091320650027  0.7869150580240856
  0.1986309209002215  0.2945337730647140  0.4369476707441180
  0.1498155815400821  0.3319045570136225  0.1190514686436828
  0.0761000330747095  0.3740209009384259  0.7698500728382740
  0.9953995053451905  0.4169393666823140  0.4451931957847961
  0.9350135813773761  0.4549248449935064  0.1112019910621811
  0.8679891527601384  0.5068705879334274  0.7773935597520349
  0.7884792792650970  0.5311866996846746  0.4384492583943285
  0.7150072514504444  0.5707435356849402  0.1059416666293131
  0.6370771578392720  0.6295117608563672  0.7702975822176015
  0.5724466652590081  0.6606028824495453  0.4300145304508831
  0.4348650318657405  0.2598058289904444  0.7758373927036217
  0.3526434398977898  0.2874237735779772  0.4372632030013861
  0.2955709447094890  0.3327150149372287  0.1117932639165957
  0.2202738851319310  0.3788253712301639  0.7801741085716074
  0.1399955853432644  0.4180681229769689  0.4430412345302699
  0.0735625404956366  0.4418978471612149  0.1211331322249976
  0.9999636516536512  0.5044685939932450  0.7736420857295272
  0.9195613230678745  0.5518718976148307  0.4555895426653009
  0.8603003194641516  0.5839231207533402  0.1077615960770402
  0.7888520457045374  0.6283079468279311  0.7916583181306791
  0.7148310716184980  0.6728385173591604  0.4345356974768819
  0.6463112132053510  0.7001727905704200  0.1205307108567126
  0.1489965568646454  0.5013765689292740  0.7700046459611727
  0.0564655744237754  0.5536117129339289  0.4485038131395740
  0.0039085008325586  0.5658734045902207  0.1133590276875083
  0.9493051036150462  0.6281791630062159  0.7837678879590513
  0.8511558033339668  0.6631142082071690  0.4448210607941832
  0.7740144909671258  0.7044468751490385  0.1084605037270805
  0.7204833808881048  0.7448044427746794  0.7723161539599346
  0.2057079593306099  0.5304099917372014  0.4494516542131919
  0.1403899012521777  0.5790292259587275  0.1180927847528181
  0.0756890830910280  0.6324120530538835  0.7899353859531928
  0.9957124252319147  0.6792311674142084  0.4567977341694416
  0.9270924446068278  0.6943079168783939  0.1048459808962008
  0.8692850674140473  0.7494045091009269  0.7866453314029300
  0.7797226746613859  0.7910041171462936  0.4467602630246006
  0.2872199580373831  0.5770125777800672  0.1230164336589041
  0.2099145550870603  0.6261828134678566  0.7758967337077607
  0.1461508049876343  0.6632036677495563  0.4465684935252341
  0.0542787391230988  0.7082540880398938  0.1092292635042185
  0.0081045221645653  0.7479849410719552  0.7699449997086489
  0.9243608605189522  0.7999521293520857  0.4465893674052097
  0.8650450960785889  0.8289600715106644  0.1137384895359403
  0.3624102158908258  0.6307056291580508  0.7893409068701089
  0.2885435241842558  0.6714216037980307  0.4373558900388588
  0.2097306654885074  0.7076885686248957  0.1188609326884702
  0.1502902392572381  0.7389121679235089  0.7740073156519358
  0.0732864629096710  0.7942796353444095  0.4342054958157178
  0.9911583223119251  0.8370712029371532  0.1147767540576510
  0.9351761566494261  0.8736639624769609  0.7908490661012948
  0.4285596817612145  0.6649800149021772  0.4253533377858076
  0.3648677400436497  0.7086177233681212  0.1161848070570173
  0.3008573289113130  0.7497349906354458  0.7839926946574778
  0.2202907691454215  0.7927757265232955  0.4360744313011793
  0.1368581709268497  0.8310746766463595  0.1184078194686649
  0.0684698773180941  0.8692694507585585  0.7858785752385700
  0.9897551005780940  0.9133658363199828  0.4447103833758419
  0.9248284010702932  0.9675695353925704  0.1113537129589375
  0.8647438579840170  0.0101672593338904  0.7838522772605643
  0.7767657017103957  0.0402348050637826  0.4264341497196256
  0.7085818565381174  0.0895538033409409  0.1114002070848130
  0.6349101472335192  0.1234397381501324  0.7863472749521492
  0.5614689152136023  0.1596555004285776  0.4384565641850884
  0.5016763497463756  0.2185882836383257  0.1162034348287975
  0.0639804303717142  0.9546788934105876  0.1085024702259574
  0.1602536072681957  0.9938802314177977  0.7831689928596077
  0.1951960554551420  0.0503883803049732  0.4466301254611196
  0.2719485820843630  0.0803740922425931  0.1150315149912373
  0.3559557106640057  0.1328341121265524  0.7541455649336370
  0.4317350140769918  0.1775855876105936  0.4289241675145803
  0.8537336321460742  0.9140037152286027  0.4378148536286872
  0.7824346879613202  0.9564831298619723  0.1090197806335382
  0.7106903030644887  0.0157168660633786  0.7841399220966636
  0.6352977199257879  0.0467799186377107  0.4401212728095842
  0.5707318798490206  0.0767887647180672  0.0989288663675438
  0.5007371208642439  0.1333392243190090  0.7695530119185818
  0.1327897538041043  0.9164280010039221  0.4595960232544556
  0.2080715546430483  0.9467550337091168  0.1133020811575207
  0.2870694192978220  0.9933086077399906  0.7814121337355502
  0.3472432320021426  0.0361962769216149  0.4435621420279077
  0.4293773105068084  0.0736750846888370  0.1165841391860951
  0.7931469496366148  0.8835454823919306  0.7807155188102044
  0.7159599501832687  0.9176521199586816  0.4376655073801956
  0.6356362718714621  0.9656978322100542  0.1142589721063061
  0.5795566186704590  0.0048399037656850  0.7774948771162329
  0.4945605987595201  0.0296246805691496  0.4390254095752084
  0.2172436199960970  0.8778908703449275  0.7718016297843562
  0.2731978615327932  0.9298039692954418  0.4358970515067426
  0.3626653682763958  0.9640734981750398  0.1062528882055815
  0.4121800430419427  0.0053056247374315  0.7813976077670262
  0.7193489315293391  0.8313448928156504  0.1114487456128970
  0.6491916506498043  0.8715534324717993  0.7818849599053337
  0.5689284042815004  0.9156950398296004  0.4335719781081764
  0.4997709244541682  0.9533889614282813  0.1132736190984218
  0.2820016503171985  0.8378827998493250  0.1089713451996204
  0.3676536058859838  0.8726527489895801  0.7799074904637919
  0.4241933125502300  0.9181089699280349  0.4402434904996468
  0.6379858521937507  0.7982899444413789  0.4398714016772942
  0.5668334848786927  0.8268852354206402  0.1094851629560267
  0.4987717617265233  0.8650716156089189  0.7872232087388014
  0.3513542534739642  0.7922377243747292  0.4329230433398905
  0.4283367621361691  0.8271433898386960  0.1081638000511020
  0.5718564859039148  0.7416922463917217  0.7609557394317292
  0.4869306702328444  0.7930362616851312  0.4506876385608081
  0.4327829558623577  0.7484500476463012  0.7759531822480810
  0.5015725974265308  0.7135274356063803  0.1164190769037674
  0.0030831872646644  0.0044239928354557  0.2334779598112036
  0.9339260818638166  0.0440137729918817  0.9024587004755773
  0.8562043321987503  0.0773599269530791  0.5579306700672788
  0.7927157350239113  0.1100379214144027  0.2105233427612205
  0.7108837499225800  0.1742946073907987  0.8906798370215654
  0.6439074755658396  0.2087362837567923  0.5460342241267284
  0.5836712079740778  0.2459189658683840  0.2132035132700096
  0.5081953142849684  0.2867528909524424  0.8945400614979135
  0.4191269951476073  0.3283965593171700  0.5449825031264410
  0.3511200629025382  0.3664790883422242  0.2326934069037208
  0.2846528249932305  0.4153036420475118  0.8955543319721926
  0.2138613005735195  0.4547394452930931  0.5581826716629976
  0.0830851286780288  0.0382570552606012  0.8943250828115126
  0.9883882576360037  0.0818839903976922  0.5568575440279346
  0.9251652188137314  0.1178210003385516  0.2052864614943246
  0.8593191404981866  0.1699855655752316  0.8912312231899122
  0.7848244864284268  0.2056211304351052  0.5523260375531720
  0.7242328020797757  0.2379542915152797  0.2197605862024119
  0.6481273585873524  0.2969458573436228  0.8780342182996606
  0.5627699537625546  0.3275106159907466  0.5452959506403019
  0.5055828602685182  0.3631908977987166  0.2265194767298553
  0.4228645430248577  0.4141436188367038  0.9037688010148059
  0.3621469004908562  0.4533288330959735  0.5481421691013324
  0.2903344240725119  0.4971156820030842  0.2296032662922372
  0.1213151186279759  0.0877423660116108  0.5565387495125407
  0.0703201709569541  0.1218672451517904  0.2316913902921129
  0.0063154304428394  0.1667059916032585  0.8893792180083082
  0.9200926298258949  0.2109898545641897  0.5549098051520218
  0.8568238518567171  0.2431675774654494  0.2222599855668150
  0.7874718409626524  0.3004379280015925  0.8791264633769131
  0.6923185168088963  0.3376291775671589  0.5573037078042304
  0.6467417867443714  0.3695664766477833  0.2268882934329000
  0.5763094331996186  0.4155451108284467  0.8955036844959778
  0.5051211066870280  0.4464206102706001  0.5481626274669793
  0.4370480125611493  0.4943364499357372  0.2404207483740279
  0.3630156171053684  0.5462591735687639  0.8936344442103632
  0.2107566402365890  0.1293002585894101  0.2374203283773397
  0.1429393516278310  0.1656662900142578  0.8894626436034514
  0.0491917328360429  0.2085826778014734  0.5614461870845417
  0.0043259512891396  0.2426370148278707  0.2051618596395315
  0.9321566257647547  0.2882475244444365  0.8773733492606368
  0.8476588757652834  0.3358952145151690  0.5618875879101921
  0.7893649791686101  0.3688501720216237  0.2337164363483168
  0.7204567836759139  0.4208611004572802  0.8800646893503696
  0.6394224381465463  0.4620006134857135  0.5429018866233051
  0.5664569880659016  0.4962210658634447  0.2167235086083608
  0.5066000248498241  0.5397256660505931  0.8900904476528169
  0.4281414582833918  0.5909938043285763  0.5457309739709615
  0.2850125480150467  0.1753973138967879  0.8826156021820069
  0.2013893321273983  0.2094303053480786  0.5569622581209046
  0.1563260863689635  0.2485003501812315  0.2168960949721424
  0.0751729790891815  0.2979967927849927  0.8818573015325200
  0.9849060846028763  0.3380206859180532  0.5681508836963260
  0.9165421757655139  0.3604788177514848  0.2212454954571328
  0.8560195278653850  0.4152648527481162  0.8902577730762857
  0.7814808466235945  0.4631966091993291  0.5469653751507195
  0.7142639784664127  0.4957557037515059  0.2265619205995577
  0.6438174996191890  0.5362611820701630  0.8956242464040329
  0.5750388704693847  0.5879341778586564  0.5563116124376393
  0.5072585949170332  0.6362600698955276  0.2179121126684791
  0.3639332086846849  0.2192921123288087  0.5518968986584341
  0.2959575843970157  0.2545701293741160  0.2260474878640224
  0.2180434160944884  0.2927774509731407  0.8975898093654351
  0.1242341719372320  0.3312293031752773  0.5639856093985998
  0.0656304812024615  0.3696499127351771  0.2212416769387318
  0.0029302055448142  0.4269908600822703  0.8954424129414562
  0.9175717888371082  0.4594830084468740  0.5535178317054914
  0.8585706963776545  0.4969837093327243  0.2181752757769004
  0.7927625303511618  0.5490927317332890  0.8952400417755513
  0.7146653586814509  0.5854513822049867  0.5438217721439571
  0.6562677932376886  0.6121398723679690  0.2211061999937272
  0.5668699086085098  0.6735535222332913  0.8924019108280277
  0.4305171475007512  0.2479768248342396  0.2339875937372540
  0.3558782774550622  0.3024033745603631  0.8917913064720722
  0.2761845347275127  0.3299246446334081  0.5611049870684042
  0.2142771896756983  0.3698817526175304  0.2146610425061724
  0.1467285210474003  0.4179085952565131  0.8901101095039365
  0.0585174945275213  0.4695265711786334  0.5627565274297694
  0.0024048238306591  0.4860959790051709  0.2398146779203643
  0.9372226068940250  0.5412112538502072  0.8849704052497316
  0.8496428430834158  0.5800048384952774  0.5656359897264451
  0.7796972527616717  0.6164783808936036  0.2172037078042308
  0.7162450472925954  0.6644922984919077  0.8940443555942039
  0.6425780924415889  0.7145045931097229  0.5356567170333975
  0.1520106555415168  0.4883662957680173  0.2235414850939250
  0.0745165698391901  0.5539774464384593  0.9026200612289728
  0.9909177645384801  0.6033737340450855  0.5496351071506993
  0.9286907372050592  0.6173649246386361  0.2366785071067738
  0.8696299006826465  0.6626622597868419  0.8904733810853571
  0.7817924099581788  0.7137769249851615  0.5642534937717656
  0.7090191173759237  0.7506758325364231  0.2211954880612481
  0.2226417577118767  0.5461645622884816  0.8907394846187984
  0.1343733576149120  0.5770246879909280  0.5581782601290044
  0.0700601983355824  0.6187373063010995  0.2162035890218164
  0.0082099195595049  0.6716580434498667  0.8984089382645237
  0.9214205393170332  0.7149164129078471  0.5582934086966631
  0.8561144547336070  0.7429165186037139  0.2197127303370294
  0.7908323991595338  0.7874322176414239  0.8956807819020440
  0.2836339297321047  0.5847465855198948  0.5454581912800265
  0.2220842626081492  0.6187527425137631  0.2354028655696823
  0.1490868856729435  0.6694282547993993  0.9002057181405405
  0.0804389764460254  0.7081824053772507  0.5603626364316838
  0.9924284785632977  0.7490831621001632  0.2224927345504426
  0.9466557894374716  0.7925185660733547  0.8868485990398796
  0.8493104077626796  0.8335066853330630  0.5584694648516120
  0.3711271073786904  0.6268387107551447  0.2317166169872280
  0.2758836032922787  0.6687774360385106  0.9009385818724596
  0.2136016726524446  0.7116455494359570  0.5528077585086280
  0.1263538015407590  0.7527765683813783  0.2316733380547475
  0.0801180645224022  0.7841427592466346  0.8826340452807528
  0.0002100481297944  0.8362715087392729  0.5503574185219904
  0.9286574814699122  0.8772589983244927  0.2271669735585888
  0.4317233033505588  0.6681766998874110  0.8894718848751921
  0.3685353058623662  0.7083076447067995  0.5468989376818172
  0.2810855416437263  0.7463758208507656  0.2188358341887167
  0.2137848702396994  0.7854612958205465  0.8989860934929652
  0.1431892309242002  0.8370210480995226  0.5527743232764237
  0.0750740134904220  0.8816493407157466  0.2253478092488947
  0.0177914178558325  0.9191221160485696  0.8975595292630558
  0.9274740040684080  0.9520135329895041  0.5600579837469795
  0.8551077568768761  0.9927535100330900  0.2064308722215031
  0.7928572943363719  0.0468148670936586  0.8979823534157774
  0.7199380119708891  0.0739069326623039  0.5553634728391685
  0.6495650859000648  0.1147150213437840  0.2154339547371791
  0.5770092531709565  0.1705329095779362  0.8861498926475946
  0.5011774201210670  0.2028753514502526  0.5544897215112741
  0.0723438509503112  0.9587325749339470  0.5466566013886336
  0.1476853737610497  0.9965698227676612  0.2225946050372727
  0.2228816811840204  0.0357532302397416  0.8925152727289003
  0.2776981879683831  0.0837909552189373  0.5656103968229047
  0.3519850466346384  0.1128762057457848  0.2186735339336678
  0.4253248329907109  0.1687716638824313  0.8844238290967610
  0.8625316477854383  0.9205194997195036  0.8878759996772700
  0.7873906300663904  0.9616777543036861  0.5541159293939373
  0.7144097495772996  0.9954206294712691  0.2167600263562477
  0.6500944864451199  0.0403690438645299  0.8934737154690566
  0.5761269937746221  0.0892636207765847  0.5562210011788622
  0.5068000513519024  0.1186262090020946  0.2110299439257375
  0.1465895021868278  0.9107182454450111  0.8968165067212936
  0.2150081162369801  0.9610791933594740  0.5558577237703801
  0.2973746946336675  0.0017615623639955  0.2255705831992358
  0.3598130232622481  0.0504397070169773  0.8961257569577370
  0.4339668295734427  0.0867173528025944  0.5610637251957655
  0.7885189774194146  0.8709332721838052  0.2238512382506244
  0.7224341479291070  0.9272044839574676  0.8843186954553417
  0.6386993656276587  0.9574453164360506  0.5559753174628099
  0.5707036974947854  0.9980149337856545  0.2116236193225376
  0.5057007369810407  0.0493166550483366  0.8816618892230750
  0.2134382882187040  0.8594916555358409  0.2363723438683607
  0.2963309947354844  0.8941580764854038  0.8925290712111789
  0.3546672773759383  0.9509446892762412  0.5500156604526296