Li                                      
   1.00000000000000     
   -10.5278949999999991   18.2348490367503473   -0.0000000000000021
   -18.0478199999999980  -10.4199137352859115    0.0000000000000046
    -0.0000000000000002    0.0000000000000000   22.0820499999999988
   Li
   504
Direct
  0.0062883871679276  0.0058388315140974  0.9955791717707356
  0.9088338135596175  0.0444794766567256  0.6664202159672712
  0.8863597679835138  0.0829335504479332  0.3202742281626954
  0.7837782402081359  0.1152109930065777  0.0016949141950136
  0.6813959560991236  0.1466169704021780  0.6519517137222337
  0.6242425036730168  0.2370463345042992  0.3429924966205604
  0.5602476128446554  0.2403155349494170  0.9908168643762707
  0.5357018626924912  0.2963212492294929  0.6718432224363227
  0.4229295806784208  0.3283620732156862  0.3233829771239556
  0.3482567615220802  0.3757671869320234  0.9897371195156239
  0.2759474048204069  0.4331699804479570  0.6742157793320800
  0.2111952581054624  0.4550493803776732  0.3345747310598455
  0.0825326330687375  0.0447208130942585  0.6622113757554189
  0.0175233074041685  0.0862750093693450  0.3405647057225210
  0.9334299843239151  0.1086983394773569  0.0052703077839240
  0.8301662480868615  0.1609095124839186  0.6450001095912725
  0.7827186666990826  0.1979020093535979  0.3512825340038646
  0.7163581778152590  0.2528862201401409  0.9982197350336577
  0.6606600927886603  0.2854081513684577  0.6513628657665365
  0.5493081298764579  0.3542795964285048  0.3429927348230777
  0.5071406416650390  0.3521037634638375  0.9928590375440720
  0.4468314595702978  0.4234197837161062  0.6339529790033112
  0.3698655963391246  0.4709037932353795  0.3368854318326413
  0.2854242236931626  0.4784711368188397  0.9915123867575701
  0.1548298333864224  0.0954375903150790  0.3357614175314367
  0.0733182545475444  0.1005748175979235  0.9859951802482101
  0.9601932856303748  0.1656172955613684  0.6543815411159741
  0.9265996457374825  0.2300774189147816  0.3364122334656443
  0.8561166920501009  0.2346278701997946  0.0111908799228360
  0.7785598244255496  0.2820998761750388  0.6443812096250099
  0.6997896207805994  0.3244809600457046  0.3194130318516599
  0.6637461232576598  0.3773207471975155  0.0050898612221246
  0.5731259680700163  0.4414910884741516  0.6418179494204566
  0.4994090484953730  0.4768439742523398  0.3623684132587357
  0.4298722666889674  0.4788053927225846  0.0231157954084864
  0.3561774958035713  0.5286518733463126  0.6903841907793904
  0.2305937926510850  0.1201299981558748  0.9968062847425827
  0.1185142991892647  0.1916243392352541  0.6842965856883794
  0.0429766315310971  0.2177096217596883  0.3452867319836699
  0.9711819999220879  0.2459423824556239  0.9799899071870612
  0.9184769357633513  0.2982312988694318  0.6656243695671407
  0.8607802959396764  0.3374122290824104  0.3655389898129897
  0.7937746813613913  0.3789740456724857  0.9991892695651003
  0.6951264872327911  0.4165726825009486  0.6750700537314245
  0.6556297020924262  0.4530599467132177  0.3324283637615153
  0.5463437265359232  0.5198707286044026  0.9961143077748673
  0.5064590541939964  0.5408162418312230  0.6642428524525599
  0.4396776033540775  0.5707167845222685  0.3462281957517561
  0.2821514200229984  0.2006063555541289  0.6636582708580079
  0.2080176291155311  0.1953357614671845  0.3275856290516472
  0.1314293571616574  0.2157678416498285  0.9949677022740175
  0.0585945506902306  0.2741824825802297  0.6907830301081646
  0.9959165721991354  0.3442132284745512  0.3454109179174907
  0.8970317469477465  0.3705178435106049  0.9977637239296158
  0.8510525098038570  0.4286604325230741  0.6526445714958555
  0.8004681961096693  0.4477170860811981  0.3350877921207527
  0.7166422169407696  0.4901806443925310  0.0049757830455022
  0.6532699690586270  0.5631345580295886  0.6768294293328765
  0.5832038586869217  0.5921532756947485  0.3410092758598040
  0.4834619457544420  0.6358927265786960  0.0043419542116752
  0.3440893404494503  0.1938055284864859  0.3193003643230554
  0.2837394997365124  0.2587130317911814  0.9930382564118787
  0.2042839701434502  0.3106816043237686  0.6603648605994437
  0.1408753601680530  0.3360983991453566  0.3219671443548009
  0.0667749097644048  0.3524631817785107  0.0182248554821669
  0.9899869974879039  0.4309801061337097  0.6786132967727170
  0.9414563309058721  0.4530319097341291  0.3126068154904118
  0.8569955196211794  0.5003004331801719  0.0067189626868895
  0.7812682680454444  0.5349631577213003  0.6681270144755587
  0.7167877078790212  0.5963801037554148  0.3053505258796179
  0.6396686504390274  0.6237041245638650  0.0046283293444205
  0.5987753976977146  0.6805945196957452  0.6765109041053705
  0.4179217106395541  0.2482121271248516  0.9910211443231063
  0.3653546508377801  0.3145002930114629  0.6760796696864659
  0.3066896511948300  0.3206725147211245  0.3141886473402593
  0.1894475529682893  0.3697219810671299  0.0027828978740629
  0.1371576248026400  0.4086920036673902  0.6701227829843717
  0.0761421217984264  0.4647099908259804  0.3443315348892000
  0.9962305553568243  0.4862204497502560  0.0307340604699320
  0.9317417767240883  0.5484141601332126  0.6671399136402627
  0.8662312942237236  0.5774605513961504  0.3332553236678635
  0.7947324979846826  0.6315333612663210  0.0162691561698267
  0.7275208778368381  0.6493945622144963  0.6597731016821342
  0.6591154279597546  0.7356975951422200  0.3140184208440786
  0.1149262926786676  0.4700520648997895  0.0051241913681039
  0.0848679403634449  0.5712347953928685  0.6513468314762463
  0.0030610200096888  0.5848640247268122  0.3262383370203423
  0.9461044712526530  0.6125650747636868  0.9959712508576004
  0.8573699940795123  0.6635609484237008  0.6652294008029145
  0.7880885150479600  0.6909997292121233  0.3088167470864320
  0.7315097631953975  0.7545924938083388  0.9988336562954956
  0.2206874688086984  0.5421355033774873  0.6747842464807405
  0.1373506120030115  0.5943317519039155  0.3451917634458752
  0.0723961320004420  0.6098270186589403  0.9976492581078276
  0.0004696523099810  0.6859821873109340  0.6840249428834753
  0.9243860176093932  0.7167956782115610  0.3194241463088829
  0.8664881094511117  0.7563509601132026  0.9936647720659977
  0.7913407814597875  0.7859286741320233  0.6493131978235738
  0.2713303931388111  0.5711092115682561  0.3140582894251196
  0.2158793645997221  0.5928559353333256  0.0124238089307838
  0.1593223887858102  0.7060352153176268  0.6532604504563650
  0.0456459056543324  0.7113016889625072  0.3234575979132401
  0.0144506417944541  0.7420046321663989  0.9977624369114295
  0.9207598798606327  0.7923195247190336  0.6587982012539584
  0.8600147945234085  0.8434738320091313  0.3244170455188709
  0.3470176661680640  0.6146621640418388  0.9963092932947788
  0.3051229362118590  0.6631601609208104  0.6534996320540927
  0.2189721459564282  0.7068989323611419  0.3379082748204993
  0.1375480296007581  0.7189312114652253  0.0034500551352821
  0.0789993330704988  0.8147824970751998  0.6573269479056520
  0.9873692571863373  0.8424066293942616  0.3091350952470435
  0.9448467120229225  0.8694235112455360  0.9891004327043902
  0.4372407245154974  0.6581794838699011  0.6561025710928092
  0.3675285799236363  0.7124390364633939  0.3381157641613868
  0.2835765676506270  0.7229594056963009  0.0039387710832983
  0.2425554647093051  0.7962836960843021  0.6727606508453690
  0.1489258446842001  0.8161422706109889  0.3392071854741729
  0.0595238713082651  0.8524754381899342  0.0013763966660676
  0.0109731814705114  0.9369836787857224  0.6720498309713108
  0.9305030368617153  0.9640965213936497  0.3415813604262254
  0.8665105769380332  0.0126135976315638  0.0044752063327422
  0.7831834358047942  0.0631588846801350  0.6870740189429867
  0.7127764860144907  0.0837069472529350  0.3483235551047130
  0.6573335327729168  0.1308308486558261  0.9879370552100042
  0.5664947646976799  0.1705021797210478  0.6695333617123396
  0.5188881835290928  0.2310518997344246  0.3418489433725611
  0.0791463039803233  0.9614693105348522  0.3241793320819397
  0.1531994262141438  0.9831205617496863  0.0127603587529208
  0.2251415016676077  0.0852852765763998  0.6711202324965271
  0.2781359906921992  0.0742991671166706  0.3135292950609241
  0.3651742652523851  0.1479407822507497  0.0117790250452288
  0.4140028257948671  0.2161165127050424  0.6695144001575954
  0.8570482729080879  0.9236985687408392  0.6807517757635750
  0.8027732543934718  0.9554970566493495  0.3318988599337445
  0.7200108979199058  0.0024607774148606  0.9924836213123314
  0.6168844065623560  0.0206166185486225  0.6700244193813560
  0.5430995667402811  0.1040881727994218  0.3538269680577670
  0.4965811157250144  0.1436790263125545  0.9904716885434084
  0.1687173739545500  0.9284823099039556  0.6647004494600850
  0.2303917656485552  0.9690468983172167  0.3192472016864372
  0.2640678779277579  0.9866776075062660  0.0162580471468914
  0.3358943097444680  0.0620026582663584  0.6696132247685327
  0.4229128756275813  0.0939476907041836  0.3224484619860917
  0.7975532003913557  0.8808243754295972  0.9899128201412424
  0.7258893134045081  0.9019449139483413  0.6734517062500984
  0.6415193350463326  0.9718417432223063  0.3342334262443956
  0.5795330497059723  0.0190096922324017  0.0115422059998949
  0.4831768213239158  0.0504740738032652  0.6848540986910194
  0.2264428054931145  0.8536269627169943  0.9989137951413056
  0.2873386191315106  0.8999708606545553  0.6521260163798175
  0.3766211575263796  0.9542750126488286  0.3281117862698437
  0.4370244007391761  0.9883296512587165  0.0146808412262445
  0.7185907058208727  0.8354470584891658  0.3320743966253161
  0.6449153942093488  0.8648081494540847  0.9918341471919518
  0.5661202842077415  0.9231466731433926  0.6767486451665476
  0.5244024056092655  0.9601081923466808  0.3374957112224664
  0.2992778997607815  0.8454704737468575  0.3584073226896933
  0.3576695847112958  0.8578046449635437  0.9931453501826155
  0.4239016073529100  0.9223895361022727  0.6875500743816829
  0.6486718710547947  0.7857087372370515  0.6714174127854946
  0.5954090253061679  0.8410474034827686  0.3387291949796349
  0.4973128084462743  0.8813647626429386  0.0057669591364942
  0.3634072233079664  0.7928357120567568  0.6616214821540538
  0.4512310378401097  0.8315148268809338  0.3416329122522583
  0.5818497875512847  0.7607956667834586  0.9995406440978059
  0.5045200672418773  0.7889160938376278  0.6667714931358262
  0.4328877510550129  0.7327575058985900  0.0103962521595591
  0.5288114247900282  0.7017040625964910  0.3398707429790235
  0.9841545673589351  0.0119935798935629  0.7455739539580790
  0.9493195293565293  0.0343746814565478  0.4634237206237657
  0.8623799144549196  0.1029154031073887  0.1301733285632451
  0.7489917797073744  0.1231507299705825  0.7986348531952459
  0.6992980781248335  0.1452769403617751  0.4374360600578271
  0.6393049019537429  0.2040385342520992  0.1023224714190931
  0.5666866158927988  0.2550290145832150  0.7793508301991920
  0.4767345413476818  0.3057902736074780  0.4402900550447058
  0.4384038679744151  0.3408242918187057  0.0885931967367171
  0.3506306873839833  0.3916271665743309  0.7758877884978972
  0.2798871304163910  0.4218163290150798  0.4310876463009521
  0.2224698442585762  0.4348013371686648  0.0936335534970709
  0.0613176367198278  0.0706230663296452  0.4431885037847465
  0.0019557689473046  0.0669509824387973  0.1009397845761626
  0.9054462173940578  0.1338044038076731  0.7790579601984433
  0.8458210151543000  0.1582119166559792  0.4241631578589846
  0.7572823716314261  0.1984455627390673  0.1097388381060611
  0.7012181944013136  0.2358448869311260  0.7565242715237019
  0.6170851873131795  0.2838881068135350  0.4588754227981582
  0.5747821233430130  0.3309722801738744  0.0953064964529986
  0.4994460816061874  0.3954101151656317  0.7751123564161873
  0.4367528737912210  0.4278285207730192  0.4564229421634280
  0.3574530028322158  0.4144264054466262  0.1036406542870765
  0.2712302360301848  0.5201809799881119  0.7832731363256613
  0.1349207378593675  0.0622090617312310  0.1138574833405386
  0.0562793515851183  0.1333525780866509  0.7679463165783957
  0.9963091750991495  0.1758520628541049  0.4396682654010817
  0.9377965285032346  0.1868216392092492  0.1187120851551384
  0.8449170312110681  0.2441727971410472  0.7603965854619474
  0.7701584392679948  0.2953395001735757  0.4464357335482916
  0.7052628133420384  0.3224255668402307  0.1384853697913044
  0.6553172415594304  0.3741568759646654  0.7677799217011128
  0.5997285334092055  0.4201422632630383  0.4556744930837482
  0.5073776469065763  0.4464560095358010  0.1188771327843199
  0.4507922797698853  0.4808536937852921  0.7652924492970499
  0.3817053979621647  0.5386577375727981  0.4339466901850173
  0.2292157705787261  0.1223578501449509  0.7870786050208167
  0.1296638085727366  0.1725045533502723  0.4182300171406155
  0.0503260260617893  0.1829589137000625  0.1046308295651883
  0.9836308750103129  0.2258533384715307  0.7651493172056050
  0.9255963145153814  0.2967537546581838  0.4603431465828578
  0.8214247696186590  0.2911816754076426  0.1204375445214581
  0.7836917359964204  0.3754248956972077  0.7512122882612786
  0.7093119823001715  0.4291314113339979  0.4318985474627581
  0.6392617538487215  0.4409335425533314  0.0904502552978528
  0.5683746769141536  0.5132079387310426  0.7966908099565018
  0.5323267407977141  0.5440569884445523  0.4653301079383496
  0.4363129664805570  0.5571378328105112  0.1193663980472834
  0.2558477450911241  0.1391027483482148  0.4402151376344108
  0.2107983737791344  0.1907479249395507  0.1369005327856812
  0.1374183762456980  0.2443919777466093  0.7875056532341915
  0.0586021865710009  0.3097326482095966  0.4525945688919251
  0.9712043636696990  0.3111702580003310  0.0990966359554477
  0.9378618099708689  0.3673833343925637  0.7796604622306376
  0.8502070048296559  0.4372053098318176  0.4545675478499476
  0.7889843988499194  0.4560341732281188  0.1208478918397518
  0.7035826556613003  0.5188861489851249  0.7720202050987126
  0.6777733604004794  0.5385208650078823  0.4369144698974949
  0.5632438175460521  0.5828951302415462  0.1196398975638573
  0.5074702598771950  0.6246524083457317  0.7767306459318775
  0.3557459337858688  0.2128029813254670  0.1112574466591667
  0.2785697926842019  0.2479608834999993  0.7849607106224283
  0.2198114198120891  0.3057895475695886  0.4409724794572938
  0.1131983233070954  0.3057536931356140  0.0970171116359211
  0.0484600915066125  0.3652124364564813  0.7910543631592191
  0.9849137375418735  0.4251900870632355  0.4444561247710226
  0.9222263066776577  0.4414475519514198  0.1262624457421282
  0.8549288794034382  0.4887874460834070  0.7885287321602874
  0.7931533628369678  0.5417499585631660  0.4219269374899497
  0.6990666808927699  0.5702929797372960  0.0969893845906498
  0.6382141552641016  0.6353336162409562  0.7973204154505567
  0.5880129653922879  0.6860605459114382  0.4490702181183366
  0.4253146115485080  0.2889936184897408  0.7726989292207946
  0.3370253727745549  0.2885858127515490  0.4596784899952695
  0.2549132270242680  0.3256260136557927  0.1138248015922443
  0.2166314471398252  0.3707657484845228  0.7718219458791182
  0.1554465346858578  0.4136993772496282  0.4308754685366623
  0.0814566836780415  0.4441589342751300  0.1337633729658236
  0.9951292979974014  0.5299642599083825  0.7971587606223167
  0.9592936239686622  0.5274514602145004  0.4380785538480367
  0.8628438909809617  0.5645604823386421  0.0987958011144769
  0.7900150608243379  0.6274032892184636  0.7666562397965748
  0.7177337241973234  0.6789039409575039  0.4154046712148585
  0.6352396943373932  0.7207103311194274  0.1113233825663826
  0.1425461710549882  0.5044673040002081  0.7745319365729202
  0.0828576877467668  0.5560679862420628  0.4685606993010154
  0.9944288202460783  0.5743815377965547  0.0950595900290025
  0.9140534677293743  0.6317430674374691  0.7834580005026694
  0.8689843427678525  0.6644923798384568  0.4258768787318203
  0.7915508433595519  0.6860692972308655  0.1268771395771680
  0.6986720034096408  0.7458312271877503  0.7709966271247453
  0.2104792910056261  0.5605792912727594  0.4587640921019585
  0.1287678185469261  0.5726930475236856  0.1056156203794458
  0.0896672646979653  0.6480046444569254  0.7733967462260054
  0.0126054169691372  0.6537726564049109  0.4678146422093974
  0.9232964036338416  0.6991153479292933  0.0977005305213936
  0.8723499306470615  0.7559712789073956  0.7718715798578515
  0.7796661503982421  0.8066049225642260  0.4506877246451282
  0.2925054820977522  0.5414908109428467  0.1056340135992784
  0.2090807672903381  0.6482118402913954  0.7632796144379697
  0.1400997878491452  0.6915953447010210  0.4467182123036579
  0.0832131758463674  0.6856184293766745  0.1249970423941633
  0.0020342839926286  0.7646709714372903  0.7772160130060399
  0.9229381111168564  0.8096435815884320  0.4301765823372392
  0.8722867342991520  0.8421419773360768  0.1068001734440429
  0.3500377753993718  0.6034998102021092  0.7541509035619427
  0.2794693147587992  0.6607296115817505  0.4379779114710800
  0.2328834649951403  0.6920232777861770  0.1092204808883253
  0.1515598037954078  0.7493701349759334  0.7707959197628824
  0.0632782467961164  0.7880413596737128  0.4433163012492045
  0.0033841161334323  0.8149081191345786  0.1298767120806232
  0.9485900481215737  0.8987176365528455  0.7828923161572376
  0.4434714023747617  0.6721915998882864  0.4477569582534215
  0.3671656709102322  0.6967660697553768  0.1225676424969606
  0.3014196901816746  0.7245493483886065  0.7851896028674901
  0.2014242387822378  0.8169408368238180  0.4500105533680099
  0.1406656819829095  0.8098738434880488  0.1112721309842186
  0.0909492963196072  0.8881152736465268  0.7659728802353030
  0.9917806843358363  0.9222825073767495  0.4364977762481317
  0.9318270773771360  0.9657702194069273  0.0983049408909054
  0.8623848253215840  0.0033268117379848  0.7925699153837655
  0.7931055329151562  0.0476937550103145  0.4178420518022534
  0.7279885211478998  0.0690345248428699  0.1221591663817421
  0.6411407878208308  0.1179287313151960  0.7798517211943619
  0.5580635627921211  0.1785766329450666  0.4504320314463541
  0.4945675942454244  0.2247171751148684  0.0838680095371558
  0.0636464951089621  0.9302316004024220  0.1004325227956642
  0.1658447039489843  0.0142383750790387  0.7776453250490789
  0.2025168957536891  0.0382235929757329  0.4507334943992944
  0.2803103439758559  0.0629183131928599  0.1115951920224774
  0.3516740913805094  0.1475717223313211  0.7777926990474171
  0.4454359949604694  0.1784641899041404  0.4260817967534720
  0.8548724170026034  0.9405098917985839  0.4354810042545836
  0.8037103869331474  0.9817518229879525  0.1065642813959755
  0.7355678132720413  0.9733255499274875  0.7620775190709210
  0.6292113441070555  0.0612541762069938  0.4492612194067149
  0.5880591669586934  0.1005620632559143  0.1181358515174082
  0.4891901328114798  0.1513266464716878  0.7712032279611734
  0.1379982757012499  0.9231670951525572  0.4461064633944787
  0.2173209558412950  0.9221287715415656  0.1123095219873136
  0.2740117329594725  0.0009877706357102  0.7807166979515046
  0.3720607906359916  0.0307771300116713  0.4446368579909930
  0.4450887361465021  0.0498569916015867  0.0957168360727394
  0.8045408904672939  0.8669182395410573  0.7763516584737360
  0.6997028951796125  0.9394812004083093  0.4739281905439015
  0.6403658393651810  0.9456237114275581  0.1239279627570795
  0.5528977873585887  0.9830276138035714  0.7908674416551023
  0.4939951502765538  0.0548772432005222  0.4583899760212446
  0.2104961698058148  0.8587872372609127  0.7734503721348318
  0.2921440709364234  0.9182737480930570  0.4337907567458643
  0.3582273991026312  0.9405663446402102  0.1080410713679214
  0.4130092194192514  0.9965268034545005  0.7819049042095259
  0.7154608365927686  0.8498088143465097  0.0955457717920183
  0.6450374762223134  0.8758338652128899  0.7944764498767114
  0.5841457859235675  0.9139265884247649  0.4716447150513616
  0.5167305611445911  0.9437654874094861  0.1267527838221554
  0.3159311538789993  0.8130315492249522  0.1278155094296025
  0.3460061899465430  0.8576973203906491  0.7812042061312212
  0.4379449396163153  0.9106592541336340  0.4633084849459195
  0.6664715630847198  0.8086087701095295  0.4421565588339860
  0.5965776407921481  0.8261260483755137  0.1296800093288439
  0.4856762943864084  0.8607447918203306  0.7515023971959138
  0.3397403617382366  0.8044122572342687  0.4465025448271334
  0.4447513573347877  0.8254601591146127  0.1182509934539624
  0.5632170657169340  0.7582780701449821  0.7785559443077048
  0.4901222721408587  0.7979200685589518  0.4555121508193309
  0.4078810812725138  0.7400199826835916  0.7655670497077978
  0.5054360860373635  0.7127502333793032  0.1255067314855296
  0.0168970768152263  0.9909727069242891  0.2228274136685684
  0.9504997309676355  0.0483835784512721  0.8938380186622155
  0.8504303921406802  0.0814149673885325  0.5443445739865638
  0.8158311978869435  0.1078350964782473  0.2533332403467980
  0.7203531128053200  0.1872584154464363  0.9102108196476308
  0.6165227063489596  0.2100590488182164  0.5630230322818761
  0.5684868669965510  0.2321584055792485  0.1992744228909942
  0.5015098857788658  0.2984653920007005  0.8773206233116966
  0.4361603417903268  0.3461039515280717  0.5432841008873694
  0.3569196144822087  0.3495068088717019  0.2027574908126724
  0.2939950669226263  0.4138002791982984  0.8745998338016605
  0.2049415443381335  0.4610576147185839  0.5677876859259001
  0.1098726181710674  0.0307464681340974  0.8659148516555319
  0.9955753719088918  0.0926215714672054  0.5648543563663679
  0.9512271696994006  0.1231353302646809  0.2122520418167682
  0.8586500220714726  0.1538079909863797  0.8865767834055234
  0.7315486446948967  0.1934136683133900  0.5484606773374736
  0.7157114719904243  0.2357442218832730  0.2324430326894458
  0.6559203270049139  0.3171130401858306  0.8828310025563724
  0.5624206693248510  0.3297460600514768  0.5621060340865114
  0.5113115113034397  0.3715693611032265  0.2284450655622976
  0.4281335462583442  0.4349965180844251  0.8798078185675706
  0.3703832145855586  0.4895754344336751  0.5571791903378553
  0.2852874189995163  0.4861265492426270  0.2158019237344391
  0.1602789136941851  0.0863962387653245  0.5608389307152208
  0.0826832253402401  0.1239344887834974  0.2249896952502155
  0.9869260933575248  0.1605909919520343  0.8971094667388186
  0.8940205018944667  0.2129963274349933  0.5550901252374700
  0.8456790960764948  0.2414833216871486  0.2181449335546262
  0.7816612756686183  0.3152783989531542  0.8875391496713405
  0.6888309787966449  0.3529266444635226  0.5402837979263708
  0.6289968260159711  0.3815952624954448  0.2252894169698934
  0.5808645567294093  0.4316321609774079  0.8904671735640477
  0.5094642956343733  0.4784216431298844  0.5251486035037516
  0.4389048769838269  0.4749856475810574  0.2247278749029178
  0.3607106082086844  0.5184236063631431  0.8889115285944911
  0.2196480649437049  0.1073809825962115  0.2186511818422687
  0.1347691617927538  0.1642806796282272  0.8886543504792357
  0.0394690603359464  0.2382071694550660  0.5491520361560660
  0.9896252947318587  0.2630378576315024  0.2395416109464463
  0.9067720827397210  0.2834877998553225  0.8716319168736604
  0.8260753822523270  0.3397955854813830  0.5495536981394409
  0.7788067355501127  0.3519984171404431  0.2375904723519753
  0.7179135932527316  0.4244638848992608  0.8911806539700819
  0.6354347033194543  0.4829448866453987  0.5514827817163734
  0.5724397793536795  0.4869382634102806  0.2201218813470689
  0.5135662738831286  0.5530835044352784  0.8811912254523477
  0.4194367658334883  0.5770854153114016  0.5592103993967967
  0.2966938182174204  0.1914364490923504  0.9075778503354570
  0.2016160809578693  0.2116654221597969  0.5518419331538524
  0.1307571145283504  0.2427274522763696  0.2063187353529230
  0.0491256077130586  0.2961364536096696  0.8966957723580933
  0.9890017276332372  0.3367365718773030  0.5847915854732690
  0.9425651160294777  0.3567451480444106  0.2346964054514871
  0.8421462831835811  0.4317870056329767  0.8735038336567484
  0.7747851074977206  0.4703380973824167  0.5457677154068605
  0.6978938643850157  0.4846413597105013  0.2278290145163169
  0.6501155217336532  0.5407596817409441  0.8981461073586914
  0.5885735196982651  0.5807266204359465  0.5614533220421123
  0.4932501680710857  0.6069174278009939  0.2216495139717551
  0.3504844996673881  0.2408662014788590  0.5287721035863981
  0.2805665991434125  0.2098649744795225  0.2206508874855402
  0.1831818349950822  0.3183627726376059  0.9079128020269849
  0.1146718443413732  0.3389582754769123  0.5629538512049379
  0.0647794447673107  0.3825590103032681  0.2346221279274374
  0.9861070851228746  0.4348912050912688  0.9175819604610993
  0.9192278559357874  0.4553819996893225  0.5615326548033366
  0.8326895672437118  0.4976119414124653  0.2183706494641555
  0.7775773464437563  0.5549209440398641  0.8911269796056089
  0.7227682150356358  0.5854714122130815  0.5334557710900967
  0.6333083271552695  0.6434637473713494  0.2006720893214151
  0.5695297183608048  0.6736583790018926  0.9052747063791600
  0.4222562957076335  0.2364638796098930  0.2181627978380618
  0.3656928453114077  0.3303844038953301  0.8706113843596981
  0.2795581268607279  0.3521490708580615  0.5713550548975306
  0.2011783512390011  0.3660638975722676  0.2186039710986947
  0.1150171520227303  0.4081497056323542  0.8877338141159896
  0.0707242549324647  0.4789932612425076  0.5624191580944711
  0.9977827584195111  0.4850604735945439  0.2193925455290611
  0.9372682541976687  0.5500112186942019  0.9201979191243552
  0.8790583095344147  0.5571280613583340  0.5547178880583985
  0.7929180873323958  0.6123423977501830  0.1973932936480054
  0.6961642820405842  0.6698314597511654  0.8821922801551452
  0.6395642597223059  0.7234510416155970  0.5526979148222182
  0.1630256652908457  0.4985186689313608  0.2205259054299731
  0.0839949882399651  0.5460362422322191  0.9010528139371132
  0.0113407288319465  0.5831199018847570  0.5691568590778502
  0.9254454060816926  0.6192825502769637  0.2153523191913820
  0.8551571749292464  0.6562178470224254  0.8823158162398883
  0.7909283408834682  0.6877439388610185  0.5545140274566904
  0.7140609847092705  0.7654939399541973  0.2194497979127874
  0.2209901818385305  0.5311437325711950  0.8884444320160512
  0.1557417558401752  0.6247224278277912  0.5463740418122427
  0.0862494220067447  0.5965384856067004  0.2195964939849304
  0.0116000434742816  0.6724237259850412  0.8770454622645971
  0.9124223648052023  0.7212376197058248  0.5523555258682933
  0.8390627383947589  0.7648734413224147  0.1971813495576740
  0.7844335537365552  0.8059102152938564  0.8729066227999667
  0.3085401870528699  0.5900747241177626  0.5479154208961603
  0.2183821439731091  0.6236227249815371  0.2066856686765917
  0.1687092868868376  0.6612803985262730  0.8848723596767485
  0.0702796998561936  0.7080157614206328  0.5625129754710301
  0.9838715026048703  0.7252291970489324  0.1950088596846768
  0.9417379286685517  0.7947923122825884  0.8888039357758899
  0.8240449773949052  0.8613300992978168  0.5459162781535198
  0.3643832174946908  0.6084370104784824  0.2316845229496352
  0.2744701547726436  0.6422807258671597  0.8829656766468688
  0.2420879892356709  0.7304255083752906  0.5422146381336859
  0.1324335823090053  0.7316411013062520  0.2226543522906610
  0.1114778927489439  0.7862815387297672  0.8886350112421653
  0.9829526126912711  0.8213362951099157  0.5444003708894769
  0.9328928619813297  0.8616122391962620  0.2082463657133289
  0.4145130093901201  0.6871775699783598  0.8675056228928000
  0.3708565385705285  0.7190279752272630  0.5342090689043815
  0.2858918362456109  0.7332304603353208  0.2521768549568506
  0.2426922501146080  0.8044449796972515  0.8796271478418021
  0.1671572097059979  0.8563158574122696  0.5633695218514561
  0.0692978666523416  0.8588429841476781  0.2116503789276791
  0.0280128778567743  0.9103785267847329  0.8822703911095218
  0.9315420713704654  0.9445692817486702  0.5706977658324277
  0.8787651061835362  0.0022191479323226  0.2259244839134027
  0.7826831565741088  0.0311325306501971  0.8826508023485147
  0.7032935993326035  0.0438035835937143  0.5542248717850029
  0.6428729072498172  0.1337192206110842  0.2324015487692463
  0.5733497955025300  0.1541220510110293  0.8893519478490433
  0.4802088449281996  0.2139847190699271  0.5516253060743921
  0.0651344187297411  0.9746261946721120  0.5484099175574713
  0.1524428929474482  0.9721832619980120  0.2243138449555175
  0.2409798681832740  0.0671751547085861  0.8880151489558230
  0.2912098701572674  0.0804276668329251  0.5638853711498726
  0.3586965441035019  0.0943952154229990  0.1785616489411055
  0.4375723644227065  0.2041996768837464  0.8994702199297606
  0.8758291588766909  0.9153194351122664  0.8668773614768526
  0.7667985707665039  0.9736344500787482  0.5824220885289151
  0.6930793856914548  0.9970073455284876  0.2214330929420072
  0.6738143309495186  0.0395968041718220  0.8776114495710345
  0.5691809952452473  0.0793227711747235  0.5546061968884217
  0.5073240560199395  0.1517900276735915  0.2324892340158655
  0.1811910366852629  0.9272590557106852  0.9082296154568965
  0.2311868977094846  0.9570884464460931  0.5569826918243521
  0.2798382921646336  0.9662358896039223  0.2267199458383615
  0.3616699403142292  0.0561230560652461  0.9023585518554640
  0.4019067510182168  0.0956163157372529  0.5630700256543193
  0.7933484658769387  0.8873603422926735  0.2065099064624860
  0.7199006782589734  0.9212214892912698  0.8829362663339708
  0.6394651641457543  0.9416399407637996  0.5701326095176853
  0.5496618642825553  0.0162507464795780  0.2321357786075140
  0.5008022594701629  0.0334170634755537  0.9023931410353683
  0.2062933342240783  0.8380634186338867  0.2396742277098340
  0.3099697472870844  0.9354249569967479  0.9059098208726084
  0.3632164943677409  0.9518358879370652  0.5637589775405800