Li                                      
   1.00000000000000     
    21.0004999999999988    0.0000000000000000    0.0000000000000000
     0.0000000000000000   21.0004999999999988    0.0000000000000000
     0.0000000000000000    0.0000000000000000   21.0004999999999988
   Li
   500
Direct
  0.0137522568510278  0.9853353772529232  0.9994285883669463
  0.9893621923287554  0.0814459655722501  0.0889133092069230
  0.9885747453632021  0.2064698173852975  0.1775427975524408
  0.9998559081926643  0.2994209856908157  0.3037328854074914
  0.9979458636699121  0.3814209590247870  0.4029432803980839
  0.9998939234780124  0.5059455712959249  0.4806135225351795
  0.0175504921311429  0.5901214599652391  0.5823860955691558
  0.9958706216518678  0.6835041903764179  0.7104814423466124
  0.9878625285112292  0.7834290226423164  0.7785937615771061
  0.0162700488083587  0.8928787171734029  0.9109583376586272
  0.0985990752601111  0.9875284769410229  0.1015439037165748
  0.0828904902264256  0.0964721678055298  0.1777617518630521
  0.1133788995500140  0.1968924749410732  0.2831974167281714
  0.0903148791695401  0.2886618947167889  0.4151258746220350
  0.1002542615651976  0.3903435551534500  0.5016632142091879
  0.0927790066903142  0.5106066936501534  0.5931161334253972
  0.1109114802028515  0.6084422170900723  0.6943182362324691
  0.0913556667698359  0.7103303983238476  0.7874448760743817
  0.0978311378300489  0.8005234075379164  0.8951779024308948
  0.1096387671722070  0.8630255727244602  0.9870752515416328
  0.2022437675293460  0.0130034570605488  0.1924865488916936
  0.1736621580438538  0.0805160605699839  0.2929849870241199
  0.1724014723458964  0.1976725906526013  0.3865404118949556
  0.2007274641079988  0.2937340477607648  0.4958924644651290
  0.1796238694316799  0.4052295983428991  0.6083387690769300
  0.1892605595104868  0.5234765796052443  0.6863862508035510
  0.2048152434465820  0.6162485259874799  0.8124054160615231
  0.1900100230946862  0.7200460593795412  0.9047326163662746
  0.2093164248470245  0.8011391985905121  0.0159968534082537
  0.1967161962810380  0.8879943229923128  0.1082789785957488
  0.3027391243065622  0.0040646832218272  0.2961150344039396
  0.2721311764005634  0.0907967581724236  0.3967190204995106
  0.2923113078260045  0.1716858103378485  0.4942160400942868
  0.2946913273493479  0.3112120039999056  0.5885106673650640
  0.2932844194185833  0.4029312221137573  0.6913818313849660
  0.2999529330254020  0.5152571110211639  0.8087520806647461
  0.3120475250589294  0.6199311740196691  0.9016340668079366
  0.3212728663603244  0.6955786952691625  0.0074792657317673
  0.3281861989000276  0.8001608261708029  0.1094432265898462
  0.3187149129782654  0.9069694235851529  0.1936465622247070
  0.3960117421013791  0.0092830470703049  0.4140012494940564
  0.4040834308706920  0.0768582724220863  0.5006786414609152
  0.4000812947310806  0.1869785333682543  0.5981321649484528
  0.3992693440632351  0.2961127758862858  0.6827162900883295
  0.3776861417585309  0.4094386090807376  0.7874230584986037
  0.4009554224899432  0.5054309411680649  0.8988990952596367
  0.4056132825408909  0.5875432599223842  0.0196513344920390
  0.4284987671722078  0.6852884417037686  0.1218711030689761
  0.4084709678340985  0.7941402290421635  0.2149096754839164
  0.3926677221970891  0.9162990262136645  0.3171503611818736
  0.5231075264874647  0.0056954262993756  0.4955211418775747
  0.5129824504178444  0.0779333030165930  0.6023698664317507
  0.5023529382633711  0.1877755310587830  0.7013701749958301
  0.4994959405728423  0.2960276231518293  0.7945250051189277
  0.4988003318968595  0.4116356034380146  0.8907226132711159
  0.4965854589176431  0.5014827070784023  0.0049929249303560
  0.5233254070141200  0.5846348201233269  0.0995364010380726
  0.5166739010975903  0.6813470331658777  0.2162162077093370
  0.5043759115259192  0.7977234456322435  0.2970866393657303
  0.5110018156710581  0.9072436846741709  0.4160018918597146
  0.6071874683936116  0.9950416637699107  0.6010532273041136
  0.5708085793195394  0.1095923873241134  0.7070035122973266
  0.5935393443013268  0.2032157791481168  0.7945399195257252
  0.5839096331039713  0.3064581624247040  0.8846452236851476
  0.6059502392800198  0.3990067741244232  0.9858576833884882
  0.6219681036165809  0.5207224270850688  0.0864081145686981
  0.6025308225994621  0.5887887231256386  0.2221701040451407
  0.6029720944739410  0.6990272326849336  0.3190731720673341
  0.6226115373443477  0.8020671593533493  0.3872372329230274
  0.6455440675222022  0.9114518249565506  0.4907003747529828
  0.6866324120854230  0.0123553877288671  0.7012103745148934
  0.6950707754577294  0.1102692931120686  0.8006704430846909
  0.6878567310302159  0.2023975148210724  0.8898422113759210
  0.6954311735434899  0.3030618013856810  0.9917881888526452
  0.6880083555153433  0.3905508145044152  0.0942167715054438
  0.6968949991666875  0.4951470107854590  0.2032816456751050
  0.6962293740625256  0.6007201485678877  0.2965019713816304
  0.7080733563486561  0.6966644451322566  0.4046212190185940
  0.7221841256160602  0.7976245751291628  0.4833846998880986
  0.6997153653484460  0.8757453460631908  0.6047769895954858
  0.7973048270279293  0.9911458165281744  0.8134293697769124
  0.7901378681459974  0.1087013947286977  0.9109212604461803
  0.7947896131044487  0.1955476536272940  0.9833387147925023
  0.7886240065712684  0.2947582290897870  0.0774774833932526
  0.7999521887574090  0.3781945910811615  0.1847094407276018
  0.8108254593938256  0.4935396257231943  0.2884090345467953
  0.7835835989619326  0.5962524973214940  0.3714818394800119
  0.8067388095521508  0.6906159800957141  0.4962516963881782
  0.8051010114044885  0.8152952905883168  0.6133807499821415
  0.7943683250398834  0.9045573643484701  0.7084858527177929
  0.8959245422728017  0.0051633313492516  0.9101848365515082
  0.8785134706316526  0.0720459455727251  0.0022478302897539
  0.9020209785481299  0.2119503221351877  0.0831090564510362
  0.9042514135377715  0.3265747491726358  0.1936844627508876
  0.9067397271493505  0.4159150905930815  0.2980275788671705
  0.8956765372253059  0.5248912687793137  0.4002924239899031
  0.8880375776767195  0.5976842089474061  0.5056908068855535
  0.8843447884574189  0.6904423804195119  0.6202556601033322
  0.8872559424775588  0.7953285536058701  0.7077323458965239
  0.8893685683674164  0.8996249341682372  0.8301102916597216
  0.1116762986595532  0.0812722154234393  0.9994359005737934
  0.0957354110616393  0.1888327977905320  0.1027059908097456
  0.1006902745172766  0.2850804323706555  0.2075458708126021
  0.1118811633056325  0.3923298330992111  0.3168117325777970
  0.0835224780362367  0.5203004837980032  0.3959391771624468
  0.1077282264707975  0.6310505730815947  0.4764297607199808
  0.0988084821789954  0.6944836737220541  0.5938236518178144
  0.1014000123806582  0.7926991176400549  0.6976476436275334
  0.0940159162877094  0.8799641522820849  0.7924207409347375
  0.1105759996190585  0.9707652808266474  0.9115070450703584
  0.2068951877336218  0.0919798695269165  0.0802751391633549
  0.2049634342039468  0.1848907602199930  0.1937854765362701
  0.1900008766457972  0.2833273117306732  0.2882510254517783
  0.1870429432632577  0.4078099507154604  0.4084761153305863
  0.1814109873574452  0.4976850851170198  0.4932224380371864
  0.1860305745101272  0.5995727687435988  0.5762283578962411
  0.1938815347253637  0.6989065946048925  0.6986000680936186
  0.2097862960405692  0.7886488521701835  0.8064412766362707
  0.2088131558772375  0.8752256812933012  0.9018322882788539
  0.2147378871931593  0.9791171919716177  0.0200764377038638
  0.2961008871217317  0.0953211442584703  0.1894505497488126
  0.2871739930001667  0.1885845870336453  0.3059229104068919
  0.2835250827361264  0.2982095597723884  0.4031071050689263
  0.3113001928525492  0.4201948972643521  0.4919505992714477
  0.2952464203233234  0.5049003323730403  0.5928694569176898
  0.2834402999928542  0.6112174924406588  0.6987977891002615
  0.3050223108973569  0.7161925016071038  0.8060490164519862
  0.3231456774838719  0.7922326730315916  0.9015737506249835
  0.3068578176710091  0.8990266674602978  0.9925770338801456
  0.2941801895192953  0.9903984319420971  0.0973938868122204
  0.3797713863955607  0.1030748067903176  0.3212499554772492
  0.3988744644175171  0.1967232184947960  0.3974450279755217
  0.3956603728482690  0.2900968886455075  0.4908642584700331
  0.4027479164781766  0.4128401890431164  0.5985536211042586
  0.3753479007642682  0.5267216771029268  0.6808642156139157
  0.3865344067998393  0.6261244165615096  0.7909051355920127
  0.4289691459727152  0.6924069712625922  0.9134816794838230
  0.4319682102807079  0.8016040899026180  0.0341728720744712
  0.4159855765338918  0.9033186462227079  0.1184337520535195
  0.4003127582676598  0.0190112668745996  0.1947446036999096
  0.5057802095188180  0.1070170686412197  0.4148985300349963
  0.5013693626342217  0.1981660150948770  0.5223149510725946
  0.4864469274541108  0.3126805666531780  0.5893544429894533
  0.4798988076474373  0.4003428894550112  0.7086017361491415
  0.4777316787695511  0.5212005518916243  0.7994400842837095
  0.4981846484607502  0.6012787271731597  0.9109867565057996
  0.5118862198519096  0.7055087074117310  0.0131231932573002
  0.5149864198471477  0.7873023756577240  0.1272387366967465
  0.5029212837789601  0.9141146077474360  0.2268513673483952
  0.4908250936882439  0.0215239937144389  0.3022773119687656
  0.6180902116616238  0.1106555196304839  0.5066788795504849
  0.5820424842265695  0.2101378976691066  0.5960518940025210
  0.5841268412656859  0.3198646498892899  0.7045576181519522
  0.5788250584509882  0.4028260817599545  0.8047416085331278
  0.6148875955334390  0.5050603661817590  0.8965540010952111
  0.6016377600533289  0.5963218442418068  0.0025766172233972
  0.6098558324801786  0.6651243065641310  0.1085520511416362
  0.5878959720006662  0.7883593400157167  0.2079865393681075
  0.5992726339849028  0.8999659331920640  0.3138108192662088
  0.6088534220613795  0.0090041137115762  0.4008114011571138
  0.6998780476655284  0.1259045417966220  0.5967639889526453
  0.6955516263898502  0.2010712711602096  0.7063151248779818
  0.7043699735720566  0.3190487336015835  0.7898936844360875
  0.7230650313087779  0.4076928354086817  0.8827960272374469
  0.7215269060260496  0.4812822018523377  0.9853777476726719
  0.7213754582033758  0.5918866307945052  0.1089969481678992
  0.6772942796600105  0.6997166162710400  0.2033145787005068
  0.6920811390205017  0.7913262869931685  0.3037625447013141
  0.7153084517035282  0.9233672055427249  0.3822340196661997
  0.7326877883859879  0.0142671645913168  0.5189615813909185
  0.7935662588986006  0.0967017290064547  0.7105477912430658
  0.7988001647579850  0.1996494278707672  0.7976646327468373
  0.8089648584557523  0.2992160967596007  0.8957122692316872
  0.7909018670984054  0.3933450913073528  0.0041894397752458
  0.7955068560272380  0.5008210728315987  0.1152276455322507
  0.7952001847575048  0.6077480821885217  0.1899068260279506
  0.8040360115235359  0.6853859650960672  0.3067950877360062
  0.7878051232113492  0.8102539463346119  0.3923057108164087
  0.8116981319492425  0.9090693240637151  0.5045276007714108
  0.8163356501035679  0.9987819390014536  0.6159321887574123
  0.8851602366610294  0.0829167786481264  0.8098881512344960
  0.8910908835503903  0.1878206199852386  0.9111732344467995
  0.9196598309564052  0.3017343334682536  0.9999267084117065
  0.9104788414561540  0.4198004971310212  0.0818223789909780
  0.9047627046975038  0.4934229818337670  0.1963393647770317
  0.9109892873979177  0.6054756039141935  0.2730686426513671
  0.8890441179971873  0.6984079193352528  0.4082806437941926
  0.8904094797742914  0.7956175886288435  0.4982741315682944
  0.9153244803695131  0.8959779752863000  0.6167728682650448
  0.9026069522154216  0.9880229532630196  0.7106536801504717
  0.9852363015166290  0.0839569086450354  0.9076767391252574
  0.0008659808099836  0.1794309892621584  0.9966546734601565
  0.0006646432227768  0.2935198985738410  0.1048781529011222
  0.0203703488012223  0.4205723097069125  0.1950873669674564
  0.0018327816004415  0.5090097883383748  0.3073593795385818
  0.0118880283802767  0.6167853717768637  0.3975612461608051
  0.9940581538534801  0.7062837346729864  0.4925571014975816
  0.9755994852503491  0.7758947358396213  0.5984050965453207
  0.9917830132615890  0.8944706459369982  0.7125321711387826
  0.9938791133544456  0.9826384162281840  0.8131668222185198
  0.2182257431965908  0.1864933620628051  0.0127331754005837
  0.2160249255970115  0.2747189057403361  0.0966077369586458
  0.2122861508059302  0.3904072098283393  0.1892501916621043
  0.1990485226542233  0.4970961591390690  0.3118040808552180
  0.1927363943715648  0.6039722163758015  0.3995539668103163
  0.2138645217970989  0.7113154710602103  0.4828166838884798
  0.1745233561105692  0.8065603295159605  0.5977250784505159
  0.1872693526344591  0.8936761705673675  0.6969648584557504
  0.2037681650436909  0.9966317059117671  0.8057389609771164
  0.2133045884621794  0.0754234408704519  0.9234895364396110
  0.3254766648413110  0.1968843884669411  0.0973942996595341
  0.2866612509225988  0.2979790990690674  0.1895443951334457
  0.2967610428323155  0.3970684364658013  0.3015058398609582
  0.3070324468465060  0.5035491745434655  0.4059591852574940
  0.3041026337468153  0.6043334234899191  0.4991573819670947
  0.2823078788600242  0.7215475083926606  0.5784411752101164
  0.2894490564510335  0.8143670693554910  0.6952352305897449
  0.3063178133853981  0.9047129225494643  0.7976336920549514
  0.3208184728934995  0.9972177257684365  0.9085855498678583
  0.3264469331682562  0.0991707821242329  0.9864906302230878
  0.3980439722863736  0.2061477460060459  0.2134250213090141
  0.3974877269588788  0.2803835818194784  0.3032484236089630
  0.3944217951953490  0.3933803123735160  0.3873708859312899
  0.4150469712625906  0.5097369634056363  0.4964018090045457
  0.3972716325801784  0.6318030975452942  0.5883680507606925
  0.3879713740149029  0.7350812094950143  0.6764464184186068
  0.4244566381752790  0.7776381338539551  0.7961732815885370
  0.4085162753267753  0.8722437103878491  0.9099161781862364
  0.4110209356920080  0.9876168610271208  0.0101651903526090
  0.3896055765338886  0.1073273236351540  0.0833228385038467
  0.4978408371229222  0.1971589552629709  0.3049692693031147
  0.5006774405371317  0.2954063288969309  0.4188375119640000
  0.4924484745601276  0.3939644356086731  0.4994515359158100
  0.5095255989143084  0.5156151763053245  0.6082620037618156
  0.4860754453465361  0.6029988595509650  0.6958510116425813
  0.5155011437822878  0.6918997257208161  0.7838837899097655
  0.5158346291754938  0.7962527358872435  0.9087968438846730
  0.5211169057879559  0.8868207514106814  0.0019184262279452
  0.4915608114092507  0.0088855236780105  0.1072827885050387
  0.4978314473464920  0.1099240494273914  0.1946800690459725
  0.6114924320849511  0.1953854793933445  0.4131517597200087
  0.6117729673103014  0.3041885583676560  0.4925746334611105
  0.5911914554415389  0.4026841965667458  0.6139730439751432
  0.5861583862289024  0.4896401733292066  0.7032231665912718
  0.5953982257565329  0.5855233832527773  0.7974915454393923
  0.6096671988762168  0.6907008433132518  0.9031608828361257
  0.5933186586033656  0.7843218128139782  0.0297099240494276
  0.5709933125401747  0.9140368938834769  0.1174138015761557
  0.5895617990047839  0.0006187143163245  0.2218682245660801
  0.6175206971262597  0.1200460460465251  0.3119888974072040
  0.6970673136353867  0.1959562405656996  0.5053162096140582
  0.6859968595985819  0.2922368353134459  0.5975251746386974
  0.6885688007428428  0.3891258860503299  0.7093232623032790
  0.6916959372395866  0.5000703545153655  0.7770868307897416
  0.7326222013761594  0.6103801766624599  0.9022279255255796
  0.6991365034165824  0.7133938930025465  0.0083071264969874
  0.6817042194233451  0.8199837841956139  0.1254585290826427
  0.6879808780743346  0.9095310392609690  0.2018871250684526
  0.6876255879621880  0.0041366867455537  0.3081225761291364
  0.7112388357420087  0.0876198366705552  0.4080181667103133
  0.7942856174853006  0.2093146172710192  0.5862826656508204
  0.7875105921287613  0.3040147334587289  0.7024114263946117
  0.8205141577581472  0.4119133434918183  0.7626964657984345
  0.7958788085997952  0.4895346872693480  0.8942862593747734
  0.8196738001476120  0.6011763810385489  0.0078381581390943
  0.7992259884288444  0.7085257174829138  0.0903010299754783
  0.7875800399990496  0.8105501911859250  0.1979349815480589
  0.7882731273064891  0.9159082307564077  0.2986662741363304
  0.8174127382681391  0.9919395138211016  0.3970978733839701
  0.8034318368610300  0.1017857593866793  0.5068950734506288
  0.8893891964477021  0.2073836837218153  0.7224938191947814
  0.9166024089902649  0.3105393438251483  0.8024061836622920
  0.8883641951382089  0.4061627775529146  0.8985736649127389
  0.8795530558796187  0.4968918106711726  0.9942362767553163
  0.8913335225351773  0.6044271241160928  0.1003860522368498
  0.8825215090116885  0.7084729806433145  0.1921547967905539
  0.8916090645460812  0.8204671903049956  0.2906306497464328
  0.9012670422132771  0.8929642918025777  0.3950180543320414
  0.8910996114378236  0.0078013823480418  0.5179041518059080
  0.8885321454251098  0.1137492869217382  0.6176501864241359
  0.0155075488678875  0.1945967396014368  0.8222798685745545
  0.0119714702030933  0.3075858893835886  0.8984234170615011
  0.0124041799004786  0.3840829318349535  0.0039000209518818
  0.0169112211614006  0.5129014180614746  0.0894716297231000
  0.0010749720244760  0.6144142534701587  0.1870869098354788
  0.9803801571391162  0.7044525406537971  0.2996952786838420
  0.9820050203566595  0.7995376491035913  0.3948461789005009
  0.9822534625366046  0.9001285036070570  0.5006886607461709
  0.9854603161829445  0.0153092521606624  0.6101900807123641
  0.9958680569510250  0.1204404723697081  0.7233293312064006
  0.1202717968619780  0.1963559939049091  0.8974169667388878
  0.1223197833384901  0.2777482502797568  0.0020187333634922
  0.1060832275422001  0.3844146253660625  0.0909940915692502
  0.1081007666484126  0.5013715330587374  0.1841192643032343
  0.0915922749458318  0.6231917354348724  0.2882372124473207
  0.0907815590105017  0.7150801066641250  0.3814383919430497
  0.0784679607628362  0.8078406499845272  0.5175835737244370
  0.0587411509249804  0.8944100945215609  0.6016903973714918
  0.1015216356753399  0.0038297469107889  0.7164277421966148
  0.1146622623270872  0.0824429580248065  0.8096942234708706
  0.3158310616413900  0.3064851489250273  0.0165692288278834
  0.2976341796623885  0.4047633023023280  0.0778935672960159
  0.3117798033380126  0.5015305207018912  0.2270381162353274
  0.2931021418537654  0.6075258555748704  0.3083129449298809
  0.3095619732863497  0.7015648046475107  0.3990485102735661
  0.2927261822337570  0.7974634070617341  0.5033119659055743
  0.2960887983619429  0.8707876169615005  0.6032741653770159
  0.2975599647627405  0.9820493269207873  0.6882330201661873
  0.2980403366586515  0.0960244332277824  0.7913166229375506
  0.3050019509059325  0.1948333868241221  0.9052903540391881
  0.4065154343944215  0.3257289721673260  0.1204354324896997
  0.4015291535915821  0.3847084202757074  0.2269982448036956
  0.4129484878931464  0.4984262022332828  0.2994711140210953
  0.4012307678388609  0.5814934963453240  0.3986524482750440
  0.4198876921978041  0.7071769462631821  0.4758310311659244
  0.3940477850527344  0.7858406599842880  0.5885635632484920
  0.3905085350348827  0.8837023037546743  0.6952439018118639
  0.3696880140949048  0.9903597466726950  0.7877496716744830
  0.4022446784600362  0.1101980319516187  0.8980403309445038
  0.4189591862098538  0.2297795576295769  0.9995659665246066
  0.5109244832265887  0.2890987543153756  0.2129639856193890
  0.5135133644437033  0.3868458384324214  0.3200882193281132
  0.4882852517797218  0.4826730658793821  0.3944346953643958
  0.5102626551748770  0.6160655427251740  0.4875964677031490
  0.5127618675745822  0.6912588747886943  0.5791965843670397
  0.5121609523582791  0.8023407566486540  0.6806420556653379
  0.4963202518987657  0.8855989300254734  0.8083070674507766
  0.4844069312635426  0.0017607637913386  0.9080374291088305
  0.5029296573891102  0.1167525149401172  0.9973406918882901
  0.4961559191447833  0.2013259803337988  0.1164422223280397
  0.5978200971405414  0.2947506697459588  0.2836505745101334
  0.6051979843337065  0.3963439727625513  0.3981843689435962
  0.5884415747244134  0.5029685459870024  0.5186501978524305
  0.6073307668865056  0.6027224161329485  0.6145353272541101
  0.5983544487036028  0.6852304364181805  0.6966696426275547
  0.5825649794052552  0.8107444413228251  0.7871944763219929
  0.5890579862384229  0.9092782067093665  0.9153829323111324
  0.5943097692912076  0.0220552153520188  0.0160489026451742
  0.6095562762791360  0.1086767567438898  0.1136673812528244
  0.6141129758815254  0.2055769115021064  0.1937350424989859
  0.6987458427180329  0.3092439322873233  0.3954822085188425
  0.6867647184590808  0.4112828523130432  0.4960771281636127
  0.6892030337372930  0.4982691835908639  0.6172418523368464
  0.6953792423989924  0.5913517211494934  0.6892498335753885
  0.6901844413228275  0.6903219337634852  0.8002915021070933
  0.6851518963834167  0.7953139987143132  0.9137274874407737
  0.6719764634175363  0.9096686793171571  0.0077997928620732
  0.6894693659674758  0.0058914073474412  0.1128817123401831
  0.7197576986262249  0.1138974014904406  0.2118875964857949
  0.7231490583557516  0.1946256665317492  0.3243606780790955
  0.8298827823147050  0.3127618366229399  0.4861244322754246
  0.7933896088188348  0.4119183786100322  0.6224116506749837
  0.8051732658746218  0.5180788038380015  0.6978735625342267
  0.8008051455917737  0.5966299483345665  0.7884439437156274
  0.7821532173043479  0.7192180876645793  0.8993443898954752
  0.7830133258731919  0.8094128854074896  0.0070830151663088
  0.7872812037808643  0.9325940468084113  0.0996792409704526
  0.7975094602509429  0.9969038437180089  0.2068687755053418
  0.8080141772814926  0.0980287421728079  0.2900506302230923
  0.7890310983071842  0.1925647513154445  0.4144175648198853
  0.9045286369372150  0.3017583109925965  0.6105497702435656
  0.9198658079569526  0.3981158239089524  0.6848077298159581
  0.9127715435346744  0.5091427066022263  0.7829033503964169
  0.9034404161805654  0.6183135953905889  0.8829678883836110
  0.8799029104068978  0.7148506426037500  0.9814358481940886
  0.8782362981833742  0.8121533568248367  0.1066241499011937
  0.8865396800076155  0.8962426004142756  0.2013616661508024
  0.9028468745982252  0.9939576971976862  0.2930982224232750
  0.8886102597557226  0.0906126320801874  0.3951202318992415
  0.8969677702911838  0.1867643746577485  0.5048464060379487
  0.0005982624223222  0.2924792828742184  0.7063281026642230
  0.0097892264469905  0.4012127701721369  0.8018674122044729
  0.9895882440894255  0.5053100964262782  0.9185631880193341
  0.9997208623604195  0.6035887545534635  0.9745148063141329
  0.9858883883717056  0.6883336953882022  0.0889854451084489
  0.9980290959739051  0.7898357805766523  0.1800862755648680
  0.0119801704721283  0.8818628927882699  0.2822962510416431
  0.9949605395109629  0.0180822713744888  0.4061871569724502
  0.9990913192543047  0.0981792881121848  0.5130080245708442
  0.9809937758624798  0.2056128554082051  0.5957819656674843
  0.1311695754862967  0.3092313183019471  0.8063131787338378
  0.1105027942191867  0.4022198661936613  0.9089279583819447
  0.1279584081331393  0.4974399109544976  0.0038883959905718
  0.1056308940263335  0.6116023551820220  0.0740869174543448
  0.1069672622080446  0.6816035365824646  0.1980765348444109
  0.1079547825051819  0.7932155539153811  0.2738634627746990
  0.0895547234589671  0.8822385547963165  0.3894352329706408
  0.0771714825837506  0.0050888202661810  0.4889711464012763
  0.0910671960191394  0.0850064222280409  0.6167105602247531
  0.1197033180162350  0.2026657874812514  0.6887599247636942
  0.2422640070474529  0.2987248032189740  0.9038046556034374
  0.1997431432584946  0.3950699050022592  0.9945608066474634
  0.2165290640699027  0.4924872598271435  0.1094213823480388
  0.1966093964429447  0.6093709778338621  0.1904451436870573
  0.2149458465274634  0.6967359153353456  0.3020861041403791
  0.1881493735863415  0.8073297759577187  0.3853971853051092
  0.1792935039641890  0.8998404009428356  0.4867008199804772
  0.1863285488440738  0.9674517806718868  0.5859790228804087
  0.2011513263969888  0.0913210647365545  0.6857034061093756
  0.1979880898073887  0.1843885874145883  0.7987774586319389
  0.3971169186447909  0.4268749972619688  0.9897390876407712
  0.3857762791362092  0.4915948044094165  0.1247990257374809
  0.4207294726316064  0.5772528977881493  0.2056874183948025
  0.4017281664722248  0.6722696926263652  0.3049785171781636
  0.3932011794957262  0.8044917630532638  0.3968337201495231
  0.3899155672484014  0.8926373838718149  0.4856390633556344
  0.3986341153782078  0.9858244951310695  0.5950347234589657
  0.3963329830242159  0.0944485393204957  0.6949336153901129
  0.3915497997666719  0.2220401223780399  0.7905132901597582
  0.3908120187614585  0.3156555372491141  0.8861796009618814
  0.5196789000261930  0.4205427685055128  0.1019487636008662
  0.5070056446275117  0.4956275136306303  0.2053099354777288
  0.5119413104449890  0.5988515221066137  0.3209667079355256
  0.5087077250541654  0.7101531430204062  0.3956989752624906
  0.5183123716102003  0.8091492802552338  0.4945919573343502
  0.5120207414109217  0.8895345844146547  0.5945895959619989
  0.4899553882050398  0.9655757815290116  0.7177303668960278
  0.4797497297683364  0.1048128058855724  0.7994423132782558
  0.4992343082307542  0.2057833823004245  0.8989697092926363
  0.5019970924501820  0.3237664822266169  0.0126537272922107
  0.6050403366586536  0.3945468565034176  0.2060193504916583
  0.6223619318587623  0.5046234665841283  0.3071866498416682
  0.6095238208614049  0.5830574224423231  0.4168421109021239
  0.6268906387943147  0.7103154762981845  0.5027999595247721
  0.6193800371419727  0.8142071526868406  0.5776214466322216
  0.6063552634461118  0.9099775138687178  0.7025021575676789
  0.5938976310087867  0.9982653236827730  0.8092457412918748
  0.5760515178210071  0.1071660298564296  0.8977381519487651
  0.5745149591676366  0.2166219056689158  0.0141257951001137
  0.6023994314421088  0.3069200642841849  0.1112853341587083
  0.6957112340182405  0.3941351805909363  0.2924221166162724
  0.7044776548177438  0.4999015647246523  0.3942414528225484
  0.7088059036689600  0.6094902702316602  0.5015647346491718
  0.7120696478655262  0.7213411556867726  0.5967568691221672
  0.6956032456370096  0.7903498211947309  0.7121368019809040
  0.6990070122139969  0.8951789905002272  0.8043842751363073
  0.6665935287255067  0.9963676812456868  0.9024555091545423
  0.6876432603985592  0.1111082555177276  0.9831198904787968
  0.7016669365015105  0.2051672512559222  0.0846537749101230
  0.7179599585724148  0.2890451113068764  0.2060662150901180
  0.8106685859860505  0.4061761072355452  0.3944997700054742
  0.7919265522249503  0.4982975272017356  0.4910572586367010
  0.7866705230827833  0.6100445832242087  0.6132581862336579
  0.7995312073522030  0.7016425570819749  0.7068936977691038
  0.7815246336991990  0.8121651546391746  0.8093620666174601
  0.7857528135044376  0.9074115111544927  0.9203064503226130
  0.7803755415347240  0.0016522506606975  0.9979696178662394
  0.7945894283469457  0.0981592138282394  0.0952219390014548
  0.8182972167329368  0.1950188852646377  0.1975516301992783
  0.8153175957715320  0.2963866207947419  0.3111660093807274
  0.9218679779052863  0.4259171462584206  0.5091205909383092
  0.8677205233208767  0.5095806609366420  0.5953690026427907
  0.9088495912002088  0.6006844756077214  0.7015288374086310
  0.8815332720649494  0.7045598961929471  0.8069496031046910
  0.9119211471155424  0.8008032513511552  0.9095924616080566
  0.8881211652103502  0.9154510325944614  0.0037740925216099
  0.8901775705340356  0.9975073988714556  0.0886317016261486
  0.9122609599771465  0.0783827989809751  0.1936117197209626
  0.8978609318825761  0.1939963819909067  0.3086588233613483
  0.9038840794266818  0.2749781843289441  0.4029304011809245
  0.0087978305278469  0.3956203447536950  0.5953491064498451
  0.0104901602342835  0.4972009375967232  0.6963369291207329
  0.0013130677841033  0.6060776314849647  0.7933533187305031
  0.0006545410823549  0.6930684726554119  0.8918157377205276
  0.9937112383038524  0.7967896588176444  0.0073190795457236
  0.0082330649270261  0.8911144958453363  0.0819233637294374
  0.9882183790862129  0.9736734172995867  0.1777219709054521
  0.9962404766553163  0.0977244446560803  0.2777553339206236
  0.0012303826099398  0.2036943339444264  0.3930691259731915
  0.9831008218851949  0.2903498026237443  0.5099646656031993
  0.1108800971405444  0.3923070150710686  0.6973129796909632
  0.0862649984524211  0.4916821056641538  0.8077855627246961
  0.0882976876740997  0.6124690935930062  0.9000050013094949
  0.1044890440703767  0.7153967700769002  0.9864337039594275
  0.1011052960643823  0.7843210880693334  0.1149382586128880
  0.1084136411037804  0.8862364348467864  0.1892512525892229
  0.0945135092021587  0.9960578333849170  0.2795682555177237
  0.0783400785695605  0.1065665084164635  0.4115186114616307
  0.1063543344206082  0.1954082717078194  0.5234603090402601
  0.1229119044784639  0.2998701673769659  0.6048461746148917
  0.2087998542891825  0.4245678783838471  0.7998730877836238
  0.2022370734030119  0.5274612361610451  0.9046747377443367
  0.1898552505892752  0.6177333311111610  0.9976930944501348
  0.1946066584128943  0.7129175357729594  0.0983555210590197
  0.2185265955572504  0.8007429880240977  0.1847830580224255
  0.2065409109306913  0.8965582767076938  0.2763272545891766
  0.1808257360539045  0.9806228132663506  0.3969244013237798