Li 
 1.0000000000000000
    21.0004999999999988    0.0000000000000000    0.0000000000000000
     0.0000000000000000   21.0004999999999988    0.0000000000000000
    -0.0000000000000000   -0.0000000000000000   21.0004999999999988
 Li 
 500
Cartesian
  0.2888042700000000 -0.3079644100000000 -0.0119999300000000
 -0.2233992800000000  1.7104060000000001  1.8672239500000001
 -0.2399360600000000  4.3359693999999998  3.7284875199999998
 -0.0030260000000000  6.2879904099999999  6.3785424600000002
 -0.0431378900000000  8.0100308499999997  8.4620103600000007
 -0.0022276600000000 10.6251099700000005 10.0931242799999996
  0.3685691100000000 12.3928457200000004 12.2303992000000008
 -0.0867190100000000 14.3539297500000007 14.9204655299999995
 -0.2548929700000000 16.4524011899999998 16.3508582900000015
  0.3416791600000000 18.7508994999999992 19.1305805699999993
  2.0706298799999998 -0.2619082200000000  2.1324727499999998
  1.7407417400000000  2.0259637599999998  3.7330856699999999
  2.3810135799999999  4.1348404199999997  5.9472873499999999
  1.8966576200000000  6.0620441200000004  8.7178509300000009
  2.1053896200000000  8.1974098299999998 10.5351783300000008
  1.9484055300000001 10.7229958700000001 12.4557353600000003
  2.3291965399999999 12.7775907800000006 14.5810301199999994
  1.9185146799999999 14.9172935300000002 16.5367361200000005
  2.0545028099999998 16.8113918200000008 18.7991835400000014
  2.3024689299999999 18.1239685399999999 20.7290738200000000
  4.2472202399999999  0.2730791000000000  4.0423137699999998
  3.6469921500000000  1.6908775300000001  6.1528312200000004
  3.6205171200000001  4.1512232400000002  8.1175419200000007
  4.2153771100000004  6.1685618699999996 10.4139897000000001
  3.7721910699999999  8.5100241800000003 12.7754183200000000
  3.9745663800000002 10.9932699100000004 14.4144544600000000
  4.3012225199999996 12.9415271700000005 17.0609199400000016
  3.9903054899999999 15.1213272700000001 18.9998373100000002
  4.3957495800000004 16.8243237400000005  0.3359419200000000
  4.1311384799999997 18.6483247799999994  2.2739126900000000
  6.3576729800000003  0.0853603800000000  6.2185637800000002
  5.7148907700000002  1.9067773200000000  8.3312977900000007
  6.1386836200000001  3.6054878600000002 10.3787839500000008
  6.1886652199999999  6.5356076900000000 12.3590182700000000
  6.1591194500000004  8.4617571300000005 14.5193641499999995
  6.2991615699999999 10.8206569600000009 16.9841980700000015
  6.5531540499999998 13.0188646200000004 18.9347662200000002
  6.7468908299999999 14.6075003900000002  0.1570683200000000
  6.8920742700000002 16.8037774300000002  2.2983624800000002
  6.6931725300000000 19.0468113800000012  4.0666746299999996
  8.3164445899999997  0.1949486300000000  8.6942332400000009
  8.4859540899999999  1.6140621500000001 10.5145018100000005
  8.4019072300000008  3.9266426900000000 12.5610745300000008
  8.3848558600000000  6.2185163499999998 14.3373834500000008
  7.9315978200000004  8.5984155100000006 16.5362779400000015
  8.4202643500000001 10.6143024799999992 18.8773304499999988
  8.5180817399999995 12.3387022300000009  0.4126878500000000
  8.9986883599999992 14.3913999199999996  2.5593541000000002
  8.5780945600000003 16.6773418800000002  4.5132106399999996
  8.2462184999999995 19.2427376999999993  6.6603161599999998
 10.9855196100000008  0.1196068000000000 10.4061917400000006
 10.7728879499999994  1.6366383300000000 12.6500683800000004
 10.5496628799999996  3.9433800400000001 14.7291243600000001
 10.4896644999999999  6.2167281000000001 16.6854223700000013
 10.4750563700000008  8.6445534899999998 18.7056202399999982
 10.4285429300000008 10.5313875899999996  0.1048539200000000
 10.9900952099999998 12.2776235400000004  2.0903141900000000
 10.8504102600000003 14.3086283699999992  4.5406484699999998
 10.5921463300000003 16.7525912199999993  6.2389679700000000
 10.7312936299999997 19.0525710000000004  8.7362477300000005
 12.7512404299999993 -0.1041275400000000 12.6224182999999996
 11.9872655699999999  2.3014949300000000 14.8474272599999999
 12.4646229999999996  4.2676329700000002 16.6857355799999993
 12.2623942499999998  6.4357746400000000 18.5779920199999999
 12.7252580000000002  8.3793417600000009 -0.2969957200000000
 13.0616411600000006 10.9354313300000001  1.8146136100000001
 12.6534485399999994 12.3648575800000007  4.6656832699999997
 12.6627154700000002 14.6799213999999996  6.7006961499999997
 13.0751535899999993 16.8438113800000018  8.1321755099999997
 13.5567481900000004 19.1409440500000017 10.3049532199999998
 14.4196239700000000  0.2594693200000000 14.7257684700000002
 14.5968338200000005  2.3157102900000002 16.8144796399999983
 14.4453352800000001  4.2504490099999996 18.6871313599999986
 14.6044023599999999  6.3644493600000001 -0.1724521400000000
 14.4485194700000008  8.2017623799999999  1.9785993099999999
 14.6351434299999994 10.3983348000000007  4.2690162000000003
 14.6211649700000006 12.6154234800000005  6.2266896500000000
 14.8698945200000008 14.6303016800000005  8.4972479100000005
 15.1662277299999992 16.7505148900000016 10.1513203900000004
 14.6943725300000008 18.3910901399999993 12.7006191699999995
 16.7438000199999983 -0.1859422800000000 17.0824234799999992
 16.5932902999999996  2.2827836399999999 19.1298019299999993
 16.6909792699999997  4.1065984999999996 -0.3498953200000000
 16.5614984499999984  6.1900701900000001  1.6270658899999999
 16.7993959400000001  7.9422755100000000  3.8789906099999998
 17.0277400599999993 10.3645789100000005  6.0567339300000000
 16.4556473700000012 12.5216005700000004  7.8013043700000004
 16.9419183699999998 14.5032808899999992 10.4215337500000000
 16.9075237899999991 17.1216087500000000 12.8813024400000007
 16.6821320100000001 18.9961569300000015 14.8785571500000007
 18.8148633499999995  0.1084325400000000 19.1143366599999993
 18.4492221399999998  1.5130008800000001 21.0477055600000007
 18.9428915599999996  4.4510627400000002  1.7453317399999999
 18.9897318099999985  6.8582330200000001  4.0674705600000003
 19.0419876399999985  8.7344248600000007  6.2587281700000004
 18.8096551199999986 11.0229790899999998  8.4063410500000000
 18.6492331500000006 12.5516672299999996 10.6197597899999998
 18.5716827299999991 14.4996352099999992 13.0256789899999994
 18.6328184199999995 16.7022972900000006 14.8627331300000005
 18.6771846199999985 18.8925734299999988 17.4327311800000011
  2.3452581100000001  1.7067571600000000 -0.0118463700000000
  2.0104915000000001  3.9655831699999999  2.1568771600000001
  2.1145461100000000  5.9868316200000002  4.3585670600000004
  2.3495603699999998  8.2391226599999996  6.6532047900000002
  1.7540138000000001 10.9265703100000007  8.3149206899999992
  2.2623466200000002 13.2523775599999993 10.0052631900000009
  2.0750275299999998 14.5845043899999993 12.4705936000000008
  2.1294509599999998 16.6470778199999998 14.6509493400000004
  1.9743812500000000 18.4796871799999991 16.6412317700000010
  2.3221512799999999 20.3865562800000006 19.1421036999999998
  4.3449023899999997  1.9316232499999999  1.6858180599999999
  4.3043345999999998  3.8827984099999999  4.0695918999999998
  3.9901134100000002  5.9500152100000001  6.0534156599999998
  3.9279953299999999  8.5642128700000004  8.5782026600000005
  3.8097214400000001 10.4516356300000002 10.3579178100000000
  3.9067350799999998 12.5913279300000003 12.1010836299999998
  4.0716091700000003 14.6773879399999991 14.6709507299999995
  4.4056171099999997 16.5620202200000008 16.9356700300000007
  4.3851806800000004 18.3801769200000003 18.9389289699999992
  4.5096030000000003 20.5619505899999986 21.4221152299999993
  6.2182666800000002  2.0017916900000001  3.9785562699999999
  6.0307974399999997  3.9603706200000000  6.4245340799999999
  5.9541684999999998  6.2625498600000000  8.4654507599999995
  6.5374597000000003  8.8243029400000008 10.3312085600000003
  6.2003224499999998 10.6031594299999998 12.4505550300000003
  5.9523880199999999 12.8358729500000006 14.6751029699999993
  6.4056210399999998 15.0404006300000006 16.9274323699999982
  6.7862207999999997 16.6372822499999984 18.9334995500000005
  6.4441676000000001 18.8800095299999988 -0.1558860000000000
  6.1779310699999996 20.7988622700000008  2.0453203200000001
  7.9753889999999998  2.1646224799999998  6.7464096900000001
  8.3765631900000006  4.1312859499999997  8.3465443100000005
  8.3090656599999999  6.0921797099999999 10.3083948599999999
  8.4579076200000003  8.6698503900000006 12.5699253199999994
  7.8824935900000002 11.0614185799999998 14.2984889600000002
  8.1174158100000007 13.1489258099999997 16.6094033000000003
  9.0085665499999994 14.5408925999999994 19.1835720099999989
  9.0715483999999993 16.8340866899999995  0.7176474000000000
  8.7359051000000001 18.9701432300000015  2.4871680100000000
  8.4067680800000009 21.3997461099999988  4.0897340499999997
 10.6216372900000007  2.2474119500000000  8.7130765799999992
 10.5290073000000000  4.1615853999999999 10.9688751300000007
 10.2156286999999999  6.5664482399999997 12.3767379799999997
 10.0781149100000000  8.4074008500000001 14.8809907599999995
 10.0326041200000002 10.9454721900000003 16.7886414899999998
 10.4621267099999997 12.6271539100000005 19.1311773800000005
 10.7498665599999992 14.8160356100000001  0.2755936200000000
 10.8149723099999999 16.5337435399999997  2.6720770900000002
 10.5615984199999993 19.1968638200000008  4.7639921400000000
 10.3075723799999999 21.4525146299999996  6.3479746900000000
 12.9802034899999992  2.3238212400000000 10.6405098099999993
 12.2231831900000003  4.4130009200000000 12.5173877999999998
 12.2669557299999994  6.7173175799999996 14.7960622599999994
 12.1556156400000006  8.4595491299999992 16.8999761500000005
 12.9129469500000003 10.6065202200000002 18.8280822999999984
 12.6346937799999992 12.5230568899999994  0.0541102500000000
 12.8072774099999993 13.9679430000000000  2.2796473499999999
 12.3461093599999998 16.5559403200000013  4.3678213200000000
 12.5850249499999993 18.8997345800000005  6.5901841100000000
 12.7862262900000001 21.1895908900000016  8.4172398299999998
 14.6977889400000006  2.6440583300000000 12.5323421499999998
 14.6069319300000000  4.2225972299999999 14.8329707800000001
 14.7921216300000005  6.7001829300000004 16.5881623199999986
 15.1847271900000003  8.5617533899999998 18.5391579700000015
 15.1524257900000006 10.1071668799999994 -0.3070746100000000
 15.1492453099999995 12.4299151899999991  2.2889904099999998
 14.2235185200000007 14.6943988000000001  4.2697078099999999
 14.5340499600000008 16.6182476900000005  6.3791653200000002
 15.0218351400000003 19.3911729999999984  8.0271055300000000
 15.3868098999999994 21.3001175899999993 10.8984526899999992
 16.6652882200000008  2.0307846600000001 14.9218588899999993
 16.7752028600000003  4.1927378099999997 16.7513561200000005
 16.9886665100000016  6.2836876400000001 18.8104055099999989
 16.6093346599999983  8.2604435899999995  0.0879803300000000
 16.7060417299999990 10.5174929400000003  2.4198381699999998
 16.6996014799999983 12.7630136000000007  3.9881383000000001
 16.8851582600000008 14.3934479599999996  6.4428502400000003
 16.5443014899999987 17.0157379999999989  8.2386160799999999
 17.0460666200000013 19.0909103400000006 10.5953318799999998
 17.1434568200000008 20.9749201099999993 12.9348839299999998
 18.5888075499999985  1.7412938099999999 17.0080561199999991
 18.7133541000000001  3.9443269299999999 19.1350935100000008
 19.3133162799999987  6.3365718700000002 -0.0015391600000000
 19.1205109100000001  8.8160203399999997  1.7183108700000000
 19.0004691799999996 10.3621293300000001  4.1232248299999998
 19.1312305299999998 12.7152904200000005  5.7345780299999998
 18.6703709999999994 14.6669155100000008  8.5740976599999996
 18.6990442799999990 16.7083671699999989 10.4640059000000001
 19.2222717500000009 18.8159854700000011 12.9525386200000003
 18.9551972999999983 20.7489760300000015 14.9240826099999992
 20.6904549499999995  1.7631370600000000 19.0616653599999992
 21.0186860300000014  3.7681404900000000 20.9302464700000002
 21.0144578399999986  6.1640646300000004  2.2024936500000001
 21.4282875100000005  8.8322287900000003  4.0969322500000001
 21.0389893299999997 10.6894600600000000  6.4547006500000004
 21.2501545400000005 12.9528011999999997  8.3489849500000002
 20.8757182599999993 14.8323115699999999 10.3439454099999999
 20.4880769899999997 16.2941773999999988 12.5668062299999992
 20.8279391700000005 18.7843307999999993 14.9635318599999998
 20.8719583200000010 20.6358980599999988 17.0769098499999998
  4.5828497199999996  3.9164538499999999  0.2674030500000000
  4.5366314499999998  5.7692343800000003  2.0288107800000001
  4.4581153100000002  8.1987466100000006  3.9743486500000000
  4.1801184999999998 10.4392678900000000  6.5480416000000004
  4.0475606500000003 12.6837185300000002  8.3908330800000002
  4.4912618899999996 14.9379805500000007 10.1393917699999996
  3.6650777400000001 16.9381701999999983 12.5525255100000006
  3.9327500400000002 18.7676464199999984 14.6366105100000006
  4.2792333500000002 -0.0707358600000000 16.9209210500000005
  4.4795030100000002  1.5839299700000000 19.3937420100000004
  6.8351727000000002  4.1346705999999998  2.0453289899999998
  6.0200296000000000  6.2577100699999999  3.9805270699999999
  6.2321302799999998  8.3386356999999993  6.3317733900000004
  6.4478349000000001 10.5747844400000002  8.5253458700000007
  6.3863073600000000 12.6913040600000002 10.4825546000000003
  5.9286066100000001 15.1528584500000001 12.1475539000000001
  6.0785749100000004 17.1021156400000010 14.6002874600000006
  6.4328272399999999 18.9994237300000002 16.7507063500000015
  6.7373483399999996 -0.0584291500000000 19.0807508400000003
  6.8555488200000001  2.0826360099999999 20.7167964799999993
  8.3591224400000002  4.3292057399999999  4.4820321600000002
  8.3474410100000007  5.8881954099999998  6.3683685199999998
  8.2830549100000006  8.2611832500000002  8.1349822899999999
  8.7161939200000003 10.7047311000000001 10.4246861899999992
  8.3429029200000002 13.2681809499999996 12.3560232499999998
  8.1475928399999997 15.4370729400000002 14.2057130100000002
  8.9138016300000000 16.3307896300000017 16.7200370000000014
  8.5790460399999997 18.3175540400000010 19.1086947000000009
  8.6316451599999997 -0.2600521100000000  0.2134740800000000
  8.1819119100000002  2.2539274599999999  1.7498212700000000
 10.4549064999999999  4.1404366399999999  6.4045071399999998
 10.5144765899999992  6.2036806100000002  8.7957971700000002
 10.3416641899999995  8.2734501300000005 10.4887319800000007
 10.7002923400000007 10.8281765100000005 12.7738062100000000
 10.2078273900000003 12.6632775500000001 14.6132191700000007
 10.8257817700000007 14.5302401900000007 16.4619515300000003
 10.8327851299999995 16.7217055799999983 19.0851881200000015
 10.9437155799999992 18.6236791900000007  0.0402879100000000
 10.3230228200000003  0.1866004400000000  2.2529922000000000
 10.4547093100000001  2.3084600000000002  4.0883787900000002
 12.8416468199999994  4.1031927599999998  8.6763935300000004
 12.8475382000000007  6.3881118199999998 10.3443135900000005
 12.4153161599999997  8.4565694699999998 12.8937409100000000
 12.3096191899999994 10.2826884599999993 14.7680381100000009
 12.5036604400000009 12.2962838100000003 16.7477212000000009
 12.8033160099999996 14.5050630599999995 18.9668301200000009
 12.4599884900000006 16.4711502299999992  0.6239232600000000
 11.9911450599999991 19.1952317900000011  2.4657485399999999
 12.3810925600000008  0.0129933100000000  4.6593436500000003
 12.9682434000000004  2.5210269900000002  6.5519228399999996
 14.6387621200000009  4.1151790300000002 10.6118930599999999
 14.4062770499999999  6.1371196599999998 12.5483274300000005
 14.4602891000000007  8.1718381699999991 14.8961431700000002
 14.5259605300000008 10.5017274799999996 16.3192119899999994
 15.3854325400000000 12.8182889000000007 18.9472375500000005
 14.6822161399999995 14.9816284500000005  0.1744538100000000
 14.3161294600000009 17.2200694600000013  2.6346918399999999
 14.4479424299999994 19.1006065900000017  4.2397305699999999
 14.4404811599999992  0.0868724900000000  6.4707281600000002
 14.9363711699999993  1.8400603799999999  8.5685855100000001
 16.6803951099999992  4.3957116200000002 12.3122291199999996
 16.5381161900000002  6.3844614100000001 14.7509911599999999
 17.2312075699999987  8.6503861700000009 16.0170071299999996
 16.7138529200000008 10.2804731999999994 18.7804585899999985
 17.2135596399999997 12.6250045899999996  0.1646052400000000
 16.7841453700000010 14.8793943300000002  1.8963667799999999
 16.5395746300000006 17.0219592900000016  4.1567335800000000
 16.5541298099999992 19.2345308000000017  6.2721410899999999
 17.1660762099999999 -0.1692742400000000  8.3392538900000002
 16.8724702899999990  2.1375518400000000 10.6450499900000004
 18.6776178199999983  4.3551610500000004 15.1727314500000006
 19.2491088899999987  6.5214814900000002 16.8509310600000006
 18.6560922799999993  8.5296214100000007 18.8704962499999986
 18.4710539500000017 10.4349764700000005 -0.1210410700000000
 18.7184496399999993 12.6932718199999997  2.1081572899999999
 18.5333929499999996 14.8782868300000004  4.0353468100000001
 18.7242361600000002 17.2302212300000015  6.1033889600000002
 18.9270585199999992 18.7526966100000010  8.2955766499999992
 18.7135373899999990  0.1638329300000000 10.8762461399999992
 18.6596193200000009  2.3887919000000002 12.9709627399999992
  0.3256662800000000  4.0866288300000004 17.2682883800000013
  0.2514068600000000  6.4594574700000003 18.8673409700000008
  0.2604939800000000  8.0659336100000001  0.0819023900000000
  0.3551441000000000 10.7711862299999996  1.8789489600000000
  0.0225749500000000 12.9030065300000008  3.9289186500000000
 -0.4120265100000000 14.7938555800000007  6.2937507000000004
 -0.3779035700000000 16.7906903999999990  8.2919671800000003
 -0.3726861600000000 18.9031486400000013 10.5147122199999998
 -0.3053406300000000  0.3215019500000000 12.8142967900000002
 -0.0867728700000000  2.5293101400000002 15.1902776199999998
  2.5257678700000001  4.1235740500000002 18.8462050099999985
  2.5687766100000000  5.8328521300000000 21.0428944099999988
  2.2278008200000001  8.0728993399999993  1.9109214200000000
  2.2701701500000002 10.5290528800000001  3.8665966100000002
  1.9234835699999999 13.0873380400000006  6.0531255799999997
  1.9064581300000001 15.0170397799999993  8.0103969500000005
  1.6478664100000000 16.9650575699999990 10.8695138399999998
  1.2335935400000000 18.7830591899999995 12.6357991900000002
  2.1320051100000001  0.0804266000000000 15.0453408000000000
  2.4079648400000000  1.7313433400000000 17.0039835400000001
  6.6326102100000002  6.4363413700000001  0.3479620900000000
  6.2504665900000003  8.5002317299999994  1.6358038600000000
  6.5475317600000000 10.5323916999999998  4.7679139599999996
  6.1552915300000004 12.7583467299999995  6.4747260000000004
  6.5009562200000000 14.7332116800000001  8.3802182399999996
  6.1473961900000003 16.7471302800000004 10.5698029400000006
  6.2180128100000003 18.2869753499999987 12.6690591099999992
  6.2489080399999999 -0.3769731100000000 14.4532375399999999
  6.2589960900000001  2.0165611100000000 16.6180447399999984
  6.4051934700000004  4.0915985399999997 19.0115500799999992
  8.5370273799999996  6.8404712800000000  2.5292043000000000
  8.4323129899999998  8.0790691799999994  4.7670766400000000
  8.6721247199999993 10.4671994599999998  6.2890431299999996
  8.4260467400000003 12.2116541699999992  8.3719007399999992
  8.8178514799999999 14.8510694599999997  9.9926895699999996
  8.2752005099999995 16.5030467799999983 12.3601291100000008
  8.2008744900000003 18.5581902300000010 14.6004695600000005
  7.7636331399999996 -0.2024501400000000 16.5431369799999999
  8.4473393699999999  2.3142137699999998 18.8592959700000016
  8.7983523899999998  4.8254856000000004 20.9913850800000006
 10.7296696100000002  6.0712183900000003  4.4723501800000003
 10.7840374099999998  8.1239560300000004  6.7220126499999999
 10.2542344300000003 10.1363757200000002  8.2833258200000000
 10.7157708899999999 12.9376844299999991 10.2397696200000006
 10.7682555999999998 14.5167819999999992 12.1634178700000000
 10.7556360800000004 16.8495570599999986 14.2938234899999994
 10.4229734500000006 18.5980203300000007 16.9748525699999995
 10.1727877600000003  0.0369769200000000 19.0692400299999996
 10.5617742700000008  2.4518611899999998 -0.0558468000000000
 10.4195223800000001  4.2279462499999996  2.4453448899999999
 12.5545209500000006  6.1899114400000004  5.9568038899999998
 12.7094602699999992  8.3234215999999996  8.3620708399999994
 12.3575672900000004 10.5625909500000006 10.8919134799999995
 12.7542497699999995 12.6574720999999997 12.9055491399999998
 12.5657426000000001 14.3901817800000007 14.6304108300000006
 12.2341558500000005 17.0260386399999994 16.5314775999999988
 12.3705122400000000 19.0952969800000005 19.2234992700000014
 12.4808023099999996  0.4631705500000000  0.3370349800000000
 12.8009865800000000  2.2822662299999998  2.3870718399999999
 12.8966795500000000  4.3172179300000000  4.0685327600000001
 14.6740120699999999  6.4942772000000000  8.3053241199999999
 14.4224024699999998  8.6371455400000006 10.4178677299999993
 14.4736083099999995 10.4639019900000001 12.9623875200000001
 14.6033117800000003 12.4186818199999998 14.4745911300000003
 14.4942183599999996 14.4971057699999992 16.8065216900000003
 14.3885324000000008 16.7019916299999984 19.1887341000000013
 14.1118417199999993 19.1034970999999985  0.1637995500000000
 14.4792014200000008  0.1237225000000000  2.3705723999999999
 15.1152715499999992  2.3919023799999999  4.4497454699999999
 15.1864918000000007  4.0872363099999998  6.8117364199999999
 17.4279533700000009  6.5681549500000003 10.2088561400000000
 16.6615784799999993  8.6504919099999995 13.0709558700000006
 16.9090411699999983 10.8799139199999999 14.6556937499999993
 16.8173084599999996 12.5295272299999993 16.5577170400000000
 16.4256086400000001 15.1039394500000004 18.8866818599999995
 16.4436713499999989 16.9980753000000000  0.1487468600000000
 16.5332989200000000 19.5849412799999989  2.0933139000000001
 16.7480974200000006 -0.0650208300000000  4.3443477200000000
 16.9687017299999994  2.0586525999999998  6.0912082600000002
 16.5700475800000007  4.0439560600000002  8.7029760700000001
 18.9955536400000007  6.3370754099999997 12.8218504499999995
 19.3176419000000017  8.3606313599999993 14.3813047300000001
 19.1686587999999993 10.6922514100000008 16.4413618100000001
 18.9727004599999987 12.9848946600000001 18.5427671399999987
 18.4784010700000003 15.0122209200000007 -0.3898564700000000
 18.4434013800000010 17.0556265700000012  2.2391604599999999
 18.6177765499999985 18.8215427300000009  4.2286956699999996
 18.9602357899999987 -0.1268913800000000  6.1552092199999997
 18.6612597600000001  1.9029105799999999  8.2977224300000003
 18.8367716600000001  3.9221452499999998 10.6020269500000008
  0.0125638100000000  6.1422111800000003 14.8332433199999993
  0.2055786500000000  8.4256687800000005 16.8396165899999986
 -0.2186520800000000 10.6117646800000003 19.2902862299999995
 -0.0058620300000000 12.6756656400000001 -0.5352018100000000
 -0.2963509000000000 14.4553517700000000  1.8687388400000000
 -0.0413899700000000 16.5869463099999983  3.7819018299999998
  0.2515895700000000 18.5195616799999989  5.9283624200000000
 -0.1058311900000000  0.3797367400000000  8.5301333899999996
 -0.0190827500000000  2.0618141400000001 10.7734250199999995
 -0.3991402100000000  4.3179727699999999 12.5117191699999992
  2.7546266699999999  6.4940122999999996 16.9329799100000002
  2.3206139299999999  8.4468183000000003 19.0879415899999998
  2.6871905500000000 10.4464868499999994  0.0816582600000000
  2.2183015899999998 12.8439552599999995  1.5558623100000000
  2.2463659900000001 14.3140150700000000  4.1597062700000000
  2.2671044100000000 16.6579232399999988  5.7512696500000002
  1.8806939700000000 18.5274507700000015  8.1783346100000003
  1.6206397200000000  0.1068677700000000 10.2686385599999994
  1.9124566500000000  1.7851773700000000 12.9512301200000000
  2.5138295300000002  4.2560828700000002 14.4643028000000005
  5.0876652800000004  6.2733702300000003 18.9803496699999990
  4.1947058799999999  8.2966655399999993 20.8862742200000007
  4.5472186099999998 10.3424786999999991  2.2979037400000002
  4.1288956299999997 12.7970952199999992  3.9994432400000002
  4.5139702499999999 14.6318025899999995  6.3439592300000003
  3.9512309200000000 16.9543289600000016  8.0935335899999998
  3.7652532299999999 18.8970983399999994 10.2209605700000008
  3.9129926899999998 -0.6835288800000000 12.3058524699999996
  4.2242784300000000  1.9177880199999999 14.4001143799999998
  4.1578488800000004  3.8722525299999999 16.7747260199999992
  8.3396538499999995  8.9645883800000004 -0.2154842900000000
  8.1014947500000005 10.3237366900000005  2.6208419400000000
  8.8355292900000002 12.1225994799999999  4.3195386300000003
  8.4364923600000008 14.1179996800000005  6.4047013499999998
  8.2574213699999994 16.8947292699999991  8.3337065399999997
  8.1884218700000009 18.7458313799999985 10.1986631499999998
  8.3715157399999995 -0.2976926900000000 12.4960267100000006
  8.3231908099999998  1.9834665499999999 14.5939533899999994
  8.2227415700000002  4.6629535899999999 16.6011743500000009
  8.2072477999999993  6.6289241099999998 18.6102147100000010
 10.9135167400000004  8.8316084099999994  2.1409750100000000
 10.6473720400000005 10.4084255999999993  4.3116113000000000
 10.7510234899999997 12.5761813900000003  6.7404613500000004
 10.6831165800000001 14.9135710800000005  8.3098763299999998
 10.8848189600000005 16.9925394599999997 10.3866783999999992
 10.7526915800000005 18.6806710400000000 12.4866788100000008
 10.2893081300000002 -0.7229258000000000 15.0726965699999997
 10.0749841999999994  2.2011213299999999 16.7886883000000005
 10.4841700899999992  4.3215539200000004 18.8788133800000004
 10.5421899400000001  6.7992580100000000 21.2662346000000007
 12.7061495900000008  8.2856812600000005  4.3265093700000001
 13.0699117499999993 10.5973451099999991  6.4510732400000004
 12.8003049999999998 12.2444974000000002  8.7538927500000003
 13.1650168599999997 14.9169801599999996 10.5590505500000003
 13.0072904699999992 17.0987573099999999 12.1303391900000008
 12.7337637099999998 19.1099827799999993 14.7528965599999999
 12.4721472000000002 -0.0364290700000000 16.9945651899999994
 12.0973699000000003  2.2505402100000000 18.8529500600000013
 12.0651013999999996  4.5491683299999996  0.2966487600000000
 12.6506892600000000  6.4454748100000003  2.3370476600000001
 14.6102837700000006  8.2770358599999998  6.1410106600000001
 14.7943829900000008 10.4981828099999994  8.2792676299999997
 14.8852783800000008 12.7996004200000009 10.5331102100000003
 14.9538186399999997 15.1485249399999997 12.5321926300000008
 14.6080159599999995 16.5977414199999984 14.9552289100000007
 14.6794967599999993 18.7992063899999984 16.8924719699999990
 13.9987974000000008 -0.0762805100000000 18.9520169199999984
 14.4408522900000005  2.3333289200000000 -0.3544907400000000
 14.7353565000000000  4.3086148599999996  1.7777715999999999
 15.0775181099999998  6.0700918599999998  4.3274935499999998
 17.0244456399999997  8.5299013400000003  8.2846924200000007
 16.6308535599999985 10.4644972200000002 10.3124479600000001
 16.5204743200000017 12.8112412700000000 12.8787285399999991
 16.7905551200000005 14.7348445199999993 14.8451211000000001
 16.4124080700000015 17.0558743300000017 16.9970080800000005
 16.5012019599999995 19.0560954400000000 19.3268956100000011
 16.3882765600000013  0.0346980900000000 -0.0426390400000000
 16.6867752899999999  2.0613925700000002  1.9997083300000000
 17.1846506999999988  4.0954940999999998  4.1486830100000001
 17.1220771700000007  6.2242672299999997  6.5346417800000003
 19.3596884699999983  8.9444730299999993 10.6917869700000008
 18.2225648500000013 10.7014486699999996 12.5030467400000003
 19.0862958399999982 12.6146743299999997 14.7324563499999996
 18.5126394800000007 14.7961100999999999 16.9463451399999983
 19.1508000500000009 16.8172686800000015 19.1018964900000014
 18.6509885299999993 19.2249294100000014  0.0792578300000000
 18.6941740699999990 -0.0523458700000000  1.8613100499999999
 19.1579362899999985  1.6460779699999999  4.0659429200000003
 18.8555284999999984  4.0740210200000000  6.4819896200000002
 18.9820176099999998  5.7746793600000004  8.4617398900000005
  0.1847588400000000  8.3082250500000008 12.5026289100000003
  0.2202986100000000 10.4414682899999995 14.6234236800000001
  0.0275750800000000 12.7279333000000001 16.6608163699999992
  0.0137456900000000 14.5547844600000005 18.7285764000000015
 -0.1320671400000000 16.7329812300000000  0.1537043300000000
  0.1728984800000000 18.7138499699999983  1.7204315999999999
 -0.2474199300000000 -0.5528714000000000  3.7322502499999999
 -0.0789518700000000  2.0522621999999999  5.8330008900000001
  0.0258386500000000  4.2776828599999996  8.2546481800000002
 -0.3548911900000000  6.0974910299999996 10.7095129599999996
  2.3285374800000000  8.2386434699999995 14.6439212300000001
  1.8116080999999999 10.3255700600000004 16.9639007100000008
  1.8542955900000000 12.8621572000000004 18.9005550299999996
  2.1943221700000000 15.0236898700000001 -0.2848990000000000
  2.1232617700000000 16.4711350100000011  2.4137609000000002
  2.2767406700000001 18.6114082500000002  3.9743709300000001
  1.9848309500000001 -0.0827874700000000  5.8710731500000000
  1.6451808200000000  2.2379499599999999  8.6420966000000004
  2.2334942000000000  4.1036714099999996 10.9929282199999996
  2.5812114500000001  6.2974234500000001 12.7020720899999997
  4.3849013399999999  8.9161377300000009 16.7977347799999990
  4.2470796599999998 11.0769496899999993 18.9986218300000012
  3.9870551900000000 12.9727088199999994 -0.0484461700000000
  4.0868371300000002 14.9716247100000004  2.0655151200000001
  4.5891677700000004 16.8160031200000013  3.8805366100000001
  4.3374623999999997 18.8281720899999989  5.8030105100000000
  3.7974308699999999 -0.4069306100000000  8.3356108899999999