bcc
1.0
-1.6856 1.6856 1.6856
1.6856 -1.6856 1.6856
1.6856 1.6856 -1.6856
Li
1
Direct
0.0 0.0 0.0
