Li                                      
   1.00000000000000     
    20.0207999999999977    0.0000000000000000    0.0000000000000000
     0.0000000000000000   20.0207999999999977    0.0000000000000000
     0.0000000000000000    0.0000000000000000   20.0207999999999977
   Li
   432
Direct
  0.9879756068688579  0.9498617248062047  0.9753132377327560
  0.9330282995684485  0.0837697564532860  0.0796830421361818
  0.8336315082314414  0.1607421037121384  0.1590123401662282
  0.7741271482658050  0.2586543574682310  0.2707300112882578
  0.6759443953288553  0.3455512407096606  0.3658164753656195
  0.5648918594661581  0.4448123786262315  0.4290033425237780
  0.4617485100495458  0.5250571545592564  0.4855882522176955
  0.4072854121713405  0.5783957354351443  0.5631420377807075
  0.3157631098657419  0.6478949132901803  0.6514943074202861
  0.2654273735315300  0.7417528210660933  0.7623945122073081
  0.1680248826220705  0.8232513660792762  0.8426493132142596
  0.0727045227962932  0.9047104371453685  0.9032917096219961
  0.0813407566131232  0.9141230964796634  0.0865108467194133
  0.9976060981579167  0.9828992023295768  0.1772269145089140
  0.9166648995045179  0.0679420327859006  0.2496545272916180
  0.8416567379924871  0.1687606234516110  0.3407524919084182
  0.7523497387716773  0.2377754055781978  0.4287777965915467
  0.6795943124150909  0.3583141073283755  0.5259469746463665
  0.5688128121753380  0.4482669563653801  0.6016521053104782
  0.4576795742427890  0.5038723702349586  0.6808729701110821
  0.3885201805122662  0.5925519140094337  0.7702760613961459
  0.3252667066251078  0.6661097818268971  0.8683793150123904
  0.2457270628546340  0.7575953223647431  0.9355843882362365
  0.1760752901981917  0.8719292051266692  0.0096384550067938
  0.1566857318388841  0.8647543684568078  0.1685275613362123
  0.0638101669263946  0.9250436745784398  0.2945304753056845
  0.9926004869935241  0.0227805107687971  0.3640691181171576
  0.8982110674898109  0.0655261542995262  0.4314096524614399
  0.8531751748181904  0.1530318109166444  0.5182116603732112
  0.7552776187764749  0.2614614191241103  0.5832975785183407
  0.6707298799248775  0.3486367882402277  0.6930099411611934
  0.5668094861344173  0.4224029059777834  0.7444816221129997
  0.4813538849596455  0.5204336170382788  0.8351502162750748
  0.4211072100016011  0.5795108077599309  0.9175417365939396
  0.3423525548429609  0.6768882647047079  0.0220975205785976
  0.2345859396227894  0.7700174748261830  0.0977374780228573
  0.2224402156756966  0.7630930871893256  0.2123432325381600
  0.1787110265324046  0.8406001773155936  0.3472877447454650
  0.0940701515423967  0.9262545292895368  0.4369821825301656
  0.9836330526252723  0.0105127452449452  0.4829787396108074
  0.9309172285822740  0.0783432879805019  0.6102637147366750
  0.8301125319667548  0.1635973192879376  0.6543706440302088
  0.7699097608487193  0.2603988686765746  0.7681100495484685
  0.6478118381882823  0.3189094561655850  0.8191774629385407
  0.5588512756732982  0.4383417430871930  0.9263882132582140
  0.5085050512467006  0.5037910912650858  0.9975368496763366
  0.4454688793654569  0.5730563918524751  0.0806556885838745
  0.3362043085191431  0.6634960231359415  0.1670100989970464
  0.3174841794533663  0.6455553264604816  0.2760847998082028
  0.2464903795053175  0.7175347353752102  0.3946245954207654
  0.1809707319387854  0.8050565511867660  0.4976962104411413
  0.0983267596699449  0.9063920023175882  0.5844984336290224
  0.0280944242987289  0.9780620564612832  0.6723393360904666
  0.9033281901822079  0.0663884260369230  0.7197150048949084
  0.8285295392791525  0.1595321126028963  0.8506247622472642
  0.7342456110644946  0.2350162975505441  0.8980185651922028
  0.6641828233637028  0.3422028405458306  0.0008812470031145
  0.6055074077958906  0.4028696830296497  0.0892870399784229
  0.5349554003836019  0.4617098132941777  0.1743142481818936
  0.4385960311276307  0.5906874265763591  0.2206240384999631
  0.4218350725245728  0.5914735305282477  0.3808142791496820
  0.3263903480380392  0.6515802855030799  0.4843886572964138
  0.2825018905338439  0.7398594481739025  0.5905794823383701
  0.1620949407616052  0.8308189782626059  0.6712287995484729
  0.1039720220970182  0.8989203753096788  0.7450438488971471
  0.0076199407616073  0.9800152801086881  0.8141829232598070
  0.9188373551506430  0.0815311925597371  0.9002574732278461
  0.8129521452689232  0.1497352333573119  0.9987576030927841
  0.7528792835451128  0.2312739026412558  0.0783060991568760
  0.6977220995165041  0.3455819058179515  0.1853015833533149
  0.6219995669503717  0.4175185142451880  0.2751723147926128
  0.5070826934987593  0.4925448433629001  0.2952521822304774
  0.0569342308998628  0.0650399994006250  0.9069482578118766
  0.0061597678414458  0.1670648820226930  0.9622733976664293
  0.9035610000599377  0.2452647831255490  0.0668123656397341
  0.8524796541596729  0.3560201485455110  0.1537737927555369
  0.7476736828698165  0.4222015359026585  0.2790773905138622
  0.6751475900063966  0.4954034903700162  0.3301630424358635
  0.5703142771517591  0.5759633675977014  0.4003974766243132
  0.4902263750699305  0.6740893915328030  0.5062071445696503
  0.3998225969991225  0.7562277656237484  0.5890621343802422
  0.3354806096659502  0.8352507382322401  0.6781776807120607
  0.2608971969152094  0.8918505529249572  0.7512468542715567
  0.1846491393950274  0.9981659249380641  0.8811770368816454
  0.1736808479181633  0.0069456360385232  0.9766091150203806
  0.0548031057699987  0.0774348557500204  0.0534358012666800
  0.9966521262886587  0.1477525933029682  0.1577485570007227
  0.9222879305522227  0.2558756118636651  0.2384437040477891
  0.8663612692799489  0.3623422245864276  0.3439852058858790
  0.7801653665188226  0.4175540068328942  0.4153518440821529
  0.6573285373211846  0.5255659034604037  0.4971649544473777
  0.5705005619156083  0.5958628256613139  0.5772168664588833
  0.4906848527531338  0.6600763950491455  0.6537996109046560
  0.3993383081595141  0.7180282571126000  0.7394837279229591
  0.3591214097338735  0.8101656362383096  0.8417709072564534
  0.2547282476224737  0.9052682470230948  0.9063359366259078
  0.2527247872212897  0.9345969306920807  0.0646588033445212
  0.1601519180052762  0.0135331864860575  0.1627475185806730
  0.0620055971789313  0.0708631008750871  0.2292405897866203
  0.9829820092104242  0.1428733946695431  0.3370441800527431
  0.9202164983417234  0.2563062599896142  0.4363361608926724
  0.8497857548149952  0.3556229691121260  0.4928877402501399
  0.7333929783025681  0.4313300986973516  0.5688497262846610
  0.6790829727083860  0.5115448083992646  0.6741053634220435
  0.5674342633661027  0.5769897241868449  0.7460639140294063
  0.5127393625629324  0.6601871144010261  0.8522945821345829
  0.4316366658675008  0.7490738392072274  0.9217063573883166
  0.3599130773995043  0.8230470370814373  0.9897465665707657
  0.3502157181531231  0.8625959412211301  0.1358872742347970
  0.2380261378166679  0.9261421206944789  0.2610130269519715
  0.1644689348078003  0.0151659933668995  0.3159132711979566
  0.1081903110764770  0.0724768211060507  0.4121634045592586
  0.9915960940621744  0.1414755729041772  0.5069307495204995
  0.8953890878486348  0.2505110599975993  0.5856052710181388
  0.8265178439422982  0.3495809762846633  0.6535100930032769
  0.7589451795133044  0.4165164119315889  0.7566472618476752
  0.6602707738951494  0.5026387202309621  0.8143759689922518
  0.6180744785423187  0.5735346524614400  0.8963771762367116
  0.5292995914249161  0.6619467189123327  0.0009970995165034
  0.4543475265723629  0.7497169413809672  0.0830478322544579
  0.4120158699952086  0.7513916826500449  0.2351627677215689
  0.3243441181171605  0.8063667385918620  0.3143077084831774
  0.2722986204347464  0.9325906082674038  0.4212562455046722
  0.1753154399424588  0.9979916846479640  0.5201512357148559
  0.0937186391153233  0.0672323938104356  0.6029700916047318
  0.9879017706585174  0.1798126443498731  0.7014570616558800
  0.8898584951650292  0.2632101274674312  0.7465028055821961
  0.8514477003915957  0.3361633161512003  0.8439575116878473
  0.7458607558139505  0.3942749625389581  0.9225713338128330
  0.6677368846399716  0.5140646622512577  0.0157504949852125
  0.5938903300567375  0.5717788175297684  0.1016963992447870
  0.5307774974027026  0.6789806246503645  0.1845483072604495
  0.4927779953847988  0.6554722268840436  0.3208569267961323
  0.3989346254894883  0.7432465031367386  0.4105402401502403
  0.3325581700031961  0.8308152876008918  0.4823077769120090
  0.2832411212339139  0.8991088567889420  0.5812196870254951
  0.1960072144969232  0.9721712029489353  0.6675029749060997
  0.1092997977103778  0.0409030058738935  0.7366916052305612
  0.0013784728881987  0.1270560387197293  0.7935623591464847
  0.9139669214017445  0.2252868386877651  0.9221873176896054
  0.8292567744545707  0.3086298364700681  0.9593451895029190
  0.7561499805202558  0.3769332439263167  0.0738308069607641
  0.6753145613561884  0.4732682565132293  0.1469493551706194
  0.5943898026052921  0.5705756453288586  0.2461918814433020
  0.1777202374530518  0.1379508236434077  0.8463402561336224
  0.0852547420682512  0.2438350615360036  0.8884729031806913
  0.9799476119835404  0.3050780038759697  0.9815130554223614
  0.9116886103452444  0.4173595920242974  0.0562709831774981
  0.8304113392072239  0.4590977927954896  0.1722328583273409
  0.7874810152441469  0.5505853797051046  0.2417579297530565
  0.6826370140054365  0.6416116658675008  0.3417171112043462
  0.5916401777151776  0.7312912700791188  0.4183233986653860
  0.5080530418364901  0.7977910248341757  0.4831048089986396
  0.4064652920962217  0.9051588567889368  0.5666455046751366
  0.3266812080436381  0.9886546376768166  0.6722553044833361
  0.2497495564612819  0.0868429763046450  0.7672036482058644
  0.2749888615839495  0.0823670018181062  0.9223927225685316
  0.1669507277431492  0.1775066091265103  0.9945295757412325
  0.0466517336969545  0.2089386927595314  0.0650144249980045
  0.9889600310676911  0.3344811171381750  0.1419703403460417
  0.9132896812315181  0.4137825796171981  0.2427768026252721
  0.8676073678374507  0.5021364171261880  0.3476710216374954
  0.7663337214297101  0.5458863936506049  0.4190905383401287
  0.6876398285782770  0.6664210246343814  0.5010023305761990
  0.5994456065691693  0.7568391258091580  0.5492541157196484
  0.5061604431391373  0.8267937310197411  0.6490742063254231
  0.4341681860864668  0.8896685132462210  0.7582279988811607
  0.3521751323623405  0.9964527890993367  0.8092846080076725
  0.3511621793334925  0.9897733647007101  0.9830594276951956
  0.2555709007632032  0.0931021133021659  0.0766685586989553
  0.1621071750379599  0.1675945241948398  0.1489921756373391
  0.0626417860425192  0.2237718352912950  0.2206985929633163
  0.9964382687005511  0.3214805552225712  0.3299308424238774
  0.9403171786342170  0.4200430811955584  0.4654543859386209
  0.8483743976264719  0.5041572269839349  0.4962020298889129
  0.7576619221010148  0.5901533834811801  0.5971324447574489
  0.6598303809038626  0.6827359046591539  0.6584243971269856
  0.6003416826500469  0.7335771862263272  0.7560949162870614
  0.5068847858227414  0.8243487063454040  0.8187418070207002
  0.4197375609366247  0.9297137132382289  0.9213821440701651
  0.4298930767002318  0.9286309642971347  0.0869706480260533
  0.3256042021297816  0.0087357253456375  0.1969764050387610
  0.2479955621153991  0.0932407171541598  0.2384411137417075
  0.1598431131623101  0.1695950616358957  0.3257039808599060
  0.0686066286062470  0.2520689418005304  0.4288854711100427
  0.0145354591225129  0.3301536866658665  0.5198711445097075
  0.9193794453768049  0.4178601709222391  0.5683170028170679
  0.8509198438623855  0.4866934458163499  0.6708612038479984
  0.7553158565092275  0.6113170667505798  0.7426859141492841
  0.6609759859745878  0.6591522731359376  0.8067184223407651
  0.6140594331894818  0.7749804523295794  0.9289678719132084
  0.5201436486054476  0.8388647961120412  0.9988853532326374
  0.5002403735115450  0.8477099351674227  0.1887178284584010
  0.4078952499400614  0.9033147996084097  0.2761737458043640
  0.3385985115479926  0.0322207244465744  0.3558052055861936
  0.2320184123511524  0.1059325136857652  0.4231177470430723
  0.1399888001478473  0.1675851844082175  0.5266864021417703
  0.0726623047031083  0.2462851499440575  0.5896710211380167
  0.9990786731798948  0.3374687799688303  0.6898713438024444
  0.9171006093662584  0.3993351019939269  0.7604390643730525
  0.8147470440741600  0.5130146003156710  0.8100666606729021
  0.7459887057460222  0.5966791187165370  0.9083011632901759
  0.6458529863941536  0.6694728197674422  0.0311933299368690
  0.5828844866339011  0.7683855200591410  0.1281962259250378
  0.6098339387037512  0.7479355655118667  0.2489164958443197
  0.5015196330815925  0.7925872732358314  0.3303320246943144
  0.4166687165348009  0.9042367432869796  0.4150396612523011
  0.3495943798449588  0.0218876303644180  0.4762005863901564
  0.2249857023695370  0.1022686256293426  0.5869780488292164
  0.1697762427075844  0.1659507751937994  0.6774584092543776
  0.0988909474146880  0.2706819242987279  0.7535548349716308
  0.9816944252976896  0.3244618881363408  0.8441836150403574
  0.9069529064772652  0.4561567504795008  0.9078108167505832
  0.8157993042236100  0.5001402301606319  0.9990744770438766
  0.7878980705066709  0.5836138760688883  0.0979356249500540
  0.7086492787501015  0.6533915402980881  0.1803977588308143
  0.2125891952369514  0.2595524779229592  0.7617897381723040
  0.1716154794014244  0.3595124900103883  0.8432704712099408
  0.0661376098857218  0.4266536227323598  0.9302477738152319
  0.9907033005674108  0.5190974426596355  0.9962021842284017
  0.8988456080676102  0.5667868906337432  0.1004648985055567
  0.8309323623431624  0.6697400568408867  0.1765629969831366
  0.7624365404978803  0.7185031222528551  0.2657825506473301
  0.6859713952489415  0.8176370209981627  0.3364655033764876
  0.6100286442100185  0.8950010234356256  0.4159773630424368
  0.4821309608007667  0.0168654134699935  0.5086282691001358
  0.3967651907016716  0.0768931900823162  0.5872222933149516
  0.3050436705825916  0.1991566855470310  0.6790473482578108
  0.3549824082953705  0.1711594616598759  0.8168587793694542
  0.2427994725485476  0.2683593817429895  0.9163072664428995
  0.1416626703228658  0.3130544753456377  0.0040999530488293
  0.0747485495085130  0.4269590835531076  0.0571286956565160
  0.9941392781507261  0.4820094117118217  0.1656044418804470
  0.9152490120274948  0.5997770843322954  0.2320828143730509
  0.8349335041556785  0.6482624590425985  0.3188507726963934
  0.7507814003436408  0.7298023085990550  0.4098353487373103
  0.6953777521377802  0.8150120464716721  0.4986050302685214
  0.5880505164628786  0.9041930292495834  0.5715118202069860
  0.5184315187205328  0.9666218777471443  0.6501327139774631
  0.4412232168544747  0.0675246134020639  0.7332599791217120
  0.4221074872132959  0.0949934338288188  0.9267867982298412
  0.3396165732638039  0.1891971169983222  0.9842337823663385
  0.2537278795053126  0.2417936800727247  0.0854500064932466
  0.1385267067250027  0.3196697055062714  0.1495353797051067
  0.0640255399384628  0.3990837578917947  0.2376138416047340
  0.9902853302565333  0.4811524209821769  0.3135668135139440
  0.9478904554263536  0.5883777626268696  0.4103236329217594
  0.8576206555182608  0.6468258790857533  0.4997611124430605
  0.7755626698233868  0.7465554228602258  0.5644188289179226
  0.6494249370654543  0.7980767356948775  0.6722819717493778
  0.5838800902061863  0.9138736883640988  0.7722065202189725
  0.5117668015264130  0.9937727907975713  0.8256733392272011
  0.5417657471229944  0.9903839232198521  0.9934788190282120
  0.4179696770358845  0.0615593457803882  0.0717496633501185
  0.3579260544034213  0.1708325386597949  0.1787068398865159
  0.2314085925637315  0.2448963872572492  0.2280451175777216
  0.1259125179812983  0.2877655593183093  0.3158456510229328
  0.0627972813274198  0.4030094851354562  0.4044714566850445
  0.0116489715695707  0.5234937240270128  0.5017894005234567
  0.9155362243267007  0.5708562759729858  0.5876563139335076
  0.8689772656437285  0.6601918389874513  0.6628553349516508
  0.7854554038799648  0.7467417091225101  0.7282238671781371
  0.6842456829896904  0.8458412116398932  0.8210471349796222
  0.5792554922880200  0.9072456315431978  0.8947937964516939
  0.5747673959082533  0.9023417206105648  0.1117323153919898
  0.4825711834691901  0.0196172170942219  0.2092035158435195
  0.4114129670143072  0.1020743361903627  0.2638188493966283
  0.3228834417206130  0.1903711260289285  0.3443268171102076
  0.2283869540677728  0.2538265768600638  0.4398299024015060
  0.1463358327339535  0.3535452129785028  0.5115758745904273
  0.0853075711260303  0.4407282760928624  0.6060796491648688
  0.9882055357428285  0.4906887881603126  0.6743608686965530
  0.9435829247582532  0.5936144714496905  0.7341680906856851
  0.8561185117477805  0.6820945746423703  0.8369225410572980
  0.7361912241269053  0.7641401282666038  0.9165869605610197
  0.6567819942260087  0.8511332644050214  0.0299091190162244
  0.6758739565851499  0.8335155513266201  0.1813296391752601
  0.5787301821106041  0.9041048454607221  0.2689705990769582
  0.5048284294333882  0.9902733736913589  0.3437817334971598
  0.4423946041117262  0.1326835960600974  0.4143308998641402
  0.3276406891832480  0.1664017491808494  0.5015466894429821
  0.2336934473147920  0.2651279104731046  0.5705407171541594
  0.1530086145408802  0.3518948098977077  0.6705423035043552
  0.0755680477303571  0.4305931546191957  0.7932522686406145
  0.9706833443219054  0.5081625004994805  0.8355335271317799
  0.9250303084791796  0.5777124160872660  0.9145622377727136
  0.8451072035083484  0.6661728552305632  0.9871271617517792
  0.7700904868936291  0.7678187969511683  0.0767702928953895
  0.3000020933229450  0.3371324047990072  0.6743857952729186
  0.2311754555262553  0.4300355110684890  0.7461011907616069
  0.1765960585990598  0.5081539428993835  0.8900911442100252
  0.0827255883880795  0.6154934807799890  0.9198906647087028
  0.9931264310117456  0.6622844326900008  0.0036265588787643
  0.9176641602733184  0.7691984596020163  0.0855500059937668
  0.8555515478901938  0.8259410847718343  0.2082465241149194
  0.7595584851754182  0.9108536422120963  0.2542900063933544
  0.6662792111204325  0.9748219012227253  0.3381886952569317
  0.5909940791576744  0.0970021153000857  0.4021278305562248
  0.5084695926236691  0.1849121643490790  0.5144786791736564
  0.3929965011388177  0.2599794134100506  0.5848878396467683
  0.4134217963318179  0.2742395298889164  0.7327452349556438
  0.3166944213018468  0.3169027551346630  0.8373217668624662
  0.2331349276752164  0.4390332803883936  0.9439837259250368
  0.1632339047390730  0.5223428429433383  0.9989013955486286
  0.0901231254495301  0.5910045992168165  0.0765096204946829
  0.9765509160473087  0.6815592294014223  0.1358487722768302
  0.9315109770838319  0.7570273480580170  0.2411119575641365
  0.8609570491688672  0.8071327794094145  0.3457887891592719
  0.7505649734276361  0.8813329027811108  0.3991424308718905
  0.6690364081355398  0.9610354781027723  0.4790294248981084
  0.6083982183529102  0.0654405518261001  0.6080280233557076
  0.4960914448973099  0.1733193903340506  0.6349828033844815
  0.4922108552105797  0.1701495489690714  0.8431092308998629
  0.4284007087628865  0.2797982463238213  0.9166132142571755
  0.3150430861903644  0.3299758151522383  0.0087673089986424
  0.2500787600895080  0.4152454627187723  0.0572314697714376
  0.1451020798369669  0.4883714841564739  0.1585774609406201
  0.0515128865979406  0.5844260978582270  0.2091659134500148
  0.0061968347918153  0.6731624205825923  0.3356041312035458
  0.9217726519419784  0.7283084676936014  0.4343810941620703
  0.8490486778750110  0.8316868816430940  0.5095856034723880
  0.7509328163709768  0.8796503396467656  0.5742344122112968
  0.6903772756333382  0.9706186246303830  0.6643253186685882
  0.5713066920402810  0.0726161307240503  0.7159474266762587
  0.6068126008950685  0.1082064587828668  0.9150364455965772
  0.5107591055302478  0.1864738536921635  0.9951319482737944
  0.4264743691560753  0.2640369710501105  0.0799158450211763
  0.3283205531247475  0.3418067205106681  0.1534379330496307
  0.2503262287221304  0.4000447924158905  0.2362310886677861
  0.1179157281427337  0.4826875019979227  0.2809972708383270
  0.0567703823024033  0.5815701160792770  0.3998450876088882
  0.0100040043354923  0.6622359690921442  0.5225435542036294
  0.9290899604411393  0.7456957828857966  0.5764998221849282
  0.8417998676376541  0.8280584761847649  0.6369903260608965
  0.7604352473427625  0.9056494021217958  0.7340514574842132
  0.6774082429273562  0.9921008825821147  0.8311272351754155
  0.6440300677295596  0.9879378451410545  0.0239715680692072
  0.5894499725285698  0.1073802715176200  0.1077227178734148
  0.5127254005833919  0.1848417540757623  0.1563585151442481
  0.4276852563334117  0.2544589067369927  0.2494079257572110
  0.3182798114960477  0.2952642851434533  0.3196318958283371
  0.2457265314073354  0.4101381538200286  0.3725937210301282
  0.1457924418604648  0.4932874130903855  0.4786883641013375
  0.1034704946855243  0.5945497982098615  0.6010670058139524
  0.9914847968113136  0.6639634350275685  0.6594162930552230
  0.9161821555582179  0.7576639764644781  0.7363597573523535
  0.8262510099496509  0.8486009904699117  0.8265059038599887
  0.7405536382162552  0.9347975275713267  0.9252394889315099
  0.7614815456924831  0.9231431800927012  0.0841566086270262
  0.6637660707863802  0.9940375334651961  0.1766181865859480
  0.5989291951370603  0.0790988272196884  0.2580738357108601
  0.5125267641652655  0.1993225835131440  0.3304283689962446
  0.4067731349396624  0.2508091529808993  0.4231593622632488
  0.3062990060337256  0.3334229121713435  0.4893591330016775
  0.2238144739470940  0.4385965425957039  0.5789173094981237
  0.1485863287181317  0.5027315082314416  0.6708110500079911
  0.0719581759969614  0.5831681381363367  0.7722612013505952
  0.9923560661911637  0.6692010608966683  0.8376925437544926
  0.9284339801606336  0.7756937654838936  0.9121620289898473
  0.8353103592264048  0.8502933244425819  0.0011631428314587
  0.3785253796052075  0.4256679832973731  0.5735579037800704
  0.3290126987932567  0.4968728707144550  0.6628103167705603
  0.2306243281986724  0.5961137267242052  0.7587833008671012
  0.1813907740949432  0.6664974771237908  0.8508771452689174
  0.0737305806960791  0.7438976289658754  0.9541539923479547
  0.9776591100255700  0.8473403590266102  0.0206033724926087
  0.8984235515064327  0.9327308474186822  0.0940010948613477
  0.8272199003036818  0.0011875644329891  0.1701950761208337
  0.7619019085151422  0.0684027536362208  0.2797656172580503
  0.6708880704067752  0.1611098837209326  0.3239471824302740
  0.6091192689602849  0.2567839931471241  0.4386245959202455
  0.4757819542675605  0.3622028060816760  0.5082323748301789
  0.4734144729481358  0.3651105999760276  0.6516879075761182
  0.3749806491249075  0.4181863217254076  0.7633958802845058
  0.3058667385918667  0.5194412111404176  0.8574686890633743
  0.2437608592064251  0.6258528160712871  0.9553120789379079
  0.1661949512507022  0.6918850025972958  0.0305600385598979
  0.0838765863501933  0.7721656981739002  0.1207728842004343
  0.9956642102213706  0.8674591669663556  0.1692719172061032
  0.9304467099216822  0.9310450990969414  0.2908844311915573
  0.8139374455566184  0.9769941331015772  0.3356623501558360
  0.7626439917485826  0.0759685631942801  0.4087876788140363
  0.6723311236314231  0.1597403180692112  0.5086986089466947
  0.5987253571285862  0.2705414428993862  0.5927026327619274
  0.5434926851074877  0.2669605575201786  0.7312572189922477
  0.4907196300847119  0.3495880464317125  0.8303320626548398
  0.4105983137536953  0.4102496853272584  0.8926438873571456
  0.3167723217853435  0.5124176461480090  0.0064420048149927
  0.2396996034124541  0.5896887082434290  0.0912034069567653
  0.1559810117477838  0.6814719032206540  0.1617221414728647
  0.0529421951170761  0.7934707624070967  0.2276775098897161
  0.9898861603931906  0.8387776482458236  0.3449566705626168
  0.9202568663589901  0.8965665982378326  0.4418721374770271
  0.8198051171781344  0.9952212414089345  0.5076326180772028
  0.7358206670063154  0.0742693908335355  0.5852063828618270
  0.6876167136178353  0.1693091939383038  0.6830023295772421
  0.6797364131303425  0.1697171002157774  0.8077957978702131
  0.5852389270159009  0.2665141987333186  0.9177202379525298
  0.5012910188404049  0.3439751788140342  0.0046682280428385
  0.4247395478702174  0.4213565297091009  0.0868211704827004
  0.3238207958722938  0.5126662111404130  0.1544657985694897
  0.2434035802765138  0.5687214956445317  0.2393805612163362
  0.1470018790457956  0.6665740305082721  0.2862451890034379
  0.0772763720730438  0.7334432974706289  0.4152196160992574
  0.0093764235195408  0.8277770673499560  0.5067407491209153
  0.9286832109605996  0.9143739401022941  0.5827373281786947
  0.8256330780987753  0.9709658160513044  0.6507324952049842
  0.7419228157715949  0.0868779169663583  0.7395893116159229
  0.7129154549268790  0.0871601774154911  0.9403847803284577
  0.6739170562614873  0.1797938139335074  0.0140576175777198
  0.6131102188723716  0.2689797765324045  0.0988797016103220
  0.5213592284024600  0.3551209626987912  0.1907401187764748
  0.3901977493406861  0.4102566635698892  0.2621979935866676
  0.3277252112802671  0.5146124330696082  0.3260309403220631
  0.2096676646287889  0.5815033210461138  0.3647350940022349
  0.1653312989490914  0.6636304952849059  0.4978847748341693
  0.0846022546551595  0.7522400178814053  0.6054326570366797
  0.9948224596419735  0.8201910403180719  0.6965908250419588
  0.8969317464836593  0.9321426521417706  0.7508032900783164
  0.7981890668704565  0.0268861613921558  0.8066557739950468
  0.8340292700591405  0.0092607598097985  0.0076358572085056
  0.7273019125109883  0.0794476344601591  0.0710749050986976
  0.6979483297370734  0.1770871019140117  0.2019344961240321
  0.6025461564972403  0.2844313044433804  0.2549273270798338
  0.5019697434667947  0.3247565352033916  0.3523816271078104
  0.3929350605370416  0.4263159249380664  0.4031318993247055
  0.2996127467433851  0.5224906906816926  0.4707622562534937
  0.2283000459522100  0.5733378905937840  0.5643755684088561
  0.1882376533405292  0.6866178554303559  0.6616988007472244
  0.1067180522256876  0.7424489455965784  0.7352053189682763
  0.0085300852113832  0.8157585181411307  0.7970211115439909
  0.9159444472748319  0.9199156582154586  0.9098031761967533
 
  0.00000000E+00  0.00000000E+00  0.00000000E+00
  0.00000000E+00  0.00000000E+00  0.00000000E+00
  0.00000000E+00  0.00000000E+00  0.00000000E+00
  0.00000000E+00  0.00000000E+00  0.00000000E+00
  0.00000000E+00  0.00000000E+00  0.00000000E+00
  0.00000000E+00  0.00000000E+00  0.00000000E+00
  0.00000000E+00  0.00000000E+00  0.00000000E+00
  0.00000000E+00  0.00000000E+00  0.00000000E+00
  0.00000000E+00  0.00000000E+00  0.00000000E+00
  0.00000000E+00  0.00000000E+00  0.00000000E+00
  0.00000000E+00  0.00000000E+00  0.00000000E+00
  0.00000000E+00  0.00000000E+00  0.00000000E+00
  0.00000000E+00  0.00000000E+00  0.00000000E+00
  0.00000000E+00  0.00000000E+00  0.00000000E+00
  0.00000000E+00  0.00000000E+00  0.00000000E+00
  0.00000000E+00  0.00000000E+00  0.00000000E+00
  0.00000000E+00  0.00000000E+00  0.00000000E+00
  0.00000000E+00  0.00000000E+00  0.00000000E+00
  0.00000000E+00  0.00000000E+00  0.00000000E+00
  0.00000000E+00  0.00000000E+00  0.00000000E+00
  0.00000000E+00  0.00000000E+00  0.00000000E+00
  0.00000000E+00  0.00000000E+00  0.00000000E+00
  0.00000000E+00  0.00000000E+00  0.00000000E+00
  0.00000000E+00  0.00000000E+00  0.00000000E+00
  0.00000000E+00  0.00000000E+00  0.00000000E+00
  0.00000000E+00  0.00000000E+00  0.00000000E+00
  0.00000000E+00  0.00000000E+00  0.00000000E+00
  0.00000000E+00  0.00000000E+00  0.00000000E+00
  0.00000000E+00  0.00000000E+00  0.00000000E+00
  0.00000000E+00  0.00000000E+00  0.00000000E+00
  0.00000000E+00  0.00000000E+00  0.00000000E+00
  0.00000000E+00  0.00000000E+00  0.00000000E+00
  0.00000000E+00  0.00000000E+00  0.00000000E+00
  0.00000000E+00  0.00000000E+00  0.00000000E+00
  0.00000000E+00  0.00000000E+00  0.00000000E+00
  0.00000000E+00  0.00000000E+00  0.00000000E+00
  0.00000000E+00  0.00000000E+00  0.00000000E+00
  0.00000000E+00  0.00000000E+00  0.00000000E+00
  0.00000000E+00  0.00000000E+00  0.00000000E+00
  0.00000000E+00  0.00000000E+00  0.00000000E+00
  0.00000000E+00  0.00000000E+00  0.00000000E+00
  0.00000000E+00  0.00000000E+00  0.00000000E+00
  0.00000000E+00  0.00000000E+00  0.00000000E+00
  0.00000000E+00  0.00000000E+00  0.00000000E+00
  0.00000000E+00  0.00000000E+00  0.00000000E+00
  0.00000000E+00  0.00000000E+00  0.00000000E+00
  0.00000000E+00  0.00000000E+00  0.00000000E+00
  0.00000000E+00  0.00000000E+00  0.00000000E+00
  0.00000000E+00  0.00000000E+00  0.00000000E+00
  0.00000000E+00  0.00000000E+00  0.00000000E+00
  0.00000000E+00  0.00000000E+00  0.00000000E+00
  0.00000000E+00  0.00000000E+00  0.00000000E+00
  0.00000000E+00  0.00000000E+00  0.00000000E+00
  0.00000000E+00  0.00000000E+00  0.00000000E+00
  0.00000000E+00  0.00000000E+00  0.00000000E+00
  0.00000000E+00  0.00000000E+00  0.00000000E+00
  0.00000000E+00  0.00000000E+00  0.00000000E+00
  0.00000000E+00  0.00000000E+00  0.00000000E+00
  0.00000000E+00  0.00000000E+00  0.00000000E+00
  0.00000000E+00  0.00000000E+00  0.00000000E+00
  0.00000000E+00  0.00000000E+00  0.00000000E+00
  0.00000000E+00  0.00000000E+00  0.00000000E+00
  0.00000000E+00  0.00000000E+00  0.00000000E+00
  0.00000000E+00  0.00000000E+00  0.00000000E+00
  0.00000000E+00  0.00000000E+00  0.00000000E+00
  0.00000000E+00  0.00000000E+00  0.00000000E+00
  0.00000000E+00  0.00000000E+00  0.00000000E+00
  0.00000000E+00  0.00000000E+00  0.00000000E+00