Li 
 1.0000000000000000
    20.0207999999999977    0.0000000000000000    0.0000000000000000
     0.0000000000000000   20.0207999999999977    0.0000000000000000
     0.0000000000000000    0.0000000000000000   20.0207999999999977
 Li 
 432
Cartesian
 -0.2407379700000000 -1.0038083799999999 -0.4942487300000000
 18.6799729799999987  1.6771375399999999  1.5953182500000000
 16.6899696999999989  3.2181855100000001  3.1835542600000002
 15.4986448100000000  5.1784671600000003  5.4202314100000004
 13.5329475499999994  6.9182122799999997  7.3239384899999997
 11.3095869400000009  8.9054996699999993  8.5889901200000001
  9.2445745699999993 10.5120642800000006  9.7218652799999994
  8.1541797799999998 11.5799453400000001 11.2745541100000004
  6.3218300699999999 12.9713744799999997 13.0434372300000003
  5.3140683600000003 14.8504848799999998 15.2637480500000002
  3.3639925700000002 16.4821509500000012 16.8705133700000012
  1.4556027100000000 18.1130267200000006 18.0846226600000008
  1.6285070200000000 18.3014756900000002  1.7320163600000000
 -0.0479278300000000 -0.3423716500000000  3.5482246100000001
 18.3523646199999995  1.3602538500000001  4.9982833600000003
 16.8506412200000000  3.3787226900000000  6.8221374900000002
 15.0626436500000001  4.7604538400000003  8.5844745099999997
 13.6060218099999997  7.1737350800000002 10.5298791900000008
 11.3880875499999998  8.9746630799999991 12.0455564699999993
  9.1631112199999993 10.0879279499999992 13.6316215599999992
  7.7784848300000000 11.8633633599999992 15.4215429700000008
  6.5120996800000004 13.3360507199999994 17.3856485899999988
  4.9196523799999996 15.1676644300000003 18.7311479200000015
  3.5251681700000002 17.4567202299999984  0.1929695800000000
  3.1369737000000000 17.3130742600000005  3.3740565999999999
  1.2775305900000000 18.5201144000000006  5.8967357399999996
 -0.1481441700000000  0.4560840500000000  7.2889549999999996
 17.9829041399999987  1.3118860299999999  8.6371663699999992
 17.0812495400000017  3.0638192800000001 10.3750120100000007
 15.1212621499999997  5.2346667800000004 11.6780841599999992
 13.4285487799999999  6.9799874099999997 13.8746134300000001
 11.3479793600000001  8.4568440999999996 14.9051176600000002
  9.6370898599999997 10.4194973599999994 16.7203754499999988
  8.4309032300000002 11.6022699800000009 18.3699195999999993
  6.8541720300000000 13.5518445700000001 20.4632100399999999
  4.6965981799999996 15.4163658600000009  1.9567825000000001
  4.4534310699999997 15.2777340800000001  4.2512813899999999
  3.5779377200000000 16.8294880300000003  6.9529784799999996
  1.8833596900000000 18.5443566799999999  8.7487328800000004
 -0.3276793800000000  0.2104735700000000  9.6696207500000000
 18.6377076499999994  1.5684952999999999 12.2179677800000004
 16.6195169800000002  3.2753492099999999 13.1010237899999993
 15.4142093399999993  5.2133936700000003 15.3781776800000003
 12.9697112499999996  6.3848224399999998 16.4005881500000008
 11.1886496199999996  8.7759523700000006 18.5470331399999999
 10.1806779299999999 10.0863006800000008 -0.0493142400000000
  8.9186433399999991 11.4730474099999995  1.6147914100000000
  6.7310792199999998 13.2837211800000006  3.3436757899999998
  6.3562872600000002 12.9245340800000008  5.5274385600000002
  4.9349345900000001 14.3656194300000006  7.9007000999999999
  3.6231788300000001 16.1178762000000013  9.9642762900000008
  1.9685803900000001 18.1466929999999991 11.7021262400000001
  0.5624728500000000 -0.4392151800000000 13.4607713800000006
 18.0853530300000003  1.3291493999999999 14.4092701699999992
 16.5878242000000000  3.1939605200000001 17.0301882400000011
 14.7001845299999996  4.7052142899999998 17.9790500900000012
 13.2974714699999996  6.8511746300000000  0.0176432700000000
 12.1227427100000007  8.0657733500000006  1.7875979700000000
 10.7102350800000004  9.2437998300000004  3.4899106999999998
  8.7810434199999996 11.8260348299999993  4.4170697499999996
  8.4454756199999999 11.8417732600000001  7.6242065200000004
  6.5345958800000004 13.0451585800000007  9.6978484300000005
  5.6559138500000001 14.8125780400000000 11.8238737000000000
  3.2452703899999999 16.6336605999999989 13.4385375499999995
  2.0816030599999999 17.9971050499999983 14.9163738899999991
  0.1525573100000000 -0.4001100800000000 16.3005934699999990
 18.3958589199999984  1.6323197000000000 18.0238748199999996
 16.2759523100000010  2.9978191600000001 19.9959262200000012
 15.0732455600000002  4.6302885500000004  1.5677507500000001
 13.9689546100000008  6.9188262199999997  3.7098859399999999
 12.4529289300000006  8.3590546700000008  5.5091698800000000
 10.1522011899999995  9.8611418000000004  5.9111848900000004
  1.1398688500000000  1.3021528200000001 18.1578296799999990
  0.1233234800000000  3.3447725899999998 -0.7553167600000000
 18.0900140699999987  4.9103971700000004  1.3376370099999999
 17.0673246600000006  7.1278081899999997  3.0786743500000000
 14.9690252699999995  8.4528125099999993  5.5873526199999999
 13.5169948699999996  9.9183742000000006  6.6101282399999999
 11.4181480799999999 11.5312473900000008  8.0162777999999992
  9.8147242099999996 13.4958088899999993 10.1346720000000001
  8.0047682499999997 15.1402848500000005 11.7934951800000007
  6.7165901899999998 16.7223879800000006 13.5776597100000007
  5.2233706000000000 17.8555615500000009 15.0405630200000004
  3.6968234899999999 -0.0367196500000000 17.6418692200000002
  3.4772295199999999  0.1390571900000000 -0.4683042300000000
  1.0972020199999999  1.5503077599999999  1.0698274900000000
 -0.0670271100000000  2.9581251200000001  3.1582523100000000
 18.4649421999999994  5.1228344500000000  4.7738337099999999
 17.3452456999999995  7.2543812100000000  6.8868590100000002
 15.6195347699999996  8.3597652599999996  8.3156762000000004
 13.1602431800000002 10.5222498400000006  9.9536401199999993
 11.4218776500000008 11.9296504599999995 11.5563434399999991
  9.8239032999999996 13.2152574900000008 13.0895912499999998
  7.9950723999999997 14.3755001300000007 14.8050558199999998
  7.1898979199999999 16.2201641700000003 16.8529269799999994
  5.0998633000000000 18.1241945199999996 18.1455705199999997
  5.0597524199999997 18.7113782300000011  1.2945209700000000
  3.2063695200000000  0.2709452200000000  3.2583355200000002
  1.2414016600000000  1.4187359700000000  4.5895799999999998
 -0.3407137900000000  2.8604396599999999  6.7478941199999998
 18.4234704700000016  5.1314563700000004  8.7357990099999991
 17.0133906400000008  7.1198563400000001  9.8680068700000003
 14.6831141400000007  8.6355736400000005 11.3888265999999998
 13.5957843799999996 10.2415362999999999 13.4961286600000001
 11.3604879000000007 11.5517958699999994 14.9367964099999995
 10.2654522299999993 13.2174741800000000 17.0636193700000014
  8.6417113600000004 14.9970575200000003 18.4532986399999999
  7.2057477399999996 16.4780601199999985 19.8155180599999987
  7.0115988500000004 17.2698608200000017  2.7205719400000001
  4.7654737000000003 18.5421061700000003  5.2256896099999999
  3.2927996500000001  0.3036353200000000  6.3248364199999996
  2.1660565799999998  1.4510439399999999  8.2518410899999992
 -0.1682529200000000  2.8324541499999998 10.1491591499999991
 17.9264058499999983  5.0154318299999998 11.7242860100000001
 16.5475484500000007  6.9988908099999998 13.0837948700000002
 15.1946896500000008  8.3389917800000006 15.1486835000000006
 13.2191491100000000 10.0632292900000007 16.3044584000000015
 12.3743455200000003 11.4826225700000002 17.9461881699999992
 10.5970012600000008 13.2527028700000002 20.0407627300000009
  9.0964009600000004 15.0099329400000006  1.6626840400000000
  8.2488873300000005 15.0434625999999998  4.7081467400000001
  6.4936287200000002 16.1441072000000005  6.2926917700000002
  5.4516362200000001 18.6712100499999991  8.4338870400000001
  3.5099553600000002 -0.0402080800000000 10.4138438600000001
  1.8763221299999999  1.3460463100000000 12.0719436099999999
 -0.2422162300000000  3.5999929900000001 14.0437315399999996
 17.8156789599999996  5.2696773200000004 14.9455833699999996
 17.0466641199999991  6.7302585199999996 16.8967045499999990
 14.9327290200000000  7.8937001699999998 18.4706161599999987
 13.3686266200000006 10.2919857900000000 20.3361375100000004
 11.8901595199999992 11.4474693500000004  2.0360432700000000
 10.6265901199999995 13.5937352899999997  3.6948047499999999
  9.8658096900000007 13.1230783599999992  6.4238123600000003
  7.9869903500000001 14.8803895900000001  8.2193440399999993
  6.6580806099999998 16.6335867099999994  9.6561875399999995
  5.6707138400000003 18.0008786000000001 11.6364831100000004
  3.9242212400000001 -0.5571547800000000 13.3639435599999992
  2.1882693899999999  0.8189109000000000 14.7491552899999991
  0.0275981300000000  2.5437635400000000 15.8877532800000001
 18.2983489400000003  4.5104227400000001 18.4629278499999998
 16.6023840299999996  6.1790162300000002 19.2068581700000003
 15.1387275300000006  7.5465050900000001  1.4781518199999999
 13.5203377699999994  9.4752091099999998  2.9420436500000000
 11.9001593600000000 11.4233808799999998  4.9289584199999998
  3.5581013300000000  2.7618858500000001 16.9444090000000003
  1.7068681400000001  4.8817729999999999 17.7879383000000004
 -0.4014648500000000  6.1079056999999999 -0.3701234200000000
 18.2527353300000001  8.3558729199999995  1.1265901000000000
 16.6254993400000011  9.1915050899999997  3.4482396099999999
 15.7659999099999997 11.0231597699999995  4.8401871600000002
 13.6669391299999994 12.8455788399999999  6.8414499400000004
 11.8451096699999994 14.6410362599999999  8.3751691000000008
 10.1716283399999998 15.9724145499999999  9.6721447600000001
  8.1377603199999999 18.1220044400000013 11.3446963200000006
  6.5404191300000001 19.7936567699999983 13.4590890000000005
  5.0001859199999998  1.7386658600000000 15.3600308000000005
  5.5054970000000001  1.6490532700000000 18.4670402200000012
  3.3424871299999999  3.5538243199999999 -0.1095222700000000
  0.9340050300000000  4.1831197800000002  1.3016407999999999
 -0.2210290100000000  6.6965795500000000  2.8423597900000002
 18.2847900500000016  8.2842582700000005  4.8605858099999999
 17.3701935899999995 10.0531727800000006  6.9606519899999997
 15.3426141699999992 10.9290823100000001  8.3905278499999998
 13.7670994800000006 13.3422820499999997 10.0304674600000006
 12.0013805999999992 15.1525247699999994 10.9965068000000006
 10.1337370000000000 16.5530719300000015 12.9949848699999997
  8.6923944199999994 17.8118753699999992 15.1803311200000000
  7.0508278899999999 19.9497819999999990 16.2025252799999997
  7.0305477600000001 -0.2047454200000000 -0.3391638100000000
  5.1167338899999999  1.8639787900000000  1.5349658799999999
  3.2455153299999999  3.3553764500000001  2.9829425500000002
  1.2541386699999999  4.4800911599999997  4.4185623900000000
 -0.0713087100000000  6.4362978999999996  6.6054794100000001
 18.8259021699999991  8.4095985199999994  9.3187691699999995
 16.9851341399999995 10.0936310099999993  9.9343616000000008
 15.1689978100000005 11.8153428599999994 11.9550692499999993
 13.2103320899999996 13.6689190000000007 13.1821831700000001
 12.0193207599999994 14.6868021300000002 15.1376250999999993
 10.1482389200000007 16.5041205799999986 16.3918659700000013
  8.4034817600000000 18.6136123100000006 18.4468076299999986
  8.6068033100000001 18.5919348100000015  1.7412219499999999
  6.5188566100000003  0.1748962100000000  3.9436252100000000
  4.9650695499999999  1.8667537500000000  4.7737818499999998
  3.2001870000000001  3.3954288099999999  6.5208542600000001
  1.3735595899999999  5.0466218700000001  8.5866302399999999
  0.2910115200000000  6.6099409299999996 10.4082362100000001
 18.4067119999999989  8.3658949099999997 11.3781610499999992
 17.0360960100000014  9.7439921399999996 13.4311779900000001
 15.1220277000000003 12.2390567299999997 14.8691661499999999
 13.2332680200000006 13.1967558300000007 16.1511481900000007
 12.2939611000000006 15.5157286400000007 18.5986799699999992
 10.4136919599999995 16.7947443099999987 19.9984838799999984
 10.0152124699999998 16.9718310700000004  3.7782819000000001
  8.1663892199999992 18.0850849400000016  5.5292193300000001
  6.7790130800000004  0.6450846800000000  7.1235048599999997
  4.6451942300000004  2.1208536699999998  8.4711557899999992
  2.8026877699999999  3.3551894600000001 10.5446831200000002
  1.4547574700000001  4.9308257299999996 11.8056855800000005
 -0.0184457000000000  6.7563949499999998 13.8117762000000006
 18.3610878799999995  7.9950082099999999 15.2245984199999995
 16.3118876200000003 10.2709627099999992 16.2181825999999987
 14.9352906799999996 11.9459932999999996 18.1849159299999990
 12.9304934700000000 13.4033814299999996 20.6453154199999993
 11.6698137299999996 15.3836928200000003  2.5665909999999998
 12.2093633199999996 14.9742683700000008  4.9835073799999998
 10.0408242699999999 15.8682312799999998  6.6135114000000002
  8.3420410399999998 18.1035429900000011  8.3094260500000008
  6.9991591599999996  0.4382078700000000  9.5339167000000007
  4.5043937500000002  2.0474996999999999 11.7517701199999998
  3.3990562000000000  3.3224672800000001 13.5632593200000002
  1.9798758800000000  5.4192686700000001 15.0867706399999992
 -0.3664922500000000  6.4959865700000003 16.9012313200000008
 18.1579227500000009  9.1326230699999993 18.1750988000000007
 16.3329547099999992 10.0132075199999999 20.0022702899999985
 15.7743496899999993 11.6844166900000008  1.9607495600000000
 14.1877254799999992 13.0814213499999994  3.6117074499999999
  4.2562057600000003  5.1964482500000004 15.2516399899999993
  3.4358791900000001  7.1977276600000000 16.8829494500000017
  1.3241278599999999  8.5419468500000004 18.6243046300000010
 -0.1861273600000000 10.3927460800000002 -0.0760353100000000
 17.9956081499999989 11.3475269799999996  2.0113876400000001
 16.6359306400000015 13.4087317299999995  3.5349324499999999
 15.2645894900000005 14.3850073100000007  5.3211792899999999
 13.7336961100000003 16.3697472700000013  6.7363085500000004
 12.2132614799999999 17.9186364900000008  8.3281995900000005
  9.6526475400000002  0.3376590700000000 10.1831448499999997
  7.9435565300000004  1.5394631800000000 11.7566600900000005
  6.1072183200000003  3.9872761699999999 13.5950711500000008
  7.1070317999999997  3.4267493500000001 16.3541662499999987
  4.8610396800000002  5.3727695100000004 18.3452045199999993
  2.8361999899999999  6.2676010399999997  0.0820843400000000
  1.4965257599999999  8.5480624200000008  1.1437621899999999
 -0.1173363400000000  9.6502140300000008  3.3155334100000000
 18.3240174200000006 12.0080170499999994  4.6464836099999998
 16.7160367000000001 12.9787330399999998  6.3836475500000001
 15.0312442599999994 14.6112260599999999  8.2052315500000006
 13.9220188999999994 16.3171931800000003  9.9824715899999994
 11.7732417799999993 18.1026677999999990 11.4421238499999998
 10.3794137499999994 19.3525432899999998 13.0161770400000005
  8.8336417800000007  1.3518967799999999 14.6804513900000000
  8.4509295800000004  1.9018445399999999 18.5550131299999990
  6.7993954900000002  3.7878776400000000 -0.3156522900000000
  5.0798351300000002  4.8409029099999996  1.7107774899999999
  2.7734154900000001  6.4000432399999996  2.9938179300000001
  1.2818425300000000  7.9899760999999998  4.7572191999999998
 -0.1944954600000000  9.6330563900000001  6.2778584600000000
 18.9775252300000012 11.7797935099999993  8.2150073900000002
 17.1702516199999984 12.9499715599999998 10.0056172799999992
 15.5273851000000001 14.9466368099999993 11.3001164900000006
 13.0020067800000003 15.9781347100000009 13.4596228999999994
 11.6897465100000009 18.2964823400000007 15.4601922999999992
 10.2459807800000000 -0.1246737100000000 16.5306407899999996
 10.8465836699999993 -0.1925215500000000 -0.1305592600000000
  8.3680873099999999  1.2324673500000001  1.4364856600000000
  7.1659659500000004  3.4202040899999999  3.5778539000000000
  4.6329851499999997  4.9030215899999998  4.5656456900000002
  2.5208693400000000  5.7612967099999999  6.3234826100000001
  1.2572518100000001  8.0685722999999996  8.0978421399999991
  0.2332217300000000 10.4807631499999996 10.0462252299999992
 18.3297676400000000 11.4289993299999999 11.7653495299999999
 17.3976200399999996 13.2175687699999997 13.2708940900000005
 15.7254455499999999 14.9503664100000009 14.5796244000000002
 13.6991459700000000 16.9344177299999998 16.4380204799999987
 11.5971583599999999 18.1637833399999984 17.9144876400000008
 11.5073030799999998 18.0656031199999987  2.2369703400000001
  9.6614611499999992  0.3927523800000000  4.1884217499999998
  8.2368167299999993  2.0436098700000001  5.2818644199999998
  6.4643848100000003  3.8113822399999999  6.8936983400000003
  4.5724895300000004  5.0818111300000002  8.8057465100000005
  2.9297604399999999  7.0782579999999999 10.2421582699999991
  1.7079258200000000  8.8237326700000001 12.1341994399999997
 -0.2361346100000000  9.8239820899999994 13.5012440799999993
 18.8912850200000015 11.8846366099999994 14.6986325099999995
 17.1401775000000001 13.6560790599999997 16.7558588099999994
 14.7391372599999997 15.2986966800000008 18.3508042200000006
 13.1493009500000007 17.0403688600000010  0.5988044900000000
 13.5315373099999992 16.6876481500000011  3.6303644400000001
 11.5866412299999997 18.1009022900000005  5.3850065699999998
 10.1070690200000008 -0.1947348400000000  6.8827853299999999
  8.8570938899999998  2.6564317399999999  8.2952360800000005
  6.5596287100000001  3.3314961400000001 10.0413659600000003
  4.6787297700000003  5.3080728700000002 11.4226815899999998
  3.0633548700000000  7.0452156099999996 13.4247933499999998
  1.5129327699999999  8.6208194299999992 15.8815450200000008
 -0.5869429000000000 10.1738197899999996 16.7280496399999983
 18.5198467999999998 11.5662647399999994 18.3102676500000001
 16.9197223000000001 13.3373135000000005 -0.2577245200000000
 15.4178276200000006 15.3723465699999995  1.5370026800000001
  6.0062819100000002  6.7496604500000004 13.5017431299999995
  4.6283175600000002  8.6096549600000003 14.9375427199999997
  3.5355943700000001 10.1736484600000008 17.8203367800000017
  1.6562324600000000 12.3226718799999997 18.4169470199999985
 -0.1376143500000000 13.2594641699999993  0.0726066100000000
 18.3723706200000017 15.3999685199999998  1.7127795600000000
 17.1288264300000002 16.5360012699999999  4.1692620099999997
 15.2069685200000002 18.2360186000000013  5.0910893599999998
 13.3394428299999994 -0.5040856800000000  6.7708082300000001
 11.8321742600000004  1.9420599500000000  8.0509208700000006
 10.1799680200000005  3.7020894599999998 10.3002747400000008
  7.8681043500000003  5.2049958399999996 11.7099224599999996
  8.2770351000000009  5.4904947799999997 14.6701458000000002
  6.3404756700000000  6.3446466800000003 16.7638516300000013
  4.6675477599999997  8.7897975000000006 18.8993093799999983
  3.2680733599999998 10.4577215900000002 -0.0219949400000000
  1.8043370700000001 11.8323848799999993  1.5317838100000001
 -0.4694694200000000 13.6453610199999993  2.7198011000000002
 18.6495949699999990 15.1562931299999999  4.8272542800000000
 17.2370488900000005 16.1594439500000000  6.9229681899999997
 15.0269112200000006 17.6449897799999995  7.9911507799999999
 13.3946441200000006 -0.7801009000000000  9.5905523099999996
 12.1806190500000007  1.3101722000000000 12.1732074499999996
  9.9321476000000004  3.4699928500000001 12.7128637100000006
  9.8544550900000001  3.4065300900000000 16.8797212899999991
  8.5769249100000007  5.6017847300000003 18.3513298399999982
  6.3074146200000003  6.6063798000000000  0.1755285400000000
  5.0067768399999997  8.3135463600000001  1.1458198100000001
  2.9050597200000001  9.7775878100000000  3.1748476299999999
  1.0313292000000001 11.7006780199999998  4.1876689200000001
  0.1240655900000000 13.4772501899999995  6.7190631900000000
 18.4546259100000007 14.5813181699999994  8.6966570099999991
 16.9986337700000014 16.6510367200000005 10.2023114499999998
 15.0342757299999992 17.6113035199999999 11.4966323199999998
 13.8219053600000006 -0.5882386400000000 13.3003243399999995
 11.4380170200000002  1.4538330300000000 14.3338402400000007
 12.1488737199999992  2.1663798700000001 18.3197616699999983
 10.2258058999999992  3.7333557300000000 -0.0974622900000000
  8.5383580499999994  5.2862313900000002  1.5999791500000000
  6.5732401300000003  6.8432439900000004  3.0719501700000000
  5.0117313599999997  8.0092167799999991  4.7295353799999997
  2.3607672100000001  9.6637899399999991  5.6257901600000002
  1.1365884700000000 11.6434989800000004  8.0052185300000005
  0.2002881700000000 13.2584938900000004 10.4617399899999999
 18.6011242800000005 14.9294261299999995 11.5419876400000003
 16.8535067900000008 16.5783931399999993 12.7530559199999995
 15.2245220000000003 18.1318255499999985 14.6962974200000005
 13.5622549499999998 -0.1581466500000000 16.6398321500000002
 12.8939971799999995 -0.2414939900000000  0.4799299700000000
 11.8012600100000000  2.1498389400000000  2.1566949900000001
 10.2651727000000008  3.7006797900000001  3.1304225600000000
  8.5626009799999991  5.0944708800000003  4.9933462000000004
  6.3722164499999998  5.9114272000000003  6.3992862600000002
  4.9196417400000003  8.2112939500000000  7.4596243700000002
  2.9188813200000001  9.8760086400000002  9.5837240000000001
  2.0715620800000001 11.9033625999999995 12.0338423100000007
 -0.1704811800000000 13.2930791399999997 13.2020417200000004
 18.3426997000000007 15.1690389400000001 14.7425114300000004
 16.5422062200000006 16.9896707099999986 16.5473093999999996
 14.8264762799999996 18.7153943399999996 18.5240347599999993
 15.2454697299999999 18.4820649800000005  1.6848826299999999
 13.2891277500000005 -0.1193733500000000  3.5360373900000002
 11.9910416299999998  1.5836218000000000  5.1668446499999998
 10.2611958399999992  3.9905975800000002  6.6154402899999996
  8.1439235799999992  5.0213998899999996  8.4719889599999991
  6.1323511399999999  6.6753934399999997  9.7973613299999993
  4.4809448200000004  8.7810536599999995 11.5903876700000001
  2.9748171700000001 10.0650869800000002 13.4301738700000008
  1.4406602500000001 11.6754926599999997 15.4612870600000001
 -0.1530376700000000 13.3979406000000001 16.7712748800000000
 18.5879910300000013 15.5300097400000006 18.2622135499999985
 16.7235816399999990 17.0235525900000013  0.0232870500000000
  7.5783809199999999  8.5222135600000009 11.4830880799999999
  6.5870974400000000  9.9477923700000002 13.2699927899999999
  4.6172835499999998 11.9346736999999994 15.1914487099999995
  3.6315884100000000 13.3438126900000000 17.0352411500000009
  1.4761452100000001 14.8934256499999993 19.1029262499999994
 -0.4472824900000000 16.9644318600000013  0.4124960000000000
 17.9871582399999994 18.6740177500000009  1.8819771199999999
 16.5616041799999998 20.0445759899999985  3.4074415800000000
 15.2538857300000004  1.3694778500000000  5.6011314700000003
 13.4317158800000005  3.2255487600000001  6.4856817500000004
 12.1950550599999996  5.1410209699999996  8.7816153099999994
  9.5255353500000002  7.2515899399999997 10.1752187299999992
  9.4781364799999999  7.3098063000000000 13.0473132599999992
  7.5074125799999996  8.3724247100000007 15.2837962399999991
  6.1236968000000003 10.3996285999999998 17.1672091299999998
  4.8802874100000002 12.5300740600000005 19.1261120700000014
  3.3273558799999998 13.8520912599999999  0.6118364200000000
  1.6792763600000000 15.4593750100000005  2.4179697600000001
 -0.0868059800000000 17.3672264900000002  3.3889591999999999
 18.6282874900000017 18.6402677200000007  5.8237390199999997
 16.2956788099999983 19.5602041399999997  6.7202287800000002
 15.2687428300000008  1.5209514099999999  8.1842563599999991
 13.4606069599999998  3.1981289600000000 10.1845531099999995
 11.9869606300000004  5.4164561200000003 11.8663808700000004
 10.8811583499999998  5.3447639300000001 14.6403545299999998
  9.8245995700000002  6.9990323600000002 16.6239121599999997
  8.2205067199999995  8.2135268999999997 17.8714447400000012
  6.3420353000000000 10.2590112100000006  0.1289740900000000
  4.7989778200000002 11.8060396900000004  1.8259651699999999
  3.1228646400000000 13.6436126800000004  3.2378066500000000
  1.0599451000000000 15.8859194400000003  4.5582858899999996
 -0.2024871600000000 16.7929995400000003  6.9063085099999997
 18.4242786699999996 17.9499805499999994  8.8466336900000009
 16.4131542900000014 -0.0956745700000000 10.1632111199999997
 14.7317184099999992  1.4869326199999999 11.7162999499999998
 13.7666366999999994  3.3897055100000002 13.6742530400000000
 13.6088667799999996  3.3978721200000002 16.1727181100000017
 11.7169515099999995  5.3358274699999999 18.3734933399999996
 10.0362472300000007  6.8866582599999999  0.0934616600000000
  8.5036255399999998  8.4358948100000006  1.7382292900000000
  6.4831513899999997 10.2639876799999996  3.0925288599999998
  4.8731343999999996 11.3862593200000006  4.7925903400000003
  2.9430952200000000 13.3453453500000006  5.7308576799999997
  1.5471347900000001 14.6841215700000003  8.3130288900000000
  0.1877235000000000 16.5727591099999998 10.1453551900000001
 18.5929808299999983 18.3064977800000008 11.6668675000000004
 16.5298347300000010 19.4395124099999990 13.0281851399999997
 14.8538883100000003  1.7393654000000001 14.8071696900000003
 14.2731377399999992  1.7450164800000001 18.8272556100000017
 13.4923585999999993  3.5996159900000002  0.2814447500000000
 12.2749570699999992  5.3851903099999996  1.9796507299999999
 10.4380288399999994  7.1098057700000004  3.8187697699999998
  7.8120710999999998  8.2136666100000006  5.2494135899999996
  6.5613209100000001 10.3029525999999994  6.5274002500000003
  4.1977143799999999 11.6421616900000000  7.3022883700000003
  3.3100648700000002 13.2864134200000006  9.9680514999999996
  1.6938048200000000 15.0604469499999993 12.1212461400000002
 -0.1036585000000000 16.4208807800000010 13.9463055899999997
 17.9572911099999999 18.6622416099999988 15.0316825099999996
 15.9803836700000002 20.5590824599999991 16.1498939200000002
 16.6979332099999986  0.1854078200000000  0.1528759700000000
 14.5611661300000002  1.5906051999999999  1.4229764600000001
 13.9734839199999996  3.5454254500000002  4.0428901599999998
 12.0634560900000007  5.6945422600000004  5.1038490300000001
 10.0498358400000001  6.5018856400000002  7.0549620800000001
  7.8668742600000003  8.5351858699999994  8.0710231300000004
  5.9984868799999997 10.4606816200000008  9.4250369799999998
  4.5707495600000003 11.4786832400000005 11.2992503800000001
  3.7686684100000001 13.7466387599999997 13.2477393499999998
  2.1365807800000001 14.8644218499999994 14.7193986500000005
  0.1707791300000000 16.3321381400000014 15.9570002700000000
 18.3379405899999988 18.4174474100000012 18.2149874300000008
