Li                                      
   1.00000000000000     
   -10.5278949999999991   18.2348490367503473   -0.0000000000000021
   -18.0478199999999980  -10.4199137352859115    0.0000000000000046
    -0.0000000000000002    0.0000000000000000   22.0820499999999988
   Li
   504
Direct
  0.0091190997357486  0.0045225160427975  0.9962187718078681
  0.9321078296750827  0.0608733936011561  0.6696177872978311
  0.8660683630217036  0.0803218478068644  0.3421196483116375
  0.7928409973713286  0.1132465044520288  0.0017933525193570
  0.7095998565076300  0.1775379601897953  0.6736226337681543
  0.6413852658183004  0.1977457231354123  0.3231233504135744
  0.5743391750616524  0.2603414329577944  0.9998918311479201
  0.4762575917769070  0.2919526308894831  0.6592607941744575
  0.4247152704992274  0.3397280755951400  0.3328974859671092
  0.3533309660686115  0.3695121393598271  0.0020296494211394
  0.2845104897628161  0.4360577741454961  0.6668714843051262
  0.2055656309455571  0.4582119985569690  0.3307794634103232
  0.0774304982627214  0.0626897960248058  0.6613685703999437
  0.0041467563715401  0.0863651158051155  0.3327054806958571
  0.9361814090889879  0.1216127789483181  0.0050579343856185
  0.8373195646964930  0.1724694074647033  0.6631494091354710
  0.7960765562735901  0.2197586480577698  0.3237249535255984
  0.7038387819972698  0.2591561316660318  0.0070782481698970
  0.6327573883564526  0.2998626834104599  0.6674955468355535
  0.5669903419903051  0.3351964095116173  0.3407670891063077
  0.4900707170073417  0.3714676253847813  0.9918403970645855
  0.4276766278436170  0.4261368047835319  0.6729125733344503
  0.3440771054510634  0.4754949590536341  0.3488398667696160
  0.2743757157735303  0.4970169828703064  0.0021544521455183
  0.1539762770225082  0.0794481650978440  0.3294696081206254
  0.0717746505353816  0.1130120217013371  0.9921753043761754
  0.9873851479443019  0.1843007519956927  0.6705665569999155
  0.9311786435594129  0.2183665785875561  0.3390376830955475
  0.8554787212220845  0.2535307482144447  0.9955472580670701
  0.7746778461975197  0.2921869791701397  0.6686239194277732
  0.7214333486684765  0.3307733557692814  0.3422368140639094
  0.6298537349379458  0.3869310816051765  0.9924555872303529
  0.5590072779248629  0.4127683916268694  0.6635434780738194
  0.4934191962605468  0.4538918157863137  0.3351526955151343
  0.4331379636274804  0.5069087329337307  0.0076970009577906
  0.3589547860906634  0.5585834367968019  0.6639459859931449
  0.2155579860570285  0.1391176300727821  0.9977158153341747
  0.1353651123096853  0.1696874093901855  0.6690844523040198
  0.0835169542009098  0.1910249789422238  0.3215444154867839
  0.9915577505342341  0.2549431197750991  0.9892581340953370
  0.9326836867928208  0.2971266506000347  0.6654725892749980
  0.8636386750994376  0.3309689514087566  0.3374071678127706
  0.7808732687979045  0.3900036158266715  0.9970654486336201
  0.7093925952790059  0.4122688403987382  0.6553458764018742
  0.6579729644531653  0.4643837741842702  0.3358242015573722
  0.5602799587682554  0.5060624780989329  0.9985656232097995
  0.5031040162349711  0.5482078557410190  0.6742844092826559
  0.4308615122706243  0.5877052629776713  0.3359389182616681
  0.2805624795661927  0.1602135384876107  0.6676697738661019
  0.2111172425864325  0.1995688563693818  0.3353349956186165
  0.1382257077497613  0.2592427358268097  0.0055555059426098
  0.0772287103893206  0.3008780969688232  0.6650522619050321
  0.0264909660051771  0.3253491774324502  0.3322044189737809
  0.9317267721760203  0.3851420727734407  0.9945001288376787
  0.8553099729734015  0.4166087318071163  0.6807461195858195
  0.7883139650064521  0.4624280361494328  0.3396100991529352
  0.7065626572818289  0.5055374789429408  0.9979598855178722
  0.6484601369404288  0.5390458679555508  0.6466201118102717
  0.5668293605620818  0.5758436059914871  0.3268393527774833
  0.5045678650584264  0.6198119017305501  0.0057672906274533
  0.3514944717039228  0.2020481802688963  0.3373954709820879
  0.2874315655709765  0.2593364211291558  0.0004227972493496
  0.2192204947208722  0.2942306898966507  0.6618967355838805
  0.1527211008240599  0.3302463979716066  0.3246136708321927
  0.0595653712251973  0.3830149522826076  0.9952204668497728
  0.0000278906291840  0.4186625925117013  0.6681107206984862
  0.9252772335102861  0.4542033264800551  0.3187199861425896
  0.8619536336238838  0.4949198474020307  0.0003012636960804
  0.7914923215900700  0.5548155286895309  0.6678634470078606
  0.7202729272044195  0.5907019884423264  0.3272761890313660
  0.6312855170848337  0.6391529836351495  0.9993815836844888
  0.5851362704789054  0.6767957007387295  0.6588333238988255
  0.4325689389030245  0.2509373431787054  0.9997693995802024
  0.3583274904669196  0.3005038356294989  0.6650630978555014
  0.2867934594555592  0.3468813869024174  0.3370309491193098
  0.2037346828272035  0.3698354461279507  0.0006373271503293
  0.1517127709178610  0.4231644019952370  0.6585929114371183
  0.0719344396099117  0.4514666038836310  0.3335779159996477
  0.0061291304588877  0.4945140896843796  0.9994327034854109
  0.9492775186401445  0.5367626199671776  0.6705341184355618
  0.8598294723732280  0.5666042451082305  0.3418606288818324
  0.7807525732944782  0.6438002654822554  0.9975241519695857
  0.7256353140452347  0.6782299937299783  0.6608747326448423
  0.6522277210264207  0.7183876566224896  0.3299194558476231
  0.1376733659903167  0.5036445126645432  0.9929988660473086
  0.0800636290420442  0.5187563367834116  0.6634565350590194
  0.0042679912618908  0.5764188874963239  0.3207775088816476
  0.9368170307641108  0.6354420841909771  0.9964776599092957
  0.8643562461389749  0.6687547996408867  0.6716570372768800
  0.7780703064822418  0.7114289404890499  0.3311985495006127
  0.7087751543839289  0.7669591499714201  0.0069656481169105
  0.2220163291195760  0.5507924845628764  0.6758394478773511
  0.1420329161771932  0.5763472786155219  0.3199489390704215
  0.0741461151895493  0.6296907684488531  0.9846885325411350
  0.0111696309114606  0.6692183282288653  0.6554848942919733
  0.9255508983343859  0.7002768220859892  0.3326914072742326
  0.8703648371955595  0.7650873131665250  0.0027469514832177
  0.8068773891542094  0.8035737401586616  0.6671170226496201
  0.2863963812776831  0.6048016535807932  0.3335567259380383
  0.2037949064541422  0.6304202952664610  0.0087408768660495
  0.1428126885081014  0.6687970143052695  0.6703138354455334
  0.0775701874077228  0.6970800518755809  0.3294345597442287
  0.0040083545750775  0.7565632660294099  0.0059174247861975
  0.9436848866550491  0.7952495564676880  0.6743933588593478
  0.8603480124884157  0.8377072007069728  0.3457082938404739
  0.3636867293844119  0.6148926075363974  0.9887093200133137
  0.2829004591359663  0.6778133614345023  0.6672771613142814
  0.2022162426318701  0.6957530073037717  0.3380867025479972
  0.1452916915786773  0.7471449735584272  0.0084754481581157
  0.0848557384994066  0.8005524847283922  0.6787977597188686
  0.9908066368988102  0.8421899942168167  0.3344813099327268
  0.9362035280887682  0.8719092598248395  0.9970331382276569
  0.4395292533759658  0.6740188749128393  0.6492171084659262
  0.3658665566504737  0.7067887100809003  0.3320930280476659
  0.2759965818463854  0.7512429731658656  0.0006997973467122
  0.2164071849333880  0.7917354910330303  0.6600371518948620
  0.1478825869170706  0.8243108576331508  0.3217884195534353
  0.0783023997902319  0.8888856380859522  0.0018163377041560
  0.0145395630034884  0.9271979700237125  0.6722619593742394
  0.9288553963874335  0.9575770379275568  0.3367857123772495
  0.8754809681507041  0.0021740610672651  0.9949263066608367
  0.7958332833455728  0.0393635533506327  0.6671510711188517
  0.7194885259599033  0.0872165267045730  0.3332601751196123
  0.6397325093345785  0.1190462966518453  0.0131156536643999
  0.5598764642854164  0.1646808917105744  0.6486325119271115
  0.4997996246473733  0.2092284686279626  0.3415681578476608
  0.0770878486171398  0.9544081913484774  0.3411725985585576
  0.1376284420856564  0.0009037785565553  0.9919614573828071
  0.2153956599790376  0.0394932888451294  0.6600416093614498
  0.2857994507692894  0.0624528586412794  0.3441573182743483
  0.3521727414869815  0.1292147996690431  0.0123141827864686
  0.4013353172079164  0.1551624767225874  0.6903746595085138
  0.8693910932801145  0.9266663040750487  0.6547172373036005
  0.7905435383025150  0.9606270965591790  0.3269272884537457
  0.7156761330968919  0.0022917652519752  0.9903899692284028
  0.6522398707312647  0.0443059347958723  0.6742353984344760
  0.5630990674504517  0.0910216160890158  0.3426772826798228
  0.5076329220852003  0.1297686616856666  0.9875831401522959
  0.1372509663895514  0.9225453959094381  0.6673450757515695
  0.2181967909539466  0.9337389311008124  0.3182844545682997
  0.2854008776827825  0.0005355974764711  0.0054755627308154
  0.3505888474378906  0.0319269876363393  0.6770673990865888
  0.4312938535139494  0.0735470569885877  0.3309692895360712
  0.8027798923984264  0.8770498633473807  0.0021950991868991
  0.7224215789991177  0.9183434658902314  0.6751736962827266
  0.6355311069236862  0.9696906356043939  0.3313945122848665
  0.5584483955175870  0.0037851385415166  0.9948490656438125
  0.4968206410003617  0.0326903624767709  0.6629490047346138
  0.2251371373169846  0.8766676705400513  0.0040618842000626
  0.2847874463308102  0.9038139086998385  0.6702574837933994
  0.3661651189681834  0.9483028562364026  0.3283717603211684
  0.4254316577591482  0.0065267848103403  0.0063984865535573
  0.7254026161260896  0.8314569003181163  0.3324572261180450
  0.6316411930036239  0.8680776798739771  0.9942186984451169
  0.5787914129264635  0.9209740504841335  0.6743936740474723
  0.5119252632521381  0.9595149026660366  0.3461196922387160
  0.2956135620564950  0.8258389172816010  0.3160823139156008
  0.3590940105596729  0.8793342099876256  0.0145633498701443
  0.4304502034457940  0.9099119098813091  0.6587544476169569
  0.6513364163877569  0.7894778809071354  0.6687239536184393
  0.5905284138737485  0.8292798489912130  0.3385902173937652
  0.5056917550019477  0.8788361270764966  0.0061431298271657
  0.3673309173231161  0.7881766502640488  0.6640516233773610
  0.4529585591293781  0.8519845366440180  0.3412724688151698
  0.5597172447679668  0.7461776008068313  0.0118265387498013
  0.5155777966818746  0.7770916693651628  0.6524514512918884
  0.4271652203828538  0.7383540317976056  0.0187922054338259
  0.4989765604820491  0.7067064517367641  0.3379841405123187
  0.0037984145289727  0.0094534597902936  0.7851075502500890
  0.9375921169435557  0.0332074688239672  0.4475415679250787
  0.8594759262149623  0.0754841234997414  0.1129092366877202
  0.7729480173566472  0.1158277727066803  0.7778501393665920
  0.7111340064862404  0.1613303196055540  0.4444165922095067
  0.6297810970704845  0.2123430584445742  0.1189560579746924
  0.5602752185338034  0.2507222588752569  0.7684080314101251
  0.4975779518064840  0.3013512822638020  0.4568224503612655
  0.4115269045722201  0.3247214233624121  0.1244178384706132
  0.3480897548155610  0.3799194955804097  0.7713761489535642
  0.2905724594317931  0.4084086624983172  0.4439044739958504
  0.2143406165588857  0.4350736052682720  0.1128955590626788
  0.0637974457017876  0.0408493757353199  0.4425693271231594
  0.0103345757946158  0.0795360077374880  0.1046912600958692
  0.9097938525973817  0.1341771786403712  0.7760910703489969
  0.8371164661322368  0.1549629773451215  0.4496289330021455
  0.7672020854523680  0.1846839031293754  0.1005670900120208
  0.6977538338966767  0.2298546002169957  0.7729151903921974
  0.6427562598989809  0.2923140703525817  0.4490682382296924
  0.5699951371868011  0.3441408239436541  0.1088703802409654
  0.4928251389912290  0.3808848865591514  0.7745602161031258
  0.4175727568274041  0.4177604165633610  0.4410759222988787
  0.3432484548468722  0.4542168233315635  0.1198772165627773
  0.2778450971011566  0.5077784303840716  0.7741535840196008
  0.1448010682243961  0.0804572456865031  0.0921810936937462
  0.0654625930873607  0.1411540891669247  0.7828792326799388
  0.9920003152073775  0.1726882017623126  0.4382269064692821
  0.9209827331703337  0.2039965463069606  0.1079109462210255
  0.8512849549852248  0.2463731136966061  0.7774462017792700
  0.7926112627664068  0.2821431823775882  0.4464136472836557
  0.7054309941704631  0.3321900192725664  0.1116156344180013
  0.6371596483887600  0.3812536352604496  0.7686638677115596
  0.5717351960576593  0.4210763697831936  0.4351246084489446
  0.4989163631553168  0.4592827335888146  0.1254091336628633
  0.4285834769223058  0.5118182997296685  0.7791173564048606
  0.3804801282555772  0.5464033661760084  0.4363142389406747
  0.2103509697425991  0.1299230830871352  0.7914586997131181
  0.1464317885659980  0.1596174604641973  0.4544213037285942
  0.0676293203094787  0.1948883702774324  0.1022649907956890
  0.9988277918770763  0.2590481367852888  0.7709355055350358
  0.9287779104198606  0.2928925327701748  0.4413872697507699
  0.8518623871951903  0.3336718536177585  0.1132956410297083
  0.7778794293871698  0.3752438679437162  0.7795850693210085
  0.7058586607277562  0.3993827545386353  0.4443874911976025
  0.6433107622450862  0.4649194557965330  0.1086014690665067
  0.5809439447066893  0.5054937770457713  0.7759779214339275
  0.5100761574417803  0.5443052248110547  0.4452128434633593
  0.4381384996996118  0.5830853770541253  0.1198281260118534
  0.2957640331427172  0.1702925907005337  0.4535967688688345
  0.2148585164306169  0.2017952206506237  0.1032237998736534
  0.1426053613212517  0.2567637941631062  0.7732658403544974
  0.0766160259946531  0.2961878760432555  0.4350437812612498
  0.9812484888505750  0.3209152097301740  0.0903151211051494
  0.9348301272838171  0.3752410034629889  0.7684952397988383
  0.8554995816925413  0.4100016124605048  0.4429686759155089
  0.7725654502473844  0.4430771860073861  0.1058239601848570
  0.7249666130072754  0.4986692996580047  0.7664735076679960
  0.6532524561889659  0.5428732036750361  0.4496352082347457
  0.5787063001247930  0.5869142936070730  0.1134045009408098
  0.5055008199450270  0.6288317644571393  0.7700988282337917
  0.3468060621319324  0.1961394585335796  0.1198193161413883
  0.2806925182112892  0.2504710453110661  0.7781317893945570
  0.2262045758998639  0.2778976445025876  0.4372394691616037
  0.1245841608897891  0.3294544468799643  0.1023565072083414
  0.0670179542672074  0.3836786378831363  0.7864650107213791
  0.9917079964897297  0.4087332210923975  0.4500334638314811
  0.9227404172985487  0.4474120101167145  0.1146108699147064
  0.8601153589825401  0.4941833258944612  0.7815904592191387
  0.7885914920735857  0.5377083555551891  0.4460150339302729
  0.7229019425890897  0.5828351381566321  0.1175601798746015
  0.6482204176929471  0.6268520915918074  0.7697196419716477
  0.5686803634166893  0.6740783499274272  0.4339547831836299
  0.4288329146546417  0.2568970846324916  0.7816068019047151
  0.3502823999829303  0.2929806792527714  0.4360166583265581
  0.2837349150731399  0.3295497304536568  0.1204375925242473
  0.2152131891687787  0.3783797213079438  0.7722535045432863
  0.1423554448209643  0.4185119989143615  0.4359567988479327
  0.0710257064490278  0.4539894297595950  0.1214488736326587
  0.9813237953541076  0.4978897950838643  0.7870022502439795
  0.9221543795655265  0.5388297909744182  0.4511491206658818
  0.8574279691771238  0.5906636220019905  0.1243318224530796
  0.7935121707065278  0.6210857513860191  0.7673273206065545
  0.7169395776711767  0.6637227834128154  0.4499529871547239
  0.6428120695682153  0.7236211219334621  0.1125963626565465
  0.1468736071440659  0.5043042780632803  0.7818114912338316
  0.0753788035264620  0.5324025777765868  0.4308509078640768
  0.9970056211243943  0.5707714719225194  0.0987659931935667
  0.9335859212624626  0.6188761616345104  0.7815041479391667
  0.8600600159479868  0.6538379526392220  0.4408186037981068
  0.7773495023613535  0.7192374730486790  0.1205667526339269
  0.7190625178225005  0.7584519595125130  0.7701444720938468
  0.2256766258781155  0.5464006150771041  0.4417272685280551
  0.1453939067899768  0.5861846015571572  0.1148877821579077
  0.0548516481023213  0.6185128031087288  0.7714993974744218
  0.9874937599980953  0.6515619582633718  0.4385319175529432
  0.9209242535544107  0.7133241336419474  0.1145642795845490
  0.8649664724834096  0.7617062520112796  0.7978940284076899
  0.7877788074174816  0.7857331063964281  0.4550615305191315
  0.2794495687624377  0.5854008646071236  0.1184521921651296
  0.2080408262962408  0.6376046001699862  0.7939272178081325
  0.1500338081283417  0.6504619062897703  0.4310758050090442
  0.0561729004109424  0.6899132096080365  0.1004600745854631
  0.0146322229398166  0.7529320695393125  0.7900706533134354
  0.9337303569985735  0.7703809037992713  0.4537964998720696
  0.8638371695892033  0.8409784833552010  0.1159200373153766
  0.3500115073369585  0.6347612144826797  0.7759385817892834
  0.3037460843099851  0.6733322377840310  0.4417375769006924
  0.2171085113469715  0.7093246275136167  0.1069656381540653
  0.1403233804352055  0.7603459212654542  0.7805624772156534
  0.0733798636844654  0.7802688374560276  0.4420911142760744
  0.0003366123432329  0.8345580618930555  0.1043688620395287
  0.9500924974078444  0.8714808828436063  0.7720826689551004
  0.4400206104910254  0.6577119206039654  0.4399862938450028
  0.3504286385756217  0.7079872127538351  0.1114251842559923
  0.2852177425069300  0.7699114820931285  0.7809330859227259
  0.2138332522140587  0.7907429104003612  0.4418009265444098
  0.1406493010579766  0.8366496156676106  0.1009926320246564
  0.0832947850981398  0.8802334524856334  0.7906925525483359
  0.9947615758298625  0.9050285225378261  0.4509720107508102
  0.9346868502117047  0.9546440779601326  0.0966114608924471
  0.8525970706888160  0.9981354397639493  0.7712293084201889
  0.7943387826078236  0.0305286889096337  0.4408775607337176
  0.6977712572386210  0.0807986255278408  0.1073997065489820
  0.6282566740024649  0.1184116604139902  0.7726353300531414
  0.5682363388777105  0.1655160772387489  0.4490418231097237
  0.4974427368855316  0.2024806457265456  0.1237116001458176
  0.0739387483011100  0.9632886814836610  0.1095802196806872
  0.1328345331404890  0.0064538239367877  0.7741242534094468
  0.2053368603668346  0.0315556557206520  0.4428460939994281
  0.2822596099611090  0.0621633866909406  0.1198348749323515
  0.3502816602781706  0.1254342635379615  0.7825926967831336
  0.4384945673840051  0.1654930216785644  0.4310807225778390
  0.8503083742202620  0.9084440945548167  0.4420114187767865
  0.7849559737823952  0.9665788343631618  0.1098110592087238
  0.6979048075809189  0.0005474880507919  0.7890815626266559
  0.6509620002223500  0.0400575478184706  0.4351351292112824
  0.5591992962366135  0.0667807638344726  0.1032445013030951
  0.4960152767916526  0.1215686170153276  0.7741272947937361
  0.1400737225099249  0.9200956723391727  0.4328728555546277
  0.2075636455997980  0.9559720383574373  0.0985755366915626
  0.2786671571429835  0.0062671624412332  0.7810949708020800
  0.3672362330608863  0.0499520594808374  0.4533460937729998
  0.4261932547281617  0.0617876987089687  0.1153013447573912
  0.7961666145880812  0.8844798257690556  0.7704318099995220
  0.7216729620413957  0.9198740258540496  0.4304418996424673
  0.6280932048307619  0.9553454677256497  0.1083724079059678
  0.5588654666256545  0.9979540214961773  0.7800174363340346
  0.5091271982093559  0.0395099566378505  0.4629540989174501
  0.2084444176781801  0.8760470758988035  0.7933255232190817
  0.2854997528156247  0.9070196810379940  0.4292009999071666
  0.3683229952056521  0.9488837283610678  0.1272166746293948
  0.4254713027756267  0.9966825560574648  0.7615880477582451
  0.7246756293921663  0.8648666545156374  0.1039716063499512
  0.6398934017308164  0.8736878789452192  0.7892437151442024
  0.5675084203182195  0.9083774848859250  0.4439244322877656
  0.4969771251153148  0.9430098704100587  0.1139020457792626
  0.2940486558179884  0.8260929722624155  0.1102865811824500
  0.3502321998130711  0.8743213382418986  0.7824710232972052
  0.4252328953409332  0.9258204191589172  0.4438708149832138
  0.6569332042859486  0.8081142494364357  0.4480742585040787
  0.5830813769040191  0.8352605947698422  0.1187235057433540
  0.4844707903914909  0.8667336059530371  0.7665372698639814
  0.3564877858318596  0.7993173935677333  0.4284912741344229
  0.4393011035267946  0.8414100660736779  0.1228128579547629
  0.5765871991695803  0.7572542588965590  0.7769526506823397
  0.5000449683904904  0.8080543826072386  0.4448661048226938
  0.4246781419555248  0.7316356902217080  0.7801543507056650
  0.4886737854184560  0.7164167194631830  0.1116433881818040
  0.9903605617140059  0.0004587387359720  0.2290155166753109
  0.9206486891525500  0.0371377002161140  0.8876686847462096
  0.8581968492157941  0.0778527058739158  0.5567455716294489
  0.7888614527968514  0.1285791616609231  0.2136458268140871
  0.7224162742131739  0.1517571423469661  0.8973021404262767
  0.6322131093417269  0.2070618272581797  0.5565667653139101
  0.5564572208190341  0.2495821820710447  0.2308078470975303
  0.4942651622819838  0.3011224418981016  0.8881387063248170
  0.4204334797867446  0.3432030134565025  0.5522965879526609
  0.3498180391871202  0.3733155181252954  0.2373202492522211
  0.2686646981027749  0.4102203760990122  0.8920166714593947
  0.2043811645480886  0.4627841855503902  0.5497739906394585
  0.0665300228795189  0.0368569724640864  0.8812971753075445
  0.0112821307165447  0.0924513172471748  0.5397467345649503
  0.9387309276106919  0.1275749958090273  0.2205125515973378
  0.8568385657417821  0.1745431441536951  0.8918142264871278
  0.7627507775778355  0.2040136056594193  0.5511232507851389
  0.7173975607827430  0.2495445592222865  0.2232508983540953
  0.6438729499926836  0.3021587598467121  0.8801306192133467
  0.5711342902417371  0.3449632937072451  0.5622461220765302
  0.4925446525269663  0.3632667178298874  0.2329400658000509
  0.4238738361700101  0.4257589885955682  0.8842902950586549
  0.3547765169013601  0.4727502907052923  0.5594942906116032
  0.2807085443224295  0.5098029440547691  0.2188913764799949
  0.1469008276851511  0.0920381425965928  0.5568988477066199
  0.0770389017617177  0.1176095584584331  0.2185433222911826
  0.9919447063985984  0.1699526837717613  0.8872764127424801
  0.9160706636223637  0.2090186189137171  0.5566015320135591
  0.8514610174083970  0.2439891373102796  0.2148568239814708
  0.7720758571647437  0.2802213909344502  0.8771857481529111
  0.7149076832058796  0.3330758388833246  0.5555237231144758
  0.6395025700775108  0.3844256791121481  0.2153412441326807
  0.5734229486429427  0.4114616638517390  0.8837080968478901
  0.5061784371742135  0.4699375831632722  0.5487583535043186
  0.4194457100060376  0.4971983850047224  0.2293122069735389
  0.3524122034587904  0.5386314571658630  0.8923279251699938
  0.2140203701471819  0.1191230965972281  0.2134745098394433
  0.1356027189817937  0.1590428790205749  0.8923730826621608
  0.0578543982523811  0.2182278496744061  0.5478693599552571
  0.9989945294584430  0.2315826663988858  0.2229803460276543
  0.9222113647881258  0.2900304775703617  0.8867224533048343
  0.8403237017099556  0.3365275569230093  0.5584552100008864
  0.7901267204567901  0.3705785014664684  0.2371093825075121
  0.7198193168309714  0.4129014198629974  0.9032290453105603
  0.6580336449734006  0.4766034722893266  0.5583952798766418
  0.5675897061162090  0.5029442670044162  0.2182786303807873
  0.5079663171100535  0.5366182907369819  0.8939123700018783
  0.4430048907120891  0.5800617191492705  0.5523402623397757
  0.2794763115051850  0.1525556132256440  0.9001055459071949
  0.2056527954695611  0.2159485861915726  0.5677828426255687
  0.1409684914681577  0.2321328882665554  0.2130821332258535
  0.0610094822001983  0.2895076057602495  0.8910378234810636
  0.9999996562621334  0.3210708882754929  0.5515881433109726
  0.9470552357273476  0.3632248221149297  0.2271583992428248
  0.8492384166950657  0.4225682569456097  0.8864532400750846
  0.7871145654724288  0.4634474026079403  0.5589918458657621
  0.7193132793668156  0.4948681515396629  0.2187613373758310
  0.6444791666865655  0.5552688188067236  0.8926574303563299
  0.5827261035879303  0.6009361140385465  0.5506899984376474
  0.4954084021294491  0.6229369214821148  0.2202924764684440
  0.3611791522655849  0.2238435610926359  0.5517419342859924
  0.2799492331036717  0.2515294339457057  0.2238738876146016
  0.1956478223603071  0.2816811664351704  0.8999401916941565
  0.1510584214320048  0.3446660837872955  0.5415431651499745
  0.0692965865242243  0.3650579611950135  0.2086093641668256
  0.9833431790764422  0.4177558348718549  0.8957985209706507
  0.9256919299155015  0.4471933391125518  0.5741659125851086
  0.8491078147396607  0.5084878524243592  0.2233875668246412
  0.7834811422112224  0.5473826623004996  0.8868364001530651
  0.7309352817605301  0.5920299865484964  0.5487146764000599
  0.6454168137049905  0.6191791359886807  0.2315082580648067
  0.5780818018601508  0.6666817609332085  0.8903021368034203
  0.4145148487397066  0.2363749885874000  0.2364634488192934
  0.3534342815234339  0.2943972643078681  0.8908718692331590
  0.2918009633628600  0.3278350341934342  0.5517819491396878
  0.1960983152934332  0.3795452933880057  0.2160588767800107
  0.1375558284940936  0.4237689887740572  0.8802424408059935
  0.0720547519214279  0.4340140857743577  0.5589854297947880
  0.0097869175313647  0.4970986595531315  0.2117056876512819
  0.9160280151962965  0.5431926841554784  0.8937990951927048
  0.8666353670253031  0.5850122930454305  0.5728543396106787
  0.7938476314675498  0.6442086008122274  0.2162529561340563
  0.7211349961017532  0.6677250643133235  0.8903177037458008
  0.6548834629088418  0.7272381043948428  0.5481666040969913
  0.1460632127040498  0.4865396271288773  0.2115193779563072
  0.0603224582569126  0.5371986651755947  0.8768485185931567
  0.0033035351081949  0.5724001812546931  0.5515829707839615
  0.9217249204422018  0.6297373754116080  0.2171228192128893
  0.8563256418990264  0.6775903597376001  0.8964598988771399
  0.7925823691405398  0.7117828562583810  0.5504357897024974
  0.7209287109610898  0.7584913955544934  0.2111860026582661
  0.2036545176233915  0.5397522222731226  0.9004761537085528
  0.1461641137738994  0.5769851470936871  0.5562621500268321
  0.0741373259751086  0.6257412511069660  0.2220414372759763
  0.9898613570521206  0.6687702979305925  0.8937104055103546
  0.9371744600524110  0.7010155463588674  0.5671752880733436
  0.8585536433540781  0.7652964774083983  0.2290397621597648
  0.7847677082676512  0.7889369113814055  0.9079708668352779
  0.2938901340105531  0.5924394773219674  0.5541609098792932
  0.2010835618240208  0.6380852061296451  0.2070359020109080
  0.1282937817611298  0.6579076196718461  0.8821415081480239
  0.0776455979604833  0.7044286405482652  0.5481403497410824
  0.0019768928693509  0.7497545841794278  0.2295119230325113
  0.9328733639403595  0.7854331052802550  0.9069354516451114
  0.8691356320592405  0.8279457865227897  0.5575931360539457
  0.3565227462928249  0.6322017402610101  0.2211758849382193
  0.2762976559244805  0.6683204181824109  0.9027697279011662
  0.2065395200022451  0.7113207667222952  0.5494767075520599
  0.1400231406155399  0.7539148106546634  0.2120313784272767
  0.0746866258202985  0.7961240762296811  0.9065604325685328
  0.0033434603394298  0.8239820903915174  0.5584799151346900
  0.9126805156832276  0.8842501383735595  0.2141824966432040
  0.4256319598394640  0.6511441164731195  0.8885706639555693
  0.3650622210309962  0.6947433024331389  0.5521616919624748
  0.2804047463590180  0.7452010416122619  0.2245988443102007
  0.2034445360324852  0.7934240831483450  0.8960473099191404
  0.1553017426360839  0.8278069340347116  0.5566532636236232
  0.0651469325736826  0.8813576478650660  0.2239159643239645
  0.0053617915574122  0.9167563906040570  0.8885538398835280
  0.9237095245030957  0.9683828676001554  0.5433303416123039
  0.8605863931249402  0.9888159785919797  0.2199107963255216
  0.8027656931767666  0.0475473338404768  0.8847099322753067
  0.7202672763671742  0.0794539524701818  0.5537727774368761
  0.6377585637240202  0.1155359326368881  0.2261524695397412
  0.5784647378087087  0.1752258831896256  0.8777966561075630
  0.4932677796894538  0.2012661506235247  0.5527502677514065
  0.0784098208091848  0.9608846070911667  0.5583136610957737
  0.1441333489991621  0.0001326373899175  0.2098826553694053
  0.2171664448816841  0.0397113535464300  0.8868499183726186
  0.2855959666984305  0.0844653564904476  0.5600322655731702
  0.3517976183163825  0.1196565243400585  0.2218122828270026
  0.4338292954644771  0.1773280611966399  0.8993361001356277
  0.8733907193312191  0.9125858609464430  0.8862052123783783
  0.7783163646923512  0.9509443431803533  0.5504989500521944
  0.7195639548654214  0.9918425437195211  0.2313380003215286
  0.6468231781543068  0.0372055764532888  0.8980568393785902
  0.5886796066964308  0.0810942336558469  0.5605028812995201
  0.5007397220356609  0.1225528819591162  0.2342761663885398
  0.1508355012929385  0.9121931540826296  0.8859995874477207
  0.2108067283460642  0.9558213379055829  0.5670170672559820
  0.2837331517155732  0.9897963904072284  0.2336378982023888
  0.3628281523892056  0.0397110547757222  0.8930687137290221
  0.4214985773669397  0.0779883622970203  0.5689582040616727
  0.7746326915058077  0.8707862827898012  0.2271788742440108
  0.7446225915911171  0.9120860276255485  0.8860864806483093
  0.6555908436797608  0.9649032899695413  0.5532924615241797
  0.5632553229477608  0.9967379723321130  0.2248649763042820
  0.4884297528827091  0.0377799959648826  0.8825446912764008
  0.2179324863484950  0.8729013502259022  0.1994201575487793
  0.3043591933120595  0.9159939156377845  0.8937413845181936
  0.3461765642566093  0.9631053916786456  0.5443328585887599