Li 
 1.0000000000000000
   -10.5278949999999991   18.2348490367503473   -0.0000000000000021
   -18.0478199999999980  -10.4199137352859115    0.0000000000000046
    -0.0000000000000002   -0.0000000000000000   22.0820499999999988
 Li 
 504
Cartesian
 -0.1776264800000000  0.1191611800000000 -0.0834972700000000
 -10.9117654099999992 16.3625500499999994 14.7865334599999994
 -10.5675110399999994 14.9556791300000000  7.5547031799999997
 -10.3907992999999994 13.2773170900000004  0.0396009000000000
 -10.6747659299999995 11.0895160300000004 14.8749686800000003
 -10.3213159500000007  9.6350701200000000  7.1352259800000004
 -10.7451778499999993  7.7602528800000004 -0.0023885900000000
 -10.2830984500000007  5.6423640600000002 14.5578298200000003
 -10.6027089300000004  4.2046815999999998  7.3510589299999998
 -10.3887198900000008  2.5926522099999998  0.0448188200000000
 -10.8651887800000004  0.6443214400000000 14.7258894599999994
 -10.4339010499999993 -1.0260712500000000  7.3042886500000002
 -1.9465943100000000  0.7587111800000000 14.6043738399999992
 -1.6023586800000000 -0.8243015800000000  7.3468190599999996
 -12.0508651199999992 15.8039319999999996  0.1116895600000000
 -11.9279092799999997 13.4712795100000005 14.6436984100000007
 -12.3471749200000005 12.2264696700000002  7.1485106099999998
 -12.0871440099999994 10.1340094000000001  0.1563022300000000
 -12.0734710799999991  8.4136921600000001 14.7396700400000000
 -12.0187792499999997  6.8462656199999996  7.5248359000000002
 -11.8635938900000006  5.0657049299999999 -0.1801807600000000
 -12.1933749799999998  3.3583099999999999 14.8592890900000008
 -12.2040550700000008  1.3195776200000000  7.7030993800000003
 -11.8586717700000008 -0.1756743300000000  0.0475747200000000
 -3.0549122600000000  1.9798911400000001  7.2753643600000002
 -2.7952566100000000  0.1312244000000000 -0.1727853200000000
 -3.1934189599999998 -2.1504278600000002 14.8074842400000009
 -13.7443916900000005 14.7045410800000003  7.4866470700000001
 -13.5820674599999993 12.9577568099999993 -0.0983256700000000
 -13.4290650300000003 11.0815704600000000 14.7645868199999999
 -13.5649125300000009  9.7085983700000007  7.5572904400000001
 -13.6142965000000000  7.4534992799999999 -0.1665961000000000
 -13.3347395599999992  5.8924022899999997 14.6524002600000003
 -13.3864232800000007  4.2679109899999998  7.4008585800000004
 -13.7086285700000001  2.6162601099999998  0.1699655600000000
 -13.8602516199999997  0.7250951100000000 14.6612884599999997
 -4.7801417900000001  2.4810736300000000 -0.0504394800000000
 -4.4875975099999996  0.7002342200000000 14.7747563300000007
 -4.3268421600000000 -0.4675447500000000  7.1003598600000002
 -4.5122884200000000 -2.8104284599999998 -0.2372024200000000
 -15.1816842300000001 13.9113121599999996 14.6949989900000002
 -15.0655653500000000 12.2996529399999996  7.4506419499999996
 -15.2596668399999995 10.1753021399999994 -0.0648009100000000
 -14.9089645799999992  8.6398611299999999 14.4713804100000001
 -15.3081850500000005  7.1591988100000004  7.4156868100000004
 -15.0318930900000005  4.9434931000000004 -0.0316739800000000
 -15.1905829600000004  3.4617472199999999 14.8895820400000005
 -15.1428635600000003  1.7328564900000001  7.4182199899999999
 -5.8452374300000001  3.4466032100000001 14.7435173299999995
 -5.8244029599999996  1.7702007799999999  7.4048841400000001
 -6.1339919700000003 -0.1807620300000000  0.1226769600000000
 -6.2432494900000002 -1.7268699400000000 14.6857173000000003
 -16.6786324999999991 15.3277974399999994  7.3357545899999996
 -16.7600964300000008 12.9767498600000000 -0.1214484300000000
 -16.5234929900000012 11.2554211899999999 15.0322698500000005
 -16.6451046100000006  9.5563258999999992  7.4992871900000004
 -16.5624668899999996  7.6164064700000003 -0.0450499100000000
 -16.5555230299999998  6.2077612599999998 14.2786976400000007
 -16.3602417399999993  4.3358071200000001  7.2172829299999997
 -16.4982911399999992  2.7423323000000002  0.1273536000000000
 -7.3470260800000000  4.3041240199999997  7.4503836600000000
 -7.7065063900000004  2.5390080700000000  0.0093362300000000
 -7.6181528800000002  0.9315942200000000 14.6160368100000007
 -7.5680592600000001 -0.6562927600000000  7.1681353100000003
 -7.5396828899999999 -2.9048172100000000 -0.1055418900000000
 -18.0841357400000007 13.8729295199999996 14.7532543399999998
 -17.9386014399999993 12.1395311899999996  7.0379906700000001
 -18.0067816699999987 10.5605722699999998  0.0066525200000000
 -18.3459588499999988  8.6516130499999999 14.7477940299999997
 -18.2438409099999994  6.9790043300000004  7.2269291700000000
 -18.1814256400000005  4.8514771500000000 -0.0136559000000000
 -18.3749402000000011  3.6177187399999999 14.5483904000000006
 -9.0829123700000007  5.2730838300000000 -0.0050921300000000
 -9.1958733299999995  3.4028236500000002 14.6859565799999991
 -9.2797842599999996  1.6151613100000000  7.4423342699999999
 -8.8196209099999994 -0.1385822600000000  0.0140734900000000
 -9.2344110799999992 -1.6428770900000000 14.5430816000000007
 -8.9053062300000008 -3.3925294199999998  7.3660842200000003
 -19.5173231200000004 13.1938186500000008 -0.0125270700000000
 -19.6812891900000011 11.7169120499999995 14.8067679299999995
 -19.2781658299999989  9.7748932699999997  7.5489835000000003
 -19.8388724200000013  7.5285620800000004 -0.0546718000000000
 -19.8799852399999999  6.1647523800000004 14.5934688900000005
 -19.8319160799999992  4.4077366199999997  7.2852979199999996
 -10.5390962500000001 -2.7374793300000002 -0.1545993900000000
 -10.2053224700000005 -3.9454480900000002 14.6504803799999994
 -20.9759322899999994 12.3064401300000004  7.0834249900000001
 -21.3310556899999995 10.4614654300000005 -0.0777804900000000
 -21.1694180500000009  8.7930383400000007 14.8315642800000003
 -21.0311839499999991  6.7749663900000003  7.3135429299999997
 -21.3038510899999984  4.9327597599999997  0.1538157900000000
 -12.2779682200000000 -1.6907759300000000 14.9239204799999996
 -11.8971195699999992 -3.4155401400000001  7.0651284700000003
 -12.1451481599999997 -5.2092802699999998 -0.3381085900000000
 -22.7234196299999986 11.4653283199999994 14.4744502100000005
 -22.3825727100000016  9.5804568299999993  7.3465082900000001
 -22.9712677300000010  7.8988276099999997  0.0606583200000000
 -22.9974746500000009  6.3401183300000001 14.7313114499999998
 -13.9305024100000008 -1.0795862800000000  7.3656163000000001
 -13.5232433899999993 -2.8527557400000001  0.1930164800000000
 -13.5738451199999997 -4.3646393799999998 14.8019036300000000
 -13.3974260899999997 -5.8490333500000000  7.2745904200000000
 -24.2244121800000016 10.4246168099999998  0.1306688700000000
 -24.2875362499999987  8.9215196700000003 14.8919878699999995
 -24.1764423099999988  6.9594793599999996  7.6339478300000003
 -14.9263268000000000  0.2246446800000000 -0.2493213600000000
 -15.2113998699999993 -1.9041095900000000 14.7348476399999999
 -14.6857364100000005 -3.5623036600000000  7.4656474700000004
 -15.0139536699999994 -5.1358141100000001  0.1871552700000000
 -15.3415794499999993 -6.7943562499999999 14.9892460700000001
 -25.6308016599999995  9.2916623600000001  7.3860330100000002
 -25.5923138200000011  7.9863107299999996 -0.0655143900000000
 -16.7918891600000002  0.9915310500000000 14.3360446499999998
 -16.6078001099999994 -0.6931559600000000  7.3332948499999997
 -16.4639609900000004 -2.7951309700000002  0.0154529600000000
 -16.5674117500000015 -4.3036631700000001 14.5749733900000003
 -16.4339063299999992 -5.8926313800000001  7.1057479700000004
 -16.8668074399999988 -7.8342792299999999  0.0401084600000000
 -27.4148680599999999  8.8386529100000004 14.8449221999999992
 -27.0610700999999985  6.9596678000000001  7.4369189400000000
 -9.2562087700000006 15.9416097600000004 -0.1120375500000000
 -9.0888755700000008 14.1017349500000009 14.7320633099999991
 -9.1487678300000006 12.2109759699999998  7.3590678499999997
 -8.8835628199999999 10.4249735900000005  0.2896205200000000
 -8.8664517200000006  8.4933021199999992 14.3231355600000008
 -9.0379557100000003  6.9336281099999999  7.5425251400000004
 -18.0365600199999996 -8.5391657399999996  7.5337903800000001
 -1.4652490199999999  2.5002165700000001 -0.1775075000000000
 -2.9804306600000001  3.5161906799999998 14.5750718199999998
 -4.1360045599999999  4.5607564399999996  7.5996991100000004
 -6.0396830899999996  5.0754097099999997  0.2719224000000000
 -7.0255605299999999  5.7015092999999997 15.2448877500000002
 -25.8771647999999992  6.1974323900000003 14.4574987700000008
 -25.6599842900000006  4.4057905999999996  7.2192247299999996
 -7.5759245499999999 13.0263662500000006 -0.2122091800000000
 -7.6663384099999998 11.4318315599999991 14.8884997800000001
 -7.5709895999999999  9.3195891000000000  7.5670168899999997
 -7.6863475499999998  7.9044314399999998 -0.2741897200000000
 -18.0948970100000004 -7.1100927900000004 14.7363473299999992
 -19.1491050600000001 -5.7506935700000001  7.0283732399999996
 -3.0143368399999999  5.1986610400000002  0.1209116500000000
 -4.2671751000000002  6.0602582500000004 14.9510361599999992
 -5.8679804500000001  7.0982243199999999  7.3084803999999997
 -24.2804204800000001  5.4997862299999998  0.0484722900000000
 -24.1796760999999982  3.6041887400000001 14.9092193200000001
 -24.1916068099999997  1.4847210200000001  7.3178701899999998
 -5.9475995700000004 10.1437813699999992 -0.1137431900000000
 -5.8204653200000003  8.7188186299999995 14.6392730699999998
 -18.1921604600000002 -5.0294597899999998  0.0896947300000000
 -19.3100830700000010 -4.2246068699999997 14.8006592700000006
 -20.9697471799999988 -3.2042682899999999  7.2511216300000001
 -4.5966940599999999  7.6896735200000004  0.1412917000000000
 -22.6429470500000001  4.5638980199999999  7.3413370899999997
 -22.3167618700000006  2.4725872600000001 -0.1276629900000000
 -22.7150291099999997  0.9577038800000000 14.8919948299999998
 -22.7066476699999988 -0.6631826199999999  7.6430323500000004
 -18.0167806699999993 -3.2147016000000002  6.9797454600000002
 -19.6505695799999991 -2.6145615400000000  0.3215886200000000
 -20.9536609100000000 -1.6320091299999999 14.5466486499999998
 -21.1055560900000003  3.6507298100000001 14.7667957800000007
 -21.1837145800000002  2.1271719899999999  7.4767661099999998
 -21.1849459300000014  0.0638161800000000  0.1356529000000000
 -18.0920916399999996 -1.5145088799999999 14.6636211500000009
 -20.1451637099999985 -0.6179744300000000  7.5359957199999998
 -19.3595234100000013  2.4312532299999998  0.2611542200000000
 -19.4527594800000010  1.3042551300000000 14.4074655699999994
 -17.8228312500000001  0.0957079900000000  0.4149704200000000
 -18.0076836699999987  1.7349419900000000  7.4633826900000004
 -0.2106036500000000 -0.0292407200000000 17.3367841799999987
 -10.4701937800000007 16.7508317499999997  9.8826352800000006
 -10.4107961800000002 14.8858757100000005  2.4932674100000001
 -10.2279543600000000 12.8876750100000006 17.1765256700000002
 -10.3984047200000003 11.2863732399999996  9.8136294100000008
 -10.4625985600000000  9.2713668800000004  2.6267936199999999
 -10.4235088699999991  7.6040297199999998 16.9680245700000008
 -10.6771821300000003  5.9332044699999997 10.0875761900000001
 -10.1930258400000007  4.1205617600000002  2.7474009300000000
 -10.5213710599999999  2.3886357600000001 17.0335666900000007
 -10.4300023700000004  1.0429619000000001  9.8023207899999996
 -10.1086856199999993 -0.6249606500000000  2.4929653799999998
 -1.4088949900000001  0.7376898200000001  9.7728380099999992
 -1.5442528799999999 -0.6403089100000000  2.3117976400000000
 -11.9998197199999996 15.1918389299999994 17.1376818200000010
 -11.6098181799999995 13.6499915299999994  9.9287285799999996
 -11.4101648400000002 12.0654238700000001  2.2207275100000001
 -11.4942535499999998 10.3283707200000006 17.0675518799999999
 -12.0425021399999999  8.6746759699999991  9.9163472899999991
 -12.2118406000000004  6.8078575800000003  2.4040811799999999
 -12.0625531899999991  5.0178043499999996 17.1038774199999999
 -11.9358269400000001  3.2613486800000002  9.7398605699999994
 -11.8113071600000001  1.5261836400000000  2.6471346900000001
 -12.0894177200000001 -0.2245440400000000 17.0948981499999988
 -2.9765283299999998  1.8020680600000001  2.0355475200000002
 -3.2367069000000002 -0.2771129300000000 17.2875783600000013
 -3.0324257399999999 -1.9452692100000000  9.6769484600000002
 -13.3777024600000001 14.6683546899999993  2.3828949100000001
 -13.4087362300000006 12.9558660499999991 17.1676059000000016
 -13.4365975199999994 11.5132390999999998  9.8577284800000005
 -13.4220091099999994  9.4020363400000004  2.4647020199999998
 -13.5887468600000005  7.6458800099999999 16.9736739599999993
 -13.6186786400000006  6.0379255399999998  9.6084433600000008
 -13.5415911900000001  4.3119781000000001  2.7692907600000001
 -13.7492863900000000  2.4820524700000002 17.2045084199999998
 -13.8670444400000008  1.2445217600000000  9.6347128400000006
 -4.5593813399999998  2.4819308599999998 17.4770305800000010
 -4.4223656900000003  1.0069613900000001 10.0345539499999994
 -4.2293046099999998 -0.7975095600000000  2.2582206399999998
 -15.1908082600000007 15.5142147599999998 17.0238363799999988
 -15.0641480300000001 13.8842100599999991  9.7467357600000000
 -14.9903673200000007 12.0567501000000004  2.5018000100000002
 -14.9617667399999998 10.2745052300000008 17.2148364799999989
 -14.6391939299999994  8.7096922699999997  9.8129867999999991
 -15.1634908100000008  6.8862540100000000  2.3981430700000002
 -15.2391775500000008  5.3262235799999997 17.1351832600000016
 -15.1935509500000006  3.6295482400000001  9.8312122700000000
 -15.1360960500000008  1.9136900699999999  2.6460506700000002
 -6.1871827100000001  3.6187783900000001 10.0163465299999999
 -5.9039717200000004  1.8152238199999999  2.2793931100000000
 -6.1353610099999996 -0.0750693500000000 17.0752949500000000
 -6.1521509500000002 -1.6891704500000000  9.6066585300000007
 -16.1223010000000002 14.5490092600000001  1.9943430200000001
 -16.6140755099999993 13.1365073599999995 16.9699503100000015
 -16.4062450700000007 11.3277242900000008  9.7816564499999998
 -16.1300652400000004  9.4707883000000006  2.3368099800000000
 -16.6322661399999987  8.0235656599999992 16.9253063200000007
 -16.6750511299999999  6.2552679700000002  9.9288671500000003
 -16.6850826900000015  4.4370257100000003  2.5042038600000001
 -16.6709020499999987  2.6653584000000001 17.0053608300000008
 -7.1910274500000000  4.2801999500000001  2.6458561299999999
 -7.4755577000000004  2.5084990100000000 17.1827450800000001
 -7.3969046900000004  1.2291368100000000  9.6551438199999993
 -7.2575435199999996 -1.1611135500000000  2.2602415100000002
 -7.6301209800000001 -2.7758360299999998 17.3667596899999985
 -17.8173412599999992 13.8246807000000000  9.9376614500000002
 -17.7893256499999985 12.1640376600000000  2.5308429600000002
 -17.9741359000000003 10.5347261000000003 17.2591195999999982
 -18.0066720400000015  8.7769721300000008  9.8489262800000006
 -18.1295394099999996  7.1089159300000002  2.5959697700000000
 -18.1377102100000016  5.2884567400000000 16.9969876199999987
 -18.1526518800000005  3.3459623199999999  9.5826112200000004
 -9.1511402400000001  5.1428580000000004 17.2594804800000006
 -8.9753988899999992  3.3345132799999999  9.6281416499999999
 -8.9347856100000005  1.7399835800000001  2.6595089399999998
 -9.0946709600000002 -0.0183040400000000 17.0529404999999983
 -9.0519324000000001 -1.7650288800000000  9.6268198300000005
 -8.9412706899999996 -3.4353876600000000  2.6818401000000001
 -19.3170992800000008 12.7063225499999994 17.3786230400000008
 -19.4330475599999986 11.2007859599999993  9.9622974400000004
 -19.6871023600000008  9.4804055900000002  2.7455015199999999
 -19.5632566600000004  7.9979146900000000 16.9441602600000003
 -19.5266139199999991  6.1573508199999996  9.9358843599999993
 -19.8272417300000008  4.1815113799999999  2.4863585100000001
 -10.6478627499999998 -2.5765890200000001 17.2640004400000002
 -10.4022860200000000 -4.1730678299999999  9.5140712900000004
 -20.7975512800000004 12.2328574900000007  2.1809555999999999
 -20.9980601200000017 10.5751621199999999 17.2572136699999987
 -20.8549712199999995  8.8701294900000001  9.7341784499999999
 -21.1645223899999984  6.6804584000000000  2.6623610599999998
 -21.2586191299999996  5.2089924700000001 17.0063687399999992
 -12.2372397700000004 -1.5782680700000000  9.7542436299999995
 -12.1100459600000008 -3.4567570399999998  2.5369577500000000
 -11.7402801300000004 -5.4446385299999998 17.0362882700000000
 -22.1555035599999997 11.2175802400000002  9.6836837300000003
 -22.5693394100000013  9.3601387999999996  2.5298141500000000
 -22.8534135300000010  7.8356196100000002 17.6191358300000012
 -22.4744222399999991  6.1777564399999996 10.0486914699999996
 -13.5072251500000000 -1.0041058100000000  2.6156672300000001
 -13.6976050300000001 -2.8501918700000002 17.5315405200000001
 -13.3189595799999996 -4.0419131100000003  9.5190374799999997
 -13.0428118200000007 -6.1645317700000000  2.2183643900000001
 -24.2707239699999988 10.6561781999999994 17.4463796699999989
 -23.7339110399999988  8.9991295400000002 10.0207569999999997
 -24.2722153100000000  6.9890171299999997  2.5597520600000001
 -15.1409405400000008 -0.2317501000000000 17.1343145600000000
 -15.3499859099999991 -1.4772998399999999  9.7544712600000008
 -15.0874588099999993 -3.4321605000000002  2.3620205699999999
 -15.1998961399999999 -5.3639632500000003 17.2364196499999984
 -14.8546870299999991 -6.7922632399999996  9.7622780900000006
 -25.5933925000000002  9.5449640999999996  2.3046784300000001
 -25.7308041600000017  8.2440376400000002 17.0491680999999993
 -16.5027571399999999  1.1704079300000001  9.7157993400000002
 -16.4669016900000003 -0.9871523600000000  2.4604964900000001
 -16.8979662899999994 -2.8215087500000000 17.2446034499999996
 -16.5223997400000009 -4.3402558400000002  9.7558701499999998
 -16.5804427399999987 -6.1530980499999997  2.2301243500000001
 -16.7632136600000017 -7.6530888099999999 17.4601124799999994
 -26.8065372900000014  8.7090080299999997  9.9583864900000005
 -27.0695295000000016  7.0965646700000002  2.1333791099999999
 -8.9424011900000000 15.5664074299999999 17.0303241499999984
 -8.9136915800000001 14.1665414799999994  9.7354803400000005
 -8.8043015800000006 11.8818388299999995  2.3716056900000000
 -8.7512926300000000 10.2223263200000005 17.0613719900000014
 -8.9695368799999997  8.6370406099999997  9.9157639900000003
 -8.8913591499999995  6.9609623500000000  2.7318057400000000
 -18.1636801100000014 -8.6891230499999992  2.4197558899999998
 -1.5149454700000000  2.3549693700000001 17.0942504699999986
 -2.7312756999999999  3.4154794399999999  9.7789495899999999
 -4.0935131499999997  4.4992242500000001  2.6461996999999999
 -5.9515435500000002  5.0803189900000003 17.2812510599999989
 -7.6032130300000000  6.2714592299999996  9.5191460699999997
 -25.3473927799999998  6.0393357400000003  9.7605182500000005
 -25.7085748900000013  4.2418856099999998  2.4248533000000001
 -7.3573494999999998 12.7204840299999997 17.4245385199999987
 -7.5762109999999998 11.4527976099999993  9.6086756799999993
 -7.0924386799999999  9.5010649500000000  2.2798502400000000
 -7.4160452699999997  7.7780291899999998 17.0943176299999990
 -18.0804025199999998 -7.0330943499999998  9.5587200400000008
 -19.4384195400000017 -6.1762544300000002  2.1767499300000002
 -3.0468871900000001  5.0161502499999999 17.2481782000000017
 -4.7677502799999996  6.1760011199999996 10.0108111100000006
 -5.6020510999999997  7.1277471700000001  2.5460900600000000
 -24.3448912100000001  5.3017745400000003 17.0127137499999996
 -24.1994180099999987  3.5745895200000000  9.5050395499999993
 -23.8544023500000009  1.4985674099999999  2.3930849300000001
 -23.8945715000000014 -0.2077674000000000 17.2243840299999995
 -6.0731062700000003  8.8721672599999994 10.2229755600000001
 -18.0052208799999995 -5.3273824699999999 17.5182538699999988
 -19.3754393600000014 -4.2450219400000000  9.4776379399999993
 -21.0029485499999993 -3.1709723799999998  2.8092049700000001
 -22.4672645700000011 -2.6269412800000000 16.8174253500000006
 -23.2382666399999991  4.2025147699999996  2.2959062100000001
 -22.5048921200000009  2.5646072499999999 17.4281191799999995
 -22.3689023999999996  0.8832153400000000  9.8027615099999998
 -22.2513953899999990 -0.7637786500000000  2.5151906700000000
 -18.0048906399999993 -3.2458846600000002  2.4353538000000001
 -19.4668019600000015 -2.7239216300000000 17.2785642599999996
 -21.1858475499999983 -1.8929112500000000  9.8015775299999994
 -21.5008243099999987  3.5585970400000000  9.8943981799999996
 -21.2132523800000001  1.9290575400000001  2.6216583899999999
 -20.7431097199999996 -0.1970376800000000 16.9267143199999985
 -18.1790024199999998 -1.8283173300000000  9.4619657400000001
 -19.8105333100000003 -0.7568310000000000  2.7119596700000002
 -19.7370380499999989  2.6234564800000002 17.1567072799999991
 -19.8480409699999996  0.6983875500000000  9.8235555699999999
 -17.6753961299999993  0.1203610300000000 17.2274073799999989
 -18.0744663000000010  1.4458922900000000  2.4653148800000002
  0.0932037600000000 -0.1805537200000000  5.0571320899999996
 -10.3627472600000008 16.4009182299999985 19.6015442799999988
 -10.4400779400000001 14.8378715099999994 12.2940835499999999
 -10.6256241100000004 13.0449857300000005  4.7177378299999999
 -10.3444082700000006 11.5918553699999993 19.8142707300000005
 -10.3928878200000003  9.3707442299999997 12.2901351400000003
 -10.3627374900000007  7.5462886100000004  5.0967104200000000
 -10.6381753600000000  5.8751807500000002 19.6119233199999989
 -10.6203457399999994  4.0903952400000003 12.1958408699999996
 -10.4203788599999996  2.4889636400000001  5.2405176100000004
 -10.2320572399999996  0.6245992800000000 19.6975567399999996
 -10.5039491199999997 -1.0953116100000000 12.1401367499999999
 -1.3656090999999999  0.8291184500000000 19.4608482900000013
 -1.7873218200000001 -0.7576068000000000 11.9187143800000008
 -12.1853111999999992 15.7882963000000007  4.8693691899999996
 -12.1708297000000005 13.8055973900000009 19.6930863400000007
 -11.7121609299999996 11.7828411099999997 12.1699311800000007
 -12.0564214799999991 10.4814034399999993  4.9298374999999997
 -12.2319337200000007  8.5924578300000007 19.4350883400000001
 -12.2386772700000002  6.8200598000000001 12.4155469800000002
 -11.7416307199999999  5.1962695200000004  5.1437941800000004
 -12.1465208300000000  3.2929034800000001 19.5269425100000014
 -12.2671620699999995  1.5432789800000000 12.3547808999999997
 -12.1561018500000007 -0.1934247700000000  4.8335703199999998
 -3.2076443200000000  1.7196849100000000 12.2974682000000008
 -2.9336536099999999  0.1793112900000000  4.8258845700000004
 -13.5103651599999992 16.3170696699999986 19.5928821100000015
 -13.4166261700000007 14.5264542799999994 12.2909028599999992
 -13.3675642200000002 12.9839173500000005  4.7444791300000002
 -13.1857187800000002 11.1588039800000001 19.3700595500000006
 -13.5377658099999998  9.5656121699999996 12.2671026300000001
 -13.6706613699999995  7.6555504100000000  4.7551761199999998
 -13.4629226400000004  6.1688858599999996 19.5140863799999984
 -13.8103423500000009  4.3333783099999996 12.1177094000000007
 -13.3892273500000005  2.4677649200000000  5.0636836199999999
 -13.4312822599999997  0.8136900100000000 19.7044298600000012
 -4.4030961900000003  2.6613767500000001  4.7139547999999998
 -4.2979884400000001  0.8154820300000000 19.7054270299999992
 -4.5476219799999997 -1.2189491500000000 12.0980785999999991
 -4.1689767900000003 -2.4314060099999999  4.9238631499999999
 -14.9433622699999997 13.7942924599999994 19.5806495500000004
 -14.9204284699999992 11.8165877300000002 12.3318358700000008
 -15.0065052399999992 10.5464454500000002  5.2358612400000002
 -15.0301526899999995  8.8233993999999996 19.9451489399999993
 -15.5293627999999995  7.0329771100000000 12.3305124900000003
 -15.0525724299999997  5.1092767300000004  4.8200396300000001
 -15.0326063699999999  3.6711728099999998 19.7394176500000000
 -15.1327584700000006  2.0339342299999998 12.1968052900000004
 -5.6955935100000001  3.5065920199999998 19.8761756699999985
 -6.0624922500000000  1.4998820399999999 12.5378091200000004
 -5.6735940600000001  0.1517344900000000  4.7052903199999996
 -5.8672825800000004 -1.9041455800000000 19.6759417700000014
 -16.3225209800000002 14.8893118100000006 12.1801969600000000
 -16.5259142899999993 13.4846379400000007  5.0161231300000004
 -16.5671287199999995 11.0826095400000000 19.5747047700000003
 -16.6508748000000004  9.5238333199999996 12.3436858899999997
 -16.5041459999999987  7.9600856100000001  4.8306987899999996
 -16.8064006900000003  5.9661271200000003 19.7117060100000003
 -16.9804660500000004  4.3642200600000001 12.1603640800000008
 -16.4582610699999989  2.5427484400000000  4.8645094799999997
 -7.8423444900000003  4.2536167200000001 12.1835929800000002
 -7.4868340800000004  2.4839169999999999  4.9435943800000004
 -7.1434907200000000  0.6325150500000000 19.8725243099999993
 -7.8107986399999998 -0.8368633500000000 11.9583832500000007
 -7.3180475600000001 -2.5402596700000002  4.6065224100000002
 -17.8921158499999997 13.5781346599999999 19.7810677300000002
 -17.8164523300000006 12.2201365800000001 12.6787603900000008
 -18.1164151500000017 10.1849532600000003  4.9328554200000001
 -18.1274709600000001  8.5829802300000004 19.5831657300000010
 -18.3800605300000015  7.1595931300000002 12.1167449200000004
 -17.9697140399999995  5.3172849800000002  5.1121769300000004
 -18.1181369299999986  3.5944679499999999 19.6596963000000002
 -8.6300220499999991  5.0956086999999997  5.2215977000000002
 -9.0341478399999993  3.3772266700000002 19.6722771600000002
 -8.9887575900000005  1.9049337399999999 12.1844765899999992
 -8.9144676100000009 -0.3790060400000000  4.7710229200000001
 -9.0962797500000008 -1.9073265399999999 19.4375575900000008
 -8.5915929599999998 -3.2084818099999999 12.3435442099999992
 -19.6024777700000001 13.2335868500000000  4.6748955800000003
 -19.4472905500000017 11.0436116599999998 19.7369163100000016
 -19.6820427100000011  9.7071874600000001 12.6497981700000004
 -19.9841053799999990  7.7630936699999999  4.7753085899999999
 -19.6430152900000010  6.1921502200000003 19.6600400499999992
 -20.0196067400000004  4.3639427700000004 12.1046423599999997
 -10.3187177800000001 -2.4062603100000000  4.6707814799999996
 -10.3303333199999994 -4.4975928300000003 19.3626128299999998
 -20.8932497099999992 12.3307279899999997 12.1800827399999996
 -21.0692099800000001 10.2457056499999997  4.7945169500000002
 -21.2443352899999987  8.5545357099999997 19.7956723100000005
 -21.1903528299999984  7.0359038900000002 12.1547506300000006
 -21.2789779500000016  5.2426113000000001  4.6634198700000002
 -11.8854043300000001 -1.9105622099999999 19.8843594500000016
 -11.9521245199999999 -3.3468549099999998 12.2834086100000004
 -12.0737754499999994 -5.1682869100000000  4.9031301200000001
 -22.4910023899999985 11.0814436000000001 19.7349578600000015
 -22.5182767099999985  9.7847132800000001 12.5243930700000003
 -22.8506956800000012  7.6812728000000003  5.0576674800000001
 -22.5005434000000015  6.0894661299999999 20.0498580799999999
 -13.7862855199999998 -0.8141260200000000 12.2370089199999992
 -13.6330335700000003 -2.9820644100000000  4.5717771400000000
 -13.2244617600000005 -4.5159228999999996 19.4794928899999995
 -13.5308460099999994 -5.9242299100000002 12.1040626099999997
 -24.0801432999999996 10.4585192899999999  5.0680937600000000
 -23.9965481300000008  8.8266597600000001 20.0269939900000011
 -24.0927852000000016  7.2214333699999997 12.3127995099999996
 -15.1632972499999994 -0.0863491400000000  4.8840169500000004
 -14.9705593199999996 -1.9255950600000000 19.9350062699999988
 -15.0122155399999997 -3.6456840599999998 12.1335721299999992
 -15.0806677199999992 -5.3024264600000004  4.6820874999999997
 -15.1545969800000009 -6.9336448500000003 20.0187127999999994
 -25.4341750500000003  9.7099942299999995 12.3323814100000000
 -25.5673919699999992  7.4287812600000001  4.7295885999999996
 -16.2327403900000000  0.9764690100000000 19.6214618300000012
 -16.3819388000000004 -0.5823107900000000 12.1928620900000002
 -16.4013259900000001 -2.6517923500000000  4.9596029100000001
 -16.4614177499999990 -4.5576300999999999 19.7865615000000012
 -16.5751109800000016 -5.7937730099999998 12.2920452000000004
 -16.5924442499999998 -7.9957261800000001  4.9445235199999997
 -27.1297977000000010  8.7800979899999998 19.6210903200000004
 -27.2019165700000016  6.7532377900000000 11.9978477699999999
 -8.8583159800000004 15.8091995000000001  4.8560812000000002
 -9.3095586499999996 14.1428721100000008 19.5362089599999997
 -9.0168688899999996 12.3060617200000006 12.2284381599999996
 -8.7994269099999993 10.4255566799999997  4.9939101399999997
 -9.2524612200000007  8.7223785800000009 19.3835496499999991
 -8.8254866500000002  6.8974875700000000 12.2058590500000008
 -18.1673627899999985 -8.5825434699999992 12.3287101799999999
 -1.5198145800000000  2.6268677899999999  4.6346392900000000
 -3.0030088899999998  3.5462084599999999 19.5834642400000014
 -4.5311399000000003  4.3276776100000003 12.3666604899999992
 -5.8632277999999998  5.1681657999999997  4.8980699200000002
 -7.7676942000000002  6.0630686100000002 19.8591847299999991
 -25.6651511399999990  6.4170819699999999 19.5692278100000010
 -25.3565052999999985  4.2837233899999996 12.1561453400000001
 -7.4282694600000001 13.2061400800000008  5.1084172900000002
 -7.4811660499999997 11.4070441099999993 19.8309360300000002
 -7.6611312199999997  9.8894888400000003 12.3770526499999995
 -7.4835475699999998  7.8539227800000004  5.1732980199999998
 -18.0510781700000003 -6.7545113800000003 19.5646871900000008
 -19.4698425600000000 -6.1155470200000002 12.5208992299999995
 -2.8029599200000002  5.2801519199999998  5.1592037499999996
 -4.5365146599999999  6.2023308200000002 19.7207879900000016
 -5.8450126899999999  6.8733309199999999 12.5637635099999994
 -23.8710457299999987  5.0517922400000002  5.0165752599999998
 -24.3004729099999999  4.0742228200000001 19.5666059700000012