Li 
 1.0000000000000000
   -11.0705700000000018   19.1747897087477881    0.0000000000000013
   -18.9781199999999970  -10.9570226907130195    0.0000000000000076
     0.0000000000000001    0.0000000000000001   23.2203000000000017
 Li 
 504
Cartesian
  0.6846490700000000  0.4900585000000000 -0.6455124100000000
 -10.9284059700000000 17.0268841900000005 15.1378610299999998
 -10.6718648599999995 15.8694598399999993  7.6321998300000002
 -11.0236323299999999 13.8034823099999997  0.3148167700000000
 -10.7315048599999994 11.6360974800000001 15.3939078600000006
 -11.5127068399999999 10.3688099900000008  7.8916581499999996
 -11.5382050700000001  8.8063171199999992  0.4858912800000000
 -11.0214494599999995  5.9433610899999998 14.7664139799999994
 -11.2364526599999994  4.4567338200000002  7.7628773100000004
 -10.4052620299999994  3.2990037399999999  0.4351184300000000
 -11.3145231699999993  0.9149425100000000 15.9076552200000005
 -11.1625509899999997 -1.3962400900000000  8.1151085500000004
 -2.1417014700000001  0.3158297100000000 15.2402669799999995
 -1.6412442400000000 -1.0958315400000000  7.1603239299999997
 -12.2254100500000007 16.5491681499999999 -0.1571914100000000
 -12.5740614399999995 14.4655121500000003 15.3911167300000002
 -12.9470227100000006 12.7656468600000004  7.8605049600000001
 -12.9515003600000007 11.0999912500000004  0.6221583500000000
 -12.2288710799999993  9.1374148900000005 15.4072042000000007
 -12.9484815300000005  6.8933218600000004  8.0658664800000004
 -12.5676979099999997  5.7177769400000003  0.2561421200000000
 -12.9631462000000006  3.3504726300000001 15.1902598799999993
 -12.1388933100000003  1.6569832200000001  7.5363409800000003
 -12.4550333500000008  0.8148957400000000  0.1614342800000000
 -2.8395687800000000  1.9698221899999999  7.9282599400000002
 -2.4807913500000001 -0.1347918700000000 -0.2296555000000000
 -3.3172355100000002 -1.9816716800000000 15.2279026099999992
 -13.9964362300000005 15.7666740799999996  7.4823279800000000
 -14.1228183099999995 13.7860826500000009  0.1668515000000000
 -13.8803316100000007 11.7885695300000002 15.7817191399999999
 -14.9192127499999998  9.4250411700000001  8.4882477400000003
 -14.8090082299999999  8.2478830900000002 -0.1459016500000000
 -13.7460031100000002  6.6215746500000003 15.4761963700000003
 -14.5770704299999991  4.3665227599999996  7.4597813100000003
 -14.0106359900000008  2.9848276299999998  0.7423832000000000
 -14.4578923600000007  0.8264499700000000 15.8721036299999998
 -4.4424017999999998  3.3488825300000000 -0.1432428700000000
 -4.8246863199999996  0.7336750100000000 15.1847022700000007
 -5.2973819400000002 -0.7589399900000000  7.2609224200000000
 -4.7904130199999999 -2.4620224600000000  0.0331089300000000
 -15.8210179699999998 14.8075529499999998 15.4856378299999999
 -15.7369424500000008 12.8091535600000004  7.2914020600000002
 -16.1023816999999987 11.1481330300000003 -0.2504916200000000
 -15.7560874099999992  9.4196217699999991 15.1164149299999995
 -16.1635327800000006  6.6599000000000004  7.3389973299999998
 -15.9166042000000001  5.3987563300000003 -0.3646826800000000
 -15.5007591500000004  3.1837025699999999 15.4391338099999995
 -15.4590751500000003  2.0953325399999998  7.8605085399999997
 -6.5882215500000001  3.6216929499999999 15.3946442399999999
 -6.0797341100000004  1.5695628399999999  7.7355147400000002
 -6.0246899400000000  0.1794531100000000 -0.5585140700000000
 -6.1899684300000004 -1.7161950100000001 15.8403098599999996
 -17.0051917199999991 15.4148282999999999  7.5283996699999998
 -17.2584417899999991 13.8780655999999993 -0.1726171800000000
 -18.0952846500000000 12.3214602200000005 15.6481210799999992
 -17.3608197000000004 10.3039417800000006  8.3490690200000000
 -17.5149498500000007  8.0832841000000002 -0.1478218500000000
 -17.0147976000000014  6.4401118500000001 15.8879918999999994
 -17.0286673700000009  4.2330433000000003  7.8527816899999996
 -17.5988504200000015  2.5528317600000001  0.7818063500000000
 -7.5786392800000000  4.0820373500000002  7.7278320599999999
 -7.4365334399999998  2.7647310100000002  0.0679455100000000
 -7.4005017000000004  0.8741484700000000 14.9892239600000003
 -7.4669248699999997 -0.8894856900000000  8.0344022800000001
 -7.1579408800000000 -2.3754836400000001  0.1940118200000000
 -19.3002016800000007 15.0471679900000002 15.7472936699999995
 -19.3062181700000011 13.1930570399999993  7.9309628600000002
 -19.2285395799999996 10.6562424700000005 -0.0732466100000000
 -19.1320487499999992  9.3251999600000008 15.5885948200000009
 -19.0309456200000007  7.1020309700000004  7.5776477399999997
 -18.7474274600000008  5.2265780099999999 -0.0267119900000000
 -19.1144797000000004  3.9414062500000000 15.8153979400000004
 -9.3408778300000002  5.6862821500000003 -0.7006428099999999
 -9.4023580199999994  3.3871101700000001 15.2624933200000008
 -9.0045843100000003  1.4700676800000001  7.4916354099999998
 -9.1616284599999993  0.5710495900000000  0.2511870600000000
 -9.4997693400000003 -1.7463845499999999 15.3107467899999996
 -8.6481286399999995 -2.9838951100000002  7.9003228300000004
 -20.0961673300000001 13.3900419399999997 -0.6855517300000000
 -20.8755189299999984 12.3181265399999997 15.5947686399999998
 -20.4128523900000012  9.7711345499999993  7.4316869399999996
 -20.2597354100000011  7.8740600100000000  0.6784065400000000
 -20.3655884500000006  6.7016788299999996 15.7107515000000006
 -20.9790354699999995  4.8367083199999996  7.9440680199999996
 -10.8228443599999995 -2.2746109799999998 -0.1839152600000000
 -11.0456570500000009 -5.0697644300000002 15.7180871100000008
 -22.0294190500000013 13.3368635500000003  7.5613494100000000
 -21.8647276200000000 11.2205938399999994 -0.1310155700000000
 -22.2168429100000004  9.2349524499999998 15.8768620100000000
 -22.2841734600000017  7.1845787200000002  7.5987290800000000
 -22.4193371100000007  5.2904313399999996 -0.0363188800000000
 -13.1697035899999992 -2.0464186199999999 15.7617884400000001
 -12.0982532400000000 -3.5054845100000001  7.5416762999999998
 -11.9944604600000009 -5.3150867699999997  0.1394499200000000
 -23.9707586799999994 11.7984495900000006 16.0973213599999987
 -23.3916532599999982 10.0505374700000001  7.4308666800000003
 -23.3630998500000011  8.2146557500000004  0.2944345800000000
 -23.6521616799999990  5.7667850100000004 15.2162782900000000
 -14.0353734200000009 -1.1604205999999999  7.8409721200000000
 -13.4682202600000007 -2.5066588099999998 -0.0877533600000000
 -14.0404409200000000 -4.5602327899999997 15.9171399400000002
 -13.9252514299999994 -6.1478256299999998  7.6537069600000001
 -25.2668757900000003 10.9918513699999991  0.1289323600000000
 -25.2334600599999987  8.8569676800000003 15.4566256800000001
 -25.3220236199999995  7.5132521099999998  8.2372663300000006
 -16.1652517899999992  0.2507411200000000  0.2436106700000000
 -16.3287363899999995 -1.6161257099999999 15.5575974400000003
 -15.6021339700000006 -3.6161258900000002  7.8917806800000001
 -15.4443388000000006 -5.3577272599999999 -0.2392060400000000
 -15.9183979099999995 -7.4155739699999996 15.7622495300000001
 -26.2382315499999983 10.5995838100000004  8.7196761699999996
 -26.6029956399999996  8.0191042100000001 -0.0189718000000000
 -17.3085840799999993  0.7408989200000000 15.6875824300000009
 -17.2465112800000000 -0.8416638700000000  8.2339527900000000
 -16.9967078200000010 -3.1211784400000000  0.1224701500000000
 -17.7735695000000007 -4.6925429000000003 15.4056869200000008
 -17.0685609999999990 -6.8126167200000003  7.0395009499999999
 -17.1677728499999986 -7.8156206600000004 -0.9707400600000000
 -28.2378609099999984  9.7355948500000000 15.6946392199999991
 -28.3366824199999989  7.8510795199999999  7.9364439200000003
 -9.7653892300000003 16.8934368299999988 -0.1629907000000000
 -8.9706054599999998 14.2464825400000006 15.4272296699999991
 -9.9058047699999996 13.7246664799999998  7.0889950300000004
 -9.7974250400000003 11.1112555499999992  0.1089925700000000
 -9.6213354199999994  8.6184672199999994 15.3071815900000008
 -9.7269839200000003  7.6080433200000002  8.0131779800000000
 -18.5758530200000003 -9.1038190199999995  7.2841269400000002
 -1.1846920400000001  2.9821777200000001 -0.1325428500000000
 -3.7617994200000000  3.7591677099999998 15.5080575199999995
 -4.4884920299999997  5.1559256900000001  7.4331212899999999
 -6.4333164900000002  6.1003948200000000 -0.2326204100000000
 -8.1676607899999993  5.6854764400000004 14.8397549200000007
 -27.0355654700000017  6.3795099300000002 15.8748518000000001
 -26.6307670700000010  5.1762184600000003  7.1948853200000000
 -8.0040387800000001 14.0331203799999997  0.1252562600000000
 -7.8768747499999998 10.9453353500000006 15.4963729699999995
 -8.1927608599999999 10.0268580400000005  8.1490540800000009
 -8.3630773600000001  8.7827999699999992  0.2026249600000000
 -19.3197515600000003 -7.5911349299999999 15.2722762000000003
 -20.0758890000000001 -5.9177892700000001  7.3014844900000000
 -3.5782709300000000  5.4002041299999997 -0.3576880900000000
 -4.8690122200000001  6.7804739700000001 15.9076139899999998
 -7.0267482899999996  7.4095230000000001  7.6774949799999996
 -25.4132660000000001  5.7324278399999997  0.4280939700000000
 -25.5088015900000009  3.3390692500000001 15.0866869700000006
 -25.1866143099999995  1.5688632199999999  7.9498231500000003
 -6.9420520799999998 11.1148837399999998  0.5080082000000000
 -6.1402309500000003  8.5439176799999998 15.0058685799999996
 -19.1225550300000009 -5.3859096299999996 -0.0550384000000000
 -20.7647134700000002 -4.8532881000000003 15.6004669200000006
 -21.7928837199999990 -3.4918522400000001  7.0509405599999999
 -4.8702554899999999  7.8938003800000001 -0.6099207800000001
 -23.9388834000000017  3.7896453999999999  7.8470929800000002
 -24.1126043999999986  2.2393341200000001  0.2613677400000000
 -23.2750477199999999  0.8357836100000000 16.0010307400000009
 -23.7875997099999985 -1.2644676399999999  7.4526538999999996
 -18.1012379699999997 -3.8414217700000002  7.8773445500000001
 -20.4574970299999990 -2.4759209800000002 -0.1058308000000000
 -21.9041690100000004 -1.6746819600000000 15.7150285099999998
 -22.0166672000000005  3.4099534399999998 15.7327496900000003
 -21.6497284800000003  1.5000347300000001  7.1118760400000003
 -22.3193808400000009 -0.7621571900000000  0.3382708800000000
 -19.1078572499999986 -2.1624417600000001 15.6431118799999993
 -20.2454194399999992 -1.1964708500000001  7.5233943300000004
 -21.2352587100000001  2.1726261199999999  0.5295061000000000
 -19.8961559699999988  0.7066585900000000 14.9700441800000004
 -18.8794247800000008 -0.1203394800000000 -0.2153856100000000
 -18.7528315200000009  2.0570493900000000  7.8788056099999997
 -0.2400961300000000 -0.0898541500000000 17.3888170399999993
 -11.0679860800000007 17.5459849699999992 10.1255672600000004
 -11.3670729300000009 15.5072035100000001  2.3386362900000002
 -10.9887702199999993 13.2981445399999991 17.9823572499999997
 -11.6110990500000000 11.7795208999999996 10.6737155399999999
 -11.4131528800000002 10.4994348800000008  3.0520078000000002
 -11.6105557499999996  7.6375460600000000 18.4971624000000006
 -10.9053237799999998  5.9694131099999996 10.4569915600000005
 -11.1313522999999996  4.6524766000000000  2.6144323300000001
 -11.6635275200000006  2.9253996999999998 18.2596854099999995
 -11.0527801700000001  0.6778789000000000 10.1390987599999995
 -11.6744790799999993 -0.8328927300000000  2.7669023600000000
 -1.6384729400000000  1.0737242899999999 10.2689800400000006
 -1.7492024500000001 -0.6437884900000000  2.0346826199999999
 -12.8539973100000005 16.6510219200000016 17.8656106500000007
 -12.1599369700000004 14.2116758000000001 10.0980517200000008
 -12.9157705499999995 12.8291586300000002  3.0301528300000000
 -12.9238640799999995 10.8214890799999992 18.2270352699999982
 -12.6953221500000009  8.7057714399999995 10.9445799099999999
 -12.7622674600000003  7.7217524400000004  2.2119389699999998
 -13.3374271300000000  5.4562577299999999 17.5887524800000001
 -12.4171016699999992  3.7338613199999999 10.1784229400000008
 -12.3458985699999992  1.8999126300000000  3.3652490899999998
 -12.7433473599999996  0.4015532600000000 18.2479202100000002
 -3.3232106099999998  2.1979655999999999  2.9202298899999999
 -3.6895301300000001  0.1116707500000000 17.6416995499999985
 -3.5706126899999999 -2.4553853299999999 10.1319561700000005
 -14.2498762899999996 15.5567542700000008  2.1338779899999998
 -15.0191526999999994 13.6719425500000007 18.0761334900000001
 -14.4036502800000008 11.7433763199999994  9.8502390900000005
 -14.1947790099999995  9.9021735300000007  2.8522034700000001
 -14.8779328000000000  8.2275235200000001 17.8961171700000001
 -13.8642023699999992  6.0131050600000000 10.5850468699999993
 -14.1417368799999998  4.9536983399999999  2.3905586300000001
 -14.6472249199999993  2.8891868700000001 18.6593523499999989
 -14.7010844600000006  1.2256656300000000  9.8173355099999995
 -5.2980019800000004  2.8404787599999999 17.9309755799999984
 -4.5555808100000004  1.0096087499999999 10.6288304999999994
 -4.9657233700000001 -0.8771045700000000  2.7061600600000002
 -4.2875927000000003 -2.8274549800000002 18.6403072999999999
 -16.0653944200000005 14.1142935499999993 10.2050215099999999
 -16.5485496699999999 12.3001713000000006  2.7354810500000002
 -16.7657542900000003 10.7486741499999994 18.2686904900000009
 -16.0210017200000010  8.7399112500000005 10.3471573100000001
 -15.9153545500000000  6.7994280800000002  3.0190189500000000
 -16.3751743099999985  5.2976812100000004 18.2306064100000000
 -15.7840408100000005  3.8515680300000001 10.3778719600000002
 -15.7093669899999995  2.1438240000000000  2.9173401000000001
 -6.0787302399999996  3.6990149699999999 10.1440757000000001
 -6.1809334099999997  1.5220135200000000  1.9100906300000000
 -6.2144434500000001  0.5235825500000000 17.7803520900000009
 -6.0295950700000001 -1.6136374300000000  9.8230442199999999
 -17.2744224300000013 15.0860584099999997  2.7804885700000002
 -17.5105985199999985 13.8930833899999993 18.2153544799999985
 -17.2063292899999993 11.8633107899999999 10.0856636999999996
 -17.0675939499999991  9.2314523800000003  2.5829714500000001
 -18.5056006000000011  8.5806460100000006 17.5173455699999998
 -17.6326679900000016  6.2639154799999996 10.3918002400000002
 -16.7656790399999984  4.1222175600000002  2.4254011200000001
 -17.9994709300000011  2.5230155600000002 17.7510143300000003
 -8.2354508200000005  4.4419921699999998  2.5280560400000001
 -8.1411625300000008  3.0878347100000001 17.9773554799999999
 -7.3289346899999996  1.2105407100000001 10.6304366899999998
 -7.6198278300000002 -1.0840221900000000  1.9554488900000000
 -7.8427683899999998 -2.2320999600000002 18.1012513599999991
 -18.7609523399999993 14.7615677800000000 10.4638711900000008
 -18.8677942200000004 12.6350639900000008  2.9408400399999999
 -19.6041924700000010 11.2522526200000001 18.3658776900000014
 -19.1430480000000003  9.1366650400000005 10.5624162500000001
 -18.8269178400000001  7.0816089499999997  2.9921183099999999
 -19.2696146400000003  5.5365825600000003 18.3379928099999994
 -19.0120655599999999  3.7313867400000000 10.3676586900000007
 -9.7309223300000003  5.6562588399999996 17.7149931800000005
 -9.3177892900000003  3.3589730800000002  9.6354370599999992
 -8.9864451699999996  1.7580130300000001  2.7910834499999999
 -8.8627297100000000  0.0544485700000000 17.7781206500000017
 -9.8175736600000008 -1.8349550600000000 10.8729288499999992
 -9.6700159899999996 -3.5519177800000001  2.5199424700000002
 -20.3813180000000003 13.5055214400000008 18.7438592100000001
 -20.4190258000000000 11.7176453200000008 10.3653869299999997
 -20.9043517899999998  9.3287280399999997  3.1885676799999998
 -21.0814478600000008  8.2790510200000007 18.1645744100000002
 -20.4445081199999983  5.9957415799999998 10.3253265899999995
 -20.2648013700000007  4.5040729300000004  2.3321402800000000
 -10.7694457600000000 -2.4530369900000002 17.9938688800000008
 -11.1418982300000007 -3.9161916799999998 10.4380579400000002
 -21.9703685700000015 12.5343586699999996  2.6990604500000002
 -22.0825559100000000 10.7997841099999992 17.7671570599999988
 -21.9807906200000005  8.9067793700000006 10.3743463600000005
 -22.3211304599999991  6.1913485499999998  3.0534648899999999
 -21.6590513199999997  5.4518965200000000 17.9274926100000016
 -12.0885412900000002 -1.4858026700000000 10.7479255299999998
 -12.2395715500000009 -3.4486235000000001  2.5260933400000001
 -13.0373474300000005 -5.5836335400000001 18.4847871400000017
 -23.1805083900000000 11.8048387300000002 10.3279403900000002
 -23.6718827999999988 10.2866647400000009  3.0340556500000000
 -24.1522697499999985  8.1921053599999993 18.4390738899999995
 -23.7165609800000006  5.9995859500000002 10.9207821799999998
 -13.9330600199999992 -1.0057454699999999  2.8597188600000001
 -14.8802768699999994 -2.9598724299999999 18.0071849999999998
 -13.8334808200000001 -4.4588025099999999 10.1466429100000006
 -14.1030933500000000 -6.1435961600000004  2.2344984999999999
 -25.5224869599999984 11.2119821799999997 17.6988295200000003
 -25.1539818500000010  9.1967531000000005 10.6942911600000006
 -25.6042539299999987  7.3813533199999997  2.5933001899999999
 -15.3746559699999992 -0.3194491700000000 18.1138532099999985
 -15.8535584899999993 -1.6975679900000000 10.3311676899999991
 -15.4417387799999997 -3.7606516200000000  2.6373332800000000
 -15.5172868899999994 -5.3843001599999996 18.2842450399999983
 -15.8229770399999996 -6.9799841400000000 10.3188529700000000
 -27.2030132599999988  9.6610258899999994  2.3105548400000000
 -27.2677514800000012  8.3362384899999995 17.9102240700000017
 -17.4090385900000015  1.1426315300000001 10.5528147200000006
 -16.7367552199999992 -0.3795974500000000  2.5374432200000001
 -17.1743181400000005 -3.1957002999999999 18.3216014999999999
 -17.9668508799999991 -4.4777705699999997 10.3519127700000002
 -17.1944085499999986 -6.4792716700000001  2.4106765499999998
 -17.8867064800000009 -8.0836553400000000 18.1412369700000013
 -28.5155055799999992  9.0542325300000002 10.7944481900000007
 -28.8431963499999995  7.1225384600000003  2.5510853199999999
 -9.5529951200000003 16.2635172499999996 18.3894899500000015
 -9.4621510700000009 14.5626545000000007 10.0168681999999993
 -9.3241779699999991 13.0568849000000000  2.8538684200000000
 -9.7377689400000005 10.7991907299999994 18.1772031399999996
 -9.7845449000000002  8.9787451600000008 10.9861733499999996
 -9.5477465299999995  7.4028885000000004  2.2963150500000000
 -19.1168332099999994 -8.8558842599999998  1.9857907900000000
 -1.9006163500000000  2.5688618000000001 17.8027815999999994
 -3.3080665800000002  3.9787697899999999  9.9191835200000007
 -5.0906972899999996  4.4664177900000004  2.3132895699999998
 -6.6724237999999998  5.2161735599999997 17.7709970000000013
 -7.3547290199999997  6.5044711800000004 10.1422336800000004
 -27.0734517500000003  6.5270010300000001 10.3692123100000000
 -26.9040538699999985  4.9805039200000003  2.6832779300000000
 -7.8015155800000002 13.1357425800000005 17.7909568299999989
 -7.7998350199999997 11.8911586499999995 10.3207012700000007
 -8.4839354199999999 10.3075115700000008  2.9472635700000001
 -8.5359571699999996  8.5622789899999994 17.6826830699999995
 -18.9720607699999988 -7.2160792300000001  9.9218633999999994
 -20.7041423900000012 -6.2165562699999999  2.5981577300000001
 -2.7394031000000001  5.2485246800000001 17.7909608299999995
 -5.0922838199999996  6.9349121599999997 10.1711137199999992
 -6.0243994499999998  8.0418514499999993  2.6514243500000001
 -25.1306354899999995  5.0688330099999996 17.6846876199999983
 -25.7275914000000014  3.4239449600000000 10.5223560299999992
 -25.9395970200000008  1.5587983400000001  2.7945976699999999
 -5.7365085499999999 10.9181262100000005 17.7726409499999995
 -6.3521097600000003  8.8783060200000001 10.4522213900000001
 -18.4420842900000004 -5.9435906799999998 17.9246028600000002
 -20.6032534900000002 -4.9215460799999997 10.3997335199999998
 -22.1277641699999990 -2.9370981000000000  2.1287606600000002
 -5.2067007900000002  7.8896796599999997 17.8577891700000002
 -23.5749502699999987  4.2545401900000002  2.4720720799999998
 -23.8334613600000012  2.9231102299999998 18.3224572999999999
 -23.7615132299999985  0.6249977100000000 10.2833697300000004
 -23.8603691600000012 -0.8081252300000000  2.6701761899999998
 -18.3693885600000009 -3.7967180400000000  2.1657663299999999
 -20.5252331199999993 -2.8665706100000001 18.4521326899999991
 -22.1454386700000008 -1.7347915400000000 10.2773935400000003
 -22.5236063199999990  3.1395955799999999 10.6752575099999998
 -22.6362797100000002  1.7978719900000000  3.2275709199999998
 -22.2740276799999997  0.2856780700000000 18.5624719399999982
 -19.0283364699999993 -2.0577607100000002 10.5670913500000001
 -20.3868537399999994 -0.9812598300000001  2.3791397299999999
 -21.0247103799999984  2.0574707999999999 18.0738046899999993
 -20.4068252600000015  1.1303786000000000  9.7160029199999993
 -18.7725826299999987 -0.3913016000000000 18.2391852800000009
 -19.0342859599999983  1.5076076199999999  2.8830106299999998
  0.2914232500000000 -0.3830868800000000  5.2769595799999998
 -10.6307312199999995 17.0552619099999987 20.2320695999999991
 -11.0312896299999998 15.2903784900000002 12.2821425800000004
 -11.4650720499999998 13.6428863299999996  4.9376716900000002
 -11.0665923399999997 11.6571056700000000 21.3102001100000003
 -10.4943266299999998  9.8932468500000006 13.0718106100000000
 -11.6546868299999993  8.3155776800000005  4.9532310800000001
 -11.2577956300000004  6.2351757299999999 20.6417522399999989
 -11.0345716199999995  4.2254502699999996 12.7360763299999995
 -10.2881749500000002  2.6868035400000001  5.4185718999999999
 -10.7836612200000008  1.0589764200000000 20.9278317600000001
 -11.0089509299999992 -0.6483236200000000 13.4204272899999992
 -1.2068164400000001  0.7335686300000001 20.3471518899999992
 -1.5433826600000000 -1.2291751399999999 12.4314118600000008
 -12.4533917800000005 16.7075029800000010  4.9079099199999998
 -12.7387231399999994 14.4451702399999995 20.5802364199999985
 -13.2221476700000000 12.0846610900000009 13.2672176099999994
 -13.2564397300000003 10.8441217699999992  5.5636523899999997
 -12.7485829499999994  9.0873543500000000 20.8853789200000008
 -12.6979468000000004  7.2364199600000001 13.5967117399999999
 -13.0110754899999996  5.0436729700000003  4.4363328600000003
 -12.6297331199999991  3.7571926900000001 21.0205130699999998
 -12.9975816500000008  1.8356062300000000 12.6217191900000003
 -12.3408226200000009  0.1528996200000000  5.5931095800000001
 -3.5037256800000001  2.8786750200000002 12.9921439799999998
 -3.3624133299999999 -0.3346295000000000  5.0098123200000000
 -13.9280532899999994 17.5177241300000013 20.7935995300000016
 -14.4593402999999991 15.0809417099999994 12.5221852699999996
 -14.2529419100000005 13.7686141299999996  4.8651364099999999
 -14.2354512100000008 11.7833065000000001 20.7612104600000009
 -14.5215983200000007  9.4295026800000006 12.9695981099999997
 -14.3148484499999995  7.6709324499999996  5.8746822300000003
 -14.7024055600000008  6.8438341300000003 20.6025312900000017
 -14.5531925199999996  4.7362640100000002 13.2637719500000006
 -13.5896277600000008  2.3577401999999998  5.0889175699999996
 -13.9041413699999996  0.7801111900000000 21.3181644900000009
 -4.4974261899999997  3.2480217400000000  5.5238317099999996
 -4.6749873099999997  1.0615836599999999 20.3457389999999982
 -5.0867621700000001 -0.4719146700000000 13.4107124199999994
 -5.3524177599999998 -2.1765450700000000  4.8683708000000001
 -16.1655405600000002 15.0626798199999996 21.0616266000000003
 -16.0779378500000014 11.8396835500000002 13.2133126500000007
 -16.4774666799999991 10.6916103800000002  4.8765377699999997
 -15.9886018100000005  9.1306849600000000 20.3940961200000004
 -15.5657215799999999  6.6243999100000002 12.6563252899999998
 -16.3661228899999998  5.4284435599999998  5.2106076500000000
 -16.1145088899999998  3.0896738899999998 20.8940741299999999
 -16.0756248299999989  1.8819519899999999 12.7781161000000001
 -6.2762069800000004  3.5794661400000001 20.7246761399999997
 -6.7574189400000000  2.1379343600000000 12.8534295099999998
 -6.2576132400000004  0.8330226700000000  4.6939774600000002
 -6.6510570600000003 -0.9366150400000000 20.1925004399999999
 -17.4962717599999991 15.7088236600000002 13.3759137300000006
 -17.3855333700000010 13.5942955199999993  5.5993967299999996
 -18.1251625199999999 12.2545829499999996 20.2878542899999985
 -17.0680240300000001  9.9537224799999997 12.9048128000000002
 -17.9009042899999997  8.5094140700000001  5.5938033699999998
 -17.3424419800000003  6.7770640599999998 20.0561608299999996
 -17.4370819399999988  4.5550266900000000 12.9953002299999998
 -16.7518875899999991  2.9151242800000001  5.4266147000000000
 -7.6720550999999997  4.3308280600000000 12.0566334400000006
 -7.2788518900000003  3.1697972499999998  4.5113943399999998
 -7.9562272099999998  1.0300196800000001 20.5368550100000000
 -7.8616589000000001 -1.3064066800000000 12.8176741700000001
 -8.0740479799999996 -2.6809687499999999  5.0702677899999999
 -19.2253281399999985 15.3401969600000001 21.1445208999999998
 -19.1153660000000016 12.2791523700000003 13.0690349200000000
 -18.5303841799999987 11.2513579799999999  4.7463538500000002
 -19.1249938899999989  9.5917965100000000 20.9450421800000015
 -18.6722355600000007  7.2688211100000002 12.5579763599999996
 -18.6258487399999986  5.5325625000000000  4.9929751299999996
 -19.0938467000000003  3.3953972299999999 20.8586117999999985
 -9.1202824800000002  5.0305939600000000  5.4248656999999998
 -8.7424507400000007  3.5717761700000001 20.3968572899999998
 -9.4263928900000007  2.0104112199999999 12.9573129100000006
 -9.6827711599999997 -0.1410049100000000  5.2347276200000001
 -9.5174779600000008 -1.5650728199999999 20.4916032299999991
 -9.6279549800000002 -3.7437272799999999 13.0963248700000001
 -21.0000691300000000 14.0255705499999994  5.5297487299999997
 -20.9295979400000007 11.7062168399999997 20.5835076199999989
 -20.7175152099999984  9.8938975700000000 13.4130875500000002
 -20.6029426300000011  7.8188346900000001  5.4000337700000003
 -20.1389628899999984  6.7016213400000000 20.4289431800000010
 -20.4725569199999988  4.7242576999999999 12.9422154400000000
 -10.9243021500000008 -2.5811618099999998  5.4246384299999999
 -11.1770159299999996 -3.8768000900000001 20.3162003200000001
 -22.2973562500000000 12.4761115599999997 13.3711566000000008
 -22.0632875800000008 11.5756884699999993  5.3416828199999999
 -21.7319543999999993  8.6432076599999998 20.6216752999999997
 -21.3396558300000017  7.4126230299999998 13.0327976400000001
 -21.9264889099999998  5.4936137699999996  5.3586564100000000
 -12.6281689700000008 -1.0926390399999999 20.1141312399999990
 -12.5355096199999991 -3.6528633300000002 13.3569785400000001
 -12.9852946800000009 -5.3722405300000000  4.7944630699999999
 -23.5412003299999988 11.5592678099999997 20.7834614500000008
 -23.5346003300000000 10.2704755100000007 12.9193543599999998
 -23.5445734999999985  8.6654313799999994  5.1023494300000003
 -23.3383986099999987  6.5046923500000000 20.3533383599999986
 -14.1010460700000007 -0.3366673300000000 12.9531335799999994
 -14.0515736400000009 -2.6523704200000000  4.8527159500000003
 -14.2066598699999993 -4.2804845299999998 20.8127129599999989
 -14.6679076899999998 -6.1999012200000001 12.8257384499999993
 -25.8212824500000018 11.1974109100000003  4.9176302600000001
 -24.7280514499999988  9.2732605499999998 20.4938450799999998
 -24.9096619200000013  6.8937432300000001 13.0234661099999993
 -15.8945681800000003  0.0547118300000000  5.1733650999999998
 -16.0191617199999996 -1.9509322099999999 21.0768588799999996
 -16.0688004999999983 -3.3347107100000000 12.6446775799999998
 -15.8654969799999996 -5.2633125500000002  5.2517255699999996
 -15.1681495900000005 -7.1229380200000003 20.4917242000000002
 -27.1241757800000016  9.9082162599999997 12.8663452399999994
 -26.8512892900000004  8.3355270299999997  5.4486681499999996
 -17.0933546000000014  0.8519514600000000 20.6087307700000011
 -17.0968041100000008 -0.3480196100000000 13.3544080100000002
 -17.1605333999999985 -2.6611447199999998  4.8205875000000002
 -17.3843080900000011 -4.5862595400000004 20.6078172899999998
 -17.3574715899999994 -6.4049073900000000 12.5441900499999992
 -17.8498873300000014 -8.3461207500000008  4.9467770900000003
 -27.7636947300000010  8.9874082299999998 20.1435352899999991
 -28.2011764599999992  7.1927444899999999 13.0519847700000007
 -9.4536879799999998 16.1662216600000015  5.4222168499999999
 -9.8075233900000001 14.2990527800000002 20.4557183900000012
 -9.2647221099999992 12.5788782500000007 12.4105066399999995
 -10.2452777499999996 10.9650226100000001  5.5302011100000001
 -9.9137794699999997  9.1278314199999997 20.5947882799999995
 -9.1835677800000006  6.4864173000000003 12.8502657599999992
 -18.8943736099999988 -9.1177052100000004 12.9497328100000004
 -1.2881141300000001  2.8787644200000000  5.1421536200000002
 -2.3889199600000000  3.8450077800000000 20.3228545999999994
 -4.8357257300000001  4.8832984300000000 12.7752932900000005
 -6.2831382299999996  5.9545858699999998  5.2749596600000004
 -7.3321345700000000  6.7269988300000003 20.2437244599999993
 -26.6029223799999990  6.1252479199999996 20.0363979100000016
 -26.8341733500000004  4.3235416100000004 12.9736172500000002
 -26.9897129900000010  3.0955441499999998  5.2511089499999999
 -7.9466509900000002 12.0519649199999996 21.3257327900000000
 -7.4808522699999997 10.0113266200000002 12.8048327400000002
 -8.1715434600000005  8.6861386799999991  4.9870441999999997
 -18.9823263199999985 -7.6272045100000003 20.6515426300000016
 -20.3021074599999984 -6.5513245199999997 12.7681286200000006
 -22.2323060599999991 -5.0757985699999999  4.7870393399999998
 -4.6861073199999996  6.7333432899999996 19.7957500700000004
 -6.5034330499999999  7.1773892600000000 12.3920847500000004
 -24.6905881399999991  6.1242418599999997  5.1508711500000004
 -25.4892109200000014  3.7411070899999999 21.0047306999999996