Li                                      
   1.00000000000000     
    20.2271999999999998    0.0000000000000000    0.0000000000000000
     0.0000000000000000   20.2271999999999998    0.0000000000000000
     0.0000000000000000    0.0000000000000000   20.2271999999999998
   Li
   432
Direct
  0.0114860460172466  0.0168338816049669  0.9996575442967881
  0.9041971330683438  0.0872322852396792  0.0748497498417962
  0.8322448480264200  0.1556484832305003  0.1761553937272566
  0.7436314655513385  0.2587408227535235  0.2464304095475427
  0.6737694643845913  0.3385979488016133  0.3427059459539663
  0.5680928052325598  0.4077207660971354  0.4052540425763311
  0.5201410630240488  0.4873931577282065  0.5006506926317016
  0.4398866714127507  0.5897840422797032  0.5712781922361998
  0.3272138580722981  0.6728859530730915  0.6458179896377132
  0.2399518470178776  0.7441232360386039  0.7383355536109804
  0.1783238386924566  0.8434387720495167  0.8363673039273820
  0.0860428111651643  0.9154754647207710  0.9267433747626939
  0.0764778614934372  0.9003785704398055  0.0809131041370037
  0.9919102164412266  0.9979610633206804  0.1530642881862079
  0.9351945390365444  0.0967122379765826  0.2449943501819334
  0.8284274313795308  0.1628847546867576  0.3478251488095268
  0.7602200190832136  0.2561475686204702  0.4152615606707784
  0.6753215838079427  0.3204035412711619  0.4995772489519084
  0.5829852441267178  0.4011412459460502  0.5912550041528206
  0.5073425095910480  0.4884892263882321  0.6735436615052990
  0.4153142352871413  0.5929862328943187  0.7340133715986425
  0.3276293372290766  0.6695134432842877  0.8345744522227463
  0.2453701041172280  0.7403594501463360  0.9130496133918697
  0.1723204353543721  0.8213831340966635  0.9874859456573333
  0.1600054436600189  0.8289285763724124  0.1541266205900982
  0.0760109006684075  0.9184733032748014  0.2508508542952086
  0.9926279752017066  0.0048253164056291  0.3344934953923442
  0.9173031769103019  0.0769430242445850  0.4135570301376390
  0.8487302197041586  0.1534785842825528  0.4978823366555929
  0.7603241293901277  0.2382193961596286  0.5910067636647653
  0.6678952464997607  0.3351481846226889  0.6736396614459750
  0.5819646916033889  0.4204518064784040  0.7511952351289324
  0.5043061160219935  0.5152723604848930  0.8368751661129537
  0.4219047510283218  0.5839041740824271  0.9136021955584539
  0.3173985400846391  0.6631439932368295  0.0049610247587424
  0.2408553749406721  0.7456904148868873  0.0867727856549578
  0.2462008735761714  0.7447874861572501  0.2372728281719674
  0.1657549117030541  0.8363552459065033  0.3255276251779762
  0.0637364489400412  0.9163284152032887  0.4164891472868248
  0.0093620268747046  0.0032233823762056  0.5058031655394686
  0.9264195662276506  0.0813981440832166  0.5804482147800982
  0.8408522672441094  0.1615540401044129  0.6819355353187788
  0.7430447802958398  0.2348268692651487  0.7460177646930859
  0.6687773883681345  0.3362044741733925  0.8312578191741835
  0.5906476595870913  0.4248415302167388  0.9089547347136531
  0.5100769488609416  0.5069396184345862  0.9961340081672176
  0.4157919731846249  0.6008661653614951  0.0755257920028498
  0.3458618034132286  0.6598520245016601  0.1690168273414017
  0.3334018030177219  0.6733453873991451  0.3347315703607023
  0.2344446003401330  0.7461761222512280  0.4154052370075902
  0.1512156655394747  0.8375854497903816  0.4927590294257271
  0.0690673306241081  0.9103822130596413  0.5832298889613980
  0.0006522687272579  0.0126192008780279  0.6778322807902200
  0.9143864627827867  0.0763854651162816  0.7597569989914561
  0.8269069470811559  0.1680397988846707  0.8423779045048221
  0.7248944777329527  0.2577826555331413  0.9346190965630470
  0.6510236355007137  0.3394513036900833  0.0090596271357413
  0.5887039975874089  0.4348550466698313  0.1028945024521448
  0.5039476615646237  0.5168828127471912  0.1625114756367694
  0.4264956078943172  0.5784525302562855  0.2593605916785293
  0.4141864568501816  0.5732540410931790  0.4147961571547256
  0.3336681315258687  0.6604802503559597  0.4786643707482980
  0.2305786248220230  0.7467080451075745  0.5713987061975985
  0.1629295072971075  0.8341818022267020  0.6660985376127186
  0.0844453493315953  0.9042471449335565  0.7555283000118678
  0.9991966119878199  0.0078607365329830  0.8448323687905415
  0.9071434790776749  0.0809292185769692  0.9231227040816350
  0.8195360652982089  0.1634237061975981  0.0029477376997278
  0.7342643366358175  0.2497586077163447  0.0947217405276035
  0.6616400030651803  0.3348873131229269  0.1651781289550698
  0.5845156437865811  0.4081651934029438  0.2529217850221457
  0.5123934380438229  0.5054132934860007  0.3377650994700190
  0.0797465170661269  0.0863066801139070  0.9339108561738669
  0.0053292586220550  0.1734005423390315  0.0025718043031162
  0.9024273824355333  0.2391603934306303  0.0844225785081463
  0.8380802913898151  0.3267041488688491  0.1767541859476367
  0.7402981861058393  0.4134738253440915  0.2567035946646072
  0.6665194208788137  0.5026550530968166  0.3421684088751746
  0.5946586759413037  0.5867691722037662  0.4345975730699223
  0.5123680657728187  0.6670971592706820  0.4947126374386954
  0.4263899595594083  0.7550040287335875  0.5764794662632511
  0.3261703745451641  0.8279701575106770  0.6610988391868347
  0.2464263694431281  0.9291523013565879  0.7401842642580263
  0.1600318002491719  0.9937212431775038  0.8376545621737037
  0.1611387043189367  0.9991809929204223  0.0050551712545470
  0.0752511998694843  0.0840455821863628  0.0915890691741836
  0.0009000929441569  0.1790478074078479  0.1590938142698946
  0.9046607251621595  0.2347480704200251  0.2500574820044292
  0.8312832937826329  0.3357762087683938  0.3361927251423822
  0.7471883043624459  0.4233882722274984  0.4252641937588990
  0.6663020081869959  0.4922398473342824  0.5065248991457025
  0.5774994215709555  0.5769475503282706  0.5842172337248854
  0.5166952346345539  0.6755738475913589  0.6631384319134597
  0.4184246390998254  0.7493694011034648  0.7526565975518125
  0.3387730461952216  0.8256403570439801  0.8276531556517952
  0.2572220910457190  0.9174003159112516  0.9091576609713670
  0.2408415549359262  0.9075188894162309  0.0900974494739728
  0.1478385372172113  0.0114646065693691  0.1554118760876477
  0.0929130195973755  0.0946778080999877  0.2557068729235894
  0.0031461255141565  0.1585517179837055  0.3186029653140352
  0.9302869378856187  0.2638432981332102  0.4085651335825062
  0.8354695400253149  0.3428265360504668  0.5137245481332045
  0.7505645729512764  0.4058785684622706  0.5846635525431125
  0.6645330001186522  0.5013280943482030  0.6584516383879162
  0.5894195642501217  0.5826761232399917  0.7505801569174153
  0.4977936877076417  0.6679791162395219  0.8455667111612115
  0.4012294435215935  0.7414867070083844  0.9298485074553042
  0.3253524560987202  0.8304172450957097  0.0006193032154727
  0.3273447189922507  0.8306822328349952  0.1645644498497063
  0.2301079847927525  0.9281547559721588  0.2338277888190134
  0.1484576184543585  0.0019832042991581  0.3425098921254559
  0.0846377437312142  0.0797940762933109  0.4007413349351339
  0.0088509586101893  0.1631606742406291  0.4917164506209488
  0.9292626334836243  0.2531583377827857  0.5697954813320649
  0.8276863985128955  0.3274419450047432  0.6711658301692793
  0.7528986172085084  0.4253551732320844  0.7460061204714421
  0.6659988990072776  0.5093553497271017  0.8426732434543567
  0.5900895156027559  0.6002871148750231  0.9326182971444368
  0.5232886108803996  0.6728877259333998  0.0147232370273684
  0.4051185344486612  0.7576848738332558  0.0833123640444526
  0.4084497908756504  0.7516566835745948  0.2388761286782142
  0.3245454061857274  0.8403823401162782  0.3261686763368132
  0.2252694332384095  0.9295561758424284  0.4087143287256794
  0.1563034878777074  0.0026213094249314  0.5015616274125918
  0.0769325541844665  0.0943492653456701  0.5873750400450888
  0.9837374673706663  0.1613486404445510  0.6720537800585333
  0.9234575309484256  0.2425385480936555  0.7424876577084305
  0.8233539160140779  0.3159960508622035  0.8301015256684039
  0.7494553507158699  0.4149055568739115  0.9209755398671078
  0.6705403278753366  0.4985546590729300  0.0057822585429506
  0.5935427775470643  0.5760213460093340  0.0905538482834984
  0.5051635530374909  0.6688025485484914  0.1642136726783718
  0.5009411678334104  0.6723731248022489  0.3359357063755724
  0.4128937228088887  0.7518932659982625  0.4125103019696255
  0.3428270388387915  0.8437671758819789  0.4940788883285876
  0.2378392342983702  0.9151416518351496  0.5729283850458771
  0.1518703008819813  0.0050825264989740  0.6534747676396151
  0.0837001952816010  0.0871373556399320  0.7518903965946819
  0.0048940317987629  0.1671481529821222  0.8497132109239018
  0.9239723090689793  0.2472093779662998  0.9184659854057884
  0.8309306468517619  0.3266237368493918  0.0198596137873750
  0.7582923395230168  0.4191834455584527  0.1043091985049855
  0.6674817740468271  0.5024476403061229  0.1845593339661420
  0.6038479957680778  0.5922449419593434  0.2475690792596126
  0.1802831004785617  0.1631283949335582  0.8256948425881987
  0.0982209732439472  0.2413071512616654  0.9130501349667810
  0.0050310947634884  0.3120745397286839  0.9959435453251047
  0.9168432042002834  0.4232728405315598  0.0720654361453867
  0.8355584989519045  0.5067157723263733  0.1793594743711466
  0.7558966545048236  0.5857316811026720  0.2516187608764469
  0.6629301697713998  0.6747440426752078  0.3337761563637116
  0.5912813553037495  0.7679398428848287  0.4093967518984343
  0.4959932600656529  0.8420301806478392  0.5151297633879111
  0.4168360465116265  0.9224219343260529  0.5930481015662110
  0.3379346978326225  0.0125552043782662  0.6572428096820104
  0.2493846246638185  0.0734901988411636  0.7496838316722005
  0.2447952939606068  0.0737822778239234  0.9253385406778989
  0.1651520838277136  0.1501599222828673  0.9948611706019648
  0.1017231193640242  0.2412919726902416  0.0745424744897960
  0.9829400594249336  0.3214692344961207  0.1574623462466391
  0.9223412894518290  0.4297428126483140  0.2432578967924357
  0.8424760035991170  0.4998448500039530  0.3386143455347224
  0.7469684771001397  0.5830749471009327  0.4142264248141103
  0.6736464147286796  0.6661921679718432  0.4967430568739104
  0.5932364346029075  0.7392653728642600  0.5839628421135927
  0.5009299868493926  0.8291359362640378  0.6714936476625510
  0.4140087995372568  0.9151341549992082  0.7410444055529197
  0.3370023680984033  0.9977227327558964  0.8351065639337136
  0.3439088430430317  0.9993562445617812  0.9970678685136818
  0.2487032515622545  0.0921421214997622  0.0797852999920892
  0.1669097947318434  0.1671654885500686  0.1715657317868988
  0.0767963929757940  0.2578389243197279  0.2522140429718434
  0.9845096953606998  0.3355770259848114  0.3286345772029762
  0.9104360821072603  0.4265317028555629  0.4209698178690076
  0.8392912548449587  0.5039189630794212  0.5138151879647239
  0.7426027112007603  0.5900234570281597  0.5870552735919929
  0.6748811036623934  0.6655345055173214  0.6727195879805379
  0.5759956098718533  0.7506602915875646  0.7617666671610479
  0.4870000865171633  0.8229586774244595  0.8350224366199939
  0.4125381382494879  0.9017302459064993  0.9213306522899884
  0.4209138882297125  0.9318142461635830  0.0736785289115645
  0.3315192369680418  0.9991019567710779  0.1563563177305838
  0.2483294049596552  0.0840109421966488  0.2575087397168190
  0.1797941766532176  0.1717356964879002  0.3366491555924682
  0.0689400337169772  0.2467369522227472  0.4244008320479367
  0.0133429935927865  0.3326853207562124  0.5082755250355930
  0.9161291320598011  0.4242705841638994  0.5929090897405445
  0.8255456874901128  0.5162242233230501  0.6599762755102034
  0.7557305598402166  0.5820930430311648  0.7568387898473361
  0.6661269602317645  0.6779918026222091  0.8311528204595788
  0.5924354408914709  0.7540709490191446  0.9251293654089565
  0.4874783064388524  0.8356515429718385  0.0117867233230484
  0.5085285823050185  0.8367043609595015  0.1713722586418314
  0.4193545962861904  0.9329524902111999  0.2482882173508969
  0.3336045735445339  0.9986458491536183  0.3410669712070842
  0.2599752570795744  0.0795157016294894  0.4269161179006460
  0.1612415781719676  0.1520902759650369  0.4934076787691808
  0.0767875716856494  0.2397784690911280  0.5939055395704784
  0.0197086803907638  0.3269432907174519  0.6723897687272569
  0.9186452534211327  0.4199811081118483  0.7384176104453388
  0.8139435952578680  0.4967725676317016  0.8302617539748454
  0.7418988564902733  0.5907851857894286  0.9109718685730073
  0.6583342652467934  0.6803352589582374  0.0076732073643413
  0.5884198574197086  0.7688788987106463  0.0858959509966795
  0.5712067681142230  0.7522517016690387  0.2473833338277203
  0.4918609481292506  0.8359612526696694  0.3301960750870094
  0.4239538917892745  0.9186435319767412  0.4228281497191873
  0.3540741348283518  0.0018017871974365  0.5084679668960632
  0.2329263012181642  0.0925151024363231  0.5888078547698115
  0.1883135831949048  0.1600906872923602  0.6635963094249320
  0.0917016784330045  0.2286883859357687  0.7452670087802531
  0.0001581701866797  0.3418274175367841  0.8200021545246017
  0.9091379152823933  0.4101326268588821  0.9164448870827400
  0.8267066835745922  0.5010124421570978  0.0074225696092398
  0.7488865908281923  0.5773431616832809  0.0769989914570459
  0.6640114217489312  0.6796859575225440  0.1449297648710655
  0.2555427735919977  0.2485553858171201  0.7404153318304054
  0.1651896752887225  0.3299446107221939  0.8228693961596250
  0.0839483022860321  0.3978694431260905  0.9147300570518908
  0.0161298261746552  0.4960501987422887  0.0007155142580260
  0.9155398255813978  0.5955466614261979  0.0844213326609733
  0.8372512196448341  0.6825449617346919  0.1542950670384400
  0.7457779331790846  0.7487570894636946  0.2634572906778985
  0.6658916434306263  0.8313610638150593  0.3126441371025166
  0.5947996084480280  0.9071734105560836  0.4137735123991462
  0.5199156615843989  0.9899254137992415  0.5074129933950360
  0.4364601625533950  0.0823102925763308  0.5844311600221488
  0.3352064319332371  0.1663607533420333  0.6445117638625248
  0.3312130883167228  0.1630124495728538  0.8274280992920424
  0.2474830253322224  0.2532624698425892  0.8989994364024696
  0.1810665282391994  0.3250509808574620  0.9974865616595494
  0.0699495703804800  0.4005937623595983  0.0874786426198355
  0.0119128623833262  0.4998884368573044  0.1643553096820156
  0.9171848812490140  0.5910432106272765  0.2440467528872006
  0.8390181893687725  0.6603347314507175  0.3273533786188878
  0.7561803576372412  0.7428740295246001  0.4087558604255648
  0.6869959608843530  0.8246094051574104  0.4984430835706348
  0.5934915939922476  0.8962787321033048  0.5895348377432370
  0.5090346118098381  0.0022119546946655  0.6735789956098728
  0.4062239652547035  0.0818340269538069  0.7437674181300409
  0.3939435744937541  0.0844687648315130  0.9014326505893067
  0.3253642209500072  0.1762695167892758  0.9915469387755067
  0.2519030127748749  0.2533282490903304  0.0890028995609882
  0.1733303966935580  0.3291166192058199  0.1626560566959370
  0.0786721696527479  0.4107524827954450  0.2449264599153622
  0.0052696458234465  0.5092249990112308  0.3337925896812237
  0.9184535368217084  0.5905158835627304  0.4233324295997463
  0.8262913947555788  0.6704556142224334  0.5026109011627895
  0.7618336828626795  0.7453156432922015  0.5860551554342663
  0.6738117806715707  0.8150601783736775  0.6764163102159486
  0.5915614395467514  0.9140323490151872  0.7563866432328723
  0.4958520645467459  0.0032295157016264  0.8429781185730079
  0.5002884160931842  0.9972550733665528  0.9891951164768216
  0.4302691578666327  0.0982323762062975  0.0677602451154868
  0.3317122997745585  0.1608198979591862  0.1688480783301713
  0.2529359817473491  0.2479804827163434  0.2518046986236371
  0.1614750988767568  0.3375253510124949  0.3381014440950807
  0.0753239341085248  0.4090719209776950  0.3933645813557973
  0.0040333031759232  0.5019870708748613  0.4875701159824359
  0.9115296580841630  0.5950818724292049  0.5840480570716693
  0.8388256224292050  0.6694187173706680  0.6892222729789594
  0.7731158736750530  0.7624293713415611  0.7665831301415906
  0.6585624564942236  0.8278609486236377  0.8298348026419902
  0.5772646846820138  0.8950190629449466  0.9236520091757612
  0.5729787825304555  0.9217247874149663  0.0916200606114543
  0.4950038957443468  0.0053237511865234  0.1672528921452283
  0.4100147192888812  0.0876022405473833  0.2589386054421752
  0.3416450625889880  0.1677610578824584  0.3399359619719959
  0.2506173953883888  0.2639272721879422  0.4079306335034047
  0.1481290747112780  0.3318239064230326  0.5087231579259637
  0.0798835726150955  0.4088840279425696  0.5819315006525869
  0.0102859372528101  0.5009202499604513  0.6570769953330142
  0.9281040593853831  0.5819790326886576  0.7509940604730261
  0.8445196295087811  0.6672798246915050  0.8382411287770921
  0.7468587051099504  0.7427634185650973  0.9255913097215611
  0.6635136573524747  0.8366373373477316  0.0130497577519364
  0.6689628371697509  0.8407274941662735  0.1760546832977354
  0.5866411589345049  0.9310042408242367  0.2550204828152189
  0.4983689324276241  0.0042225537889564  0.3531606989598188
  0.4218859031403284  0.0875363475913602  0.4229034483270055
  0.3345056068066796  0.1702605679481124  0.5051971301020401
  0.2309449923864904  0.2598439309444700  0.5737459238055678
  0.1731295784883713  0.3189179416824857  0.6734761375771257
  0.0849610682645121  0.4208531205505466  0.7487540228009806
  0.0082339191781386  0.4965467568422710  0.8288590076728397
  0.9258879706533776  0.5753049898156917  0.9045194525193807
  0.8382640835113122  0.6690340403021651  0.9907317206533790
  0.7558050392540707  0.7477382391037821  0.0898701407016276
  0.3368932482004396  0.3487222314507221  0.6631710231767158
  0.2419520279623484  0.4136215195380473  0.7506692176870757
  0.1605659206415098  0.4986968146851751  0.8239599727100142
  0.0896116951431765  0.5845080263209965  0.9066393831078940
  0.9909748462466368  0.6528941440238896  0.9989154168644205
  0.9236143564111714  0.7585769953330157  0.0926618563122901
  0.8289473664174949  0.8389276563241594  0.1816431325146368
  0.7571558920661303  0.9300781091797177  0.2535243716381927
  0.6632480422401485  0.0030601422836583  0.3238581138269296
  0.5946496217963926  0.0716647395586136  0.4072535773611747
  0.5233400618968531  0.1739190624505582  0.4953959608843519
  0.4258150698069940  0.2569562781798780  0.5791210760757792
  0.4083794593418730  0.2618238347373847  0.7525983863312788
  0.3369433045601937  0.3380635713296982  0.8287714349984157
  0.2434740586932449  0.4131581884788815  0.9022984970732466
  0.1659618716381885  0.4774790687786776  0.0015229641275099
  0.0923918807348514  0.5866214725715864  0.0799286020803649
  0.0096121667853168  0.6799103766215779  0.1732463820993502
  0.9122921956573293  0.7574281200561614  0.2581753683159320
  0.8428426460409710  0.8391423489163117  0.3505018430628084
  0.7471393311975945  0.9168670651400106  0.4041625266967230
  0.6728924739954110  0.9949023537612689  0.5002497973026436
  0.5899755967212457  0.0828922431181809  0.5810779020329093
  0.4974744917734526  0.1549728434978661  0.6601942171926893
  0.5038494576609693  0.1519134956889729  0.8264080495570312
  0.4171367346938766  0.2474759581158068  0.8985416681498180
  0.3429389188815080  0.3490447496440439  0.9864875143371279
  0.2494409147089058  0.4115721315851957  0.0766028343023279
  0.1714785867544677  0.4849134971721227  0.1762898270645437
  0.0847753292596138  0.5725511538917871  0.2580864474568898
  0.9954639648591979  0.6700774135817085  0.3347323554421777
  0.9134206405236540  0.7503773863906034  0.4286508617109632
  0.8348788799240623  0.8327245031442843  0.4997029959658263
  0.7565227119917708  0.9146525085034014  0.5892724138783407
  0.6675054387161836  0.9923422940397089  0.6742608408479640
  0.5610617786940324  0.0749541548014534  0.7565650198742304
  0.5946794277013154  0.0841263852634100  0.9232260515543445
  0.4999403511113769  0.1883133879133041  0.9676403906620763
  0.4045196042952099  0.2446507746994158  0.0578918609595007
  0.3348077198030381  0.3407143934899537  0.1607565505853472
  0.2467039090927088  0.4021584055133687  0.2454148824355329
  0.1607818121143794  0.4930607320835279  0.3402055455030819
  0.0867322595317219  0.5899418095435820  0.4151850987778829
  0.9863027299873437  0.6735376097532040  0.4988859506011707
  0.9182246351447532  0.7559083758503391  0.5825795705782326
  0.8418656161010887  0.8203233200838440  0.6794453493315942
  0.7518290761944328  0.9070255972156289  0.7510316079338679
  0.6601517600063289  0.9821415732281267  0.8357435265385220
  0.6598291721048852  0.9802126868770742  0.0057494472789088
  0.5773637853978784  0.0900768307032109  0.0782133918683741
  0.4860014070162961  0.1706162731371634  0.1511118736157258
  0.4047072081158021  0.2427409552483795  0.2533281250000030
  0.3352775663463063  0.3431922861295646  0.3240272534013613
  0.2588048775905705  0.4193265988372090  0.4241216609318172
  0.1512338469981032  0.4870416869364007  0.4918439581355827
  0.0763430094130655  0.5927473911366903  0.5793487057032110
  0.0079796823089708  0.6649042072061349  0.6835582092430030
  0.9158009413067560  0.7520448336892898  0.7657738327598480
  0.8280620229196316  0.8403446744977074  0.8488480887122307
  0.7399976585983197  0.9096526311105819  0.9192326342746426
  0.7435128900688213  0.8988792843300146  0.0900674008266122
  0.6709538912948929  0.0034057462229100  0.1536237536584366
  0.5811203592192697  0.0787746306952997  0.2453091787296344
  0.5084094328429032  0.1610148507949702  0.3438959312213257
  0.4093353973856964  0.2487934187628511  0.4087416775431123
  0.3389299947595319  0.3413612091638996  0.4910942784962842
  0.2642148008622058  0.4100001087644358  0.5780025614024709
  0.1528635001384302  0.4900809889653530  0.6648227139693077
  0.0844799364222411  0.5905366590531571  0.7554587318066766
  0.9948446438459086  0.6649754419791165  0.8487007994186015
  0.9240743815258696  0.7491656596068665  0.9251024847729781
  0.8212837955821897  0.8302713628183795  0.0054570420028455
  0.4212875845396269  0.4166492534804647  0.5712277191109010
  0.3465483566682508  0.5025952267244094  0.6631420626680935
  0.2447387211279874  0.5824573574197132  0.7319893559167880
  0.1795003361809862  0.6705072323406114  0.8353227030928636
  0.0840540504864720  0.7454875736631834  0.9142440219110881
  0.9926252293940863  0.8395498546511604  0.9897881328112632
  0.9157681181775033  0.9116620713692427  0.0784626651241922
  0.8323066712150009  0.9968020096701480  0.1730985015227020
  0.7490401261667472  0.0883121742010786  0.2448283657649100
  0.6792662845079889  0.1634259116437278  0.3297353103741472
  0.5882241649857605  0.2483596711358942  0.4020120965828227
  0.5099208526143002  0.3311011889930384  0.4924471503717740
  0.5127093206177804  0.3295149289076065  0.6699913695420037
  0.4148018277369090  0.4137786188894168  0.7683077316682514
  0.3314356035437456  0.5049129058890998  0.8247175901756023
  0.2458180079299197  0.5727813088316722  0.9162649635144788
  0.1667858690278408  0.6573691796195220  0.9812157347532064
  0.0857307570993484  0.7538446957562073  0.0719067918446470
  0.9995412479235881  0.8284196586774257  0.1723608655671569
  0.9174841812015515  0.9094079521634271  0.2480069935532327
  0.8310532807308988  0.9999128124505603  0.3195330381862078
  0.7436626690792565  0.0742505645863005  0.4233065911248204
  0.6725521011311528  0.1543432452341378  0.4950246227851594
  0.5921338465037209  0.2402619675486477  0.5851107454318907
  0.5766820192611917  0.2519306671214991  0.7498939937312130
  0.5122470524837865  0.3250883186995708  0.8350421917022643
  0.4227482701510823  0.4258343848876791  0.9187555099074487
  0.3345661614064213  0.4906706711754438  0.9759337313122955
  0.2420678012774857  0.5745299962426813  0.0781857894320552
  0.1537349030018973  0.6780652977179216  0.1660473960805220
  0.0721209519854469  0.7516729586892907  0.2523993790539478
  0.9861028496282245  0.8188406507079549  0.3486985128935274
  0.9211285358329349  0.9264319035753843  0.4296984337921188
  0.8277295300387593  0.0043141551969654  0.4962415104413864
  0.7576275900767300  0.0914242040420845  0.5961408647761459
  0.6611911376759991  0.1576624119996808  0.6793094219664582
  0.6803898384353744  0.1610153328191757  0.8293696102278147
  0.5912116857498830  0.2527815822259143  0.9061374436402474
  0.5133989375692138  0.3408074078468601  0.9910954244779333
  0.4317743904247777  0.4316479665994279  0.0925096459223198
  0.3232793387122257  0.5086366714127522  0.1622965373358625
  0.2490471597650696  0.5805970856075007  0.2384193294178161
  0.1623447758463854  0.6627207042991614  0.3297572184978677
  0.0913841021001431  0.7472156813597550  0.4197623620669191
  0.9895997597294723  0.8292332685690553  0.5069582117149167
  0.9236940471246626  0.9247731989598194  0.5987734239044471
  0.8287529282352466  0.0027468656067100  0.6774146960528427
  0.7458964967963908  0.0763816341362116  0.7470092074038917
  0.7452340927068519  0.0710509299359288  0.9168636637794663
  0.6701261529030234  0.1792585236710948  0.0115936496400906
  0.5746591119878204  0.2533294558811932  0.0896859446685667
  0.4895817369680415  0.3355912810473001  0.1675435883364997
  0.4245925649620332  0.4296116397721903  0.2692779801455458
  0.3105254222037672  0.5034919464878982  0.3221989311422249
  0.2604698396218978  0.5908940634393289  0.3988569619126707
  0.1697119284923261  0.6677507875533948  0.4836982528476526
  0.0849548073880726  0.7540745036386625  0.5741662266650849
  0.9893385466105045  0.8330201308139564  0.6685422159270686
  0.9182991051653246  0.9234477238569880  0.7550295285556103
  0.8118822768351492  0.9779470594051602  0.8350014826570131
  0.8224002214839459  0.9935203275787075  0.0051950171056774
  0.7430838806161972  0.0891334638506578  0.0976870239083993
  0.6646500711912680  0.1592072382732184  0.1848020136252160
  0.5818646436481600  0.2480989479512701  0.2383051944905858
  0.4887104438577765  0.3222968156739441  0.3290924868493903
  0.4234795735445331  0.4325335533341246  0.4039482958590384
  0.3364263259373530  0.5009493548291388  0.4967657125059333
  0.2400042141275094  0.5852531704833126  0.5748003287652281
  0.1584143282312951  0.6592974425525995  0.6581279529544375
  0.0870264475557647  0.7629092207522561  0.7586653110662880
  0.0001405686402478  0.8333735880398692  0.8352117416152538
  0.9191551203330164  0.9283142555568773  0.9194965823247898
 
  0.00000000E+00  0.00000000E+00  0.00000000E+00
  0.00000000E+00  0.00000000E+00  0.00000000E+00
  0.00000000E+00  0.00000000E+00  0.00000000E+00
  0.00000000E+00  0.00000000E+00  0.00000000E+00
  0.00000000E+00  0.00000000E+00  0.00000000E+00
  0.00000000E+00  0.00000000E+00  0.00000000E+00
  0.00000000E+00  0.00000000E+00  0.00000000E+00
  0.00000000E+00  0.00000000E+00  0.00000000E+00
  0.00000000E+00  0.00000000E+00  0.00000000E+00
  0.00000000E+00  0.00000000E+00  0.00000000E+00
  0.00000000E+00  0.00000000E+00  0.00000000E+00
  0.00000000E+00  0.00000000E+00  0.00000000E+00
  0.00000000E+00  0.00000000E+00  0.00000000E+00
  0.00000000E+00  0.00000000E+00  0.00000000E+00
  0.00000000E+00  0.00000000E+00  0.00000000E+00
  0.00000000E+00  0.00000000E+00  0.00000000E+00
  0.00000000E+00  0.00000000E+00  0.00000000E+00
  0.00000000E+00  0.00000000E+00  0.00000000E+00
  0.00000000E+00  0.00000000E+00  0.00000000E+00
  0.00000000E+00  0.00000000E+00  0.00000000E+00
  0.00000000E+00  0.00000000E+00  0.00000000E+00
  0.00000000E+00  0.00000000E+00  0.00000000E+00
  0.00000000E+00  0.00000000E+00  0.00000000E+00
  0.00000000E+00  0.00000000E+00  0.00000000E+00
  0.00000000E+00  0.00000000E+00  0.00000000E+00
  0.00000000E+00  0.00000000E+00  0.00000000E+00
  0.00000000E+00  0.00000000E+00  0.00000000E+00
  0.00000000E+00  0.00000000E+00  0.00000000E+00
  0.00000000E+00  0.00000000E+00  0.00000000E+00
  0.00000000E+00  0.00000000E+00  0.00000000E+00
  0.00000000E+00  0.00000000E+00  0.00000000E+00
  0.00000000E+00  0.00000000E+00  0.00000000E+00
  0.00000000E+00  0.00000000E+00  0.00000000E+00
  0.00000000E+00  0.00000000E+00  0.00000000E+00
  0.00000000E+00  0.00000000E+00  0.00000000E+00
  0.00000000E+00  0.00000000E+00  0.00000000E+00
  0.00000000E+00  0.00000000E+00  0.00000000E+00
  0.00000000E+00  0.00000000E+00  0.00000000E+00
  0.00000000E+00  0.00000000E+00  0.00000000E+00
  0.00000000E+00  0.00000000E+00  0.00000000E+00
  0.00000000E+00  0.00000000E+00  0.00000000E+00
  0.00000000E+00  0.00000000E+00  0.00000000E+00
  0.00000000E+00  0.00000000E+00  0.00000000E+00
  0.00000000E+00  0.00000000E+00  0.00000000E+00
  0.00000000E+00  0.00000000E+00  0.00000000E+00
  0.00000000E+00  0.00000000E+00  0.00000000E+00
  0.00000000E+00  0.00000000E+00  0.00000000E+00
  0.00000000E+00  0.00000000E+00  0.00000000E+00
  0.00000000E+00  0.00000000E+00  0.00000000E+00
  0.00000000E+00  0.00000000E+00  0.00000000E+00
  0.00000000E+00  0.00000000E+00  0.00000000E+00
  0.00000000E+00  0.00000000E+00  0.00000000E+00
  0.00000000E+00  0.00000000E+00  0.00000000E+00
  0.00000000E+00  0.00000000E+00  0.00000000E+00
  0.00000000E+00  0.00000000E+00  0.00000000E+00
  0.00000000E+00  0.00000000E+00  0.00000000E+00
  0.00000000E+00  0.00000000E+00  0.00000000E+00
  0.00000000E+00  0.00000000E+00  0.00000000E+00
  0.00000000E+00  0.00000000E+00  0.00000000E+00
  0.00000000E+00  0.00000000E+00  0.00000000E+00
  0.00000000E+00  0.00000000E+00  0.00000000E+00
  0.00000000E+00  0.00000000E+00  0.00000000E+00
  0.00000000E+00  0.00000000E+00  0.00000000E+00
  0.00000000E+00  0.00000000E+00  0.00000000E+00
  0.00000000E+00  0.00000000E+00  0.00000000E+00
  0.00000000E+00  0.00000000E+00  0.00000000E+00
  0.00000000E+00  0.00000000E+00  0.00000000E+00
  0.00000000E+00  0.00000000E+00  0.00000000E+00