Li 
 1.0000000000000000
    20.2271999999999998    0.0000000000000000    0.0000000000000000
     0.0000000000000000   20.2271999999999998    0.0000000000000000
     0.0000000000000000    0.0000000000000000   20.2271999999999998
 Li 
 432
Cartesian
  0.2323305500000000  0.3405022900000000 -0.0069269200000000
 18.2893762500000001  1.7644648800000000  1.5140008599999999
 16.8339829899999991  3.1483330000000000  3.5631303800000000
 15.0415823799999995  5.2336023699999998  4.9845971799999997
 13.6284697099999992  6.8488884299999997  6.9319817099999996
 11.4909267899999996  8.2470494799999994  8.1971545700000004
 10.5209973100000003  9.8585988800000006 10.1267616900000004
  8.8976756800000008 11.9296797800000007 11.5553582499999994
  6.6186201499999999 13.6105987499999994 13.0630896399999994
  4.8535539999999999 15.0515295200000008 14.9344609100000003
  3.6069919499999998 17.0604047299999984 16.9173687299999997
  1.7404051500000000 18.5175053200000015 18.7454235900000015
  1.5469329999999999 18.2121374200000012  1.6366455400000000
 -0.1636336700000000 -0.0412419800000000  3.0960619700000001
 18.9163669799999994  1.9562177800000000  4.9555497199999996
 16.7567673399999997  3.2947025100000000  7.0355288500000004
 15.3771223700000004  5.1811480999999997  8.3995786399999997
 13.6598647399999997  6.4808665100000002 10.1050489300000006
 11.7921591299999999  8.1139642100000007 11.9594332199999993
 10.2621184099999994  9.8807692800000009 13.6239023499999998
  8.4006440999999992 11.9944511299999998 14.8470352699999992
  6.6270241299999997 13.5423823199999998 16.8811043599999984
  4.9631501699999996 14.9753986700000006 18.4684371399999989
  3.4855599100000001 16.6142809299999996 -0.2531242800000000
  3.2364621100000002 16.7669041000000014  3.1175499800000002
  1.5374876900000001 18.5781431999999995  5.0740103999999997
 -0.1491154200000000  0.0976026400000000  6.7658668300000002
 18.5544748199999994  1.5563419400000000  8.3651007600000007
 17.1674359000000010  3.1044420200000000 10.0707655999999997
 15.3792282300000007  4.8185113700000004 11.9544120100000004
 13.5096507300000006  6.7791093599999996 13.6258441599999998
 11.7715162099999997  8.5045627800000005 15.1945762599999998
 10.2007006699999998 10.4225170899999995 16.9276413599999991
  8.5339517800000007 11.8107465099999995 18.4796143300000004
  6.4200837499999999 13.4135461800000009 20.3275476399999988
  4.8718298400000002 15.0832291600000001  1.7551704900000000
  4.9799543100000001 15.0649654399999999  4.7993649500000002
  3.3527577499999999 16.9171248299999988  6.5845123799999996
  1.2892098999999999 18.5347581199999993  8.4244092800000008
  0.1893675900000000  0.0652000000000000 10.2309817899999995
 18.7388738500000009  1.6464565400000000 11.7408421300000008
 17.0080869800000016  3.2677858799999999 13.7936464599999997
 15.0297153800000007  4.7498900500000003 15.0898505299999997
 13.5274939900000000  6.8004751399999996 16.8140181599999998
 11.9471483400000000  8.5933545999999996 18.3856092099999984
 10.3174284600000004 10.2539690500000003 -0.0781981900000000
  8.4103074000000007 12.1538401000000000  1.5276753000000001
  6.9958158700000004 13.3469588699999999  3.4187371700000000
  6.7437849500000002 13.6198918199999994  6.7706824200000000
  4.7421578200000001 15.0930536600000007  8.4024848100000007
  3.0586695100000001 16.9420084099999997  9.9671354399999998
  1.3970387099999999 18.4144831000000018 11.7971076099999994
  0.0131935700000000  0.2552511000000000 13.7106491100000003
 18.4954778600000012  1.5450640800000000 15.3677567699999997
 16.7260121999999996  3.3989746200000002 17.0389463499999998
 14.6625855800000000  5.2142213300000000 18.9047273900000015
 13.1683852800000007  6.8661494100000002  0.1832508900000000
 11.9078335000000006  8.7958999999999996  2.0812676799999998
 10.1934501399999995 10.4550920299999994  3.2871521200000000
  8.6268119599999995 11.7004750200000007  5.2461385600000003
  8.3778322999999997 11.5953241400000007  8.3901648299999998
  6.7491720300000004 13.3596661200000000  9.6820399599999991
  4.6639599599999997 15.1038129699999999 11.5577959099999994
  3.2956077300000000 16.8731621499999989 13.4733083400000009
  1.7080929700000000 18.2903878499999983 15.2822220299999998
 -0.0162502900000000  0.1590006900000000 17.0885932899999986
 18.3489725800000016  1.6369714900000001 18.6721875600000011
 16.5769199000000000  3.3056039899999998 20.2868244799999999
 14.8521115899999998  5.0519173100000003  1.9159555900000000
 13.3831246700000008  6.7738326600000001  3.3410910500000002
 11.8231148299999997  8.2560389999999995  5.1158995300000001
 10.3642845500000007 10.2230957700000005  6.8320422199999999
  1.6130487499999999  1.7457424800000001 18.8904016699999993
  0.1077959800000000  3.5074074500000001  0.0520204000000000
 18.2535791500000002  4.8375451099999998  1.7076323799999999
 16.9520176700000000  6.6083101600000003  3.5752422699999999
 14.9741594700000000  8.3634177600000008  5.1923949499999997
 13.4818216300000007 10.1673042900000006  6.9211088399999996
 12.0282799699999998 11.8686974000000003  8.7906920300000007
 10.3637713399999996 13.4935076600000006 10.0066514600000005
  8.6246749900000008 15.2716174900000006 11.6605654600000008
  6.5975134000000004 16.7475179700000005 13.3721784400000008
  4.9845154599999999 18.7941494300000009 14.9718551499999997
  3.2369952299999998 -0.1270016700000000 16.9434063600000009
  3.2593847999999999 -0.0165662200000000  0.1022519600000000
  1.5221210700000001  1.7000067999999999  1.8525904200000001
  0.0182063600000000  3.6216358099999999  3.2180224000000002
 18.2987534200000006  4.7482961699999997  5.0579627000000000
 16.8145334400000017  6.7918125299999996  6.8002374899999998
 15.1135272700000005  8.5639592600000007  8.6019038999999999
 13.4774239799999993  9.9566338400000003 10.2455804399999995
 11.6811962999999999 11.6700334899999998 11.8170788299999998
 10.4512978499999996 13.6649673299999996 13.4134336899999997
  8.4635588599999991 15.1576447499999993 15.2241355299999999
  6.8524301599999999 16.7003926299999996 16.7411059100000017
  5.2028826800000001 18.5564396699999996 18.3897138399999989
  4.8715503000000000 18.3565660800000003  1.8224191300000001
  2.9903596600000002  0.2318968900000000  3.1435471000000001
  1.8793702299999999  1.9150669600000001  5.1722340600000001
  0.0636373100000000  3.2070573100000002  6.4444458999999998
 18.8170999499999994  5.3368111599999999  8.2641286699999998
 16.8992094799999997  6.9344209100000000 10.3912091800000006
 15.1818197300000008  8.2097869800000005 11.8261066100000001
 13.4416419000000005 10.1404636299999993 13.3186329800000003
 11.9223074100000002 11.7859064799999995 15.1821349500000000
 10.0689724799999993 13.5113471799999996 17.1034469800000011
  8.1157482000000005 14.9981999199999994 18.8082317299999993
  6.5809692000000002 16.7970156999999993 20.2397267700000008
  6.6212670999999999 16.8023756599999992  3.3286780399999998
  4.6544402299999996 18.7739718800000013  4.7296814500000002
  3.0028819400000000  0.0401146700000000  6.9280160899999998
  1.7119845700000000  1.6140107400000001  8.1058751299999994
  0.1790301100000000  3.3002835899999998  9.9460469899999993
 18.7963811400000012  5.1206843299999996 11.5253671600000001
 16.7417783200000017  6.6232337100000001 13.5758054799999996
 15.2290309100000005  8.6037441599999998 15.0896150000000002
 13.4712929300000006 10.3028325299999999 17.0449202299999989
 11.9358586500000001 12.1421275299999998 18.8642568200000014
 10.5846633899999993 13.6106346100000000 20.5250098600000008
  8.1944136200000006 15.3258434799999996  1.6851758500000000
  8.2617956100000001 15.2039100699999992  4.8317952300000000
  6.5646448399999997 16.9985816700000001  6.5974790499999996
  4.5565698799999996 18.8023186799999991  8.2671464700000001
  3.1615819100000002  0.0530217500000000 10.1451873500000005
  1.5561301599999999  1.9084214600000000 11.8809524100000008
 -0.3289455000000000  3.2636312200000002 13.5937662199999991
 18.6789601699999999  4.9058757200000001 15.0184463499999996
 16.6541443300000012  6.3917153200000003 16.7906295800000009
 15.1593832699999993  8.3923776799999992 18.6287564400000001
 13.5631533199999996 10.0843647999999995 20.3441589000000000
 12.0057084700000001 11.6512989699999991  1.8316508000000000
 10.2180442199999995 13.5280029099999997  3.3215827999999998
 10.1326371900000005 13.6002256700000004  6.7950387200000000
  8.3516839100000002 15.2086954700000003  8.3439283799999995
  6.9344310800000004 17.0670474200000015  9.9938324900000008
  4.8108217599999996 18.5107532200000016 11.5887370300000008
  3.0719109499999999  0.1028052800000000 13.2179648200000006
  1.6930205899999999  1.7625447200000000 15.2086374299999996
  0.0989925600000000  3.3809391199999999 17.1873190600000001
 18.6893726899999990  5.0003535299999999 18.5779951799999985
 16.8074003800000007  6.6066836499999999 20.6289043800000016
 15.3381308099999991  8.4789073899999998  2.1098830199999998
 13.5012873399999993 10.1631089100000001  3.7331185599999999
 12.2141541799999995 11.9794568899999998  5.0076292799999997
  3.6466223300000000  3.2996306700000000 16.7014947199999995
  1.9867352700000001  4.8809680100000001 18.4684476900000014
  0.1017649600000000  6.3123941300000004 -0.0820507200000000
 18.5451708599999989  8.5616243999999995  1.4576819900000000
 16.9010088699999983 10.2494412700000002  3.6279399600000000
 15.2896728100000008 11.8477118600000004  5.0895429999999999
 13.4092211300000006 13.6481826999999996  6.7513570700000001
 11.9599662299999991 15.5332727899999998  8.2809499800000008
 10.0325548700000002 17.0319128699999993 10.4196327499999999
  8.4314260799999996 18.6580129499999998 11.9957025599999998
  6.8354727200000003 20.4811566300000010 13.2941817600000007
  5.0443526800000003  1.4865009499999999 15.1640048000000007
  4.9515233700000003  1.4924088900000001 18.7170077299999988
  3.3405642300000000  3.0373147800000000 -0.1039441300000000
  2.0575738800000001  4.8806609900000000  1.5077855400000000
 -0.3450748300000000  6.5024224999999998  3.1850223700000000
 18.6563817299999997  8.6924938199999993  4.9204261300000001
 17.0409306200000010 10.1104617500000007  6.8492200900000002
 15.1090807799999993 11.7939735700000004  8.3786407399999998
 13.6259807599999991 13.4752022199999999 10.0477211600000000
 11.9995120100000001 14.9532685500000007 11.8119332000000004
 10.1324110300000001 16.7710984100000005 13.5824363100000003
  8.3742387899999997 18.5106015799999994 14.9892534000000008
  6.8166143000000003 20.1811372599999999 16.8918674899999992
  6.9563129500000001 -0.0130213700000000 -0.0593088100000000
  5.0305704100000002  1.8637771200000000  1.6138332200000001
  3.3761177999999998  3.3812897700000000  3.4702943700000000
  1.5533760000000001  5.2153594900000000  5.1015838899999997
 -0.3133254900000000  6.7877836199999999  6.6473573200000002
 18.4155727200000001  8.6275420599999997  8.5150407000000001
 16.9765120699999983 10.1928696500000004 10.3930425700000004
 15.0207735600000003 11.9345224699999992 11.8744844300000008
 13.6509550599999994 13.4618995500000000 13.6072336499999995
 11.6507784000000001 15.1837558500000007 15.4084067299999994
  9.8506481499999996 16.6461497600000001 16.8901658300000008
  8.3444914299999997 18.2394780300000008 18.6359393699999991
  8.5139093999999993 18.8479931200000017  1.4903103400000000
  6.7057059099999998 -0.0181649000000000  3.1626505100000002
  5.0230085400000002  1.6993061300000001  5.2086807799999999
  3.6367327700000001  3.4737322800000001  6.8094697999999996
  1.3944638499999999  4.9907976800000000  8.5844405100000003
  0.2698914000000000  6.7292925200000004 10.2809907000000003
 18.5307271799999995  8.5818059600000005 11.9928907400000000
 16.6984777300000005 10.4417706100000007 13.3494721199999997
 15.2863131800000005 11.7741123999999999 15.3087295700000006
 13.4738832500000001 13.7138757899999995 16.8118943300000012
 11.9833101499999994 15.2527439000000005 18.7127766999999992
  9.8603211999999996 16.9028908899999983 20.4656124099999985
 10.2861093399999994 16.9241864500000005  3.4663809500000000
  8.4823692899999994 18.8710166100000016  5.0221754299999999
  6.7478864300000003 -0.0273906800000000  6.8988298400000003
  5.2585715200000003  1.6083799999999999  8.6353176999999999
  3.2614656499999999  3.0763604299999998  9.9802558000000001
  1.5531975700000000  4.8500470499999997 12.0130461299999993
  0.3986514200000000  6.6131473300000003 13.6005623300000007
 18.5816212699999994  8.4950418699999997 14.9361206899999992
 16.4637998900000007 10.0483180799999996 16.7938705500000012
 15.0065365499999999 11.9499301100000004 18.4264101800000013
 13.3162588500000005 13.7612773500000003 20.3824074999999993
 11.9020861399999998 15.5522672600000007  1.7374345800000000
 11.5539135399999999 15.2159456199999994  5.0038721700000002
  9.9489697699999997 16.9091554500000001  6.6789420499999999
  8.5754001599999992 18.5815864499999996  8.5526295500000007
  7.1619283400000002  0.0364451100000000 10.2848832600000009
  4.7114468799999996  1.8713214800000000 11.9099342400000001
  3.8090565100000000  3.2381863499999999 13.4226952700000002
  1.8548681899999999  4.6257257200000002 15.0746648400000005
  0.0031993400000000  6.9142115400000002 16.5863475800000018
 18.3893144399999997  8.2958346699999996 18.5371140200000006
 16.7219614300000003 10.1340788699999997 20.3773377999999994
 15.1478788499999997 11.6780355999999994  1.5574740000000000
 13.4310918299999997 13.7481437999999994  2.9315233400000000
  5.1689147899999996  5.0275794999999999 14.9765289999999993
  3.3413246000000001  6.6738556300000003 16.6443438499999985
  1.6980390999999999  8.0477848000000005 18.5024278100000004
  0.3262612200000000 10.0337065800000005  0.0144728500000000
 18.5188071600000015 12.0462414300000002  1.7076071799999999
 16.9352478700000013 13.8059734499999998  3.1209571800000000
 15.0849994100000000 15.1452594000000005  5.3290033100000000
 13.4691234499999997 16.8161065100000009  6.3239154900000001
 12.0311306400000007 18.3495780099999983  8.3694795899999992
 10.5164380699999995 -0.2037806700000000 10.2635441000000007
  8.8283670000000001  1.6649067500000001 11.8214059599999999
  6.7802875399999998  3.3650122300000000 13.0366683499999994
  6.6995133800000000  3.2972854200000001 16.7365536500000012
  5.0058886500000002  5.1227906299999999 18.1842414000000012
  3.6624688800000000  6.5748711999999996 -0.0508398200000000
  1.4148839499999999  8.1028901500000003  1.7694479999999999
  0.2409638500000000 10.1113433900000000  3.3244477200000002
 18.5520820300000011 11.9551492300000000  4.9363824799999998
 16.9709887200000011 13.3567226800000007  6.6214422600000002
 15.2954113300000003 15.0262615700000008  8.2679865400000008
 13.8960047000000007 16.6795393599999997 10.0821079400000002
 12.0046731700000002 18.1292091699999993 11.9246390699999996
 10.2963448999999994 20.2719416499999987 13.6246170600000003
  8.2167733900000002  1.6552732299999999 15.0443323200000005
  7.9683754699999998  1.7085665999999999 18.2334585099999984
  6.5812071699999999  3.5654387700000001 -0.1709817600000000
  5.0952926200000004  5.1241211599999996  1.8002794499999999
  3.5059885999999998  6.6571076800000002  3.2900765900000000
  1.5913177100000000  8.3083726200000001  4.9541764900000000
  0.1065901800000000 10.3001959000000003  6.7516894699999996
 18.5777433800000011 11.9444828800000007  8.5628297199999999
 16.7135612999999985 13.5614398000000005 10.1664112200000005
 15.4097622699999999 15.0756485799999993 11.8542548399999994
 13.6293256500000002 16.4863852400000006 13.6820079900000007
 11.9656315499999995 18.4883151300000002 15.2995839100000008
 10.0296988799999998  0.0653240600000000 17.0510869999999990
 10.1194338500000001 -0.0555221800000000 -0.2185525400000000
  8.7031403100000002  1.9869659200000001  1.3706000300000001
  6.7096110299999996  3.2529362399999999  3.4153238500000000
  5.1161866900000001  5.0159508199999996  5.0933039999999998
  3.2661891199999999  6.8271927799999998  6.8388455300000004
  1.5235922799999999  8.2743795599999999  7.9566640599999996
  0.0815824300000000 10.1537928799999992  9.8621782499999995
 18.4376926999999995 12.0368400500000003 11.8136568600000000
 16.9670936300000008 13.5404662800000004 13.9410367599999994
 15.6379693999999994 15.4218113799999994 15.5058302900000005
 13.3208745200000003 16.7453089800000008 16.7852345199999995
 11.6764482300000001 18.1037295900000004 18.6828939200000015
 11.5897564299999996 18.6439116200000008  1.8532172899999999
 10.0125428000000003  0.1076845800000000  3.3830577000000002
  8.2934497300000007  1.7719480400000001  5.2376029600000003
  6.9105230100000004  3.3933364699999999  6.8759526900000001
  5.0692881800000000  5.3385097200000002  8.2512945099999992
  2.9962364199999998  6.7118685200000003 10.2900450600000006
  1.6158210000000000  8.2705790100000005 11.7708448499999996
  0.2080557100000000 10.1322140800000007 13.2908278000000006
 18.7729464300000011 11.7718062900000007 15.1905070599999998
 17.0822674499999998 13.4972024699999995 16.9552709600000000
 15.1068604000000004 15.0240242199999994 18.7221205399999988
 13.4210234499999999 16.9228307499999993  0.2639600600000000
 13.5312450999999996 17.0055631699999985  3.5610932900000001
 11.8661080499999994 18.8316089799999986  5.1583503100000003
 10.0806080700000003  0.0854104400000000  7.1434520900000003
  8.5335705399999995  1.7706152100000001  8.5541526300000008
  6.7661118099999999  3.4438945599999999 10.2187233899999992
  4.6713705499999998  5.2559151599999998 11.6052735499999997
  3.5019266099999999  6.4508169899999999 13.6225365299999996
  1.7185245200000001  8.5126802399999999 15.1451973700000000
  0.1665491300000000 10.0437505599999994 16.7654969200000004
 18.7281211600000006 11.6368090899999999 18.2958958699999990
 16.9557352700000017 13.5326853400000005 -0.1874713400000000
 15.2878196899999992 15.1246509099999997  1.8178213100000000
  6.8144071100000003  7.0536743199999998 13.4140929199999999
  4.8940120599999997  8.3664052000000009 15.1839364000000003
  3.2477989900000002 10.0872402099999992 16.6664031600000015
  1.8125936800000000 11.8229607500000000 18.3387761299999994
 -0.1825535900000000 13.2062204300000001 -0.0219380800000000
 18.6821323100000001 15.3438885999999997  1.8742899000000000
 16.7672841699999999 16.9691574900000006  3.6741319699999999
 15.3151436600000004 18.8128759300000006  5.1280881699999998
 13.4156507999999999  0.0618981100000000  6.5507428399999998
 12.0280968300000008  1.4495770200000000  8.2375995599999996
 10.5857040999999992  3.5178956600000002 10.0204731799999998
  8.6130465800000007  5.1975060300000004 11.7139978300000003
  8.2603729999999995  5.2959630700000000 15.2229580799999997
  6.8154196100000002  6.8380794700000003 16.7637255699999983
  4.9247984799999998  8.3570333100000003 18.2509721599999999
  3.3569439700000001  9.6580646199999993  0.0308053000000000
  1.8688290500000000 11.8657098500000000  1.6167318200000000
  0.1944272200000000 13.7526831699999992  3.5042892200000000
 18.4531166999999989 15.3206500699999992  5.2221648099999998
 17.0483467699999984 16.9735001200000006  7.0896708799999999
 15.1125366799999998 18.5456535000000002  8.1750762600000009
 13.6107306500000007 -0.1031111100000000 10.1186527000000002
 11.9335543899999994  1.6766779800000000 11.7535789400000006
 10.0625160400000002  3.1346666999999999 13.3538804700000000
 10.1914637500000005  3.0727846599999999 16.7159209000000004
  8.4375081600000001  5.0057457000000003 18.1749820299999989
  6.9366941000000004  7.0601979600000000 -0.2733197500000000
  5.0454912700000003  8.3249518200000008  1.5494608500000000
  3.4685316700000000  9.8084422900000003  3.5658495900000000
  1.7147675400000000 11.5811066999999994  5.2203661900000000
 -0.0917512900000000 13.5537898600000002  6.7706983000000003
 18.4759419800000018 15.1780334700000008  8.6704067100000000
 16.8872620799999993 16.8436850699999994 10.1075924399999995
 15.3023361999999992 18.5008592199999988 11.9193309700000007
 13.5017660100000008 -0.1548939500000000 13.6384088800000001
 11.3487088099999998  1.5161126800000000 15.3031919700000003
 12.0286997200000005  1.7016412200000000 18.6742779900000002
 10.1123934700000007  3.8090525600000000 -0.6545442900000000
  8.1822989400000008  4.9486001499999999  1.1709902500000000
  6.7722227100000003  6.8916981799999997  3.2516549000000001
  4.9901293100000004  8.1345384999999997  4.9640559099999999
  3.2521658699999998  9.9732380400000000  6.8814056099999998
  1.7543507599999999 11.9328709699999997  8.3980320299999995
 -0.2770574200000000 13.6237799400000004 10.0910659000000003
 18.5731133399999990 15.2899098999999996 11.7839534900000000
 17.0285841900000001 16.5928438599999986 13.7432769700000001
 15.2073970900000006 18.3465881599999996 15.1912665400000009
 13.3530216799999994 -0.3612259700000000 16.9047514600000000
 13.3464966300000007 -0.4002419400000000  0.1162952200000000
 11.6784527600000008  1.8220020699999999  1.5820379200000001
  9.8304476600000008  3.4510894799999998  3.0565700900000001
  8.1860936399999993  4.9099698500000004  5.1241186499999998
  6.7817263900000002  6.9418190099999997  6.5541640599999997
  5.2348980200000002  8.4818029799999994  8.5787936600000005
  3.0590372700000001  9.8514896099999998  9.9486261099999993
  1.5442053200000001 11.9896200299999993 11.7186021399999998
  0.1614066300000000 13.4491503800000007 13.8264686099999992
 18.5240888000000012 15.2117612599999994 15.4894604699999991
 16.7493761499999998 16.9978197999999985 17.1698200599999993
 14.9680806400000002 18.3997257000000012 18.5935023400000006
 15.0391839300000001 18.1818110600000011  1.8218113300000001
 13.5715185500000004  0.0688887100000000  3.1073783900000000
 11.7544377299999994  1.5933902099999999  4.9619178200000000
 10.2836992800000004  3.2568795900000000  6.9560517800000001
  8.2797089499999998  5.0323942400000004  8.2676996599999999
  6.8556047900000001  6.9047814499999998  9.9334621900000002
  5.3443256200000002  8.2931542000000000 11.6913734100000006
  3.0920005900000000  9.9129661799999997 13.4475020000000001
  1.7087925700000000 11.9449031100000003 15.2808148599999996
 -0.1042784200000000 13.4505912599999995 17.1668408100000001
 18.6914373299999994 15.1535236300000005 18.7122329799999996
 16.6122715899999989 16.7940649099999995  0.1103806800000000
  8.5214682300000000  8.4276477799999991 11.5543373200000001
  7.0097029199999996 10.1660941699999992 13.4135071299999993
  4.9503790600000004 11.7814814600000002 14.8060951000000003
  3.6307892000000002 13.5624838899999993 16.8962393800000008
  1.7001780900000001 15.0791262499999998 18.4925966799999983
 -0.1491709600000000 16.9817428200000009 -0.2065574800000000
 18.5234248800000003 18.4403710499999995  1.5870800199999999
 16.8352335000000011 20.1625136100000013  3.5012980100000002
 15.1509844400000002  1.7863080099999999  4.9521923200000000
 13.7396549900000000  3.3056486000000000  6.6696220700000000
 11.8981278300000000  5.0236207400000001  8.1315790799999998
 10.3142710700000002  6.6972499699999997  9.9608270000000001
 10.3706739700000004  6.6651643700000003 13.5520494300000003
  8.3902795300000008  8.3695828799999994 15.5407141499999994
  6.7040142400000002 10.2129743299999998 16.6817276399999983
  4.9722100100000004 11.5857620899999993 18.5334746700000004
  3.3736111300000000 13.2967378699999994 -0.3799530900000000
  1.7340931700000000 15.2481674300000005  1.4544730600000000
 -0.0092792700000000 16.7566101200000013  3.4863776999999998
 18.5581360300000000 18.3947765300000015  5.0164870600000002
 16.8098809200000012 20.2254364399999993  6.4632586700000001
 15.0422135400000005  1.5018810199999999  8.5623070800000001
 13.6038458599999998  3.1219316899999998 10.0129620500000005
 11.9772097399999993  4.8598268700000000 11.8351520699999995
 11.6646625400000001  5.0958519899999999 15.1682557899999999
 10.3613235800000005  6.5756264399999997 16.8905654200000015
  8.5510138100000006  8.6134372700000004 18.5838514500000009
  6.7673366599999998  9.9248937999999995 -0.4867932300000000
  4.8963538299999998 11.6211331399999995  1.5814796000000000
  3.1096266300000002 13.7153623899999992  3.3586738899999999
  1.4588049199999999 15.2042392700000004  5.1053327199999998
 -0.2811004400000000 16.5628536100000012  7.0531945599999997
 18.6318511200000003 18.7391234000000004  8.6915961599999996
 16.7426507499999992  0.0872632800000000 10.0375762799999997
 15.3246847899999992  1.8492556600000001 12.0582604999999994
 13.3740453800000001  3.1890691400000000 13.7405275400000004
 13.7623813399999992  3.2568893399999999 16.7758249799999994
 11.9585570099999998  5.1130636200000001 18.3286233000000003
 10.3846229900000004  6.8935795999999998 -0.1801146300000000
  8.7335869499999994  8.7310297499999994  1.8712111100000000
  6.5390358400000004 10.2882956799999992  3.2828045200000000
  5.0375267099999999 11.7438533700000001  4.8225554600000002
  3.2837802500000000 13.4049842300000002  6.6700652099999997
  1.8484445100000000 15.1140810299999995  8.4906172499999997
 -0.2103677400000000 16.7730671700000009 10.2543451399999999
 18.6837442299999985 18.7055724499999982 12.1115098000000003
 16.7633512300000014 20.2827613999999983 13.7022025400000000
 15.0873976200000008  1.5449865899999999 15.1099046399999999
 15.0739990400000003  1.4371613700000001 18.5455846999999991
 13.5547757200000003  3.6258980099999998  0.2345070700000000
 11.6237447899999999  5.1241455699999996  1.8140955400000001
  9.9028677100000007  6.7880719599999999  3.3889376699999998
  8.5883187299999992  8.6898405600000004  5.4467395600000001
  6.2810598200000003 10.1842322999999997  6.5171822199999996
  5.2685755399999996 11.9521324000000000  8.0677595400000008
  3.4327971200000000 13.5067287300000007  9.7838612999999999
  1.7183978799999999 15.2528158000000005 11.6137750999999998
 -0.2156513500000000 16.8496647899999985 13.5227371099999996
 18.5746196599999998 18.6787618000000002 15.2721332800000003
 16.4221051899999999 19.7811307599999999 16.8897419900000010
 16.6348537599999986 -0.1310656300000000  0.1050806500000000
 15.0305062700000001  1.8029204000000001  1.9759349700000000
 13.4440099199999992  3.2203166500000000  3.7380272899999998
 11.7694925200000000  5.0183470400000001  4.8202468300000003
  9.8852438899999999  6.5191621499999997  6.6566195500000003
  8.5658060299999992  8.7489426899999998  8.1707429699999992
  6.8049625799999998 10.1328027899999995 10.0481794200000003
  4.8546132399999999 11.8380329300000007 11.6266012100000005
  3.2042782999999999 13.3357412300000000 13.3120857299999997
  1.7603013599999999 15.4315173899999998 15.3456749800000001
  0.0028433100000000 16.8568142399999985 16.8939949399999989
 18.5919344500000001 18.7771981100000005 18.5988412700000012
