Li                                      
   1.00000000000000     
    22.7325000000000017   -0.0000000000000006    0.0000000000000000
    -0.0000000000000006   22.7325000000000017    0.0000000000000000
     0.0000000000000006    0.0000000000000006   22.7325000000000017
   Li
   500
Direct
  0.0069859003629134  0.0088226657868660  0.9859955970526784
  0.0217671430770920  0.0959235675794545  0.0953145835257914
  0.0104368036951499  0.1885501084350594  0.1865990999670046
  0.9986960580666420  0.2939461207522243  0.3069369580996337
  0.0181138876058498  0.3996887218739715  0.3759399652479942
  0.9980961359287335  0.5032304722313867  0.5052537670735759
  0.0060119665676908  0.6032815352468930  0.6372181423072689
  0.0180585118222822  0.7302657015286513  0.7157068303090313
  0.9918685828659406  0.8199773729242281  0.7932386530298032
  0.0048064775101722  0.9019186618277786  0.8924538959639250
  0.0830716463213435  0.9908706596282855  0.1074544445177636
  0.0809042714175732  0.0931090641152537  0.2131682239085038
  0.0913634105355783  0.2205969339051990  0.2961509050918281
  0.0946670423402622  0.3222470524579322  0.4004722124711293
  0.0977839181788198  0.4078936544594711  0.5033204671725500
  0.0968296544594764  0.5150736610579543  0.6066545514131718
  0.1158245362366657  0.6129572532717447  0.7439520101176740
  0.1036484135048923  0.7311937710326646  0.8330309693170577
  0.1220394589244478  0.8287450460794048  0.8986792429341222
  0.0950682437039490  0.9201837958869490  0.9967352891234995
  0.2064653487297932  0.9970890614758616  0.1965804077862074
  0.1966086739249988  0.0898879986803038  0.2814078284394554
  0.2179515117123074  0.2035766004618935  0.3854389921917942
  0.1989141647421064  0.2964257142857107  0.5005600576267426
  0.2040156370834723  0.3999168397668527  0.6282965547124135
  0.1959911026063992  0.5093724341801362  0.7063739676674388
  0.1937156595183112  0.5897107370504813  0.8124895607610227
  0.2064760263939291  0.6993662896733781  0.8985448995930909
  0.1974952741669398  0.8125591936654573  0.9872182390850099
  0.2031807966567669  0.9172597716925139  0.0869505474540873
  0.3069777934675031  0.9875370663147507  0.2775994721214090
  0.3272348065544932  0.0958445410755502  0.3907035398658323
  0.2913233146376299  0.1993589196084926  0.4930148637413367
  0.3021853632464513  0.3061430748927734  0.6077877800505860
  0.2762510115473447  0.3915187203343251  0.7105904256021134
  0.3060849668976147  0.4986714065764843  0.7954414604640903
  0.2996761535246861  0.6084850641152570  0.8982529836137658
  0.3109927992961588  0.7024907726822818  0.9679759498515352
  0.3181592187396873  0.8071664220829220  0.0802578000659864
  0.3016136971296604  0.8940112526118966  0.2119780054987359
  0.3843028215110493  0.9995246462113698  0.4080875372264359
  0.4001848635213889  0.1104443418013830  0.4950240831408763
  0.3864117356208041  0.1843921011767264  0.6039359832838471
  0.3872863521390073  0.3251226508303091  0.7089041240514646
  0.3814550832508559  0.4041281592433705  0.8102145140217729
  0.4012689004728927  0.4959611732101621  0.9016842445837483
  0.4176285415154481  0.6073387317716907  0.9923945500934792
  0.4042278359177374  0.7158083835917708  0.0949690843506019
  0.4037563382821929  0.7983886963598366  0.2132502430441008
  0.4014199806444552  0.9045154404486979  0.3138769708567040
  0.4986562538216219  0.9879080026393936  0.4940041306499481
  0.4692464203233229  0.0962957079071813  0.6217543481799197
  0.4833399714065791  0.1779836537996289  0.7176926919608491
  0.4951732277576184  0.2854170447597042  0.7998018440558639
  0.5084967834598046  0.3966127064775122  0.9003896201473651
  0.5113599784449576  0.4877758196414845  0.9850813350929286
  0.5126704458374576  0.6095320307929200  0.0908225782469998
  0.5125337859892198  0.6853929198284376  0.2202798416364260
  0.5192806044209846  0.7860845116023327  0.3173271391179995
  0.5114671364786076  0.9260348263499409  0.4202363158473545
  0.5942612528318492  0.9967159388540665  0.5955211331793677
  0.6030504695919916  0.0972968344880698  0.6977149701968557
  0.6013857015286490  0.1952824700318914  0.8113377468382268
  0.5892995051138215  0.2945304489167526  0.8791882305069834
  0.5877796828329451  0.3766779087209926  0.9848020340921622
  0.6039490883096903  0.4852187154954350  0.0945259421533038
  0.6057761082151103  0.6165350590564174  0.1817093069394033
  0.6268063173870004  0.6776788637413418  0.2910108813372929
  0.6093968753986587  0.7757836467612478  0.4159514254921390
  0.6196562247883008  0.8971424770702754  0.5065927997360617
  0.6950930315627417  0.0030866539095982  0.7185994259320339
  0.6617664937864305  0.0872487161552868  0.7789228325085205
  0.6929306671065660  0.2207389438029281  0.8715680809413868
  0.6874544242824143  0.3023241588034722  0.9664778282195101
  0.6818120857802725  0.3844439485318389  0.0665221330693910
  0.7045381233916217  0.4600058475750544  0.2087516010117696
  0.7241486009017919  0.6062919441328489  0.2712856610579593
  0.7240344559551275  0.6885607104365974  0.4090539355548231
  0.7198007918178817  0.8084560642252256  0.4921432552512925
  0.6984291463763341  0.8974106380732465  0.6302788105135804
  0.7679051960849037  0.0053534815792347  0.8071617569558995
  0.7807697367205577  0.0930573711646332  0.8916921610029718
  0.7726412431540766  0.1963104005278780  0.9942825096227850
  0.8008295286484142  0.3005300508083124  0.0680184673924984
  0.8059139500714849  0.3818767825800080  0.1700900569668988
  0.8042168349279635  0.5078125573518122  0.2953719991201993
  0.7962525256790940  0.6016157057076867  0.3751669657978667
  0.8234226415924368  0.6803033177169269  0.5330487517870921
  0.8040680761024959  0.8165507616848089  0.5993683264049281
  0.8035526924007499  0.8875054582645987  0.7291161394479246
  0.8828164130649938  0.0126600475090726  0.9006935268888157
  0.8715817842296261  0.0994101330693908  0.0244647196744765
  0.8893146679863619  0.1905954879577720  0.0716119876828358
  0.8987418691300988  0.2644285454745443  0.1836695321675990
  0.9143324882876911  0.3850655902342481  0.2899131965248003
  0.9157748360277154  0.5020764051468163  0.3809523822720777
  0.8916888362476598  0.6169432394149368  0.5015069737160474
  0.9207529352248969  0.6841994408885981  0.6181694956559980
  0.8942913172770233  0.7940010381612197  0.6972315970526779
  0.8832532475530641  0.9011625307379276  0.7997324214230730
  0.1281160523479627  0.1073671078851888  0.0024201244913655
  0.1159811032662503  0.1958082907731225  0.1160463675354677
  0.1060480118772702  0.2906960079181786  0.2222056505003849
  0.1161742210491568  0.3964402648190912  0.2980387502474429
  0.1037649924117474  0.5030135528428445  0.4088838895853968
  0.1050461687012003  0.6197150946882246  0.5038772066424713
  0.0801086330144045  0.7068921785989204  0.6186232812053234
  0.1067629138898027  0.8202628338282167  0.6760777129660198
  0.0965530931485787  0.9203667990762128  0.7891607236335645
  0.0884004297811529  0.0144246035411868  0.9059568797976496
  0.1905792011437342  0.0987076111294414  0.1259268228307491
  0.2273657789508405  0.2168755196304843  0.2078714743209034
  0.2086449484218633  0.2930116353238787  0.3279076428021526
  0.2161180547674064  0.4133147924777276  0.4176956885516319
  0.2200465668096356  0.5169038693500525  0.5211521953150751
  0.1860923079291794  0.6174510823710548  0.6102495189706332
  0.2237425426151987  0.6949525036841493  0.7202462263279443
  0.2204204948861772  0.8517266679863624  0.8065548896953700
  0.2022831571538575  0.9254670524579325  0.9188708804574972
  0.2070133311338367  0.9977711611129436  0.9987871184427561
  0.3238754479269801  0.1004794866380720  0.2197418796876747
  0.3169707080171591  0.2083306495106143  0.3128364271417610
  0.3093850698339367  0.3122641152534911  0.4180465562520652
  0.3105213192565728  0.3897623547783979  0.4888362942923123
  0.2989490214450683  0.5046813223358626  0.5957602397448554
  0.3100303099087185  0.6079781053557696  0.6730390498185415
  0.2960565195205120  0.7042276669965872  0.7705083585175387
  0.2831805635103919  0.8191258365775838  0.9109210306829425
  0.3000793357527769  0.9105663389420400  0.0275148492246799
  0.3195569202683401  0.0151138053447681  0.1213403681953125
  0.4366903112284177  0.1173394945562549  0.3283118504344031
  0.4244912539315990  0.2362749011327381  0.4164685648300903
  0.3835771160233179  0.3080609374243934  0.5131328410865521
  0.3722852193995365  0.4151566334543020  0.5927224168041363
  0.3746330641152511  0.5065410271637489  0.6982706899813067
  0.4136316410425636  0.6030784581546271  0.7783289800945781
  0.3804212695480018  0.7421757694930164  0.8751949820741203
  0.4153614719014627  0.8106604003079312  0.0160279230177025
  0.4135857006488521  0.9171433397118633  0.1305720699439163
  0.4212939012427128  0.9875276300450864  0.2267861942153289
  0.5057430199054238  0.0860816746948174  0.4249774041570404
  0.5195258858462566  0.2052399714065771  0.5343127698229395
  0.4653381937754304  0.3092526096997688  0.6173927104365973
  0.4764249840536650  0.4146701972946190  0.6938269508413057
  0.4817982984713538  0.4935705852853829  0.7831335356867939
  0.4928011292202825  0.5901067062575578  0.8742272424942286
  0.4892405780270508  0.7027870506983405  0.9752985500934770
  0.4874133267348526  0.7996261040360721  0.1173774842186290
  0.4961045366765617  0.9175963510392577  0.2039606352139032
  0.5215372541515464  0.0167157365006076  0.3424075834158131
  0.6138805459144407  0.0640448388870567  0.5068829622786737
  0.5926815013746847  0.2209635059936232  0.6151511795886933
  0.5834202195095131  0.3104969849334651  0.6859010196854740
  0.5531119846035395  0.4112409281865155  0.7795390058286600
  0.5743830383811712  0.4883453905201804  0.8856975400857792
  0.5969916815132521  0.6041763725943028  0.9815715169910888
  0.5808144022874728  0.7194060270537790  0.1102357048278861
  0.6110912226987821  0.8005785091828912  0.2217966365335968
  0.6022619065214982  0.8855313889805316  0.2982383609369847
  0.6271910806114604  0.0185344075662570  0.4122917043879895
  0.7042800259540272  0.1159133320136334  0.6059340459694269
  0.7043462870339852  0.2260557466182789  0.6916104973056179
  0.7134674131749676  0.3269184563950276  0.7947773003409182
  0.6840254032772464  0.4029725322775732  0.9212456060706060
  0.6754931133839222  0.5047445067634442  0.9946901383481830
  0.6846783121082183  0.6092989222478806  0.0927333258550505
  0.7111041354888386  0.7060326484108685  0.1871998807874178
  0.6930936905311782  0.7772251155834127  0.3142479665676916
  0.6951451301000802  0.9097297749917530  0.3869441200923802
  0.7170480145166636  0.0205264999450137  0.5147898726492883
  0.7978037782909908  0.1186229776751375  0.7052641350489353
  0.7869367566259768  0.1876860895194099  0.7970909336852543
  0.8135161346090385  0.2999894305509727  0.8972238953040801
  0.8026303882107086  0.3848670924887259  0.0045787656438989
  0.7603096214670657  0.5133823578576937  0.0995682151105228
  0.8000854415484469  0.6058457296821729  0.1955326264159254
  0.7838652669086130  0.7111123545584519  0.3031163378422974
  0.7890011213020998  0.7891804350599330  0.4165019637083489
  0.8270256566589680  0.9504712922027920  0.4935083092488739
  0.7775792917628976  0.0088481293302536  0.6240887042780159
  0.9253984396788724  0.0823623732541492  0.8013465509732782
  0.8821107542065292  0.1868087610249631  0.8823669561200944
  0.9150382654789411  0.2739766981194336  0.9786000954580416
  0.9030143459804236  0.3940437316617178  0.0896306107995173
  0.8874590388210706  0.4852541577037286  0.1868388716595177
  0.9221660336522604  0.6104588993731426  0.2828103921698002
  0.8776627150555356  0.7042983763334405  0.3802716872319394
  0.8832032187396877  0.7806927341911347  0.5348217367205521
  0.8892221357087848  0.9252502360057164  0.6207777987462890
  0.8875059201583611  0.9844150911690335  0.6994871479159812
  0.9835463204662958  0.1077160976575371  0.9375521891564915
  0.9999806356537988  0.1673929787748847  0.0154086308149104
  0.0171069046519321  0.2778330592763680  0.0943713793027570
  0.0123931855273298  0.4067774221928957  0.2155113621467066
  0.0280602991311980  0.5039760382711975  0.2970698849664544
  0.9883515438249191  0.6188193511492344  0.4053328045749467
  0.9831038961838772  0.7094501840976548  0.5061969712966032
  0.9833759054217523  0.8276726325745045  0.6230718200813783
  0.0000076542395249  0.9188279982404026  0.6872977842296280
  0.0098337235235917  0.9988691899263173  0.8087570658748504
  0.2024225316177279  0.1904509416034301  0.9929197079071841
  0.2106901810183643  0.2775169959309380  0.1092287280325550
  0.2229212867040573  0.3920773830419009  0.1995329888925568
  0.1952671039260991  0.5084863516991120  0.2979909935114904
  0.1919971802485421  0.5835763928296487  0.3858221123941519
  0.1891979060816027  0.6840018475750611  0.5156572057626718
  0.1960831501154701  0.7969474012977003  0.5732887456285027
  0.2285264981854169  0.9039950071483531  0.6972763070493784
  0.2150096166281728  0.0224800316727141  0.8356067652040053
  0.2026036375233673  0.1103949798746271  0.9159004091059089
  0.3035256865720868  0.1931966246563306  0.0913397422192901
  0.3390340283734758  0.3060555842956134  0.1884770663147464
  0.2972146477510194  0.3872475979324790  0.3138247535466832
  0.3154090539975840  0.4810682322665798  0.3970866693060628
  0.2953518653909626  0.5922980354118579  0.5140179315957312
  0.3161618009457854  0.6935238253601668  0.6046342285274378
  0.2768071171230631  0.8060040202353491  0.7088211103046334
  0.3157965472341360  0.9213068021555060  0.8207482969317041
  0.3067654916969076  0.9886399274166919  0.9191548391070086
  0.3103658783679748  0.0916790287033962  0.0085433370724743
  0.4319631901462628  0.1886055352468929  0.2095827968767168
  0.4039266534697035  0.2841607447487107  0.3152906209171888
  0.4240785584515550  0.3759822549213681  0.3849536685362338
  0.4248800343121104  0.4733077479379730  0.4678951888265672
  0.4372620512482115  0.5926631298801297  0.5946255431650727
  0.4161569897723538  0.7143859865830890  0.6704248709996676
  0.3614593982184076  0.8247816553392724  0.7805487627845622
  0.3871787581656250  0.8891319041020580  0.9239263521390058
  0.3966611811283371  0.9801895304080048  0.0109294472671309
  0.4016240620257321  0.0853638495546036  0.0930531419773430
  0.4844009057516772  0.2019768450456425  0.3065558249202667
  0.5070155966127814  0.3073340714835595  0.4013958689101500
  0.5033703072693285  0.3892197694930175  0.4965332295172118
  0.5158251811283421  0.5101298348179952  0.6000790454195553
  0.5131584313207966  0.6129928454855360  0.7097308501044779
  0.5117388659408348  0.7341689954910393  0.8000157743319036
  0.4796711817881913  0.7835529308259126  0.8899321627625625
  0.4967036933905220  0.8864141396678775  0.0066724777301204
  0.5287576439019048  0.0174195794567282  0.1209385171010666
  0.5316095449246703  0.0984854001979514  0.2271482489827363
  0.5898221062355660  0.1791585206202555  0.3988341431870666
  0.6024656636973518  0.3311946327944568  0.4976938999230143
  0.5927009985703293  0.3923965437149448  0.5998800505883679
  0.5914233722643800  0.5149116573188195  0.6906544863081479
  0.6168611578137018  0.6278077875288659  0.7743645599911986
  0.6066239938414171  0.6860387951171205  0.8958422514021791
  0.5884580266138784  0.7912980530078073  0.9847332163202438
  0.5728278042450228  0.8839019892224798  0.1044129510612564
  0.6204090513581875  0.9969018836467640  0.2275957699329183
  0.6054923277246260  0.1163233295941950  0.3137817283624784
  0.6952798561530855  0.2015426640272722  0.5046823072693272
  0.7091876793137573  0.3293504506763441  0.5992180032992422
  0.7038789750357424  0.4001549548003993  0.6829701370284837
  0.6987981577037274  0.4971118887055965  0.7764013249752537
  0.7048686932805452  0.6099005177609129  0.8841252638293184
  0.7243394971956434  0.7017325762674602  0.0102562938524144
  0.6924785927636634  0.8033439705267753  0.0894506099197159
  0.6897189926316969  0.8944268483448781  0.2161904409985738
  0.7201150397008718  0.0104661141537434  0.3190569730561990
  0.6933466354338478  0.1102499289563426  0.4029633515891362
  0.7840129844935646  0.2060021792587676  0.5960822197294604
  0.8294273040800633  0.3002446431320820  0.6982455902342437
  0.8150343261849784  0.3904385316177255  0.8390801750797294
  0.7965636744748679  0.4848478807874201  0.8931816065105025
  0.7890380015396445  0.5975058075442661  0.0065659711866246
  0.8091363457604785  0.6968972057626743  0.0971334890575193
  0.8055289739359921  0.8094053390520202  0.1796444790498199
  0.8092782505223823  0.9045641095348103  0.3066007689431416
  0.8101238192015856  0.0306964803695138  0.4066804482568998
  0.7879184726712865  0.0968210922687760  0.5190097459584280
  0.8904230960079147  0.1885421603431183  0.7260181669415999
  0.9014345043440031  0.3043572823050695  0.8147421057956663
  0.9147757312218161  0.4161920734631011  0.9257699874628855
  0.8797578814472686  0.4904901057956650  0.0209955838557150
  0.8957680747828007  0.6162815941933388  0.1226152820851212
  0.9053316718354765  0.7219251169031153  0.1968032517320992
  0.9206258933245337  0.8118829855933143  0.2885661937754307
  0.8920474268118355  0.9116872878038080  0.4000525076432453
  0.8913292356757978  0.0202116929506246  0.4952996709556814
  0.8879642406246546  0.0948610944682713  0.6124787291322988
  0.9993671694710216  0.2065794870779740  0.8006370183657765
  0.9716498620917164  0.2855239036621597  0.9290003787528889
  0.0105634338502156  0.4018698506543501  0.0153976654569448
  0.0107774657428763  0.4888363422412851  0.1027505162212705
  0.9983164526558923  0.5970182553612702  0.1906084152644922
  0.9924779698669326  0.6946251736500599  0.2766769968107354
  0.9936778062245679  0.7779848234905984  0.3923450680743414
  0.9772927500274946  0.8823067203343200  0.5153009048718786
  0.9952995557021893  0.0058645806664472  0.5878151153634690
  0.0257479076212448  0.0884636555592238  0.6888354980754414
  0.0946412845045614  0.1981910542175314  0.9027921983943656
  0.1187614507863159  0.2965361614428659  0.0111862540415686
  0.1029591892664712  0.4062816148685826  0.0983376293852416
  0.1067528635213932  0.5153998192015834  0.1800936078302016
  0.0960923105685723  0.6113004482568982  0.2795099817441979
  0.1103798306389550  0.6985736337842283  0.3868421625426137
  0.0674582830748918  0.7929358741889345  0.4884505157813734
  0.1096299936214677  0.9216379461123907  0.5886537961068967
  0.1138245709886760  0.0078042529418241  0.7151201579236783
  0.0740857864291229  0.1020535378862846  0.8535265452545886
  0.3022614996150850  0.2828257098867226  0.0138498383371797
  0.3217295963928279  0.3727304858682530  0.0805422505223774
  0.2898187445287590  0.4902444179038810  0.1972798319586531
  0.3044576465412945  0.5734378405366769  0.2972329361046988
  0.2915713014406691  0.6866115354668452  0.3814274158143647
  0.2815015013746844  0.7998823310238663  0.4886389961508826
  0.2695370588364696  0.9004287267128532  0.5887331551743102
  0.2642406176179506  0.9909604649730568  0.7134961398878232
  0.3050783341031575  0.0991841684812513  0.7783654217529943
  0.2984683176069538  0.2103779254371503  0.9078647245133595
  0.3873093790828079  0.2848704212031237  0.1014674505663677
  0.4063040602661374  0.4033644495765998  0.1869665215000538
  0.4182755623006713  0.4748357655339248  0.2649410438799080
  0.4016261295502019  0.5998905320576284  0.3858342245683488
  0.3993895735180928  0.6924572180798449  0.4665474558451521
  0.3989812396348853  0.7988403862311699  0.5827526299351149
  0.3743098726492917  0.9282386631474751  0.6722674285714305
  0.4011690663147505  0.0042123659958193  0.7915308492246780
  0.3845644473771017  0.0987775414054752  0.9074058893654495
  0.3850750199054218  0.1836061524249430  0.9927944102056543
  0.5029645058836465  0.3036824489167458  0.2111371815682404
  0.5271975765973806  0.3912432200593869  0.3132140274936788
  0.5110485811063441  0.5099613654459461  0.3865937380402542
  0.4883163303640146  0.6120746530298007  0.4901260890795101
  0.4898473586275145  0.7138395183107917  0.5862125287583879
  0.4760989279665679  0.8339235429451222  0.7008706389530417
  0.4788754523259655  0.8987812075222692  0.8074794752007008
  0.4945272961618841  0.0000238957439791  0.8988755653799601
  0.5129423055097320  0.0758682885736306  0.0175298176619378
  0.4970015757175830  0.1769978049048717  0.1046854204332988
  0.6298389191685914  0.3181969682173076  0.2853119516111278
  0.6208435491037037  0.3955768745188593  0.4142159186187158
  0.6281312556911942  0.5249851868470259  0.4869359986803019
  0.5718888591224029  0.5962292409545782  0.5658654701418655
  0.5901552464533140  0.7275098546134373  0.6893577371604565
  0.5973893588474652  0.8087055158913472  0.8031304475970558
  0.6000152583305862  0.8809397048278882  0.8956349064115230
  0.5897546978994797  0.9906887407896150  0.9903355526228950
  0.6294080668646203  0.1336536865720888  0.1253833111184406
  0.6148207619047596  0.2074078178818866  0.2077742056526972
  0.7150972999010250  0.2642215717584975  0.4055455361266880
  0.7050788958539513  0.3780403316837138  0.4883428615418453
  0.6942927865390942  0.4706941009567771  0.5861703772132429
  0.6904409893324512  0.5866244284614552  0.7057006787638826
  0.6835972897833500  0.6901452752666870  0.8013936720554256
  0.6963644579346777  0.7999540415704374  0.9218729119102633
  0.6632235948531857  0.8941738057846678  0.0193838671505588
  0.6814743389420457  0.9804734296711786  0.1207391457164846
  0.7078172352358933  0.1057383732541481  0.2129620015396441
  0.7293904695919906  0.2002217239634874  0.2937074078961857
  0.8022620846805211  0.2933957241834406  0.5049331762894553
  0.8203835820961203  0.3900364311008460  0.5916178651710098
  0.8093212475530649  0.4634670199054227  0.6928955961728818
  0.8185132255581209  0.6206823824920278  0.7866479736060725
  0.7933276608380098  0.7124435328274501  0.9008101766193803
  0.7782810364016299  0.8059691358187635  0.0117302135708783
  0.7895029556801916  0.9105742738370139  0.1096494727812569
  0.8085128578027039  0.0084550555372260  0.1902809163092485
  0.8211714281315281  0.1287363013306972  0.2692840831408745
  0.8196910260640067  0.1613151452765891  0.4086578660508096
  0.9236822298471381  0.3060953137578366  0.5856814921368070
  0.9381646338942033  0.3957334745408545  0.7116246017815868
  0.8991931446167385  0.4868031945452529  0.8160791549543589
  0.8862590951281177  0.5924256227867559  0.9134907278126008
  0.8885195601011802  0.6835316054107565  0.9875403708347079
  0.8971160004399010  0.8017468316287264  0.0985541915759356
  0.8806768186517075  0.9041877083470808  0.2007173148575845
  0.8729076621577008  0.0006924922467846  0.3173011019465548
  0.8870363215660433  0.1112643308039125  0.4023118856263039
  0.9156710467392486  0.1732049800945816  0.5134982729572215
  0.9911174199934010  0.2854119784449551  0.7171332396348831
  0.0006936650170459  0.3973200721434083  0.8337460028593426
  0.9934425967227511  0.4824560246343310  0.9170025179808619
  0.9862042300670879  0.6057553335532830  0.0076057657538797
  0.9990197756515968  0.6815059329154280  0.1040669301660628
  0.9918398279995628  0.8017327663037506  0.1849248397668504
  0.9911309587594843  0.9057533883206830  0.2786708962938533
  0.9859948140327717  0.9817267423292648  0.3811553071593536
  0.0023861198724262  0.0865406721654054  0.5163030071483590
  0.0228449998900260  0.1881454433080378  0.5981100903992100
  0.0715649642582221  0.2995132202793371  0.8191577903882106
  0.0704569233476278  0.3742902967117558  0.9203565665896818
  0.1268011842076291  0.4688554958759497  0.0001411952051029
  0.1145588307489263  0.6035351584735480  0.0862270748927756
  0.1120854732211569  0.7274875372264376  0.1835870907291337
  0.1031907027383667  0.8043954206532504  0.2847512578906830
  0.0795274655229292  0.8906847649840515  0.4065577415594390
  0.1126308122731743  0.9825542166501720  0.4641101427471668
  0.1299701123941475  0.0973034712416165  0.5687052273177144
  0.1292386657868718  0.2083138251402161  0.7023738097437615
  0.2170155618607694  0.3213726246563269  0.8939602234686035
  0.1768912284174604  0.3888536751347189  0.0191523202463415
  0.2087971261409862  0.4974841535246881  0.1167545236995480
  0.1859787238535162  0.6174344986253146  0.1798329937314449
  0.2014004341801368  0.7084065113823854  0.2802942993511479
  0.1916020908391047  0.7793362155504227  0.3998945509732792
  0.1888854446277364  0.8957809396238900  0.4893231514351726
  0.1908688969537025  0.0028294173540075  0.6014246259760228
  0.2058741541845350  0.0999438561530823  0.7118408221708989
  0.2028562230287037  0.2039315271087645  0.8209304871879439
  0.4081314571648491  0.4093295114923592  0.9983599744858651
  0.4228752636093702  0.5011101660618067  0.1090346165182012
  0.4082556555592234  0.5765040725833046  0.2016754664027260
  0.3970799054217551  0.6723298788078722  0.2909741220719226
  0.3759910674144962  0.7889789275266708  0.3788627871989476
  0.3786735207302314  0.8819433797426584  0.5174286105795645
  0.3603105756076133  0.0042009572198367  0.5858829169690978
  0.3858536742549248  0.0960700494886169  0.6896204302210478
  0.3925954910370635  0.2008677035081945  0.8295112007038412
  0.4334286070603781  0.2979945866050784  0.9074809378642925
  0.5040580389310492  0.4030511030463018  0.0818442788958507
  0.5142526932805467  0.5148019839436913  0.1793228325085252
  0.5162575330474013  0.5689807179148829  0.3110908694600241
  0.5137097134059161  0.6851246910810502  0.3760299109204865
  0.5046531252611928  0.7968852009237892  0.4958072671285620
  0.4776380644451805  0.9361583024304423  0.6031077545364596
  0.4913984880677447  0.0085070766523714  0.6929028087539848
  0.5032603879907640  0.0886984898273369  0.8085870014296717
  0.4970013003409193  0.1714549152095017  0.9059828597822488
  0.5051723787528886  0.2646845608709967  0.9863144014076752
  0.5950136584185657  0.4015200202353455  0.1787361350489363
  0.6163870524579380  0.4823126849224693  0.2856316476410399
  0.6173355227097801  0.5979690905091815  0.4061922252281960
  0.5788963167271532  0.7185235486638106  0.5009617072473347
  0.5923291824480401  0.8388018739689898  0.5916213733641271
  0.6035652233586291  0.9091980046189363  0.7094855695589999
  0.5890139465522921  0.9853772704278043  0.7869000334323104
  0.5982856465412922  0.1203113643462004  0.8917880932585476
  0.5987460125371200  0.2141757021884985  0.0282024467172519
  0.5761783015506410  0.2858109169690977  0.0880700692840648
  0.6971969449026716  0.3967763013306964  0.3043008208512035
  0.7278595790168225  0.5224156049708597  0.4012336166281756
  0.7307479348949713  0.6120756951501178  0.5093579997800504
  0.6944146235565825  0.7156478684702492  0.6082578150225473
  0.6984428681403259  0.8168172682283057  0.6836897244033864
  0.7024166277356230  0.8837801082151131  0.7907578968437292
  0.6900794730012123  0.0144086431320787  0.8890691608929941
  0.7085737793907398  0.0670672121412110  0.9855483981084348
  0.6947851296601755  0.2168874294512264  0.1011719731661742
  0.7084415229297250  0.2953334094358269  0.1814668289893291
  0.8034879168591260  0.3914247403497200  0.3881949196084875
  0.8178002344660698  0.4885304194435278  0.4804556995491041
  0.8250386371934439  0.5924601970746721  0.6367618880457471
  0.7604535180908414  0.7079531402177466  0.6829853777631172
  0.7732952838447176  0.8019343798526322  0.8097127764214207
  0.7658189125701114  0.8886055739579888  0.9053209361046939
  0.7651578590124259  0.9791246602881358  0.9919638513141962
  0.7519547951171219  0.0966363871109621  0.0945698730891920
  0.8005100270537753  0.1976016711756330  0.1708657996260854
  0.8052483879907655  0.2761745619707483  0.3119921420873197
  0.9146254006378527  0.3958716256461017  0.4944410812713045
  0.8874896210271643  0.4879761372484310  0.6117772651490156
  0.9063342443637978  0.6013324495765957  0.7230496707357332
  0.8681883000109991  0.7101937208841989  0.7783732444737694
  0.8920461818981664  0.8036600857802725  0.8944747968767217
  0.8950861467062552  0.9220564522159904  0.9909923985483360
  0.8658056887715802  0.9842022179698660  0.0760369871329587
  0.8974997699329137  0.0851633243154097  0.1831033841416456
  0.9039067564060232  0.2143877008687980  0.2710462034532028
  0.8943465654899398  0.2912550700538858  0.4034997972066421
  0.0047229125701094  0.3913471853073816  0.6012929620587286
  0.0131608956340017  0.5303898203013304  0.7195692295172122
  0.0029535176509370  0.5940895915539457  0.8159384449576592
  0.9770653645661511  0.6920581106345551  0.8625848688001767
  0.9808565239194991  0.7790641055757206  0.9778487544264820
  0.9795569528208503  0.8839213760035207  0.0844031487957793
  0.9592341836577560  0.0182142276476398  0.2118090610359644
  0.9845874949961484  0.0988063209061920  0.3284123928296481
  0.9888912433740273  0.2024171191026056  0.3967955332673512
  0.0220247218739686  0.2847331688111723  0.4801177213240919
  0.0774370786319167  0.3944363211261432  0.7161105351369201
  0.0985640167161534  0.4905829851534165  0.8095279604091061
  0.1039718953040776  0.5796975568019320  0.9007295532827442
  0.0926177653139746  0.7130057459584265  0.9750120061585861
  0.0692720840206746  0.7671037312218161  0.0644811155834191
  0.0962986081601258  0.8735048173320124  0.1915792618497747
  0.0912876436819516  0.9975499205982601  0.2762692919828424
  0.1005529897723534  0.0874120857802723  0.3758038073243171
  0.0995934934565028  0.1837800070383793  0.4822637580556446
  0.0926044601341687  0.3024591382382056  0.5920795103926082
  0.2022407821401089  0.3975236757945666  0.8290736403827097
  0.2087679458924470  0.4818769941713441  0.9139410909490806
  0.2130692999010222  0.5899910858902473  0.9762440655449254
  0.2106095044539771  0.7129051094248311  0.0573378049048685
  0.1982554017375975  0.8170029081711192  0.1398232952820848
  0.1825998420763213  0.9025514826789873  0.2825684117452951
  0.2069130949081739  0.9986630506983403  0.3833381277906085