Li 
 1.0000000000000000
    22.7325000000000017   -0.0000000000000006    0.0000000000000000
    -0.0000000000000006   22.7325000000000017    0.0000000000000000
     0.0000000000000006    0.0000000000000006   22.7325000000000017
 Li 
 500
Cartesian
  0.1588069800000000  0.2005612500000000 -0.3183550900000000
  0.4948215800000000  2.1805824999999999  2.1667387699999998
  0.2372546400000000  4.2862153400000000  4.2418640400000003
 -0.0296418600000000  6.6821301899999996  6.9774444000000004
  0.4117739500000000  9.0859238700000002  8.5460552599999993
 -0.0432795900000000 11.4396867100000001 11.4856812599999998
  0.1366670300000000 13.7140974999999994 14.4855614199999998
  0.4105151200000000 16.6007650600000005 16.2698055199999985
 -0.1848474400000000 18.6401356299999996 18.0322976799999992
  0.1092632500000000 20.5028659799999993 20.2877081900000000
  1.8884262000000001 -0.2075327300000000  2.4427081600000000
  1.8391563500000001  2.1166018000000002  4.8458466500000004
  2.0769187300000000  5.0147197999999999  6.7322504500000004
  2.1520185399999998  7.3254811200000001  9.1037345700000003
  2.2228729199999999  9.2724425000000004 11.4417325200000004
  2.2011801200000001 11.7089119999999998 13.7907745899999998
  2.6329812700000002 13.9340507599999999 16.9118890700000009
  2.3561875600000000 16.6218624000000013 18.9368765100000012
  2.7742619999999998 18.8394467600000013 20.4292258900000014
  2.1611388499999999 20.9180781399999987 22.6582849599999996
  4.6934735400000003 -0.0661729100000000  4.4687641200000003
  4.4694066799999996  2.0433789299999998  6.3971034600000003
  4.9545827400000002  4.6278050700000000  8.7619918899999991
  4.5218162499999996  6.7384975499999999 11.3789815099999991
  4.6377854699999999  9.0911095599999996 14.2827514299999994
  4.4553677399999998 11.5793088599999994 16.0576462199999987
  4.4036412299999999 13.4055993299999994 18.4699189399999995
  4.6937162700000004 15.8983441800000005 20.4261719299999989
  4.4895613200000000 18.4715018700000009 -0.2905613800000000
  4.6188074600000002 20.8516077600000003  1.9766033199999999
  6.9783726899999996 -0.2833136400000000  6.3105300000000000
  7.4388652400000002  2.1787860299999999  8.8816682199999999
  6.6225072500000000  4.5319266400000000 11.2074603899999996
  6.8694287699999999  6.9593974500000000 13.8165357100000001
  6.2798761200000000  8.9001993099999996 16.1534968499999998
  6.9580765099999997 11.3360477500000005 18.0823730000000005
  6.8123881600000002 13.8323867200000006 20.4195359500000002
  7.0696438099999996 15.9693714900000003 -0.7279867200000000
  7.2325544400000004 18.3489106900000003  1.8244604400000000
  6.8564333700000004 20.3231107999999985  4.8187900099999998
  8.7361638900000003 -0.0108059800000000  9.2768499400000000
  9.0972024099999995  2.5106760000000001 11.2531349699999996
  8.7841047799999998  4.1916934399999999 13.7289747400000000
  8.8039869999999993  7.3908506599999999 16.1151629999999990
  8.6714276800000007  9.1868433799999991 18.4182014400000007
  9.1218452800000005 11.2744373699999993 20.4975370900000016
  9.4937408199999993 13.8063277200000005 -0.1728908900000000
  9.1891092800000003 16.2721140800000015  2.1588847100000002
  9.1783909599999998 18.1493710399999983  4.8477111500000003
  9.1252797099999992 20.5618972500000012  7.1352082399999999
 11.3357032899999997 -0.2748813300000000 11.2299489000000001
 10.6671442499999998  2.1890421799999999 14.1340307200000002
 10.9875258999999996  4.0460134099999996 16.3149491200000014
 11.2565253999999992  6.4882429699999999 18.1814954200000010
 11.5594031299999997  9.0159983500000003 20.4681070399999996
 11.6244907099999999 11.0883638199999996 -0.3391385500000000
 11.6542809100000007 13.8561868900000000  2.0646242600000000
 11.6511742900000002 15.5806945500000005  5.0075114999999997
 11.8045463399999999 17.8696661600000013  7.2136391900000003
 11.6269266800000004 21.0510866900000018  9.5530220499999992
 13.5090439300000007 -0.0746549200000000 13.5376841599999995
 13.7088447999999996  2.2118002899999998 15.8608055599999993
 13.6710004600000001  4.4392587499999996 18.4437353299999991
 13.3962509999999995  6.6954134300000003 19.9861464499999997
 13.3617016399999997  8.5628305600000001 -0.3454877600000000
 13.7292726500000004 11.0302344500000000  2.1488109799999999
 13.7708053800000005 14.0153832299999994  4.1307068200000003
 14.2488746099999997 15.4053347699999996  6.6154048599999999
 13.8531144699999995 17.6355017499999995  9.4556157800000005
 14.0863351300000001 20.3942913600000004 11.5161208199999994
 15.8012023399999997  0.0701673600000000 16.3355614500000001
 15.0436068200000008  1.9833814400000001 17.7068632900000011
 15.7520463900000003  5.0179480400000003 19.8129214000000005
 15.6275577000000006  6.8725839400000002 -0.7620427700000000
 15.4992932400000001  8.7393720600000009  1.5122143900000000
 16.0159128899999992 10.4570829300000003  4.7454457699999999
 16.4617080700000002 13.7825316200000003  6.1670012900000000
 16.4591132699999996 15.6527063500000008  9.2988185899999998
 16.3628715000000007 18.3782274799999996 11.1876465500000002
 15.8770405700000001 20.4003873300000009 14.3278130600000004
 17.4564048700000001  0.1216980200000000 18.3488046400000009
 17.7488480399999986  2.1154266900000001 20.2703920500000017
 17.5640670599999993  4.4626261800000000 -0.1299728500000000
 18.2048572600000007  6.8317993799999996  1.5462298100000000
 18.3204388700000003  8.6810139599999996  3.8665722200000001
 18.2818591999999995 11.5438489600000000  6.7145439700000003
 18.1008105400000012 13.6762290300000000  8.5284830500000002
 18.7184552000000011 15.4649951699999999 12.1175307500000002
 18.2784775400000008 18.5622401900000007 13.6251404800000007
 18.2667615800000007 20.1752178300000011 16.5746326400000008
 20.0686241099999982  0.2877945300000000 20.4750155999999990
 19.8132329100000000  2.2598408499999998 23.2886442400000000
 20.2163456900000007  4.3327119300000003  1.6279195099999999
 20.4306495400000010  6.0111219100000000  4.1752676400000004
 20.7850632900000001  8.7535035299999997  6.5904517399999998
 20.8178514600000000 11.4134518800000002  8.6600000300000008
 20.2703164700000009 14.0246621900000008 11.4005072799999994
 20.9310161000000008 15.5535637900000001 14.0525380599999998
 20.3294773699999993 18.0496285999999984 15.8498172799999999
 20.0785544499999986 20.4856772300000003 18.1799172700000007
  2.9123981600000000  2.4407227800000002  0.0550154800000000
  2.6365404300000002  4.4512119700000001  2.6380240499999998
  2.4107364300000000  6.6082470000000004  5.0512899500000001
  2.6409304800000002  9.0120783200000005  6.7751658900000002
  2.3588376900000001 11.4347555900000000  9.2949530199999995
  2.3879620300000002 14.0876733900000009 11.4543885999999997
  1.8210694999999999 16.0694264500000017 14.0628537399999995
  2.4269879400000001 18.6466248700000001 15.3689366100000004
  2.1948931900000002 20.9222382600000003 17.9395961499999999
  2.0095627700000001 23.0604073000000014 20.5946647700000014
  4.3323416899999998  2.2438707700000000  2.8626315000000000
  5.1685925700000004  4.9301227499999998  4.7254382899999996
  4.7430212899999997  6.6608869999999998  7.4541604899999996
  4.9129036800000003  9.3956785200000006  9.4952672400000004
  5.0022085799999996 11.7505172099999999 11.8470922800000000
  4.2303433899999998 14.0362067300000000 13.8724971900000007
  5.0862273499999997 15.7980077899999998 16.3729973400000013
  5.0107089000000000 19.3618764799999994 18.3350090299999984
  4.5984018700000000 21.0381797699999993 20.8882322900000013
  4.7059305499999997 22.6818329200000015 22.7049281699999987
  7.3624986200000002  2.2841499299999999  4.9952822799999996
  7.2055366200000002  4.7358764899999999  7.1115540800000003
  7.0330960999999999  7.0985440000000004  9.5032433399999992
  7.0589258900000003  8.8602727300000002 11.1124710600000007
  6.7958586299999997 11.4726681599999996 13.5431196499999995
  7.0477640199999998 13.8208622800000001 15.2998601999999995
  6.7301048300000001 16.0088554400000014 17.5155812600000012
  6.4374021600000004 18.6207780800000009 20.7075123300000001
  6.8215535000000003 20.6994493000000013  0.6254813100000000
  7.2643276900000000 23.0760745800000002  2.7583699199999998
  9.9270624999999999  2.6674200600000000  7.4633491400000000
  9.6497474299999997  5.3711191899999999  9.4673716500000005
  8.7196667899999998  7.0029952599999996 11.6647923099999993
  8.4629737499999997  9.4375481699999995 13.4740623399999997
  8.5163461300000005 11.5149439000000005 15.8734384599999991
  9.4028812800000008 13.7094810500000008 17.6933635400000000
  8.6479265099999996 16.8715106800000001 19.8953699300000011
  9.4422046599999998 18.4283375499999984  0.3643547600000000
  9.4018369400000008 20.8489609700000003  2.9682295800000000
  9.5770636099999997 22.4489718499999995  5.1554171599999998
 11.4968032000000004  1.9568516700000000  9.6607988400000000
 11.8101222000000003  4.6656176499999997 12.1462650399999994
 10.5783004900000002  7.0300849500000000 14.0348797899999997
 10.8303309500000005  9.4264902599999996 15.7724211600000004
 10.9524798200000006 11.2200933299999992 17.8025830999999997
 11.2026016700000000 13.4146006999999994 19.8733707899999992
 11.1216614400000005 15.9761066300000003 -0.5615257100000000
 11.0801234500000003 18.1775004100000004  2.6682836600000002
 11.2776963800000001 20.8592590499999986  4.6365351400000003
 11.8558456299999992 23.1124904800000017  7.7837803900000004
 13.9550395100000006  1.4558993000000000 11.5227169400000005
 13.4731322299999992  5.0230528999999997 13.9839241899999998
 13.2626001400000000  7.0583727100000004 15.5922449299999997
 12.5736181899999995  9.3485344000000001 17.7208704499999996
 13.0571624199999992 11.1013115899999999 20.1341193300000008
 13.5711133999999998 13.7344393900000004 -0.4189254900000000
 13.2033634000000006 16.3538975099999995  2.5059331600000001
 13.8916312200000007 18.1991509600000008  5.0419920400000002
 13.6909187899999996 20.1303422999999988  6.7797035399999999
 14.2576212400000006 23.1538334200000016  9.3724211700000009
 16.0100456899999983  2.6349998200000000 13.7743956999999995
 16.0115519699999993  5.1388122599999999 15.7220356300000006
 16.2188979700000004  7.4316738100000004 18.0672749800000005
 15.5496074800000006  9.1605730899999998 20.9422157400000017
 15.3556471999999999 11.4741044999999993 -0.1207064300000000
 15.5644497299999998 13.8508877500000001  2.1080603299999998
 16.1651747599999993 16.0498871799999989  4.2555212899999999
 15.7557523199999991 17.6682699399999983  7.1436419000000004
 15.8023866700000006 20.6804321100000017  8.7962072100000004
 16.3002939900000001 23.1991186599999999 11.7024607799999991
 18.1360743900000010  2.6965968400000002 16.0324169500000018
 17.8890398200000007  4.2665740300000001 18.1198696499999983
 18.4932555299999990  6.8195097300000000 20.3961421999999999
 18.2457953000000010  8.7489911800000009  0.1040867900000000
 17.2837384699999994 11.6704644500000008  2.2634344500000001
 18.1879422999999996 13.7723880500000000  4.4449454299999998
 17.8192171799999990 16.1653616000000007  6.8905921499999998
 17.9359679900000017 17.9400442399999989  9.4681308899999994
 18.8003607399999986 21.6065886499999991 11.2186776399999992
 17.6763212500000009 22.9336401000000016 14.1870964700000002
 21.0366200300000017  1.8723026500000000 18.2166104699999991
 20.0525827200000002  4.2466301599999996 20.0584068299999991
 20.8011073700000004  6.2281752900000003 -0.4864733300000000
 20.5277736200000014  8.9575991300000002  2.0375278600000000
 20.1741625999999989 11.0310401400000000  4.2473146499999999
 20.9631393599999996 13.8772569299999997  6.4289872399999997
 19.9514676699999995 16.0104628399999989  8.6445261299999991
 20.0774171700000004 17.7470975799999984 12.1578351300000005
 20.2142422000000010 21.0332509899999991 14.1118313099999995
 20.1752283299999995 22.3782160599999997 15.9010915900000001
 22.3584667300000000  2.4486561899999999 21.3129051400000016
 22.7320597999999983  3.8052608900000000 23.0827767000000001
 23.1213827099999989  6.3158400200000004  2.1452973800000001
 23.0142280899999996  9.2470677499999994  4.8991120400000003
 23.3703807499999989 11.4566352899999995  6.7531411600000002
 22.4677014700000015 14.0673109000000007  9.2142279800000004
 22.3484093199999982 16.1275763099999985 11.5071226499999995
 22.3545927700000000 18.8150681199999994 14.1639801500000004
 22.7326739999999994 20.8872574700000015 15.6239968800000000
 22.9560451199999989 22.7067938600000012 18.3850699999999989
  4.6015702000000003  4.3294260299999996 -0.1609527400000000
  4.7895145399999999  6.3086551100000001  2.4830420599999998
  5.0675581500000000  8.9128991099999997  4.5358836699999996
  4.4389094399999998 11.5591659900000003  6.7740802599999999
  4.3645759000000002 13.2661503500000002  8.7707011700000006
  4.3009414000000001 15.5490720000000007 11.7221774300000003
  4.4574602099999998 18.1166067999999996 13.0322864099999993
  5.1949786199999997 20.5500664999999998 15.8508336500000002
  4.8877061099999999  0.5110273200000000 18.9954307900000003
  4.6056871900000003  2.5095538799999999 20.8207060499999983
  6.8998976699999996  4.3918422699999997  2.0763806900000001
  7.7070910499999998  6.9574085700000001  4.2845549099999998
  6.7564319800000003  8.8031060199999995  7.1340212100000002
  7.1700363200000004 10.9358835899999995  9.0267727099999995
  6.7140862800000001 13.4644150899999993 11.6849126299999995
  7.1871481399999997 15.7655303599999996 13.7448475999999999
  6.2925177899999998 18.3224863900000017 16.1132758900000006
  7.1788450099999999 20.9436068800000008 18.6576606600000012
  6.9735465400000001 -0.2582428500000000 20.8946873800000006
  7.0553923300000001  2.0840935200000001 22.9267114099999993
  9.8196032199999994  4.2874753300000004  4.7643409300000004
  9.1822626500000002  6.4596841300000003  7.1673440399999997
  9.6403658300000004  8.5470166100000000  8.7509592699999992
  9.6585853799999999 10.7594683799999995 10.6364273800000007
  9.9400595799999998 13.4727145999999998 13.5173251600000004
  9.4602887700000000 16.2397794399999995 15.2404333800000007
  8.2168757699999997 18.7493489800000006 17.7438247500000017
  8.8015411199999996 20.2121910100000015 21.0031557999999983
  9.0171002999999992 -0.4503415000000000  0.2484536600000000
  9.1299189900000002  1.9405337100000000  2.1153305499999999
 11.0116435900000003  4.5914386299999999  6.9687802899999998
 11.5257320500000002  6.9864717799999996  9.1247315899999997
 11.4428655100000007  8.8479384099999994 11.2874416400000008
 11.7259959299999998 11.5965264700000006 13.6412969000000004
 11.6653740399999997 13.9348598599999995 16.1339565500000006
 11.6331037700000000 16.6894966899999986 18.1863585900000011
 10.9041251399999997 17.8121170000000006 20.2303828900000013
 11.2913167100000003 20.1504094299999998  0.1516821000000000
 12.0199831400000008  0.3959905900000000  2.7492348400000002
 12.0848139799999998  2.2388193599999999  5.1636475700000002
 13.4081310299999998  4.0727210700000001  9.0664971600000008
 13.6955507000000001  7.5288819900000004 11.3138265800000006
 13.4735754500000002  8.9201544300000002 13.6367732499999992
 13.4445318100000009 11.7052292500000004 15.7003031100000001
 14.0227962700000006 14.2716405300000009 17.6032423599999994
 13.7900799400000000 15.5953769100000006 20.3647339800000005
 13.3771220900000003 17.9881829899999985 -0.3470521600000000
 13.0218080599999997 20.0933019699999988  2.3735674100000002
 14.1034487599999991 -0.0704279300000000  5.1738208400000003
 13.7643543400000006  2.6443200899999999  7.1330431399999998
 15.8054493300000001  4.5815686099999997 11.4726905499999994
 16.1216089199999999  7.4869591199999999 13.6217232599999996
 16.0009288000000005  9.0965225099999998 15.5256186399999994
 15.8854291199999995 11.3005960099999996 17.6495431200000006
 16.0234275699999991 13.8645635200000008 20.0983775599999994
 16.4660476200000012 15.9521357899999998  0.2331512000000000
 15.7417696100000004 18.2620168099999987  2.0334359900000001
 15.6790369999999992 20.3325583300000012  4.9145491999999997
 16.3700151399999996  0.2379209400000000  7.2529626399999998
 15.7615023900000004  2.5062565100000000  9.1603643899999998
 17.8225751700000004  4.6829445400000003 13.5504390600000004
 18.8549561899999993  6.8253113499999998 15.8728678799999994
 18.5277678200000011  8.8756439199999999 19.0743900800000006
 18.1078837300000011 11.0218044499999994 20.3042508700000006
 17.9368063699999993 13.5828007700000004  0.1492609400000000
 18.3936919799999998 15.8422157299999995  2.2080870400000001
 18.3116874000000003 18.3998068699999990  4.0837681200000002
 18.3969178299999996 20.5630036199999999  6.9698019799999997
 18.4161397200000003  0.6978077400000000  9.2448632899999996
 17.9113566800000008  2.2009854799999999 11.7983890500000008
 20.2415430299999990  4.2860346600000003 16.5042079800000003
 20.4918598699999990  6.9188019199999999 18.5211249199999983
 20.7951393099999997  9.4610863100000007 21.0450662400000006
 19.9990960400000013 11.1500663299999996  0.4772821100000000
 20.3630477600000006 14.0096213400000007  2.7873519000000000
 20.5804522299999988 16.4111627200000001  4.4738299200000000
 20.9281281200000002 18.4561299699999992  6.5598310000000000
 20.2784681300000003 20.7249312699999990  9.0941936299999995
 20.2621418499999990  0.4594623100000000 11.2593997699999999
 20.1856471000000006  2.1564298300000000 13.9231727099999993
 -0.0143858200000000  4.6960681900000001 18.2004810200000016
 -0.6444695100000000  6.4906721400000000 21.1185011100000004
  0.2401332600000000  9.1355063800000007  0.3500274300000000
  0.2449987400000000 11.1124721500000003  2.3357761099999998
 -0.0382712400000000 13.5717174899999993  4.3330057999999996
 -0.1709945500000000 15.7905667600000008  6.2895598300000000
 -0.1437192700000000 17.6855399999999996  8.9189842600000002
 -0.5161925600000000 20.0570375200000015 11.7140778200000000
 -0.1068528500000000  0.1333165800000000 13.3625071099999992
  0.5853143100000000  2.0110000499999998 15.6589529600000006
  2.1514329999999999  4.5053781400000004 20.5227236499999997
  2.6997446799999998  6.7410082899999999 22.9867915200000006
  2.3405197700000002  9.2357968100000001  2.2354601600000001
  2.4267594699999999 11.7163263900000008  4.0939779400000003
  2.1844184499999999 13.8963874399999998  6.3539606600000003
  2.5092094999999999 15.8803251299999992  8.7938894600000008
  1.5334954199999999 18.0254147600000003 11.1037013499999997
  2.4921638300000000 20.9511346100000004 13.3815724199999995
  2.5875170600000001  0.1774101800000000 16.2564689899999983
  1.6841551400000001  2.3199320499999998 19.4027921899999996
  6.8711595399999998  6.4293354500000000  0.3148414500000000
  7.3137180500000003  8.4730957700000005  1.8309267100000000
  6.5883046099999998 11.1444812300000002  4.4846637800000000
  6.9210834500000002 13.0356757099999996  6.7568477199999997
  6.6281446099999997 15.6083967300000008  8.6707987299999996
  6.3992328799999996 18.1833250900000003 11.1079859800000005
  6.1272511900000000 20.4689960299999996 13.3833764500000001
  6.0068498400000001 -0.2054912300000000 16.2195509999999992
  6.9351932300000003  2.2547041100000000 17.6941919500000004
  6.7849310300000001  4.7824161900000002 20.6380348500000004
  8.8045104599999995  6.4758168500000002  2.3066088200000001
  9.2363070500000006  9.1694823499999991  4.2502164499999999
  9.5084492199999993 10.7942040400000003  6.0227722799999999
  9.1299659900000005 13.6370115199999997  8.7709765100000006
  9.0791234799999998 15.7412837099999994 10.6057900400000005
  9.0698410299999992 18.1596390800000016 13.2474241599999996
  8.5089991800000000 21.1011854099999994 15.2823193199999992
  9.1195757999999998  0.0957576100000000 17.9934750299999990
  8.7421112999999995  2.2454604599999999 20.6276043800000011
  8.7537178900000008  4.1738268600000001 22.5686989300000000
 11.4336406299999993  6.9034612700000002  4.7996759800000000
 11.9845189100000002  8.8939365000000006  7.1201378799999997
 11.6174118699999998 11.5926967399999992  8.7882421500000003
 11.1006509799999993 13.9139870499999994 11.1417913199999994
 11.1354550799999998 16.2273568499999996 13.3260763099999995
 10.8229188799999996 18.9571669400000005 15.9325417999999992
 10.8860362199999994 20.4315438000000000 18.3560271700000008
 11.2418417599999998  0.0005432100000000 20.4336887900000015
 11.6604609600000000  1.7246758700000000  0.3984965800000000
 11.2980883199999997  4.0236026000000003  2.3797613200000001
 14.3178132300000005  7.2334125800000004  6.4858539400000002
 14.1133259800000008  8.9924513000000008  9.4161633699999996
 14.2789937699999996 11.9342257600000003 11.0692725900000006
 13.0004634899999996 13.5537812199999994 12.8635368000000003
 13.4157041400000008 16.5381177699999995 15.6708247600000004
 13.5801535999999992 18.3838981399999994 18.2571629000000009
 13.6398468600000005 20.0259618400000008 20.3600205099999982
 13.4065986699999993 -0.2116682000000000 -0.2196970500000000
 14.3080188800000006  3.0382824300000002  2.8502761200000002
 13.9764129700000002  4.7148982200000003  4.7232271299999997
 16.2559493699999997  6.0064168799999997  9.2190639000000001
 16.0282060000000008  8.5938018399999994 11.1012541000000002
 15.7830107700000006 10.7000536499999992 13.3251180999999992
 15.6954497899999996 13.3354398199999995 16.0423406799999988
 15.5398753900000006 15.6887274699999999 18.2176816499999994
 15.8301050399999994 18.1849552500000016 20.9564759699999996
 15.0767303699999999 20.3268060400000010  0.4406437600000000
 15.4916154099999996 -0.4438877600000000  2.7447026299999999
 16.0904552999999986  2.4036975699999998  4.8411587000000003
 16.5808688500000017  4.5515403399999999  6.6767036500000003
 18.2374228400000007  6.6696182999999998 11.4783934300000006
 18.6493697800000007  8.8665031699999997 13.4489531200000005
 18.3978952599999985 10.5357640299999993 15.7512491400000005
 18.6068518999999988 14.1096622600000003 17.8824750600000009
 18.0343210499999991 16.1956226100000009 20.4776673400000000
 17.6922736600000015 18.3216933799999993  0.2666570800000000
 17.9473759400000006 20.6996296800000010  2.4926066400000000
 18.3795185399999994  0.1922045500000000  4.3255609300000000
 18.6672794899999985  2.9264979699999998  6.1215004200000003
 18.6336262499999989  3.6670965400000002  9.2898149399999994
 20.9976062900000002  6.9583117200000002 13.3140045199999992
 21.3268275400000000  8.9960112100000007 16.1770062599999989
 20.4409081599999993 11.0662536199999995 18.5515193899999993
 20.1468848800000018 13.4673154700000008 20.7659279699999999
 20.1982709000000007 15.5383822200000008 -0.2832385200000000
 20.3936894799999990 18.2257098500000012  2.2403831599999999
 20.0199857799999990 20.5544470799999992  4.5628063599999997
 19.8433734299999998  0.0157420800000000  7.2130473000000004
 20.1645531799999986  2.5293163999999999  9.1455549400000002
 20.8154920700000012  3.9373822100000000 11.6730994900000002
 -0.2019232500000000  6.4881278000000000 16.3022313700000012
  0.0157687400000000  9.0320785400000005 18.9531310099999999
 -0.1490661700000000 10.9674315799999995 20.8457597399999983
 -0.3136123400000000 13.7703331200000001  0.1728980700000000
 -0.0222829500000000 15.4923336200000001  2.3657014900000002
 -0.1855011100000000 18.2253901099999993  4.2038039200000004
 -0.2016154800000000 20.5900388999999997  6.3348861500000000
 -0.3183728900000000 -0.4153968300000000  8.6646130200000009
  0.0542424700000000  1.9672858300000000 11.7368581100000000
  0.5193239600000000  4.2770162899999997 13.5965376300000003
  1.6268505499999999  6.8086842799999996 18.6215044700000014
  1.6016620100000001  8.5085541700000000 20.9220056499999991
  2.8825079200000001 10.6582575599999991  0.0032097200000000
  2.6042086200000001 13.7198629899999993  1.9601569800000000
  2.5479830200000002 16.5376104400000017  4.1733935400000002
  2.3457826499999999 18.2859188999999986  6.4731079700000000
  1.8078581100000000 20.2474914199999994  9.2420738599999996
  2.5603799399999998 -0.3965862700000000 10.5503838200000004
  2.9545455800000000  2.2119511599999999 12.9280915800000002
  2.9379179700000000  4.7354940299999999 15.9667126300000000
  4.9333062600000002  7.3056031900000002 20.3219507800000017
  4.0211798500000002  8.8396161699999993 23.1678801199999995
  4.7464806700000004 11.3090585200000007  2.6541222100000001
  4.2277613399999998 14.0358297400000005  4.0880535299999998
  4.5783353699999996 16.1038510200000005  6.3717901599999998
  4.3555945300000003 17.7162605199999987  9.0906028800000005
  4.2938383699999996 20.3633402100000005 11.1235385400000002
  4.3389271999999997  0.0643197300000000 13.6718853100000004
  4.6800342099999996  2.2719737100000001 16.1819214900000006
  4.6114290899999997  4.6358734400000001 18.6618023000000015
  9.2778483499999993  9.3050831200000008 -0.0372818800000000
  9.6130119300000008 11.3914868499999997  2.4786294199999999
  9.2806716900000001 13.1053788299999994  4.5845875400000002
  9.0266189499999996 15.2837389699999999  6.6145692299999999
  8.5472169400000002 17.9354634699999984  8.6124983099999994
  8.6081958099999998 20.0487778799999994 11.7624458900000004
  8.1907601600000000  0.0954982600000000 13.3185834100000005
  8.7714186499999993  2.1839124000000001 15.6767964299999996
  8.9246770000000009  4.5662250699999998 18.8568633699999992
  9.8529158100000007  6.7741619399999999 20.6293104199999995
 11.4584993700000002  9.1623591999999991  1.8605250700000000
 11.6902493500000002 11.7027360999999992  4.0764562900000003
 11.7358243699999996 12.9343541700000007  7.0718731899999998
 11.6779060599999998 15.5745970400000004  8.5480999499999992
 11.4720271700000005 18.1151928300000016 11.2709387000000003
 10.8579073000000008 21.2812186099999998 13.7101470299999999
 11.1707161300000006  0.1933871200000000 15.7514131000000006
 11.4403667700000007  2.0163384199999999 18.3812040100000011
 11.2980820600000005  3.8975988600000000 20.5952553599999995
 11.4838310999999997  6.0169417799999998 22.4213921300000010
 13.5261479900000001  9.1275538600000008  4.0631191900000001
 14.0120186699999998 10.9641731100000008  6.4931214300000004
 14.0335797699999993 13.5933323500000007  9.2337647599999997
 13.1597605200000007 16.3338365699999990 11.3881120100000004
 13.4651231399999993 19.0680635999999986 13.4490328699999999
 13.7205464399999997 20.6683436399999998 16.1283807099999983
 13.3897595400000000 -0.3324112000000000 17.8882050100000001
 13.6005284599999996  2.7349780899999998 20.2725728300000014
 13.6109937300000006  4.8687491500000002  0.6411121200000000
 13.0979732400000000  6.4971966700000001  2.0020528500000001
 15.8490295499999991  9.0197172699999992  6.9175184099999996
 16.5460678799999990 11.8758127400000006  9.1210431900000000
 16.6117274299999984 13.9140107400000002 11.5789807299999996
 15.7857804300000009 16.2684651699999989 13.8272207799999993
 15.8773525000000006 18.5682985500000015 15.5419766599999996
 15.9676859899999997 20.0905313099999994 17.9759038900000014
 15.6872316200000004  0.3275444800000000 20.2107646999999986
 16.1076534400000000  1.5246054000000000 -0.3285210400000000
 15.7942029599999998  4.9303934900000002  2.2998918800000001
 16.1046469200000004  6.7136667299999999  4.1251946899999998
 18.2652890700000015  8.8980629100000002  8.8246410100000006
 18.5906438300000012 11.1055177599999997 10.9219591900000008
 18.7551908199999993 13.4681014300000008 14.4751896200000001
 17.2870096000000011 16.0935447600000003 15.5259651000000005
 17.5789350400000011 18.2299732900000002 18.4067956899999992
 17.4089784300000012 20.2002262100000003 20.5802081799999996
 17.3939510300000002 -0.4745486600000000 -0.1826817500000000
 17.0938123799999993  2.1967866699999998  2.1498096400000000
 18.1975941900000002  4.4919799899999999  3.8842067899999999
 18.3053089799999995  6.2781382299999997  7.0923613699999999
 20.7917219200000005  8.9991517299999995 11.2398818800000004
 20.1748578099999989 11.0929175400000002 13.9072266800000008
 20.6032432099999987 13.6697899100000004 16.4367266399999998
 19.7360905299999985 16.1444787599999984 17.6943697799999988
 20.2784398299999999 18.2692028999999998 20.3336483200000018
 20.3475458300000014 20.9606482999999990 -0.2047653000000000
 19.6819278199999985 -0.3591230800000000  1.7285108100000000
 20.4024135199999996  1.9359752699999999  4.1623976799999998
 20.5480603399999993  4.8735684099999999  6.1615578199999996
 20.3307332999999986  6.6209558800000003  9.1725591400000006
  0.1073636100000000  8.8962998899999999 13.6688922599999998
  0.2991800600000000 12.0570865900000008 16.3576075100000011
  0.0671408400000000 13.5051416399999997 18.5483207000000014
 -0.5213616000000000 15.7322109999999995 19.6087105299999997
 -0.4351790700000000 17.7100747799999994 -0.5035531900000000
 -0.4647215700000000 20.0937426799999983  1.9186945799999999
 -0.9267089200000000  0.4140549300000000  4.8149494800000001
 -0.3503647700000000  2.2461146900000002  7.4656347199999997
 -0.2525298100000000  4.6014471600000002  9.0201544600000005
  0.5006769900000000  6.4726967599999998 10.9142761000000004
  1.7603383900000000  8.9665236700000008 16.2789827400000000
  2.2406065100000001 11.1521777100000001 18.4025943599999984
  2.3635411099999999 13.1779747100000009 20.4758345700000000
  2.1054333500000002 16.2084031199999998 -0.5680395700000000
  1.5747276500000000 17.4381855700000017  1.4658169599999999
  2.1891081099999998 19.8569482599999994  4.3550755700000003
  2.0751963600000001 -0.0556964300000000  6.2802916800000004
  2.2858208400000000  1.9870952399999999  8.5429600499999996
  2.2640090900000001  4.1777790100000001 10.9630608800000005
  2.1051308899999999  6.8756523600000001 13.4594474700000006
  4.5974385800000004  9.0367069600000001 18.8469165300000014
  4.7458173300000004 10.9542687700000005 20.7761658500000017
  4.8435978600000000 13.4119723600000000 -0.5400317800000000
  4.7876805600000001 16.2061154000000016  1.3034316500000001
  4.5068409200000001 18.5725186099999995  3.1785330599999999
  4.1509509099999997 20.5172515799999999  6.4234864199999997
  4.7036519300000004 -0.0303922000000000  8.7142339900000003