Li                                      
   1.00000000000000     
    21.0527999999999977    0.0000000000000000    0.0000000000000000
     0.0000000000000000   21.0527999999999977    0.0000000000000000
     0.0000000000000000    0.0000000000000000   21.0527999999999977
   Li
   432
Direct
  0.0133981133150911  0.9754146175330618  0.0213677183082552
  0.9110939342985276  0.0822314703982343  0.0501068199954418
  0.8380249558253539  0.1483912439200452  0.1670538469942215
  0.7391666372169041  0.2585523759309893  0.2566989084587306
  0.6369039448434393  0.3125517437110474  0.3380168880148986
  0.5919285961962331  0.4321758198434438  0.4105494803541561
  0.4917364545333669  0.4985635388166898  0.5102284513223907
  0.4286279848761225  0.5732330972602213  0.5973651652036764
  0.3254592809507528  0.6686669996390009  0.6687783411232715
  0.2583922333371333  0.7505716807265514  0.7654443104955178
  0.1806636347659207  0.8391613704590384  0.8283431453298391
  0.1067615747074058  0.9031006863695126  0.9198397619319039
  0.0854129327215389  0.8981148051565597  0.0848755367457059
  0.9970772562319468  0.0049442069463410  0.1537918870649051
  0.9349163051945553  0.0723250199498437  0.2449013931638575
  0.8522110218118257  0.1406367647058815  0.3322736871105008
  0.7574158548981629  0.2499072432170522  0.4416791405418792
  0.6701502180232524  0.3396276329039338  0.5007020253837950
  0.5763976449688428  0.4280951844885266  0.5924860042369673
  0.5149347815967502  0.5017342448510433  0.6467402649528822
  0.4145656805745546  0.5849781653746788  0.7416998560761527
  0.3325082407090747  0.6705137226402158  0.8226085067069491
  0.2462665816423453  0.7391269755091940  0.9433759490424052
  0.1745534171226666  0.8296958053085604  0.0088036270709821
  0.1532416804415533  0.8047810875512980  0.2093484106627130
  0.0799606418148642  0.9206930099559187  0.2129766829115383
  0.0121517921606653  0.9877011836905325  0.3205780898502795
  0.9544536066461475  0.0833029530513727  0.4147163341693272
  0.8472891297119602  0.1342662909446730  0.4972613481342165
  0.7602469177496545  0.2591491388318872  0.5626366055821563
  0.6812267669858656  0.3272777093783219  0.6433402312281515
  0.6038178204324396  0.4383656325999397  0.7331373318513457
  0.4994127531729760  0.4894567321211412  0.8235579960860306
  0.4207011646906835  0.6116009775421816  0.9178273802059564
  0.3306413184944503  0.6843957497340014  0.0186610132618910
  0.2518355696154444  0.7679852760677903  0.0999375403746754
  0.2498764406634777  0.7364336667806626  0.2440340054529599
  0.1867322375170986  0.8470924409104725  0.3269162448700413
  0.0934801147590818  0.9361038598191200  0.4291154639762880
  0.0133973143714883  0.9716590125779021  0.5151562637748910
  0.9075400906292757  0.0734299470854225  0.5961599065207466
  0.8324503500722003  0.1709688293243659  0.6483424922100625
  0.7660712551299582  0.2522522367571085  0.7509870416286688
  0.6797582364341110  0.3588131588197285  0.8082839522533831
  0.6079370188288493  0.4452066033971747  0.9053664239436117
  0.4996518814599469  0.4984402407280726  0.9962010872663001
  0.4020826721386257  0.5709803826569413  0.0865984301375562
  0.3368967823757387  0.6660828763869873  0.1444073149414820
  0.3124909731722170  0.6763481555897570  0.3215947180422560
  0.2548870307037561  0.7379172442620430  0.4265685296017665
  0.1759083827329349  0.8263154126766992  0.4972443893448855
  0.1366768334853319  0.8920836036061743  0.6057991559317557
  0.0027557075543427  0.9717436497758030  0.6764280551755562
  0.9042490590325301  0.0886509167426652  0.7385446634176915
  0.8396125284997709  0.1650884138926898  0.8248788631440931
  0.7661451536137704  0.3018041970664243  0.9192741421568655
  0.6538383236434129  0.3376279682512546  0.0237964061787537
  0.6120323358413131  0.4682673264363899  0.0587319776941797
  0.5056866630566930  0.4882512454400398  0.1815654886760925
  0.4088184374525028  0.5989176337589299  0.2598343279753763
  0.4086955098609195  0.5550517061863474  0.4010141453868385
  0.3071984182626508  0.6351200904392797  0.4994411845455247
  0.2655144702842378  0.7244072778917783  0.5833337133302905
  0.1880539880680985  0.7966754973210186  0.6683208556581519
  0.1004239830331386  0.9028455882352944  0.7421216118521059
  0.0133207506839952  0.9998018083105364  0.8114765845873251
  0.9279492989056095  0.0666413303693574  0.9196892969106258
  0.8212160092719287  0.1669348922708593  0.9909931705046375
  0.7566191907964708  0.2431250432246514  0.1022387696648437
  0.6534075837893312  0.3171869323795420  0.1560046920124663
  0.5761777963026304  0.4113317549209583  0.2400480681904540
  0.5087190582725327  0.5072999867001045  0.3202312860997125
  0.1035223357463124  0.0546996736776109  0.9192013660890694
  0.9863251163740685  0.1361588762539867  0.9834820147438847
  0.9142856893144824  0.2366248380262945  0.0635203369623056
  0.8608918466902296  0.3124949023407808  0.1585631744946028
  0.7678614801831571  0.3997147633568900  0.2247009727922205
  0.6736239944330435  0.5095661864455110  0.2930884499924034
  0.5775945166438703  0.5751221690226487  0.4206578222374233
  0.4746352285681681  0.6366068052705600  0.4940712394550815
  0.3937824778651802  0.7533961534807716  0.5723793324403417
  0.3215640304377558  0.8295298330863332  0.6524227162182683
  0.2379043756649963  0.8967158938478477  0.7499323719410214
  0.1881834159826710  0.9928296150630800  0.8117082905836739
  0.1779097488220103  0.9975022111073102  0.9988136323909416
  0.0750928636570904  0.0669100361947130  0.0889269489094104
  0.0035484600623192  0.1625918614151090  0.1651375474996186
  0.8999393942848428  0.2399237403100756  0.2534452999125989
  0.8184562333751302  0.3083445712684281  0.3544712921796602
  0.7597012273901811  0.4287842961506314  0.4116068736700100
  0.6770213472792221  0.5077266273369787  0.5301099544953658
  0.5821984819121440  0.6048159584473325  0.5727227176432592
  0.5147693204704353  0.6837262772647819  0.6562687352751198
  0.4106586848305227  0.7470437300501587  0.7563174827101378
  0.3374198942658424  0.8242434517023867  0.8454292754407930
  0.2694919701892360  0.9121203607121160  0.9270425933842503
  0.2497273564561482  0.9057221846975239  0.1040505030209786
  0.1744763494642072  0.9957205079609395  0.1584325229898127
  0.0910335765313874  0.0868868630300952  0.2386252355981142
  0.9896636428408598  0.1684853435172542  0.3158351169440650
  0.9102731247150047  0.2139574317905470  0.4301465776523798
  0.8301126576987414  0.3609649144056846  0.5152835518315868
  0.7883025455046351  0.4207627165982686  0.6282058557531514
  0.6624213634290896  0.5316031962494279  0.6628698804909590
  0.5767018059355493  0.5938545647134816  0.7494397880566979
  0.4968212627298954  0.6620638637140885  0.8252596196230400
  0.4326443917198688  0.7638024338805280  0.9136914975680170
  0.3131094913740711  0.8065047423620584  0.9948688421492662
  0.3279296806125558  0.8315688435742530  0.1500945722184213
  0.2530922285871711  0.9229208243084059  0.2622547390370897
  0.1769104551413605  0.0064218028005811  0.3430336549057600
  0.0751739953830395  0.0682631193950414  0.4025080074859417
  0.0118402089033296  0.1489359310875500  0.5115756113201115
  0.9176855463406284  0.2654059422024631  0.5740056391548833
  0.8587065245478058  0.3278004844961231  0.6957121513527866
  0.7656200400896793  0.4097602969676259  0.7546758611681099
  0.6735822698168406  0.5172843208504361  0.8200416866165057
  0.5766334364075121  0.6050646379578950  0.9153070194938451
  0.4937807650288804  0.6812885929662542  0.0183196790925706
  0.4123025982292177  0.7511641772115851  0.0626073320413454
  0.4050417440910508  0.7439080264857907  0.2306163170694617
  0.3199443750949982  0.8111254859211101  0.3488345374487025
  0.2531228074175402  0.9332853967168262  0.4089541642916856
  0.1932087931296564  0.0272437542749628  0.5290811892004896
  0.0780516439618495  0.0862291125171026  0.6035533995478062
  0.9707822702918349  0.1664435210518320  0.6507011523407797
  0.9209841983014115  0.2376601216940273  0.7574333988828101
  0.8518847459720291  0.3696926589337295  0.8374633269683827
  0.7509747026523783  0.4351437329001371  0.9166753533971743
  0.7033891221120214  0.5230541186920519  0.9681317287961662
  0.5703204224616201  0.5751852827177402  0.0665103553921540
  0.4928525350547162  0.6755678038075672  0.1474695707934330
  0.4661708475832214  0.6756502237232098  0.3603663621940996
  0.3940615390826849  0.7623584805821579  0.4272193850699182
  0.3277687120003066  0.8445267451360365  0.5038251344239271
  0.2385464760031937  0.9043816675216618  0.5974136323909391
  0.1857398901808764  0.9998864901580760  0.6768186763755892
  0.0859163355943124  0.0912149376804976  0.7187835575315376
  0.0106152098533201  0.1303844680992583  0.8422072650668824
  0.8955439471234214  0.2416704229366147  0.9189468602751205
  0.8453165008929915  0.3362208067335430  0.0034294701892392
  0.7414615143828840  0.4283023764059877  0.0999845768733820
  0.6738385084169352  0.5221053513071894  0.1904022400820793
  0.5634857871636996  0.6078997112023075  0.2352310234268131
  0.1588350494946056  0.1498356194900410  0.8475949659902753
  0.0507220754483981  0.2413475808443550  0.9230200476896187
  0.9953408045485617  0.3535831737346129  0.0086774994300072
  0.9134115039329700  0.4312512188402522  0.0999078792369659
  0.8741402174532595  0.4945188259993927  0.1764279008017908
  0.7640127978226161  0.6069864250835977  0.2341388727390168
  0.6449345502735966  0.6597847160472696  0.3387049546853618
  0.5416532964736263  0.7498360047119590  0.4305629122967005
  0.4915544934640508  0.8533460774813832  0.4696520158838737
  0.4217928498822019  0.9302449925900618  0.5705843617001065
  0.3154658035985705  0.9752603045675627  0.6874917664158673
  0.2589028005775944  0.0978249230506165  0.7665156197750420
  0.2676302216332260  0.0758104128666943  0.9265472340971286
  0.1681974630452956  0.1483748693760418  0.9945237412600676
  0.0526935975262219  0.2211240262577903  0.0701607320641457
  0.9664310215268301  0.3141924238106100  0.1653974639952907
  0.9161802586829282  0.4291450035149751  0.2820180413056690
  0.8385141140370891  0.5316685395766854  0.3165756374448989
  0.7561324422404638  0.5886369737042116  0.4164463705540342
  0.6627857876386969  0.6735612127602977  0.4797000261247888
  0.5537402944026439  0.7492099055707584  0.5217267935856498
  0.4970794725642165  0.8107028571021431  0.6651934184526525
  0.4170477893676861  0.9158937661498712  0.7254858774129787
  0.3425104442164439  0.9909245539785658  0.8155415678674558
  0.3363343840249300  0.0089152801527561  0.0112299437604477
  0.2556601710936306  0.0893038868939016  0.0839690791723697
  0.1747406943494454  0.1473756792445684  0.1606222606969112
  0.0836308277283777  0.2566201037391735  0.2369694700942375
  0.0055450923392613  0.3269760335917340  0.3434919426394600
  0.8915510255167973  0.4470127859477131  0.4001138584891351
  0.8421305379806938  0.5340762321401442  0.5023976725186188
  0.7650205008359947  0.5987754787961705  0.5721957354841152
  0.6486597084473331  0.6553475409446747  0.6582222350471199
  0.5790707312091499  0.7473522633568948  0.7552309388774887
  0.4948693679700540  0.8438094234496134  0.8336394512843910
  0.3974256687946465  0.8977356256649927  0.9282379569463473
  0.3975852803427600  0.9035644389344881  0.0829393406102739
  0.3466472103473137  0.0186172979366148  0.1714079538113680
  0.2556630956452324  0.1013686977504165  0.2576569643942861
  0.1871053622321028  0.1559571961924320  0.3466673321363416
  0.0705145263337883  0.2419575709644306  0.4273747838767292
  0.9939151794535661  0.3282926138090900  0.5205303247074013
  0.9259279915260663  0.4105640499126011  0.5830903922518615
  0.8484334544573642  0.5046441057721509  0.6789852546929609
  0.7635854698662428  0.5978243174304581  0.7378755923202647
  0.6673514591883247  0.6704239236586105  0.8175896355829124
  0.5697672252621970  0.7420693446952455  0.9153464432284508
  0.5015925905342726  0.8427957958086338  0.0175883307683549
  0.4724784821971397  0.8386725889192874  0.1384558586031304
  0.4091632044193645  0.9057323529411789  0.2725963558291511
  0.3348355382656933  0.0264727694178433  0.3578153376273008
  0.2530923449612388  0.0631199978150150  0.4128630904202737
  0.1665086439808476  0.1604019251595972  0.4930680702804366
  0.0850878476972170  0.2115626956984329  0.5910695589185266
  0.0115649657052757  0.3342412638698917  0.6892052976326184
  0.9367944981190135  0.4093004640712863  0.7710741008321946
  0.8572517931106560  0.5018002935476531  0.8036558633530930
  0.7689724454704390  0.6010908496732057  0.9000649196306441
  0.6853077068133473  0.6630117480810185  0.9822665032679723
  0.5945076593137273  0.7526809545523605  0.0784272225072229
  0.5583654654012733  0.7332619760791914  0.2412697322921389
  0.4939628633720901  0.8233812124752973  0.3183342082763332
  0.3785783629730943  0.9008340258777920  0.4074539814181506
  0.3225854807911546  0.0084898502812010  0.5080675549095588
  0.2516293485902139  0.1095719376994992  0.5873776747036032
  0.1701043086905329  0.1787775117799058  0.6765558210784306
  0.0695608845379212  0.2358259770671864  0.7715722402720786
  0.9923718844999243  0.3264236719106250  0.8523531720246211
  0.9425055617305063  0.4480516121370997  0.9306413987688131
  0.8201893087855296  0.5049938934488551  0.0120093080255330
  0.7777000964242262  0.6020984842871258  0.0803048278613758
  0.6545905903252773  0.6529656477998174  0.1636426114341063
  0.2570735693114443  0.2358138437642481  0.7697671449878385
  0.1348713173544596  0.3203668210404302  0.8402372520519847
  0.0948891088121329  0.4220544996390032  0.9147354632162958
  0.0248064960480292  0.4969288769189859  0.0143059507523944
  0.8954870031539741  0.6097306966294269  0.0381090230278147
  0.8544641363619121  0.6852127759727935  0.1437674143106875
  0.7352796055631572  0.7258977812927512  0.2496670818133424
  0.6531096780475778  0.8305370430536527  0.3274167839907278
  0.5808342595759228  0.9164735906862731  0.4134663902188791
  0.4953104598913214  0.0062520016339889  0.5059835157318773
  0.4080364502584004  0.0930298511361940  0.6104834544573663
  0.3244975556695522  0.1969240742324061  0.6861091208770347
  0.3404961420808661  0.2007397377070959  0.8545136618407057
  0.2228295153138760  0.2447959663322692  0.9304216527017815
  0.1543996518277879  0.3248689855981155  0.0168473020215814
  0.0595524524053772  0.4165205169858623  0.1100456742096085
  0.9752784807721540  0.5042575253647996  0.1701501828735346
  0.9150272054073554  0.6121628011475906  0.2577416647666837
  0.8289942957706344  0.6816097554719533  0.3554134932170570
  0.7258733227884164  0.7684188616241059  0.4101984980620159
  0.6748901747036058  0.8468699403404756  0.4645034513223862
  0.5827617575809398  0.8994093023255800  0.5748959373575033
  0.5034150412296725  0.9742984871371050  0.6706551176090585
  0.4369455065359489  0.0963215197028404  0.7507722687718470
  0.4036290930422552  0.0639861780855782  0.9489679634062895
  0.3406732686388523  0.1808510996162056  0.9961633108185168
  0.2462114678332554  0.2311986096861247  0.0789171378628950
  0.1682885193418429  0.3250990020329851  0.1479840771773837
  0.0424245302287574  0.4033092833257328  0.2481322156672761
  0.0105261604157150  0.4948229494414065  0.3629665308177508
  0.9289543785149732  0.5834327851877177  0.4345753766719866
  0.8070558120535054  0.6540485365367061  0.4940780537505702
  0.7339741174570591  0.7180924827101407  0.5505210394816871
  0.6504173720360242  0.8483985887862886  0.6278835014819890
  0.5788921350129215  0.9143046117381033  0.7607001453488351
  0.4728033805479583  0.0009201293889660  0.8603876282489722
  0.4961116668566632  0.9998516154620773  0.9984600656444726
  0.4265605145158844  0.0952789329685331  0.0874868122055048
  0.3668533667730642  0.1687680636304876  0.1653130277207779
  0.2360075315397481  0.2363676950334366  0.2414950700144374
  0.1598922680118591  0.3275576474388231  0.3297454618863043
  0.0805496694026431  0.3917602798677606  0.4498771265579862
  0.9849666053921595  0.5031928313573459  0.5276493853549198
  0.9360054387064878  0.5940512919896648  0.5813797741868072
  0.8542147282071753  0.6631164733432158  0.6604004008967905
  0.7494921150630773  0.7478617324061432  0.7199312903746744
  0.6804463097545224  0.8246910406216728  0.8000885046169657
  0.5856683932778566  0.9351102983926154  0.9207542103663187
  0.5744641501367980  0.9086995406786755  0.0647935058519522
  0.4724943047955605  0.9974570802933584  0.1585344191746501
  0.4090434901770763  0.0868596666476691  0.2788573410662707
  0.3271999045257630  0.1768072550919584  0.3431086724806178
  0.2355027749278022  0.2928066798715605  0.4480627997225994
  0.1361844932740510  0.3139733375133034  0.5076921630376958
  0.0751943679700560  0.4296253970968209  0.5927683220284266
  0.9826863049095635  0.5051196292179654  0.6774724473704197
  0.9420525668794681  0.6303336582307324  0.7627151994034023
  0.8238140071629445  0.6867299599103234  0.8201823215914246
  0.7366582397590804  0.7683671335879296  0.9070202182132547
  0.6683244323795421  0.8181884281425766  0.9935557607539138
  0.6566881716446247  0.8270444501443990  0.1568608731380152
  0.5692125303997599  0.9283429524813798  0.2553202956376381
  0.4992918352903146  0.9936113638090873  0.3643335233318155
  0.4112490048829613  0.0920693660700707  0.4471808562281510
  0.3192142565359504  0.1753777260031910  0.4926451417388691
  0.2406501633986906  0.2474554586563329  0.5868918205654339
  0.1540306681296570  0.2964788346443257  0.6890386347659216
  0.0740841047271630  0.4142418519151860  0.7805519489094053
  0.0229278134024895  0.5263815026979799  0.8607913579191333
  0.9184378880718924  0.6134838149794817  0.9547359168376630
  0.8105045689884491  0.6851073073415392  0.0046806785795681
  0.7513011423658611  0.7614544849141183  0.0841094899490784
  0.3254774201056421  0.3193737327101402  0.6660737654848745
  0.2440359534123715  0.4119986600357208  0.7665654288265671
  0.1786719595493267  0.4857408558481566  0.8652665935172550
  0.0905637264401875  0.6213956846595252  0.9223018847849218
  0.0145197033173758  0.6842191437718483  0.0189246152530771
  0.8983756417198663  0.7575501762235888  0.0593927814827495
  0.8088408140484873  0.8268498456262350  0.1694767679358549
  0.7429874781501766  0.9125569957440334  0.2268124387254886
  0.6591752816727450  0.0018130851953160  0.3222141900364832
  0.5794045062889523  0.0905522429320555  0.4283471528727745
  0.5005381203450341  0.1733640328127350  0.4855878277473806
  0.4033555883302924  0.2338314570983400  0.5856799722602233
  0.4452867442810486  0.2470714745782061  0.7635168846899205
  0.3641405195508440  0.3455538427192550  0.8574962831547381
  0.2434334102827194  0.4103264819881431  0.9406834321325448
  0.1510087385050909  0.5161671445128420  0.0090233512881923
  0.0926835584815322  0.6043597815967487  0.0963093398502792
  0.9693725133948945  0.6810113272343798  0.1442475499695988
  0.9048987450600379  0.7652216902264755  0.2440318755699948
  0.8273503918718674  0.8582254146716792  0.3167264691632496
  0.7805972877716982  0.9115999368255032  0.4077832891586866
  0.6654305759803947  0.9827486505357967  0.5114376543737649
  0.5691821406178761  0.0899182184792551  0.5735862312851481
  0.5129683362783126  0.1949651086791278  0.6730046093631259
  0.4943814589983262  0.1497184702272349  0.8404827699878368
  0.4325332321591446  0.2595054106817116  0.9364560210518320
  0.3421290659674696  0.3354377018733885  0.0008050715344297
  0.2407050591845277  0.4312138941138457  0.0780452258131916
  0.1618006531197764  0.4911315017479865  0.1771285947712400
  0.0521370335537341  0.5920867889306862  0.2439894185096492
  0.9913618521051859  0.7032285862213072  0.3267751263489913
  0.9268530352257187  0.7602860811863508  0.4168081233850103
  0.8280997696268457  0.8136197265921865  0.5073412239702080
  0.7736011347659186  0.9398739018087880  0.5560315520975863
  0.6714223048715624  0.9790114882580951  0.6711007219942218
  0.5752803798069621  0.0954289894930866  0.7509383896678798
  0.5904220459986291  0.0854665412676709  0.9204697560419532
  0.5158936445508431  0.1618333224084196  0.9927558020785838
  0.4196410059469500  0.2549184170276604  0.0788506322199396
  0.3312211762805930  0.3396018173354634  0.1638538460442334
  0.2377171777625762  0.4185645415336694  0.2337873603511156
  0.1431550834093329  0.5053502066233477  0.3225795404886753
  0.0873214541533684  0.5989902269531839  0.4232427795827647
  0.0202601083941332  0.6620299128856999  0.5075306125551009
  0.9274139515883846  0.7387180071059447  0.5643142076113392
  0.8422322018923865  0.8121117115063043  0.6399559179776588
  0.7431894992590031  0.8862484714622312  0.7262086021811811
  0.6576471096481242  0.0016584368825079  0.8189765290127653
  0.6452989388584882  0.9915366891814870  0.9894424803351569
  0.5627375736244105  0.1151375892992874  0.0981369784541712
  0.4932953151124764  0.1466398958808313  0.1838843949498425
  0.4301709373575022  0.2599811246010049  0.2319784969220251
  0.3225158102485182  0.3228426033591703  0.3164312386000887
  0.2291851487688064  0.4002802781577728  0.3980721690226474
  0.1456248888508895  0.4688835238068094  0.4923703958618333
  0.0922106826645361  0.5862414932930520  0.6179573800159588
  0.0261418984648145  0.6961977366431071  0.6577517731608182
  0.9290231099901192  0.7469135269417819  0.7264711549057594
  0.8491055474806188  0.8047418025155793  0.8205559232026118
  0.7344778932018556  0.9005083243084044  0.8931536427458582
  0.7203905509005892  0.9140362080103372  0.0972773265313904
  0.6529539552933556  0.0124232301641598  0.1622385269417848
  0.5921007010943882  0.0777935965762282  0.2703280442506468
  0.4914078032375713  0.1797029967510255  0.3690724407204726
  0.4173113994338067  0.2676749795751618  0.4297055764553903
  0.3306832364341119  0.3418675102599167  0.4955889634632911
  0.2209516159370750  0.4004297585119332  0.5711306068551423
  0.1704337879046989  0.4601732881136940  0.6659729233166161
  0.1070830777853757  0.5746224597203238  0.7579132994186040
  0.0117732681638572  0.6711729180916564  0.8307503514971870
  0.9392960081319330  0.7366972231722144  0.9270810329267363
  0.8400721766225843  0.8603611491108083  0.9975678161574706
  0.4221027336031327  0.4144090629274970  0.5674552829077371
  0.3386210860313099  0.4739182132542936  0.6688623503761946
  0.2482810500265984  0.5614732216142286  0.7649634737422133
  0.1896283591731276  0.6576472986966095  0.8487267071363434
  0.1037601478188179  0.7545564927230615  0.9098718977998175
  0.0062862208352357  0.8432957008093922  0.0032894788341693
  0.8977880543205643  0.9152273374563009  0.1100003429472594
  0.8222745107539140  0.0060446401428820  0.1652108246884012
  0.7684415521925843  0.0951061364759056  0.2532067088463279
  0.6936412325201431  0.1859744157546714  0.3208453478872144
  0.5801355330407389  0.2426651880034925  0.4045565516225906
  0.5057381250950002  0.3354403941518456  0.4828277364531104
  0.4943838981038127  0.3285438654240735  0.6676262777397781
  0.4286305451056407  0.3957719870991028  0.7449829105867138
  0.3500278575771389  0.5020649410054716  0.8618628263223869
  0.2393795281387767  0.5739661284959752  0.9372212252051995
  0.1762682013793864  0.6823414215686299  0.0062640556125544
  0.1185845963482279  0.7579925102599177  0.0754321729176155
  0.9909266544117656  0.8160138157394741  0.1472150597545223
  0.9075274828051363  0.9053972155722789  0.2222196106931165
  0.8606881673696591  0.9870278689770515  0.3148761190910463
  0.7625945308937503  0.0775364687832507  0.4128043718650218
  0.6719916832915303  0.1533310310267524  0.4868553788569656
  0.5749149666552640  0.2166257861187120  0.5782552035833746
  0.5835036679206596  0.2675292236662088  0.7722037548449592
  0.4931216218270222  0.3718482220892199  0.8570393463102306
  0.4187406895994812  0.4266788968688218  0.9412831447598435
  0.3220433153784796  0.5164896545827631  0.0191252085233344
  0.2441825804643543  0.6019516183120501  0.0837569629692965
  0.1735280832003312  0.6823161341959292  0.1804775003800003
  0.0692819795941659  0.7323603192924466  0.2290637083903349
  0.0336577025383775  0.8439214864531053  0.3034298207364330
  0.9294208266833834  0.9161957369091027  0.4115670865633092
  0.8350506027701812  0.0056696534427729  0.4759080611605100
  0.7246993240804045  0.0921511528157808  0.5789082350091235
  0.6426777207782308  0.1628935775763765  0.6819146564827463
  0.6955571819425472  0.1702920789633708  0.8558725931942561
  0.5901123000265969  0.2591969481494161  0.8796922832117318
  0.5298078008625922  0.3472265551375600  0.9887366255319989
  0.4267773046815648  0.4285020581585357  0.0584114350585168
  0.3121756279449741  0.4848393201854364  0.1678443223704207
  0.2324819411194738  0.5952513808139557  0.2445593650250828
  0.1788171426128571  0.6791761822655431  0.3095365728074171
  0.1005113338843273  0.7469847687718527  0.4176336762805875
  0.0277340876273016  0.8228927221082216  0.4960719761741927
  0.9296566865215112  0.8957989721082242  0.5600471823225419
  0.8311166196420459  0.9882957411840678  0.6477664153936757
  0.7504783059735516  0.0924683833029363  0.7345564110237106
  0.7508944843441228  0.0969614949080437  0.9297783330483327
  0.6771981446648425  0.2018584582573340  0.9915894541343704
  0.5683871770025846  0.2373705264857904  0.0848617970056225
  0.4970979494414038  0.3559533083485320  0.1386156582497335
  0.3994883041685640  0.4062989939580461  0.2692656924494585
  0.3132491896564815  0.5067854266415850  0.3314732581889359
  0.2333125275497778  0.5650954789861657  0.4092403903518758
  0.1777811041761694  0.6336031805745534  0.5179594053997576
  0.1140018330103345  0.7433790545675620  0.5783526139040873
  0.0462885673164593  0.8221985645614822  0.6569179681562574
  0.9140800245098006  0.8869997506269982  0.7233580046359620
  0.8090990827823390  0.9513761722906224  0.8178956400098798
  0.8178574270405861  0.9717468374753011  0.0000546549627600
  0.7461476254939967  0.0748519508093963  0.0580468379502932
  0.6788011646906824  0.1860240984572101  0.1878572987916129
  0.5460195147438824  0.2592672224122197  0.2190126686236482
  0.5051642437110502  0.3565826061141522  0.3321046141130850
  0.3987572508169919  0.4274089023787795  0.4134895747834051
  0.3013967182512545  0.4930167383910913  0.5068154630262924
  0.2288141254369975  0.5472720535985687  0.6093704918110632
  0.1671083874828980  0.6597415816423435  0.6826667735408094
  0.1044164391434848  0.7211853615671089  0.7554965049779625
  0.0122852936426483  0.8108768178104597  0.8316181301299608
  0.9467707278841786  0.9320099962950295  0.9141162743198024
 
  0.00000000E+00  0.00000000E+00  0.00000000E+00
  0.00000000E+00  0.00000000E+00  0.00000000E+00
  0.00000000E+00  0.00000000E+00  0.00000000E+00
  0.00000000E+00  0.00000000E+00  0.00000000E+00
  0.00000000E+00  0.00000000E+00  0.00000000E+00
  0.00000000E+00  0.00000000E+00  0.00000000E+00
  0.00000000E+00  0.00000000E+00  0.00000000E+00
  0.00000000E+00  0.00000000E+00  0.00000000E+00
  0.00000000E+00  0.00000000E+00  0.00000000E+00
  0.00000000E+00  0.00000000E+00  0.00000000E+00
  0.00000000E+00  0.00000000E+00  0.00000000E+00
  0.00000000E+00  0.00000000E+00  0.00000000E+00
  0.00000000E+00  0.00000000E+00  0.00000000E+00
  0.00000000E+00  0.00000000E+00  0.00000000E+00
  0.00000000E+00  0.00000000E+00  0.00000000E+00
  0.00000000E+00  0.00000000E+00  0.00000000E+00
  0.00000000E+00  0.00000000E+00  0.00000000E+00
  0.00000000E+00  0.00000000E+00  0.00000000E+00
  0.00000000E+00  0.00000000E+00  0.00000000E+00
  0.00000000E+00  0.00000000E+00  0.00000000E+00
  0.00000000E+00  0.00000000E+00  0.00000000E+00
  0.00000000E+00  0.00000000E+00  0.00000000E+00
  0.00000000E+00  0.00000000E+00  0.00000000E+00
  0.00000000E+00  0.00000000E+00  0.00000000E+00
  0.00000000E+00  0.00000000E+00  0.00000000E+00
  0.00000000E+00  0.00000000E+00  0.00000000E+00
  0.00000000E+00  0.00000000E+00  0.00000000E+00
  0.00000000E+00  0.00000000E+00  0.00000000E+00
  0.00000000E+00  0.00000000E+00  0.00000000E+00
  0.00000000E+00  0.00000000E+00  0.00000000E+00
  0.00000000E+00  0.00000000E+00  0.00000000E+00
  0.00000000E+00  0.00000000E+00  0.00000000E+00
  0.00000000E+00  0.00000000E+00  0.00000000E+00
  0.00000000E+00  0.00000000E+00  0.00000000E+00
  0.00000000E+00  0.00000000E+00  0.00000000E+00
  0.00000000E+00  0.00000000E+00  0.00000000E+00
  0.00000000E+00  0.00000000E+00  0.00000000E+00
  0.00000000E+00  0.00000000E+00  0.00000000E+00
  0.00000000E+00  0.00000000E+00  0.00000000E+00
  0.00000000E+00  0.00000000E+00  0.00000000E+00
  0.00000000E+00  0.00000000E+00  0.00000000E+00
  0.00000000E+00  0.00000000E+00  0.00000000E+00
  0.00000000E+00  0.00000000E+00  0.00000000E+00
  0.00000000E+00  0.00000000E+00  0.00000000E+00
  0.00000000E+00  0.00000000E+00  0.00000000E+00
  0.00000000E+00  0.00000000E+00  0.00000000E+00
  0.00000000E+00  0.00000000E+00  0.00000000E+00
  0.00000000E+00  0.00000000E+00  0.00000000E+00
  0.00000000E+00  0.00000000E+00  0.00000000E+00
  0.00000000E+00  0.00000000E+00  0.00000000E+00
  0.00000000E+00  0.00000000E+00  0.00000000E+00
  0.00000000E+00  0.00000000E+00  0.00000000E+00
  0.00000000E+00  0.00000000E+00  0.00000000E+00
  0.00000000E+00  0.00000000E+00  0.00000000E+00
  0.00000000E+00  0.00000000E+00  0.00000000E+00
  0.00000000E+00  0.00000000E+00  0.00000000E+00
  0.00000000E+00  0.00000000E+00  0.00000000E+00
  0.00000000E+00  0.00000000E+00  0.00000000E+00
  0.00000000E+00  0.00000000E+00  0.00000000E+00
  0.00000000E+00  0.00000000E+00  0.00000000E+00
  0.00000000E+00  0.00000000E+00  0.00000000E+00
  0.00000000E+00  0.00000000E+00  0.00000000E+00
  0.00000000E+00  0.00000000E+00  0.00000000E+00
  0.00000000E+00  0.00000000E+00  0.00000000E+00
  0.00000000E+00  0.00000000E+00  0.00000000E+00
  0.00000000E+00  0.00000000E+00  0.00000000E+00
  0.00000000E+00  0.00000000E+00  0.00000000E+00
  0.00000000E+00  0.00000000E+00  0.00000000E+00