Li 
 1.0000000000000000
    21.0527999999999977    0.0000000000000000    0.0000000000000000
     0.0000000000000000   21.0527999999999977    0.0000000000000000
     0.0000000000000000    0.0000000000000000   21.0527999999999977
 Li 
 432
Cartesian
  0.2820678000000000 -0.5175911399999999  0.4498503000000000
 19.1810783799999989  1.7312027000000001  1.0548888599999999
 17.6427717900000012  3.1240511799999999  3.5169512300000001
 15.5615273799999994  5.4432514599999999  5.4042307799999998
 13.4086113699999991  6.5800893499999997  7.1162019399999998
 12.4617543499999996  9.0985110999999996  8.6432161000000001
 10.3524292300000003 10.4961584699999992 10.7417375400000008
  9.0238192399999999 12.0681617499999998 12.5762093499999992
  6.8518291500000004 14.0773126099999999 14.0796566599999995
  5.4398800100000004 15.8016354799999998 16.1147459799999986
  3.8034753700000001 17.6666965000000005 17.4389425699999983
  2.2476300800000000 19.0127981300000002 19.3652025399999985
  1.7981813900000001 18.9078313700000002  1.7868676999999999
 -0.0615319400000000  0.1040894000000000  3.2377498400000002
 19.6826059899999990  1.5226441799999999  5.1558600500000002
 17.9414282000000007  2.9607976800000002  6.9952914799999997
 15.9457245099999998  5.2612472099999996  9.2985826100000004
 14.1085385100000007  7.1501126299999997 10.5411795999999995
 12.1347843399999995  9.0126022999999993 12.4734893499999995
 10.8408189700000008 10.5629107100000006 13.6156934500000002
  8.7277683600000007 12.3154283200000005 15.6148587299999999
  7.0002294899999997 14.1161913000000006 17.3182123700000012
  5.1846010900000001 15.5606923899999998 19.8607051800000001
  3.6748381800000001 17.4674198499999989  0.1853410000000000
  3.2261664500000000 16.9428952799999983  4.4073702199999998
  1.6833954000000000 19.3831658000000004  4.4837555099999999
  0.2558292500000000 -0.2589245200000000  6.7490664100000002
 20.0939208899999997  1.7537604099999999  8.7309400400000001
 17.8378085900000016  2.8266813700000002 10.4687437100000000
 16.0053263100000009  5.4558149900000004 11.8450759300000001
 14.3417308800000001  6.8901121600000002 13.5441132199999998
 12.7120558100000007  9.2288239900000004 15.4345936199999993
 10.5140368100000003 10.3044346900000008 17.3382017799999986
  8.8569374799999991 12.8759130600000002 19.3228362699999998
  6.9609255499999998 14.4084468399999999 21.4456665800000010
  5.3018438799999998 16.1682404200000001  2.1039650499999998
  5.2605987299999999 15.5039906999999992  5.1375991100000000
  3.9312364500000001 17.8336677399999992  6.8825023200000004
  1.9680181600000000 19.7076073399999991  9.0340820399999995
  0.2820509800000000 -0.5966571400000000 10.8454817899999991
 19.1062600200000006  1.5459059900000001 12.5508352799999994
 17.5254107300000008  3.5993725699999999 13.6494248200000001
 16.1279449200000009  5.3106158900000002 15.8103799899999995
 14.3108141999999994  7.5540216700000000 17.0166403899999992
 12.7987764700000000  9.3728455799999999 19.0604982499999984
 10.5190711300000004 10.4935627000000000 -0.0799777500000000
  8.4649660799999999 12.0207358000000006  1.8231394299999999
  7.0926205800000002 14.0229095800000003  3.0401783199999999
  6.5788099600000001 14.2390224500000002  6.7704692800000004
  5.3660856800000003 15.5352241600000003  8.9804619399999996
  3.7033640000000001 17.3962531200000008 10.4683866800000001
  2.8774300400000001 18.7808576900000013 12.7537684700000007
  0.0580153600000000 -0.5948752899999999 14.2407045599999993
 19.0369745899999998  1.8663500200000001 15.5484330899999996
 17.6761946399999985  3.4755733599999998 17.3660097299999983
 16.1295006900000004  6.3538233999999996 19.3532946599999995
 13.7651274600000004  7.1080140900000002  0.5009809800000000
 12.8849943600000003  9.8583383700000002  1.2364725800000000
 10.6461201800000005 10.2790558200000000  3.8224619199999998
  8.6067727999999999 12.6088931599999992  5.4702401399999996
  8.6041848299999995 11.6853925600000004  8.4424706000000000
  6.4673868600000004 13.3710562399999997 10.5146353700000006
  5.5898230399999997 15.2508015399999994 12.2808080000000004
  3.9590630000000000 16.7722499099999993 14.0700253100000001
  2.1142060300000001 19.0074275999999998 15.6237378699999994
  0.2804391000000000 -0.0041724900000000 17.0838542400000009
 19.5359310000000015  1.4029866000000000 19.3620348299999989
 17.2888963999999987  3.5144468999999998 20.8631810199999990
 15.9289524999999994  5.1184629099999999  2.1524123700000000
 13.7560591799999994  6.6776730500000001  3.2843355800000000
 12.1301559099999992  8.6596851699999995  5.0536839699999998
 10.7099605899999997 10.6800851600000009  6.7417652199999996
  2.1794350300000001  1.1515812900000000 19.3517625200000012
 -0.2878945900000000  2.8665255900000002 -0.3477498400000000
 19.2482737600000000  4.9816153900000000  1.3372809500000000
 18.1241838699999995  6.5788926800000000  3.3381987999999998
 16.1656341700000006  8.4151149699999994  4.7305846400000000
 14.1816712299999992 10.7277950099999995  6.1703325199999997
 12.1599818400000004 12.1079319999999999  8.8560250000000007
  9.9924005400000002 13.4023557499999999 10.4015829899999996
  8.2902237499999991 15.8610985400000004 12.0501876100000000
  6.7698232200000001 17.4639256699999983 13.7353249599999998
  5.0085532400000004 18.8783803699999986 15.7881762400000003
  3.9617878200000001 -0.1509566800000000 17.0887323000000002
  3.7454983600000000 -0.0525854500000000 -0.0249763600000000
  1.5809150400000000  1.4086436099999999  1.8721612700000001
  0.0747050200000000  3.4230139400000001  3.4766077599999998
 18.9462440799999996  5.0510665200000000  5.3357332099999999
 17.2307953900000008  6.4915165899999998  7.4626132199999997
 15.9938380000000002  9.0271100299999993  8.6654771900000007
 14.2531950199999997 10.6890671400000006 11.1602988500000002
 12.2569081999999998 12.7330694100000006 12.0574168299999993
 10.8373355500000006 14.3943525700000006 13.8162944299999992
  8.6455151600000004 15.7273622399999997 15.9226007000000003
  7.1036335499999996 17.3526325399999983 17.7986534499999998
  5.6735605500000004 19.2026875299999986 19.5168423100000012
  5.2574600900000004 19.0679880100000005  2.1905544300000002
  3.6732156900000001 -0.0900952900000000  3.3354482200000000
  1.9165116799999999  1.8292117500000000  5.0237293599999999
 -0.2176092600000000  3.5470882399999999  6.6492135499999998
 19.1637980399999996  4.5044030199999998  9.0557898699999999
 17.4761957599999995  7.5993221499999999 10.8481615599999994
 16.5959758300000004  8.8582333200000001 13.2254922399999995
 13.9458244800000006 11.1917357699999993 13.9552670200000009
 12.1411877799999992 12.5023013800000005 15.7778059699999993
 10.4594786800000001 13.9382981099999999 17.3740257199999988
  9.1083758499999998 16.0801798799999993 19.2357643600000010
  6.5918314999999996 16.9791830399999988 20.9447747600000014
  6.9038379799999996 17.5068525500000014  3.1599110100000001
  5.3283000700000001 19.4300675299999988  5.5211965699999999
  3.7244604300000002  0.1351969300000000  7.2218189300000004
  1.5826230900000000  1.4371297999999999  8.4739205799999997
  0.2492695500000000  3.1355183700000002 10.7700990300000008
 19.3198502699999999  5.5875382199999999 12.0844259199999993
 18.0781767199999983  6.9011180400000001 14.6466887799999999
 16.1184455799999995  8.6266015800000009 15.8880399699999995
 14.1807928099999998 10.8902833500000007 17.2641736200000011
 12.1397484099999993 12.7383048100000007 19.2697756200000008
 10.3954676900000003 14.3430324900000006 21.4384805400000005
  8.6801241400000002 15.8141091899999999  1.3180596400000000
  8.5272628299999997 15.6613468999999998  4.8551191999999999
  6.7357249399999999 17.0764626300000018  7.3439437500000002
  5.3289438400000000 19.6482707999999988  8.6096302300000005
  4.0675860799999999  0.5735573100000000 11.1386404599999995
  1.6432056500000001  1.8153642600000000 12.7064890100000003
 -0.6151150200000000  3.5041021600000000 13.6990812200000001
 19.3892961300000017  5.0034110099999998 15.9460938599999995
 17.9345591800000008  7.7830656100000004 17.6309479300000014
 15.8101202199999999  9.1609939800000006 19.2985828800000014
 14.8083105100000001 11.0117537500000005 20.3818836599999997
 12.0068417899999993 12.1092607200000000  1.4002292100000000
 10.3759258499999998 14.2225938599999999  3.1046473799999998
  9.8142016200000004 14.2243290299999998  7.5867209500000001
  8.2960987700000004 16.0497806199999999  8.9941642700000006
  6.9004491400000001 17.7796526600000000 10.6069297900000006
  5.0220712499999998 19.0397663699999988 12.5772297200000001
  3.9103447600000001 -0.0023897000000000 14.2489282300000006
  1.8087794300000000  1.9203298400000000 15.1324064800000002
  0.2234798900000000  2.7449581300000001 17.7308211100000008
 18.8537076100000007  5.0878390800000002 19.3464044599999987
 17.7962792299999997  7.0783893999999998 21.1249999499999994
 15.6098409700000005  9.0169642700000008  2.1049552999999999
 14.1861873500000009 10.9917795399999996  4.0085002799999998
 11.8629535799999992 12.7979910399999994  4.9522716899999999
  3.3439225299999999  3.1544593299999999 17.8442472999999993
  1.0678417099999999  5.0810423499999997 19.4321564600000016
 -0.0980891100000000  7.4439158399999998  0.1826856600000000
 19.2298697099999991  9.0790456600000002  2.1033406000000001
 18.4030991700000008 10.4110059400000008  3.7143013100000002
 16.0846086300000017 12.7787638099999992  4.9292788600000002
 13.5776781000000000 13.8903156699999997  7.1306876700000004
 11.4033185199999991 15.7861474400000006  9.0645548799999993
 10.3485984400000000 17.9653242999999989  9.8874899599999999
  8.8799205099999998 19.5842617799999985 12.0123984499999992
  6.6414384699999998 20.5319601399999989 14.4736266600000008
  5.4506288800000000  2.0594885399999998 16.1373000399999995
  5.6343655300000002  1.5960214600000000 19.5064136099999992
  3.5410275499999999  3.1237064499999998 -0.1152905800000000
  1.1093477700000001  4.6552799000000000  1.4770798599999999
 -0.7067209900000000  6.6146302600000002  3.4820797300000002
 19.2881597499999984  9.0347039299999992  5.9372694199999998
 17.6530699400000017 11.1931114300000001  6.6648035800000001
 15.9187050800000005 12.3924564799999999  8.7673621500000003
 13.9534966300000001 14.1803495000000002 10.0990287100000007
 11.6577836700000006 15.7729663000000002 10.9838098399999993
 10.4649147199999994 17.0675651100000003 14.0041840000000004
  8.7800236999999992 19.2821282799999985 15.2735090800000002
  7.2108038800000003 20.8617364499999987 17.1694335199999983
  7.0807805200000002  0.1876916100000000  0.2364217600000000
  5.3823624499999996  1.8800968700000000  1.7677842300000000
  3.6787808900000001  3.1026707000000000  3.3815483300000002
  1.7606630900000000  5.4025717200000001  4.9888708599999996
  0.1167397200000000  6.8837610400000004  7.2314671700000002
 18.7696454300000006  9.4108707799999998  8.4235170400000001
 17.7292057900000017 11.2438000999999996 10.5768777200000006
 16.1058236000000008 12.6059003999999995 12.0463223799999994
 13.6561031100000001 13.7969007099999992 13.8574210699999991
 12.1910602899999994 15.7338577300000004 15.8997259100000008
 10.4183858300000001 17.7645510299999998 17.5504446399999985
  8.3669231199999992 18.8998485800000005 19.5420080600000006
  8.3702833900000009 19.0225614199999988  1.7461053499999999
  7.2978943899999997  0.3919462500000000  3.6086173700000002
  5.3824240200000002  2.1340949199999999  5.4244005399999997
  3.9390917700000001  3.2833356600000001  7.2983180100000000
  1.4845282200000001  5.0938843499999997  8.9974358500000005
 -0.1281025100000000  6.9114787399999997 10.9586208200000002
 19.4933768200000017  8.6435228300000002 12.2756854099999995
 17.8618998299999987 10.6241714300000005 14.2945407699999993
 16.0756121800000003 12.5858757899999993 15.5343472699999996
 14.0496168000000008 14.1143007800000007 17.2125510800000008
 11.9951954399999998 15.6226374999999997 19.2706055999999997
 10.5599284900000008 17.7432113300000012 21.4230836099999991
  9.9469949900000003 17.6564062799999988  2.9148835000000002
  8.6140311100000009 19.0682020799999989  5.7389165599999998
  7.0492256199999996  0.5573259200000000  7.5330147399999996
  5.3283025200000003  1.3288526899999999  8.6919240700000007
  3.5054731800000001  3.3769096500000000 10.3804634700000005
  1.7913374399999999  4.4539871199999999 12.4436692099999995
  0.2434749100000000  7.0367144799999997 14.5097012900000006
 19.7221472099999993  8.6169208099999999 16.2332688300000001
 18.0475505500000004 10.5643012200000008 16.9192061600000017
 16.1890231000000000 12.6546454399999995 18.9488867399999990
 14.4276460899999996 13.9582537299999991 20.6794602400000009
 12.5160508499999992 15.8460415999999995  1.6511126300000001
 11.7551564699999993 15.4372177300000004  5.0794034200000002
 10.3993013699999999 17.3344799899999984  6.7018264199999997
  7.9701345600000000 18.9650785800000001  8.5780471800000004
  6.7913276099999997  0.1787351200000000 10.6962446199999999
  5.2975023500000002  2.3067960900000002 12.3659447100000008
  3.5811719900000001  3.7637672000000002 14.2433943900000006
  1.4644513900000000  4.9647971300000000 16.2437560599999991
 -0.1605931900000000  6.8721322799999998 17.9444208600000010
 19.8423810899999999  9.4327409800000002 19.5926072399999995
 17.2672814800000012 10.6315354400000004 21.3056295599999999
 16.3727645899999992 12.6758589700000002  1.6906414800000000
 13.7809647799999997 13.7467551900000000  3.4451351699999999
  5.4121184400000004  4.9645416899999999 16.2057537499999995
  2.8394188699999998  6.7446186099999998 17.6893468200000008
  1.9976814300000001  8.8854289699999995 19.2577427599999993
  0.5222462000000000 10.4617442599999997  0.3011803200000000
 18.8525087800000009 12.8365384099999993  0.8023016400000000
 17.9888625699999984 14.4256475300000009  3.0267066200000001
 15.4796944799999991 15.2821808099999998  5.2561911400000003
 13.7497874299999996 17.4851302599999983  6.8930400699999996
 12.2281875000000007 19.2943352099999998  8.7046252200000005
 10.4276720500000000  0.1316221400000000 10.6523697599999991
  8.5903097800000001  1.9585388500000001 12.8523860699999997
  6.8315821400000001  4.1458031499999999 14.4445180999999998
  7.1683971800000004  4.2261335500000001 17.9899052200000007
  4.6911852200000004  5.1536405199999997 19.5879809700000003
  3.2505449899999999  6.8394017800000002  0.3546828800000000
  1.2537458699999999  8.7689231400000001  2.3167695699999999
 -0.5204572000000000 10.6160328300000000  3.5821377700000001
 19.2638847499999990 12.8877410200000000  5.4261837200000000
 17.4526511100000015 14.3497938600000001  7.4824491899999996
 15.2816658899999993 16.1773686099999985  8.6358269399999994
 14.2083278699999997 17.8289834800000015  9.7790982599999996
 12.2687667299999994 18.9350841599999988 12.1031691899999991
 10.5982961800000002 20.5117111899999998 14.1191680599999998
  9.1989263599999997  2.0278376900000001 15.8058584199999999
  8.4975225699999992  1.3470882099999999 19.9784327399999988
  7.1721261900000002  3.8074220300000001 -0.0807730500000000
  5.1834407899999997  4.8673780899999999  1.6614267199999999
  3.5429445400000001  6.8442442699999999  3.1154791799999999
  0.8931551500000000  8.4907896800000007  5.2238779099999997
  0.2216051500000000 10.4174085900000009  7.6414617800000002
 19.5570907399999996 12.2828937400000004  9.1490284899999992
 16.9907846000000013 13.7695530300000009 10.4017264500000000
 15.4522103000000008 15.1178574200000000 11.5900093399999999
 13.6931068499999995 17.8611658099999993 13.2187057800000005
 12.1873003400000002 19.2486721299999992 16.0148680200000015
  9.9538350100000006  0.0193713000000000 18.1135686599999985
 10.4445397000000000 -0.0031239100000000 -0.0324199300000000
  8.9802932000000002  2.0058883199999999  1.8418423600000000
  7.7232905599999997  3.5530402900000002  3.4803021099999998
  4.9686193599999999  4.9762018100000001  5.0841474099999999
  3.3661799399999999  6.8960056400000003  6.9420652599999997
  1.6957960800000000  8.2476508200000005  9.4711731700000001
 -0.3164950500000000 10.5936180400000008 11.1084969800000000
 19.7055353000000011 12.5064430400000006 12.2396721100000008
 17.9836118300000010 13.9604584900000006 13.9032775599999994
 15.7789076000000001 15.7445834799999993 15.1565694700000009
 14.3253000700000008 17.3620555400000001 16.8441032700000015
 12.3299595499999999 19.6866900899999990 19.3844542400000002
 12.0940788599999998 19.1306696900000013  1.3640847199999999
  9.9473281000000000 -0.0535355800000000  3.3375934200000001
  8.6115107900000005  1.8286391900000001  5.8707278299999999
  6.8884741500000004  3.7222877799999998  7.2233982599999997
  4.9579928200000003  6.1644004700000004  9.4329765099999996
  2.8670648999999999  6.6100178800000000 10.6883415700000004
  1.5830519900000000  9.0448175600000003 12.4794329299999998
 -0.3645017600000000 10.6341825300000004 14.2626919399999998
 19.8328442799999998 13.2702884399999999 16.0572905500000012
 17.3435915300000012 14.4575885000000000 17.2671343800000017
 15.5087185900000009 16.1762795900000000 19.0953152499999987
 14.0701006100000008 17.2251573399999991 -0.1356692800000000
 13.8251247399999997 17.4116013999999986  3.3023605900000002
 11.9835175599999992 19.5442185100000003  5.3752071199999998
 10.5114911499999995 -0.1344986800000000  7.6702408000000002
  8.6579430500000001  1.9383179500000001  9.4144091299999992
  6.7203539000000001  3.6921921900000001 10.3715596399999992
  5.0663597600000001  5.2096302799999998 12.3557161200000003
  3.2427768499999998  6.2417096100000000 14.5061925699999996
  1.5596778400000000  8.7209508600000003 16.4328040699999995
  0.4826946700000000 11.0818045000000005 18.1220682999999987
 19.3356891699999984 12.9155520599999996 20.0998643100000010
 17.0633905900000009 14.4234271199999995  0.0985413900000000
 15.8169926899999993 16.0307489799999985  1.7707402699999999
  6.8522110300000003  6.7237113199999996 14.0227177699999999
  5.1376401200000004  8.6737253899999995 16.1383486599999983
  3.7615450300000002 10.2262050900000006 18.2162845400000002
  1.9066200200000001 13.0821190699999992 19.4170371199999998
  0.3056804100000000 14.4047287900000001  0.3984161400000000
 18.9133227099999992 15.9485523499999999  1.2503843500000000
 17.0283638900000014 17.4075044299999995  3.5679604999999999
 15.6419667800000006 19.2118799200000012  4.7750369099999999
 13.8774853700000005  0.0381705200000000  6.7835108999999996
 12.1980871900000007  1.9063782600000001  9.0179069399999996
 10.5377289399999992  3.6497983100000000 10.2229834200000003
  8.4917645299999993  4.9228069000000003 12.3302033200000007
  9.3745327700000001  5.2015463400000002 16.0741682700000013
  7.6661775299999997  7.2748759400000003 18.0526977500000001
  5.1249548999999996  8.6385213600000004 19.8040201600000003
  3.1791567700000001 10.8667636600000002  0.1899668100000000
  1.9512484200000000 12.7234656099999999  2.0275812700000002
 -0.6447943500000000 14.3371952700000005  3.0368148200000000
 19.0506522999999994 16.1100591999999985  5.1375542699999999
 17.4180423299999987 18.0680480099999983  6.6679790099999998
 16.4337585799999992 19.1917311499999990  8.5849800300000005
 14.0091768299999995 -0.3631892100000000 10.7671946500000004
 11.9828777700000000  1.8930302699999999 12.0755962100000005
 10.7994197900000000  4.1045614400000003 14.1686314400000004
 10.4081139799999995  3.1519930100000000 17.6945156600000004
  9.1060356299999992  5.4633155100000002 19.7150213200000017
  7.2027748000000003  7.0619028500000001  0.0169490100000000
  5.0675154700000000  9.0782598700000001  1.6430705299999999
  3.4063567899999998 10.3396932800000005  3.7290528799999998
  1.0976305399999999 12.4650847500000008  5.1366604300000001
 -0.1818572000000000 14.8049307799999994  6.8795313800000004
 19.5128515799999995 16.0061508100000012  8.7749780600000005
 17.4338188299999999 17.1289733800000015 10.6809533200000004
 16.2864699699999989 19.7869772799999986 11.7060210599999994
 14.1353194999999996 -0.4418669400000000 14.1285492799999997
 12.1112627800000006  2.0090474299999999 15.8093557300000001
 12.4300372499999998  1.7993100000000000 19.3784656800000015
 10.8610057199999996  3.4070445700000000 -0.1525106500000000
  8.8346181700000006  5.3667464499999999  1.6600265900000000
  6.9731331799999996  7.1495691399999997  3.4495822500000002
  5.0046122000000004  8.8119555799999993  4.9218785399999998
  3.0138153399999998 10.6390368300000002  6.7912025500000004
  1.8383611099999999 12.6104214500000005  8.9104455900000001
  0.4265320100000000 13.9375833500000006 10.6849404799999999
 19.5246604400000017 15.5520824599999994 11.8803941500000008
 17.7313460999999997 17.0972254399999990 13.4728639500000007
 15.6462198899999994 18.6580118199999987 15.2887244599999992
 13.8453130699999996  0.0349147400000000 17.2417490700000009
 13.5853494999999995 -0.1781763900000000 -0.2222653500000000
 11.8472015899999992  2.4239686400000000  2.0660581800000002
 10.3852476100000004  3.0871803999999998  3.8712813900000000
  9.0563027100000006  5.4733306199999996  4.8837969000000001
  6.7898608500000002  6.7967407599999996  6.6617635799999997
  4.8249890999999998  8.4270206400000003  8.3805337600000005
  3.0658116600000000  9.8713110499999992 10.3657754700000009
  1.9412930600000000 12.3420249099999992 13.0097331300000008
  0.5503601600000000 14.6569117099999993 13.8475165300000000
 19.5585377300000012 15.7246211000000002 15.2942519299999997
 17.8760492699999993 16.9420682199999995 17.2749997399999984
 15.4628161899999998 18.9582216499999987 18.8033850099999995
 15.1662381899999996 19.2430214799999995  2.0479601000000001
 13.7465090300000004  0.2615437800000000  3.4155752599999998
 12.4653776399999998  1.6377730300000000  5.6911622499999996
 10.3455101999999997  3.7832512500000002  7.7700082799999999
  8.7855734299999995  5.6353078099999996  9.0465055599999999
  6.9618080400000002  7.1972683200000001 10.4335353299999998
  4.6516501799999999  8.4301676200000006 12.0238984400000000
  3.5881084500000000  9.6879361999999993 14.0205947599999998
  2.2543986199999999 12.0974117200000002 15.9561971099999997
  0.2478602600000000 14.1300692100000003 17.4896209999999996
 19.7748109999999997 15.5095393000000001 19.5176515700000017
 17.6858715199999992 18.1130111999999990 -0.0512042800000000
  8.8864444299999992  8.7244711200000005 11.9465225799999999
  7.1289220000000002  9.9773053600000008 14.0814252900000003
  5.2270112900000001 11.8205834400000001 16.1046230199999982
  3.9922079199999998 13.8453170500000002 17.8680736200000005
  2.1844416400000002 15.8855269299999993 19.1553510899999999
  0.1323425500000000 17.7537357299999989  0.0692527400000000
 18.9009523500000007 19.2680980899999987  2.3158152200000002
 17.3111808200000006 21.1800566000000003  3.4781504499999998
 16.1778463099999996  2.0022504699999999  5.3307102000000004
 14.6030901400000008  3.9152821800000002  6.7546929400000000
 12.2134773499999998  5.1087816699999999  8.5170481700000007
 10.6472035999999992  7.0619595300000002 10.1648757700000001
 10.4081653299999992  6.9167682900000003 14.0554024999999996
  9.0238731399999992  8.3321084899999995 15.6839762199999999
  7.3690664799999999 10.5698727899999998 18.1446257099999997
  5.0396093300000002 12.0835941099999999 19.7311310099999986
  3.7109391899999999 14.3651974800000009  0.1318759100000000
  2.4965377900000001 15.9578647199999999  1.5880584499999999
 -0.1910193300000000 17.1793756600000016  3.0992892099999998
 19.1059945900000017 19.0611464999999995  4.6783450200000001
 18.1198958499999989 20.7797003199999999  6.6290239599999996
 16.0547501399999994  1.6323597700000001  8.6906878800000005
 14.1473065099999999  3.2280475300000000 10.2496689199999995
 12.1035698099999998  4.5605793500000003 12.1738911499999993
 12.2843860199999995  5.6322392399999996 16.2570512100000002
 10.3815908799999992  7.8284462499999998 18.0430779500000007
  8.8156639899999991  8.9827854800000004 19.8166457899999990
  6.7799135100000001 10.8735534000000005  0.4026391900000000
  5.1407270299999999 12.6727670299999993  1.7633185899999999
  3.6532520300000000 14.3646651100000007  3.7995567200000000
  1.4585796600000001 15.4182353299999999  4.8224324400000000
  0.7085888800000000 17.7669102700000003  6.3880473300000000
 19.5669107800000006 19.2884856099999986  8.6646395599999995
 17.5801533300000017  0.1193620800000000 10.0191972299999996
 15.2569499299999993  1.9400397899999999 12.1876392899999999
 13.5301655200000006  3.4293659100000000 14.3562128799999993
 14.6434262400000001  3.5851250800000001 18.0185145300000009
 12.4235162300000006  5.4568215100000002 18.5199856999999994
 11.1539376699999995  7.3100912200000003 -0.2371255700000000
  8.9848572400000002  9.0211681299999995  1.2297242600000000
  6.5721710599999996 10.2072252399999996  3.5335929500000001
  4.8943958099999998 12.5317082699999993  5.1486593999999997
  3.7646015400000001 14.2985603300000008  6.5166115600000003
  2.1160450100000001 15.7261209399999995  8.7923582600000003
  0.5838802000000000 17.3241958999999994 10.4437040999999997
 19.5718762899999987 18.8590766000000016 11.7905613200000001
 17.4973319700000012 20.8063925800000007 13.6372967900000006
 15.7996696799999992  1.9467183800000001 15.4644692100000007
 15.8084313999999999  2.0413109600000001 19.5744372899999988
 14.2569171000000008  4.2496857500000003 -0.1770655400000000
 11.9661415600000005  4.9973142199999998  1.7865784400000000
 10.4653037100000006  7.4938138099999998  2.9182477300000000
  8.4103473700000002  8.5537314599999998  5.6687967700000002
  6.5947725400000001 10.6692522299999997  6.9784402099999996
  4.9118819800000004 11.8968421000000006  8.6156560899999999
  3.7427900300000001 13.3391210400000002 10.9044957700000005
  2.4000577900000000 15.6502105599999997 12.1759419100000006
  0.9745039500000000 17.3095819400000011 13.8299626000000000
 19.2439439400000012 18.6738283500000009 15.2287113999999999
 17.0338011700000003 20.0291322799999989 17.2189933300000000
 17.2181888399999998 -0.5948081800000000  0.0011506400000000
 15.7084967300000002  1.5758431500000001  1.2220484700000001
 14.2906651599999996  3.9163281400000001  3.9549221399999999
 11.4952396399999994  5.4583009799999997  4.6108299099999996
 10.6351217899999995  7.5070622900000004  6.9917320199999997
  8.3949566499999992  8.9981541400000005  8.7051133200000006
  6.3452448300000004 10.3793827899999993 10.6698845799999997
  4.8171780200000001 11.5216090900000001 12.8289550899999991
  3.5180994600000002 13.8894075699999995 14.3720470500000008
  2.1982584100000002 15.1829711799999991 15.9053168199999995
  0.2586398300000000 17.0712274700000002 17.5078901699999996
 19.9321747800000004 19.6214200500000011 19.2447070999999994
