Li                                      
   1.00000000000000     
    21.6720000000000006    0.0000000000000000    0.0000000000000000
     0.0000000000000000   21.6720000000000006    0.0000000000000000
     0.0000000000000000    0.0000000000000000   21.6720000000000006
   Li
   432
Direct
  0.9912123481912118  0.9973070676448899  0.0024810852713202
  0.9169493313953510  0.0938973325027703  0.0726601296603917
  0.8288158471760809  0.1695394790513092  0.1607354452750087
  0.7561704581949087  0.2430672356035473  0.2537970814876331
  0.6766545676448885  0.3403101818013994  0.3335928308416385
  0.5931168397009969  0.4116168918420087  0.4185000161498706
  0.5093745348837189  0.5120115120893303  0.4965929655777046
  0.4019983577888553  0.5719154969545954  0.5688276956441456
  0.3289907590439256  0.6553098209671475  0.6572453022332994
  0.2492345279623507  0.7507293355481721  0.7489517224990792
  0.1762559634551479  0.8242368198597276  0.8505070699520090
  0.0813264151901052  0.9314862260059087  0.9293034796050179
  0.0941954471207112  0.9338662375415296  0.0840399183277967
  0.0005276573458843  0.9983335035991132  0.1784340725359925
  0.9256713755075694  0.0784404383536383  0.2505701887227758
  0.8521024312476939  0.1585989853266909  0.3422790074750850
  0.7669450364525687  0.2514565646917646  0.4109371931524564
  0.6815526135105188  0.3328134417681810  0.5024865965300833
  0.5916210271317794  0.4237538755075647  0.5680325729051319
  0.4939873375784387  0.5086381976744150  0.6844221931524572
  0.3902186835548207  0.5778295847176054  0.7472746830011090
  0.3333027168696958  0.6689127690107028  0.8207745976375023
  0.2617910437430808  0.7493771682355117  0.9150765679217443
  0.1715062942967904  0.8401946866925059  0.0084517354189728
  0.1753563759689953  0.8175496327057985  0.1686476425802894
  0.0656346853082326  0.9117421045588756  0.2551858624031027
  0.9968866029900312  0.9912713750461393  0.3297855283314846
  0.9221704840347016  0.0803488441306754  0.4134094162975259
  0.8332400309154693  0.1645747757475107  0.4802813930417145
  0.7501011240310049  0.2512845690291599  0.5855559288482866
  0.6622268881506059  0.3487988801218194  0.6602394864341079
  0.5717979849575485  0.4196335317460296  0.7465894647471387
  0.4955052514765583  0.4946724617017324  0.8448502334809902
  0.3965489138058302  0.5732952436323373  0.9097659574566279
  0.3185895699520103  0.6654740854558909  0.0073420265780726
  0.2521997148394206  0.7430202071797680  0.0902320155038794
  0.2423663224437078  0.7614142141934295  0.2555767617201923
  0.1636580163344377  0.8574478123846418  0.3405223827980777
  0.0762034588409009  0.9153556326135117  0.4324576693429307
  0.0088892451088967  0.9860594509043921  0.5086065697674442
  0.9008386175710612  0.0789966966592814  0.5650308850129164
  0.8463385345145795  0.1734212024732358  0.6624783268733836
  0.7474494421373166  0.2620012592284979  0.7420239599483196
  0.6605424257105952  0.3468910977297881  0.8255466809708381
  0.5888142344961267  0.4137190499261720  0.9262689059616065
  0.4872020325765973  0.4955528797526796  0.9879253705241808
  0.4060134150055390  0.5773178026947221  0.0745801208933159
  0.3207400401439671  0.6830484094684408  0.1788166403654472
  0.3336818863049089  0.6759840766888132  0.3268331436877077
  0.2423418060169809  0.7713269527500941  0.4100616823551135
  0.1517915974529345  0.8300791232927267  0.5140772074566229
  0.0912433836286439  0.9109880652454763  0.5911812703026982
  0.0017484897563662  0.0055449478589864  0.6589164470284246
  0.9098706459948289  0.0833738099852326  0.7467206589147253
  0.8243452454780353  0.1727010391288317  0.8374813072166845
  0.7452160192875610  0.2787485008305666  0.9212866482096729
  0.6801734159283868  0.3402610400516792  0.9900891578995967
  0.5910720191952734  0.3920273223514243  0.0710319453672952
  0.4904569236803269  0.4977060838870457  0.1676013150609066
  0.4057166366740503  0.5825609962163156  0.2446018779992585
  0.4048359246954618  0.5996268826135136  0.4216251591915849
  0.3140338958102618  0.6909737679955725  0.5067981118493918
  0.2291607738095252  0.7473290559246948  0.5953575544481353
  0.1599784966777378  0.8165373320413423  0.6722098611111136
  0.0802072332964201  0.9138366375969014  0.7426042105020301
  0.9995194592100418  0.9998854226651872  0.8344364405684743
  0.9131944296788461  0.0807522743632347  0.9174832904208188
  0.8386993023255798  0.1668546719269131  0.9965468503137700
  0.7575846036360261  0.2556309426910275  0.0779079148209689
  0.6757470418050957  0.3411351328903649  0.1827743360096008
  0.5738470334994474  0.4216927888519777  0.2588059394610553
  0.4991009034699161  0.4941021926910310  0.3343568696936146
  0.0824392123477296  0.0950998085086781  0.9340512712255418
  0.9990793683093386  0.1794898149686261  0.9847559911406449
  0.9242301328903650  0.2415810861941665  0.0886254951088929
  0.8370622729789616  0.3348948500369104  0.1878783042635632
  0.7679944186046512  0.4278917395717983  0.2497728839055000
  0.6472876042820204  0.5123890416205228  0.3311460400516779
  0.5716263496677740  0.5782881473791051  0.4100968110926573
  0.4883565240863774  0.6482253534514584  0.4967048043558506
  0.4171688565891500  0.7419578294573625  0.5624014050387629
  0.3301261761720227  0.8343424390919125  0.6595418064784084
  0.2451835654300467  0.9212068595422664  0.7614492003506825
  0.1687867455703227  0.0048418683093416  0.8313639207272061
  0.1852143124769299  0.0060442086563341  0.9997720611849417
  0.0800134103912882  0.0886521640826885  0.0795425968992234
  0.9878957890365427  0.1717293867663372  0.1835867783314882
  0.9359004531192312  0.2452469910483543  0.2586082359726802
  0.8376997508305664  0.3324615323920241  0.3267190411591017
  0.7676588344407520  0.4330454383536377  0.4224371207087501
  0.6620712352344071  0.5169155560169827  0.5010167797157621
  0.5752632830380193  0.5876113870431894  0.5832935432816555
  0.4749629383536345  0.6536315780730888  0.6596247162236963
  0.4104557387412342  0.7357621428571406  0.7508992248062043
  0.3409774769287566  0.8348853396087108  0.8327782479697277
  0.2597975765965330  0.9090876522702089  0.9181765397748265
  0.2596448435769645  0.9182348864894792  0.0821935354374332
  0.1855983079549617  0.9979230564784061  0.1784026555001859
  0.0931166809708373  0.0858518530823176  0.2461898255813963
  0.0079770298080462  0.1765337020118096  0.3471702297895902
  0.9188398241971214  0.2565838007567365  0.4261607678109982
  0.8352290868401653  0.3418075387596886  0.4912527574750811
  0.7406883993170936  0.4360336775562956  0.5863846059431523
  0.6664490882244394  0.5118361447951258  0.6803222605204837
  0.5818744033776326  0.5997686572535983  0.7456598172757509
  0.5057517271133278  0.6660451398117360  0.8287695058139519
  0.4150750429125125  0.7331353289959424  0.9151662901439650
  0.3457061309523795  0.8375456672203754  0.0137190388519741
  0.3340725073827997  0.8299979457364373  0.1717868516980445
  0.2605064119601295  0.9153790969915079  0.2402735889627152
  0.1718404282022874  0.9929847914359513  0.3357508467146531
  0.0932823652639385  0.0558516500553736  0.4134117529531167
  0.0096099912329279  0.1495281326135114  0.4991137809154651
  0.9215464737910679  0.2656569379844953  0.5935505015688420
  0.8179000009228474  0.3502959380767834  0.6602415577703979
  0.7277348989479506  0.4143055873938692  0.7615599072535986
  0.6654587610741984  0.4993912320044274  0.8272352339424174
  0.5689258314876326  0.5731212449243230  0.9092917118863042
  0.4877753857511991  0.6488383822443708  0.9897198795681064
  0.4168395980989317  0.7411190471576248  0.0836899455518676
  0.4208870764119581  0.7414656875230747  0.2511960732742722
  0.3466814802510143  0.8303395007382761  0.3263224990771505
  0.2538003732927265  0.9160860114433333  0.4145385331303046
  0.1620027302510181  0.0009255647840547  0.5064838584348479
  0.0824153682170561  0.0842427473237350  0.5740323837209331
  0.9915451905684733  0.1506260331303082  0.6523644772056088
  0.9058576665743843  0.2592276596530070  0.7443888450535283
  0.8308393341638975  0.3400055518641594  0.8331722651347349
  0.7463616306755227  0.4236315282392056  0.9206450655223364
  0.6736170155038792  0.4939398851052061  0.9983468244739768
  0.5716064682539681  0.5919720865633096  0.0781227699335574
  0.5018622231450749  0.6548217506459935  0.1536261420265745
  0.4834889087301590  0.6614694264488747  0.3252718747692853
  0.4274343295496479  0.7492305195644136  0.4264805753968233
  0.3122859579180499  0.8247270897932850  0.4972252985418990
  0.2379128534514550  0.9214604517349585  0.5905528008490251
  0.1543278368401602  0.0054317529531218  0.6746163948874155
  0.0802866606681434  0.0957196949981522  0.7614550438353618
  0.9921854665005512  0.1798298426541152  0.8440836706349231
  0.9137702154854210  0.2655365969915096  0.9068202427094860
  0.8481420113510509  0.3428021663898093  0.0039970247323708
  0.7532133194905839  0.4179020016611261  0.1099903054632705
  0.6699222974344750  0.5116968493909155  0.1663984639165719
  0.5766104305094117  0.5738469227574754  0.2496461766334406
  0.1747197771317843  0.1617258965485391  0.8402746866925028
  0.0963831810631248  0.2529564114987082  0.9154050147655965
  0.0053942326504242  0.3307358914728695  0.0004558850129186
  0.9268445897932835  0.4115271465485435  0.0906774866186808
  0.8374256829088225  0.4967927902362490  0.1783097000738252
  0.7580324524732376  0.5966199617017338  0.2420998348098919
  0.6624281469176836  0.6542182770394973  0.3223700669066076
  0.5682167658730179  0.7381097789774813  0.4082580214101128
  0.5076974021779250  0.8316162020118156  0.4916906949058699
  0.4094398920265760  0.9083445593392412  0.5786831916758928
  0.3261565508490207  0.0001652237910648  0.6748066551310430
  0.2607738648947944  0.0806817751015103  0.7560962213916582
  0.2451058024178678  0.0867106944444416  0.8914488847360644
  0.1690302256367673  0.1543102625507586  0.0022145491878902
  0.0879196022517519  0.2469915914544103  0.0938821428571401
  0.9947981473791074  0.3259200844407530  0.1827187292358801
  0.9321761937061623  0.4341202496308583  0.2570266615909915
  0.8526617838685837  0.5164089087301562  0.3289499067921753
  0.7504295173495734  0.5858259768364675  0.4111887057032106
  0.6561688053709887  0.6617849247877459  0.4941585026762638
  0.5739890513104484  0.7430096483942421  0.5807612675341431
  0.4962842132705774  0.8294723251199727  0.6582073758767066
  0.4053566726651923  0.9234946603912917  0.7461200341454415
  0.3319226656515326  0.0010383125692144  0.8316754858803961
  0.3525673431155383  0.0284625004614227  0.9891278806755253
  0.2561507129014373  0.0837842086563327  0.0957993549280189
  0.1825609796050216  0.1655559320782558  0.1912422457548928
  0.0870498638796633  0.2511729471207076  0.2588817718715362
  0.9975303266888176  0.3309117012735356  0.3546689534883711
  0.9283858988556659  0.4212467132705768  0.3888409759136238
  0.8550255398671069  0.5023985815799179  0.4911333753229954
  0.7437581930601667  0.5783136641749707  0.5790230011074229
  0.6735373818752279  0.6508081787560016  0.6715197411406422
  0.5697648375784397  0.7438658960871152  0.7412057396640819
  0.4930841186784818  0.8309021940753070  0.8352809957548928
  0.4241529069767438  0.9279135871170183  0.9298295676448873
  0.4109193032484342  0.9300817086563313  0.0768795980989267
  0.3555611055740115  0.0156643277039521  0.1651418456995231
  0.2566244232189021  0.0775782853451474  0.2623587213916565
  0.1675187200073793  0.1473185049833887  0.3490081146179378
  0.0902019596714680  0.2647004517349600  0.4165341980435571
  0.9988090873015878  0.3311636337209336  0.5145150719822809
  0.9138676185861954  0.4173758753229961  0.5966638256736800
  0.8260384897563711  0.5068250710594313  0.6877893429309694
  0.7496815208564058  0.5828179014396468  0.7746801628829800
  0.6640846922296078  0.6661334043927667  0.8395722577519393
  0.5711471645441151  0.7592262859911401  0.9125068807678076
  0.4935937882982628  0.8253561064968622  0.0086591274455543
  0.5145578732927305  0.8408262855297153  0.1543311826319709
  0.4280587006275383  0.9089713136766306  0.2300626799557008
  0.3437670787190825  0.9990435921926917  0.3426764304171286
  0.2626079342008154  0.0734760395902541  0.4337202224067909
  0.1679086429494276  0.1732633776301213  0.5123437426172046
  0.0976437855297192  0.2330433134920611  0.5978801555001851
  0.9993490965300822  0.3393702574750819  0.6718908665559269
  0.9167464165743837  0.4068007756552205  0.7464988145994838
  0.8218308767072742  0.4919373800295332  0.8291533928571440
  0.7477188035252880  0.5905618452380921  0.9247557055186419
  0.6707126818014046  0.6461489687153943  0.9944484712993713
  0.5770481256921371  0.7462968129383540  0.0654539973237362
  0.5745144167589515  0.7412603423772595  0.2569672485234378
  0.4945619965854533  0.8181201255075692  0.3262623394241402
  0.4210428585271302  0.8968561803248463  0.4133620856404576
  0.3431730873938719  0.9939847835917348  0.5031662947582163
  0.2665118558508652  0.0650117649501638  0.5934590845330376
  0.1832882350498366  0.1538417248061990  0.6784305980066421
  0.0637516283684008  0.2447576287375384  0.7367628243816924
  0.9968174229420441  0.3195735806570710  0.8372634246954576
  0.9198398957179776  0.4211552680878583  0.9161938722775957
  0.8190529443521584  0.4798943281653720  0.0092418636950882
  0.7482621830011098  0.5787855915466977  0.0718444153746773
  0.6625327090254700  0.6551493064784069  0.1678092640273192
  0.2449063081395337  0.2396921285529743  0.7344179771133241
  0.1793000138427487  0.3327065845330353  0.8268471996124021
  0.0824853705241821  0.4213481247692883  0.9144974483204109
  0.0104803511443308  0.4826411295681083  0.0028819836655600
  0.9095142963270604  0.5610427339424149  0.0743117552602470
  0.8235433757844248  0.6703151208933207  0.1505158351790357
  0.7427202879291244  0.7502242349575496  0.2435862218530858
  0.6619521428571460  0.8216948057401225  0.3375965434662263
  0.5962381210778886  0.9110435755813953  0.4049284043927628
  0.5166517571059401  0.9901091302141012  0.4823992829457353
  0.4268133771686990  0.0909990466961972  0.5729638016795846
  0.3519346013289066  0.1681999215577719  0.6695991306755289
  0.3407179415836126  0.1767276485788116  0.8239970482650421
  0.2439898306570711  0.2415668540051712  0.9238256298449627
  0.1673260045219607  0.3392444393687697  0.9894781376891828
  0.0752803663713522  0.3995972623661856  0.0912431473791102
  0.0108958794758180  0.4924890416205230  0.1706803373015902
  0.9307538958102626  0.6027957281284628  0.2530253982096724
  0.8321759966777407  0.6737694029162071  0.3302134593023283
  0.7512874483204115  0.7473032931893684  0.4176923887966026
  0.6535645648763406  0.8200814880952407  0.5048139456441518
  0.5938573717238853  0.9114997711332578  0.5683743872277560
  0.4954820468807668  0.9944226970284262  0.6702752371723903
  0.4296933776301231  0.0862324243263188  0.7381178345330355
  0.4395193618493920  0.0803473472683649  0.9018871590070106
  0.3376237541528226  0.1542205652454811  0.9854437546142520
  0.2446560571244021  0.2411108245662632  0.0901831478405342
  0.1869724515503890  0.3269871714654826  0.1802111706349194
  0.0885604660391266  0.3944139248800269  0.2554820233481010
  0.0124621562384633  0.5028793295496499  0.3239800562938342
  0.9120146433185710  0.5966110986526374  0.4060236544850468
  0.8363946433185703  0.6632395205795518  0.5022743175526045
  0.7540111554079019  0.7527664940937626  0.5749436540236275
  0.6853132890365430  0.8489935903469927  0.6624731561461772
  0.5772103331487628  0.9059406353820592  0.7259148440383925
  0.5054498675710590  0.9924962112403080  0.8298845602620872
  0.5144709620708738  0.0188029300479897  0.0131693978405281
  0.4232802339424140  0.0935803105389468  0.0853121700812096
  0.3300024381690676  0.1620337527685507  0.1945733070321154
  0.2580674174049449  0.2382637523071267  0.2674450032299731
  0.1749275438353664  0.3255830689368793  0.3304784334625310
  0.0848794144518266  0.4130071391657424  0.4188653442229580
  0.9908226555001818  0.5111963588962709  0.4830710234403810
  0.9037117870985583  0.5724077122554476  0.5885264050387562
  0.8229971931524531  0.6754727385566639  0.6675009519195285
  0.7404566809708371  0.7488536277224043  0.7462341758951609
  0.6714163704318921  0.8448339128829829  0.8261359874492413
  0.5789160991140676  0.9141506067737168  0.9221710806570655
  0.5813652422480615  0.9270491731266119  0.0726056243078617
  0.5023862500000007  0.0077872494462881  0.1683859242340375
  0.4202861037283157  0.0962051462716857  0.2587123075858244
  0.3345397651347355  0.1736062739940962  0.3581949963085975
  0.2511008319490600  0.2441589917866338  0.4114625862864543
  0.1622595985603539  0.3190418493909206  0.5071999344776685
  0.0840905675526002  0.4233453649870782  0.5674375507567362
  0.9993575032299731  0.5060350359911396  0.6767302164082665
  0.9297319781284585  0.5874786567921717  0.7670736803248417
  0.8335824861572547  0.6792168309339246  0.8426577011812455
  0.7449352560908054  0.7491891749723152  0.9173108153377640
  0.6659818567737190  0.8344252380952355  0.0011584186969387
  0.6512013492063460  0.8216473038944230  0.1667641809708371
  0.5754582853451424  0.9146848463455157  0.2602123057401258
  0.4860299898486531  0.9976295505721637  0.3382106003137721
  0.4074390817644868  0.0760790840716155  0.4324677911590982
  0.3371996410114448  0.1650444310631229  0.5021751614987053
  0.2359242658730167  0.2576450576781113  0.5892133328719069
  0.1642809039313420  0.3518037601513484  0.6736613039867123
  0.0993654042081928  0.4270091809708347  0.7602387569213747
  0.0006981256921392  0.4778362375415313  0.8374163445920999
  0.9187653622185294  0.5675507581210795  0.9374130943152466
  0.8349186627906988  0.6662858693244758  0.9944018789221118
  0.7324061563307467  0.7447902906976722  0.0715382839608694
  0.3460772905131080  0.3362587919896640  0.6784091560538954
  0.2561611397194525  0.4125027510151327  0.7409322600590613
  0.1787463298265024  0.4993014954780364  0.8226852394795117
  0.0797848754152852  0.5562356459948319  0.9123631612218546
  0.0095191735880391  0.6417513247508282  0.9948225770579526
  0.9386853732927278  0.7464822259136241  0.0623389234957514
  0.8175894629014380  0.8233680107973385  0.1473197111480218
  0.7420217787929104  0.9183281921373165  0.2501050682908854
  0.6841918692321869  0.0056632867294226  0.3373046986895503
  0.5770999275562971  0.0683558448689539  0.4068390199335568
  0.5084384422296040  0.1666868858434825  0.5025194693613884
  0.4308766454411241  0.2577747014581036  0.5847133337947596
  0.4364625286083452  0.2468758277962380  0.7551139465670005
  0.3256710778885221  0.3224356602989999  0.8317986558693278
  0.2642963076781086  0.4174362153931312  0.9118468839977822
  0.1786970275009239  0.4930422176079716  0.0104018087855309
  0.0852155818567724  0.5737212467700274  0.0854962804540449
  0.9992909454595775  0.6890584223883351  0.1507518369324501
  0.9079382276670387  0.7523736009597641  0.2293811258767064
  0.8134372591362151  0.8252084496124041  0.3161009048541885
  0.7560679669619788  0.9115312970653378  0.4065424187892219
  0.6614129563492028  0.0005458822443671  0.4803085871170154
  0.5917781376891824  0.0672221608527153  0.5675394536729428
  0.5112756446105564  0.1673203769841294  0.6587030454042093
  0.5044025115356234  0.1758335082133655  0.8157408181063133
  0.4063643812292383  0.2307041828165382  0.9093851444259897
  0.3239963805832389  0.3205988768918431  0.9994431810631212
  0.2553379009782191  0.4287165379291267  0.1087199330933899
  0.1655009971391692  0.4875450507567365  0.1870324773901828
  0.0754150156884492  0.5954031626061251  0.2378773454226675
  0.9994270916389780  0.6724254761904760  0.3313776287375418
  0.9218345819490565  0.7614656759874521  0.4151311669435245
  0.8317378792912535  0.8370317732558163  0.5032854817275734
  0.7492053875969020  0.9117517954042071  0.5506344301402706
  0.6698770118124742  0.9936692769472160  0.6603084389996283
  0.5795405264857862  0.0851773034329995  0.7390829014396445
  0.5809564073458873  0.0947700678294581  0.9216663847360635
  0.5002738713547430  0.1766602597822100  0.0012196811554048
  0.3991428271502429  0.2496926033591720  0.0829961360280578
  0.3291696894610538  0.3283663344407515  0.1728369379844992
  0.2654053003875987  0.4325271871539300  0.2631313985788140
  0.1644542963270581  0.5125896622369908  0.3291065180878547
  0.0961157525839766  0.5707961304909546  0.4281812887596885
  0.9977741408268699  0.6700309076227384  0.4879364253414522
  0.9086833559431540  0.7381151578073073  0.5838739174972289
  0.8358129074381679  0.8277610326688816  0.6522007516611268
  0.7679595810262114  0.9255042409560730  0.7493508614802522
  0.6717994790513089  0.9946245016611286  0.8282631533776268
  0.6545675119970440  0.0184140619232167  0.9938076388888888
  0.5895263630490959  0.0852402906976764  0.0843668480066455
  0.5152067547988182  0.1660415508490232  0.1744771271687000
  0.4021781704503482  0.2535603534514550  0.2613425341454416
  0.3332509666851209  0.3314527159468454  0.3461176947213005
  0.2579521857696534  0.4130059482281254  0.4174473731081605
  0.1724082018272455  0.4983430578626766  0.4920759371539347
  0.0811581201550382  0.5923915153193064  0.5676660437430812
  0.9939415568475454  0.6640045095053537  0.6577587546142496
  0.9271605555555524  0.7465044947397530  0.7527580214101164
  0.8309960760428226  0.8236484357696554  0.8526557765780751
  0.7305214654854169  0.9211013750461419  0.9140177025655234
  0.7287746774640098  0.9320356284606888  0.0890464059616107
  0.6657430407899625  0.0031534122369905  0.1676569975083027
  0.5778093849206343  0.0785499589331877  0.2601267667958638
  0.4968367612587699  0.1734004641934277  0.3587928386858650
  0.4258917714101145  0.2498457202842346  0.4281953751384293
  0.3274395431893709  0.3299736549464711  0.5042100558324094
  0.2392326172019210  0.4164544241417474  0.5823725009228511
  0.1666551028977494  0.5089653077703957  0.6494180855481702
  0.0693498574197093  0.5740058730158708  0.7561811037283164
  0.9884441800479848  0.6610188944259860  0.8488966786637135
  0.9432838976559594  0.7429627007198221  0.9355888155223298
  0.8252239124215563  0.8335777519379874  0.9872293581579896
  0.4183899160206721  0.4328484062384632  0.5795972669804357
  0.3250113953488381  0.4973167386489479  0.6625879941860475
  0.2451617211148047  0.5758933873200434  0.7502997817460297
  0.1711632073643443  0.6727241597452931  0.8235189784053176
  0.0885621885382051  0.7332162153931350  0.9209094836655609
  0.0197291546696192  0.8258102353266921  0.0030412315430013
  0.9065586697120693  0.9238988201365785  0.0847949903100798
  0.8215051495016610  0.0185526070505730  0.1738002007198247
  0.7477851596530058  0.0994539719453655  0.2514086854005200
  0.6787256492248090  0.1713585746585480  0.3455754102067203
  0.5861882964193441  0.2579564031930630  0.4320327925433745
  0.5090214599483218  0.3406519975083029  0.5019263768918449
  0.5088421073274247  0.3462824150978250  0.6561107894979727
  0.4168665282392041  0.4065831289221080  0.7460947725175373
  0.3304656972129933  0.4807816509782228  0.8235248957179735
  0.2498453968253997  0.5880731100036911  0.9250112809154700
  0.1805559136212622  0.6513168549280195  0.9946968300110726
  0.0868428885197474  0.7443684468438505  0.0826168770764113
  0.9919506709117769  0.8345014073458827  0.1503494130675520
  0.9158132585825030  0.9120349127906948  0.2240374893872286
  0.8413307101328868  0.0175492704872653  0.3170053091546663
  0.7534882710409718  0.0704224741602033  0.4119758794758184
  0.6648875595238124  0.1599922517534154  0.4992561577150241
  0.5938614825581396  0.2635180993909216  0.5895439516426748
  0.5909968074012539  0.2553448961794018  0.7470576698043558
  0.4955461032668893  0.3249735852713158  0.8385272074566288
  0.4144880666297510  0.4035086337209322  0.9269091509782186
  0.3381760437430756  0.4984430744739754  0.0023564488741243
  0.2385361660206726  0.5761241232927290  0.0919839170358046
  0.1601111540236246  0.6637886032668874  0.1662946197859014
  0.0704950526024390  0.7565054904946464  0.2480979365079392
  0.9898162739940943  0.8292633402547054  0.3201505560169835
  0.9178159394610574  0.9220706132336645  0.4053286729420478
  0.8395316629752685  0.9828001430417146  0.4766640333148757
  0.7501604258951673  0.0816969693613885  0.5754699478589913
  0.6662366638981183  0.1639494998154305  0.6651382687338483
  0.6754567128091580  0.1784513067552638  0.8260113699704661
  0.5881258365633073  0.2466489271871524  0.9184535049833897
  0.4863166186784795  0.3265761401808760  0.9979751781100035
  0.4018278211517199  0.4093161646363939  0.0834008647102280
  0.3423228262273881  0.5064085183647080  0.1736828848283523
  0.2565223781838313  0.5781744739756363  0.2606444799741610
  0.1815862979881899  0.6702503866740486  0.3148008947028416
  0.0913499584717599  0.7628676370431862  0.4005026928755981
  0.9968789876338136  0.8379706136950915  0.4977064996308584
  0.9109100013842735  0.9179951928756012  0.5813947005352560
  0.8307373122000712  0.0070921922296066  0.6544661531007776
  0.7489064031930610  0.0810443032484329  0.7415816020671855
  0.7304037213916601  0.0931998426541156  0.9203064281100026
  0.6686559676079753  0.1781014096530100  0.0053650064599466
  0.5862151997969747  0.2671625447582144  0.0852721271687003
  0.4861287278516073  0.3317425009228501  0.1676299344776666
  0.4203716057585822  0.4187515863787397  0.2634118576965676
  0.3383435275932101  0.4981689387227775  0.3456162767626410
  0.2415924672388314  0.5930382631967532  0.4258190610003680
  0.1620419186046504  0.6840228714470271  0.4870208942414180
  0.0579573698781815  0.7538094439830161  0.5825649118678484
  0.9917284699150954  0.8406019066076027  0.6517123804909559
  0.8997653248431163  0.9272403728313066  0.7520388210594291
  0.8281099363233650  0.0065498537283162  0.8313139507198244
  0.8106090706902904  0.0193487873754137  0.0105161983204169
  0.7269707041343665  0.0937794306016997  0.0832108084163892
  0.6740789719453701  0.1707602413252118  0.1815363118309321
  0.5733006709117774  0.2636161507936521  0.2598705767810969
  0.4964289050387620  0.3361016403654489  0.3389777450166136
  0.4203500447582158  0.4274196419342928  0.4317894619785889
  0.3358004425064607  0.4871763150609070  0.4959348315799161
  0.2579613510520460  0.5664082595053515  0.5664950064599452
  0.1634872840531543  0.6615194781284615  0.6738841449796951
  0.0760627990033242  0.7482967312661515  0.7503666163713518
  0.9968344495201151  0.8338122932816532  0.8374676831856789
  0.9034900876707255  0.9281513252122551  0.9192850705980078
 
  0.00000000E+00  0.00000000E+00  0.00000000E+00
  0.00000000E+00  0.00000000E+00  0.00000000E+00
  0.00000000E+00  0.00000000E+00  0.00000000E+00
  0.00000000E+00  0.00000000E+00  0.00000000E+00
  0.00000000E+00  0.00000000E+00  0.00000000E+00
  0.00000000E+00  0.00000000E+00  0.00000000E+00
  0.00000000E+00  0.00000000E+00  0.00000000E+00
  0.00000000E+00  0.00000000E+00  0.00000000E+00
  0.00000000E+00  0.00000000E+00  0.00000000E+00
  0.00000000E+00  0.00000000E+00  0.00000000E+00
  0.00000000E+00  0.00000000E+00  0.00000000E+00
  0.00000000E+00  0.00000000E+00  0.00000000E+00
  0.00000000E+00  0.00000000E+00  0.00000000E+00
  0.00000000E+00  0.00000000E+00  0.00000000E+00
  0.00000000E+00  0.00000000E+00  0.00000000E+00
  0.00000000E+00  0.00000000E+00  0.00000000E+00
  0.00000000E+00  0.00000000E+00  0.00000000E+00
  0.00000000E+00  0.00000000E+00  0.00000000E+00
  0.00000000E+00  0.00000000E+00  0.00000000E+00
  0.00000000E+00  0.00000000E+00  0.00000000E+00
  0.00000000E+00  0.00000000E+00  0.00000000E+00
  0.00000000E+00  0.00000000E+00  0.00000000E+00
  0.00000000E+00  0.00000000E+00  0.00000000E+00
  0.00000000E+00  0.00000000E+00  0.00000000E+00
  0.00000000E+00  0.00000000E+00  0.00000000E+00
  0.00000000E+00  0.00000000E+00  0.00000000E+00
  0.00000000E+00  0.00000000E+00  0.00000000E+00
  0.00000000E+00  0.00000000E+00  0.00000000E+00
  0.00000000E+00  0.00000000E+00  0.00000000E+00
  0.00000000E+00  0.00000000E+00  0.00000000E+00
  0.00000000E+00  0.00000000E+00  0.00000000E+00
  0.00000000E+00  0.00000000E+00  0.00000000E+00
  0.00000000E+00  0.00000000E+00  0.00000000E+00
  0.00000000E+00  0.00000000E+00  0.00000000E+00
  0.00000000E+00  0.00000000E+00  0.00000000E+00
  0.00000000E+00  0.00000000E+00  0.00000000E+00
  0.00000000E+00  0.00000000E+00  0.00000000E+00
  0.00000000E+00  0.00000000E+00  0.00000000E+00
  0.00000000E+00  0.00000000E+00  0.00000000E+00
  0.00000000E+00  0.00000000E+00  0.00000000E+00
  0.00000000E+00  0.00000000E+00  0.00000000E+00
  0.00000000E+00  0.00000000E+00  0.00000000E+00
  0.00000000E+00  0.00000000E+00  0.00000000E+00
  0.00000000E+00  0.00000000E+00  0.00000000E+00
  0.00000000E+00  0.00000000E+00  0.00000000E+00
  0.00000000E+00  0.00000000E+00  0.00000000E+00
  0.00000000E+00  0.00000000E+00  0.00000000E+00
  0.00000000E+00  0.00000000E+00  0.00000000E+00
  0.00000000E+00  0.00000000E+00  0.00000000E+00
  0.00000000E+00  0.00000000E+00  0.00000000E+00
  0.00000000E+00  0.00000000E+00  0.00000000E+00
  0.00000000E+00  0.00000000E+00  0.00000000E+00
  0.00000000E+00  0.00000000E+00  0.00000000E+00
  0.00000000E+00  0.00000000E+00  0.00000000E+00
  0.00000000E+00  0.00000000E+00  0.00000000E+00
  0.00000000E+00  0.00000000E+00  0.00000000E+00
  0.00000000E+00  0.00000000E+00  0.00000000E+00
  0.00000000E+00  0.00000000E+00  0.00000000E+00
  0.00000000E+00  0.00000000E+00  0.00000000E+00
  0.00000000E+00  0.00000000E+00  0.00000000E+00
  0.00000000E+00  0.00000000E+00  0.00000000E+00
  0.00000000E+00  0.00000000E+00  0.00000000E+00
  0.00000000E+00  0.00000000E+00  0.00000000E+00
  0.00000000E+00  0.00000000E+00  0.00000000E+00
  0.00000000E+00  0.00000000E+00  0.00000000E+00
  0.00000000E+00  0.00000000E+00  0.00000000E+00
  0.00000000E+00  0.00000000E+00  0.00000000E+00
  0.00000000E+00  0.00000000E+00  0.00000000E+00