Li 
 1.0000000000000000
    21.6720000000000006    0.0000000000000000    0.0000000000000000
     0.0000000000000000   21.6720000000000006    0.0000000000000000
     0.0000000000000000    0.0000000000000000   21.6720000000000006
 Li 
 432
Cartesian
 -0.1904459900000000 -0.0583612300000000  0.0537700800000000
 19.8721259100000012  2.0349429899999998  1.5746903299999999
 17.9620970399999997  3.6742595900000001  3.4834585699999998
 16.3877261700000005  5.2677531300000000  5.5002903500000002
 14.6644577900000002  7.3752022600000000  7.2296238300000004
 12.8540281499999995  8.9205612799999994  9.0697323500000007
 11.0391649199999993 11.0963134900000000 10.7621627499999999
  8.7121084100000008 12.3945526499999996 12.3276338200000009
  7.1298877300000001 14.2018744399999992 14.2438201899999992
  5.4014106899999996 16.2698061600000017 16.2312817299999992
  3.8198192400000002 17.8628603599999991 18.4321892200000015
  1.7625060699999999 20.1871694899999987 20.1398650100000012
  2.0414037299999999 20.2387490999999997  1.8213131100000000
  0.0114353900000000 -0.0361163100000000  3.8670232200000001
 20.0611500499999984  1.6999611800000001  5.4303571300000000
 18.4667638899999993  3.4371572100000001  7.4178706500000002
 16.6212328300000003  5.4495666700000003  8.9058308499999992
 14.7706082399999996  7.2127329099999997 10.8898895200000005
 12.8216108999999996  9.1835939900000003 12.3104019200000003
 10.7056935800000002 11.0232070199999992 14.8327977700000009
  8.4568193100000002 12.5227227600000006 16.1949369300000008
  7.2233364800000004 14.4966775299999995 17.7878270799999996
  5.6735354999999998 16.2405019899999985 19.8315393799999988
  3.7168844100000000 18.2086992499999987  0.1831660100000000
  3.8003233800000000 17.7179356400000003  3.6549317100000001
  1.4224349000000001 19.7592748900000004  5.5303880100000002
 -0.0674735400000000 -0.1891667600000000  7.1471119700000001
 19.9852787300000010  1.7413201500000000  8.9594088700000007
 18.0579779500000015  3.5666645400000001 10.4086583499999996
 16.2561915600000013  5.4458391800000001 12.6901680900000002
 14.3517811200000001  7.5591693299999996 14.3087101499999996
 12.3920059299999998  9.0942979000000008 16.1800868800000011
 10.7385898100000006 10.7205415899999998 18.3095942600000008
  8.5940080600000002 12.4244545199999994 19.7164478299999999
  6.9044731600000002 14.4221543800000003 21.8311163999999991
  5.4656722200000001 16.1027339299999994  1.9555082399999999
  5.2525629399999998 16.5013688499999986  5.5388595799999996
  3.5467965299999999 18.5826089900000007  7.3798010800000000
  1.6514813600000000 19.8375872700000002  9.3722226099999997
  0.1926477200000000 -0.3021195800000000 11.0225215799999994
 19.5229745200000018  1.7120164099999999 12.2453493400000006
 18.3418487200000015  3.7583842999999999 14.3572302999999994
 16.1987243099999993  5.6780912900000002 16.0811432600000010
 14.3152754499999997  7.5178238700000000 17.8912476699999985
 12.7607820899999993  8.9661192500000002 20.0740997300000004
 10.5586424500000007 10.7396220099999997 -0.2616813700000000
  8.7991227300000006 12.5116314200000005  1.6163003800000000
  6.9510781499999998 14.8030251300000000  3.8753142299999999
  7.2315538400000001 14.6499269099999996  7.0831278900000001
  5.2520316200000003 16.7161977200000003  8.8868567800000005
  3.2896274999999999 17.9894747600000002 11.1410812400000001
  1.9774266100000000 19.7429333500000013 12.8120804899999996
  0.0378932700000000  0.1201701100000000 14.2800372400000004
 19.7187166400000002  1.8068772099999999 16.1829301200000018
 17.8652101600000002  3.7427769199999998 18.1498948899999988
 16.1503215699999991  6.0410375099999998 19.9661242399999992
 14.7407182700000003  7.3741372600000004 -0.2147877700000000
 12.8097127999999998  8.4960161299999992  1.5394043200000000
 10.6291824500000001 10.7862862499999999  3.6322557000000000
  8.7926909500000008 12.6252619100000008  5.3010118999999998
  8.7736041599999997 12.9951138000000004  9.1374604500000007
  6.8057425900000004 14.9747834999999991 10.9833286799999996
  4.9663722899999998 16.1961152999999989 12.9025889199999995
  3.4670539800000002 17.6959970599999998 14.5681321100000005
  1.7382511599999999 19.8046676099999992 16.0937184500000008
 -0.0104142800000000 -0.0024831200000000 18.0839065400000010
 19.7907496800000011  1.7500632899999999 19.8836978699999989
 18.1762912800000009  3.6160744500000002 21.5971633400000016
 16.4183735300000002  5.5400337899999998  1.6884203300000000
 14.6447898900000002  7.3930806000000002  3.9610854099999999
 12.4364129099999996  9.1389261200000007  5.6088423199999999
 10.8165147800000003 10.7081827199999999  7.2461820799999996
  1.7866226100000000  2.0610030500000001 20.2427591500000013
 -0.0199519300000000  3.8899032700000000 -0.3303681600000000
 20.0299154399999999  5.2355453000000001  1.9206917299999999
 18.1408135799999997  7.2578411899999997  4.0716986100000003
 16.6439750400000008  9.2732697799999997  5.4130779400000000
 14.0280169600000004 11.1044953100000008  7.1765969800000002
 12.3882862500000002 12.5326607299999999  8.8876180900000001
 10.5836625899999994 14.0483398600000005 10.7645865199999999
  9.0408834599999999 16.0797100800000017 12.1883632500000001
  7.1544944900000003 18.0818693400000008 14.2935900300000007
  5.3136182300000003 19.9643950600000011 16.5021270700000002
  3.6579463500000000  0.1049329700000000 18.0173188899999985
  4.0139645799999997  0.1309900900000000 -0.0049398900000000
  1.7340506300000000  1.9212697000000001  1.7238471600000000
 -0.2623224600000000  3.7217192699999999  3.9786926600000001
 20.2828346199999991  5.3149927899999998  5.6045576900000000
 18.1546289999999999  7.2051063299999996  7.0806550599999998
 16.6367022599999999  9.3849607400000004  9.1550572799999994
 14.3484078099999994 11.2025939300000008 10.8580356499999997
 12.4671058699999993 12.7347139800000004 12.6411376700000009
 10.2933968000000000 14.1655035599999994 14.2953868499999999
  8.8953967699999996 15.9454371600000009 16.2734880000000004
  7.3896638799999996 18.0936350799999985 18.0479701900000009
  5.6303330799999998 19.7017476000000009 19.8987219700000004
  5.6270230500000000 19.8999864600000009  1.7812983000000000
  4.0222865299999997 -0.0450115200000000  3.8663423500000000
  2.0180247100000002  1.8605813600000001  5.3354258999999997
  0.1728781900000000  3.8258383899999999  7.5238732199999996
 19.9130966700000016  5.5606841300000003  9.2357561599999993
 18.1010847699999999  7.4076529799999999 10.6464297600000002
 16.0521989900000008  9.4497218600000004 12.7081271800000000
 14.4432846399999999 11.0925129299999998 14.7439440299999998
 12.6103820700000000 12.9981863400000002 16.1599395600000015
 10.9606514300000004 14.4345302699999998 17.9610927300000007
  8.9955063299999996 15.8885088499999991 19.8334838399999995
  7.4921432699999997 18.1512896999999995 21.9693190099999995
  7.2400193799999997 17.9877154799999985  3.7229646500000002
  5.6456949600000002 19.8380957900000006  5.2072092200000002
  3.7241257600000002 -0.1520336000000000  7.2763923500000001
  2.0216154199999998  1.2104169600000001  8.9594595100000003
  0.2082677300000000  3.2405736900000002 10.8167938600000006
 19.9717551799999988  5.7573171600000004 12.8634264700000003
 17.7255288200000010  7.5916135699999998 14.3087550399999994
 15.7714707300000008  8.9788306900000006 16.5045263099999993
 14.4218222699999998 10.8228067800000005 17.9278419900000010
 12.3297606200000001 12.4206836200000001 19.7061699799999985
 10.5710681599999994 14.0616254200000004 21.4492092300000010
  9.0337477699999997 16.0615319899999989  1.8137285000000001
  9.1214647200000005 16.0690443800000011  5.4439213000000004
  7.5132810399999999 17.9951176599999982  7.0720612000000003
  5.5003616900000001 19.8534160399999990  8.9838790900000003
  3.5109231699999999  0.0200588400000000 10.9765181799999993
  1.7861058599999999  1.8257088200000000 12.4404298200000003
 -0.1832326300000000  3.2643673899999999 14.1380429500000009
 19.6317473500000013  5.6179818399999997 16.1323950499999995
 18.0059500499999992  7.3686003199999996 18.0565093300000008
 16.1751492600000013  9.1809424800000006 19.9522198599999996
 14.5986279600000000 10.7046651900000001 21.6361723800000014
 12.3878553799999995 12.8292190599999998  1.6930766700000000
 10.8763580999999991 14.1912969800000006  3.3293857500000001
 10.4781716300000003 14.3353654099999996  7.0492920699999999
  9.2633567899999996 16.2373238200000003  9.2426870300000008
  6.7678612800000000 17.8734854900000002 10.7758666699999992
  5.1560473599999996 19.9698909100000002 12.7984603000000003
  3.3445928800000000  0.1177169500000000 14.6202865099999997
  1.7399725100000001  2.0744372300000000 16.5022537100000015
 -0.1693565700000000  3.8972723500000002 18.2929813099999983
 19.8032281099999992  5.7547091300000002 19.6526083000000007
 18.3809336700000010  7.4292085500000002 21.7586235200000004
 16.3236390600000014  9.0567721799999994  2.3837098999999999
 14.5185560299999992 11.0894941199999995  3.6061875099999998
 12.4963012500000001 12.4364105100000000  5.4103319399999998
  3.7865270099999999  3.5049236300000000 18.2104330099999991
  2.0888163000000000  5.4820713500000000 19.8386574799999984
  0.1169038100000000  7.1677082399999996  0.0098799400000000
 20.0865759500000003  8.9186163199999999  1.9651624900000000
 18.1486893999999985 10.7664933499999993  3.8643278200000002
 16.4280793100000011 12.9299478099999998  5.2467876200000001
 14.3561428000000006 14.1782184999999998  6.9864040899999997
 12.3143937500000007 15.9963151299999993  8.8477678399999995
 11.0028181000000007 18.0227863299999989 10.6559207399999991
  8.8733813399999999 19.6856432900000016 12.5412221299999995
  7.0684647700000003 21.6755807300000001 14.6244098299999994
  5.6514911999999997  1.7485354300000000 16.3861173099999995
  5.3119329500000001  1.8791941700000001 19.3194802299999999
  3.6632230500000000  3.3442120100000001  0.0479937100000000
  1.9053936199999999  5.3528017700000001  2.0346137999999998
 -0.1127345500000000  7.0633400699999997  3.9598803000000000
 20.2021224699999991  9.4082540500000000  5.5702818100000000
 18.4788861799999999 11.1916138699999994  7.1290023800000002
 16.2633085000000008 12.6960205699999999  8.9112816299999995
 14.2204903500000004 14.3422028899999994 10.7094030700000005
 12.4394907200000002 16.1025050999999984 12.5862581900000006
 10.7554714699999998 17.9763242299999995 14.2646702500000000
  8.7848898099999992 20.0139762800000014 16.1699133800000006
  7.1934280099999999 21.6945023100000007 18.0240711299999994
  7.6408394599999996  0.6168393100000000 -0.2356205700000000
  5.5512982500000003  1.8157713700000000  2.0761636200000000
  3.9564615500000002  3.5879281600000001  4.1446019500000002
  1.8865446500000000  5.4434201099999999  5.6104857600000004
 -0.0535227600000000  7.1715183900000001  7.6863855599999997
 20.1199791999999995  9.1292587699999999  8.4269616299999992
 18.5301134999999988 10.8879820600000006 10.6438425100000007
 16.1187275600000000 12.5332137299999999 12.5485864800000009
 14.5969021399999992 14.1043148499999997 14.5531758300000007
 12.3479435599999992 16.1210616999999985 16.0634107899999989
 10.6861190199999996 18.0073123499999994 18.1022097399999993
  9.1922417999999997 20.1097432599999983 20.1512663900000000
  8.9054431399999991 20.1567307900000010  1.6661346500000001
  7.7057202800000004  0.3394773100000000  3.5789540799999999
  5.5615645000000002  1.6812765999999999  5.6858382100000000
  3.6304656999999998  3.1926866399999998  7.5637038600000004
  1.9548568700000000  5.7365881900000000  9.0271291399999996
 -0.0258094600000000  7.1769782700000002 11.1505706399999998
 19.8053390299999990  9.0453699699999994 12.9308984299999992
 17.9019061499999985 10.9839129399999997 14.9057706400000001
 16.2470979200000016 12.6308295600000005 16.7888684899999987
 14.3920434499999992 14.4364431399999997 18.1952099700000005
 12.3779013500000001 16.4539520699999997 19.7758491200000002
 10.6971645800000008 17.8871175399999984 21.8596606099999988
 11.1514982299999996 18.2223872600000014  3.3446653899999998
  9.2768881600000004 19.6992263100000002  4.9859184000000001
  7.4501201300000002 -0.0207272700000000  7.4264836000000001
  5.6912391500000004  1.5923727299999999  9.3995846600000004
  3.6389161099999998  3.7549639199999998 11.1035135900000004
  2.1161361200000002  5.0505146900000000 12.9572587299999995
 -0.0141063800000000  7.3548322199999996 14.5612188600000003
 19.8677283399999993  8.8161864100000003 16.1781223099999991
 17.8107187600000003 10.6612668999999993 17.9694123300000008
 16.2045619099999989 12.7986563100000001 20.0413056500000017
 14.5356852399999994 14.0033404499999996 21.5516872699999986
 12.5057869799999999 16.1737445300000005  1.4185190299999999
 12.4508764400000000 16.0645941400000005  5.5689942099999996
 10.7181475899999992 17.7302993600000001  7.0707574199999996
  9.1248408300000001 19.4366671400000008  8.9583831200000006
  7.4372471500000001 -0.1303617700000000 10.9046199399999999
  5.7758449399999998  1.4089349700000000 12.8614452799999999
  3.9722226300000001  3.3340578600000002 14.7029479199999997
  1.3816252899999999  5.3043873300000000 15.9671239299999996
 -0.0689728100000000  6.9257986400000000 18.1451729399999984
 19.9347702200000008  9.1272769700000005 19.8557535999999999
 17.7505154099999984 10.4002698799999997 21.8722896700000007
 16.2163380299999993 12.5434413399999993  1.5570121699999999
 14.3584088699999999 14.1983957699999994  3.6367623700000000
  5.3076095099999998  5.1946078099999999 15.9163063999999999
  3.8857898999999998  7.2104170999999999 17.9194325100000000
  1.7876229500000000  9.1314565600000002 19.8189886999999985
  0.2271301700000000 10.4597985599999994  0.0624583500000000
 19.7109938299999996 12.1589181300000000  1.6104843600000001
 17.8478320400000001 14.5270693000000009  3.2619791800000000
 16.0962340799999986 16.2588596199999991  5.2790005999999998
 14.3458268400000009 17.8077698300000016  7.3163922899999996
 12.9216725599999993 19.7441363699999997  8.7756083799999995
 11.1968768799999996 -0.2143549300000000 10.4545572599999996
  9.2498995100000005  1.9721313400000000 12.4172715100000008
  7.6271266799999999  3.6452287000000001 14.5115523599999996
  7.3840392300000000  3.8300415999999999 17.8576640299999987
  5.2877476100000003  5.2352368599999997 20.0211490499999982
  3.6262891700000002  7.3521054899999996 -0.2280298000000000
  1.6314761000000000  8.6600718699999994  1.9774214900000000
  0.2361355000000000 10.6732225100000004  3.6989842700000000
 20.1712984300000002 13.0637890199999998  5.4835664299999998
 18.0349181999999999 14.6019304999999999  7.1563860899999998
 16.2819015799999995 16.1955569699999984  9.0522294500000005
 14.1640512500000000 17.7728060100000000 10.9403278299999993
 12.8700769600000005 19.7540230399999999 12.3178097199999996
 10.7380869200000006 21.5511286899999988 14.5262049399999995
  9.3123148800000006  1.8688290999999999 15.9964897100000005
  9.5252636099999997  1.7412877099999999 19.5456985100000011
  7.3169820000000003  3.3422680900000001 -0.3154629500000000
  5.3021860700000003  5.2253537899999998  1.9544491799999999
  4.0520669700000003  7.0864659799999998  3.9055364899999998
  1.9192824200000000  8.5477385800000008  5.5368064099999996
  0.2700798500000000 10.8984008299999999  7.0212957800000000
 19.7651813499999989 12.9297557300000001  8.7993446399999993
 18.1263447100000015 14.3737268900000004 10.8852890099999993
 16.3409297600000016 16.3139554599999990 12.4601788700000000
 14.8521096000000004 18.3993890899999997 14.3571182400000001
 12.5093023399999996 19.6335454499999997 15.7320264999999999
 10.9541095300000002 -0.1626221100000000 17.9852581899999997
 11.1496146899999999  0.4074971000000000  0.2854071900000000
  9.1733292300000002  2.0280724900000000  1.8488853500000000
  7.1518128399999998  3.5115954899999999  4.2167927100000000
  5.5928370699999999  5.1636520399999997  5.7960681100000002
  3.7910297300000000  7.0560362699999999  7.1621286099999999
  1.8395066700000000  8.9506907200000008  9.0776497400000000
 -0.1988914100000000 11.0786474899999998 10.4691152200000008
 19.5852418499999992 12.4052199400000003 12.7545442500000004
 17.8359951700000003 14.6388451899999996 14.4660806300000004
 16.0471771899999993 16.2291558199999990 16.1723870599999984
 14.5509355800000009 18.3092405599999992 17.9040191200000010
 12.5462696999999999 19.8114719500000014 19.9852916600000015
 12.5993475299999993 20.0910096799999991  1.5735090899999999
 10.8877148100000003  0.1687652700000000  3.6492597500000001
  9.1084404400000007  2.0849579299999998  5.6068131299999999
  7.2501457900000004  3.7623951700000000  7.7628019600000000
  5.4418572300000001  5.2914136699999998  8.9172171700000007
  3.5164900200000000  6.9142749600000002 10.9920369800000000
  1.8224107800000000  9.1747407499999998 12.2975066000000002
 -0.0139241900000000 10.9667913000000006 14.6660972500000000
 20.1491514299999999 12.7318374500000004 16.6240208000000003
 18.0653996399999990 14.7199871600000005 18.2620776999999990
 16.1442368700000003 16.2364278000000013 19.8799599899999997
 14.4331587999999993 18.0836637600000003  0.0251052500000000
 14.1128356400000001 17.8067403700000000  3.6141133299999999
 12.4713319600000005 19.8230499900000012  5.6393210900000001
 10.5332419399999999 -0.0513723800000000  7.3297001300000000
  8.8300197800000007  1.6487859100000000  9.3724419700000006
  7.3077906199999996  3.5768429099999999 10.8831401000000003
  5.1129506899999999  5.5836836900000000 12.7694313499999996
  3.5602957499999999  7.6242910899999998 14.5995877800000002
  2.1534470400000001  9.2541429700000002 16.4758943400000000
  0.0151297800000000 10.3556669400000008 18.1484870200000010
 19.9114829299999982 12.2999600299999994 20.3156165800000004
 18.0943572599999989 14.4397473600000001 -0.1213224800000000
 15.8727062199999995 16.1410951800000007  1.5503776899999999
  7.5001870400000001  7.2874005400000001 14.7024832300000003
  5.5515242200000001  8.9397596200000002 16.0574839400000009
  3.8737904599999999 10.8208620100000008 17.8292345099999991
  1.7290978200000000 12.0547389200000001 19.7727344299999999
  0.2062995300000000 13.9080347100000008 -0.1122051100000000
 20.3431894100000008 16.1777628000000000  1.3510091500000001
 17.7187988400000016 17.8440315299999988  3.1927127799999999
 16.0810959900000014 19.9020085800000004  5.4202770400000002
 14.8278061900000004  0.1227347500000000  7.3100674300000001
 12.5069096300000009  1.4814078700000000  8.8170152399999999
 11.0188779199999995  3.6124381900000002 10.8906019399999998
  9.3379586600000000  5.5864933299999997 12.6719073699999996
  9.4590159200000006  5.3502929400000001 16.3648294499999984
  7.0579435999999998  6.9878256299999997 18.0267404700000000
  5.7278295799999999  9.0466776600000003 19.7615456700000003
  3.8727219800000001 10.6852109399999993  0.2254280000000000
  1.8467920900000001 12.4336868599999999  1.8528753899999999
 -0.0153666300000000 14.9332741299999991  3.2670938100000000
 19.6768372700000000 16.3054406800000002  4.9711477600000000
 17.6288122799999982 17.8839175200000007  6.8505388099999998
 16.3855049800000003 19.7547062699999998  8.8105872999999999
 14.3341415899999998  0.0118303600000000 10.4092476999999999
 12.8250157999999992  1.4568386700000000 12.2997150400000006
 11.0803657700000002  3.6261672100000002 14.2754124000000004
 10.9314112300000001  3.8106637900000000 17.6787350100000005
  8.8067288700000006  4.9998210500000004 19.7081948500000017
  7.0216495600000002  6.9480188600000004 -0.0120673800000000
  5.5336829900000000  9.2911448100000005  2.3561783900000002
  3.5867376100000001 10.5660763400000004  4.0533678499999999
  1.6343942199999999 12.9035773400000000  5.1552778300000002
 -0.0124160700000000 14.5728049199999994  7.1816159700000002
 19.9779990599999984 16.5024841299999991  8.9967226500000006
 18.0254233200000016 18.1401525899999996 10.9072029599999993
 16.2367791600000011 19.7594849100000012 11.9333493700000002
 14.5175745999999997 -0.1371994300000000 14.3102044900000003
 12.5598022900000004  1.8459625200000001 16.0174046399999987
 12.5904872599999997  2.0538569099999999 19.9743538899999997
 10.8419353399999991  3.8285811500000002  0.0264329300000000
  8.6502233499999992  5.4113381000000000  1.7986922599999999
  7.1337655099999999  7.1163552000000001  3.7457221199999999
  5.7518636699999997  9.3737291999999997  5.7025836700000001
  3.5640535099999999 11.1088431599999993  7.1323964599999998
  2.0830205899999998 12.3702937399999993  9.2795448900000004
 -0.0482388200000000 14.5209098300000008 10.5745582099999993
 19.6929856900000004 15.9964317000000005 12.6537155400000003
 18.1137373299999993 17.9392370999999997 14.1344946900000004
 16.6432200399999992 20.0575279100000010 16.2399318699999995
 14.5592383099999996 -0.1164978000000000 17.9501190599999987
 14.1857871200000005  0.3990695500000000 -0.1342008500000000
 12.7762153400000003  1.8473275800000000  1.8283983300000000
 11.1655607900000007  3.5984524900000001  3.7812682999999998
  8.7160053099999999  5.4951599800000004  5.6638153999999998
  7.2222149499999997  7.1832432600000002  7.5010626800000004
  5.5903397699999999  8.9506649100000004  9.0469194700000006
  3.7364305500000001 10.8000907500000007 10.6642697099999992
  1.7588587800000000 12.8383089199999993 12.3024585000000002
 -0.1312985800000000 14.3903057299999997 14.2549477299999996
 20.0934235600000015 16.1782454099999988 16.3137718400000011
 18.0093469599999985 17.8501088999999986 18.4787559899999998
 15.8318612000000005 19.9621090000000017 19.8085916500000003
 15.7940048100000006 20.1990761399999990  1.9298137099999999
 14.4279831800000000  0.0683407500000000  3.6334624500000001
 12.5222849899999993  1.7023347099999999  5.6374672900000000
 10.7674462900000005  3.7579348600000002  7.7757584000000000
  9.2299264700000005  5.4146564499999998  9.2798501699999996
  7.0962697800000001  7.1511890500000002 10.9272403300000001
  5.1846492800000004  9.0254002799999995 12.6211768400000004
  3.6117493899999999 11.0302961499999999 14.0741887499999994
  1.5029501100000000 12.4398552799999997 16.3879568800000008
 -0.2504377300000000 14.3256014799999996 18.3972888200000000
 20.4428486300000003 16.1014876499999993 20.2760808099999998
 17.8842526299999989 18.0652970400000008 -0.2767653500000000
  9.0673462600000008  9.3806906600000008 12.5610319700000002
  7.0436469600000002 10.7778483600000001 14.3596070099999995
  5.3131448199999998 12.4807614900000008 16.2604968700000008
  3.7094490300000000 14.5792779899999996 17.8473033000000001
  1.9193197500000001 15.8902618199999992 19.9579503299999992
  0.4275702400000000 17.8969594200000017  0.0659095700000000
 19.6469394900000012 20.0227352299999986  1.8376770300000000
 17.8036595999999996 22.0740720999999986  3.7665979500000000
 16.2059999800000014  2.1553664800000001  5.4485290300000004
 14.7093422700000005  3.7136830299999999  7.4893102899999997
 12.7038727599999994  5.5904311699999996  9.3630146799999991
 11.0315130799999999  7.3826100900000000 10.8777484399999995
 11.0276261499999997  7.5046324999999996 14.2192330299999998
  9.0343313999999992  8.8114695699999999 16.1693659099999998
  7.1618525899999996 10.4194999399999997 17.8474315399999988
  5.4146494399999998 12.7447204400000000 20.0468444800000007
  3.9130077600000002 14.1153388799999995 -0.1149303000000000
  1.8820590800000001 16.1319529800000012  1.7904729600000000
 -0.1744450600000000 18.0853144999999991  3.2583724799999998
 19.8475049400000003 19.7656206300000008  4.8553404699999998
 18.2333191499999998 22.0523277899999997  6.8701390599999996
 16.3295978099999992  1.5261958600000001  8.9283412599999998
 14.4094431899999993  3.4673520799999999 10.8198794500000002
 12.8701660499999999  5.7109642500000000 12.7765965200000000
 12.8080828100000002  5.5338345899999997 16.1902338199999996
 10.7394751500000005  7.0428275400000002 18.1725616400000014
  8.9827853799999993  8.7448391099999991 20.0879751199999994
  7.3289512200000004 10.8022583099999991  0.0510689600000000
  5.1695557900000004 12.4857619999999994  1.9934754500000000
  3.4699289300000000 14.3856266099999992  3.6039370000000002
  1.5277687799999999 16.3949869899999996  5.3767784799999996
 -0.2207017100000000 17.9717951099999986  6.9383028500000004
 19.8909070399999983 19.9831143299999994  8.7842830000000003
 18.1943301999999996 -0.3727553000000000 10.3302629300000000
 16.2574767499999986  1.7705367200000000 12.4715847100000001
 14.4386809800000009  3.5531135599999999 14.4148765599999997
 14.6384978799999992  3.8673967199999999 17.9013184099999982
 12.7458631300000000  5.3453755500000000 19.9047243599999995
 10.5394537600000007  7.0775581100000000 -0.0438819400000000
  8.7084125399999994  8.8706999199999998  1.8074635400000001
  7.4188202900000002 10.9748854100000006  3.7640554800000001
  5.5593529799999999 12.5301971999999999  5.6486871699999996
  3.9353382500000000 14.5256663800000005  6.8223649899999996
  1.9797362999999999 16.5328674299999996  8.6796943599999992
 -0.0676385800000000 18.1604991399999989 10.7862952599999993
 19.7412415500000016 19.8947918199999982 12.5999859500000007
 18.0037390299999984 21.8257019899999989 14.1835904700000004
 16.2302995699999997  1.7563921400000000 16.0715564800000017
 15.8293094500000002  2.0198269899999999 19.9448809099999984
 14.4911121299999994  3.8598137499999998  0.1162704200000000
 12.7044558100000007  5.7899466700000000  1.8480175400000001
 10.5353817900000006  7.1895234800000001  3.6328759399999999
  9.1102934399999995  9.0751843799999996  5.7086617799999999
  7.3325809299999998 10.7963172400000005  7.4901959500000004
  5.2357919500000003 12.8523252400000008  9.2283506899999992
  3.5117724600000000 14.8241436699999998 10.5547168199999994
  1.2560521200000001 16.3365582700000012 12.6253467700000002
 -0.1792606000000000 18.2175245200000013 14.1239107100000005
 19.4997141200000002 20.0951533600000012 16.2981853299999990
 17.9467985399999996 21.8139484299999999 18.0162359400000014
 17.5675197800000014  0.4193269200000000  0.2279070500000000
 15.7549091000000008  2.0323878199999998  1.8033446399999999
 14.6086394800000008  3.7007159500000002  3.9342549500000001
 12.4245721400000004  5.7130892199999996  5.6319151400000003
 10.7586072300000009  7.2839947499999997  7.3463256899999996
  9.1098261699999998  9.2630384800000005  9.3577412199999994
  7.2774671900000003 10.5580850999999996 10.7478996700000007
  5.5905383999999998 12.2751997999999993 12.2770797799999993
  3.5430964199999999 14.3364501299999993 14.6044171899999995
  1.6484329799999999 16.2170867600000008 16.2619453100000015
 -0.0686038100000000 18.0703800200000018 18.1495996300000009
 19.5804371800000006 20.1148955200000010 19.9227460500000007
