Li                                      
   1.00000000000000     
    20.6400000000000006    0.0000000000000000    0.0000000000000000
     0.0000000000000000   20.6400000000000006    0.0000000000000000
     0.0000000000000000    0.0000000000000000   20.6400000000000006
   Li
   432
Direct
  0.0312159767441855  0.9912879559108561  0.9961267165697691
  0.9372489956395356  0.1145873313953487  0.0720819714147254
  0.8282480043604679  0.1621460382751962  0.1533594752906993
  0.7576216671511631  0.2431840935077503  0.2365261942829449
  0.7000316463178322  0.3456744530038733  0.3479217122092990
  0.5799213682170574  0.4054484215116290  0.4103476027131805
  0.4712476506782934  0.4687765339147276  0.5132220620155010
  0.4087006501938006  0.5877539355620129  0.5812105605620133
  0.3227010193798421  0.6925317616279045  0.6738024064922499
  0.2364033212209335  0.7839420755813933  0.7777481259689907
  0.1494232732558132  0.8387315053294557  0.8692885629844938
  0.0978998599806218  0.9068113837209282  0.9177992136627893
  0.0917375082364345  0.8927450281007765  0.0838414462209300
  0.0302660605620133  0.0246673919573652  0.1674812117248052
  0.9378241608527134  0.0763014515503855  0.2192196855620168
  0.8470334355620182  0.1618806841085245  0.3473884084302341
  0.7542533943798446  0.2235470906007748  0.4276789811046484
  0.6618891952519377  0.3277975736434087  0.5154048977713188
  0.5842687679263534  0.4289291342054256  0.5991914563953458
  0.4758372068798451  0.5100073546511652  0.6902479849806227
  0.3764947868217021  0.6147213711240340  0.7595348924418630
  0.2808562218992279  0.6824921642441879  0.8638939152131755
  0.2719077063953463  0.7808790033914761  0.9361449118217067
  0.1795370615310077  0.8414683929263589  0.9874513032945771
  0.1842013594961216  0.8251775576550386  0.1841542611434122
  0.0746637073643441  0.9199195552325605  0.2315480169573618
  0.0186516739341087  0.0198814476744218  0.2964516560077541
  0.9368611143410845  0.0952666782945712  0.4254261259689898
  0.8217621274224811  0.1673191734496129  0.5118493866279081
  0.7241922437015518  0.2513798178294593  0.6230862747093013
  0.6610658963178295  0.3083078817829445  0.6781924035852711
  0.5807525634689910  0.3957530503875972  0.7068200581395345
  0.4836812068798437  0.4930073895348812  0.8164506027131750
  0.4016825721899195  0.5900942790697670  0.8745505968992262
  0.3394186448643381  0.6465128905038782  0.9993722470930209
  0.2805105261627929  0.7586573187984484  0.0792988885658943
  0.2681047039728668  0.7415820983527155  0.2599062044573657
  0.1555154636627876  0.8293797122093025  0.3143766312984511
  0.0936729486434089  0.9142862751937955  0.3806693653100766
  0.0166185915697667  0.0206176375968994  0.4798789137596913
  0.9180382388565889  0.0936970092054281  0.5761927572674423
  0.8088884578488376  0.1433514229651180  0.6868803502906999
  0.7165656952519370  0.2427848900193794  0.7650161400193767
  0.6223309903100755  0.3404084941860432  0.8201241264534858
  0.5855549500968991  0.4090220518410845  0.9159244132751923
  0.4861828711240292  0.5005796627906989  0.9903703304263587
  0.4151023924418595  0.5891060542635671  0.1073549127906972
  0.3388756681201528  0.6464965615310092  0.1699558788759674
  0.3414237819767436  0.6407259127906997  0.3418688701550394
  0.2582256312984512  0.7338905436046517  0.4125055145348853
  0.1699682340116269  0.8383077688953477  0.4875901947674421
  0.0825978498061986  0.9009310494186025  0.5778442839147289
  0.9831804437984530  0.9827217194767428  0.6616882466085272
  0.9189542359496130  0.0960841666666639  0.7638457466085242
  0.8329888008720943  0.1988126593992234  0.8557901230620146
  0.7255526744186014  0.2793282257751954  0.8965703914728707
  0.6652539253875958  0.3291617790697643  0.9866119268410856
  0.5869728730620167  0.4002298406007725  0.0883148396317850
  0.5230535072674414  0.4956111167635626  0.1856028682170532
  0.4132910402131813  0.5353084326550359  0.2473662126937981
  0.4243412165697649  0.5385886104651192  0.3972680440891452
  0.3176233837209281  0.6605123604651197  0.4843927747092991
  0.2641417344961212  0.7637639510658900  0.5689903875968980
  0.1723284069767459  0.8086365629844963  0.6743715300387620
  0.0805567374031000  0.8860844844961235  0.7605464539728715
  0.0154253396317827  0.9847241623062004  0.8231261482558168
  0.9202628711240308  0.0838592170542611  0.9365937902131805
  0.8347899123061993  0.1952924985465145  0.9747098885658900
  0.7187089365310086  0.2585375857558105  0.0874216812015476
  0.6434796390503905  0.3581606007751930  0.1748193536821674
  0.6083626346899251  0.4042233352713183  0.2782002669573629
  0.5285225310077521  0.4821879282945716  0.3524702015503891
  0.0839652897286811  0.0633129680232543  0.9198013769379827
  0.0263742562984461  0.1728968633720953  0.9974921855620167
  0.9289646477713163  0.2383802073643437  0.0684901196705425
  0.8446697320736405  0.3280278328488393  0.1599010077519409
  0.7574871676356594  0.4434291836240334  0.2524609016472894
  0.6556272136627896  0.4996313662790683  0.3357172320736410
  0.5984795019379874  0.5809106729651177  0.4605893343023268
  0.4923714980620133  0.6507807805232559  0.5039953037790710
  0.4154893318798472  0.7475787165697696  0.5681202688953491
  0.3261217688953479  0.8189788338178303  0.6894635789728696
  0.2293569636627879  0.9147896686046479  0.7789260542635645
  0.1611557490310105  0.9746574985465131  0.8283480712209297
  0.1565763406007719  0.9995053638565921  0.0311474040697703
  0.1003114481589122  0.0872891468023269  0.1012889229651179
  0.0040781739341114  0.1792685562015492  0.1789409404069744
  0.8986588158914728  0.2448797204457378  0.2856238982558139
  0.8328637635658893  0.3387592684108540  0.3491792916666654
  0.7798069811046489  0.4209483672480587  0.4035492533914748
  0.6793338154069772  0.4746412025193791  0.4747151593992243
  0.5536148086240331  0.5634003125000007  0.5866640072674443
  0.5211435678294549  0.6812892204457341  0.6629626148255809
  0.4267232374031025  0.7274540348837206  0.7840550896317851
  0.3602922156007722  0.8638084675387603  0.8360904282945754
  0.2739618376937969  0.9215943062015484  0.9325469210271322
  0.2635258372093006  0.8935342911821706  0.0870794384689901
  0.1733053604651147  0.0000994210271301  0.1450435465116300
  0.0999783464147299  0.1020797897286840  0.2356083338178294
  0.0040175169573615  0.1908903837209337  0.3429067325581414
  0.9161677732558147  0.2748898299418627  0.4161983284883704
  0.8138571196705442  0.3257073163759685  0.5127532093023248
  0.7380383837209337  0.4133849287790667  0.6007837228682149
  0.6711823318798480  0.5029344660852715  0.6823464718992227
  0.5836162059108503  0.6089143793604634  0.7549909127906957
  0.4972938788759720  0.6634228028100750  0.8328245000000010
  0.4163500072674395  0.7218122810077503  0.9108091962209315
  0.3594877160852690  0.8180834874031007  0.0237121666666695
  0.3528475281007744  0.8026069408914722  0.1878016327519347
  0.2551851448643419  0.9149827761627876  0.2370948459302298
  0.1529391400193774  0.9948751477713174  0.3401970542635624
  0.0799541603682172  0.0958886065891491  0.3977887093023256
  0.0035401036821696  0.1823185193798480  0.5144185784883746
  0.9032100906007727  0.2319313677325567  0.6128795736434114
  0.8339238745155058  0.3300408008720908  0.6825546337209332
  0.7264436235465084  0.4232561501938008  0.7623091875000014
  0.6637478667635648  0.5276183648255781  0.8095721472868220
  0.5729245964147296  0.5625688817829442  0.9090715377906946
  0.5015362296511654  0.6391979563953498  0.9900308294573676
  0.4226372180232545  0.7276748769379822  0.1022318783914713
  0.4143385639534856  0.7092323187984491  0.2658494079457370
  0.3652289423449631  0.8162146206395349  0.3586627727713179
  0.2534831879844930  0.9121514423449639  0.4124525736434137
  0.1613698803294596  0.0014243590116294  0.4740658066860490
  0.0896485411821715  0.0883052921511620  0.5623137456395355
  0.0063268406007779  0.1499988764534876  0.6633280595930202
  0.9283876022286819  0.2181758987403128  0.7691234408914696
  0.8249292684108553  0.3530349253875968  0.8184093861434079
  0.7337826564922452  0.4313422897286827  0.8871787301356591
  0.6602189777131784  0.5152673822674387  0.9911551453488343
  0.5733414297480621  0.5648765198643417  0.0870271356589143
  0.4890389922480622  0.6404942126937954  0.1823784665697659
  0.5195017708333367  0.6286750106589167  0.3481983745155048
  0.4335099486434117  0.7278134786821724  0.4104234515503862
  0.3557879956395382  0.8263279656007754  0.4786678095930199
  0.2468314331395334  0.8934178134689930  0.5606873323643384
  0.1583592524224784  0.9920075198643445  0.6532092194767429
  0.1066490387596915  0.0735977693798446  0.7346935518410831
  0.0243645944767437  0.1672532640503874  0.8520232742248055
  0.9443516114341080  0.2818017398255819  0.8992279530038729
  0.8202213662790712  0.3100649990310060  0.0007343779069799
  0.7304701201550401  0.4128755285852748  0.0777340116279035
  0.6489315164728708  0.4951617514534874  0.1770868643410850
  0.6054437829457342  0.5841538725775166  0.2697172044573648
  0.1751138144379851  0.1732441831395377  0.8487904215116302
  0.0966998643410832  0.2901842315891443  0.9151638711240295
  0.9979394452519372  0.3282978183139562  0.0178576036821738
  0.9116801080426384  0.4016540155038726  0.0600104360465110
  0.8348205591085289  0.5362419360465083  0.1500208919573609
  0.7647724171511641  0.5716692621124011  0.2569870721899221
  0.6518790421511653  0.6688582296511640  0.3453704089147251
  0.5754651724806195  0.7522253817829423  0.4175689496124022
  0.4873836749031000  0.8460212839147303  0.4631459917635681
  0.3971868129844935  0.9072433105620163  0.5794036274224794
  0.3279413551356569  0.0038547761627896  0.6672165096899221
  0.2391448052325558  0.0663194408914762  0.7516047853682153
  0.2383515562015504  0.0582127025193770  0.9156178968023241
  0.1669605639534879  0.1765893662790674  0.9841499593023286
  0.0878338803294554  0.2478995809108540  0.0913878173449589
  0.9917998095930258  0.3197184525193819  0.1729107567829473
  0.8931474118217082  0.4065075387596906  0.2426052088178281
  0.8507564428294572  0.5042917238372127  0.3317963972868228
  0.7324402218992248  0.5939758076550419  0.4356565576550366
  0.6406589675387622  0.6562336632751951  0.5403593255813988
  0.5556754951550360  0.7679738217054251  0.5634601249999989
  0.4712631826550364  0.8385668643410824  0.6933103638565896
  0.3949626230620140  0.9291054156976770  0.7551974888565880
  0.3216040431201534  0.0036210382751918  0.8401810954457360
  0.3039515654069760  0.0038139709302314  0.0310026443798463
  0.2499292616279050  0.1081686782945752  0.0935690702519381
  0.1725841923449636  0.2116429481589179  0.1722127839147305
  0.1055501715116307  0.2572866870155011  0.2386550857558163
  0.0032431758720932  0.3400131497093000  0.3149569055232533
  0.9219782519379862  0.3900374946705440  0.4028078047480648
  0.8561888517441858  0.4983635363372088  0.4916306560077501
  0.7737862010658887  0.5590279864341099  0.5845406884689908
  0.6619090634689897  0.6709185043604649  0.6604752320736438
  0.5771721574612414  0.7643947383720899  0.7558353517441887
  0.4887338929263549  0.8563455886627906  0.8335335397286840
  0.4132464689922486  0.9393855625000000  0.9382772630813960
  0.4334986647286811  0.8996500891472863  0.0894505586240300
  0.3209118260658883  0.0017294656007749  0.1461375072674400
  0.2336271303294595  0.0752864903100772  0.2441282994186054
  0.1743728696705418  0.1837110721899222  0.3289751206395337
  0.0608303100775203  0.2385349665697660  0.4139809442829474
  0.9878707126937982  0.3285965377906948  0.4952326603682167
  0.9042898875968959  0.4084587117248049  0.5751509636627929
  0.8466812572674414  0.4942823134689931  0.6731031046511617
  0.7742905663759672  0.5810948333333315  0.7321436065891476
  0.6607258585271296  0.6621312272286843  0.8293007596899216
  0.5832218192829473  0.7292814307170516  0.9245265891472840
  0.4859839563953514  0.8125621899224811  0.9804497931201581
  0.5065296962209302  0.8402944752906976  0.1642434830426325
  0.4206291283914751  0.9175824297480588  0.2412967587209280
  0.3417311453488381  0.0108440668604644  0.3174736860465117
  0.2492445717054252  0.0890341056201578  0.3970741584302360
  0.1707575610465142  0.1537799278100778  0.4661766463178267
  0.0914587214147318  0.2493800397286847  0.6112736782945731
  0.9955677078488350  0.3001379152131776  0.6651600150193815
  0.9288646216085255  0.4133632354651127  0.7388101705426351
  0.8528242325581417  0.5166768013565886  0.8199425813953454
  0.7717161976744151  0.5867994975775161  0.9021326526162810
  0.6609644772286813  0.6436017785852712  0.0061674854651130
  0.5662555106589124  0.7385831090116284  0.0817945813953500
  0.5751370397286806  0.7478077989341116  0.2330539694767424
  0.4943955314922448  0.8408986831395353  0.3143207843992215
  0.4081306429263591  0.9619600828488402  0.4177549927325614
  0.3300874578488404  0.0233756671511642  0.4898482892441862
  0.2373712398255847  0.0482495683139561  0.5728307466085241
  0.1899801182170577  0.1648916782945733  0.6488309903100742
  0.0968248846899229  0.2632670518410833  0.7651304045542631
  0.9931629142441878  0.3323301550387612  0.8491010232558125
  0.9173094249031024  0.4135363464147304  0.9216956957364317
  0.8331670654069754  0.4748317248062008  0.0022677344961224
  0.7318339055232528  0.5614232824612415  0.0667915188953501
  0.6656645804263590  0.6640893154069758  0.1774337582364325
  0.2623511787790704  0.2469890833333324  0.7240831511627874
  0.1836088575581414  0.3692911453488392  0.8360652034883742
  0.0680009384689910  0.4137639932170529  0.9118111521317829
  0.0024707679263543  0.5268130416666637  0.9852777684108531
  0.9201931516472897  0.5842548328488348  0.0523577519379828
  0.8289589636627923  0.6699099602713190  0.1508172364341078
  0.7353113488372074  0.7470903023255815  0.2337863750000011
  0.6576222747093041  0.8176818929263590  0.3380552819767431
  0.5853686884689893  0.9046433997093004  0.4214722451550372
  0.5184608367248060  0.9914565654069776  0.5124604544573614
  0.4277482868217035  0.0632722543604629  0.5858010581395376
  0.3238826356589115  0.1452081632751927  0.6418436908914700
  0.3226460411821677  0.1620599423449605  0.8169996802325556
  0.2610425077519380  0.2631447407945728  0.9089095368217031
  0.1721769249030984  0.3265453803294562  0.9925562703488353
  0.0946092529069773  0.4344675813953458  0.0716372732558170
  0.9746205019379843  0.4922428575581392  0.1582923667635683
  0.9158755576550419  0.5757703149224795  0.2391178047480622
  0.8152074428294540  0.6586426138565855  0.3223388343023288
  0.7411504723837226  0.7543762248062009  0.4381879888565905
  0.6613700198643429  0.8435963541666638  0.4894956419573617
  0.5668582281976740  0.9020405474806168  0.6103634278100785
  0.5080438808139505  0.9944744060077539  0.6936841874999971
  0.4313403512596921  0.0846774176356604  0.7507240184108497
  0.4086943822674414  0.0779774849806216  0.9354397858527150
  0.3490083599806226  0.1827322625969003  0.0052244898255793
  0.2644804282945756  0.2577493246124050  0.0772104898255819
  0.1614508037790685  0.3391325610465117  0.1634947887596923
  0.0581696996124066  0.4227982141472850  0.2343998275193826
  0.9928083779069752  0.5039712214147301  0.3339650184108507
  0.9070121521317844  0.6097879161821709  0.4347410251938015
  0.8208941666666689  0.6786261666666675  0.4923260741279094
  0.7634850678294569  0.7626807374031017  0.5807027509689888
  0.6379670658914733  0.8094599350775198  0.6844407466085300
  0.5746737495155045  0.9092673183139510  0.7818164675387607
  0.4880443570736404  0.9900763294573665  0.8615753842054232
  0.5130433284883722  0.9900742785852685  0.0154244554263556
  0.3971288594961209  0.1203493541666631  0.0994597921511655
  0.3398089176356578  0.2065466346899214  0.1881716865310068
  0.2420442611434126  0.2767668594961208  0.2286138183139528
  0.1673588880813952  0.3202287267441832  0.3270442931201529
  0.0883555377906973  0.4082072170542617  0.3900640959302351
  0.9961454210271299  0.5034917335271345  0.4778666288759723
  0.9208132577519379  0.5919135019379880  0.5739350731589141
  0.8338845406976745  0.6818871104651194  0.6723831608527107
  0.7221982049418614  0.7640897412790721  0.7382980348837194
  0.6560766521317802  0.8210623013565908  0.8492057495155052
  0.5777725634689901  0.9011370804263592  0.9413484588178278
  0.5871656845930247  0.9204474064922508  0.0856947819767413
  0.5293097151162769  0.0184700087209322  0.1727475571705455
  0.4334476967054286  0.0715607248062042  0.2372606758720934
  0.3404511187015515  0.1825163614341108  0.3260231409883687
  0.2472545508720927  0.2608405552325550  0.4179733875969021
  0.1356643624030980  0.3334474675387611  0.4977859384689935
  0.0656746574612370  0.4172226337209324  0.6269193032945708
  0.0076257209302355  0.5100107204457345  0.6911462437015530
  0.9166862766472832  0.5744603997093023  0.7611452238372109
  0.8160706080426365  0.6939583032945720  0.8142756962209319
  0.7466147684108506  0.7664972122093019  0.9385797073643403
  0.6585169399224782  0.8260746836240287  0.0059766918604680
  0.6653032572674391  0.8371729961240320  0.1816516269379846
  0.5893606826550410  0.9396099219961229  0.2334550717054285
  0.5278080363372126  0.0287832616279076  0.3357565629844927
  0.4436686749031011  0.0689292819767431  0.4145374568798417
  0.3374713885658949  0.1598414980620149  0.4998876812015496
  0.2566959026162792  0.2404473144379864  0.5697045169573656
  0.1853844040697652  0.3296891613372068  0.6790336729651187
  0.0903480314922476  0.4111591962209289  0.7458738449612383
  0.0035106414728716  0.4973969607558146  0.8316729258720912
  0.8968885513565894  0.6127304539728655  0.8992656782945758
  0.8459785295542659  0.6700753517441882  0.9953862984496098
  0.7644399970930209  0.7460295276162796  0.0963512354651144
  0.3396837519379829  0.3164381036821737  0.6505914006782945
  0.2616355683139560  0.4361136584302301  0.7332140634689921
  0.1765091855620184  0.4836930968992235  0.8274274626937981
  0.0896333328488339  0.5964807446705436  0.9151170285852714
  0.9948606390503869  0.6795381753875986  0.9641452785852707
  0.9217489190891470  0.7636668003875968  0.0890870576550356
  0.8089241400193785  0.8506857267441887  0.1554889912790713
  0.7515091540697654  0.9249819883720960  0.2570865968992280
  0.6942402451550365  0.0040323178294557  0.3454582335271326
  0.5817509011627919  0.0911576012596882  0.4178997475775219
  0.5142987737403075  0.1593712407945702  0.4978659360465088
  0.4434355033914699  0.2419161962209273  0.5900439433139510
  0.4084080949612385  0.2105142693798427  0.7399291613372085
  0.3221949176356560  0.3402315208333349  0.7962941172480598
  0.2809996584302326  0.4329285794573607  0.9179406187015502
  0.1882597781007718  0.5008992369186061  0.0020264762596867
  0.0792189142441870  0.5986032747093049  0.0725358255813973
  0.0017746763565896  0.6622367093023271  0.1394987257751907
  0.9025394656007748  0.7518954966085261  0.2451529176356573
  0.8275179408914752  0.8207143367248051  0.3398582926356610
  0.7751944244186078  0.8897017480620164  0.4140140813953508
  0.6379824341085296  0.9907899224806229  0.5068209069767420
  0.5994828546511641  0.0517003948643406  0.6089429718992250
  0.5148868594961229  0.1496698168604667  0.6665114631782956
  0.4987781826550375  0.1561550523255804  0.8698935329457385
  0.4163379375000034  0.2601607315891457  0.9128706782945741
  0.3396715004844992  0.3632351177325575  0.9878999781976745
  0.2564569341085274  0.4094629559108540  0.0798071138565888
  0.1660901385658917  0.5116421182170541  0.1399268861434138
  0.0688323304263534  0.5937080789728668  0.2190946346899239
  0.9847365329457389  0.6715168468992232  0.3140967747093057
  0.9058840499031007  0.7423346405038771  0.4140838498062038
  0.8625633304263545  0.8387786434108548  0.4850873711240311
  0.7455340998061999  0.8897029011627922  0.6066597756782954
  0.6777787742248051  0.9659079786821678  0.7070602960271302
  0.5792868808139531  0.0649556647286786  0.7730192708333306
  0.5989276967054238  0.0653772810077484  0.9073433178294579
  0.4935927223837240  0.1817542669573626  0.9791004573643391
  0.4178490436046545  0.2634887238372059  0.0942082126938004
  0.3517279132751909  0.3655504820736439  0.1910321511627942
  0.2413558846899235  0.4310801162790696  0.2762693798449618
  0.1478190968992266  0.5070551395348843  0.3306007049418582
  0.0840710334302344  0.6284432383720926  0.3926987892441858
  0.0013149811046489  0.6781821937984489  0.5153123914728681
  0.8849815862403076  0.7493822403100765  0.5904212243217088
  0.8303609486434098  0.8302253415697649  0.6656852306201557
  0.7579900789728669  0.9067864127906944  0.7415315658914707
  0.6857917194767467  0.9637802199612437  0.8404184912790669
  0.6497181211240317  0.9992300067829447  0.9900565203488370
  0.6149364215116293  0.0875626177325586  0.0724712679263533
  0.5230014597868191  0.1807437126937970  0.1749873178294550
  0.4239196254844941  0.2513727616279056  0.2438306371124028
  0.3152189258720952  0.3189967146317798  0.2977492073643404
  0.2253508691860446  0.3981262674418602  0.4319114224806171
  0.1403570140503874  0.4966829467054268  0.4783693134689955
  0.0884051860465149  0.6042415513565871  0.5692067427325611
  0.9926217432170574  0.6563382470930250  0.6749563420542657
  0.9195790237403116  0.7625062572674395  0.7571266414728655
  0.8265054166666701  0.8432664103682157  0.8177538706395353
  0.7335019714147251  0.9069012989341090  0.9337639675387592
  0.7502937601744151  0.9213196516472877  0.0697788822674426
  0.6968481143410870  0.0138117131782920  0.1684146312984467
  0.6024098241279034  0.0850808987403084  0.2549386346899212
  0.5254165111434119  0.1827705324612410  0.2959252795542611
  0.4150210014534892  0.2172467853682178  0.4127479636627882
  0.3414047117248060  0.3524067218992215  0.5004113851744165
  0.2628143648255801  0.4292274399224780  0.6077064268410837
  0.1506525872093007  0.5008553556201534  0.6743676250000021
  0.0819839583333319  0.6006373759689936  0.7633857635658927
  0.9774611463178289  0.6645571114341067  0.8444092931201581
  0.8903891521317817  0.7729545445736434  0.9370924752906973
  0.8180157335271332  0.8626352713178278  0.0286348260658897
  0.4246239670542664  0.4308051802325608  0.5959408769379877
  0.3303233968023278  0.5152486516472834  0.6611439253875986
  0.2512177882751914  0.6079592834302332  0.7600424544573627
  0.1756851308139531  0.6804116768410822  0.8727609181201572
  0.0752079597868232  0.7407555809108501  0.9138280615310066
  0.0024370164728680  0.8407412756782975  0.9887202175387628
  0.9250454064922451  0.9343467524224778  0.0781254302325607
  0.8154864786821676  0.0254455721899234  0.1281402393410858
  0.7698449893410881  0.1032630731589137  0.2218181157945764
  0.6976604956395320  0.1518965358527140  0.3378856187015487
  0.6037718323643446  0.2248169375000018  0.3940005523255792
  0.5050656429263540  0.3015520673449643  0.4820035586240294
  0.4797985755813983  0.3106658212209297  0.6781832199612410
  0.4022877315891478  0.4109763968023259  0.7372508280038730
  0.3302479791666642  0.5109098367248066  0.8213678565891485
  0.2511095537790666  0.5739488575581362  0.9185552538759723
  0.1845226841085292  0.6677683076550380  0.9939573992248043
  0.0849785998061989  0.7635119869186013  0.0733864089147289
  0.0048340077519384  0.8445883260658889  0.1638837989341084
  0.8922963280038729  0.9346166308139559  0.2318121531007762
  0.8273248420542600  0.0308165881782969  0.3340927063953458
  0.7364175256782914  0.0945399200581392  0.4221918643410874
  0.6546143255813917  0.1403344777131750  0.5244026545542653
  0.6008258280038774  0.2461619471899255  0.5998591792635679
  0.5685518657945750  0.2238729593023265  0.7610808318798448
  0.4657230939922457  0.3366185794573653  0.8255169612403108
  0.4165669597868202  0.4309262756782957  0.8999211686046493
  0.3626949006782922  0.5102706487403097  0.0000740087209294
  0.2547775867248063  0.5709194835271347  0.0870183333333330
  0.1639368086240296  0.6812612873061994  0.1618875552325605
  0.0519820901162760  0.7393501405038734  0.2544667853682157
  0.9743961051356607  0.8334760499030978  0.3207058197674399
  0.9191364980620165  0.9276962994186064  0.3839116303294574
  0.8174195116279037  0.0159865479651131  0.5235549612403076
  0.7357225939922500  0.0821519622093021  0.6082229132751920
  0.6655064205426342  0.1356738740310064  0.6962694258720958
  0.6491922625968982  0.1466919210271342  0.8247947790697694
  0.5629799467054255  0.2631577180232583  0.9009125499030972
  0.4843283822674422  0.3673890862403084  0.0043230600775175
  0.4314582083333320  0.4430340145348808  0.0999045421511653
  0.3217214069767422  0.5009348541666654  0.1758791099806203
  0.2436513565891474  0.5928173066860438  0.2457451550387617
  0.1676546143410818  0.6610103561046543  0.3128603289728673
  0.0923904985465143  0.7410769418604630  0.4147230208333355
  0.9909220358527122  0.8332091390503891  0.4790872640503849
  0.9050414975775212  0.9117231322674400  0.5768715082364366
  0.8390054234496134  0.0036112732558138  0.6649535998062035
  0.7411250397286793  0.0529492165697647  0.7620082994186035
  0.7210004801356575  0.0752825644379840  0.9069823885658934
  0.6720844050387598  0.1840685009689906  0.9658864583333369
  0.5941296327519368  0.2507320062984491  0.0700798226744155
  0.5169633192829437  0.3244565222868232  0.1678275406976724
  0.4362133977713185  0.4172601492248091  0.2665819433139518
  0.3040755843023248  0.4832234714147319  0.3680232761627877
  0.2212395591085254  0.5797481138565885  0.4217138740310062
  0.1926979331395344  0.6642917030038760  0.5201836133720903
  0.0573476099806172  0.7601223066860499  0.5951007451550367
  0.0073933284883694  0.8309630663759719  0.6555273662790668
  0.9260281952519378  0.9020368788759683  0.7415567795542657
  0.8414373124999983  0.9904117669573651  0.8535091070736414
  0.8532424011627882  0.0257122674418611  0.9871823977713206
  0.7342557781007741  0.1035683822674400  0.0432421627906976
  0.6654234593023247  0.1704217330426374  0.1696319951550365
  0.6316693381782912  0.2568025251937982  0.2511969626937969
  0.5015547078488396  0.3274926061046486  0.3406142480620176
  0.4211401177325556  0.3812871405038791  0.4011579912790708
  0.3312163924418599  0.4939903968023245  0.4965552853682169
  0.2549867989341053  0.5896231061046535  0.5673934743217046
  0.1943333255813968  0.7049455445736399  0.6597111216085239
  0.0818546317829458  0.7494246429263569  0.7447356850775222
  0.0190343362403098  0.8157432204457393  0.8384283313953489
  0.9245430852713170  0.9074551710271308  0.9555103788759709
 
  0.00000000E+00  0.00000000E+00  0.00000000E+00
  0.00000000E+00  0.00000000E+00  0.00000000E+00
  0.00000000E+00  0.00000000E+00  0.00000000E+00
  0.00000000E+00  0.00000000E+00  0.00000000E+00
  0.00000000E+00  0.00000000E+00  0.00000000E+00
  0.00000000E+00  0.00000000E+00  0.00000000E+00
  0.00000000E+00  0.00000000E+00  0.00000000E+00
  0.00000000E+00  0.00000000E+00  0.00000000E+00
  0.00000000E+00  0.00000000E+00  0.00000000E+00
  0.00000000E+00  0.00000000E+00  0.00000000E+00
  0.00000000E+00  0.00000000E+00  0.00000000E+00
  0.00000000E+00  0.00000000E+00  0.00000000E+00
  0.00000000E+00  0.00000000E+00  0.00000000E+00
  0.00000000E+00  0.00000000E+00  0.00000000E+00
  0.00000000E+00  0.00000000E+00  0.00000000E+00
  0.00000000E+00  0.00000000E+00  0.00000000E+00
  0.00000000E+00  0.00000000E+00  0.00000000E+00
  0.00000000E+00  0.00000000E+00  0.00000000E+00
  0.00000000E+00  0.00000000E+00  0.00000000E+00
  0.00000000E+00  0.00000000E+00  0.00000000E+00
  0.00000000E+00  0.00000000E+00  0.00000000E+00
  0.00000000E+00  0.00000000E+00  0.00000000E+00
  0.00000000E+00  0.00000000E+00  0.00000000E+00
  0.00000000E+00  0.00000000E+00  0.00000000E+00
  0.00000000E+00  0.00000000E+00  0.00000000E+00
  0.00000000E+00  0.00000000E+00  0.00000000E+00
  0.00000000E+00  0.00000000E+00  0.00000000E+00
  0.00000000E+00  0.00000000E+00  0.00000000E+00
  0.00000000E+00  0.00000000E+00  0.00000000E+00
  0.00000000E+00  0.00000000E+00  0.00000000E+00
  0.00000000E+00  0.00000000E+00  0.00000000E+00
  0.00000000E+00  0.00000000E+00  0.00000000E+00
  0.00000000E+00  0.00000000E+00  0.00000000E+00
  0.00000000E+00  0.00000000E+00  0.00000000E+00
  0.00000000E+00  0.00000000E+00  0.00000000E+00
  0.00000000E+00  0.00000000E+00  0.00000000E+00
  0.00000000E+00  0.00000000E+00  0.00000000E+00
  0.00000000E+00  0.00000000E+00  0.00000000E+00
  0.00000000E+00  0.00000000E+00  0.00000000E+00
  0.00000000E+00  0.00000000E+00  0.00000000E+00
  0.00000000E+00  0.00000000E+00  0.00000000E+00
  0.00000000E+00  0.00000000E+00  0.00000000E+00
  0.00000000E+00  0.00000000E+00  0.00000000E+00
  0.00000000E+00  0.00000000E+00  0.00000000E+00
  0.00000000E+00  0.00000000E+00  0.00000000E+00
  0.00000000E+00  0.00000000E+00  0.00000000E+00
  0.00000000E+00  0.00000000E+00  0.00000000E+00
  0.00000000E+00  0.00000000E+00  0.00000000E+00
  0.00000000E+00  0.00000000E+00  0.00000000E+00
  0.00000000E+00  0.00000000E+00  0.00000000E+00
  0.00000000E+00  0.00000000E+00  0.00000000E+00
  0.00000000E+00  0.00000000E+00  0.00000000E+00
  0.00000000E+00  0.00000000E+00  0.00000000E+00
  0.00000000E+00  0.00000000E+00  0.00000000E+00
  0.00000000E+00  0.00000000E+00  0.00000000E+00
  0.00000000E+00  0.00000000E+00  0.00000000E+00
  0.00000000E+00  0.00000000E+00  0.00000000E+00
  0.00000000E+00  0.00000000E+00  0.00000000E+00
  0.00000000E+00  0.00000000E+00  0.00000000E+00
  0.00000000E+00  0.00000000E+00  0.00000000E+00
  0.00000000E+00  0.00000000E+00  0.00000000E+00
  0.00000000E+00  0.00000000E+00  0.00000000E+00
  0.00000000E+00  0.00000000E+00  0.00000000E+00
  0.00000000E+00  0.00000000E+00  0.00000000E+00
  0.00000000E+00  0.00000000E+00  0.00000000E+00
  0.00000000E+00  0.00000000E+00  0.00000000E+00
  0.00000000E+00  0.00000000E+00  0.00000000E+00
  0.00000000E+00  0.00000000E+00  0.00000000E+00