Li 
 1.0000000000000000
    20.6400000000000006    0.0000000000000000    0.0000000000000000
     0.0000000000000000   20.6400000000000006    0.0000000000000000
     0.0000000000000000    0.0000000000000000   20.6400000000000006
 Li 
 432
Cartesian
  0.6442977600000001 -0.1798165900000000 -0.0799445700000000
 19.3448192699999986  2.3650825200000001  1.4877718900000001
 17.0950388099999984  3.3466942300000002  3.1653395700000000
 15.6373112100000000  5.0193196899999997  4.8819006500000004
 14.4486531800000009  7.1347207099999999  7.1811041400000004
 11.9695770400000008  8.3684554200000001  8.4695745200000001
  9.7265515100000002  9.6755476599999994 10.5929033599999993
  8.4355814200000001 12.1312412300000005 11.9961859700000009
  6.6605490400000003 14.2938555600000008 13.9072816699999997
  4.8793645500000000 16.1805644400000013 16.0527213199999998
  3.0840963600000002 17.3114182700000008 17.9421159400000008
  2.0206531100000000 18.7165869600000008 18.9433757699999994
  1.8934621700000001 18.4262573799999991  1.7304874500000000
  0.6246914900000000  0.5091349700000000  3.4568122099999998
 19.3566906799999998  1.5748619600000000  4.5246943100000001
 17.4827701100000006  3.3412173200000002  7.1700967499999999
 15.5677900600000001  4.6140119500000001  8.8272941700000001
 13.6613929899999995  6.7657419200000000 10.6379570900000004
 12.0593073700000009  8.8530973300000007 12.3673116600000004
  9.8212799499999992 10.5265518000000000 14.2467184099999997
  7.7708523999999999 12.6878490999999993 15.6768001800000008
  5.7968724199999997 14.0866382699999999 17.8307704099999995
  5.6121750600000002 16.1173426299999996 19.3220309800000010
  3.7056449499999999 17.3679076300000013 -0.2590051000000000
  3.8019160599999999 17.0316647900000007  3.8009439500000002
  1.5410589200000000 18.9871396200000007  4.7791510700000002
  0.3849705500000000  0.4103530800000000  6.1187621800000001
 19.3368134000000005  1.9663042399999999  8.7807952399999998
 16.9611703100000000  3.4534677399999998 10.5645713400000005
 14.9473279100000003  5.1884794400000001 12.8605007100000002
 13.6444001000000004  6.3634746800000004 13.9978912100000006
 11.9867329100000006  8.1683429600000004 14.5887659999999997
  9.9831801099999993 10.1756725200000009 16.8515404400000008
  8.2907282900000006 12.1795459200000007 18.0507243200000005
  7.0056008299999997 13.3440260599999991 20.6270431800000011
  5.7897372599999999 15.6586870600000001  1.6367290600000000
  5.5336810900000000 15.3062545100000005  5.3644640600000004
  3.2098391700000000 17.1183972599999983  6.4887336700000002
  1.9334096599999999 18.8708687200000007  7.8570156999999998
  0.3430077300000000  0.4255480400000000  9.9047007800000006
 18.9483092500000012  1.9339062700000000 11.8926185100000001
 16.6954577700000009  2.9587733699999998 14.1772104300000006
 14.7899159499999993  5.0110801299999999 15.7899331299999997
 12.8449116399999994  7.0260313200000004 16.9273619699999998
 12.0858541699999993  8.4422151499999991 18.9046798900000006
 10.0348144599999998 10.3319642399999996 -0.1987563800000000
  8.5677133800000007 12.1591489599999996  2.2158053999999998
  6.9943937900000002 13.3436890300000002  3.5078893400000002
  7.0469868599999996 13.2245828400000001  7.0561734800000000
  5.3297770299999998 15.1475008199999994  8.5141138200000004
  3.5081443499999998 17.3026723500000017 10.0638616200000008
  1.7048196200000001 18.5952168600000007 11.9267060199999992
 -0.3471556400000000 -0.3566237100000000 13.6572454099999998
 18.9672154299999995  1.9831772000000001 15.7657762100000003
 17.1928888499999992  4.1034932900000003 17.6635081400000011
 14.9754071999999994  5.7653345800000002 18.5052128799999984
 13.7308410199999997  6.7938991199999998 -0.2763298300000000
 12.1151201000000004  8.2607439100000004  1.8228182900000001
 10.7958243899999999 10.2294134499999991  3.8308431999999999
  8.5303270700000002 11.0487660499999993  5.1056386299999996
  8.7584027100000004 11.1164689200000009  8.1996124300000002
  6.5557466399999997 13.6329751199999993  9.9978668699999993
  5.4518854000000001 15.7640879500000004 11.7439616000000004
  3.5568583199999999 16.6902586600000014 13.9190283800000003
  1.6626910600000000 18.2887837600000012 15.6976788099999993
  0.3183790100000000 -0.3152932900000000 16.9893236999999999
 18.9942256600000015  1.7308542400000000 19.3312958299999984
 17.2300637899999991  4.0308371699999999 20.1180121000000014
 14.8341524499999995  5.3362157699999999  1.8043834999999999
 13.2814197499999995  7.3924348000000002  3.6082714600000001
 12.5566047800000007  8.3431696399999993  5.7420535099999999
 10.9087050399999992  9.9523588400000005  7.2749849600000003
  1.7330435799999999  1.3067796599999999 18.9847004199999994
  0.5443646500000000  3.5685912599999998 -0.0517612900000000
 19.1738303300000013  4.9201674799999999  1.4136360699999999
 17.4339832699999988  6.7704944700000000  3.3003567999999999
 15.6345351400000006  9.1523783499999993  5.2107930099999997
 13.5321456900000001 10.3123913999999992  6.9292036699999997
 12.3526169199999991 11.9899962900000006  9.5065638600000000
 10.1625477199999992 13.4321153100000004 10.4024630699999996
  8.5756998099999997 15.4300247099999996 11.7260023499999999
  6.7311533099999998 16.9037231299999995 14.2305282700000006
  4.7339277299999996 18.8812587600000015 16.0770337599999991
  3.3262546600000000 -0.5230692300000001 17.0971041899999996
  3.2317356699999999 -0.0102092900000000  0.6428824200000000
  2.0704282900000002  1.8016479900000000  2.0906033700000002
  0.0841735100000000  3.7001029999999999  3.6933410100000001
 18.5483179599999985  5.0543174300000002  5.8952772600000003
 17.1903080800000012  6.9919912999999996  7.2070605800000003
 16.0952160900000010  8.6883742999999996  8.3292565900000000
 14.0214499499999992  9.7965944199999999  9.7981208899999999
 11.4266096499999996 11.6285824499999997 12.1087451099999992
 10.7564032399999991 14.0618095099999998 13.6835483700000005
  8.8075676200000004 15.0146512800000007 16.1828970500000011
  7.4364313299999996 17.8290067699999994 17.2569064400000016
  5.6545723299999997 19.0217064799999989 19.2477684499999988
  5.4391732800000003 18.4425477700000009  1.7973196100000000
  3.5770226400000000  0.0020520500000000  2.9936988000000002
  2.0635530700000002  2.1069268600000002  4.8629560100000004
  0.0829215500000000  3.9399775199999998  7.0775949599999999
 18.9097028400000013  5.6737260899999997  8.5903334999999998
 16.7980109499999983  6.7225990099999997 10.5832262400000001
 15.2331122400000005  8.5322649300000002 12.4001760399999998
 13.8532033299999995 10.3805673800000005 14.0836311799999994
 12.0458384899999995 12.5679927899999999 15.5830124399999992
 10.2641456600000005 13.6930466499999994 17.1894976799999988
  8.5934641500000009 14.8982054799999997 18.7991018099999998
  7.4198264600000003 16.8852431799999998 21.1294191200000014
  7.2827729799999998 16.5658072599999997  3.8762257000000000
  5.2670213900000000 18.8852444999999989  4.8936376199999998
  3.1566638500000002 -0.1057769500000000  7.0216672000000004
  1.6502538700000000  1.9791408399999999  8.2103589600000006
  0.0730677400000000  3.7630542400000002 10.6175994599999992
 18.6422562700000007  4.7870634299999999 12.6498343999999996
 17.2121887700000009  6.8120421300000000 14.0879276400000002
 14.9937963900000000  8.7360069399999993 15.7340616299999994
 13.6997559700000000 10.8900430499999992 16.7095691200000012
 11.8251636700000002 11.6114217199999992 18.7632365400000012
 10.3517077799999999 13.1930458200000000 20.4342363200000001
  8.7232321800000001 15.0192094600000008  2.1100659700000000
  8.5519479599999997 14.6385550599999998  5.4871317800000003
  7.5383253699999999 16.8466697699999983  7.4027996299999996
  5.2318930000000003 18.8268057700000000  8.5130211199999994
  3.3306743299999999  0.0293987700000000  9.7847182499999992
  1.8503458900000000  1.8226212300000000 11.6061557099999995
  0.1305859900000000  3.0959768099999998 13.6910911500000001
 19.1619201100000005  4.5031505500000000 15.8747078199999994
 17.0265400999999983  7.2866408600000003 16.8919697299999996
 15.1452740299999995  8.9029048599999996 18.3113689899999983
 13.6269197000000002 10.6351187700000001 20.4574421999999991
 11.8337671100000001 11.6590513700000002  1.7962400800000000
 10.0937648000000006 13.2198005500000004  3.7642915499999998
 10.7225165499999999 12.9758522200000002  7.1868144500000000
  8.9476453399999993 15.0220701999999999  8.4711400399999999
  7.3434642300000004 17.0554092100000005  9.8797035900000001
  5.0946007800000004 18.4401436700000012 11.5725865399999996
  3.2685349700000002 -0.1649647900000000 13.4822382899999997
  2.2012361600000001  1.5190579600000000 15.1640749100000001
  0.5028852300000000  3.4521073699999998 17.5857603800000000
 19.4914172599999986  5.8163879100000004 18.5600649500000010
 16.9293690000000012  6.3997415799999997 20.6551575599999993
 15.0769032799999998  8.5217509099999997  1.6044300000000000
 13.3939465000000002 10.2201385499999997  3.6550728800000001
 12.4963596799999994 12.0569359299999999  5.5669630999999997
  3.6143491299999999  3.5757599400000002 17.5190343000000013
  1.9958852000000000  5.9894025400000004 18.8889822999999986
 -0.0425298500000000  6.7760669699999996  0.3685809400000000
 18.8170774300000012  8.2901388800000007  1.2386154000000000
 17.2306963400000015 11.0680335599999999  3.0964312100000000
 15.7849026899999991 11.7992535699999994  5.3042131699999997
 13.4547834300000009 13.8052338599999995  7.1284452399999996
 11.8776011599999993 15.5259318799999999  8.6186231200000005
 10.0595990499999992 17.4618792999999997  9.5593332699999998
  8.1979358199999997 18.7255019300000001 11.9588908699999994
  6.7687095700000004 20.7195625800000016 13.7713487600000004
  4.9359487800000004  1.3688332599999999 15.5131227700000007
  4.9195761200000003  1.2015101800000001 18.8983533900000005
  3.4460660399999998  3.6448045200000001 -0.3271448400000000
  1.8128912900000000  5.1166473500000000  1.8862445500000000
 -0.1692519300000000  6.5989888600000004  3.5688780200000001
 18.4345625800000015  8.3903155999999992  5.0073715099999996
 17.5596129800000007 10.4085811800000005  6.8482776400000001
 15.1175661800000007 12.2596606700000006  8.9919513500000008
 13.2232010899999999 13.5446628100000002 11.1530164799999998
 11.4691422200000002 15.8509796800000000 11.6298169799999993
  9.7268720900000005 17.3080200799999986 14.3099259100000005
  8.1520285399999999 19.1767357800000013 15.5872761700000009
  6.6379074500000002 20.7147382299999983 17.3413378099999989
  6.2735603099999997  0.0787203600000000  0.6398945800000000
  5.1585399599999997  2.2326015199999998  1.9312656100000001
  3.5621377299999999  4.3683104500000001  3.5544718600000000
  2.1785555400000001  5.3103972199999996  4.9258409700000003
  0.0669391500000000  7.0178714099999997  6.5007105300000001
 19.0296311200000012  8.0503738899999995  8.3139530900000000
 17.6717379000000001 10.2862233900000000 10.1472567399999996
 15.9709471900000004 11.5383376400000000 12.0649198099999992
 13.6618030699999995 13.8477579300000002 13.6322087900000000
 11.9128333299999998 15.7771074000000002 15.6004416599999995
 10.0874675499999995 17.6749729500000008 17.2041322600000015
  8.5294071200000001 19.3889180100000011 19.3660427099999986
  8.9474124400000008 18.5687778399999992  1.8462595300000000
  6.6236200900000002  0.0356961700000000  3.0162781500000002
  4.8220639700000003  1.5539131600000000  5.0388080999999998
  3.5990560299999999  3.7917965300000001  6.7900464899999999
  1.2555376000000000  4.9233617100000000  8.5445666899999999
 -0.2503484900000000  6.7822325399999999 10.2216021099999992
 18.6645432800000002  8.4305878100000005 11.8711158900000004
 17.4755011499999995 10.2019869500000002 13.8928480800000003
 15.9813572900000000 11.9937973600000003 15.1114440400000003
 13.6373817200000005 13.6663885300000008 17.1167676799999988
 12.0376983499999994 15.0523687299999995 19.0822287999999993
 10.0307088600000007 16.7712836000000003 20.2364837299999998
 10.4547729300000007 17.3436779700000017  3.3899854899999999
  8.6817852099999993 18.9389013499999983  4.9803651000000002
  7.0533308400000001  0.2238215400000000  6.5526568799999998
  5.1444079599999997  1.8376639400000001  8.1956106299999991
  3.5244360600000002  3.1740177100000002  9.6218859800000001
  1.8877080100000001  5.1472040200000002 12.6166887200000009
 -0.0914825100000000  6.1948465700000002 13.7289027099999998
 19.1717657899999985  8.5318171799999991 15.2490419199999998
 17.6022921600000011 10.6642091800000003 16.9236148799999988
 15.9282223199999997 12.1115416299999996 18.6200179500000012
 13.6423068099999991 13.2839407099999995 20.7672969000000016
 11.6875137400000000 15.2443553699999992  1.6882401600000001
 11.8708285000000000 15.4347529699999999  4.8102339299999999
 10.2043237700000002 17.3561488200000014  6.4875809899999997
  8.4238164700000002 19.8548561100000001  8.6224630500000004
  6.8130051299999996  0.4824737700000000 10.1104686899999994
  4.8993423900000002  0.9958710900000000 11.8232266100000007
  3.9211896400000001  3.4033642400000002 13.3918716399999997
  1.9984656199999999  5.4338319500000001 15.7922915499999998
 -0.1411174500000000  6.8592943999999996 17.5254451200000005
 18.9332665300000009  8.5353901899999993 19.0237991599999994
 17.1965682300000005  9.8005268000000001 20.6868060400000005
 15.1050518100000009 11.5877765499999992  1.3785769500000000
 13.7393169400000001 13.7068034700000005  3.6622327700000001
  5.4149283300000004  5.0978546800000002 14.9450762400000006
  3.7896868200000000  7.6221692399999998 17.2563858000000003
  1.4035393700000001  8.5400888199999994 18.8197821800000007
  0.0509966500000000 10.8734211799999994 -0.3038668600000000
 18.9927866499999993 12.0590197499999991  1.0806640000000001
 17.1097130100000001 13.8269415799999997  3.1128677599999999
 15.1768262400000005 15.4199438400000002  4.8253507800000000
 13.5733237500000001 16.8769542699999988  6.9774610199999998
 12.0820097299999993 18.6718397699999983  8.6991871399999994
 10.7010316700000008 -0.1763364900000000 10.5771837800000004
  8.8287246400000008  1.3059393300000000 12.0909338399999999
  6.6849375999999996  2.9970964900000001 13.2476537800000003
  6.6594142900000000  3.3449172100000002 16.8628734000000016
  5.3879173600000003  5.4313074500000003 18.7598928399999991
  3.5537317300000000  6.7398966500000004 -0.1536385800000000
  1.9527349800000000  8.9674108799999992  1.4785933200000001
 -0.5238328400000000 10.1598925799999993  3.2671544500000000
 18.9036715099999988 11.8838992999999995  4.9353914899999998
 16.8258816200000005 13.5943835499999999  6.6530735400000003
 15.2973457499999999 15.5703252800000005  9.0442000900000004
 13.6506772099999996 17.4118287500000015 10.1031900500000003
 11.6999538300000001 18.6181169000000004 12.5979011500000002
 10.4860257000000008 20.5259517400000000 14.3176416300000007
  8.9028648500000003  1.7477419000000001 15.4949437400000001
  8.4354520500000003  1.6094552900000001 19.3074771799999994
  7.2035325500000003  3.7715939000000001  0.1078334700000000
  5.4588760399999998  5.3199460600000004  1.5936245099999999
  3.3323445899999999  6.9996960599999998  3.3745324399999999
  1.2006226000000000  8.7265551400000003  4.8380124400000000
 -0.1484350800000000 10.4019660100000007  6.8930379799999999
 18.7207308200000000 12.5860225900000007  8.9730547600000001
 16.9432556000000005 14.0068440800000005 10.1616101699999994
 15.7583318000000006 15.7417304199999997 11.9857047800000007
 13.1676402400000008 16.7072530599999993 14.1268570100000002
 11.8612661900000003 18.7672774500000017 16.1366918900000016
 10.0732355299999998 -0.2048245600000000 17.7829159300000015
 10.5892143000000001 -0.2048668900000000  0.3183607600000000
  8.1967396600000004  2.4840106700000000  2.0528501100000001
  7.0136560599999997  4.2631225400000003  3.8838636100000001
  4.9957935500000001  5.7124679799999996  4.7185892100000002
  3.4542874499999998  6.6095209199999996  6.7501942100000001
  1.8236583000000000  8.4253969600000005  8.0509229399999995
 -0.0795585100000000 10.3920693800000006  9.8631672199999993
 19.0055856399999996 12.2170946800000007 11.8460199100000008
 17.2113769199999993 14.0741499599999997 13.8779884399999993
 14.9061709499999999 15.7708122599999996 15.2384714399999996
 13.5414221000000001 16.9467259000000006 17.5276066700000008
 11.9252257099999994 18.5994693399999989 19.4294321900000000
 12.1190997300000003 18.9980344700000003  1.7687402999999999
 10.9249525199999997  0.3812209800000000  3.5655095800000001
  8.9463604599999993  1.4770133599999999  4.8970603500000003
  7.0269110899999996  3.7671377000000001  6.7291176300000002
  5.1033339299999998  5.3837490600000004  8.6269707199999992
  2.8001124399999999  6.8823557299999996 10.2743017699999992
  1.3555249300000001  8.6114751599999995 12.9396144199999998
  0.1573948800000000 10.5266212699999997 14.2652584699999991
 18.9204047499999994 11.8568626500000001 15.7100374200000008
 16.8436973499999993 14.3232993799999999 16.8066503699999998
 15.4101288200000006 15.8205024600000002 19.3722851600000006
 13.5917896400000000 17.0501814699999983  0.1233589200000000
 13.7318592299999995 17.2792506400000008  3.7492895800000001
 12.1644044900000008 19.3935487900000005  4.8185126800000004
 10.8939578699999995  0.5940865200000000  6.9300154599999999
  9.1573214499999995  1.4227003800000000  8.5560531100000006
  6.9654094600000001  3.2991285200000000 10.3176817399999994
  5.2982034300000000  4.9628325699999998 11.7587012299999998
  3.8263341000000000  6.8047842899999997 14.0152550100000006
  1.8647833700000001  8.4863258100000003 15.3948361600000005
  0.0724596400000000 10.2662732699999992 17.1657291900000004
 18.5117797000000017 12.6467565700000009 18.5608435999999983
 17.4609968500000008 13.8303552599999993 -0.0952268000000000
 15.7780415400000003 15.3980494500000002  1.9886895000000000
  7.0110726400000001  6.5312824599999999 13.4282065100000008
  5.4001581300000003  9.0013859099999998 15.1335382700000007
  3.6431495900000002  9.9834255200000008 17.0781028299999988
  1.8500319900000000 12.3113625700000000 18.8880154699999991
 -0.1060764100000000 14.0256679399999999 -0.7400414500000000
 19.0248976899999995 15.7620827600000002  1.8387568700000001
 16.6961942500000013 17.5581533999999984  3.2092927800000002
 15.5111489400000000 19.0916282399999986  5.3062673599999997
 14.3291186600000007  0.0832270400000000  7.1302579399999999
 12.0073386000000006  1.8814928900000001  8.6254507900000004
 10.6151266900000003  3.2894224099999998 10.2759529199999999
  9.1525087900000006  4.9931502900000000 12.1785069900000007
  8.4295430800000002  4.3450145200000003 15.2721378899999998
  6.6501030999999999  7.0223785899999998 16.4355105799999990
  5.7998329499999999  8.9356458799999992 18.9462943700000004
  3.8856818199999998 10.3385602500000005  0.0418264700000000
  1.6350783900000001 12.3551715899999994  1.4971394400000000
  0.0366293200000000 13.6685656800000004  2.8792537000000000
 18.6284145700000003 15.5191230499999993  5.0599562200000001
 17.0799702999999994 16.9395439100000011  7.0146751600000004
 16.0000129199999996 18.3634440800000007  8.5452506400000008
 13.1679574400000003 -0.1900960000000000 10.4607835199999997
 12.3733261199999998  1.0670961500000000 12.5685829400000006
 10.6272647800000009  3.0891850199999999 13.7567965999999995
 10.2947816900000007  3.2230402800000002 17.9546025200000017
  8.5932150299999996  5.3697175000000001 18.8416508000000000
  7.0108197700000003  7.4971728300000002 -0.2497444500000000
  5.2932711200000000  8.4513154099999994  1.6472188299999999
  3.4281004600000000 10.5602933199999995  2.8880909300000002
  1.4206993000000001 12.2541347500000004  4.5221132600000002
 -0.3150379600000000 13.8601077200000002  6.4829574299999999
 18.6974467900000008 15.3217869800000006  8.5466906599999994
 17.8033071400000011 17.3123912000000004 10.0122033399999992
 15.3878238199999995 18.3634678800000017 12.5214577699999996
 13.9893538999999993 -0.7036593200000000 14.5937245099999995
 11.9564812200000006  1.3406849199999999 15.9551177499999994
 12.3618676599999997  1.3493870800000001 18.7275660799999990
 10.1877537900000004  3.7514080700000001 -0.4313665600000000
  8.6244042600000004  5.4384072600000000  1.9444575099999999
  7.2596641300000000  7.5449619500000003  3.9429036000000002
  4.9815854599999998  8.8974936000000007  5.7022000000000004
  3.0509861599999999 10.4656180800000005  6.8235985499999998
  1.7352261300000000 12.9710684399999998  8.1053030100000001
  0.0271412100000000 13.9976804799999996 10.6360477600000003
 18.2660199399999996 15.4672494399999998 12.1862940700000006
 17.1386499800000003 17.1358510499999994 13.7397431599999997
 15.6449152300000005 18.7160715599999996 15.3052115200000003
 14.1547410899999999 -0.7475762600000000 17.3462376599999999
 13.4101820200000006 -0.0158926600000000 -0.2052334200000000
 12.6922877399999994  1.8072924299999999  1.4958069700000001
 10.7947501300000006  3.7305502300000000  3.6117382400000002
  8.7497010700000004  5.1883337999999997  5.0326643500000001
  6.5061186299999996  6.5840921899999998  6.1455436399999996
  4.6512419400000002  8.2173261600000007  8.9146517599999999
  2.8969687700000000 10.2515360199999996  9.8735426299999993
  1.8246830400000000 12.4715456200000006 11.7484271699999994
 -0.1522872200000000 13.5468214200000006 13.9310989000000003
 18.9801110500000014 15.7381291500000007 15.6270938800000003
 17.0590718000000017 17.4050187100000002 16.8784398899999992
 15.1394806899999992 18.7184428099999991 19.2728882900000009
 15.4860632099999993 19.0160376100000015  1.4402361299999999
 14.3829450800000007  0.2850737600000000  3.4760779899999998
 12.4337387699999997  1.7560697500000000  5.2619334200000001
 10.8445967900000007  3.7723837900000001  6.1078977700000001
  8.5660334700000007  4.4839736500000003  8.5191179699999999
  7.0465932499999999  7.2736747399999997 10.3284909900000006
  5.4244884899999999  8.8592543599999996 12.5430606499999993
  3.1094694000000000 10.3376545400000008 13.9189477799999999
  1.6921489000000001 12.3971554400000006 15.7562821599999996
 -0.4652019400000000 13.7164587800000000 17.4286078099999990
 18.3776320999999996 15.9537817999999998 19.3415886899999983
 16.8838447400000007 17.8047919999999991  0.5910228100000000
  8.7642386800000001  8.8918189200000004 12.3002196999999995
  6.8178749099999996 10.6347321699999995 13.6460106200000002
  5.1851351499999998 12.5482796099999998 15.6872762600000009
  3.6261410999999999 14.0436970100000007 18.0137853499999991
  1.5522922900000000 15.2891951899999992 18.8614111899999983
  0.0503000200000000 17.3528999299999995 -0.2328147100000000
 19.0929371900000007 19.2849169700000012  1.6125088800000000
 16.8316409200000017 21.1651966099999989  2.6448145400000000
 15.8896005799999998  2.1313498300000000  4.5783259100000002
 14.3997126299999998  3.1351445000000000  6.9739591699999997
 12.4618506199999999  4.6402215900000003  8.1321714000000007
 10.4245548699999997  6.2240346700000000  9.9485534500000004
  9.9030425999999991  6.4121425500000004 13.9977016600000006
  8.3032187799999999  8.4825528299999995 15.2168570899999995
  6.8163182899999999 10.5451790299999999 16.9530325600000005
  5.1829011899999999 11.8463044199999992 18.9589804400000013
  3.8085482000000002 13.7827378700000001 -0.1247192800000000
  1.7539583000000001 15.7588874099999998  1.5146954800000001
  0.0997739200000000 17.4323030500000016  3.3825616100000002
 18.4169962100000006 19.2904872599999990  4.7846028399999998
 17.0759847399999991 21.2760543800000015  6.8956734600000003
 15.1996577300000002  1.9513039500000000  8.7140400800000002
 13.5112396799999992  2.8965036199999998 10.8236707899999995
 12.4010450900000002  5.0807825900000001 12.3810934600000007
 11.7349105100000006  4.6207378800000001 15.7087083700000001
  9.6125246600000001  6.9478074799999998 17.0386700799999993
  8.5979420500000003  8.8943183300000008 18.5743729199999983
  7.4860227500000001 10.5319861899999996  0.0015275400000000
  5.2586093900000002 11.7837781400000008  1.7960583999999999
  3.3836557300000001 14.0612329700000007  3.3413591399999998
  1.0729103400000000 15.2601869000000008  5.2521944500000002
 -0.5284643900000000 17.2029456699999983  6.6193681199999999
 18.9709773199999994 19.1476516200000013  7.9239360500000000
 16.8715387200000002  0.3299623500000000 10.8061743999999997
 15.1853143399999997  1.6956165000000001 12.5537209300000008
 13.7360525199999994  2.8003087600000001 14.3710009500000009
 13.3993283000000005  3.0277212499999999 17.0237642399999984
 11.6199060999999997  5.4315753000000004 18.5948350299999987
  9.9965378099999995  7.5829107400000000  0.0892279600000000
  8.9052974200000001  9.1442220600000006  2.0620297500000002
  6.6403298399999997 10.3392953900000002  3.6301448299999999
  5.0289640000000002 12.2357492099999998  5.0721800000000004
  3.4603912399999999 13.6432537499999995  6.4574371900000003
  1.9069398900000001 15.2958280799999997  8.5598831499999992
 -0.1873691800000000 17.1974366299999986  9.8883611299999998
 18.6800565100000000 18.8179654499999991 11.9066279300000009
 17.3170719400000017 20.7145366799999984 13.7246422999999993
 15.2968208200000007  1.0928718300000000 15.7278512999999993
 14.8814499100000006  1.5538321300000000 18.7201164999999996
 13.8718221199999991  3.7991738599999998 -0.7041035000000000
 12.2628356200000006  5.1751086099999997  1.4464475400000001
 10.6701229099999999  6.6967826199999996  3.4639604400000001
  9.0034445299999994  8.6122494799999991  5.5022513100000001
  6.2761200600000002  9.9737324500000000  7.5960004200000002
  4.5663844999999998 11.9660010700000008  8.7041743599999997
  3.9772853399999999 13.7109807499999992 10.7365897799999992
  1.1836546699999999 15.6889244100000003 12.2828793800000007
  0.1525983000000000 17.1510776900000010 13.5300848400000007
 19.1132219499999998 18.6180411799999987 15.3057319300000003
 17.3672661300000009 20.4420988699999988 17.6164279700000002
 17.6109231599999987  0.5307012000000000 -0.2645553100000000
 15.1550392600000006  2.1376514100000001  0.8925182400000000
 13.7343402000000001  3.5175045699999998  3.5012043799999999
 13.0376551400000000  5.3004041199999996  5.1847053100000000
 10.3520891699999993  6.7594473900000001  7.0302780800000004
  8.6923320299999993  7.8697665800000003  8.2799009399999992
  6.8363063400000001 10.1959617900000001 10.2489010900000004
  5.2629275299999998 12.1698209100000003 11.7110013100000003
  4.0110398399999996 14.5500760400000004 13.6164375500000006
  1.6894796000000001 15.4681246300000002 15.3713445400000008
  0.3928687000000000 16.8369400700000007 17.3051607599999997
 19.0825692800000013 18.7298747299999988 19.7217342199999983
