Li                                      
   1.00000000000000     
    21.2169999999999987    0.0000000000000006    0.0000000000000000
     0.0000000000000006   21.2169999999999987    0.0000000000000000
    -0.0000000000000006   -0.0000000000000006   21.2169999999999987
   Li
   500
Direct
  0.0013167238535132  0.0182743267191370  0.0295072022434866
  0.0051891789602649  0.1219576858179749  0.1034377089126650
  0.0013384144789583  0.2060825965028030  0.1958898279681378
  0.9848033147947390  0.2847017278597335  0.3195162779846328
  0.9859578064759376  0.3789494707074539  0.3966013861526108
  0.0066732502238764  0.5037546236508490  0.4912251515294344
  0.0102775005891473  0.6064555271716046  0.6017061059527720
  0.0288702945751069  0.7008672262808133  0.7073856831785861
  0.0019778371117525  0.8205709223735695  0.8106595593156456
  0.9953254248951282  0.9156732167601476  0.9256306777583987
  0.1284982971202311  0.0403947471367303  0.1033581062355680
  0.1163891987557122  0.1236128660979432  0.2043512131781142
  0.0995826780411946  0.1869533147947422  0.3071425644530308
  0.0921181660932291  0.2846126587170659  0.4121073148890062
  0.1067320983173872  0.3829955526228943  0.5078417556676271
  0.0938575137861122  0.4925474270632009  0.5974129957109895
  0.1041863618796270  0.6054275529056881  0.7203410552858571
  0.1037430461422417  0.7172426747419536  0.8135207083942149
  0.1167159730404848  0.8172407866333629  0.9255853480699443
  0.1010574746665398  0.9304674237639645  0.0160727251732098
  0.2004991205165680  0.0019830046660729  0.2225788495074710
  0.2047959466465556  0.1055502691238175  0.3298627609935423
  0.1973262629023864  0.2040171442711056  0.4019840293161110
  0.2013657232407979  0.2955642216147396  0.5059470702738338
  0.1966362261394181  0.3972448593109306  0.6045911881981425
  0.2189562162416934  0.4999553952019582  0.6993235834472387
  0.1862754475184971  0.6061106904840443  0.7961879530565099
  0.2155892986755887  0.7049496526370334  0.9196402733656939
  0.2007218659565453  0.8153105354197123  0.0131848814629763
  0.2207528015270768  0.9071898991374852  0.1055080378941398
  0.2968240542960814  0.9857001117028830  0.3128601687326196
  0.2994198496488636  0.1173493472215696  0.4052525140217753
  0.3119910911061865  0.1922329778008205  0.4894412042230272
  0.3148421171701941  0.2800104623650839  0.5819390912947142
  0.3032908021869289  0.3910511156148360  0.6912488872130851
  0.3035399948154804  0.5045597502003076  0.7933135217042917
  0.2983740453409993  0.5941113894518537  0.9022648597822496
  0.2956821030305861  0.7200166196917550  0.0038358698213727
  0.3078202384880058  0.8129112471131634  0.1045788377244676
  0.2780599698355104  0.8891520596691365  0.2162617683932666
  0.4057595899514510  0.9942765258990462  0.4011967379931178
  0.4259481453551430  0.0765725078946105  0.4832930074939910
  0.4221030923316178  0.1814266630532089  0.5617240665504042
  0.3780961676957162  0.2901206579629516  0.6912956124805589
  0.3749573601357383  0.3919957821558171  0.7748416920394021
  0.3965823217231446  0.5032396380261090  0.8943656035254719
  0.3887780232832156  0.5919770047603308  0.9873584776358584
  0.4195998977235220  0.7020482056841217  0.0991563039072432
  0.3852944959230840  0.8092583206862400  0.1975755672338195
  0.4059167247961568  0.8800812541829686  0.3100705076118189
  0.4971873290286126  0.0040082966489123  0.5017733647546763
  0.5055672663430286  0.1142962869397195  0.5918027360135767
  0.4993808422491384  0.2082438648253770  0.7005863406702204
  0.4835374553424145  0.3197733020690947  0.7833013889805329
  0.4816323961917348  0.3978986572088417  0.8771657543479279
  0.4929924141018986  0.4899150671631247  0.9773364066550414
  0.4938137922420722  0.5852986718197641  0.1076045454116965
  0.4791841829664918  0.6880126167695693  0.2064765909412287
  0.4932647287552427  0.7765598496488693  0.3106941315925908
  0.5168854767403488  0.8840529679030951  0.3965411118442788
  0.6215359834095295  0.9876207050949688  0.6028067318659538
  0.5965000188528080  0.1012751317339848  0.6766405245793479
  0.5945311693453377  0.2125815624263581  0.7844028745817013
  0.6108554168826856  0.3073397214497788  0.8910843078663362
  0.5864052222274623  0.4190389319885028  0.9912636626290237
  0.6156916986378818  0.4949697808361222  0.0894633562709117
  0.5968773624923429  0.6040412461705245  0.1986953018805693
  0.6213673177169241  0.7039770424659437  0.3078875679879332
  0.5990515299052674  0.7778234920111231  0.4010217731064714
  0.6100512848187805  0.8875600344063699  0.4915113093274286
  0.6858367106565524  0.0000377447329996  0.7109639119573927
  0.6667619743601847  0.1053038902766659  0.8100374449733678
  0.6754342588490374  0.2019409633784264  0.9012914606212021
  0.6757576292595573  0.3177030456709247  0.0139572804826287
  0.6984976137059888  0.4076322029504666  0.0853684809351023
  0.6869149714851304  0.5001854418626550  0.1989016034312101
  0.7039317471838586  0.6046307140500531  0.3026759499458009
  0.7221371207050922  0.6970887071687812  0.3999339326954825
  0.6990256624404978  0.8002264057124009  0.4953751538860374
  0.7134439788848539  0.8859072371211738  0.5891224885704887
  0.8031428387613673  0.0036388325399415  0.8062081920158377
  0.7865527982278380  0.0991187015129356  0.8831985063863854
  0.7888182363199334  0.1965191120328029  0.9880323429325557
  0.8016160366687117  0.3004758208040741  0.0904315902342461
  0.7933625078946136  0.3932712541829630  0.2000089376443412
  0.8001300273365715  0.5084886642786444  0.2776554018004447
  0.8241320931328673  0.5937936418909331  0.3760899688928703
  0.8158849304802729  0.7038464434180156  0.5124586228024697
  0.7979920832351439  0.8009551086393003  0.6014777089126611
  0.8043306763444420  0.9116772258094912  0.6935220427016091
  0.9112209779893448  0.0111062633737120  0.9081630183343563
  0.8837904223028730  0.1042173403402913  0.0052013583447206
  0.9006042461233932  0.1997739114860693  0.0994037667907790
  0.8881563477400221  0.2888311123155987  0.2033323471744382
  0.8851598458783059  0.4040866889758234  0.3083762605457920
  0.9166899684215508  0.4932652712447592  0.4028940934156537
  0.8989590394495011  0.6142509134184877  0.5125088000188498
  0.9154548465852841  0.6932228194372456  0.6065863222887273
  0.9156851934769321  0.7833673313852074  0.6888086590941214
  0.8975091148607248  0.8835065975397072  0.8006620983173889
  0.1130565061035966  0.1222959315643095  0.0122784281472406
  0.1013646118678437  0.2153481505396613  0.1077452547485507
  0.1191673097044799  0.2978013097987429  0.2185749728990913
  0.1022972588019044  0.3941964754677869  0.3353142715746813
  0.0961318141113239  0.4838250402978730  0.4109183678182617
  0.0941569835509242  0.5992790045718053  0.5055909082339625
  0.0977126078144863  0.7173874619408949  0.6205852547485478
  0.1146745298581351  0.8163208677004263  0.7098646297780107
  0.0953477206956705  0.9004881642079496  0.8227533360041477
  0.0894715039826579  0.0033939883112595  0.9043124447377124
  0.2111708596879893  0.1202332954706122  0.1081091511523766
  0.2004463133336500  0.2164126827543953  0.2096475392374018
  0.2078031503040023  0.3079024574633564  0.3265158811330551
  0.1796450054201841  0.3852408351793386  0.4299796719611635
  0.1945874638261742  0.4922785374935188  0.5235624668897572
  0.1955668911721702  0.5983925658669946  0.6177169104962985
  0.1782754767403532  0.6983370024037328  0.7033807399726655
  0.2038640128199063  0.8108096672479590  0.8194524499222311
  0.2060807819201571  0.9245374633548593  0.9200735155771298
  0.2196018070415207  0.0020899646509847  0.0026834670311544
  0.2835608912664398  0.1130366088513952  0.2073731229674323
  0.2996676697930880  0.2038356440590121  0.3111883593344942
  0.3066086520243232  0.2868258127916263  0.4214297318188258
  0.3078470613187534  0.3898381759909526  0.4942795352783165
  0.3013629188858005  0.5011708606306229  0.5878668251873478
  0.3089323679125258  0.6192375962671477  0.7108376740349698
  0.2836593519347659  0.6978151152377805  0.8168150723476444
  0.3076166814347019  0.8299780204552931  0.9142709534807025
  0.3106533977470889  0.8994612852900943  0.0157876023943047
  0.2951625210915765  0.0007183244568054  0.1233650360559935
  0.4149206457086265  0.1103970198425799  0.3079267865390989
  0.4319352278833009  0.2089557411509659  0.3974405241080277
  0.4321267050007052  0.2935114813592890  0.4822845604939445
  0.3862513295941952  0.3904141876796885  0.5687918730263490
  0.3995875420653263  0.5220258867888958  0.6948503308667568
  0.4157031602017227  0.6026553659801124  0.8110041297073067
  0.3805146373191306  0.7187601955978664  0.9105870108874967
  0.4183407644813144  0.7915573926568342  0.0142135273601340
  0.4010694339444782  0.8906421247113130  0.1144950798887692
  0.3900416991092044  0.0066863321864545  0.2080996384974299
  0.5228347428948510  0.1165373224301263  0.3880037177734863
  0.5329404237168305  0.1991780034877664  0.4719330484988475
  0.5030754164113702  0.2955580341235802  0.6097488513927516
  0.4759400697553815  0.3913310161662835  0.6901338422020089
  0.4872711344676404  0.4753186425979194  0.7906623113541045
  0.4923626365650193  0.6153906061177352  0.8779143931752813
  0.5004532054484585  0.6967314620351601  0.9911678705754809
  0.5017920474148099  0.8048319201583638  0.1093077145685086
  0.4894231220247889  0.8859696323702693  0.2116106871848018
  0.4961414304567100  0.9752835834472364  0.2963141815525319
  0.6079779733232797  0.0953191949851515  0.5091315242494261
  0.6029243281330992  0.2066134915398052  0.5810605731253204
  0.5874782259508891  0.3152609247301683  0.6954691313569299
  0.6030496832728502  0.4092852533345877  0.8004919022481971
  0.5892400311071313  0.5094439760569358  0.8800822892020577
  0.5782041532733189  0.5928359249658257  0.9866927831455925
  0.6059516811990378  0.6848896639487236  0.0966481321581725
  0.6053850553801183  0.7728835716642308  0.1960935542253850
  0.6041588202856190  0.8698843545270307  0.3009839180845546
  0.5931386539095982  0.9964357623603703  0.3900975529056865
  0.7058161676957155  0.1003586185605911  0.5917954795682689
  0.6813264773530676  0.2211091492671002  0.7080181260310141
  0.7016855328274474  0.3170461101946529  0.7970681495970240
  0.6826072111985653  0.4110570320969060  0.9057115393316693
  0.7086255978696343  0.5157783758306991  0.9817893118725536
  0.6914198491775494  0.5969751741528029  0.0779714954988933
  0.7206598006315659  0.7106444926238424  0.1776249851534146
  0.7149499929301939  0.7868902743083410  0.3034852071452150
  0.6857194834330969  0.8897287165951866  0.3937856280341236
  0.7246555479096983  0.9882019286421269  0.5065738747231023
  0.7846386694631633  0.0975599132770881  0.7238671395579033
  0.7790528406466493  0.1923778314559073  0.8120981783475543
  0.7864891021350786  0.3055695536598009  0.9103496432106297
  0.7931247509072890  0.4073324979968902  0.0066670976104035
  0.7968682080407206  0.5115980906819999  0.1073289070085295
  0.8033918202384882  0.6115908243389754  0.1851586397699947
  0.8106366234623152  0.6991870080595746  0.2931237031625571
  0.8369713314794751  0.8260576716783703  0.3888136126690895
  0.8322870009897727  0.9100192977329513  0.4883207852194005
  0.7985782938209951  0.9875311966819069  0.6005290158834882
  0.9099451340905844  0.1049107277183410  0.8228722948578948
  0.8982799519253462  0.2163998421077409  0.9174991483244597
  0.8815539015883473  0.3111024456803477  0.0108165112881196
  0.9019337526511748  0.3883089461281060  0.1190743234199019
  0.9101109252014865  0.4896917580242288  0.1935968223594315
  0.9246985921666564  0.6045115454588270  0.2940404510533980
  0.9067448640241338  0.6974842890135236  0.3975185313663587
  0.9198396267144275  0.8035619258142077  0.5064800254512889
  0.9048310114530835  0.8874968949427355  0.6088435565819879
  0.8609255978696311  0.0070088447942709  0.6971188320686252
  0.0048327162181252  0.1116855889145469  0.9200206612621926
  0.9990950468963575  0.2108265117594357  0.0164772489041809
  0.9909908738275917  0.2944058410708408  0.1240346462742110
  0.0041864245652050  0.3855210585850983  0.2270337847009500
  0.0067733190366184  0.4897826261959750  0.2990097605693549
  0.0122047914408228  0.6156287811660448  0.4010674963472667
  0.0088023490597138  0.6930692562567771  0.4992227303577295
  0.0039622995710999  0.8093136400056551  0.6009907701371517
  0.9883631017580257  0.9001736909082325  0.7021932803883644
  0.9858408167978538  0.9864270580195154  0.8017730381298023
  0.2000503021162245  0.1794951859358065  0.9829815888202873
  0.1992442475373508  0.2845081609087075  0.0785159018711425
  0.1790233496724341  0.3912051260781482  0.2006617834755176
  0.1841536536739383  0.4981703944949771  0.3130811962105824
  0.1704745817033526  0.5769844945091194  0.3963481495970242
  0.1667265975397072  0.6946363496252985  0.4959267752274101
  0.2086470938398435  0.7917630301173588  0.6122783857284233
  0.1854645873591920  0.9202631908375380  0.7039748027525121
  0.1987877725408893  0.9934824862138854  0.8083458542678059
  0.1792545373992525  0.0897318178818907  0.8910640641938059
  0.2967667587312093  0.2255074741952185  0.0818527143328467
  0.3022079144082568  0.2917527638214636  0.2141405146816240
  0.2704421892821784  0.4055679516425528  0.3205387396898729
  0.2953728778809435  0.5012206622048367  0.4104256252062015
  0.2839260880426053  0.6120327322430157  0.4861711160861546
  0.2750749667719248  0.7090643248338608  0.6139455031342820
  0.2587159494744782  0.7959245468256597  0.7169711660460933
  0.3020776646085679  0.9084533680539195  0.8023241226375077
  0.3225418395626178  0.9949255234010437  0.9064371513409029
  0.2981523419899119  0.1109243780930385  0.9897709049347228
  0.3927680331809427  0.1924086557948783  0.2040472102559292
  0.3970235457416251  0.3149339213837976  0.3051139091294743
  0.3857289494273459  0.3981015864636817  0.4044444855540377
  0.3881961191497396  0.5062508889098396  0.4949445067634457
  0.3800124202290647  0.6213152302399010  0.6113739798274977
  0.3876689107790909  0.7358837814017036  0.7109576415138790
  0.3848902992883083  0.8235367639157261  0.7998142008766536
  0.4145641975774126  0.9132602592260923  0.9138429061601556
  0.3993403110713132  0.9980780515624232  0.0332044332375006
  0.3831937521798565  0.1119756841212265  0.1007798840552354
  0.4892775585615325  0.2242132921713704  0.2771420158363611
  0.5053793382664864  0.3326314134891817  0.3625768515812808
  0.4945591813168662  0.4061151133524987  0.4923292769948659
  0.5009798185417367  0.5014699387283770  0.6040191393693704
  0.4947892506009310  0.6011123368053930  0.7141495069991066
  0.4895601112315617  0.7278613277089150  0.8157192751095792
  0.4845836428335772  0.8191913908658179  0.9160180718291926
  0.5063470580195144  0.9087827567516626  0.0310273733327051
  0.4932652377810243  0.9925610543432128  0.1101810515152977
  0.4952143823349218  0.0920154291370139  0.2125597167365783
  0.5923724942263249  0.2137009996700741  0.3808965461658076
  0.5975914917283305  0.3017462256680972  0.4835337347410089
  0.5862222637507628  0.4006017160767286  0.5741376306735191
  0.5854728642126616  0.4909546297780096  0.7033005231653888
  0.5659334363953406  0.6118576122920274  0.7939737677334193
  0.5869666489136094  0.7204421831550150  0.9166686883159727
  0.6151096677192811  0.8015293373238421  0.0062599476834606
  0.6044034043455753  0.8837669976905289  0.1223231743413322
  0.5957369170947828  0.9834951152377798  0.2228814676910034
  0.5988450450110747  0.1016688985247711  0.2841556124805606
  0.6917748225479556  0.1963223504736789  0.4876011533204476
  0.6995925239194989  0.3028409624357806  0.5893155794881437
  0.7200268600650404  0.4107908997502037  0.6871871574680668
  0.6833138520997295  0.4867020606117762  0.7848610920488284
  0.6734765339114830  0.5978107484564248  0.8824265607767359
  0.7182982429184150  0.6711999830324729  0.9899526554178237
  0.7190088900410032  0.8083452698307951  0.0989197266342998
  0.7103709685629411  0.8818200933213944  0.2228236706414677
  0.6763484253193184  0.9733607164066527  0.2943302945751043
  0.6779059805816061  0.0992716449073825  0.4051343191780177
  0.7798364599142218  0.1964020596691327  0.5964439524909295
  0.7870015803365220  0.2946739091294717  0.7179330070226726
  0.7979140679643706  0.4253094419569194  0.8203847155582764
  0.7847677409624367  0.5168031328651566  0.8881602370740467
  0.8230645067634441  0.5842144115567720  0.9945732879294908
  0.8090384234340391  0.7002513385492790  0.0841066724796136
  0.8068556581986144  0.7914628340481684  0.1977552118584143
  0.8288817943158762  0.9109864325776513  0.2901501941839086
  0.8058404472828400  0.0075111500212088  0.3936111622755334
  0.8116272498468220  0.1114856718669017  0.5021925762360340
  0.8885407974737234  0.2053128510156981  0.7139888905123257
  0.8963643752651151  0.2903860668332001  0.8078090752698301
  0.8871853061224471  0.4126612541829644  0.9060833048970167
  0.8988003398218396  0.4944564834802279  0.0154910538718980
  0.9146018489890153  0.6081947777725389  0.1054524056181378
  0.9147391011924384  0.7024099971720759  0.1833188938115669
  0.9150843818636005  0.8100244492623858  0.3076744195692100
  0.9239115002120926  0.9402114243295472  0.3898924852712469
  0.9117984498279696  0.0027699919875559  0.5120608012442887
  0.8813403987368602  0.0926824565207127  0.6205460489230319
  0.0094905882075693  0.2268071122213300  0.8086490111702886
  0.0082198152424908  0.3156788650610380  0.9127322086063074
  0.9966668643069241  0.3932316764858399  0.9972047198001590
  0.0067331682141685  0.4888937583070145  0.0983232935853309
  0.0236225060093318  0.5879505118537054  0.2053272498468175
  0.0219207187632549  0.7057379337323866  0.2988969906207259
  0.9979303270961992  0.8161748960739033  0.4144890012725639
  0.0044878404109880  0.9267340590092843  0.5070066941603457
  0.9800171423858259  0.0086657416222806  0.6270677518027981
  0.9960308210397315  0.1193706197860180  0.7072259098835829
  0.0981065103454810  0.2115816576330332  0.8888476132346739
  0.1044839124287122  0.3066290898807580  0.9896553245039357
  0.1163431569024809  0.3872583692322209  0.0983263736626299
  0.1132779803930788  0.4996248503558434  0.1967360197011843
  0.0995185252391977  0.5916319917990265  0.2948600763538707
  0.0892913145119465  0.7310946307206478  0.3738871178771745
  0.0944704048640261  0.8075922868454555  0.5107175104868702
  0.0968005731253214  0.8904323599000818  0.5942230023094695
  0.0950270792289203  0.9966809704482245  0.6931011156148372
  0.0974001734458199  0.1126742041758959  0.7951856181364008
  0.3073604501107567  0.2880984437008038  0.9898791158033617
  0.3188466588113315  0.3631049285949928  0.1190731531319216
  0.3147544176839361  0.4766807979450434  0.2125239689871350
  0.2914404190036279  0.5916596865720862  0.3162494810764969
  0.2666458175048305  0.6863822307583547  0.3743356266201658
  0.2694049554602458  0.7835944520903055  0.4939689367016982
  0.2897905443747959  0.9040065131733996  0.5782461083093722
  0.3088021430928052  0.0119042607343189  0.6791504722628048
  0.3017454281943728  0.0935333576848763  0.7984178408823084
  0.2987760767309240  0.1831412862327397  0.9032621289531946
  0.4104982410331317  0.2951016731865934  0.1020396625347573
  0.4207529396238883  0.4010863793184711  0.1949143257765016
  0.4037821746712567  0.4988056346326033  0.3106716449073872
  0.4189116246406215  0.6057220540132917  0.4129504095772276
  0.3684968251873499  0.7103266484422903  0.5050668803318104
  0.3598481594947458  0.8029935377291793  0.6093757878116577
  0.3814842621482768  0.8876738676532980  0.6884321463920458
  0.3915431408776016  0.9920325941462025  0.7645902045529525
  0.4046339892539024  0.1023277442616788  0.8802380091436106
  0.4371489767639147  0.1872541787246078  0.0019731059999089
  0.5107389272752982  0.3069471480416652  0.2157617622661050
  0.5160305844370114  0.4008446283640481  0.3016468388556319
  0.5110847509072940  0.4978035829759122  0.4059187660838006
  0.4769466409011613  0.6041375043597128  0.5168093783287020
  0.4956929306688025  0.6938404812178902  0.5988207192345740
  0.4964671758495527  0.7786211867841857  0.6825514139605033
  0.4951193773860609  0.8821539628599737  0.7659628043549986
  0.4668332634208383  0.9884485252391926  0.8980505844370086
  0.4991492967903071  0.0737906211999828  0.0010669345336254
  0.5052798529481066  0.1967317038224081  0.1008024923410460
  0.6241932045058221  0.3058476330301190  0.2925466046095124
  0.6275721002026700  0.4078632078050646  0.3936125036527329
  0.5971912933025436  0.5286384239053561  0.4997668256586678
  0.6009037201300842  0.6026501753310995  0.6149801673186630
  0.5927462511193866  0.7082494603384077  0.6882466003676271
  0.5806744077862120  0.8220372682283070  0.7999579134656187
  0.5872420577838540  0.9089082386765313  0.9090626478767021
  0.6041024315407455  0.9760359805816066  0.9831431215534678
  0.5991911665174143  0.0910682250082502  0.1059590606589040
  0.5983545944289972  0.2134683909129507  0.1857752957534018
  0.7104407772069550  0.2926287773954854  0.4017777145685031
  0.7054336018287231  0.4030835518687823  0.4903522934439337
  0.7119933157373808  0.4932204020361013  0.6032136286939718
  0.6850918207098076  0.6046730532120463  0.7140989178488937
  0.6896331875382913  0.6918645515388633  0.8051976382146364
  0.6985056756374632  0.7859950106047009  0.8897458570957255
  0.6859319394824936  0.8965180930386012  0.9796979483433077
  0.6764786237451119  0.9723507187632592  0.1059630437856427
  0.6914770584908325  0.0946929499929325  0.2100649983503828
  0.7104501583635781  0.2092264132535249  0.2885592779375017
  0.7984719950982679  0.2776583819578633  0.4943281505396584
  0.8133030013668261  0.3976783979827516  0.5860296168167025
  0.8148212358014817  0.5071137479379715  0.6954974614695786
  0.8043835075646868  0.5942563585803811  0.8110249535749645
  0.8008381976716805  0.7088238648253764  0.9122925521987071
  0.8107904911156112  0.8134420615544116  0.9988112301456411
  0.8165549578168481  0.8868182485742580  0.0948841758966879
  0.7872525182636565  0.0009155130320053  0.1891819413677709
  0.7817172027148018  0.0918668091624610  0.3114575491351275
  0.7892243055097339  0.1730224301267853  0.3885244558608676
  0.8758491261724117  0.2823892977329479  0.5960766545694511
  0.8874746608851396  0.3873408790121147  0.7186756878917819
  0.9139754941791978  0.5048521086864284  0.8054977767827651
  0.9201031432342006  0.5864817919592795  0.8966599769053119
  0.9097335584672663  0.7003522920299758  0.0019451736814844
  0.8955479643681983  0.7832415661969208  0.0892023886506124
  0.9142999919875550  0.9139087345053483  0.1716928604421000
  0.8962683833718259  0.0230944662299066  0.2651758735919287
  0.9085429928830635  0.0849900749399097  0.4035460197011815
  0.9112908007729672  0.1803033044256992  0.5103180360088615
  0.9793185304237184  0.2976641443182331  0.6770004043927074
  0.0053844497337039  0.3891912810482125  0.7965396182306606
  0.0128896799736040  0.4830492548428111  0.9231227718339099
  0.0151088994674069  0.5875287905924509  0.0049092534288562
  0.0018775415940055  0.6910173313852113  0.0626218659565438
  0.0066666154498733  0.8145658981005823  0.1901542211434233
  0.0054535207616553  0.9238576858179783  0.2896077070273861
  0.0181024070320959  0.0249519479662510  0.3840454809822305
  0.0017359428759960  0.0949135358439008  0.5093347480793682
  0.9851595206673878  0.1809282928783489  0.6211889758212763
  0.1032790451053387  0.3092880242258573  0.7937416109723330
  0.1105149983503821  0.4088426398642611  0.8811514215016274
  0.1322199095065244  0.4862623947777749  0.9989762016307679
  0.1205369354762666  0.5862819573926572  0.0895095541311193
  0.1054960574067962  0.7004792496582937  0.2024041791959306
  0.0998652976386865  0.8023021652448534  0.2797162657303076
  0.0921196347268705  0.9103206108309365  0.3950699769053116
  0.0783032775604440  0.0112502926898230  0.5172960366687107
  0.1009531611443677  0.1043988278267420  0.6011081250883734
  0.0987291907432706  0.2004257986520273  0.7102294575104864
  0.2019667879530544  0.2910173186595628  0.8874293104585931
  0.2105698317387024  0.3806126667295118  0.9943118951783916
  0.2134952858556787  0.4863755210444438  0.0994045388132179
  0.2093695159541866  0.5671748329169972  0.1947102997596275
  0.1930739312815177  0.6812085016731899  0.2941273582504564
  0.1928219917990290  0.7932316015459264  0.4102252175142596
  0.1824249776122926  0.8986883343545244  0.5123192279775637
  0.1831996036197410  0.9979683192722817  0.5857956308620444
  0.1879212654946514  0.0996281500683409  0.6776258259885921
  0.2227978545505991  0.1968444035443255  0.7911245746335496
  0.3932339812414583  0.3976265970683883  0.9886304453975612
  0.3849235678936722  0.5179952990526431  0.0796022340575959
  0.3817840085780304  0.5887675387660849  0.2140593255408376
  0.3897086967997367  0.6980944525616266  0.2908067502474410
  0.3903615657255983  0.7805546679549451  0.3920491247584508
  0.4039742093604204  0.8818794744780121  0.4905468940000972
  0.4157192925484310  0.9899349667719264  0.5884707234764548
  0.4150767752274120  0.0935944704717926  0.6834572606871845
  0.3939911552057325  0.1850464566149768  0.8023096705472028
  0.3973724819720061  0.2807100070697999  0.8906493024461497
  0.4859700829523490  0.3961849366074404  0.0691487877645258
  0.4812496432106315  0.4897487194231047  0.1847539774708977
  0.4997457458641676  0.6020746170523665  0.2821814233869091
  0.5051162892963177  0.6873442451807534  0.4023785247678759
  0.5174221454494017  0.7725745567233844  0.4847661823066431
  0.5066637403968528  0.8727431785832138  0.5851708370646165
  0.4909759056417045  0.9771728689258623  0.6714306532497503
  0.5098744615167092  0.0881783084319210  0.7883431158976322
  0.5017269255785450  0.1977032686053661  0.8931724046754965
  0.4984453612669100  0.3196356586699380  0.9903647122590371
  0.6084484045812317  0.4095805651128828  0.1891898171277759
  0.5976270434085862  0.5058687990762110  0.2844868826884124
  0.6117494117924309  0.5930591695338663  0.3986013790828125
  0.6078560135740219  0.6799913413771961  0.5040289451854676
  0.6067767700428917  0.7874796535796733  0.5878246929349089
  0.5996757534052861  0.8658872748267896  0.6994488386671094
  0.5764281340434536  0.9900132417401153  0.7882771876325592
  0.5632739845407002  0.1133437785737854  0.9037174553424165
  0.5931567785266552  0.2145519178017636  0.0030902549842082
  0.5839583536786535  0.3020750959136507  0.0975003228543159
  0.7006775599754889  0.3921084111797128  0.3012760616486787
  0.7008922882594177  0.5116036777112711  0.3869863779045133
  0.7047493575906145  0.5979715897629276  0.5056486605080863
  0.7175535226469307  0.6955405104397414  0.6169418866946330
  0.7148075576188901  0.7897535966442035  0.7163689729933509
  0.7001939529622447  0.8933998416364233  0.8036416090870517
  0.6745472055427228  0.0224488103878997  0.8638196691332425
  0.6826604793326112  0.0979501988971094  0.9918985257105177
  0.6890543248338616  0.1894184898901798  0.0872499420276185
  0.7172831319225139  0.2886763901588338  0.1762039435358460
  0.8009884950747050  0.4048718122260482  0.4014638224065621
  0.8041777918650155  0.4904639473064023  0.4868524183437799
  0.8127542696893997  0.6068964985624703  0.6273263251166483
  0.8064665174152807  0.6946509586652212  0.7172311236272790
  0.8236308408351789  0.7970743842202026  0.8114125177923341
  0.7974015963614107  0.9070779643681988  0.8914268864589729
  0.7884154145260851  0.9986879907621216  0.0016997473723919
  0.7672103572606872  0.1001591492670997  0.1129601904133466
  0.8039913050855461  0.2050611184427567  0.1920641546872801
  0.7928579921760885  0.3043264764104237  0.3009251444596330
  0.9052592444737684  0.4025564947919094  0.4943672262808150
  0.9094979950040027  0.5189885860394980  0.6030941641136849
  0.9209010566998188  0.6099798661450748  0.7076258486119613
  0.9159401150021225  0.7044000739972631  0.8183602389593219
  0.9108857166423121  0.7966497850780030  0.9104100890795124
  0.9077668921148145  0.9065748927746640  0.0144339798274942
  0.8935035594099077  0.0437837908281082  0.1004550157892226
  0.8805170872413655  0.1212084861196203  0.2056081227317748
  0.8838839303388824  0.1962845275015326  0.2963837832869842
  0.8837037616062560  0.2846706080030188  0.4121877489748798
  0.9842537964839551  0.3853895899514512  0.5941255601640165
  0.0130945963142750  0.5044572366498556  0.7128658698213712
  0.0170451963048492  0.5991842093604163  0.8224938652966927
  0.0102248748644982  0.7220582971202347  0.8853326884102373
  0.0198370679172371  0.8108449342508379  0.0056017938445621
  0.0046195857095697  0.9167383414243275  0.0991614874864482
  0.9972702375453650  0.0267324023188920  0.1834859018711441
  0.0133237243719648  0.1148651119385420  0.2944851600131955
  0.0051580393080997  0.1766983847857873  0.3982306037611352
  0.9900544110854526  0.2909287444030753  0.5014057779139378
  0.1029670174859803  0.3923640354432791  0.7079831347504353
  0.1231691082622390  0.4872223745110063  0.8070290842249150
  0.1145570848847655  0.6006546882217094  0.8901158401281961
  0.0984849794975702  0.6986628637413403  0.9956489187915381
  0.0906425390017418  0.8040038775510183  0.0939545053494868
  0.0902806843568840  0.9120975184993156  0.1823515553565542
  0.1093111504925304  0.0204498996088063  0.2751192812367407
  0.1044829113446752  0.1074350841306497  0.4120244714144334
  0.0927602893905828  0.1963096535796751  0.5052527313003736
  0.1031786685205276  0.2884012654946488  0.6124382820379850
  0.2366302705377734  0.3907500527878582  0.7961170773436379
  0.2115063944007147  0.5041765664325766  0.8907418570014585
  0.2100253782344339  0.6098603893104553  0.9982316222840169
  0.1980270994956896  0.7215751802799630  0.1121868200028260
  0.1761260286562631  0.7923096856294478  0.1939431606730437
  0.2029003926096991  0.9037575613894546  0.3014915690248401
  0.1970008295234962  0.9840642432954709  0.4202034382806232