Li 
 1.0000000000000000
    21.2169999999999987    0.0000000000000006    0.0000000000000000
     0.0000000000000006   21.2169999999999987    0.0000000000000000
    -0.0000000000000006   -0.0000000000000006   21.2169999999999987
 Li 
 500
Cartesian
  0.0279369300000000  0.3877263900000000  0.6260543100000000
  0.1100988100000000  2.5875762199999999  2.1946378700000002
  0.0283971400000000  4.3724544500000002  4.1561944799999999
 -0.3224280700000000  6.0405165600000004  6.7791768699999997
 -0.2979332200000000  8.0401709199999996  8.4146916100000002
  0.1415863500000000 10.6881618500000002 10.4223240399999995
  0.2180577300000000 12.8671669200000007 12.7663984500000005
  0.6125410400000000 14.8702999400000007 15.0086020399999995
  0.0419637700000000 17.4100532600000015 17.1997638700000017
 -0.0991804600000000 19.4278386400000009 19.6391060899999985
  2.7263483700000002  0.8570553500000000  2.1929489400000000
  2.4694296300000000  2.6226941799999999  4.3357196900000003
  2.1128456799999999  3.9665884800000000  6.5166437899999998
  1.9544711299999999  6.0386267800000004  8.7436808999999993
  2.2645349299999999  8.1260166399999996 10.7748785300000005
  1.9913748700000000 10.4503787599999995 12.6753115300000001
  2.2105220399999999 12.8453563899999992 15.2834761700000001
  2.2011162099999999 15.2177378300000008 17.2604688700000004
  2.4763628000000000 17.3393977700000015 19.6381443299999994
  2.1441364400000000 19.7417273299999998 21.5580150099999983
  4.2539898400000000  0.0420734100000000  4.7224554500000000
  4.3451556000000000  2.2394600599999999  6.9986981999999998
  4.1866713200000003  4.3286317499999996  8.5288951500000003
  4.2723765499999997  6.2709860900000001 10.7346789900000008
  4.1720308099999999  8.4283441799999999 12.8276112399999995
  4.6455940399999998 10.6075536199999991 14.8375484699999998
  3.9522061700000002 12.8598505200000002 16.8927197999999983
  4.5741581499999997 14.9569167800000002 19.5120076800000000
  4.2587158299999999 17.2984436300000013  0.2797436300000000
  4.6837121899999996 19.2478480900000015  2.2385640400000000
  6.2977159599999997 -0.3034007300000000  6.6379542000000002
  6.3527909500000002  2.4898011000000002  8.5982425899999999
  6.6195149799999999  4.0786070900000002 10.3844740299999998
  6.6800052000000001  5.9409819800000001 12.3470016999999999
  6.4349209500000004  8.2969315199999993 14.6662276400000007
  6.4402080699999997 10.7052442200000009 16.8317329899999990
  6.3306021200000000 12.6052613499999993 19.1433535299999988
  6.2734871800000001 15.2765926200000006  0.0813856500000000
  6.5310220000000001 17.2475379300000000  2.2188492000000002
  5.8995983799999996 18.8651392499999986  4.5884259399999996
  8.6090012199999997 -0.1214349500000000  8.5121911899999994
  9.0373418000000001  1.6246389000000001 10.2540277399999997
  8.9557613099999998  3.8493295100000000 11.9180995200000002
  8.0220663900000009  6.1554900000000004 14.6672190100000002
  7.9554703099999999  8.3169745099999997 16.4398161800000011
  8.4142871199999991 10.6772354000000007 18.9757550100000003
  8.2487033200000006 12.5599761099999991 -0.2682151800000000
  8.9026510299999995 14.8953567800000002  2.1037992999999999
  8.1747933199999991 17.1700337900000015  4.1919608100000003
  8.6123351499999998 18.6726839700000014  6.5787659600000001
 10.5488235600000007  0.0850440300000000 10.6461254800000003
 10.7266206900000007  2.4250243199999999 12.5562786499999994
 10.5953633299999996  4.4183100800000004 14.8643403900000006
 10.2592141899999998  6.7846301499999999 16.6193055700000016
 10.2187945500000001  8.4422158100000004 18.6108258100000015
 10.4598200499999994 10.3945279799999994 -0.4808534600000000
 10.4772472299999997 12.4182819200000001  2.2830456400000001
 10.1668508099999997 14.5975636899999994  4.3808138300000001
 10.4655977500000006 16.4762703299999984  6.5919973900000004
 10.9667591600000005 18.7569518200000012  8.4134127700000008
 13.1871289600000008 -0.2626515000000000 12.7897504299999998
 12.6559408999999992  2.1487544700000001 14.3562820099999993
 12.6141678200000005  4.5103430099999997 16.6426757899999984
 12.9605193799999991  6.5208268699999996 18.9061357600000015
 12.4417595999999993  8.8907490199999994 -0.1853588700000000
 13.0631307700000008 10.5017738400000002  1.8981440300000001
 12.6639470000000003 12.8159431200000000  4.2157182200000003
 13.1835503799999998 14.9362809100000007  6.5324505300000002
 12.7100763099999998 16.5030810300000006  8.5084789599999997
 12.9434581099999999 18.8313612500000005 10.4283954500000000
 14.5513974899999994  0.0008008300000000 15.0845213200000003
 14.1466888100000006  2.2342326400000001 17.1865644700000004
 14.3306886700000007  4.2845814200000003 19.1227009199999998
 14.3375496200000008  6.7407055199999997  0.2961316200000000
 14.8200238700000000  8.6487324500000007  1.8112630599999999
 14.5742749499999995 10.6124345200000008  4.2200953200000004
 14.9353198799999998 12.8284498599999992  6.4218756299999997
 15.3215832899999995 14.7901311000000000  8.4853982499999994
 14.8312274800000008 16.9784036500000006 10.5103746400000002
 15.1371409000000003 18.7962938500000014 12.4994118400000005
 17.0402816100000010  0.0772051100000000 17.1053192100000011
 16.6882907200000012  2.1030014900000000 18.7388227100000009
 16.7363565200000011  4.1695460000000004 -0.2539177800000000
 17.0078874499999984  6.3751954900000003  1.9186870499999999
 16.8327723300000009  8.3440361999999997  4.2435896299999998
 16.9763587899999990 10.7886039900000004  5.8910146599999997
 17.4856106199999992 12.5985197000000007  7.9795008699999999
 17.3106305700000007 14.9335099899999992 10.8728345999999991
 16.9309980300000014 16.9938645400000006 12.7615525499999993
 17.0654839600000017 19.3430557000000007 14.7144571800000001
 19.3333754900000017  0.2356415900000000 19.2684947599999994
 18.7513813899999988  2.2111793099999999 21.3273572199999997
 19.1081202899999987  4.2386030799999999  2.1090497199999998
 18.8440132300000016  6.1281297099999996  4.3141024100000003
 18.7804364499999998  8.5735072799999994  6.5428191199999999
 19.4494110599999992 10.4656092600000008  8.5482039800000003
 19.0732139399999987 13.0325616300000000 10.8738992099999994
 19.4232054800000000 14.7081085599999994 12.8699420000000000
 19.4280927500000011 16.6207046699999985 14.6144533200000009
 19.0424508900000014 18.7453594800000012 16.9876477399999999
  2.3987198900000002  2.5947527799999999  0.2605114100000000
  2.1506529699999999  4.5690417099999996  2.2860310699999999
  2.5283728100000000  6.3184503899999998  4.6375051999999997
  2.1704409400000002  8.3636666200000001  7.1143628999999997
  2.0396287000000002 10.2653158799999993  8.7184550099999996
  1.9977287200000000 12.7149026400000000 10.7271222999999996
  2.0731684000000001 15.2208097799999997 13.1669573500000006
  2.4330495000000001 17.3198798499999995 15.0611978499999992
  2.0229925899999999 19.1056573800000002 17.4563575299999982
  1.8983169000000000 21.2890102500000005 19.1867971399999995
  4.4804121300000004  2.5509898299999998  2.2937518600000000
  4.2528694299999996  4.5916278899999998  4.4480918400000000
  4.4089594400000003  6.5327664399999996  6.9276874499999996
  3.8115280800000000  8.1736547999999996  9.1228786999999993
  4.1285622200000001 10.4446737299999999 11.1084248599999995
  4.1493427299999999 12.6960950700000001 13.1060996900000006
  3.7824707900000001 14.8166161800000005 14.9236291600000008
  4.3253827600000001 17.2029487100000011 17.3863226299999987
  4.3724159499999997 19.6159113599999984 19.5211997799999999
  4.6592915399999999 21.2613427799999997 21.2739351200000009
  6.0163114300000000  2.3982977299999999  4.3998355499999997
  6.3580489499999997  4.3247808599999997  6.6024834200000004
  6.5053157700000002  6.0855832699999999  8.9414746199999993
  6.5315911000000000  8.2711965799999998 10.4871289000000001
  6.3940170500000004 10.6333421500000007 12.4727704300000006
  6.5546180500000002 13.1383640800000006 15.0818429300000005
  6.0184004699999996 14.8055433000000001 17.3303653900000008
  6.5267031299999996 17.6096436599999997 19.3980868199999996
  6.5911331400000002 19.0838700900000013  0.3349655600000000
  6.2624632099999999 21.2322406900000011  2.6174359699999998
  8.8033713400000000  2.3422935699999998  6.5332826300000004
  9.1643697300000007  4.4334139600000002  8.4324955999999993
  9.1684322999999992  6.2274330999999998 10.2326315200000000
  8.1950944600000000  8.2834178200000004 12.0680571699999994
  8.4780488799999993 11.0758232400000001 14.7426394700000003
  8.8199739499999996 12.7865389000000000 17.2070746200000002
  8.0733790600000006 15.2499350699999994 19.3199246100000011
  8.8759359999999994 16.7944731999999988  0.3015684100000000
  8.5094901800000002 18.8967539600000016  2.4292421100000001
  8.2755147299999994 21.3588639100000002  4.4152500300000002
 11.0929847400000003  2.4725723700000000  8.2322748800000003
 11.3073969699999992  4.2259596999999998 10.0130034899999991
 10.6737511099999995  6.2708548100000003 12.9370413800000001
 10.0980204600000008  8.3028701700000003 14.6425697300000000
 10.3384316599999995 10.0848356399999997 16.7754822600000004
 10.4464580599999994 13.0567424899999995 18.6267096800000012
 10.6181156600000008 14.7825514299999998 -0.1873912900000000
 10.6465218700000008 17.0761188500000003  2.3191817800000001
 10.3840903800000000 18.7976176899999992  4.4897439500000003
 10.5266327299999993 20.6925917900000016  6.2868979899999999
 12.8994686600000001  2.0223873600000002 10.8022435500000000
 12.7922454699999992  4.3837184499999999 12.3283621799999992
 12.4645255200000005  6.6888910399999997 14.7557685599999999
 12.7949051300000001  8.6838052200000000 16.9840366899999999
 12.5019057399999998 10.8088728399999994 18.6727059299999993
 12.2677575200000000 12.5781998200000000 -0.2823392200000000
 12.8564768199999993 14.5313040000000004  2.0505834200000002
 12.8444547199999999 16.3982707400000010  4.1605169399999999
 12.8184376899999997 18.4563363500000008  6.3859757899999998
 12.5846228199999999 21.1413775699999995  8.2766997799999995
 14.9753016300000006  2.1293088099999999 12.5561246900000008
 14.4557038700000007  4.6912728200000000 15.0220205799999995
 14.8876619500000000  6.7267673200000004 16.9113949300000002
 14.4828772000000008  8.7213970500000002 19.2164817300000017
 15.0349093099999997 10.9432697999999995 -0.3863761700000000
 14.6698549400000005 12.6660222699999991  1.6543212199999999
 15.2902389900000006 15.0777441999999997  3.7686693099999999
 15.1690939999999994 16.6954509500000015  6.4390456399999998
 14.5489102799999994 18.8773741800000003  8.3549496699999999
 15.3750167599999994 20.9666803199999983 10.7479779000000004
 16.6476786499999996  2.0699286799999999 15.3582891000000004
 16.5291641200000008  4.0816804500000003 17.2302870500000012
 16.6869392800000007  6.4832692200000004 19.3148883799999993
 16.8277278400000014  8.6423736099999999  0.1414558100000000
 16.9071527699999997 10.8545766900000000  2.2771974199999998
 17.0455642500000017 12.9761225200000005  3.9285108599999998
 17.1992772400000007 14.8346507499999998  6.2192056100000004
 17.7580207399999992 17.5264656199999997  8.2494584199999998
 17.6586333000000018 19.3078794400000007 10.3607020999999992
 16.9434356599999987 20.9524493999999990 12.7414241300000004
 19.3063059099999990  2.2258909099999999 17.4588814799999987
 19.0588057400000004  4.5913554500000000 19.4665794299999995
 18.7039291299999988  6.6006605900000004  0.2294939200000000
 19.1363284299999989  8.2387509100000003  2.5263999199999998
 19.3098235000000003 10.3897900300000003  4.1075437800000003
 19.6193300300000004 12.8259214600000000  6.2386562500000000
 19.2384057800000008 14.7985241599999995  8.4341506800000001
 19.5162373600000016 17.0491733799999992 10.7459866999999996
 19.1977995700000008 18.8300216200000001 12.9178337400000007
 18.2662584099999989 21.3657066600000007 14.7907702600000004
 21.3195357399999992  2.3696331399999999 19.5200783700000002
 21.1977996100000006  4.4731060999999999 21.5665977899999994
 21.0258533700000001  6.2464087299999997  2.6316430899999999
 21.3058233699999988  8.1796003000000006  4.8169758099999997
 21.3607095099999995 10.3917179799999992  6.3440900899999999
 21.4759490600000014 13.0617958499999993  8.5094490700000005
 21.4037594400000017 14.7048504100000006 10.5920086700000002
 21.3010681099999992 17.1712075000000013 12.7512211700000009
 20.9700999299999999 19.0989852000000013 14.8984348299999994
 20.9165846100000010 20.9290228899999988 17.0112185499999988
  4.2444672600000004  3.8083493599999998 -0.3610796300000000
  4.2273652000000004  6.0364096500000004  1.6658718900000000
  3.7983384099999999  8.3001991600000000  4.2574410599999997
  3.9071880700000001 10.5696812599999994  6.6426437399999996
  3.6169592000000002 12.2418800200000000  8.4093186899999992
  3.5374382199999999 14.7380994300000001 10.5220783900000008
  4.4268653899999997 16.7988362100000010 12.9907105099999995
  3.9350021499999999 19.5252241200000007 14.9362333899999999
  4.2176801700000004 -0.1382820900000000 17.1506739900000014
  3.8032435200000001  1.9038399800000001 18.9057062500000015
  6.2965003199999998  4.7845920800000004  1.7366690400000000
  6.4119453200000001  6.1901183900000003  4.5434193000000000
  5.7379719299999996  8.6049352300000006  6.8008704399999997
  6.2669263500000003 10.6343987900000005  8.7080004899999999
  6.0240598099999998 12.9854984800000004 10.3150925699999991
  5.8362655700000001 15.0442177800000003 13.0260817400000004
  5.4891762999999996 16.8871311099999986 15.2119772300000005
  6.4091818099999998 19.2746551100000012 17.0229109100000002
  6.8433702099999998 -0.1076651700000000 19.2318770400000005
  6.3258982399999999  2.3534825300000000 20.9999692899999992
  8.3333593599999993  4.0823344500000003  4.3292696599999996
  8.4236485699999992  6.6819530100000000  6.4736018099999999
  8.1840111199999992  8.4465213600000002  8.5810986499999995
  8.2363570599999996 10.7411251100000005 10.5012375999999996
  8.0627235200000005 13.1824452399999998 12.9715217299999992
  8.2251712799999996 15.6132461899999999 15.0843882800000006
  8.1662174800000003 17.4729795199999991 16.9696579000000014
  8.7958085799999992 19.3766429199999983 19.3890049399999995
  8.4728033800000002 -0.0407779800000000  0.7044984600000000
  8.1302218400000008  2.3757880899999999  2.1382468000000001
 10.3810019600000008  4.7571334199999997  5.8801221500000000
 10.7226334199999993  7.0574406999999999  7.6927930599999996
 10.4930621500000001  8.6165443600000007 10.4457502699999996
 10.6292888100000003 10.6396876900000006 12.8154740799999995
 10.4979435300000006 12.7538004500000000 15.1521100900000008
 10.3869968799999999 15.4430337899999994 17.3071158599999997
 10.2814111500000003 17.3807837399999983 19.4351554299999982
 10.7431655300000006 19.2816437500000006  0.6583077800000000
 10.4656085500000007 -0.1578321100000000  2.3377113700000001
 10.5069635500000000  1.9522913600000000  4.5098795100000002
 12.5683672099999999  4.5340941099999998  8.0814820199999993
 12.6790986799999992  6.4021496700000000 10.2591352499999999
 12.4378777700000001  8.4995666100000005 12.1814781100000005
 12.4219777600000008 10.4165843799999998 14.9219272000000007
 12.0074097200000001 12.9817829600000003 16.8457414300000003
 12.4536713900000002 15.2856217999999995 19.4489595599999987
 13.0507818199999992 17.0060479499999992  0.1328173100000000
 12.8236270300000008 18.7508843899999995  2.5953307900000002
 12.6397501699999992 -0.3501841400000000  4.7288760999999999
 12.7056953200000002  2.1571090200000000  6.0289296300000004
 14.6773864100000004  4.1653713100000003 10.3454336700000002
 14.8432545800000000  6.4253767000000002 12.5035086500000006
 15.2768098899999991  8.7157505200000003 14.5800499200000004
 14.4978700000000007 10.3263576199999996 16.6523977899999984
 14.2891516200000002 12.6837506500000003 18.7224443399999991
 15.2401338200000005 14.2408500399999998 -0.2131745100000000
 15.2552116200000007 17.1506615899999986  2.0987798400000002
 15.0719408399999999 18.7095769199999999  4.7276498199999999
 14.3500845399999992 -0.5652056800000000  6.2448058599999996
 14.3831311900000003  2.1062464900000002  8.5957348499999995
 16.5457901700000001  4.1670625000000001 12.6547513400000007
 16.6978125300000002  6.2520963299999996 15.2323846100000004
 16.9293427799999989  9.0237904300000000 17.4061025100000002
 16.6504171599999999 10.9650120700000002 18.8440957500000010
 17.4629596400000011 12.3952771700000000 -0.1151385500000000
 17.1653682299999986 14.8572326500000003  1.7844912700000000
 17.1190564999999992 16.7924669500000014  4.1957723299999996
 17.5863850299999989 19.3283991399999984  6.1561166700000003
 17.0975167699999986  0.1593640700000000  8.3512480300000007
 17.2202953600000015  2.3653914999999999 10.6550198900000002
 18.8521700999999986  4.3561227599999999 15.1487022899999992
 19.0181629500000007  6.1611211800000003 17.1392851499999992
 18.8234106399999988  8.7554338299999994 19.2243694800000000
 19.0698468100000014 10.4908832099999998  0.3286736900000000
 19.4051074300000010 12.9040686000000004  2.2373836900000001
 19.4080195099999990 14.9030329100000003  3.8894769700000000
 19.4153453300000010 17.1862887399999984  6.5279281600000001
 19.6026303000000013 19.9484657900000002  8.2723488599999992
 19.3456277099999987  0.0587709200000000 10.8643940200000007
 18.6993992400000018  1.9664436800000000 13.1661255199999996
  0.2013618100000000  4.8121665000000000 17.1571060700000011
  0.1743998200000000  6.6977584800000001 19.3654392699999995
 -0.0707191400000000  8.3431964799999996 -0.0593074600000000
  0.1428576300000000 10.3728588700000000  2.0861253199999998
  0.5011987100000000 12.4745460099999992  4.3564282600000004
  0.4650918900000000 14.9736417399999997  6.3416974499999998
 -0.0439122500000000 17.3167827699999997  8.7942131400000001
  0.0952185100000000 19.6625165300000013 10.7571610300000007
 -0.4239762900000000  0.1838610400000000 13.3044964900000000
 -0.0842140700000000  2.5326864400000000 15.0052121300000003
  2.0815258299999999  4.4891280299999998 18.8586798100000017
  2.2168351700000000  6.5057494000000000 20.9975170200000001
  2.4684527599999999  8.2164608200000000  2.0861906700000001
  2.4034189100000001 10.6005404500000004  4.1741481299999998
  2.1114845500000001 12.5526559700000000  6.2560462399999999
  1.8944938200000001 15.5116347799999996  7.9327629799999997
  2.0043785800000000 17.1346855500000004 10.8358934199999997
  2.0538177599999998 18.8923033800000013 12.6076294400000002
  2.0161895400000001 -0.0704198500000000 14.7055263699999994
  2.0665394799999999  2.3906085899999998 16.8714532599999991
  6.5212666700000002  6.1125846800000003 -0.2147348000000000
  6.7649695599999999  7.7039972700000003  2.5263750900000002
  6.6781444800000003 10.1137364900000009  4.5091210500000001
  6.1834913699999996 12.5532435699999994  6.7098652400000001
  5.6574243099999997 14.5629717900000006  7.9422789900000001
  5.7159649400000001 16.6255234899999991 10.4805389299999998
  6.1484859800000002 19.1803061899999996 12.2686476800000008
  6.5518550700000002  0.2525727000000000 14.4095355699999992
  6.4021327499999998  1.9844972500000000 16.9400313300000001
  6.3391320200000001  3.8857086700000001 19.1645125900000011
  8.7095411800000004  6.2611721999999999  2.1649755200000000
  8.9271151199999998  8.5098497099999992  4.1354972500000002
  8.5670464000000006 10.5831591500000002  6.5915202900000001
  8.8880479399999999 12.8516048200000004  8.7615688400000007
  7.8183971400000001 15.0710005000000002 10.7160039999999999
  7.6348984000000000 17.0371138900000005 12.9291260900000005
  8.0939515899999996 18.8337764499999984 14.6064648500000001
  8.3073708199999992 -0.1690444500000000 16.2223103699999989
  8.5851193499999994  2.1710877499999999 18.6760098399999990
  9.2749898399999999  3.9729719100000001 21.2588633899999984
 10.8363478200000003  6.5124976400000003  4.5778173100000004
 10.9486209100000007  8.5047204799999996  6.4000409800000000
 10.8436851599999997 10.5618986199999991  8.6123784600000004
 10.1193768800000008 12.8179854300000002 10.9651445800000005
 10.5171169100000004 14.7212134900000002 12.7051791999999999
 10.5335440699999996 16.5200057200000003 14.4816933500000005
 10.5049478300000008 18.7166606299999998 16.2514328200000016
  9.9048013499999996 -0.2450876400000000 19.0539392499999991
 10.5904506299999994  1.5656156100000000  0.0226371500000000
 10.7205226400000004  4.1740565600000004  2.1387264799999999
 13.2435072199999997  6.4891692299999999  6.2069613099999996
 13.3151972500000007  8.6536336800000004  8.3512764900000001
 12.6706076700000008 11.2161214400000002 10.6035527399999996
 12.7493742300000008 12.7864287700000006 13.0480342100000009
 12.5762972099999999 15.0269288000000003 14.6025281200000006
 12.3201689099999996 17.4411647199999997 16.9727070500000004
 12.4595147399999995 19.2843060999999985 19.2875821999999992
 12.8172412900000001 -0.5084446000000000 -0.3576523900000000
 12.7130389800000003  1.9321945300000001  2.2481333900000000
 12.6952894300000008  4.5291588500000000  3.9415944500000002
 15.0734219700000001  6.2087047699999998  8.5245177699999992
 14.9671847299999996  8.5522237200000006 10.4038046099999999
 15.1063621799999996 10.4646572700000000 12.7983835599999995
 14.5355931599999995 12.8293481699999994 15.1510367400000003
 14.6319473400000000 14.6792901899999997 17.0838782900000012
 14.8201949200000005 16.6764561399999991 18.8777378499999990
 14.5534179600000009 19.0214243799999991 -0.4307486300000000
 14.3528469600000008 -0.5866348000000000  2.2482179000000002
 14.6710687499999999  2.0091003199999999  4.4569490700000003
 15.0736210100000001  4.4391568100000001  6.1223622000000004
 16.9411803200000008  5.8910778900000000 10.4881603699999992
 17.2558497799999984  8.4375425699999997 12.4337903799999996
 17.2880621599999991 10.7594323900000006 14.7563696400000008
 17.0666048799999999 12.6083371599999996 17.2075164399999991
 16.9913840399999998 15.0391159400000003 19.3561110800000016
 17.2025418499999994 17.2588002200000012 -0.0252221300000000
 17.3248465399999994 18.8156227800000018  2.0131575599999998
 16.7031366800000001  0.0194244400000000  4.0138732499999996
 16.5856938900000017  1.9491380899999999  6.6081948199999996
 16.7449720900000010  3.6710169000000001  8.2433233799999996
 18.5828909099999997  5.9914537299999999 12.6469583799999992
 18.8295498799999983  8.2182114300000002 15.2481420700000001
 19.3918180599999985 10.7114471899999995 17.0902463299999994
 19.5218283899999996 12.4433841800000007 19.0244347299999994
 19.3018169099999994 14.8593745800000008  0.0412707500000000
 19.0008411600000002 16.6180363100000008  1.8926070800000001
 19.3987029299999989 19.3904016199999987  3.6428074200000000
 19.0161262899999990  0.4899952900000000  5.6262365100000000
 19.2765566799999988  1.8032344199999999  8.5620358999999997
 19.3348569200000000  3.8254952100000001 10.8274177700000003
 -0.4387987400000000  6.3155401500000004 14.3639175800000007
  0.1142418700000000  8.2574714100000008 16.9001810799999994
  0.2734803400000000 10.2488560399999997 19.5858958500000000
  0.3205655200000000 12.4655983500000005  0.1041596300000000
  0.0398358000000000 14.6613147200000000  1.3286481299999999
  0.1414455800000000 17.2826446599999990  4.0345021100000000
  0.1157073500000000 19.6014885200000002  6.1446067199999996
  0.3840787700000000  0.5294054800000000  8.1482929700000000
  0.0368315000000000  2.0137804899999998 10.8065553500000000
 -0.3148704500000000  3.8387555899999999 13.1797664999999995
  2.1912715000000000  6.5621640100000000 16.8408157600000017
  2.3447967200000002  8.6744142899999996 18.6953897100000006
  2.8053098200000002 10.3170292299999993 -0.0217219300000000
  2.5574321599999998 12.4391442899999998  1.8991242100000001
  2.2383098499999998 14.8620682399999993  4.2944094699999997
  2.1188420200000002 17.0224450400000009  5.9347400099999996
  1.9545022900000000 19.3142724000000001  8.3821996999999993
  1.6613606400000001  0.2386974600000000 10.9754700100000004
  2.1419232199999998  2.2150299300000000 12.7537110899999995
  2.0947372400000002  4.2524341699999999 15.0689384000000004
  4.2851293400000001  6.1745144500000002 18.8285876799999983
  4.4676601199999997  8.0754589499999998 21.0963154800000012
  4.5297294800000003 10.3194294299999996  2.1090661000000002
  4.4421930200000004 12.0337484299999993  4.1311684299999998
  4.0964495999999997 14.4532007799999995  6.2405001599999999
  4.0911042000000002 16.8299948899999983  8.7037484400000000
  3.8705107500000002 19.0674703900000004 10.8698770600000003
  3.8869459900000001 -0.0431061700000000 12.4288258999999996
  3.9871254899999999  2.1138104599999998 14.3771871499999992
  4.7271020799999999  4.1764477099999997 16.7852901000000010
  8.3432453800000008  8.4364435100000001 -0.2412278400000000
  8.1669233400000003 10.9903062600000005  1.6889206000000001
  8.1003113100000004 12.4918808699999992  4.5416967100000001
  8.2684494199999996 14.8114699999999999  6.1700468199999996
  8.2823013400000001 16.5610283900000006  8.3181062800000003
  8.5711207999999992 18.7108368100000000 10.4079334499999998
  8.8203162299999995 -0.2135498100000000 12.4855833399999998
  8.8066839399999992  1.9857938799999999 14.5009127000000007
  8.3593103400000004  3.9261306700000000 17.0226042799999995
  8.4310519500000005  5.9558242200000002 18.8969062500000007
 10.3108272500000009  8.4058557999999994  1.4671298300000000
 10.2106736799999993 10.3909985799999998  3.9199251400000001
 10.6031054900000008 12.7742171500000001  5.9870432600000001
 10.7170523099999997 14.5833828499999996  8.5372651600000005
 10.9781456599999991 16.3917143699999990 10.2852840899999993
 10.7498845799999998 18.5169920200000000 12.4155696500000001
 10.4170357899999999 -0.4843232400000000 14.2457441700000000
 10.8180064500000004  1.8708791700000000 16.7262758900000001
 10.6451401800000003  4.1946702499999997 18.9504389099999990
 10.5755152300000006  6.7817097700000000 21.0125680999999993
 12.9094498000000009  8.6900708499999997  4.0140403500000001
 12.6798529799999997 10.7330183100000003  6.0359581899999997
 12.9794872699999999 12.5829363999999995  8.4571254600000003
 12.8968810400000002 14.4273762899999998 10.6939821300000002
 12.8739827299999998 16.7079558100000014 12.4718765099999995
 12.7233204600000001 18.3715303100000007 14.8402060099999993
 12.2300757200000003 -0.2118890500000000 16.7248770899999997
 11.9509841300000001  2.4048149500000000 19.1741732499999991
 12.5850073699999996  4.5521480399999996  0.0655659400000000
 12.3898443900000004  6.4091273099999997  2.0686643500000002
 14.8662757899999995  8.3193641599999992  6.3921742000000004
 14.8708316800000002 10.8546952300000008  8.2106899799999997
 14.9526671199999992 12.6871632200000004 10.7283476300000000
 15.2243330900000000 14.7572830100000001 13.0896560100000006
 15.1660719499999992 16.7562020599999997 15.1992004999999999
 14.8560151000000005 18.9552644400000005 17.0508640199999988
 14.3118680600000001  0.4762964100000000 18.3276619200000006
 14.4840073900000004  2.0782093700000002 -0.1718889800000000
 14.6196656100000002  4.0188921000000004  1.8511820200000000
 15.2185962099999994  6.1248469700000001  3.7385190700000002
 16.9945729000000014  8.5901652399999993  8.5178579200000009
 17.0622402099999988 10.4061735700000000 10.3295477600000005
 17.2442073399999991 12.8765230099999997 13.3099826399999994
 17.1108000999999987 14.7384093899999993 15.2174927499999999
 17.4749755499999999 16.9115272099999991 17.2157393899999995
 16.9184696700000003 19.2454731700000004 18.9134042499999993
 16.7278098499999999 -0.0278369000000000  0.0360635400000000
 16.2779021499999992  2.1250766699999999  2.3966763599999998
 17.0582835199999998  4.3507817500000003  4.0750251700000000
 16.8220680199999997  6.4568948500000003  6.3847287899999996
 19.2068853900000001  8.5410411499999999 10.4889894399999992
 19.2968189599999995 11.0113808300000002 12.7958488799999994
 19.5387577199999996 12.9419428199999995 15.0136976299999994
 19.4335014199999989 14.9452563699999992 17.3631491900000015
 19.3262622499999992 16.9025184899999985 19.3161708599999997
 19.2600901499999999 19.2347995000000012  0.3062457500000000
 18.9574650200000008  0.9289606900000000  2.1313540700000000
 18.6819310399999985  2.5716804500000001  4.3623875400000003
 18.7533653499999993  4.1645688200000004  6.2883747300000001
 18.7495427100000001  6.0398562900000003  8.7453874700000007
 -0.3340872000000000  8.1768109300000003 12.6055620099999999
  0.2778280500000000 10.7030691900000008 15.1248751600000002
  0.3616479300000000 12.7128913699999995 17.4508523400000009
  0.2169411700000000 15.3199108899999992 18.7841036499999987
  0.4208830700000000 17.2036969699999993  0.1188532600000000
  0.0980137500000000 19.4504373900000012  2.1039092799999999
 -0.0579173700000000  0.5671813800000000  3.8930203799999998
  0.2826894600000000  2.4370930799999999  6.2480916400000002
  0.1094381200000000  3.7490096300000002  8.4492587199999996
 -0.2110155600000000  6.1726351700000004 10.6383263899999996
  2.1846512100000002  8.3247877399999997 15.0212781700000004
  2.6132789700000001 10.3373971200000003 17.1227360799999992
  2.4305576699999998 12.7440905200000003 18.8855877800000016
  2.0895558099999998 14.8235299800000000 -0.0923168900000000
  1.9231627499999999 17.0585502700000013  1.9934327400000000
  1.9154852800000000 19.3519730500000016  3.8689529500000002
  2.3192546799999998  0.4338855200000000  5.8372057899999996
  2.2168139299999998  2.2794501800000000  8.7419232099999995
  1.9680950600000000  4.1651019199999997 10.7199472000000000
  2.1891418100000002  6.1190096499999997 12.9941030299999998
  5.0205844500000003  8.2905438700000005 16.8912160299999989
  4.4875311699999996 10.6971142100000005 18.8988699800000006
  4.4561084500000003 12.9394078799999992 -0.0375196700000000
  4.2015409699999999 15.3096606000000008  2.3802677600000002
  3.7368659499999999 16.8104346000000007  4.1148920400000000
  4.3049376300000004 19.1750241800000012  6.3967466200000000
  4.1797665999999998 -0.3381089500000000  8.9154563499999995