bcc
1.0
-1.6683999999999999 1.6683999999999999 1.6683999999999999
1.6683999999999999 -1.6683999999999999 1.6683999999999999
1.6683999999999999 1.6683999999999999 -1.6683999999999999
Li
1
Direct
0.0 0.0 0.0
