Li                                      
   1.00000000000000     
    21.0527999999999977    0.0000000000000000    0.0000000000000000
     0.0000000000000000   21.0527999999999977    0.0000000000000000
     0.0000000000000000    0.0000000000000000   21.0527999999999977
   Li
   432
Direct
  0.0052055470056231  0.0184702139382864  0.9965257025193779
  0.9243299195356443  0.0863330597355230  0.0972628077975344
  0.8137344994490050  0.1650031055251588  0.1487031777245775
  0.7329306595797220  0.2374127536479733  0.2640043457402328
  0.6869015926622595  0.3357926185590543  0.3349041628666996
  0.6057443285453701  0.4306132457440341  0.4269024243806072
  0.4987963126044974  0.4989210689314518  0.5004738172594614
  0.4245756098951219  0.5935507181942512  0.5777210204818388
  0.3293715529525798  0.6651884537923678  0.6827585423316620
  0.2454934754521929  0.7599544093897279  0.7823799128856948
  0.1622263969638240  0.8274946828925351  0.8659509742172062
  0.0943278832269314  0.9503288270443804  0.9280735612365092
  0.0973550458846333  0.9243233166134672  0.0941780309507507
  0.0041550634594927  0.9832622359021101  0.1505084682322533
  0.8947871171530650  0.0651737963596304  0.2352479945660448
  0.8328266197370411  0.1458349559203498  0.3319476340439280
  0.7569850974692187  0.2269187618749058  0.4187849654202793
  0.6853137905646776  0.3449382542939645  0.5136788731190123
  0.5794178275573785  0.4314732543889619  0.5928234519873854
  0.5306773127564952  0.5296206414348674  0.6674214527283766
  0.4138154706262327  0.5447068755699931  0.7500220184488526
  0.3462924936350475  0.6468912415450703  0.8393710618065029
  0.2604299371105014  0.7412170400136802  0.9020213349293229
  0.1659546668376635  0.8308857073643381  0.9909202438630516
  0.2059402497529987  0.8212095830483364  0.1403845331737372
  0.0900992257561910  0.8852403191024507  0.2426483360883083
  0.9967659014477874  0.9799591365519049  0.3268202338881281
  0.9250442891206845  0.0763113315093449  0.4077285002469964
  0.8333555579305383  0.1437782546739612  0.4975643334853288
  0.7769149752052016  0.2436858351383222  0.5916983175634627
  0.6791383602181185  0.3539430417806670  0.6536286474958217
  0.6002563445242473  0.4503252474730175  0.7371010525915764
  0.5226660691214491  0.4937199593403250  0.8149333157584735
  0.4168973718460265  0.5767379065967475  0.9245381507447945
  0.3275244038797709  0.6659402127032976  0.9988013432892515
  0.2711022082573322  0.7365548444862426  0.0790523213064276
  0.2582737559849519  0.7399765418376631  0.2563283757979917
  0.1817348210214291  0.8222858313383483  0.3222117248062020
  0.0913477841427266  0.9308011532907727  0.4016401253039987
  0.9971609420124636  0.9892556581547325  0.4801788745440021
  0.9151333181334564  0.0722055622055038  0.5864427221082238
  0.8478412434450533  0.1653317805707530  0.6806606171150662
  0.7413841384518918  0.2574784983470124  0.7450660524965826
  0.6629227195432463  0.3563925691594463  0.8494695508435939
  0.5894308400782791  0.4165656439998457  0.9295378904468734
  0.5032250607995152  0.4912943774699770  0.9717911066461440
  0.3938014207136362  0.5700103349673213  0.0886666889914878
  0.3580816285719735  0.6554375408496753  0.1743871998024034
  0.3415304144816815  0.6820962717548227  0.3337916448168414
  0.2726925767593826  0.7439381331699337  0.4221582582839360
  0.1669856289899698  0.8287709687072535  0.4925213943038429
  0.0853906701246387  0.9000177653328763  0.5793048392612832
  0.9849306738296093  0.0079448657660706  0.6501859325125423
  0.9130063687490519  0.0904083257333923  0.7484837679548590
  0.8282351402188795  0.1669371038531722  0.8370753657470758
  0.7583229993160074  0.2498875864493115  0.9226380970702266
  0.6576262126652992  0.3341665431676546  0.9951146194330462
  0.5646076987384134  0.4189627997225998  0.0500712408800723
  0.4691659608223162  0.5049432507789930  0.1685483208884335
  0.4250503633720939  0.5889378486472125  0.2760189072237438
  0.4172373095265272  0.5796685576265403  0.4042917816157470
  0.3552711349559203  0.6756235954362353  0.5016348946458464
  0.2469566409218729  0.7432975884442925  0.5886028324023442
  0.1711335295067613  0.8250505087209277  0.6706075714394260
  0.0739776680536579  0.9041737597849249  0.7586506412448699
  0.0146339674532570  0.0112707169592667  0.8305598585461311
  0.9197791837665292  0.0931340054529599  0.9157155219258257
  0.8314713876538988  0.1541021070831405  0.0024352271431809
  0.7267355292407629  0.2357648151314820  0.0718335252317956
  0.6603342524509799  0.3471020819083463  0.1587168395652867
  0.5879405461506337  0.4174377123232986  0.2585550501596003
  0.5264405903252793  0.5174351905684773  0.3448653974768234
  0.0901776115291071  0.0682047043623655  0.9186211354309179
  0.0225746252279961  0.1508835841313285  0.0125262715648304
  0.9194538716940244  0.2401531515997846  0.0755143510601926
  0.8089918576151405  0.3183368772799824  0.1572703037125720
  0.7516751192240463  0.4269763299893583  0.2398253975718205
  0.6807227380680985  0.5083923630110974  0.3441755452956343
  0.5959306762045884  0.5992024315055460  0.4264155827253404
  0.4782231370649015  0.6678831894094870  0.4818761029411789
  0.4293776989284055  0.7688474673202634  0.6005100832193335
  0.3398759666172637  0.8416352024433778  0.6817054130566973
  0.2198876154240779  0.9150861206110363  0.7548391762615907
  0.1817943964698259  0.0087033658230737  0.8363508906178723
  0.1848835128818962  0.0135932241792034  0.9888292911156711
  0.0995429377564960  0.0749015765123886  0.0971187903746795
  0.9887759737422073  0.1404697869167038  0.1666061702006374
  0.8932787904696795  0.2554344514743860  0.2529308220284250
  0.8250892171112625  0.3268873195014450  0.3470599373954997
  0.7458319734192145  0.4042124206756341  0.3903701208390302
  0.6787845944482456  0.5073552529829755  0.4959139568133466
  0.5762017693608428  0.6021756673696643  0.5742907342491250
  0.4964636452158402  0.6647774224806184  0.6738432930536575
  0.4105641202120367  0.7538227428180591  0.7674722426470595
  0.3331471490728077  0.8656027991526045  0.8200031634746949
  0.2411697560419483  0.9070790388926895  0.9230802971576253
  0.2707950947142450  0.9186903105525133  0.0713523949308410
  0.1926398825809414  0.9761226862935075  0.1712845744984008
  0.0930570622435027  0.0534111752355955  0.2299036949954427
  0.9898630752203985  0.1283691228720159  0.2948100186198488
  0.9074119466294235  0.2318552962076268  0.3975045305137570
  0.8488649524053784  0.3509235864113123  0.4861631317449451
  0.7444938017745883  0.4242254279715780  0.5892267541609684
  0.6673027530779763  0.5171089180536583  0.6500674784351759
  0.6034681676546612  0.6095971063231502  0.7559943465952301
  0.4900598476212181  0.6641270652834805  0.8546655836753274
  0.4164352779677785  0.7678675306847538  0.9064472725718176
  0.3248036574707385  0.8344968702500353  0.0039276851535206
  0.3380701635886894  0.8271120957782330  0.1426736253609988
  0.2858380932702573  0.9089034897970834  0.2385117803807546
  0.1849985911612677  0.9856112398350803  0.3152860503115988
  0.1066180071059435  0.0794599920200625  0.4101939480734131
  0.9941184227276167  0.1551169806391570  0.4663817145462872
  0.9180908325733412  0.2371016539367687  0.5844900873043031
  0.8312558462532280  0.3241662624448978  0.6430883996427994
  0.7545276314789504  0.4257889131136920  0.7141011466408287
  0.6680655775003785  0.4835911446458425  0.8298577813877515
  0.5957672656368729  0.5857658852979171  0.9069887867647068
  0.4884197474920171  0.6425648436312486  0.9847377208732340
  0.4061491255319964  0.7344384252925948  0.0892162158952701
  0.3945605168908628  0.7673122786517723  0.2640585076569408
  0.3280858631630963  0.8378436991754086  0.3353247720018260
  0.2357439661232732  0.9085392004863948  0.4271258274433833
  0.1820241687566480  0.0036943446952407  0.4974619024547806
  0.0743081917844677  0.0964151362289130  0.5522351036441719
  0.9941173269113861  0.1682842087513308  0.6771877892726863
  0.9239626344239227  0.2511282109743149  0.7640230886152892
  0.8248993616051052  0.3472642090363252  0.8456590463026288
  0.7569040488676109  0.4279691798715604  0.9280271417578660
  0.6656332649338808  0.4934955663854694  0.0069459416324662
  0.5506141534617726  0.5947396161080718  0.0887574061407506
  0.4677830863353094  0.6633821239930100  0.1666607562889482
  0.5266128301223603  0.6826286669706647  0.3271506687946513
  0.4268795309887494  0.7515801047841606  0.4216123983508098
  0.3219029934260504  0.8246992685058530  0.4967464931030534
  0.2527012805897542  0.9219783800729573  0.5895939224236173
  0.1770689984230103  0.0014198719410246  0.6647363319843436
  0.0746082093593259  0.0805651609287139  0.7414618079305342
  0.9974328174874572  0.1685685965762289  0.8552175116849057
  0.9300953227124182  0.2402583309583548  0.9375427306581514
  0.8217275915792683  0.3093370862783118  0.0222789947180431
  0.7607041471918237  0.4247490585575306  0.0662579804111587
  0.6420948453412407  0.4888618046055626  0.1474438511741880
  0.6065636057911519  0.5725116545067621  0.2290424765351844
  0.1487298782109718  0.1697933495782067  0.8295504265465894
  0.0840702239132085  0.2576553655570777  0.9208105069159416
  0.0048931401048762  0.3354311445508458  0.0163834368825064
  0.9105910700714404  0.3925409636722890  0.0649886556657577
  0.8413917151162806  0.4994839750532023  0.1590745392536874
  0.7534971110731092  0.5690330478606143  0.2616040868673082
  0.6685908848229190  0.6615037353701183  0.3110384371675039
  0.5869517052363591  0.7647796711126347  0.4111229845911240
  0.4988033653480741  0.8449644384594919  0.5169410187718526
  0.4070158624980991  0.9371529915260695  0.5852126491488079
  0.3213598476212169  0.9857844885240894  0.6810276557037511
  0.2496205226858166  0.0971066437718520  0.7384254650212796
  0.2577089760031939  0.1013783529981751  0.9198164282185743
  0.1742188734990151  0.1777486120611016  0.0033577020633828
  0.0810491036821688  0.2615676513337917  0.1151907009993920
  0.9788434156026753  0.3335877469980275  0.1750060775763771
  0.8845777312281484  0.4176152820527435  0.2734088943038486
  0.8332214356285164  0.5061267104613165  0.3462873199764402
  0.7493900103549151  0.6030468925748593  0.4167385891662860
  0.6780650464546270  0.6860665517175875  0.5164003400972774
  0.5789845982482120  0.7532537766947840  0.5824710508815940
  0.4958467367761088  0.8598434878020953  0.6946178589071295
  0.4161197237422130  0.9174771479328143  0.7602487645348859
  0.3038862417350643  0.0025867661308681  0.8258749510753916
  0.3148391016871841  0.0362800824593421  0.9851749496503999
  0.2452939779981733  0.1175115343327278  0.0825693266453840
  0.1487395206338320  0.1689062727998163  0.1748493706300351
  0.0739216436768473  0.2441732695888419  0.2374245022039858
  0.9996856926394599  0.3223315164728717  0.3290946083181367
  0.9445775170048663  0.4253553346823225  0.4153717291761652
  0.8479710114569059  0.4941405494756026  0.4668934327025411
  0.7640575761893871  0.6027186569007483  0.5764663208694358
  0.6554065178978590  0.6796080597355214  0.6602866464318282
  0.5818881113201115  0.7596713662790719  0.7756057336791287
  0.4951171986624132  0.8457496399528779  0.8369665422176595
  0.4048847682968528  0.9313816043471661  0.9165711938554466
  0.4290888489892097  0.9182541923164607  0.0702836914804692
  0.3369846561977496  0.0062996010031924  0.1491474321705439
  0.2648587161802709  0.0866782085993307  0.2384437761247895
  0.1883390598875181  0.1509810082269354  0.3165117846557237
  0.0833595497986011  0.2286703269873840  0.3825367309811512
  0.9978292702158384  0.3110490058329560  0.4913203312623509
  0.9205925458846309  0.3981108940378491  0.5874277792027698
  0.8596579557113557  0.4952324916400670  0.6571434179776574
  0.7523015983622159  0.5952175591845261  0.7487158776979754
  0.6607892095113215  0.6819976117191047  0.8591549323605392
  0.5676248356513156  0.7690340144778816  0.9167728767669843
  0.5065604570413456  0.8447844552743575  0.0090597953716340
  0.5000583927078566  0.8228686065511468  0.1728068123954998
  0.3985682664538714  0.9114299062357532  0.2505472488220093
  0.3260219585993340  0.0096562727998162  0.3521404345265253
  0.2517983864379119  0.0969168561901483  0.4134418110655105
  0.1611135487916115  0.1646280789253680  0.4905142294611622
  0.0514451070641400  0.2365576678636572  0.5702064000987974
  0.9928109505623937  0.3306469547993629  0.6595218835499281
  0.8946443779449780  0.3967198809659536  0.7646242837057287
  0.8427703858869151  0.5006907313991462  0.8315073833409343
  0.7440351435438544  0.5871234234876113  0.9269751263489923
  0.6485366260069938  0.6737404107767162  0.0110789001938016
  0.5521062780247732  0.7392706305099566  0.1028474601953207
  0.5602180555555520  0.7564507219942271  0.2427802031083743
  0.4894546150630816  0.8399301708086355  0.3294412196952408
  0.4196140969372237  0.9132143263603894  0.4243389183386554
  0.2959145258587910  0.9868017646108811  0.4977423611111078
  0.2581472507219971  0.0940443532451738  0.5810739094087225
  0.1565302620079052  0.1669948429662540  0.6477158857729108
  0.0751814048487631  0.2526069686692480  0.7421086629806979
  0.0026325690644455  0.3433359690872493  0.8474368492552031
  0.9097287681448520  0.4030633093935236  0.9461858926128599
  0.8360234263375901  0.5280811084511328  0.9936707563839491
  0.7414154905760739  0.5950376852485206  0.0941372278271757
  0.6643212964546308  0.6603817126462985  0.1674147001823982
  0.2494901861035146  0.2503177016833860  0.7499037804947548
  0.1515564186236489  0.3299365172328592  0.8282748679510590
  0.0956621485028109  0.4169678574821418  0.9095266829115332
  0.0172551489588102  0.4875397358071112  0.0022171777625744
  0.9355814471234254  0.6009920366887087  0.0593028124525006
  0.8210972464470316  0.6839066157470768  0.1642650160548698
  0.7304156696496449  0.7607433491032083  0.2640760240918070
  0.6589659893220841  0.8470674337855328  0.3100248712760276
  0.5904620634784905  0.9470190164728649  0.4360460271317805
  0.4962126581737323  0.9885004930460539  0.4942558690530490
  0.4126423373612980  0.0716959976820206  0.5868877944976418
  0.3291185243768027  0.1840750693494471  0.6662923611111111
  0.3475748304263533  0.1917003633720924  0.8255135340667294
  0.2436935205768336  0.2504642527359806  0.9261367385810928
  0.1562582677838549  0.3490478420922614  0.0137070902682765
  0.0786746941024461  0.4268064490234096  0.1317273963558279
  0.9873604731912167  0.4914691903214745  0.1786844025497771
  0.9066488182094545  0.5644525084549343  0.2506114744832075
  0.8270948942658478  0.6632042630908970  0.3377396047081618
  0.7383144883340904  0.7414761865405097  0.4357082255091953
  0.6531791058671530  0.8248218873498985  0.5092582663588701
  0.5878531729746186  0.9163432213292282  0.5844267422860625
  0.5088437832497306  0.9997767052363571  0.6653858527131788
  0.4128044611643134  0.0909174656102749  0.7519255989702103
  0.4404020952082348  0.0922949213406312  0.9157218408002734
  0.3463555626805004  0.1643332478340156  0.9852792022913803
  0.2351273996808061  0.2481913940188463  0.0887167958656363
  0.1805700714394263  0.3516210656064729  0.1949788579191392
  0.0635997097773213  0.4184311645006815  0.2632979228416161
  0.9984755310457487  0.4890155499506008  0.3250708822579398
  0.9134993920048657  0.5883491792065669  0.4146234168376637
  0.8574439480734171  0.6641515537125713  0.4995897719068267
  0.7735323652910751  0.7615571406178745  0.5828780195508472
  0.6795397396070797  0.8378678494072034  0.6787301261589889
  0.5886708784579753  0.9206873024015820  0.7591179292065675
  0.5111333637330873  0.9930103881668941  0.8071258283933744
  0.5146371404278796  0.9966490813573472  0.0025513252393949
  0.4048506535947709  0.0796421630376969  0.0739378429472595
  0.3413623907508736  0.1737736524357771  0.1656055194558448
  0.2450936250760023  0.2619093237004080  0.2495213235294145
  0.1511259319425449  0.3271750755243943  0.3481072978416151
  0.0741091588767304  0.4235509438174461  0.4219532988486066
  0.9996465700524411  0.5013299632352926  0.4843728520671817
  0.9105808120535031  0.5656794906140732  0.5771691846215248
  0.8411874487004098  0.6739919160396681  0.6777690254977955
  0.7308589185286536  0.7486687989246121  0.7829764026637775
  0.6499085071819408  0.8388277792027665  0.8224602475680172
  0.5825497306771581  0.9302854936160543  0.9118039947180421
  0.6111219794991669  0.8992812894246853  0.0763838330293325
  0.4986968156254719  0.9985720858983100  0.1571200301147613
  0.4484996276029776  0.0764717933006551  0.2622546103131143
  0.3500961169060659  0.1596523688060500  0.3296575343897246
  0.2635413859439097  0.2752077215382300  0.3985247672518639
  0.1498483916628643  0.3280886756155965  0.4930848210214336
  0.0778229299665583  0.4094926921834627  0.5525381170200632
  0.9856096704476371  0.4671493297803622  0.6689978031425738
  0.9074524695052446  0.5897820503685978  0.7312073291913634
  0.8229544060647527  0.6662845711734278  0.8291474312205480
  0.7437042996656018  0.7501916177420611  0.9189453545371649
  0.6559912230202158  0.8336863837589306  0.9956066722716201
  0.6420292132162970  0.8129926803085610  0.1715738695090465
  0.5686429159066719  0.9374634865671041  0.2288776471538227
  0.4896854461164324  0.9926219030247765  0.3394751515237857
  0.4061211976554162  0.1074923506611967  0.4342341237270091
  0.3330677211582298  0.1894491302819574  0.4958051826835401
  0.2356448453412341  0.2469964498784023  0.5829719956490322
  0.1652003087475293  0.3358691114721069  0.6588280746504012
  0.0677441147970796  0.4023380044459657  0.7472766206870318
  0.9767954286365708  0.4946804762311885  0.8263966569767476
  0.9323747401770817  0.5953335105069186  0.9221492442810444
  0.8250893577101408  0.6759495302287561  0.0014560381516944
  0.7540816200220419  0.7686492305061563  0.0941903889268900
  0.2997433068285460  0.3412009998669987  0.6550163579191377
  0.2173184236776109  0.4241412966446276  0.7379989649832837
  0.1605210651314763  0.4826319905190743  0.8385731674646593
  0.0548173430612522  0.5841411056961547  0.9305182664538663
  0.0064614873081013  0.6744474217206289  0.9796105895652829
  0.9107040849673211  0.7536667930156540  0.0796753723970198
  0.8338375935742519  0.8305080507105913  0.1845485275117795
  0.7448646075581422  0.9220850599445214  0.2141347516719847
  0.6672880509955945  0.0023912705198370  0.3209018928598582
  0.5790997078773401  0.0700812718498227  0.4178717078013392
  0.4991625759993923  0.1743337356551180  0.5065086002812009
  0.4231495539785683  0.2619393838349282  0.5849796350129211
  0.4242588330293344  0.2827582468840220  0.7554556481798116
  0.2917177149832781  0.3418811436008511  0.8324364184336517
  0.2225568290203697  0.4126483546131610  0.9392869152796806
  0.1332619105297184  0.5055353743920037  0.0119101896184830
  0.0856567316461465  0.5875447997416003  0.0995639254635989
  0.9938042303161581  0.6796335228568182  0.1654017047613650
  0.9083081979594141  0.7433983180384587  0.2632617248061990
  0.8415202210632344  0.8514103064675496  0.3318943950448414
  0.7462713282793771  0.9202509922670643  0.4194494366545101
  0.6741441584967305  0.0088571163930666  0.5099228952918367
  0.5731856641396860  0.0800999781501730  0.5831060509765891
  0.5003776115291103  0.1814256094201241  0.6725383507181917
  0.5207214983280153  0.1585016406368780  0.8326767161612736
  0.4099735137368867  0.2682260326417421  0.9060179572313416
  0.3288177325581429  0.3256209696572441  0.9894434137026877
  0.2512649747302049  0.4397269090097282  0.0763707644588862
  0.1927798976858170  0.5126799955350378  0.1749199783401707
  0.0879293542901678  0.5805028784769704  0.2531845269987869
  0.0076946401428799  0.6522407195242437  0.3439652597279235
  0.9176665450676396  0.7416236481608180  0.4178880894702814
  0.8312082492590065  0.8143668804149584  0.4778359044877618
  0.7682533221234209  0.9145141824365410  0.5648034095227246
  0.6635672095873204  0.9855062447750385  0.6566891615367041
  0.6122299888850904  0.0897012497150058  0.7292691926964565
  0.5970264192886461  0.0703525569045453  0.8897336691556461
  0.5146184540773646  0.1700241454818396  0.9981028072275393
  0.4216019503343986  0.2763946377679005  0.0666089950030369
  0.3255601801185577  0.3572803090325252  0.1534250631744953
  0.2564936697256428  0.4162038954438358  0.2768162633948918
  0.1733773811559516  0.4859238367343082  0.3409311037011733
  0.0852058909028699  0.5444358859629119  0.4253477589679306
  0.9957547129122943  0.6700353468422264  0.4829765617875026
  0.9347409270975859  0.7313596975224215  0.5940454628362986
  0.8197400991792065  0.8236211221310228  0.6848305023559789
  0.7633245169288614  0.9207687196002468  0.7598169687642482
  0.6839175468346284  0.9939784004977952  0.8246359035377751
  0.6402728677420555  0.9716374021507832  0.9938156268999876
  0.5900816622967042  0.0873663697940401  0.0862340163778725
  0.4780332421340603  0.1566778974768184  0.1535225186198517
  0.4093964489284119  0.2730802871827009  0.2499039928180551
  0.3257332544839642  0.3363096224730171  0.3370959307075552
  0.2409117067563429  0.4151759799171586  0.4152789818931453
  0.1864934664272653  0.5057432968536233  0.4907353610921135
  0.0663721656976719  0.5754194097697223  0.5913121466028244
  0.9874253766719860  0.6673325856893157  0.6710609372625029
  0.9274046164880687  0.7537013352143163  0.7866615514325872
  0.8350882789937657  0.8400835670314635  0.8356654022267804
  0.7706633910928744  0.9128442663208673  0.9044805151808788
  0.7468683828279410  0.8898504635962894  0.0704548544611612
  0.6509862721348227  0.0096256488448105  0.1430050682094546
  0.5633261547157602  0.0691033762729916  0.2450590748023984
  0.4985131787695707  0.1759685120269054  0.3479900146298860
  0.4447103468422284  0.2712779958010358  0.4433719039747714
  0.3251452984876124  0.3506704196116459  0.5227661227960141
  0.2416145059089558  0.4129707326341361  0.5836262601649196
  0.1506288146944854  0.4899228211924296  0.6644418072655398
  0.0545598656710737  0.5824773621561050  0.7528146151580799
  0.9905708656330745  0.6570452809127545  0.8477588681790564
  0.8966261319159443  0.7556217719258242  0.9144592918756658
  0.8285245402036807  0.8553747520519863  0.9980848471462238
  0.4240218664500688  0.4349355567905491  0.6081205089109289
  0.3171201407888731  0.4977614307835552  0.6543308063535491
  0.2405359439124481  0.5686914951930362  0.7556904293015663
  0.1561903547271655  0.6393854527663763  0.8226850623195006
  0.0680944430194543  0.7222198857159157  0.9037004944710461
  0.0099571496428013  0.8409385060419510  0.0130257082193310
  0.9185228691670488  0.8916730672404611  0.0868923696610437
  0.8209194639192887  0.9902103601421217  0.1460074802401579
  0.7408356394398865  0.0969991274319781  0.2262319563193529
  0.6495651533287727  0.1648253324973368  0.3321324935400511
  0.6040086097811184  0.2697539134936946  0.4251376310989485
  0.5206821581927343  0.3603777255281955  0.5272923953108375
  0.5077400849293241  0.3482909057227559  0.6653258758929894
  0.4089053741070074  0.4223520139838897  0.7327370820033465
  0.3134977632428928  0.4906083266833861  0.8368607192392474
  0.2478458171834603  0.5834431472298220  0.9339633782679755
  0.1730279487764079  0.6658130552705614  0.0030970531235752
  0.0769663298943613  0.7700794526143824  0.0835426717586287
  0.0023087722298243  0.8252871185780535  0.1738955378856986
  0.9261058467282268  0.8948634252925984  0.2390858441632489
  0.8234394246846009  0.9850724150706824  0.3267111538607708
  0.7364338401542767  0.0910752379730937  0.4056169022647822
  0.6697587275801808  0.1555148749810016  0.5270305650554832
  0.5894590776523785  0.2592619376044993  0.5856610013869883
  0.5938134979670195  0.2533609619623078  0.7615641449118442
  0.4969422708618296  0.3605938150744805  0.8384891757865915
  0.3958084169326668  0.4345822740918095  0.9006510639914893
  0.3321865162828672  0.4925499306505543  0.9794974848951199
  0.2742409361225100  0.5702409451474395  0.0769064794231653
  0.1996386741906093  0.6646146384328944  0.1612096096481253
  0.0987871048031650  0.7521059004027961  0.2482763423392598
  0.9967496485028136  0.8293211758055961  0.3410621466028303
  0.9001917797157617  0.8961318964698251  0.4255976748936021
  0.8540112930346524  0.0029866611567115  0.4735564580483356
  0.7626210798563591  0.0711597554719532  0.6019492077063404
  0.6736436179510576  0.1631833124335031  0.6353384908420736
  0.6809468707250375  0.1664119053047557  0.8086093612251091
  0.5948582934336528  0.2394739578583369  0.9159961876804985
  0.5119614953830336  0.3401635440416442  0.9940723309963531
  0.4056453820869450  0.4006581062851495  0.0717572683918561
  0.3239481166400680  0.4800610930612521  0.1861613300843601
  0.2569758887178892  0.5994277659028739  0.2605086648806818
  0.1719200961392318  0.6626497349521188  0.3587773407812733
  0.0847605586905331  0.7382050316347488  0.4032150930042562
  0.9883017133112943  0.8236117666058647  0.4848104451664383
  0.9213527226782219  0.8888827191632487  0.5794203212874294
  0.8497841223020188  0.9660952291381690  0.6791584910320694
  0.7394283449232404  0.0618777830027355  0.7406979223666212
  0.7470753144474855  0.0690227109933090  0.9270365785073693
  0.6857967871257031  0.1465616307569562  0.9781372962266275
  0.5848561849255205  0.2464058567031486  0.0739107140142892
  0.5232704884860908  0.3532681733546141  0.1663698690910493
  0.4365316318969477  0.4062793837399283  0.2629736329609358
  0.3455520277587780  0.4960271422328617  0.3219170362137120
  0.2841315069729475  0.5809321781425751  0.4293833357083159
  0.1604235826113367  0.6544432997036012  0.5108764952880378
  0.0804472967966277  0.7374799565853465  0.5852431662296738
  0.0032082226592181  0.8130064243236035  0.6682066931714559
  0.9360411541457694  0.9042467215762287  0.7562634661422720
  0.8510974036707708  0.0001291068171483  0.8507370691784431
  0.8389969790241665  0.0019988652340786  0.0192656482748106
  0.7481776813535461  0.0704514235636111  0.0747412909446723
  0.6766656197750436  0.1715014843631266  0.1659577870877058
  0.5888047832117351  0.2509190378476944  0.2465787035453744
  0.5259170628134981  0.3436704177116567  0.3522886133910959
  0.4240503087475318  0.4046747648768800  0.4080874311255513
  0.3480497382770906  0.4885309317525426  0.5017435267517882
  0.2507203892118852  0.5786334155076744  0.5890620416286652
  0.1605538146944809  0.6577760117419089  0.6748272951816361
  0.0752307982786107  0.7450038161194712  0.7795297048373584
  0.9983897115823055  0.8313147229822135  0.8800499999999971
  0.9306646275079800  0.9161834269075868  0.9358197441670484
 
  0.00000000E+00  0.00000000E+00  0.00000000E+00
  0.00000000E+00  0.00000000E+00  0.00000000E+00
  0.00000000E+00  0.00000000E+00  0.00000000E+00
  0.00000000E+00  0.00000000E+00  0.00000000E+00
  0.00000000E+00  0.00000000E+00  0.00000000E+00
  0.00000000E+00  0.00000000E+00  0.00000000E+00
  0.00000000E+00  0.00000000E+00  0.00000000E+00
  0.00000000E+00  0.00000000E+00  0.00000000E+00
  0.00000000E+00  0.00000000E+00  0.00000000E+00
  0.00000000E+00  0.00000000E+00  0.00000000E+00
  0.00000000E+00  0.00000000E+00  0.00000000E+00
  0.00000000E+00  0.00000000E+00  0.00000000E+00
  0.00000000E+00  0.00000000E+00  0.00000000E+00
  0.00000000E+00  0.00000000E+00  0.00000000E+00
  0.00000000E+00  0.00000000E+00  0.00000000E+00
  0.00000000E+00  0.00000000E+00  0.00000000E+00
  0.00000000E+00  0.00000000E+00  0.00000000E+00
  0.00000000E+00  0.00000000E+00  0.00000000E+00
  0.00000000E+00  0.00000000E+00  0.00000000E+00
  0.00000000E+00  0.00000000E+00  0.00000000E+00
  0.00000000E+00  0.00000000E+00  0.00000000E+00
  0.00000000E+00  0.00000000E+00  0.00000000E+00
  0.00000000E+00  0.00000000E+00  0.00000000E+00
  0.00000000E+00  0.00000000E+00  0.00000000E+00
  0.00000000E+00  0.00000000E+00  0.00000000E+00
  0.00000000E+00  0.00000000E+00  0.00000000E+00
  0.00000000E+00  0.00000000E+00  0.00000000E+00
  0.00000000E+00  0.00000000E+00  0.00000000E+00
  0.00000000E+00  0.00000000E+00  0.00000000E+00
  0.00000000E+00  0.00000000E+00  0.00000000E+00
  0.00000000E+00  0.00000000E+00  0.00000000E+00
  0.00000000E+00  0.00000000E+00  0.00000000E+00
  0.00000000E+00  0.00000000E+00  0.00000000E+00
  0.00000000E+00  0.00000000E+00  0.00000000E+00
  0.00000000E+00  0.00000000E+00  0.00000000E+00
  0.00000000E+00  0.00000000E+00  0.00000000E+00
  0.00000000E+00  0.00000000E+00  0.00000000E+00
  0.00000000E+00  0.00000000E+00  0.00000000E+00
  0.00000000E+00  0.00000000E+00  0.00000000E+00
  0.00000000E+00  0.00000000E+00  0.00000000E+00
  0.00000000E+00  0.00000000E+00  0.00000000E+00
  0.00000000E+00  0.00000000E+00  0.00000000E+00
  0.00000000E+00  0.00000000E+00  0.00000000E+00
  0.00000000E+00  0.00000000E+00  0.00000000E+00
  0.00000000E+00  0.00000000E+00  0.00000000E+00
  0.00000000E+00  0.00000000E+00  0.00000000E+00
  0.00000000E+00  0.00000000E+00  0.00000000E+00
  0.00000000E+00  0.00000000E+00  0.00000000E+00
  0.00000000E+00  0.00000000E+00  0.00000000E+00
  0.00000000E+00  0.00000000E+00  0.00000000E+00
  0.00000000E+00  0.00000000E+00  0.00000000E+00
  0.00000000E+00  0.00000000E+00  0.00000000E+00
  0.00000000E+00  0.00000000E+00  0.00000000E+00
  0.00000000E+00  0.00000000E+00  0.00000000E+00
  0.00000000E+00  0.00000000E+00  0.00000000E+00
  0.00000000E+00  0.00000000E+00  0.00000000E+00
  0.00000000E+00  0.00000000E+00  0.00000000E+00
  0.00000000E+00  0.00000000E+00  0.00000000E+00
  0.00000000E+00  0.00000000E+00  0.00000000E+00
  0.00000000E+00  0.00000000E+00  0.00000000E+00
  0.00000000E+00  0.00000000E+00  0.00000000E+00
  0.00000000E+00  0.00000000E+00  0.00000000E+00
  0.00000000E+00  0.00000000E+00  0.00000000E+00
  0.00000000E+00  0.00000000E+00  0.00000000E+00
  0.00000000E+00  0.00000000E+00  0.00000000E+00
  0.00000000E+00  0.00000000E+00  0.00000000E+00
  0.00000000E+00  0.00000000E+00  0.00000000E+00
  0.00000000E+00  0.00000000E+00  0.00000000E+00