Li 
 1.0000000000000000
    21.0527999999999977    0.0000000000000000    0.0000000000000000
     0.0000000000000000   21.0527999999999977    0.0000000000000000
     0.0000000000000000    0.0000000000000000   21.0527999999999977
 Li 
 432
Cartesian
  0.1095913400000000  0.3888497200000000 -0.0731436900000000
 19.4597329300000013  1.8175526399999999  2.0476544400000001
 17.1313896700000008  3.4737773800000000  3.1306182599999999
 15.4302425900000006  4.9982032199999997  5.5580306899999998
 14.4612018500000001  7.0693748400000000  7.0506703599999998
 12.7526142000000000  9.0656145400000003  8.9874913599999999
 10.5010590100000005 10.5036854799999997 10.5363751800000003
  8.9385054000000004 12.4959045599999996 12.1626451000000007
  6.9341934299999997 14.0040794799999997 14.3739790400000000
  5.1683250400000000 15.9991681900000007 16.4712878300000014
  3.4153198900000001 17.4210800600000013 18.2306926699999998
  1.9858660600000000 20.0070827300000005 19.5385470699999999
  2.0495963100000001 19.4595939199999997  1.9827112499999999
  0.0874757200000000 -0.3523768000000000  3.1686246800000002
 18.8377742200000000  1.3720908999999999  4.9526289800000001
 17.5333322600000017  3.0702341600000000  6.9884271499999997
 15.9366558600000001  4.7772753100000003  8.8165961199999998
 14.4277741699999993  7.2619160799999998 10.8143785799999996
 12.1983676400000007  9.0837201299999997 12.4805935699999999
 11.1722433300000006 11.1499974399999999 14.0510903599999999
  8.7119743399999994 11.4676049100000004 15.7900635499999993
  7.2904266099999999 13.6188719299999992 17.6711110900000001
  5.4827793800000002 15.6046940999999997 18.9900747599999988
  3.4938104100000000 17.4924706199999989 -0.1911542900000000
  4.3356188900000001 17.2887611099999994  2.9554874999999998
  1.8968409799999999 18.6367873899999985  5.1084268899999996
 -0.0680868300000000 -0.4219162900000000  6.8804810200000004
 19.4747724099999999  1.6065672000000000  8.5838265699999994
 17.5444678900000000  3.0269348400000000 10.4751224000000001
 16.3562355900000007  5.1302691500000002 12.4569063399999997
 14.2977640699999995  7.4514920699999996 13.7607131900000006
 12.6370767700000002  9.4806073699999995 15.5180410400000000
 11.0035842200000005 10.3941875600000007 17.1566281099999998
  8.7768569900000006 12.1419478000000005 19.4641167800000012
  6.8953057700000002 14.0199061100000009 21.0275649199999997
  5.7074605700000003 15.5065418299999997  1.6642727100000001
  5.4373857299999999 15.5785781399999994  5.3964300300000003
  3.8260268399999999 17.3114191499999990  6.7834589999999997
  1.9231266300000001 19.5959705200000016  8.4556492300000006
 -0.0597701200000000 -0.2261984800000000 10.1091098099999996
 19.2661187200000015  1.5201292600000000 12.3462613399999999
 17.8494321300000003  3.4806969099999998 14.3298118399999996
 15.6082119899999991  5.4206433299999999 15.6857265899999998
 13.9563794300000001  7.5030614800000004 17.8837125599999993
 12.4091695899999994  8.7698731900000002 19.5693753000000008
 10.5942965600000001 10.3431222700000003 -0.5938761900000000
  8.2906225500000001 12.0003135800000003  1.8666820700000000
  7.5386209099999997 13.7987954599999991  3.6713388400000002
  7.1901715099999999 14.3600363899999994  7.0272487400000001
  5.7409422799999996 15.6619807299999998  8.8876133799999995
  3.5155150499999999 17.4479494499999994 10.3689544100000006
  1.7977126999999999 18.9478940099999988 12.1959889199999996
 -0.3172515100000000  0.1672616700000000 13.6882344000000007
 19.2213404799999985  1.9033484000000001 15.7576790700000000
 17.4366687599999999  3.5144934600000002 17.6227802599999990
 15.9648224400000007  5.2608333800000002 19.4241153299999993
 13.8448731299999999  7.0351413999999997 -0.1028509400000000
 11.8865729600000005  8.8203400300000006  1.0541398200000001
  9.8772571399999993 10.6304692700000007  3.5484140900000001
  8.9485002900000001 12.3987907400000008  5.8109708500000004
  8.7840136300000005 12.2036462100000005  8.5114740199999996
  7.4794521500000002 14.2237684299999998 10.5608191100000006
  5.1991287699999997 15.6484954700000003 12.3917377099999992
  3.6028399699999998 17.3696233500000012 14.1181670799999992
  1.5574370500000001 19.0353893300000010 15.9717202199999999
  0.3080859900000000  0.2372801500000000 17.4856105900000003
 19.3639271999999991  1.9607315900000000 19.2783757400000013
 17.5048008300000006  3.2442808400000001 21.1040683499999986
 15.2998177500000008  4.9635094999999998  1.5122968400000001
 13.9018849499999995  7.3074707099999996  3.3414338799999999
 12.3777947299999997  8.7882326699999993  5.4433077599999997
 11.0830484600000005 10.8934595800000000  7.2603822400000002
  1.8984912199999999  1.4359000000000000 19.3395470399999994
  0.4752590700000000  3.1765219199999999  0.2637130900000000
 19.3570784700000011  5.0558962699999999  1.5897885300000001
 17.0315437799999998  6.7018826100000002  3.3109802500000001
 15.8248659499999995  8.9890472799999994  5.0489961299999999
 14.3311196600000006 10.7030827399999993  7.2458589199999999
 12.5460093399999995 12.6148889499999992  8.9772419800000005
 10.0679360599999992 14.0608112100000007 10.1448412200000000
  9.0396028200000007 16.1863919600000017 12.6424186800000005
  7.1553407499999997 17.7187775899999984 14.3518077200000000
  4.6292499899999999 19.2651250800000007 15.8914782100000007
  3.8272810700000002  0.1832302200000000 17.6075280300000010
  3.8923156200000002  0.2861754300000000 -0.2351747000000000
  2.0956575599999998  1.5768879099999999  2.0446224700000002
 -0.2362971800000000  2.9572823300000000  3.5075263799999998
 18.8060197199999983  5.3776104199999999  5.3249020099999997
 17.3704382700000011  6.8818933600000003  7.3065834499999998
 15.7018513700000000  8.5098032499999992  8.2183840799999999
 14.2903163099999997 10.6812486700000004 10.4403773500000003
 12.1306606099999996 12.6774838899999995 12.0904279700000004
 10.4519498300000002 13.9954261199999994 14.1862880800000006
  8.6435243100000001 15.8700794399999996 16.1574396299999989
  7.0136802999999999 18.2233626099999988 17.2633626000000007
  5.0772986400000004 19.0965535899999992 19.4334248800000005
  5.7009949700000000 19.3410033699999993  1.5021677000000000
  4.0556089200000001 -0.5026843100000000  3.6060198899999998
  1.9591117199999999  1.1244547899999999  4.8401165099999996
 -0.2134106500000000  2.7025294700000000  6.2065763599999997
 19.1035622300000014  4.8812031800000000  8.3685833800000005
 17.8709840699999987  7.3879240800000003 10.2350951800000001
 15.6736791100000001  8.9311330899999994 12.4048730099999993
 14.0485913999999994 10.8865906300000006 13.6857406099999999
 12.7046946399999996 12.8337259600000007 15.9157977800000001
 10.3171319599999993 13.9817342799999995 17.9931036000000013
  8.7671286199999994 16.1657615499999991 19.0832531400000001
  6.8380264400000002 17.5684957100000005 21.1354887699999985
  7.1173235400000001 17.4130255299999988  3.0036792999999999
  6.0176922099999999 19.1349633899999994  5.0213408099999999
  3.8947383400000000 -0.3029236900000000  6.6376541600000003
  2.2446075799999998  1.6728553200000000  8.6357311499999998
 -0.1238236700000000  3.2656467700000000  9.8186409599999998
 19.3283826800000007  4.9916536999999996 12.3051529100000003
 17.5002630799999999  6.8246074900000000 13.5388114599999998
 15.8849193199999998  8.9640488299999994 15.0338286199999995
 14.0646509900000005 10.1809476500000002 17.4708298999999982
 12.5425690900000006 12.3320120299999996 19.0946535299999987
 10.2826032600000001 13.5277891399999994 20.7314862899999994
  8.5505763100000003 15.4619852800000004  1.8782511500000001
  8.3066036499999996 16.1540719400000015  5.5591709500000004
  6.9071260600000004 17.6389558300000004  7.0595253600000003
  4.9630705700000002 19.1272940799999986  8.9921946199999994
  3.8321184200000000  0.0777763000000000 10.4729659399999999
  1.5643955000000000  2.0298085800000001 11.6260951899999991
 -0.1238467400000000  3.5428537900000001 14.2566990899999997
 19.4520005500000011  5.2869520000000003 16.0848252800000004
 17.3664412800000001  7.3108839400000001 17.8034907699999998
 15.9349495599999997  9.0099495500000000 19.5375698100000008
 14.0134439999999998 10.3894634600000000 21.1990315199999984
 11.5919696499999993 12.5209341900000002  1.8685919200000001
  9.8481437599999992 13.9660511799999991  3.5086755699999999
 11.0866745899999994 14.3712447999999995  6.8874376000000002
  8.9870093900000008 15.8228656300000008  8.8761215000000000
  6.7769593400000003 17.3622287600000007 10.4579045700000002
  5.3200695199999997 19.4102264399999989 12.4126029300000003
  3.7277982100000000  0.0298922800000000 13.9945610499999997
  1.5707117100000001  1.6961222199999999 15.6098471500000002
 -0.0540463800000000  3.5488409500000002 18.0047232299999997
 19.5811108099999984  5.0581105900000001 19.7378995999999987
 17.2996666400000016  6.5124118099999997 21.5218352199999998
 16.0149522699999984  8.9421569800000000  1.3949160100000000
 13.5178943599999997 10.2919098000000009  3.1041059099999999
 12.7698622799999999 12.0529733599999993  4.8219854499999997
  3.1311803800000000  3.5746254300000002 17.4643592199999986
  1.7699136099999999  5.4243668800000000 19.3856394399999985
  0.1030143000000000  7.0617647999999997  0.3449172200000000
 19.1704916800000014  8.2640864000000001  1.3681931700000001
 17.7136515000000010 10.5155362300000004  3.3489644599999999
 15.8632239800000008 11.9797389499999998  5.5074985200000004
 14.0757101799999997 13.9265058400000008  6.5482300100000002
 12.3569768599999996 16.1007534600000000  8.6552899700000001
 10.5012074900000005 17.7888673299999986 10.8830558800000006
  8.5688235499999994 19.7296945000000008 12.3203648599999998
  6.7655246000000000 20.7535236800000007 14.3375390300000003
  5.2552109400000004  2.0443667500000000 15.5459236300000008
  5.4254955300000001  2.1342981900000000 19.3647112999999997
  3.6677951000000002  3.7421059799999998  0.0706890300000000
  1.7063105700000001  5.5067314500000002  2.4250867899999999
 -0.4454053400000000  7.0229561199999999  3.6843679499999999
 18.6228380599999994  8.7919710099999993  5.7560227700000004
 17.5416442400000001 10.6553844099999999  7.2903176900000002
 15.7767580100000000 12.6958256200000008  8.7735141700000003
 14.2751678099999992 14.4436219000000001 10.8716730800000008
 12.1892469499999994 15.8581011099999998 12.2626465400000004
 10.4389621800000008 18.1021129800000011 14.6236508599999997
  8.7604853200000008 19.3154629000000000 16.0053651899999991
  6.3976562699999997 21.1072586700000002 17.3869801700000011
  6.6282446400000001  0.7637973200000000 -0.3121088200000000
  5.1641250599999999  2.4739468300000000  1.7383155200000000
  3.1313833799999999  3.5559499799999998  3.6810688300000001
  1.5562575800000000  5.1405310100000001  4.9984505600000002
 -0.0066170500000000  6.7859809499999999  6.9283629700000002
 19.8860015499999996  8.9549207899999992  8.7447379400000003
 17.8521641100000004 10.4030421600000000  9.8294140599999995
 16.0855513399999985 12.6889153399999994 12.1362301600000002
 13.7981423400000001 14.3076525599999993 13.9008827099999994
 12.2503740299999997 15.9932093399999999 16.3286723900000013
 10.4236033599999995 17.8053980199999984 17.6204892199999996
  8.5239580499999992 19.6081906400000001 19.2963900300000013
  9.0335217199999995 19.3318218600000016  1.4796685000000001
  7.0944705700000004  0.1326242400000000  3.1399710600000001
  5.5760175800000003  1.8248189900000000  5.0199091300000003
  3.9650645600000001  3.1785729699999998  6.6634593000000004
  1.7549519300000000  4.8141506600000001  8.0534692900000007
 -0.0456999400000000  6.5484525099999997 10.3436686699999996
 19.3810507500000000  8.3813490300000009 12.3669995499999992
 18.0982070099999994 10.4260306000000007 13.8347089499999996
 15.8380550899999992 12.5309962299999995 15.7625656299999992
 13.9114630699999999 14.3579593200000009 18.0876169599999983
 11.9500921400000006 16.1903192999999987 19.3006360199999989
 10.6645159899999999 17.7850781799999993 21.2435340600000018
 10.5276293299999999 17.3236881999999994  3.6380672600000001
  8.3909780000000005 19.1881515299999990  5.2747211199999997
  6.8636750900000001  0.2032915800000000  7.4135421399999997
  5.3010610700000003  2.0403711900000001  8.7041077599999994
  3.3918913200000000  3.4658820200000000 10.3266979699999997
  1.0830635500000001  4.9802012700000002 12.0044412999999999
 -0.1513496200000000  6.9610442099999998 13.8847823100000003
 18.8347691600000005  8.3520643099999994 16.0974821199999987
 17.7426763799999989 10.5409418299999995 17.5055586400000003
 15.6640230700000007 12.3605920099999995 19.5154219399999995
 13.6535118799999999 14.1841221199999996 21.2860418699999983
 11.6233830499999993 15.5637167299999994  2.1652270100000002
 11.7941586800000007 15.9254057600000003  5.1112030600000002
 10.3043901200000008 17.6828819000000017  6.9356601099999997
  8.8340516600000001 19.2257185700000015  8.9335223799999994
  6.2298293300000003 -0.2778598100000000 10.4788703800000000
  5.4347224399999998  1.9798969600000000 12.2332327999999997
  3.2954002999999998  3.5157090300000000 13.6362330000000007
  1.5827790799999999  5.3180839899999999 15.6234652599999997
  0.0554229500000000  7.2281834900000002 17.8409185000000008
 19.1523378099999988  8.4856112400000008 19.9198623599999998
 17.6006339899999986 11.1175859599999995 20.9195516999999995
 15.6088720399999996 12.5272093800000004  1.9818522300000001
 13.9858233900000002 13.9028841199999995  3.5245481999999999
  5.2524669900000003  5.2698885100000004 15.7875743100000001
  3.1906869699999998  6.9460875099999999 17.4375051399999990
  2.0139560799999998  8.7783409100000007 19.1480833500000003
  0.3632692000000000 10.2640765500000004  0.0466778000000000
 19.6966090899999990 12.6525651499999992  1.2484902499999999
 17.2863961099999983 14.3981492000000006  3.4582385300000000
 15.3772950099999992 16.0157775800000017  5.5595397200000001
 13.8730791799999995 17.8331412699999987  6.5268916099999998
 12.4308797299999991 19.9374019500000017  9.1799897999999995
 10.4466658500000005 -0.2420968200000000 10.4054699599999996
  8.6872766000000006  1.5094015000000001 12.3556313600000003
  6.9288664700000000  3.8752956200000002 14.0273198200000007
  7.3174233900000001  4.0358294099999998 17.3793713300000014
  5.1304309500000000  5.2729738199999998 19.4977715300000014
  3.2896740599999998  7.3484344100000003  0.2885726300000000
  1.6563226000000000  8.9854708100000007  2.7732305300000002
 -0.2660974300000000 10.3468025699999995  3.7618069900000002
 19.0874962400000001 11.8833057699999998  5.2760732499999996
 17.4126633899999987 13.9623067100000000  7.1103643500000002
 15.5435872600000007 15.6101498599999999  9.1728781300000009
 13.7512490799999991 17.3648102299999998 10.7213124299999993
 12.3759552799999994 19.2915905700000003 12.3038193200000006
 10.7125863999999993 21.0480990199999987 14.0082352799999992
  8.6906897599999997  1.9140672200000000 15.8301392500000002
  9.2716972299999991  1.9430665199999999 19.2785087699999984
  7.2917543900000004  3.4596749999999998 -0.3099140100000000
  4.9500901199999996  5.2251237799999997  1.8677369600000000
  3.8015056000000000  7.4026079700000000  4.1048508999999997
  1.3389519700000001  8.8091476199999992  5.5431585099999996
 -0.0320943400000000 10.2951465700000000  6.8436522699999998
 19.2317199999999993 12.3863976000000005  8.7289838700000004
 18.0515959499999994 13.9822498300000007 10.5177635499999997
 16.2850221799999986 16.0329101700000010 12.2712143699999991
 14.3062142300000001 17.6394642600000005 14.2891695999999992
 12.3931702700000006 19.3830456399999989 15.9815579400000001
 10.7607884800000004 -0.1471509000000000 16.9922586399999993
 10.8345527900000000 -0.0705462200000000  0.0537125400000000
  8.5232398400000005  1.6766905299999999  1.5565986199999999
  7.1866341399999998  3.6584219500000001  3.4864598800000000
  5.1599070700000000  5.5139246100000001  5.2531225199999998
  3.1816240200000001  6.8879514300000002  7.3286333199999998
  1.5602053000000000  8.9169333099999992  8.8832984100000001
 -0.0074406900000000 10.5543994500000000 10.1974047799999994
 19.1702757199999994 11.9091371800000001 12.1510274099999993
 17.7093511200000009 14.1894170099999997 14.2689357399999999
 15.3866266399999994 15.7615744899999992 16.4838456099999995
 13.6823938199999997 17.6596734700000013 17.3150911000000001
 12.2643029699999992 19.5851144400000017 19.1960271400000018
 12.8658288100000000 18.9323891300000007  1.6080935599999999
 10.4989643200000007 -0.0300615900000000  3.3078165700000000
  9.4421729600000006  1.6099453699999999  5.5211938600000003
  7.3705035299999997  3.3611293899999999  6.9402141400000001
  5.5482840900000001  5.7938931199999999  8.3900622200000008
  3.1547282200000000  6.9071852700000003 10.3808161200000004
  1.6383905800000000  8.6209677500000002 11.6324744700000000
 -0.3029567300000000  9.8348014100000007 14.0842769499999996
 19.1044153500000000 12.4165635499999993 15.3939616600000004
 17.3254945199999995 14.0271558200000008 17.4558750399999987
 15.6570578800000000 15.7936340899999994 19.3463727600000013
 13.8104520199999996 17.5514326999999994 -0.0924918500000000
 13.5165126200000003 17.1157722999999997  3.6121103600000000
 11.9715255799999998 19.7362312899999992  4.8185153300000003
 10.3092497600000002 -0.1553296000000000  7.1469024699999997
  8.5499883499999996  2.2630149600000000  9.1418441599999998
  7.0120081200000000  3.9884346499999999 10.4380873500000000
  4.9609838000000002  5.1999668600000000 12.2731928299999993
  3.4779290600000001  7.0709852299999998 13.8701756899999999
  1.4262033000000001  8.4703415399999997 15.7322652400000003
 -0.4885212000000000 10.4144091299999992 17.3979635399999992
 19.6290989300000014 12.5334373299999999 19.4138236100000015
 17.3704412300000008 14.2306302700000007  0.0306536800000000
 15.8755295299999997 16.1822185199999993  1.9829714199999999
  6.3104358899999999  7.1832364100000001 13.7899283799999992
  4.5751613100000004  8.9293618899999991 15.5369446100000008
  3.3794178800000001 10.1607547700000005 17.6543131799999991
  1.1540585600000000 12.2978058699999995 19.5900149600000013
  0.1360324000000000 14.1990066800000001 -0.4292541800000000
 19.1728709600000009 15.8667962599999992  1.6773896800000001
 17.5546160899999997 17.4845198900000014  3.8852632400000000
 15.6814856099999993 19.4124723500000016  4.5081360999999998
 14.0482818799999993  0.0503429400000000  6.7558833700000003
 12.1916703300000009  1.4754069999999999  8.7973694899999995
 10.5087698799999991  3.6702132700000001 10.6634242599999993
  8.9084829299999999  5.5145574599999998 12.3154592600000008
  8.9318363600000001  5.9528528200000004 15.9044566700000001
  6.1414747099999998  7.1975553400000001 17.5251174300000017
  4.6854444099999997  8.6874032799999998 19.7746195699999987
  2.8055363500000001 10.6429351299999997  0.2507428400000000
  1.8033140400000001 12.3694631600000005  2.0960994099999999
 -0.1304383000000000 14.3081886300000001  3.4821690099999998
 19.1224308299999990 15.6506161099999996  5.5423964400000001
 17.7163569099999982 17.9245708999999991  6.9873063200000001
 15.7111010199999992 19.3738600900000009  8.8305851000000004
 14.1926221399999992  0.1864671000000000 10.7353047299999993
 12.0671631500000007  1.6863288200000000 12.2760150699999997
 10.5343497799999994  3.8195170699999998 14.1588153899999991
 10.9626455600000003  3.3369033400000001 17.5301763699999995
  8.6310903900000007  5.6469090199999998 19.0742148500000006
  6.9225339600000000  6.8552331500000001 -0.2222457000000000
  5.2898312599999997  9.2574826699999999  1.6078184300000000
  4.0585566300000000 10.7933494099999994  3.6825553200000001
  1.8511591100000000 12.2212110000000003  5.3302432099999999
  0.1619937200000000 13.7314934199999996  7.2414318199999999
 19.3194502399999983 15.6132543399999992  8.7977143699999996
 17.4992610299999996 17.1447030600000012 10.0597837299999995
 16.1738835399999985 19.2530841799999983 11.8906932199999993
 13.9699477499999993 -0.3051341300000000 13.8251455799999992
 12.8891555100000001  1.8884624699999999 15.3531584599999995
 12.5690778000000005  1.4811183100000000 18.7313849899999987
 10.8341593899999999  3.5794843300000001 -0.0399412200000000
  8.8759015399999992  5.8188810300000000  1.4023058500000001
  6.8539533600000002  7.5217508899999999  3.2300271700000001
  5.3999099299999997  8.7622573700000004  5.8277574300000001
  3.6500793300000001 10.2300573499999992  7.1775543400000004
  1.7938225800000001 11.4618998199999993  8.9547612999999995
 -0.0893751800000000 14.1061201500000006 10.1680089599999999
 19.6789137899999993 15.3971694400000008 12.5063203200000004
 17.2578243600000008 17.3395307599999988 14.4175996000000008
 16.0701183900000011 19.3847597000000000 15.9962746800000009
 14.3983793299999991 -0.1267715300000000 17.3608947499999999
 13.4795366300000001 -0.5971121000000000 -0.1301983700000000
 12.4228712199999993  1.8393067100000000  1.8154675000000000
 10.0639382400000006  3.2985084400000000  3.2320788800000000
  8.6189415599999997  5.7491046700000004  5.2611787799999998
  6.8575970599999998  7.0802592200000003  7.0968132099999996
  5.0718659800000001  8.7406168700000002  8.7427853500000001
  3.9262096500000001 10.6473124800000001 10.3313534100000002
  1.3973199300000001 12.1141897499999995 12.4487763600000001
 -0.2647310300000000 14.0492194599999998 14.1277117000000008
 19.5244639100000015 15.8675234700000001 16.5614283100000002
 17.5809465200000012 17.6861113199999984 17.5930965800000010
 16.2246222399999986 19.2179277699999993 19.0418473900000009
 15.7236706900000005 18.7338438399999987  1.4832719599999999
 13.7050837899999998  0.2026468600000000  3.0106571000000000
 11.8595928700000002  1.4548195600000000  5.1591796900000002
 10.4950982499999999  3.7046298900000001  7.3261641800000001
  9.3623979899999998  5.7111613900000000  9.3342200200000001
  6.8452189399999996  7.3825942099999997 11.0056906300000001
  5.0866618700000004  8.6941902399999993 12.2869669300000002
  3.1711583100000000 10.3142471699999998 13.9883604800000008
  1.1486379400000000 12.2627794100000003 15.8488555299999998
 -0.1985096800000000 13.8326428900000007 17.8476979000000000
 18.8764906299999993 15.9079540399999999 19.2519285800000013
 17.4427614400000017 18.0080335799999993 -0.0403193300000000
  8.9268475499999997  9.1566112900000007 12.8026394499999991
  6.6762668999999999 10.4792718499999999 13.7754955999999993
  5.0639551200000001 11.9725483100000005 15.9093994700000003
  3.2882443000000001 13.4608540600000008 17.3198240800000001
  1.4335786900000000 15.2047508100000002 19.0254257699999982
  0.2096258800000000 17.7041101800000007  0.2742276300000000
 19.3374782600000010 18.7722147499999998  1.8293276800000000
 17.2826532899999989 20.8467006700000006  3.0738662799999998
 15.5966645499999998  2.0421032299999999  4.7628161300000000
 13.6751652600000000  3.4700347599999999  6.9923189600000004
 12.7160724599999995  5.6790751899999998  8.9503375199999997
 10.9618173399999996  7.5869601800000002 11.1009813400000006
 10.6893504600000000  7.3324987799999999 14.0069725999999992
  8.6086030600000001  8.8916924799999997 15.4261672399999998
  6.6000057099999996 10.3286789799999994 17.6182613500000009
  5.2178484200000002 12.2831118900000007 19.6625442100000001
  3.6427228000000000 14.0172290900000007  0.0652016400000000
  1.6203567500000000 16.2123287000000005  1.7588071599999999
  0.0486061200000000 17.3746046499999984  3.6609879799999998
 19.4971211699999998 18.8393807200000012  5.0334264600000003
 17.3357055200000012 20.7385325400000013  6.8781845800000001
 15.5039943499999993  1.9173887700000001  8.5393715199999995
 14.1002965400000004  3.2740235599999998 11.0954690800000009
 12.4097640699999996  5.4581897200000000 12.3298039300000006
 12.5014368099999995  5.3339576600000003 16.0330576299999983
 10.4620262400000001  7.5915094700000001 17.6525449200000004
  8.3328754400000005  9.1491737000000004 18.9612267199999991
  6.9934562900000001 10.3695551800000008 -0.4316353500000000
  5.7735395799999996 12.0051685700000004  1.6190967300000001
  4.2029530800000003 13.9919990599999995  3.3939136699999999
  2.0797451599999999 15.8339350999999997  5.2269121800000002
 -0.0684290000000000 17.4595328499999987  7.1803131599999999
 18.9515574999999998 18.8660855900000008  8.9600227300000004
 17.9793289499999993  0.0628775800000000  9.9696894000000000
 16.0553090699999998  1.4981120999999999 12.6727162799999995
 14.1820843599999993  3.4354656399999999 13.3756541799999997
 14.3358382800000008  3.5034365599999999 17.0234911599999990
 12.5234326800000009  5.0415973400000000 19.2842845400000016
 10.7782229699999998  7.1613950600000003 -0.1247940300000000
  8.5399711000000007  8.4349749799999998  1.5106914199999999
  6.8200149100000003 10.1066301799999998  3.9192172500000000
  5.4100619900000000 12.6196328700000002  5.4844368200000000
  3.6193993999999998 13.9506323400000003  7.5532675999999999
  1.7844470900000000 15.5412828899999997  8.4888067100000004
 -0.2462816900000000 17.3393337999999986 10.2066173399999993
 19.3970546000000006 18.7134701099999994 12.1984201399999996
 17.8903351700000002 20.3390096400000004 14.2981878800000004
 15.5670370600000005  1.3027005899999999 15.5937652199999999
 15.7280271799999998  1.4531213300000001 19.5167156800000008
 14.4379425999999995  3.0855326999999999 -0.4602711300000000
 12.3128602899999997  5.1875332199999997  1.5560274800000000
 11.0163089400000000  7.4372841999999997  3.5025515800000000
  9.1902131399999991  8.5533186099999998  5.5363312999999996
  7.2748377299999998 10.4427602200000003  6.7772549800000004
  5.9817637899999996 12.2302489600000008  9.0397214899999998
  3.3773656000000001 13.7778638999999998 10.7553806800000000
  1.6936408500000000 15.5260180299999995 12.3210073300000005
  0.0675420700000000 17.1160616499999989 14.0676218700000000
 19.7062872099999993 19.0369253799999996 15.9214634999999998
 17.9179834199999988 21.0555180600000007 17.9103973699999983
 17.6632356000000001  0.0420817100000000  0.4055958400000000
 15.7512350899999998  1.4831997299999999  1.5735134500000001
 14.2457059600000004  3.6105864500000000  3.4938761000000000
 12.3959893399999999  5.2825483200000001  5.1911721300000000
 11.0720267400000001  7.2352245699999997  7.4166617199999996
  8.9274463399999995  8.5195368899999995  8.5913830699999991
  7.3274215299999996 10.2849439999999994 10.5631061200000005
  5.2783662099999997 12.1818535699999995 12.4014053499999992
  3.3801073499999998 13.8480268199999994 14.2070040800000008
  1.5838189499999999 15.6844163400000003 16.4112829699999985
 -0.0339010800000000 17.5015025999999985 18.5275166400000018
 19.5930962700000002 19.2882264499999998 19.7016259100000006
