Li                                      
   1.00000000000000     
    20.0207999999999977    0.0000000000000000    0.0000000000000000
     0.0000000000000000   20.0207999999999977    0.0000000000000000
     0.0000000000000000    0.0000000000000000   20.0207999999999977
   Li
   432
Direct
  0.0101520558619015  0.9724667695596594  0.0092447249860115
  0.9301977443458824  0.0616801371573530  0.0635161512027480
  0.8706492542755555  0.1768933903740120  0.1579157965715652
  0.7613138351114870  0.2220030483297393  0.2279232033684977
  0.6866460156437313  0.2966567125189812  0.3491811471070108
  0.5981201850075948  0.3681692874410629  0.4301691271078099
  0.5209270808359321  0.4558988402061885  0.4910419114121325
  0.4445278949892142  0.5752889395029186  0.5695834681930805
  0.3672587683808857  0.6726341449892104  0.6469904039798635
  0.2501864595820322  0.7550429822984128  0.7430194357867848
  0.1727219451770168  0.8418226119835381  0.8371312380124678
  0.1030685826740196  0.9360377966914442  0.9343881688044462
  0.0857310806760978  0.9209838248221871  0.0937527920962182
  0.0187387442060256  0.9933384145488660  0.1621526562375095
  0.9306506013745732  0.0751162461040522  0.2413994345880255
  0.8531357118596645  0.1598787186326192  0.3204838462998509
  0.7781796971150001  0.2223162156357361  0.4150963892551758
  0.7136499205825970  0.3047417395908241  0.5061483696955165
  0.5924823848197889  0.3758904424398608  0.6173703553304577
  0.5008091939383021  0.4695733477183737  0.6735865694677514
  0.4225485704866969  0.5687279599216808  0.7740683509150514
  0.3113669858347308  0.6846405608167530  0.8364224436585985
  0.2386728542316021  0.7622209811795742  0.8995698908135523
  0.1943957219491708  0.8583010074522477  0.0148148460600979
  0.1970419209022651  0.8319291102253672  0.1944126593342901
  0.0981456705026744  0.9398644479741094  0.2470515873491550
  0.0039286212339178  0.0035834052585315  0.3712960705865882
  0.9218779319507746  0.0859617008311346  0.4293994875329687
  0.8553760529049796  0.1436591439902486  0.5069171821305858
  0.8028063039438962  0.2286130564213238  0.6028539508910740
  0.7124084207424275  0.2983363192279995  0.6667592648645382
  0.6118944317909367  0.4017214132302414  0.7513876888036464
  0.4774436600935061  0.4659808713937537  0.8295141777551365
  0.4171563069407824  0.5771111339207238  0.9171858012666831
  0.3408817689602799  0.6843593153120722  0.0028934787820702
  0.2503438424039004  0.7300490494885352  0.1094558868776474
  0.2558060946615512  0.7631560801766142  0.2669725260728839
  0.1825426945976218  0.8620771967154184  0.3265065531846858
  0.0759021672460634  0.9099178704147661  0.4319983582074656
  0.9956316770558615  0.9972897791297086  0.5193102892991277
  0.9381161836689813  0.0776203468392893  0.5878725475505462
  0.8307158430232562  0.1416294648565497  0.6791278030847892
  0.7921310866698619  0.2463843927315565  0.7455892302005935
  0.7032747492607712  0.3118877032885834  0.8122222743346939
  0.5844887851634297  0.3920298454607192  0.8984146412730780
  0.4987573733317348  0.4847867967313988  0.9866208238432037
  0.4324435022576552  0.5747870554623162  0.0960001278670148
  0.3228585456125614  0.6781614670742400  0.1756148130943842
  0.3609686101454486  0.6766360075521476  0.3486688898545509
  0.2585041556780965  0.7305688419044216  0.4255253846000144
  0.1796271677455437  0.8113260728841993  0.5033403605250513
  0.0974914049388644  0.8860734945656503  0.5816257692000306
  0.0409071445696441  0.9966794189043426  0.6446074182849841
  0.9255233067609652  0.0447276587349137  0.7559025153840011
  0.8567512267242066  0.1427840730640142  0.8438950906057698
  0.7814360480100717  0.2379676486454088  0.9068738821625502
  0.6810211400143871  0.3372514340086283  0.0008822724366624
  0.5749403765084296  0.4169845026172752  0.0799475515463897
  0.4974768510748788  0.4834542325980991  0.1751940252137771
  0.4201615959402218  0.5782909873731299  0.2799858157516155
  0.4485873186885669  0.6013189353072832  0.4173826045912250
  0.3623160183409269  0.6664007177535396  0.4956363127347529
  0.2513146657476213  0.7309115255134628  0.5840728871973155
  0.1562042216095278  0.8044461864660732  0.6737305232558128
  0.0703796441700604  0.9200468942299977  0.7239620729441398
  0.0131042171142042  0.9726489455965819  0.8448676546391738
  0.9020192484815794  0.0650927964916477  0.9416524224806224
  0.8565835001598359  0.1619180027771137  0.9878304343482753
  0.7666959816790566  0.2293376523415631  0.0655051911012521
  0.6869806251498431  0.3264371613521959  0.1589267321985162
  0.6022118496763369  0.3839837913569895  0.2688574727283637
  0.5127176186765752  0.4719787491009342  0.3521160682889786
  0.0893610789778663  0.0636635808758896  0.9273922965116270
  0.0223340356029738  0.1676090485894690  0.9771829342483827
  0.9431697224886122  0.2462555642132216  0.0806490949412577
  0.8306976179773002  0.3190854176656259  0.1629141208143565
  0.7447304098737320  0.3971847733357308  0.2482799593422840
  0.6571354531287454  0.4759249790218192  0.3580139405018770
  0.6038874830176582  0.5709526377567329  0.4338464476943997
  0.5356087548949091  0.6869660987572956  0.4906683888755694
  0.4394504475345613  0.7471822050067942  0.5935723892152183
  0.3331929063773700  0.8393034748861155  0.6521394534683935
  0.2379939028410476  0.8923851289658771  0.7279136428114796
  0.1850770663509920  0.9752075926036952  0.8137248936106474
  0.2240259205426369  0.0006936825701302  0.9837223822224885
  0.1037335930632111  0.0913096179972825  0.0703498396667470
  0.0053007647047068  0.1552855685087522  0.1614660363222242
  0.9480591185167455  0.2524744680532223  0.2495379770039179
  0.8349328852992883  0.3284995849316701  0.3177801466474861
  0.7373747142971325  0.4018429513306145  0.4303956175577426
  0.6728501638296152  0.4917615764604832  0.5098250134859725
  0.5716336205346408  0.5786808049628362  0.5882597723367695
  0.5115949327699170  0.6434735854711136  0.6580472248861184
  0.4411832384320320  0.7457782765923469  0.7514938643810467
  0.3293940846519590  0.8437604621193984  0.8163509909693900
  0.2978747847238878  0.9074337748741286  0.9190622103012842
  0.2767103272596501  0.9171884819787408  0.0923962553943909
  0.1907814727683217  0.0035096814313107  0.1659876203748070
  0.0605170577599310  0.0686111364181272  0.2513496208942669
  0.9769496393750501  0.1989531627107795  0.3313686970550620
  0.9218835740829547  0.2723261143410838  0.4074697904179629
  0.8396203133740912  0.3229896567569739  0.5159011448093977
  0.7664253156717038  0.3950553459402215  0.6095238681770994
  0.6650652446455680  0.5161259679932897  0.6782057774914065
  0.5707161566970385  0.5546494176056882  0.7756635324262788
  0.4996801980939836  0.6562485460121508  0.8399373981059668
  0.4059217603692176  0.7725933913729719  0.9057377232678050
  0.3326453588268237  0.8276581080676095  0.0136576295652517
  0.3252038654798994  0.8308269759450155  0.2016701630304496
  0.2585559807799882  0.9390482358347327  0.2609742887397104
  0.1492820506673027  0.0272259085551028  0.3559615799568476
  0.0653303734116548  0.0988923104970851  0.4225690047350739
  0.9925666342004291  0.2009723672380730  0.5011022471629474
  0.9275244620594592  0.2373414583832840  0.5924410548030039
  0.8785765678694162  0.3350271662471016  0.6680682570127061
  0.7782297995085088  0.4065240360025584  0.7526420952209705
  0.6598346559578019  0.4849885718852391  0.8305086385159441
  0.5670947814273148  0.5564134060577004  0.9112833023655398
  0.4784128646207932  0.6680736773755314  0.9918723232837863
  0.4135544084152514  0.7341477218692560  0.1094977878006844
  0.4396676061895661  0.7586889175257738  0.2900555497282795
  0.3198356584152506  0.8440930012786723  0.3817468128146757
  0.2706535582993652  0.9166025987972475  0.4305362512986477
  0.1469827719172088  0.0039200681291476  0.4868658245424768
  0.0908515344042229  0.0830110140453897  0.5650523655398416
  0.0113639819587661  0.1441209602013913  0.6715204387437055
  0.9382040313074427  0.2200106084671916  0.7416639734675954
  0.8722832883800820  0.3079853362502973  0.8277834517102249
  0.7352636133421271  0.3743328862982480  0.9125774469551686
  0.6646217179133700  0.5065567634659942  0.9950930582194530
  0.5570814088348115  0.6045942449852149  0.0984284773835213
  0.4969335975585381  0.6813683978662226  0.2113373231838906
  0.5356656866858458  0.6593335531047728  0.3239755943818423
  0.4456804148685336  0.7577524064972465  0.3900234780827958
  0.3599113851594353  0.8211100890074334  0.4882113921521594
  0.2421559023615458  0.9214036676856097  0.5632834157476196
  0.1570967318988252  0.0012067190122238  0.6351539423999029
  0.0952377547350736  0.0678236384160442  0.7537349916087237
  0.9897587628865949  0.1489939632781940  0.8253454017821440
  0.9416589541876448  0.2474261772756350  0.9227270448733336
  0.8445831839886537  0.3392490434947675  0.9961274044993189
  0.7473469861344171  0.4109434268360914  0.0817279639175226
  0.6534652781107653  0.4900159549068945  0.1713642247063021
  0.5861228702149788  0.5702203063813656  0.2533105765004393
  0.1487045507671994  0.1957826870055115  0.8478804093742482
  0.0694761997522590  0.2676006453288551  0.8963739311116470
  0.0141122842244101  0.3316286841684644  0.0070970795372816
  0.9142697409693952  0.4315804877926936  0.0809863481978752
  0.8370186600935057  0.4792743551706238  0.1633082164548867
  0.7460725999960047  0.5517232717973286  0.2457033819827359
  0.6692059093542753  0.6586823054023796  0.3226112772716405
  0.5921978237632857  0.7330060157436264  0.3907211904619174
  0.4890710665907463  0.8320998641412913  0.4984788215256160
  0.3948228747103002  0.9426313069407826  0.5714770493686601
  0.3062725275713234  0.9896547825261734  0.6429368316950388
  0.2305644309917696  0.0769754809997636  0.7344068134140471
  0.2583194193039233  0.0570506992727573  0.8964992607687989
  0.1976814837568952  0.1625815751618305  0.9771904174658346
  0.0847643890354064  0.2610451595340848  0.0812192674618402
  0.9928956480260496  0.3618593827419474  0.1609622792296008
  0.9145393595660494  0.4017577749140884  0.2714825541436880
  0.8024729631183547  0.4956158999640365  0.3368013620834347
  0.7398712868616641  0.6143435167425864  0.4243536741788532
  0.6494895179013795  0.6740036392152149  0.5185709082554126
  0.5648075171821318  0.7701487747742348  0.5963004775033980
  0.5064469666546785  0.8592827839047388  0.6640092723567506
  0.3975198403660158  0.9161179952849068  0.7296498111963530
  0.3414119935267337  0.9959434642971345  0.8224382662031502
  0.3542705291496873  0.9778904434388238  0.9978227563334130
  0.2648837728762103  0.0913074812195305  0.0725363017461831
  0.1614560801766132  0.1654039159274348  0.1697332549148882
  0.0567749100935018  0.2822170332853844  0.2184367437864623
  0.0013743501758157  0.3507531207544190  0.3100094871333781
  0.9263137102413523  0.4126677780108707  0.4485165482897813
  0.8091824162870580  0.4956456984735880  0.5101763745704488
  0.7557325346639487  0.5867604516303047  0.5836800457524163
  0.6381296651482486  0.6612551351594362  0.6565372277831045
  0.5735949417605681  0.7438700246743366  0.7439149919084187
  0.4841454272556547  0.8501029164668736  0.8199478212658846
  0.4155738367098252  0.9026814343083203  0.9259938189283119
  0.4194182709981646  0.9064480240549813  0.1011913519939256
  0.3412719311915637  0.0193484071565564  0.1934956759969637
  0.2579313144329873  0.1143305926836078  0.2461192749540473
  0.1172926656277440  0.1882557105610161  0.3061439652761138
  0.0705414768640580  0.2941131293454831  0.4053572959122533
  0.9958102997882179  0.3399649284743873  0.5212029139694749
  0.9268908699952050  0.4346680407376340  0.5897891892431844
  0.8537670542635638  0.5233334786821686  0.6686366908415238
  0.7369505369415776  0.5751401722208911  0.7554304498321756
  0.6449923949092948  0.6418700471509595  0.8193582239470985
  0.5794569877327547  0.7598455566211157  0.9116930137656851
  0.4933977113801618  0.8125678699152914  0.0046980819947251
  0.5142495784384238  0.8353110510069541  0.1703579122712355
  0.4063648255813987  0.8982356599136878  0.2559373231838862
  0.3170958837808655  0.0037829142691592  0.3261698433629050
  0.2486524704307556  0.0806403864980396  0.3972814657755919
  0.1671754814992426  0.1445632716974359  0.4733420008191516
  0.0780545552625256  0.2519556201550373  0.5676915188204248
  0.0090883960680870  0.3532474381643098  0.6698312604890901
  0.9364791297051056  0.4163367233077579  0.7546707738951497
  0.8392551985934631  0.4815284424198865  0.8186034194437752
  0.7792546526612298  0.5548529808998666  0.8961875859106527
  0.6673824367657630  0.6574096799328686  0.9800185207384331
  0.5846746868257000  0.7228267806481270  0.0732959686925625
  0.6048797645448758  0.7486653055821932  0.2529116114241177
  0.5295615035363213  0.8564797235874693  0.3287637771717442
  0.4261367582713973  0.9310291217134150  0.3986318993247053
  0.3100344896307874  0.0377706889834570  0.4775301721209928
  0.2488675437544927  0.0930586435107514  0.5570697504595188
  0.1536441485854709  0.1703386288260234  0.6395268755494286
  0.0876995070127080  0.2385557380324457  0.7386738626828091
  0.0066095395788395  0.3320023980060753  0.8207380534244422
  0.9419291826500427  0.4291775238751683  0.9294909618996243
  0.8192423629425392  0.4584904968832433  0.0014538804643180
  0.7383174703308555  0.5389494675537421  0.0844790223167919
  0.6769176686246325  0.6505711350195824  0.1618803444417836
  0.2136200806161597  0.2595310507072668  0.7270880619156088
  0.1453095200990973  0.3653195686486086  0.8064477193718531
  0.0922129650163797  0.4351619126108872  0.8983841694637604
  0.0166977103812016  0.5074047960121462  0.0162132786901594
  0.9221978936905586  0.5739950811156405  0.0819951415527882
  0.8532274174858117  0.6662668260009568  0.1744306436306218
  0.7465449097938119  0.7568132906776981  0.2575763935507069
  0.6682630314472959  0.8684786591944373  0.3225646687445050
  0.5765466285063567  0.9476233557100642  0.4071356963757680
  0.4915424928074827  0.0212636493047214  0.4979413674778215
  0.4164580835930636  0.0958236938583852  0.6156155807959749
  0.3268196395748433  0.1723868841404936  0.6639176816111245
  0.2984248846199975  0.1699714197234883  0.8245456560177402
  0.2548524169863313  0.2630447534564055  0.9027319507711979
  0.1583472833253410  0.3111444502717191  0.9975310596979128
  0.0843512162351132  0.4364603347518567  0.0856970225964986
  0.9947165118276970  0.5030122033085576  0.1819698243826409
  0.9290347563533956  0.5768222868217023  0.2670150893071224
  0.8164931765963388  0.6663691156197586  0.3366150298689377
  0.7367101629305495  0.7505166302045865  0.4191151787141365
  0.6549543804443374  0.8239737333173522  0.4783690651722239
  0.5736716994325874  0.9222202064852567  0.5844726599336667
  0.4861378841005362  0.9908285313274163  0.6876423554503290
  0.4182688553903944  0.1008843332933722  0.7630236933589103
  0.3958123096979165  0.0946241563773711  0.9040729416406919
  0.3322332993686601  0.1888633611044526  0.9883428289578831
  0.2478048454607205  0.2537571300847148  0.0989071170982214
  0.1474534913689780  0.3475256718013284  0.1668006153600246
  0.0661069053184704  0.4584921062095404  0.2543137756733032
  0.9638760149444607  0.5014197634460160  0.3555329727083816
  0.8829958533125577  0.6005054103732093  0.4308393620634519
  0.8398700616358994  0.6719591504834952  0.4738526252697213
  0.7283255988771700  0.7314061016542794  0.6013120684488129
  0.6560421766362978  0.8294746443698529  0.6810677480420395
  0.5596416132222473  0.9217310911651850  0.7452454991808537
  0.4906211764764663  0.0147258491169211  0.8229190127267643
  0.4859606569168093  0.9975436850675266  0.9954108981659076
  0.4044663774674362  0.1102346684448179  0.0671638600855076
  0.3372842473827191  0.1754467039279177  0.1547328833013637
  0.2247647471629506  0.2596151767162169  0.2322697919164085
  0.1266371793334926  0.3555314013426027  0.3010842788499986
  0.0481345800367592  0.4368805776991920  0.4092486598937128
  0.9912028345520625  0.5201237043474762  0.5197378381483233
  0.9150838742707563  0.6089172580516262  0.5575737642851450
  0.8302848607448254  0.6888800162830648  0.6762053689163281
  0.7385566336010569  0.7257757382322367  0.7483027641253130
  0.6540527061855670  0.8269748896148030  0.8260962379125729
  0.5580999050987003  0.9070886048509550  0.9464345930232554
  0.5785936051506440  0.9182888870574573  0.0684154469351910
  0.4736444223008078  0.0276246783345329  0.1619140029369461
  0.3951437569927307  0.1091453443418828  0.2489774484536085
  0.3056866154199653  0.1955952614281173  0.3315215076320612
  0.2003992792495808  0.2831736778750127  0.4166255239550836
  0.1144287316191139  0.3428653605250531  0.4952861828698190
  0.0813400938024458  0.4442366089267153  0.5853422495604548
  0.0016008760888653  0.5361552130784020  0.6667507092623666
  0.8919618631623081  0.5937167011308233  0.7726150733237418
  0.8224071880244566  0.6507957319387856  0.8359854576240693
  0.7467682270438729  0.7271241728602220  0.8933223392671650
  0.6700783020658534  0.7958431146607552  0.0101024629385407
  0.6756375759210442  0.8149657396307859  0.1529782990689696
  0.5802850730240579  0.9412158759889735  0.2385767451850072
  0.4881975025973020  0.9864605190601807  0.3116825086909643
  0.4197808504155702  0.0785247482618061  0.3927476619315939
  0.3187376698233848  0.1749816700631328  0.4737645488691768
  0.2384116688643800  0.2646218078198643  0.5672025298689363
  0.1561446580556236  0.3478786152401483  0.6494104736074462
  0.0925020718452814  0.4424981319427772  0.7385649639375060
  0.0007315027371533  0.5277382262447077  0.8246978157716001
  0.9117337798689391  0.5747341949372640  0.9250665507871787
  0.8236090056341396  0.6437019384839786  0.0081092144170043
  0.7616039468952280  0.7053764280148656  0.0918884814792591
  0.3293187934548101  0.3348433199472538  0.6449344212019525
  0.2430525943019290  0.4305994181051673  0.7040631957763921
  0.1796165008391242  0.5468755064732704  0.7733278225645321
  0.0723925837129400  0.5859046516622683  0.9238629335491098
  0.9992777301606353  0.6747775503476419  0.0127363991448917
  0.9432542675617341  0.7468979231599135  0.0991245274914121
  0.8523026812115404  0.8145107972708416  0.1811513510948615
  0.7706009919683510  0.9178229990809541  0.2343386697834262
  0.6520612128386460  0.0215689627787086  0.3101993776472440
  0.5817540198193853  0.0948439133301378  0.4081854331495265
  0.4994018470790351  0.1649223452609263  0.5094186346199976
  0.4157039638775686  0.2348549158874746  0.5893535817749509
  0.4046836794733508  0.2415885344241957  0.7728903645208973
  0.3088393360904647  0.3515254460361206  0.8122967898385696
  0.2399050557420281  0.4145562260249349  0.8857358432230455
  0.1464171786342234  0.5002813179293568  0.9836282516183203
  0.0784965540837561  0.5862022846239938  0.0876294823383716
  0.0088536591944361  0.6761989036402127  0.1804004610205396
  0.9274234466155207  0.7669439363062409  0.2642661067489840
  0.8195249635379227  0.8397901267681647  0.3234985924638352
  0.7362260628945876  0.9289908145528685  0.4054200891073307
  0.6751882502197688  0.0064081005753991  0.5009491748581496
  0.5812089142292010  0.0678656771957193  0.5905794818388870
  0.5007556396347823  0.1801510903660173  0.6803934253376482
  0.5100464981419321  0.1596733567090212  0.8346176396547591
  0.4145567809478123  0.2626327499400603  0.8964375839127285
  0.3009094396827265  0.3326578288579896  0.0152305886877642
  0.2385916032326350  0.4395241134220385  0.0791613756693010
  0.1598412880604201  0.5233995849316742  0.1718707579117691
  0.0742179098737310  0.5746660967593726  0.2776281172580539
  0.9887858087588910  0.6634995884280315  0.3338068568688541
  0.9089460456125664  0.7690114740669713  0.4060075941021353
  0.7916669348877150  0.8434254725085921  0.5362348717333987
  0.7383125149844147  0.9063645553624227  0.6061376473467561
  0.6730049043994271  0.9860630818948266  0.6796376508431266
  0.5833250344641598  0.0847472378726124  0.7404438948493564
  0.5703541302045849  0.0775063379085736  0.8994871049108895
  0.5037435507072630  0.1929132087628886  0.9736955855909883
  0.4187125684288375  0.2599883376288687  0.0797660298289813
  0.3462528745105118  0.3516928234636012  0.1672855330456358
  0.2434256757971696  0.4255852653240666  0.2567853612243240
  0.1759529863941509  0.5102830456325407  0.3688476134819823
  0.0808878651202747  0.5769657046671455  0.4262766392951320
  0.9695665852513358  0.6865167390913456  0.4972754939862511
  0.9075208003676210  0.7624850425557455  0.5965971574562445
  0.8146894314912458  0.8249833178494370  0.6678249785223400
  0.7742774749260803  0.8986661721809313  0.7456426441500810
  0.6501276572364745  0.9875539049388635  0.8182137776712253
  0.6735848697354783  0.9892592893390884  0.0007640339047370
  0.5982841320027177  0.0876084062574947  0.0580358147526567
  0.4989526657276429  0.1822500654319512  0.1361975510469122
  0.4270327619275918  0.2579416726604364  0.2158569567649664
  0.3199521083073620  0.3064004894909260  0.3180605755014767
  0.2172399314712692  0.3663999165867509  0.4198611588947472
  0.1843015868496778  0.5098002047870196  0.4826953198673394
  0.0779698378686149  0.6285938743706581  0.5593603442419877
  0.9649422995085146  0.6868006762966488  0.6779951390553833
  0.9146743766482857  0.7585270623551494  0.7847164698713343
  0.8256131817909349  0.8482819787421079  0.8420068928314564
  0.7096419263965501  0.8885147496603523  0.9268748866179166
  0.7399831175577418  0.9072159419204056  0.0918517341964389
  0.6829595161032529  0.0113047220890294  0.1470786911611910
  0.5610653000879111  0.0966692609685893  0.2251697030088735
  0.5024757062654857  0.1814389494925308  0.3450095830336437
  0.3968578698153920  0.2607073368696575  0.4171496638495995
  0.3108996938184276  0.3435726259689957  0.5371531871853250
  0.2180358202469463  0.4455509684927677  0.5887252707184558
  0.1445928269599648  0.5378881348397684  0.6595628241628688
  0.0710153250619356  0.6231934318308987  0.7562270104091766
  0.9933492622672446  0.6876610305282540  0.8605561880644146
  0.8960264989411044  0.7431935337249271  0.9349140563813663
  0.7927971364780646  0.8019434553064784  0.0309750884080557
  0.3960171496643525  0.4037939852553336  0.5846340820546629
  0.3355505359426232  0.5104694232997673  0.6312183229441359
  0.2619296601534415  0.6216894359865748  0.7423182939742645
  0.1688056046711424  0.6772176761168396  0.8350744221010160
  0.0911255873891150  0.7634326040917472  0.9332378126748182
  0.0332080995764414  0.8432667495804367  0.0063353657196501
  0.8995770203987874  0.8983223557500182  0.0874000649324671
  0.8421510219371839  0.0076181701030933  0.1565121713418023
  0.7479500879085776  0.0899619795412789  0.2331367307999699
  0.6646580256533241  0.1745855690082294  0.3374751418524724
  0.5654771747382696  0.2566089656756958  0.4283041267082268
  0.5026439188244254  0.3366957039678766  0.5264003666187165
  0.4880663395069149  0.3242342368936306  0.6530197649444602
  0.3973897936146429  0.3991977303604273  0.7545935032566149
  0.3072521442699596  0.5073711659873723  0.8362418135139436
  0.2421584232398288  0.5956089027411480  0.9332092044273992
  0.1553309747862244  0.6631774924078968  0.0090395608567064
  0.1067738781667060  0.7626603177695230  0.0864835785782816
  0.0237844681531243  0.8181499670342873  0.1762694008231449
  0.9199178269599599  0.9383253521337807  0.2665137067449876
  0.8211561116438872  0.0041757741948345  0.3393666641692619
  0.7539378915927415  0.0793682535163427  0.4279467928354492
  0.6677262916566775  0.1621135134460161  0.5107229451370543
  0.6019083413250215  0.2276981848877142  0.5875398485574976
  0.6062746168984248  0.2560764804603224  0.7512784718892362
  0.4975274364660720  0.3494034319307886  0.8060558369295947
  0.3945315182210507  0.4069817155158617  0.9134919049188852
  0.3499267961320243  0.5020931855869861  0.0053526872053098
  0.2306266058299400  0.5790883031647098  0.1060502832054695
  0.1453194677535379  0.6829401327619280  0.2017634235395178
  0.0790254650163860  0.7707042410892697  0.2765203223647390
  0.9900650148845216  0.8614323403660222  0.3230049658355298
  0.8890279024814163  0.9105602318588666  0.4217672225885067
  0.8485164643770489  0.9797375879085735  0.5160889200231793
  0.7534476184767840  0.0840235295292899  0.5747242652641233
  0.6920046241908437  0.1563247197914137  0.6811867173139916
  0.6622164788619855  0.1563331555182614  0.8180389380044772
  0.5929537041476891  0.2910837823663357  0.8851599521497633
  0.5027421616518808  0.3408605160632945  0.0109284099536495
  0.4206009555062735  0.3995359995604559  0.0671608067609668
  0.3383820401782174  0.4871367437864649  0.1696461809717889
  0.2851222343762458  0.5758571885239334  0.2825910068528756
  0.1706866478861997  0.6782650078917953  0.3429718607648056
  0.0507670962199285  0.7595276387556922  0.4076273445616536
  0.9925607423279814  0.8460709427195710  0.4913271737393146
  0.9246682025693289  0.9139654644170037  0.6034243227043845
  0.8343118127147733  0.9924001248701373  0.6507356958762855
  0.7591024559458148  0.0588837339167299  0.7473465510868706
  0.7456302630264560  0.0656628131742991  0.9144926716215167
  0.6589719971229897  0.1777003286581973  0.9801177330576181
  0.5735668090186223  0.2592579677135802  0.0755395243946282
  0.5231410338248210  0.3653348008071617  0.1683198598457594
  0.4117465400982994  0.4099522186925597  0.2652420197994090
  0.3263785972588522  0.4921392371933209  0.3757403725125883
  0.2415040328058851  0.6269961744785419  0.4091747172940146
  0.1671260648925141  0.6748727603292579  0.4880024844162065
  0.0700236673859180  0.7252440526852055  0.5901930112682834
  0.9858334262367165  0.8143475475505468  0.6644491259090515
  0.9307257522176968  0.9229662660832716  0.7459735330256549
  0.8417876653280558  0.9763618406856835  0.8571691390953404
  0.8139466469871337  0.9680865954407452  0.0124457853831998
  0.7698943778470380  0.0901194387836668  0.0817269664548874
  0.6586794978222628  0.1533894809398220  0.1286426821106019
  0.6081985884679924  0.2556347678414426  0.2587923339726714
  0.4993653220650529  0.3155632102613311  0.3243805272516553
  0.3959577839047412  0.3833684727882982  0.4165043449812202
  0.3276226539399048  0.5063347228881980  0.4967960186406160
  0.2600027841045289  0.6179596005154622  0.5772881158595027
  0.1740078488372063  0.6556109920682474  0.6642171821305851
  0.0844558604051784  0.7367388735714826  0.7668747987093454
  0.0052827389514931  0.8523359745864312  0.8551871653480347
  0.9060126698233830  0.8845002712179308  0.9645628411452094
 
  0.00000000E+00  0.00000000E+00  0.00000000E+00
  0.00000000E+00  0.00000000E+00  0.00000000E+00
  0.00000000E+00  0.00000000E+00  0.00000000E+00
  0.00000000E+00  0.00000000E+00  0.00000000E+00
  0.00000000E+00  0.00000000E+00  0.00000000E+00
  0.00000000E+00  0.00000000E+00  0.00000000E+00
  0.00000000E+00  0.00000000E+00  0.00000000E+00
  0.00000000E+00  0.00000000E+00  0.00000000E+00
  0.00000000E+00  0.00000000E+00  0.00000000E+00
  0.00000000E+00  0.00000000E+00  0.00000000E+00
  0.00000000E+00  0.00000000E+00  0.00000000E+00
  0.00000000E+00  0.00000000E+00  0.00000000E+00
  0.00000000E+00  0.00000000E+00  0.00000000E+00
  0.00000000E+00  0.00000000E+00  0.00000000E+00
  0.00000000E+00  0.00000000E+00  0.00000000E+00
  0.00000000E+00  0.00000000E+00  0.00000000E+00
  0.00000000E+00  0.00000000E+00  0.00000000E+00
  0.00000000E+00  0.00000000E+00  0.00000000E+00
  0.00000000E+00  0.00000000E+00  0.00000000E+00
  0.00000000E+00  0.00000000E+00  0.00000000E+00
  0.00000000E+00  0.00000000E+00  0.00000000E+00
  0.00000000E+00  0.00000000E+00  0.00000000E+00
  0.00000000E+00  0.00000000E+00  0.00000000E+00
  0.00000000E+00  0.00000000E+00  0.00000000E+00
  0.00000000E+00  0.00000000E+00  0.00000000E+00
  0.00000000E+00  0.00000000E+00  0.00000000E+00
  0.00000000E+00  0.00000000E+00  0.00000000E+00
  0.00000000E+00  0.00000000E+00  0.00000000E+00
  0.00000000E+00  0.00000000E+00  0.00000000E+00
  0.00000000E+00  0.00000000E+00  0.00000000E+00
  0.00000000E+00  0.00000000E+00  0.00000000E+00
  0.00000000E+00  0.00000000E+00  0.00000000E+00
  0.00000000E+00  0.00000000E+00  0.00000000E+00
  0.00000000E+00  0.00000000E+00  0.00000000E+00
  0.00000000E+00  0.00000000E+00  0.00000000E+00
  0.00000000E+00  0.00000000E+00  0.00000000E+00
  0.00000000E+00  0.00000000E+00  0.00000000E+00
  0.00000000E+00  0.00000000E+00  0.00000000E+00
  0.00000000E+00  0.00000000E+00  0.00000000E+00
  0.00000000E+00  0.00000000E+00  0.00000000E+00
  0.00000000E+00  0.00000000E+00  0.00000000E+00
  0.00000000E+00  0.00000000E+00  0.00000000E+00
  0.00000000E+00  0.00000000E+00  0.00000000E+00
  0.00000000E+00  0.00000000E+00  0.00000000E+00
  0.00000000E+00  0.00000000E+00  0.00000000E+00
  0.00000000E+00  0.00000000E+00  0.00000000E+00
  0.00000000E+00  0.00000000E+00  0.00000000E+00
  0.00000000E+00  0.00000000E+00  0.00000000E+00
  0.00000000E+00  0.00000000E+00  0.00000000E+00
  0.00000000E+00  0.00000000E+00  0.00000000E+00
  0.00000000E+00  0.00000000E+00  0.00000000E+00
  0.00000000E+00  0.00000000E+00  0.00000000E+00
  0.00000000E+00  0.00000000E+00  0.00000000E+00
  0.00000000E+00  0.00000000E+00  0.00000000E+00
  0.00000000E+00  0.00000000E+00  0.00000000E+00
  0.00000000E+00  0.00000000E+00  0.00000000E+00
  0.00000000E+00  0.00000000E+00  0.00000000E+00
  0.00000000E+00  0.00000000E+00  0.00000000E+00
  0.00000000E+00  0.00000000E+00  0.00000000E+00
  0.00000000E+00  0.00000000E+00  0.00000000E+00
  0.00000000E+00  0.00000000E+00  0.00000000E+00
  0.00000000E+00  0.00000000E+00  0.00000000E+00
  0.00000000E+00  0.00000000E+00  0.00000000E+00
  0.00000000E+00  0.00000000E+00  0.00000000E+00
  0.00000000E+00  0.00000000E+00  0.00000000E+00
  0.00000000E+00  0.00000000E+00  0.00000000E+00
  0.00000000E+00  0.00000000E+00  0.00000000E+00
  0.00000000E+00  0.00000000E+00  0.00000000E+00