Li 
 1.0000000000000000
    20.0207999999999977    0.0000000000000000    0.0000000000000000
     0.0000000000000000   20.0207999999999977    0.0000000000000000
     0.0000000000000000    0.0000000000000000   20.0207999999999977
 Li 
 432
Cartesian
  0.2032522800000000 -0.5512373000000000  0.1850867900000000
 18.6233029999999999  1.2348856900000000  1.2716441599999999
 17.4310945900000007  3.5415471900000002  3.1616005800000000
 15.2421120299999995  4.4446786300000003  4.5632048699999999
 13.7472025500000008  5.9393047100000000  6.9908859100000003
 11.9748446000000008  7.3710436699999997  8.6123300599999997
 10.4293768999999994  9.1274595000000005  9.8310519000000003
  8.8998040799999991 11.5177447999999991 11.4035167000000008
  7.3528143500000001 13.4666736900000004 12.9532654800000007
  5.0089330700000003 15.1165645400000006 14.8758435200000001
  3.4580315200000000 16.8539621500000010 16.7600370900000009
  2.0635154800000000 18.7402255199999992 18.7071986499999987
  1.7164048199999999 18.4388329599999992  1.8770058999999999
  0.3751646500000000 -0.1333702700000000  3.2464259000000002
 18.6323695600000008  1.5038873399999999  4.8330098000000001
 17.0804594600000001  3.2008998499999999  6.4163429900000004
 15.5797800800000008  4.4509484900000000  8.3105617899999995
 14.2878423300000001  6.1011734200000003 10.1334952800000000
 11.8619713299999994  7.5256273699999996 12.3602484100000005
 10.0266007100000003  9.4012340800000000 13.4857419899999993
  8.4597604200000003 11.3863887399999992 15.4974676400000000
  6.2338161500000000 13.7070517400000007 16.7458464599999992
  4.7784214800000004 15.2602738200000001 18.0101088699999998
  3.8919578700000002 17.1838728100000004  0.2966050700000000
  3.9449368900000001 16.6558863300000013  3.8922969699999999
  1.9649548400000001 18.8168381400000015  4.9461704199999996
  0.0786541400000000  0.0717426400000000  7.4336443699999997
 18.4567337000000009  1.7210220199999999  8.5969212600000002
 17.1253128799999992  2.8761709899999999 10.1488875200000006
 16.0728244499999988  4.5770162799999996 12.0696183799999996
 14.2629865099999993  5.9729317799999997 13.3490538900000004
 12.2506160400000006  8.0427840699999997 15.0433826400000008
  9.5588040299999992  9.3293098299999997 16.6075374499999988
  8.3518029899999995 11.5542265900000007 18.3627934900000014
  6.8247257200000000 13.7014209800000000 20.0787297600000016
  5.0120839999999998 14.6161660100000006  2.1913944200000000
  5.1214426599999996 15.2789952499999995  5.3450035500000004
  3.6546507799999999 17.2594751399999993  6.5369223999999999
  1.5196221100000000 18.2172836999999994  8.6489527299999995
 -0.0874573200000000 -0.0542607900000000 10.3970074399999994
 18.7818364899999999  1.5540214400000001 11.7696787000000000
 16.6315957499999989  2.8355351899999999 13.5966819200000000
 15.8590980600000009  4.9328126499999998 14.9272928599999997
 14.0801230999999998  6.2442413300000004 16.2613397100000014
 11.7019330700000008  7.8487511300000001 17.9869798500000009
  9.9855216200000001  9.7058195000000005 -0.2678618100000000
  8.6578648699999992 11.5076966800000005  1.9219993600000000
  6.4638863700000000 13.5773351000000009  3.5159490500000001
  7.2268803500000001 13.5467941799999991  6.9806301099999999
  5.1754600000000002 14.6265726699999998  8.5193586200000002
  3.5962795999999999 16.2433970400000014 10.0772766899999997
  1.9518559200000001 17.7399002199999991 11.6446132000000002
  0.8189937600000000 -0.0664806900000000 12.9055561999999995
 18.5297170199999996  0.8954835100000000 15.1337730799999992
 17.1528449599999995  2.8586513700000000 16.8954548299999985
 15.6449748300000007  4.7643027000000000 18.1563406200000017
 13.6345880400000006  6.7520435100000000  0.0176638000000000
 11.5107662899999994  8.3483633299999997  1.6006139399999999
  9.9598845399999991  9.6791405000000008  3.5075245399999999
  8.4119712799999995 11.5778482000000000  5.6055400200000003
  8.9810769900000000 12.0388861400000007  8.3563336499999998
  7.2538565400000001 13.3418754899999996  9.9230354900000002
  5.0315206600000000 14.6334334699999999 11.6936064599999998
  3.1273334799999999 16.1056562099999994 13.4886240599999994
  1.4090567800000000 18.4200748599999997 14.4942998700000008
  0.2623569100000000 -0.5475899900000000 16.9149263400000009
 18.0591469700000005  1.3032098599999999 18.8526348199999987
 17.1494869399999992  3.2417279500000000 19.7771555600000006
 15.3498669099999994  4.5915232699999997  1.3114663300000000
 13.7539017000000001  6.5355331200000002  3.1818403200000001
 12.0567630000000001  7.6876626899999998  5.3827416899999996
 10.2650169000000009  9.4493921400000005  7.0496453800000003
  1.7890802900000000  1.2745958200000000 18.5671356900000006
  0.4471452600000000  3.3556672399999998 -0.4568159100000000
 18.8830123800000003  4.9302333999999997  1.6146594000000001
 16.6312308699999996  6.3883453299999999  3.2616710300000000
 14.9100985900000005  7.9519569099999998  4.9707634100000000
 13.1563774799999997  9.5283988199999996  7.1677255000000004
 12.0903105199999992 11.4309285700000007  8.6859529599999998
 10.7233157600000002 13.7536108699999993  9.8235736800000009
  8.7981495200000008 14.9591854899999994 11.8837940900000003
  6.6707885400000002 16.8035270099999998 13.0563535700000006
  4.7648283300000003 17.8662641899999990 14.5734134599999994
  3.7053909300000001 -0.4963638300000000 16.2914233499999987
  4.4851781500000003  0.0138880800000000 -0.3258909300000000
  2.0768295200000000  1.8280916000000000  1.4084600700000001
  0.1061255500000000  3.1089413100000001  3.2326792200000001
 18.9809020000000004  5.0547408300000001  4.9959499300000001
 16.7160243100000017  6.5768244899999999  6.3622127600000002
 14.7628316799999997  8.0452173600000005  8.6168645799999997
 13.4709985600000000  9.8454601700000008 10.2071046299999999
 11.4445623899999998 11.5856526599999992 11.7774312499999994
 10.2425398300000001 12.8828559600000006 13.1746318799999997
  8.8328413799999996 14.9310777199999993 15.0455083599999995
  6.5947330900000001 16.8927594600000006 16.3439999200000017
  5.9636914900000004 18.1675501200000014 18.4003607000000002
  5.5399621200000002 18.3628471600000012  1.8498469500000001
  3.8195977100000000  0.0702666300000000  3.3232049500000000
  1.2115999099999999  1.3736498399999999  5.0322204900000003
 -0.4614866600000000  3.9832014800000000  6.6342664100000004
 18.4568466600000001  5.4521866699999997  8.1578711800000008
 16.8098703699999987  6.4665113200000004 10.3287536400000004
 15.3444479600000001  7.9093240700000003 12.2031554599999996
 13.3151382500000004 10.3332547800000007 13.5782222299999997
 11.4261940299999996 11.1045250600000003 15.5294044499999995
 10.0039973100000008 13.1386208900000003 16.8162186600000005
  8.1268783800000008 15.4679377700000007 18.1335938100000007
  6.6598262000000004 16.5703774499999987 20.2942366700000001
  6.5108415500000003 16.6338207199999992  4.0375980000000000
  5.1764975800000004 18.8004969200000005  5.2249140399999998
  2.9887460799999999  0.5450844700000000  7.1266356000000002
  1.3079663399999999  1.9799031700000000  8.4601695299999999
 -0.1488219300000000  4.0236275700000004 10.0324678699999996
 18.5697817500000006  4.7517658699999998 11.8611438699999994
 17.5898057500000000  6.7075118900000001 13.3752609600000003
 15.5807831700000001  8.1389364200000003 15.0684968599999998
 13.2104176800000008  9.7098592000000004 16.6274473500000006
 11.3536912000000001 11.1398415199999992 18.2446207399999984
  9.5782082800000001 13.3753694799999998 19.8580774099999999
  8.2796900999999998 14.6982247099999999  2.1922333100000002
  8.8024972100000003 15.1895590800000004  5.8071441500000001
  6.4033657499999999 16.8994171599999987  7.6428765900000002
  5.4187007600000001 18.3511173099999993  8.6196801799999996
  2.9427126800000001  0.0784829000000000  9.7474433000000005
  1.8189204000000001  1.6619469099999999 11.3128004000000004
  0.2275160100000000  2.8854169199999999 13.4443763999999994
 18.7835952699999993  4.4047883900000002 14.8487060799999995
 17.4638092600000014  6.1661128200000004 16.5728869299999992
 14.7205657500000004  7.4944438499999997 18.2705305500000001
 13.3062584899999994 10.1416716499999993 19.9225591000000009
 11.1532154699999992 12.1044604600000003  1.9706168600000000
  9.9490081700000008 13.6415404200000001  4.2311422800000003
 10.7244555800000008 13.2003851999999995  6.4862505800000001
  8.9228784500000007 15.1708093799999997  7.8085820500000001
  7.2057138600000004 16.4392808700000010  9.7743826400000007
  4.8481548900000000 18.4472385500000016 11.2773846100000004
  3.1452022500000001  0.0241594800000000 12.7162900499999996
  1.9067360400000000  1.3578835000000000 15.0903775200000005
 -0.2050377600000000  2.9829783399999998 16.5240752200000003
 18.8527655900000006  4.9536700099999997 18.4737336200000009
 16.9092310099999992  6.7920372499999999 19.9432675400000008
 14.9624845400000002  8.2274161600000006  1.6362592199999999
 13.0828976400000005  9.8105114300000000  3.4308488700000002
 11.7346487600000007 11.4162667100000004  5.0714803899999996
  2.9771840699999998  3.9197260200000001 16.9752441000000012
  1.3909691000000000  5.3575790000000003 17.9461231999999988
  0.2825392200000000  6.6394715599999996  0.1420892100000000
 18.3044116300000006  8.6405866299999996  1.6214114799999999
 16.7577831900000014  9.5954560099999995  3.2695611400000000
 14.9369703099999995 11.0459412799999992  4.9191782699999997
 13.3980376700000008 13.1873467000000009  6.4589358600000004
 11.8562741900000006 14.6753668400000006  7.8225508100000001
  9.7915940100000007 16.6593049600000001  9.9799447899999993
  7.9046698099999997 18.8722328700000013 11.4414277099999993
  6.1318210200000003 19.8136804700000013 12.8721097199999992
  4.6160843600000003  1.5411107100000001 14.7034119299999997
  5.1717614300000001  1.1422006400000000 17.9486324000000010
  3.9577414499999999  3.2550132000000001 -0.4566660900000000
  1.6970508799999999  5.2263329299999999  1.6260747099999999
 -0.1422348100000000  7.2447143299999999  3.2225936000000002
 18.3098096099999985  8.0435120599999994  5.4352979200000000
 16.0661507000000015  9.9226268100000006  6.7430327099999996
 14.8128150600000001 12.2996486800000007  8.4959000400000004
 13.0032997399999992 13.4940920599999998 10.3822044400000006
 11.3078983399999995 15.4189945900000005 11.9384125999999995
 10.1394734300000007 17.2035287600000011 13.2939968400000001
  7.9586652200000003 18.3414151600000004 14.6081729399999993
  6.8353412400000000 19.9395849100000007 16.4658720400000007
  7.0927794100000003 -0.4426510100000000 -0.0435901600000000
  5.3031850399999998  1.8280488200000000  1.4522347900000001
  3.2324798900000000  3.3115187200000000  3.3981955500000001
  1.1366791199999999  5.6502107800000001  4.3732783599999996
  0.0275155900000000  7.0223580800000001  6.2066379400000002
 18.5455415300000013  8.2619390500000005  8.9796601099999993
 16.2004793199999995  9.9232233999999995 10.2141391600000002
 15.1303699300000005 11.7474136500000004 11.6857414599999991
 12.7758664000000000 13.2388568099999997 13.1444005300000004
 11.4838296100000008 14.8928729900000008 14.8937732700000005
  9.6929787699999999 17.0197404699999986 16.4160113400000007
  8.3201206699999997 18.0724044600000013 18.5391370500000008
  8.3970893199999992 18.1478146000000002  2.0259318199999998
  6.8325370799999998  0.3873705900000000  3.8739382299999998
  5.1639912600000004  2.2889899300000001  4.9275047799999996
  2.3482930000000000  3.7690299299999999  6.1292470999999997
  1.4122968000000000  5.8883801399999998  8.1155773500000006
 -0.0838811500000000  6.8063698400000003 10.4348992999999997
 18.5570967300000014  8.7024019100000007 11.8080514000000001
 17.0930994399999996 10.4775549100000003 13.3866414599999999
 14.7543393100000007 11.5147663599999994 15.1243219500000006
 12.9132637399999997 12.8507518399999991 16.4042071299999996
 11.6011924600000000 15.2127159200000008 18.2528234900000008
  9.8782169000000000 16.2682588099999990 20.1148593600000005
 10.2956879600000004 16.7235954900000010  3.4107016899999998
  8.1357488999999994 17.9833965000000013  5.1240699599999999
  6.3485132699999998  0.0757369700000000  6.5301812000000004
  4.9782213799999999  1.6144850500000001  7.9538927700000004
  3.3469868800000002  2.8942723500000000  9.4766855299999992
  1.5627146400000000  5.0443530799999996 11.3656383600000002
  0.1819569600000000  7.0722963099999996 13.4105577000000000
 18.7490613599999989  8.3353942700000001 15.1091126300000003
 16.8025604800000004  9.6405846400000001 16.3890953400000008
 15.6013015500000005 11.1086005599999993 17.9423924200000009
 13.3615302899999993 13.1618677200000000 19.6207548000000003
 11.7056549699999994 14.4715704100000000  1.4674439300000000
 12.1101767900000006 14.9888783500000002  5.0634927899999997
 10.6022449499999993 17.1474092499999990  6.5821138299999999
  8.5315988100000002 18.6399478400000014  7.9809295300000000
  6.2071385100000001  0.7561994100000000  9.5605360699999995
  4.9825273200000000  1.8631084899999999 11.1529820599999994
  3.0760787700000001  3.4103156200000000 12.8038396700000003
  1.7558142900000000  4.7760767199999998 14.7888416700000001
  0.1323282700000000  6.6469536099999997 16.4318324199999992
 18.8581757799999998  8.5924773699999992 18.6091526499999986
 16.4018875000000008  9.1793465399999992 20.0499078500000003
 14.7817064100000000 10.7901994999999999  1.6913376099999999
 13.5524332600000008 13.0249545799999993  3.2409740000000000
  4.2768449100000003  5.1960192599999999 14.5568846700000005
  2.9092128399999999  7.3139900200000003 16.1457285000000006
  1.8461773299999999  8.7122896200000000 17.9863697800000004
  0.3343015200000000 10.1586499400000001  0.3246028100000000
 18.4631395900000008 11.4918407200000008  1.6416083299999999
 17.0822954799999991 13.3391948700000000  3.4922410300000002
 14.9464263299999995 15.1520075300000006  5.1568854599999998
 13.3791604999999993 17.3876375400000001  6.4580027199999996
 11.5429247400000001 18.9721776800000015  8.1511823499999991
  9.8410739399999994  0.4257152700000000  9.9691845299999997
  8.3378239999999995  1.9184670100000001 12.3251164200000005
  6.5431906399999997  3.4513233300000001 13.2921631199999997
  5.9747049299999997  3.4029638000000002 16.5080636699999985
  5.1023492700000004  5.2663663999999999 18.0734158399999991
  3.1702392900000000  6.2293608100000002 -0.0494301600000000
  1.6887788300000000  8.7382850699999999  1.7157229500000000
 -0.1057796600000000 10.0707067200000004  3.6431814600000001
 18.6000190500000002 11.5484436400000003  5.3458557000000004
 16.3468465899999984 13.3412427900000008  6.7393021900000001
 14.7495268300000006 15.0259433500000004  8.3910211700000001
 13.1127106599999994 16.4966133200000016  9.5773313800000004
 11.4853663600000004 18.4635863100000002 11.7016102300000000
  9.7328693499999996 19.8371798599999991 13.7671500699999996
  8.3740770999999992  2.0197850599999998 15.2763447600000006
  7.9244790900000002  1.8944513100000000 18.1002635500000011
  6.6515764400000004  3.7811955799999999 -0.2333858900000000
  4.9612512500000001  5.0804207500000000  1.9801996100000001
  2.9521368600000000  6.9577419699999998  3.3394817600000000
  1.3235131300000000  9.1793787600000005  5.0915652400000004
 -0.7232310800000000 10.0388248000000004  7.1180545400000002
 17.6782833799999999 12.0225987199999995  8.6257487000000008
 16.8148705300000003 13.4531597600000001  9.4869086399999993
 14.5816611500000004 14.6433352800000005 12.0387486599999995
 13.1344892099999999 16.6067459600000014 13.6355211700000005
 11.2044728100000004 18.4537938299999986 14.9204110900000000
  9.8226284499999998  0.2948232800000000 16.4754969699999982
  9.7293211199999998 -0.0491773900000000 -0.0918774900000000
  8.0977404499999999  2.2069862499999999  1.3446742100000000
  6.7527004599999998  3.5125833700000002  3.0978761100000001
  4.4999700499999999  5.1977035300000001  4.6502270499999998
  2.5353776400000001  7.1180230800000004  6.0279481300000004
  0.9636928000000000  8.7466986700000007  8.1934855700000000
 -0.1761262900000000 10.4132926599999998 10.4055673100000003
 18.3207112300000006 12.1910106400000000 11.1630728200000000
 16.6229671400000001 13.7919290300000004 13.5381724499999994
 14.7864946499999999 14.5306108999999992 14.9816199799999996
 13.0946584200000000 16.5566988700000017 16.5391075600000015
 11.1736065799999995 18.1606395399999982 18.9483777000000018
 11.5839068500000000 18.3848781499999987  1.3697319800000001
  9.4827402500000009  0.5530681600000000  3.2416478700000000
  7.9110941300000004  2.1851771100000001  4.9847276999999997
  6.1200905900000002  3.9159736100000000  6.6373258000000002
  4.0121538899999996  5.6693635699999998  8.3411762899999999
  2.2909547500000000  6.8644388100000002  9.9160256100000002
  1.6284937500000001  8.8939722999999997 11.7190201100000007
  0.0320508200000000 10.7342562899999994 13.3488825999999996
 17.8577900700000001 11.8866833300000003 15.4683718599999995
 16.4652498300000012 13.0294511899999996 16.7370976499999990
 14.9508973199999993 14.5576076400000005 17.8850278899999999
 13.4155036699999997 15.9334158299999995  0.2022593900000000
 13.5268047800000009 16.3162660799999983  3.0627479300000000
 11.6177713899999997 18.8438948099999983  4.7764972999999999
  9.7741045599999996 -0.2710712400000000  6.2401331700000000
  8.4043484500000005  1.5721282800000000  7.8631223900000000
  6.3813831399999996  3.5032730200000000  9.4851452799999993
  4.7731923399999996  5.2979402899999997 11.3558484100000001
  3.1261409699999998  6.9648081800000003 13.0017172100000007
  1.8519654800000001  8.8591666000000000 14.7866614300000005
  0.0146452700000000 10.5657414799999998 16.5111100300000011
 18.2536396600000010 11.5066383699999992 18.5205723999999989
 16.4893111800000014 12.8874277700000004  0.1623529600000000
 15.2479203000000005 14.1222003899999997  1.8396809100000000
  6.5932256999999996  6.7038311400000001 12.9121030599999997
  4.8661073799999999  8.6209448299999991 14.0959084299999997
  3.5960660400000002 10.9488851399999998 15.4826416699999996
  1.4493574400000000 11.7302798500000005 18.4964750199999983
 -0.0144604200000000 13.5095863800000000  0.2549929000000000
 18.8847050400000001 14.9534939399999995  1.9845523400000000
 17.0637815199999991 16.3071577699999999  3.6267949700000002
 15.4280483400000001 18.3755507000000016  4.6916476400000002
 13.0547871299999994  0.4318278900000000  6.2104397000000002
 11.6471808800000005  1.8988510199999999  8.1721989199999996
  9.9984245000000005  3.3018772900000002 10.1989686000000006
  8.3227259199999999  4.7019833000000002 11.7993301899999992
  8.1020910100000005  4.8367957300000004 15.4738834099999991
  6.1832105799999999  7.0378206499999996 16.2628315699999995
  4.8030911400000003  8.2997472900000009 17.7331401699999986
  2.9313890499999999 10.0160322100000005 -0.3277755000000000
  1.5715638100000000 11.7362386999999995  1.7544123400000000
  0.1772573400000000 13.5380430100000009  3.6117615500000002
 18.5677593399999985 15.3548311599999998  5.2908188699999998
 16.4075453899999992 16.8132701699999991  6.4767006199999999
 14.7398347600000008 18.5991393000000009  8.1168345199999994
 13.5178089200000002  0.1282953000000000 10.0294032400000006
 11.6362674300000002  1.3587251499999999 11.8238736899999992
 10.0255285099999991  3.6067689500000002 13.6220206899999994
 10.2115389299999997  3.1967883399999999 16.7097128400000017
  8.2997584000000000  5.2581177600000002 17.9473975800000005
  6.0244477099999996  6.6600758600000001  0.3049285700000000
  4.7767947700000004  8.7996243700000001  1.5848740699999999
  3.2001504600000001 10.4788784100000001  3.4409900699999998
  1.4859019300000000 11.5052749900000002  5.5583370099999998
 -0.2245170800000000 13.2837925600000002  6.6830803200000002
 18.1978269899999994 15.3962249199999999  8.1285968400000002
 15.8498053700000003 16.8860527000000005 10.7358511199999995
 14.7816071999999998 18.1461434900000000 12.1353606099999993
 13.4740965900000003 -0.2790282500000000 13.6068894799999995
 11.6786338500000006  1.6967075000000000 14.8242791300000007
 11.4189459699999993  1.5517388900000000 18.0084514300000009
 10.0853488799999997  3.8622767699999998 -0.5266354200000000
  8.3829605899999997  5.2051745100000000  1.5969797299999999
  6.9322595500000004  7.0411716799999997  3.3491901999999998
  4.8735767699999997  8.5205574800000008  5.1410483600000001
  3.5227195500000001 10.2162748000000008  7.3846242999999996
  1.6194397700000001 11.5513149800000008  8.5343993400000002
 -0.6093013100000000 13.7446143299999992  9.9558532100000008
 18.1692924399999995 15.2655605399999992 11.9443523700000007
 16.3107341699999999 16.5168260099999991 13.3703903299999993
 15.5016544700000001 17.9920156999999996 14.9283622499999993
 13.0160757999999994 -0.2491807800000000 16.3812944000000016
 13.4857079599999992 -0.2150376200000000  0.0152965700000000
 11.9781269500000001  1.7539903800000001  1.1619234400000000
  9.9894315299999992  3.6487921100000000  2.7267839299999999
  8.5495375199999994  5.1641986400000004  4.3216289600000000
  6.4056971699999998  6.1343829200000002  6.3678271700000000
  4.3493172199999997  7.3356194500000003  8.4059562900000007
  3.6898652099999998 10.2066079399999996  9.6639464600000000
  1.5610185299999999 12.5849522399999998 11.1988415799999999
 -0.7018832100000000 13.7502989800000002 13.5740050799999992
 18.3125127600000006 15.1863186100000007 15.7106515000000009
 16.5294363900000008 16.9832838399999986 16.8576516000000005
 14.2075990799999996 17.7887760999999998 18.5567767299999993
 14.8150539999999999 18.1631889300000005  1.8389451999999999
 13.6733958799999993  0.2263295800000000  2.9446330600000001
 11.2329761599999998  1.9353959400000000  4.5080775900000001
 10.0599656199999998  3.6325529200000002  6.9073678599999999
  7.9454120399999999  5.2195694499999998  8.3516699899999995
  6.2244605899999996  6.8785988299999996 10.7542365300000000
  4.3652515500000000  8.9202868300000002 11.7867508999999995
  2.8948640700000001 10.7689507700000000 13.2049753899999995
  1.4217836200000000 12.4768310600000003 15.1402697300000000
 -0.1331530900000000 13.7675239600000001 17.2290233300000004
 17.9391673300000001 14.8793290999999996 18.7177273399999997
 15.8724329100000006 16.0555495300000004  0.6201460500000000
  7.9285801500000002  8.0842786199999992 11.7048420300000000
  6.7179901700000002 10.2200062299999992 12.6374957999999999
  5.2440413399999999 12.4467198600000000 14.8618061000000008
  3.3796232499999999 13.5584396500000004 16.7188579900000001
  1.8244071600000000 15.2845314800000001 18.6841675999999985
  0.6648527200000000 16.8828749400000007  0.1268390900000000
 18.0102516100000010 17.9851322200000006  1.7498192200000000
 16.8605371800000015 20.1733218600000015  3.1334988799999999
 14.9745591200000003  1.8011108000000000  4.6675838599999997
 13.3069854000000003  3.4953427600000002  6.7565223200000002
 11.3213054199999998  5.1375167800000003  8.5749912599999991
 10.0633333700000005  6.7409173500000001 10.5389564599999996
  9.7714785699999993  6.4914288100000004 13.0739781100000005
  7.9560615800000001  7.9922579200000001 15.1075656100000000
  6.1514337299999999 10.1579766399999993 16.7422301000000004
  4.8482053599999997 11.9245667199999996 18.6835948400000014
  3.1098503800000001 13.2773439399999997  0.1809792400000000
  2.1376984600000002 15.2690696900000003  1.7314704299999999
  0.4761840800000000 16.3800168600000013  3.5290544200000000
 18.4174908299999984 18.7860242100000008  5.3358176200000003
 16.4402022800000012 20.1044023400000000  6.7943921100000004
 15.0944397400000003  1.5890159300000000  8.5678371500000008
 13.3684145399999998  3.2456422300000001 10.2250819400000008
 12.0506865199999993  4.5586998200000002 11.7630178000000001
 12.1381028499999992  5.1268560000000001 15.0411960300000001
  9.9608972999999992  6.9953362300000004 16.1378826999999987
  7.8988366200000000  8.1480995299999996 18.2888387299999984
  7.0058144000000002 10.0523072500000001  0.1071650800000000
  4.6173291499999998 11.5938110999999999  2.1232115100000000
  2.9094120000000001 13.6730078099999997  4.0394651499999998
  1.5821530300000000 15.4301154700000005  5.5361580699999999
 -0.1989063500000000 17.2465645999999992  6.4668178200000002
 17.7990498300000013 18.2301442899999984  8.4441172099999999
 16.9879784299999983 -0.4056697000000000 10.3325130499999993
 15.0846240799999993  1.6822182800000001 11.5064395699999995
 13.8544861800000003  3.1297459500000002 13.6379030300000004
 13.2581036799999996  3.1299148400000001 16.3777939699999990
 11.8714075200000000  5.8277301899999996 17.7216103700000005
 10.0653002699999998  6.8243002199999996  0.2187955100000000
  8.4207676100000004  7.9990303400000000  1.3446130800000000
  6.7746791499999999  9.7528673200000000  3.3964522599999998
  5.7083752299999997 11.5291215999999999  5.6576980299999997
  3.4172832400000002 13.5794080699999995  6.8665710300000002
  1.0163978800000000 15.2063509499999991  8.1610255400000007
 -0.1489398900000000 16.9390171299999999  9.8367630800000008
 18.5125971500000013 18.2983197699999991 12.0810376799999997
 16.7035899400000005 19.8686444199999990 13.0282492199999993
 15.1978384500000008  1.1788994600000000 14.9624758300000007
 14.9281143699999994  1.3146220500000001 18.3088748800000012
 13.1931465600000006  3.5577027399999999 -0.3980588900000000
 11.4832663700000008  5.1905519199999999  1.5123617100000000
 10.4737020100000002  7.3142949799999997  3.3698982499999999
  8.2434951299999994  8.2075713799999992  5.3103574299999998
  6.5343606200000002  9.8530212400000003  7.5226228500000003
  4.8351039399999998 12.5529650099999994  8.1920051800000007
  3.3459975200000001 13.5114925600000007  9.7702001400000000
  1.4019298400000000 14.5199661300000002 11.8161362400000005
 -0.2836261400000000 16.3038893800000011 13.3028030600000005
 18.6338741399999996 18.4785230200000008 14.9349869099999992
 16.8532624899999988 19.5475451400000004 17.1612119000000014
 16.2958630299999996 -0.6389318899999999  0.2491745800000000
 15.4139013600000006  1.8042632599999999  1.6362392500000000
 13.1872904900000005  3.0709801200000002  2.5755294100000001
 12.1766223000000000  5.1180125600000004  5.1812295600000002
  9.9976932400000003  6.3178279200000000  6.4943576600000004
  7.9273916000000000  7.6753435200000002  8.3387501900000007
  6.5592676299999999 10.1372262200000005  9.9462537300000005
  5.2054637399999999 12.3720455699999992 11.5577699099999993
  3.4837763399999999 13.1258565500000000 13.2981593599999997
  1.6908738900000000 14.7501016400000005 15.3534469700000002
  0.1057646600000000 17.0644480799999982 17.1215311999999997
 18.1390984599999996 17.7084030299999995 19.3113197300000010
