Li                                      
   1.00000000000000     
   -10.8535000000000021   18.7988134399488125    0.0000000000000014
   -18.6059999999999981  -10.7421791085421763    0.0000000000000014
     0.0000000000000001    0.0000000000000001   22.7650000000000006
   Li
   504
Direct
  0.0000379170258142  0.9680719422530544  0.0056277878321964
  0.9359668031420085  0.9965066872029524  0.6729102007467631
  0.8325049290066175  0.0797839553384208  0.3074752053591041
  0.7653623507668144  0.1232325511099859  0.0190764994509109
  0.7430221599866300  0.1362485481342119  0.6442727674061075
  0.6429839549825189  0.2322932776844695  0.3162750885130663
  0.5869200537803039  0.2683589135921451  0.0128190046123464
  0.4921729550256018  0.2869513550805962  0.6848202714693628
  0.4524875679846474  0.3473358465483543  0.3574889540961976
  0.3526116875837957  0.3744416445667653  0.0200033235229498
  0.3026657229172116  0.3889801889883913  0.6570352352295217
  0.2102560753752130  0.4650733315014008  0.3417042683944658
  0.0802661258637585  0.0158152199794515  0.6766477847573000
  0.9870313590366280  0.0873144488173736  0.3549127862947472
  0.9293589677778229  0.1220703742461282  0.9984228939161000
  0.8814923491791475  0.1564967074161103  0.6845679415769794
  0.7779813951578163  0.2027176511692304  0.3182607911267326
  0.6866131801749660  0.2517589422213788  0.0152694768284647
  0.6589438687697964  0.2499016064875335  0.6688875457939787
  0.5749860772712267  0.3634862915369652  0.3446215721502313
  0.5048177597006571  0.3965919598564369  0.0021058673402123
  0.4082998192988541  0.3992827588541275  0.6870402978256109
  0.3755937653676611  0.4572594242492798  0.3644331790028588
  0.2738202138295236  0.4942526625390329  0.9974110191082772
  0.1213865524731688  0.0929576116700233  0.3507352927739973
  0.0512248143785143  0.1028222856682177  0.9940839442126048
  0.0243325226722817  0.1466179160043168  0.6696392826707651
  0.9202493036942201  0.1865909987291587  0.3394647555457908
  0.8353540403732893  0.2367506225308205  0.9839545003294532
  0.7930781336546886  0.3026069910985072  0.6338040404129117
  0.7270740252071093  0.3369771561547168  0.3138509716670299
  0.6490885779448590  0.3635616408296016  0.9787797843180286
  0.5441416962271290  0.4082383935289116  0.6741690779705678
  0.4906309924877874  0.4770618264556461  0.3435970674280711
  0.4101293915525019  0.5011879892929656  0.0316580557873962
  0.3618002169038448  0.5402791650991148  0.6539907107401746
  0.2336852321507692  0.1119688268758239  0.0089935537008543
  0.1555404120005335  0.1544665268382346  0.6660144252141436
  0.0613821668902190  0.1976734489765164  0.3261629646386979
  0.9726631716645997  0.2390337303202301  0.9749305552383021
  0.9231162048410582  0.2918996394043631  0.6973880131781272
  0.8499024604607186  0.3276732589159224  0.3621370274544233
  0.7879855358295629  0.3754265815798092  0.0113083167142563
  0.6827624528833880  0.4310413714731851  0.6580280579837492
  0.6405155414235892  0.4449264995785782  0.3550493626180540
  0.5707427974321817  0.5065351197500689  0.0146099661761454
  0.5167047860392131  0.5282167378653853  0.6786375132879385
  0.4228978228786175  0.6008842378473034  0.3417703285745688
  0.2784260507748471  0.1561328086593150  0.6661849035800600
  0.2243079040353422  0.2101396605155514  0.3398738172633458
  0.1183324193092830  0.2269745607345328  0.9740977689435510
  0.0521137652866415  0.2939689851908796  0.6642640083461444
  0.9697448414506411  0.3446866544832545  0.3273469540961997
  0.9112407199576822  0.3641121437138182  0.0089772967274300
  0.8298024347896984  0.4198120984634031  0.6650578106742842
  0.7861739442205078  0.4595730278621275  0.3293352831100407
  0.7194531911056501  0.4968426959225454  0.9845242306171755
  0.6317366183371149  0.5553284404427643  0.6411311579178545
  0.5724383494953926  0.5861396272036856  0.3574088570173544
  0.5104231515245772  0.6086259300724493  0.9636203338458174
  0.3617243652008284  0.2420206386269399  0.3293841757083271
  0.2973532641292493  0.2387953814776509  0.9979414337799284
  0.2022261155138523  0.2569166814613766  0.6695606132220533
  0.1225767307800965  0.3364438032074730  0.3573773235229538
  0.0367061537876978  0.3729735472355813  0.0151886865802737
  0.9893909587610352  0.4248819794199221  0.6527906602240279
  0.9256868167126271  0.4750104936477157  0.3582322868438368
  0.8604102835986609  0.5147629161002882  0.9970510133977584
  0.7731611799988443  0.5391773794949231  0.6865945157039306
  0.6947962130086935  0.6025271392083269  0.3094860584230190
  0.6331593436633511  0.6246261164973603  0.9888721959147801
  0.5578488221773483  0.6728543103567759  0.6605025526026793
  0.4362849154782040  0.2602375900170557  0.9825891697781657
  0.3701531723651570  0.2675469038877125  0.6542293784318005
  0.2555079815627934  0.3352908987481555  0.3535493090270165
  0.1993007898890582  0.3612246703718753  0.9965347669668319
  0.1690861880193282  0.4381177651473820  0.6671103593235230
  0.0840509657281601  0.4519345428071233  0.3123151355150426
  0.9879200846630667  0.4943392454643316  0.0347610687458797
  0.8973431859987926  0.5679717833366666  0.6449809848451551
  0.8607914570769921  0.6051394727837760  0.2975695550186686
  0.7964565679421653  0.6212492722691465  0.9815892813529530
  0.7072229224498017  0.6784959239595381  0.6703213033164914
  0.6312131496510105  0.7137552198356829  0.3271862903580072
  0.1362142421067674  0.4770213029825925  0.0000473837030555
  0.0600436170804954  0.5174469844145335  0.6709148416428761
  0.9998204992824427  0.5928084967772733  0.3231537891500125
  0.9327097724199191  0.5947951389358508  0.0216897276520953
  0.8432487541862699  0.6800749707857321  0.6593205438172660
  0.7787929343008031  0.7238468202497117  0.3327443136393597
  0.7164318277512933  0.7287851750780021  0.9812621049857242
  0.1890422922480539  0.5405342664240393  0.6606648820557908
  0.1611834941188164  0.6027278655584993  0.3238975444761678
  0.0778748797885171  0.6093766581863562  0.0328808824950571
  0.9944778288898917  0.6483617555704342  0.6606216143202275
  0.9302071746523168  0.7431616645120442  0.3182171680210857
  0.8690211300046684  0.7037583019184339  0.0163851680210882
  0.7647521887999673  0.7854137917262989  0.6619276380408508
  0.2919342272093530  0.6030441634410053  0.3383653837030494
  0.1931969001179894  0.6210033378786051  0.9904077452229316
  0.1286697996149471  0.6653017144942055  0.6589240061497890
  0.0697023488282014  0.7200264875305393  0.3425262139248844
  0.0123760121373095  0.7355116995736708  0.0006137518119900
  0.9269221269366312  0.7765857796029962  0.6716044884691428
  0.8482242792319923  0.8532465143155790  0.3334889514605734
  0.3393693121565136  0.6414989320922970  0.0120039916538559
  0.2874448974875108  0.6537609419068744  0.6691776740610607
  0.2265316585560768  0.7179689688198252  0.3544909022622420
  0.1410326573065390  0.7315438435947286  0.0154026329892361
  0.0523628686415520  0.7931797191873002  0.6505069633208862
  0.0049657410815556  0.8376171863469466  0.3092426184933004
  0.9242508173253157  0.8555143638697018  0.9883624041291483
  0.4035768339269978  0.6790445417055437  0.6834879139029226
  0.3422302209952335  0.7635087969702354  0.3446030674280678
  0.3029952933295590  0.7475087215869962  0.0026386839446531
  0.1866216405537813  0.7923748411399316  0.6626240048319758
  0.1469323891889260  0.8584494718874538  0.3361276674719988
  0.0647430194846095  0.8675701261971298  0.0136875005490893
  0.9931258893662118  0.9135312963433222  0.6640318264880278
  0.9085639512797670  0.9813077730186563  0.3562166026795524
  0.8574410421677641  0.0148677485129625  0.9927351548429613
  0.7837039503501586  0.0254475569641315  0.6675797887107393
  0.7000792083333991  0.0670528142724649  0.3266339692510414
  0.6439971177266770  0.1149112363083731  0.9813000931254123
  0.5963485097531844  0.1650801063846998  0.6335510428289055
  0.5084138233760527  0.2202389647419096  0.3408021027893682
  0.0660315194395764  0.9572939532281310  0.3426004511311191
  0.1378236571954403  0.0012694499962009  0.9860949672743260
  0.2165935306736344  0.0206282024526345  0.6657763096859242
  0.2762841070128417  0.0992766647606231  0.3348121840544707
  0.3705056882271478  0.1147327938743743  0.9964010107621348
  0.4324552380711140  0.1531538038049689  0.6385214996705457
  0.8596645308894111  0.9102157558847566  0.6653372084339964
  0.7928903926169681  0.9580970979109793  0.3280488636064121
  0.7065617103771160  0.9647793414179304  0.9838599710081297
  0.6632719650577599  0.0401854099347290  0.6622156499011638
  0.5664506342441626  0.0854394249828516  0.3401681005930186
  0.5097754187705945  0.1358427046314787  0.9939345499670580
  0.1559730695430588  0.9233187573747443  0.6673951122336916
  0.2228510870545080  0.9933412273811584  0.3196888407643286
  0.3169998028045171  0.9985512458487165  0.0189741774654095
  0.3491510498460002  0.0402285843543169  0.6522298172633398
  0.4210533287013902  0.1124253889572984  0.3551025121897666
  0.8082393833984867  0.8705649802367290  0.9941859178563561
  0.6965978254172711  0.8871950156849238  0.6784603760158134
  0.6592383035074434  0.9502654086252775  0.3150098576762588
  0.5700981333269439  0.9752778727257905  0.9738459609048959
  0.5155055074098982  0.0305117814321534  0.6451259160992748
  0.2206799582179002  0.8801546556746231  0.9979199797935436
  0.2895004495451445  0.9211178292411972  0.6253287265539171
  0.3763905933662244  0.9653644181930403  0.3401429132440157
  0.4540800575581940  0.9894713390998717  0.0053922169997804
  0.6968049096323625  0.8267518313073836  0.3399537381945947
  0.6450901431343183  0.8605449694448879  0.9942623887546702
  0.5641771325932012  0.9061866791034987  0.6606542442345713
  0.5084728817732440  0.9672381961557619  0.3436502723479009
  0.2828939361036333  0.8428831503009349  0.3459434601361764
  0.3762134801971300  0.8687515431946906  0.9886957267735568
  0.4079888113365300  0.9159337840567048  0.6716168073797490
  0.6409086009218328  0.7882696560192883  0.6579913687678456
  0.5648068570142470  0.8384524995913054  0.3422319095102111
  0.5124619045734633  0.8742959249012117  0.9981745750054927
  0.3372741227147174  0.7802616365213311  0.6805773990775279
  0.4565563697571520  0.8623664227045467  0.3623618739292738
  0.5944672993352214  0.7475007291553908  0.0158622244673836
  0.4772029819597563  0.7924767782059448  0.6745572475291013
  0.4500269163840684  0.7429305193499687  0.0315653305512882
  0.4859514207074298  0.7158032137671668  0.3571328666813116
  0.0043734530427102  0.9710554088681604  0.7888783615198776
  0.9079178690343497  0.0440688647982199  0.4370288653634944
  0.8749638665959480  0.0751871968129052  0.1106433402152405
  0.7685931156649346  0.1275366123363781  0.7569147054689225
  0.7081285972418954  0.1790523497707781  0.4395625165824697
  0.6356488412381651  0.1963621569182834  0.1167201164067677
  0.5562927386978842  0.2338899032861761  0.7668838581155271
  0.5252700585155026  0.3216851348974501  0.4530419639797927
  0.4335104784867170  0.3632674003947329  0.1224748750274571
  0.3610775103119295  0.3700339934338146  0.7958361366132252
  0.3078514736419891  0.4231110889404874  0.4559491605534802
  0.2025238207620603  0.4529416624400184  0.1231428618493311
  0.0716748425910083  0.0383561510232440  0.4538116815286628
  0.0165943229455365  0.0801133143024089  0.1015016050955424
  0.9183271258968873  0.0849922336385092  0.7738813490006606
  0.8625590140508947  0.1542839138449210  0.4228047581814209
  0.7682379915560418  0.2065829677870852  0.1126260448056229
  0.7228589356985893  0.2394719134362759  0.7701808183615171
  0.6541983749542055  0.3088168992494076  0.4241084708983109
  0.5711677223495144  0.3602839560077129  0.1014667353393364
  0.5003130558869415  0.3670197247087543  0.8021268236327685
  0.4529090827512903  0.4195315844544183  0.4839521445200958
  0.3474976150464357  0.4487347229438612  0.1323800267955164
  0.3049064504894332  0.4883275996782146  0.7613701638480137
  0.1602983935260269  0.0974272318534517  0.0983857215023036
  0.0805167925099965  0.1136666721752491  0.7925171385899432
  0.0050547057093553  0.1615505654941174  0.4421079341093801
  0.9054131854772791  0.1975172391391169  0.0969838163847996
  0.8454388304584270  0.2334060923153558  0.7823322859652961
  0.7838764348148501  0.3091350083165096  0.4408694684823189
  0.7141266622688818  0.3410524847395848  0.1238606110256981
  0.6375946083359452  0.3436386272399119  0.7731509150010965
  0.5786474797141636  0.4365428635344699  0.4372235897210643
  0.4883030073162686  0.4481806696814417  0.1091091245332763
  0.4169565452719510  0.5098579181925658  0.7747576327695995
  0.3746348282742460  0.5345296840441520  0.4669263900724800
  0.2245634709621740  0.1254780666404400  0.7769542301779069
  0.1332051468180708  0.1549375706229199  0.4298630054908870
  0.0753942951301809  0.1980575614212938  0.1066152167801420
  0.9787154356871426  0.2199706868090701  0.7781866773555919
  0.9366510840524569  0.2803549574995543  0.4379714768284657
  0.8630186078441113  0.3149598382115428  0.0885560412914543
  0.7823023574732417  0.3827497577751373  0.7742335444761679
  0.7139816784623392  0.4332915012796406  0.4189254096200301
  0.6407703887306084  0.4380252040154957  0.1025075545793968
  0.5699587254953968  0.4642212728601365  0.7905395510652298
  0.5274760336118121  0.5528317848647859  0.4395505297605951
  0.4173649777389770  0.5675034684569482  0.1156791161871311
  0.2867647881382211  0.1872605402527014  0.4519349382824487
  0.2170438930643783  0.2142252266272067  0.0971239859433339
  0.1178366788982288  0.2488881981929509  0.7810363558093556
  0.0772249263875437  0.2593694878777129  0.4458895277838764
  0.9888339852782195  0.3198534075450326  0.1071110169119294
  0.9273507617799979  0.3571747133731478  0.7881805319569537
  0.8473539456827979  0.4234177029201192  0.4435729369646353
  0.8021483765983533  0.4933578950118118  0.1082434232374254
  0.7016039689733731  0.5029747658146562  0.7768033244014916
  0.6535630446852281  0.5466270920406799  0.4514158449374008
  0.5674017615255948  0.5737754042395977  0.1112189431144301
  0.4771957207433530  0.6213947283087222  0.7797072137052510
  0.3691240046727984  0.2186533771516608  0.0871606988798561
  0.2933430695294419  0.2535708435376876  0.7714316217878334
  0.2084104969986456  0.3128740154157370  0.4546030687458824
  0.1346171105279197  0.3133933285437607  0.1115199112672940
  0.0367243176024488  0.3691080892670016  0.7738827559850634
  0.0121642599989400  0.4127323720359826  0.4302849154403674
  0.9342519817637793  0.4659766766595084  0.1100539081923984
  0.8439613583993690  0.4983678435242638  0.7539777122776172
  0.7771087380999546  0.5523345217151530  0.4230698585547970
  0.7062859459235185  0.5865107162162246  0.0883430603997368
  0.6417252870176213  0.6219137954076217  0.7493671008126483
  0.5771967869443984  0.6922349265236463  0.4477197900285503
  0.4142488480376230  0.2545207722145335  0.7620929672743273
  0.3448701155939062  0.3097706089649321  0.4527530582033847
  0.2956973661403097  0.3294654394601864  0.1388223101251924
  0.2292253202363881  0.3776887631309478  0.7749289259828700
  0.1532902547448458  0.4083848581171026  0.4501531113551493
  0.0784909002400411  0.4427882147825812  0.1108945895014273
  0.9897521734066075  0.5013775543336223  0.7628238089171973
  0.9395163452326614  0.5340220405792380  0.4212075919174154
  0.8362433467563264  0.6167727580339815  0.0969598475730322
  0.7758628938936596  0.6205554273419978  0.7740149650779671
  0.6948871280341393  0.6768336776245008  0.4196291702174406
  0.6393220904409773  0.6925290428570818  0.1246687406105877
  0.1184792486044870  0.4885748578561291  0.7700862710300882
  0.0714177425713416  0.5363069327637291  0.4302653801888852
  0.9983706286829772  0.5522723176173940  0.1322278273665702
  0.9350245286356440  0.6395998322290097  0.7649376872391827
  0.8612309682061721  0.6806202201749088  0.4059004880298716
  0.7785964232511162  0.7102762119877468  0.1195063918295602
  0.7133329613171853  0.7490966077794212  0.7796854535471098
  0.2237890486973768  0.5464751897217539  0.4358328824950561
  0.1376616781612796  0.5793241317895621  0.1292495049417965
  0.0706509477334478  0.6137719906898340  0.7739942657588372
  0.0110300398681531  0.6880206880732587  0.4247796318910630
  0.9477888410965178  0.7136742998580559  0.1006646813090271
  0.8644806397858460  0.7430021012621921  0.7606291060838970
  0.7906676287568501  0.8003492223630815  0.4530236195914767
  0.2846629873820063  0.5780587905218439  0.1170288073797465
  0.1975737870383085  0.6254588408244501  0.7596106725236140
  0.1477786882209955  0.6606617417711220  0.4684193648144088
  0.0867430417656649  0.6923767099965801  0.0929545337140354
  0.0259914707789903  0.7526446206546424  0.7987383527344605
  0.9152846884393853  0.8091458133947711  0.4368580307489580
  0.8556776142076785  0.8233344794258315  0.0957424339995612
  0.3233992242727055  0.6252167494010621  0.7838278871073996
  0.3030536938315933  0.6727471027624858  0.4552067819020422
  0.2170612134991146  0.6696502799788959  0.1136047854162072
  0.1425203066884961  0.7515328840888102  0.7972460478805203
  0.0590598873289920  0.8160250453012381  0.4342596916318939
  0.0168143420723084  0.8284480774114868  0.1312509246650535
  0.9341449811965390  0.8639194258079854  0.7694551486931687
  0.4196670703600418  0.6657306939614784  0.4600039336701087
  0.3425898359660522  0.7169979670720465  0.1279850507357807
  0.2638561247382256  0.7564631479175361  0.7824207630133984
  0.2051341896763716  0.7892289354158564  0.4694728679991229
  0.1547659400204893  0.8199163441893802  0.1204193995168055
  0.0723305000102599  0.8658221615682393  0.7780090221831770
  0.9765411378148841  0.9259572890855736  0.4394707300680878
  0.9564625068409640  0.9242182119747184  0.1150548798594357
  0.8579238582088990  0.9820038651472487  0.7798622868438372
  0.7868904475791396  0.0492587980866261  0.4603410744564016
  0.6989442674600639  0.0722281728002869  0.0981757794860556
  0.6319533637739596  0.1050201599634164  0.7848599389413593
  0.5726706949229126  0.1806303597040824  0.4331723443883178
  0.4972678172507159  0.2285172022718100  0.0909841945969703
  0.1080747227314163  0.9494626441381584  0.1163210889523398
  0.1515356641706660  0.0156196269441935  0.7896413419723274
  0.2256443485902864  0.0555574085013077  0.4395554249945093
  0.3154369071608230  0.0963784423374179  0.1401836551724145
  0.3548985466687640  0.1038150888815750  0.7649509993410959
  0.4323709472452677  0.1949310724536915  0.4229945047221619
  0.8430977367022336  0.9256225327691254  0.4762945710520512
  0.7776509756741703  0.9647080874728786  0.0983021216780173
  0.7233713314801307  0.0109888903461410  0.7801036077311636
  0.6538048873496436  0.0551440855181440  0.4195762372062362
  0.5669261945797857  0.0918306114763112  0.0839567173292366
  0.5144745152427248  0.1318588013981028  0.7424621656050974
  0.1513371611754692  0.9246788783823519  0.4323411052053601
  0.2199406461006532  0.9618936669647695  0.1099434658466976
  0.2824354666621431  0.0035695072870254  0.7678218172633393
  0.3681716450545238  0.0591568891970695  0.4251003237425905
  0.4187421474781559  0.0992080088329459  0.1209136081704401
  0.7855757991993997  0.8786904860469349  0.7710996573687652
  0.7184375686409865  0.9366769804769959  0.4553382429167598
  0.6300297885998205  0.9543980763964228  0.0862763259389396
  0.5826196762950744  0.9942191069188127  0.7604714706786737
  0.4944909146923422  0.0544466348160100  0.4514847094223597
  0.2368906440672802  0.9027488645929154  0.7812143088073782
  0.2669877736809525  0.9102229258493892  0.4215702925543567
  0.3697863783361797  0.9427433872260735  0.0927947735558945
  0.4230034595133674  0.0199530958922765  0.7618384462991443
  0.7054595260637768  0.8345194116879924  0.0924286606633018
  0.6354422731645286  0.8876270669788653  0.7771666962442367
  0.5931807591233351  0.9354219488796574  0.4383673208873304
  0.4875971750043746  0.9501044158384389  0.1189822442345729
  0.3049468904479227  0.8251690344256417  0.1195348289040226
  0.3515636018961175  0.8843627720531302  0.8057552462112909
  0.4399289282710370  0.9345404007852451  0.4621856011421031
  0.6392186133369648  0.8162261093274878  0.4521813595431610
  0.5634152335897653  0.8306486435683880  0.1043007634526703
  0.4969172327670179  0.8845438376955386  0.7939949400395321
  0.3695122883567592  0.8273172438095173  0.4588895747858572
  0.4222798508701047  0.8507167310857398  0.1325452492861814
  0.5492898251509288  0.7569404285028654  0.7631192514825358
  0.5033513094351605  0.8069290628316423  0.4707304713375819
  0.4172237749983765  0.7606091544692646  0.7742553428508643
  0.5029136345929999  0.6904041468851361  0.1369584665056038
  0.9949889064893895  0.9944672322593462  0.2292785047221599
  0.9315729572007712  0.0332805648189520  0.8830280180101013
  0.8609458862518267  0.0662495551739113  0.5691785424994507
  0.7701518434031911  0.1151881859412782  0.2070939516802142
  0.7334707099078628  0.1713814199728603  0.9066756494618957
  0.6495808594567976  0.2217055773344967  0.5337751539644202
  0.5414318963180804  0.2771854908799156  0.2144418198989655
  0.5032354056604831  0.2884677192660376  0.8921078541620915
  0.4217440103016585  0.3072696680743263  0.5667807722380829
  0.3302869074012094  0.3903630307707715  0.2588611500109792
  0.3005589845530068  0.3977698775209006  0.8896972514825379
  0.2301318648420647  0.4400147191732060  0.5696225842301743
  0.0823795698882250  0.0337114548112538  0.8666698040852197
  0.9762087558496191  0.0607073921523238  0.5615404195036220
  0.9059044032551142  0.1138957448817948  0.2330385187788266
  0.8777220962408450  0.1701799440207452  0.8963599380628153
  0.8088693935358862  0.2051187868030908  0.5620622451131112
  0.7133322705544245  0.2568139412843990  0.2160042886009208
  0.6146603595193838  0.2692361473694689  0.8666262837689445
  0.6002858171455259  0.3374159703112483  0.5497430296507773
  0.4854050250571333  0.4006374503140080  0.2439234245552413
  0.4543996385035953  0.4411875359293376  0.9046573981989923
  0.3681045253970652  0.4693981927121840  0.5761212945310774
  0.2891108355231538  0.5221033175668808  0.2355343140786275
  0.1275631791672112  0.0608101271046309  0.5713566022402787
  0.0506444329454823  0.1105256963896721  0.2380756863606379
  0.9925645889598158  0.1502898088640592  0.8889931478146309
  0.9652509017739987  0.2052673636244151  0.5582970112014038
  0.8541440062260577  0.2256967584878780  0.2135128679991212
  0.7655564369681471  0.2880108342129546  0.8953750718207800
  0.7422606685823254  0.3341958466914861  0.5658202670766528
  0.6627489345586710  0.3788736965907518  0.2177077654293882
  0.5607473130123566  0.4288011731817889  0.8897143808477921
  0.5036143118178842  0.4480776446675563  0.5727355146057533
  0.4173993139446424  0.4981421877943575  0.2445267797056871
  0.3667353805976745  0.5397199686489955  0.8753476072918929
  0.1938335253256298  0.1347962900611748  0.2254830845596345
  0.1560770800181643  0.1573293186081273  0.8720561616516562
  0.0677789156711270  0.1791412479180607  0.5531431214583762
  0.9916166980824883  0.2698774775535711  0.2070739301559428
  0.9184278286569381  0.2802156144078225  0.8702685416209093
  0.8903092764228688  0.3473974324596583  0.5594126707665268
  0.7956969392720126  0.3782539282818007  0.2332310186690094
  0.7234238535896509  0.4156779622199664  0.8863655040632565
  0.6545883470972811  0.4513816701483222  0.5338416534153296
  0.5585927561041117  0.5133914678933706  0.2176854030309698
  0.5134664572194367  0.5441140571089349  0.8804448372501668
  0.4467913146433702  0.6112539899235827  0.5762503492202953
  0.3069034015293468  0.1747031743255505  0.8798803052932129
  0.2274048599186429  0.2143871521483902  0.5417735624862701
  0.1283096306470384  0.2383082690407576  0.2203464889084117
  0.0699093155203556  0.3168610359023916  0.8978746171754892
  0.0217138292549279  0.3404496460379249  0.5573143698660203
  0.9135147713856853  0.3624705809290276  0.2154909294970366
  0.8505969933392450  0.4004200141240730  0.8999355831319988
  0.7943234699529427  0.4579241765487296  0.5435971908631672
  0.7136737708139336  0.4985973330361659  0.1937133665714939
  0.6436770482333003  0.5481432068687440  0.9026435247089850
  0.6140225025402160  0.5713548257916656  0.5585725490885096
  0.5094722526870683  0.6105328886091002  0.2326701954755137
  0.3417145533540307  0.1899412547120320  0.5693771605534792
  0.2640364983607881  0.2514038415049527  0.2185670226224445
  0.2081857042026698  0.2964487998192169  0.8832462675159221
  0.1526139486780593  0.3408812097185105  0.5710304067647698
  0.0584038425695681  0.3449892236198622  0.2078843070502998
  0.9771445780359755  0.4576301909215630  0.9085591785635856
  0.9563228469802425  0.4553547850317088  0.5605945064792479
  0.8431669019212720  0.5342491760721018  0.2317425060399714
  0.7977647189142303  0.5246651710880599  0.8806562596090473
  0.7555681516108450  0.6031691920075062  0.5748290195475505
  0.6397534687084274  0.6299533649023488  0.2225903531737288
  0.5703719099566555  0.6838139312740736  0.8666323496595680
  0.3968670424893688  0.2744225042643080  0.2173465113112201
  0.3517373563630315  0.2930773058536928  0.8925273968811780
  0.2729781866148215  0.3271757627419163  0.5413203175927990
  0.1968739994612037  0.3708736045817389  0.2479955088952366
  0.1489630659185224  0.4234449416345996  0.8981195866461675
  0.1005791737388435  0.4584773502002335  0.5479818014495947
  0.9838349076054982  0.4891530452705410  0.2265590792883785
  0.9222759601245087  0.5635004679559614  0.8949346584669442
  0.8672476011160484  0.5712231501282901  0.5452084028113333
  0.7816305979854334  0.6427560423930458  0.2075692470898289
  0.7070232151462861  0.6629030336670851  0.8648896903140795
  0.6637158587099776  0.7282334874498133  0.5733349523391169
  0.1421444814998694  0.4997693684855022  0.2307221440808291
  0.0868401661181508  0.5375020481047343  0.8962881862508212
  0.0058960668404211  0.5717956169271972  0.5429031135515032
  0.9386652277684249  0.6452485160924084  0.2000476270590852
  0.8553376185393233  0.6649164407816528  0.8825700294311432
  0.7896452829562506  0.7080393755473651  0.5428979754008338
  0.6974974039732373  0.7513686432320981  0.2153479231276094
  0.2230758698760624  0.5404400105503697  0.8680531267296274
  0.1541952110011380  0.5660239829839355  0.5498128895233947
  0.0641624687392053  0.6490904442405139  0.2364425337140332
  0.0232179396535770  0.6579067361050122  0.8950799613441660
  0.9245693361483234  0.7017122062836805  0.5335472180979579
  0.8536104968414335  0.7741536113367502  0.2349661770261378
  0.8096137341025056  0.7834831472061978  0.8903829822095304
  0.2711474918861541  0.5716123388591683  0.5472100645728091
  0.2102458598582899  0.6250416231338320  0.2360737909070920
  0.1280134753274638  0.6541016556773869  0.8924038365912565
  0.0598531399106790  0.7116550239696622  0.5579236947067869
  0.0262181126185794  0.7549057473231358  0.2183920689655139
  0.9441412238599725  0.7774679386668666  0.8968061190423882
  0.8443970439681863  0.8110151302424669  0.5693763246211319
  0.3574488921211625  0.6386196597529263  0.2213418585548013
  0.2793493478362308  0.6418431190615621  0.8812805381067434
  0.2076320507666267  0.6944086959585292  0.5711157215023093
  0.1534841593034031  0.7465097859292982  0.2204696468262668
  0.0727523345339733  0.7870309393279342  0.9088175567757517
  0.9876635655096422  0.8313678099398629  0.5577508693169335
  0.9274517763069099  0.8936458581023885  0.2262651205798392
  0.4154886742738384  0.6747289940755081  0.8937469918734919
  0.3656420068985682  0.7180384729725020  0.5696353151768037
  0.2654939955208562  0.7626703826515353  0.2237466220074680
  0.2213323012523105  0.7768845925162893  0.9184719332308333
  0.1443289960031464  0.8388699479673107  0.5400882205139439
  0.0850704941511253  0.8876222461426835  0.2257757232593889
  0.0196622041089469  0.8896586605236791  0.8729534702394020
  0.9243611424986540  0.9506377426577899  0.5343450327256747
  0.8452671673361181  0.9833125641899088  0.2026524041291466
  0.8120008715807927  0.0640504939427018  0.8729996674719942
  0.7169944668776154  0.0787535184211450  0.5498677157917840
  0.6205708593571373  0.1226075415439851  0.2373969048978708
  0.5846817342812827  0.1490265455755164  0.9082033116626391
  0.4937705096290017  0.2169689956864218  0.5335708029870432
  0.0449449872147625  0.9596751828047161  0.5641337447836605
  0.1608776677573687  0.0073346647853043  0.2164885552383069
  0.2305184570179577  0.0369436884207062  0.9000945073577853
  0.2745694630413951  0.0615159433989163  0.5464645596310120
  0.3734664330210151  0.1433581682901419  0.2374277149132453
  0.4499943542485170  0.1463379020833955  0.8636741484735353
  0.8637716890178950  0.9133139177278480  0.8936601576982213
  0.7808001697330980  0.9377720658820721  0.5868502890401928
  0.7230953595616896  0.0144030621840869  0.1995988934768249
  0.6892365934827041  0.0359368199847054  0.8846919468482284
  0.5662318555909280  0.1212816099830079  0.5640562332527992
  0.4860527405926547  0.1501038863795330  0.2264882503843637
  0.1545027929505522  0.8803900777550879  0.8762207001976705
  0.2092421385753056  0.9310725464351748  0.5359950142763026
  0.3156504225016263  0.9855233204008655  0.2422421572589499
  0.3902393607551460  0.0391993501044823  0.8863190823632792
  0.4255906775737515  0.0727475255806311  0.5548308978695360
  0.7676687691618582  0.8485482529238837  0.1963202051394717
  0.7510446011454235  0.9344570306066942  0.8887966435317338
  0.6141352407047691  0.9839654571111893  0.5631528697562018
  0.5583305482404768  0.0383953404639357  0.2333029018229738
  0.5200605533463403  0.0366826112144238  0.8698138989677133
  0.2194029382848015  0.8818278925790608  0.2055400448056233
  0.2780326761989116  0.9275426614465800  0.9203429132440135
  0.3413340278724419  0.9537456271356817  0.5389809396002647