Li                                      
   1.00000000000000     
    21.6720000000000006    0.0000000000000000    0.0000000000000000
     0.0000000000000000   21.6720000000000006    0.0000000000000000
     0.0000000000000000    0.0000000000000000   21.6720000000000006
   Li
   432
Direct
  0.0130600258397919  0.0140858762458507  0.0093105735511259
  0.9142208019564393  0.1037889705610908  0.0794582332041358
  0.8153152376338113  0.1614814857881157  0.1821477279438923
  0.7470056704503492  0.2617094928940560  0.2546899275562922
  0.6768992326504275  0.3587248214285736  0.3291541763565888
  0.5835911060354348  0.4217401047434493  0.4429641597452942
  0.5095491615909964  0.5275957761166481  0.4890896368586226
  0.4115632775009246  0.5897231893687689  0.5666124058693214
  0.3265553811369486  0.6696667566445171  0.6787411401808754
  0.2334675982834966  0.7645815992986371  0.7516693636950933
  0.1627101610372819  0.8564608965485405  0.8468415453119249
  0.0859687846068695  0.9282853326873379  0.9214186415651540
  0.0882968830749320  0.9306802833148780  0.0969495062753793
  0.9891999109449969  0.0137795699520140  0.1629738339793292
  0.9086867072720537  0.0746795108896237  0.2705677607050561
  0.8314303931339992  0.1749606044665910  0.3425797494462870
  0.7381405707825763  0.2690570150424492  0.4382931769102996
  0.6676174326319639  0.3340379517349561  0.5240886083425593
  0.5779281815245483  0.4258286729420462  0.5828624760059071
  0.4888647189922466  0.5091587236987820  0.6812269149132533
  0.4055858776301235  0.5984681699889265  0.7623152745478023
  0.3253140582318181  0.6682296437799948  0.8414819878183835
  0.2350685252860814  0.7484210908084137  0.9296980693982988
  0.1486670293466190  0.8382321363971954  0.0097489567183473
  0.1601664728682195  0.8331178243816879  0.1751308416389818
  0.0882140300848988  0.9243813681247701  0.2535065983757860
  0.0011314114987115  0.0135214668696904  0.3311907816537456
  0.9092921760797310  0.0788604609634547  0.4280119499815456
  0.8328566694352162  0.1617837149317083  0.4929628894426017
  0.7371079000553706  0.2542029595791817  0.5990403340716099
  0.6487323537283132  0.3350464917866347  0.6710873246585436
  0.5686321797711358  0.4169147236064958  0.7390905440199305
  0.4977547951273564  0.5133524907715028  0.8386228848283466
  0.4085222992801789  0.5872531344592105  0.9273125276854941
  0.3168659214654852  0.6787466145256573  0.0003573140457718
  0.2350359579180505  0.7471356104651150  0.0747113768918410
  0.2501581953672911  0.7529659090070169  0.2346167511074171
  0.1597742114248817  0.8180579784975990  0.3320840167035826
  0.0796296797711307  0.9265564428756008  0.4011882484311542
  0.9856229734219255  0.9998996470099684  0.5042624118678489
  0.9168670173495741  0.0790758730158743  0.5786327717792545
  0.8274770828719085  0.1567683868586229  0.6557444961240293
  0.7544144070690280  0.2425711692506454  0.7320229023624947
  0.6575919748984873  0.3325024081764454  0.8331321963824294
  0.5891763538205979  0.4127659523809513  0.9333687744555164
  0.5051766196013290  0.5074244541343660  0.0076118447766689
  0.3999592128091578  0.5979049063307471  0.0905100286083425
  0.3109907364341069  0.6490271733111825  0.1763076721114771
  0.3302116048357320  0.6721488367478798  0.3293121100959766
  0.2469619227574782  0.7550333573274273  0.4237033716315963
  0.1565182415097794  0.8536571405500197  0.4959214820967119
  0.0824782045957946  0.9170092603359166  0.5727444121447007
  0.0068362001661129  0.9968356049280160  0.6496578954411234
  0.9107208444075283  0.0733607175156905  0.7342124649317086
  0.8344527893134028  0.1676573454226684  0.8197164922480624
  0.7478284376153539  0.2599172388335163  0.9014643120155057
  0.6745691279069774  0.3388244425987423  0.0155883301033626
  0.5840141302141006  0.4228932387412314  0.0868457991878913
  0.4938235372831272  0.5200400373754164  0.1761198260428216
  0.4297820431893697  0.5761884962163180  0.2617740042451118
  0.4044443673864890  0.5856742723329660  0.4123943516980404
  0.3263897715946840  0.6634168120155053  0.5020171460871197
  0.2426966412882976  0.7604261752491723  0.5871965277777775
  0.1642600318383174  0.8440131081579949  0.6610575821336298
  0.0845727076411933  0.9333039627168702  0.7481335119047614
  0.0023400023071218  0.0227342515688420  0.8226672785160574
  0.9025847642118876  0.0791478045404190  0.9020726961055772
  0.8129016652823893  0.1700873887966026  0.9721755813953479
  0.7534902270210395  0.2490693392395684  0.0847375913621278
  0.6606215019379817  0.3379373468069389  0.1725826956441523
  0.5876791219084510  0.4126925064599476  0.2495104784975979
  0.5051574506275358  0.4905027902362491  0.3422852427094867
  0.0866182392026573  0.0801776172019188  0.9155332622739039
  0.9878235792727921  0.1771204194352194  0.0100678885197496
  0.9096880527870042  0.2576825996677741  0.0839965577703978
  0.8268734731450706  0.3357924234034684  0.1713758065706870
  0.7516088026024335  0.4260620464193394  0.2482580177187188
  0.6792654461978600  0.5043223731081596  0.3399717723329658
  0.5958290259320762  0.6077723320413426  0.4108974247877413
  0.4971774067921757  0.6571113598191189  0.5007952731635257
  0.4137291482096686  0.7541931990586903  0.5851192612587681
  0.3381135520487248  0.8494733204134377  0.6847752145625705
  0.2414020750276862  0.9151507954964941  0.7527571511627897
  0.1573995722591377  0.0059774967700292  0.8307127708564011
  0.1696063718161653  0.0027017280361790  0.0108400175341430
  0.0867499413990416  0.0855735248246603  0.0786137255444785
  0.0026225207641204  0.1657557775009195  0.1855993461609415
  0.9062118549280171  0.2520744882798098  0.2436069702842403
  0.8387821322443685  0.3450156183093398  0.3341887269287582
  0.7520415753045384  0.4196640674603174  0.4232617460317485
  0.6630659786821695  0.5157461895533402  0.4970962066260611
  0.5735709186969373  0.5880431875230698  0.5752682728866745
  0.4851041117571029  0.6604970238095262  0.6577000442967886
  0.4004779102067175  0.7475370321151686  0.7642687310815788
  0.3124444347545250  0.8241084639165734  0.8469243553894401
  0.2446422702104130  0.9162639497969707  0.9212625618309360
  0.2442142571059449  0.9081273085086750  0.0920771165559273
  0.1747821202473219  0.0179973297342215  0.1534796193244716
  0.0848360594315238  0.0842037301587268  0.2465726232004428
  0.9856632290513119  0.1661149049464754  0.3409966832779645
  0.8956770561092640  0.2400434551495039  0.4232594250646002
  0.8257515702288671  0.3399011281838327  0.5093697005352524
  0.7516966934293094  0.4339929480435600  0.5879765088593558
  0.6632150064599500  0.5032645048911064  0.6692884182355101
  0.5842613081395314  0.5749869509043961  0.7419706487633846
  0.5068676642672543  0.6525763404392748  0.8367108660944993
  0.4240574617017359  0.7356289124215607  0.9292284976005902
  0.3268484117755648  0.8179253903654455  0.0200859565337765
  0.3318784039313414  0.8307835317460288  0.1649016629752680
  0.2491244347545205  0.9030157248984878  0.2443283365633064
  0.1840080777039503  0.0062526375046161  0.3346640130121799
  0.0904422102251772  0.0795375096899207  0.4124068203211522
  0.9921616925064569  0.1669487906053888  0.5091276767257256
  0.9119541140642298  0.2525986923218895  0.5935668055555539
  0.8189994818198585  0.3254854669619789  0.6603101790328552
  0.7563825055370970  0.4159654877260976  0.7516030920081178
  0.6706163450535243  0.4906812227759332  0.8418809911406413
  0.6004556275378334  0.5843800807493551  0.9277711738648975
  0.5061188118309303  0.6652545422665170  0.9911582198228146
  0.4193653165374656  0.7299069130675520  0.0911899400147647
  0.4084093300110752  0.7461369038390515  0.2395001536544825
  0.3317060151347349  0.8314876204318935  0.3257968004798784
  0.2601528225359928  0.9267076467331137  0.4073812024732391
  0.1649096908453274  0.0015221285529705  0.4916577039497980
  0.0990851559616104  0.0733219799741605  0.5833835225175363
  0.0009776513473625  0.1610223841823526  0.6490076204318953
  0.9292943779992626  0.2486917787929102  0.7308787906053880
  0.8218766472868211  0.3251955970837912  0.8243131598375797
  0.7478055753968249  0.4092907756552222  0.9316785354374275
  0.6851337269287541  0.5063321806939811  0.0008620196567009
  0.5839017331118512  0.5945150170727231  0.0711894033776304
  0.5049471073274248  0.6718292326504240  0.1677104891103696
  0.4962377034883687  0.6655003562200079  0.3418980315614633
  0.4030100064599509  0.7479997614433387  0.4302942894056869
  0.3335767635658939  0.8322918355481761  0.5052390416205270
  0.2545504171280939  0.9141820930232569  0.5817858914728689
  0.1659280763196733  0.9833742188076755  0.6597459233111849
  0.0728716094499831  0.0750597236064934  0.7405849446290134
  0.0025346853082340  0.1626918124769290  0.8130432032115138
  0.9123420099667783  0.2618144126061281  0.9054529065153218
  0.8181505818567700  0.3396722568290897  0.9967711590992963
  0.7562050876707289  0.4306736304909577  0.0977982156699895
  0.6635071677740854  0.5086970777962350  0.1524305241786621
  0.5879073025101533  0.5851382258213391  0.2518956095422666
  0.1655966694352173  0.1553531824473993  0.8033301702657809
  0.0875475382982671  0.2462580089516422  0.9131909625322976
  0.0021569315245458  0.3241355352528643  0.9834359620708781
  0.9147768018641571  0.4169257465854557  0.0966323020487252
  0.8444989991694385  0.5051390014765573  0.1730865300849018
  0.7549689834809925  0.5788839604097475  0.2450537278516052
  0.6678147259136225  0.6572649515503883  0.3246141366740503
  0.5778345722591354  0.7408837204688083  0.4135986337209303
  0.4810527653193049  0.8194702413252131  0.4996150595238120
  0.4105029683462504  0.9284742021963837  0.5733181016980424
  0.3429875226098176  0.9895109957548911  0.6608587809154685
  0.2747590176264296  0.0816553580657100  0.7563243364710246
  0.2431229457364310  0.0848179074381719  0.9299105490956094
  0.1732577177925450  0.1745874958471774  0.9884691906607586
  0.0881233656330735  0.2483928866740470  0.0918444227574753
  0.9987416638981159  0.3324820136581792  0.1803280790882269
  0.9173979711148021  0.4263585806570660  0.2644423283499435
  0.8275990826873354  0.5089328585271318  0.3527746793097108
  0.7547443738464352  0.5948081769102984  0.4138280980066469
  0.6737239807124382  0.6700785695828699  0.5104115222406804
  0.5741828779069778  0.7549195039682530  0.5839707987264688
  0.4797977353266916  0.8352168484680718  0.6865383014950197
  0.4022346308600930  0.9277203216131440  0.7702814013473613
  0.3298996566998866  0.9931230421742328  0.8394431316906577
  0.3298750101513477  0.9799026711886327  0.0027786858619407
  0.2591921230158718  0.0884218138612027  0.0714574792358817
  0.1713864922480610  0.1574145681063115  0.1688963764304177
  0.0917782908822460  0.2483249612403071  0.2566831935215959
  0.0106114816352871  0.3261869739756378  0.3348735308231809
  0.9301159976005877  0.4164096225544469  0.4176516546696192
  0.8311665310077530  0.5220161295681081  0.4959238122923608
  0.7459684892949454  0.5908585926541150  0.5932784537652296
  0.6714526356589161  0.6684317912513862  0.6579886706349214
  0.5691793687707616  0.7465992566445152  0.7386192035806545
  0.5005271142487970  0.8290007262827643  0.8158123168143234
  0.4013561286452543  0.9093966149870809  0.8972377588593545
  0.4307228197674391  0.8982289285714273  0.0893083277962319
  0.3335742704872615  0.9918750143041706  0.1533422609819155
  0.2552411337209293  0.0754393443152424  0.2517310109819135
  0.1596322549833857  0.1657062163159821  0.3304175816722008
  0.0780701250461391  0.2381271696197871  0.4317836286452561
  0.0060939364156525  0.3297984519195296  0.5053091749723109
  0.8972433730158755  0.4206370441122189  0.5811381067737145
  0.8391817091177529  0.5275999653931365  0.6747801716500561
  0.7477701776485759  0.5887989359542232  0.7587300775193810
  0.6550315176264334  0.6700832313584328  0.8447774773901813
  0.5829125484496132  0.7715007073643392  0.9057961406423019
  0.4874613122923606  0.8393780772425217  0.9974304526578095
  0.5163083411775560  0.8252991426725700  0.1679707424326295
  0.4157800627537824  0.9133756261535595  0.2317288136766322
  0.3360624349390946  0.9953163321336262  0.3136266915836075
  0.2685541334440771  0.0911850069213713  0.4094162218530855
  0.1816320330380208  0.1744782230527875  0.4873908328719097
  0.0810827717792577  0.2565200493724618  0.5733908305647830
  0.9894816362126235  0.3408850442967903  0.6647057258213351
  0.9115603659099278  0.4086075498338886  0.7575986041897380
  0.8248156464562584  0.5061986471022522  0.8471474833887029
  0.7663386069582856  0.5885309076227401  0.9124466657438148
  0.6747978386858620  0.6705809588409011  0.9881694356773707
  0.5906641943521578  0.7419015490033232  0.0693180158730158
  0.5911447739018101  0.7330997600590621  0.2463710105204839
  0.4918644813584336  0.8141244024547802  0.3213721691583586
  0.4096419919712062  0.9059996645441117  0.3978324603174599
  0.3468921663898143  0.9979463298265046  0.4971305075673698
  0.2570628068475429  0.0820628082318180  0.5798482650424504
  0.1791175705980095  0.1560155398671128  0.6709140586932421
  0.0892006210778860  0.2625565379291217  0.7368236784791407
  0.9892978599114031  0.3256636821705428  0.8234347854374278
  0.9049652353266850  0.4117135594315258  0.9121206316906623
  0.8297847005352494  0.5015607991878923  0.0074809514580991
  0.7489910589700983  0.5989268632336646  0.0724726610372812
  0.6807629023624955  0.6757996640826889  0.1695410003691364
  0.2729439987080085  0.2409406746031735  0.7366234265411578
  0.1621769107604294  0.3310529881875226  0.8263683559431527
  0.0804696225544461  0.4121583130306377  0.9116026038205973
  0.9922996460871190  0.4882326753414574  0.9980135174418621
  0.9275459219269067  0.5847124206349221  0.0701878276116616
  0.8277388667404963  0.6764628908268762  0.1505181529162058
  0.7566043115540779  0.7494243983019544  0.2525518083241067
  0.6741277127168672  0.8107336438722754  0.3412906326135072
  0.5819331607604283  0.8940785811184924  0.4103129771133283
  0.4940822872831276  0.9894747918973792  0.4924913376707281
  0.4213008517903276  0.0806533425618312  0.5800765157807319
  0.3431401333517883  0.1639737735326676  0.6627113196751537
  0.3329277265596176  0.1706395907161280  0.8419954323551124
  0.2500699704688074  0.2574303506829096  0.9154079415836094
  0.1699347983573247  0.3317117266519034  0.9918326411960123
  0.0639688344407503  0.4087208633259536  0.0785512666112922
  0.9983219938169086  0.5017471354743464  0.1730352311738628
  0.9174253123846441  0.5797139816352868  0.2504829517349592
  0.8247146336286448  0.6792060155961579  0.3410844744370607
  0.7380458753229959  0.7473399612403071  0.4313752237910649
  0.6482468221668540  0.8354294296788467  0.5128673394241403
  0.5757821045588756  0.8945481123108152  0.5927506220007359
  0.4810059237726065  0.9933040720745652  0.6659934777593222
  0.4136550322997437  0.0845558970099702  0.7556543498523425
  0.4144783748615737  0.0629002247139141  0.9082280924695425
  0.3439998371170176  0.1744102625507580  0.9955049003322287
  0.2649513607419678  0.2545856169250627  0.0860670939461059
  0.1587948338870433  0.3355993475452195  0.1685396465485454
  0.0829290263935007  0.4207098994093741  0.2528207221299397
  0.9980749187892215  0.5206094241417532  0.3292789668696940
  0.9177662776854945  0.5954004189737887  0.4369218161683293
  0.8320081169250670  0.6708351052048727  0.5046658273348115
  0.7553711840162407  0.7673794776670348  0.5874975742894080
  0.6571751213547401  0.8338992972499071  0.6853008171834603
  0.5693201135105213  0.9129168923034356  0.7537695270394948
  0.5086017095791817  0.0031360229789570  0.8494574100221470
  0.5063024658545601  0.9934252971576214  0.9853542432631954
  0.4185236567921748  0.0858113275193801  0.0722375761351017
  0.3451942640273131  0.1828675299926203  0.1743819236803219
  0.2430958827057950  0.2563826910298985  0.2421871248615730
  0.1502233776301196  0.3389228566814353  0.3506149160206746
  0.0783481358434841  0.4296319306017011  0.4307334219269094
  0.9880081289221110  0.5012250632152089  0.4959628548357315
  0.9256706889073456  0.5880436867847934  0.5817214377999278
  0.8379407798080436  0.6759213713547467  0.6636139987080085
  0.7615197595976397  0.7616582608896252  0.7574048181985944
  0.6561463695090453  0.8437839627168700  0.8176742935585111
  0.5923988842746368  0.9203930555555573  0.9108779009782211
  0.5832939751753443  0.9123378303802170  0.0730039973237382
  0.5033598154300449  0.9949486849390894  0.1690354457364336
  0.4285431261535635  0.0800497305278682  0.2510195796419339
  0.3362483582502733  0.1608798071244024  0.3244554088224447
  0.2562470671834660  0.2597963482835013  0.4102423075858255
  0.1768816292912518  0.3372782668881484  0.5046484173126586
  0.0945367524916918  0.4174264576411986  0.5851304429678876
  0.9849370561092670  0.4974600013842760  0.6699342631044658
  0.9107854212809130  0.5834292575673672  0.7569290762273866
  0.8263583637873779  0.6732820330380207  0.8306242635658947
  0.7620698966408241  0.7569060248246586  0.9070453073089695
  0.6641347951273531  0.8363971820782581  0.9832577099483188
  0.6746021973052763  0.8316819472129922  0.1538156833702473
  0.5939291611295658  0.9150825978220780  0.2526189534883727
  0.4949108476375059  0.9816318826135131  0.3280801056662952
  0.4286542820228831  0.0813364650239947  0.4134196340900687
  0.3393753119232201  0.1811820085825033  0.4877270238095264
  0.2628950673680350  0.2390851850313780  0.5970950106127688
  0.1745043918420066  0.3365907115171680  0.6675611471022549
  0.0923086480251030  0.4124866703580636  0.7378182821151711
  0.9929401596530099  0.4974158370247324  0.8279677348652612
  0.9284748744924300  0.5720929212809125  0.9291350452196383
  0.8405464853266906  0.6720154258951609  0.9870421594684373
  0.7592798689553319  0.7571598195828741  0.0592182336655611
  0.3451266089885578  0.3386842792543376  0.6441381538390516
  0.2581847545219631  0.4093381921373194  0.7429828013104469
  0.1648666205241796  0.4850537906053916  0.8286999317091173
  0.1029775203026944  0.5734690591546681  0.9133302348652634
  0.0259191980435602  0.6613650867478782  0.9973050978220712
  0.9392281289221103  0.7328483236434096  0.0503767344961261
  0.8532105689368734  0.8167686614064209  0.1529942940199334
  0.7598820782576610  0.9111634929863399  0.2568937052417866
  0.6615663362864552  0.0019948145071993  0.3408459999077138
  0.5701557525839789  0.0909890854558881  0.4317895067368056
  0.4984875678294571  0.1707375715208599  0.4874482779623506
  0.4121438667404931  0.2492061341823586  0.5744579512735299
  0.4147333942414164  0.2566491149870771  0.7561747762089297
  0.3301334366925062  0.3235190836101864  0.8381377500922866
  0.2507742284975976  0.4189655984680698  0.9173731639904048
  0.1593760954226653  0.4827862232373548  0.0081193355481730
  0.0874593193982989  0.5801551979512709  0.0900877150239907
  0.9891444845884081  0.6694449681616845  0.1593960801956413
  0.9114798168143210  0.7451697277593183  0.2337369213732003
  0.8508799067921728  0.8367752893134011  0.3411988505906223
  0.7424577104097452  0.9003140633074906  0.4056566934293073
  0.6659740120893289  0.9770126476559611  0.4887243715393126
  0.5805022660575858  0.0695707867294217  0.5766145828719118
  0.4941515346991494  0.1541488764304191  0.6690338445921000
  0.5018697877445533  0.1655177067183473  0.8382399266334417
  0.4314960861941657  0.2478225226098161  0.9289316366740508
  0.3300681635289777  0.3280316657438149  0.0179415979143585
  0.2417702057954969  0.4157837366186783  0.0853784463824283
  0.1560015111664796  0.4897366555924663  0.1652006473791090
  0.0806010414359548  0.5954771594684374  0.2505118618493896
  0.9934266339055000  0.6777841565153224  0.3379312283130318
  0.9219454245108878  0.7497042534145422  0.4249046004060517
  0.8225918636950880  0.8444940577703974  0.4997979794204497
  0.7493132724252476  0.9180776836471054  0.5887808822443716
  0.6814314617940198  0.9845382775009242  0.6530045030454019
  0.5810781810631198  0.0773407202842407  0.7439456732189029
  0.5887342141934298  0.0787459251568876  0.8959151767257296
  0.5023681478405280  0.1545366255998530  0.0007888367478799
  0.4258581229235858  0.2348849787744527  0.0648632161314140
  0.3460939461055759  0.3281604729605050  0.1718900719822827
  0.2329465047065327  0.4230799095607267  0.2670622153008466
  0.1514757830380233  0.5103697706718364  0.3419039308785514
  0.0876139548726442  0.5980945704134371  0.4189884842192697
  0.0048102491694380  0.6774849395533380  0.5026292806386152
  0.9127810414359558  0.7456732770395007  0.5718645538021434
  0.8463215300849001  0.8343694615171628  0.6710212564599516
  0.7682513708933172  0.9177444439830182  0.7455482502768547
  0.6769135400516788  0.9851753451458123  0.8308437763012151
  0.6632422106865974  0.0048681907530437  0.9837352380952353
  0.5885882013658161  0.0689454923403474  0.0922744509043909
  0.5006434574566256  0.1531763399778541  0.1736378008490220
  0.4086748781838310  0.2484150853636038  0.2621467068106327
  0.3328217644887417  0.3346957392026582  0.3266780666297535
  0.2400092714101163  0.4283585257475053  0.4352056584533059
  0.1681745145810254  0.4954945810262075  0.5041732871908451
  0.0774393392395751  0.5794942460317429  0.5854263902731631
  0.0034394366002246  0.6662897877445531  0.6722352750092284
  0.9217150286083395  0.7351777547065339  0.7588681985972698
  0.8471735497416049  0.8469516689737944  0.8346604697305295
  0.7551859389996309  0.9092745205795509  0.9213492095791835
  0.7316862112403086  0.9077438875046155  0.0841139696382456
  0.6682457253599097  0.9875114304171291  0.1562973477297902
  0.5886966938907321  0.0698155218715399  0.2558528640642308
  0.4957589904023649  0.1656762984496112  0.3467074833887054
  0.4121220528792904  0.2474470311923227  0.4122917903285312
  0.3188623394241432  0.3193596036360304  0.5164818110926532
  0.2599125036913961  0.4246640725359896  0.5614202168696920
  0.1653697914359569  0.4929422706718327  0.6606387744555207
  0.0966244444444442  0.5739952247139186  0.7436801259689929
  0.0037576864156534  0.6530764613325957  0.8312780897009944
  0.9250389613325964  0.7505465905315631  0.9133422946659309
  0.8590245422665177  0.8523031247692856  0.0064844665928376
  0.4165853428386868  0.4289668886120310  0.5665544919712104
  0.3368801854928023  0.4948380929309693  0.6584574441675883
  0.2565733720930226  0.5791096825396806  0.7569068632336666
  0.1767053663713583  0.6535938367478806  0.8272335391288266
  0.0827803183831648  0.7534128460686631  0.8961254748062046
  0.0105514641011411  0.8430768595422649  0.9891204531192344
  0.9231616588224441  0.9204101130490940  0.0739878728313030
  0.8343711037283157  0.9926463985788132  0.1626093383167202
  0.7525727814691763  0.0609647775932061  0.2631222969730516
  0.6603864973237350  0.1701030767811034  0.3371548532668882
  0.5959358951642670  0.2620267298818746  0.4274754540420815
  0.4892774086378751  0.3304010312846088  0.4873386124953853
  0.4934891265227037  0.3399266472868234  0.6589212213916582
  0.4141650341454408  0.4209511692506425  0.7606496728497589
  0.3451057345884081  0.4986142921742314  0.8295010008305681
  0.2542692377260991  0.5598288261351030  0.9282489484127012
  0.1656797531376881  0.6432636157253597  0.9947300899778497
  0.0847722328349931  0.7380173062015487  0.0720192201919545
  0.0123512979881895  0.8219952653193090  0.1581102916205239
  0.9197459856035408  0.9210850849021810  0.2624489936323400
  0.8241370699520090  0.9903703972868243  0.3621323897194557
  0.7415313275193824  0.0856553562200091  0.4319033144149103
  0.6647360183647066  0.1688971437799935  0.5098615411590970
  0.5850571137873786  0.2552740388519723  0.5836538468992245
  0.5742061641749743  0.2579549926172007  0.7410299515503880
  0.4907392921742328  0.3388000539867093  0.8197526822628305
  0.4342033628645225  0.4032457401255058  0.9124262661498719
  0.3522427085640487  0.4746214461055729  0.9936064239571820
  0.2576371313215233  0.5643057410483578  0.0744174727759344
  0.1724936323366535  0.6649880878552992  0.1671263911960139
  0.0772290845330375  0.7396724090992990  0.2582798371170156
  0.9999220722591389  0.8240366375968975  0.3337618909191562
  0.9218307765780764  0.9161673145071987  0.4279815951458090
  0.8191087153931349  0.9934497406792175  0.4978541703580674
  0.7514239880952402  0.0684895824104856  0.5835464871723914
  0.6684218899963099  0.1585774981543011  0.6624520099667777
  0.6600060520487290  0.1690212200073802  0.8280699953857535
  0.5909681423034314  0.2389749612403094  0.9344378506829116
  0.5162865370062732  0.3454575207641213  0.9982728612956819
  0.4161831935215972  0.4244616274455524  0.0929048112772222
  0.3343407950350681  0.4879490328534501  0.1765925775193793
  0.2404351864156524  0.5756369001476571  0.2563266652823941
  0.1616077800848998  0.6665227731635284  0.3393634528423775
  0.1010365139350284  0.7484799077150228  0.4154408651716466
  0.0107380906238461  0.8466207756552251  0.4952825973606494
  0.8968340794573635  0.9094574497046892  0.5716833587117023
  0.8290212647655935  0.9911562135474341  0.6647425978220767
  0.7528417589516394  0.0798926471945336  0.7447130703211542
  0.7486276019748956  0.1038911152639344  0.8990546077888553
  0.6799709671465450  0.1676413801218146  0.0041065485418983
  0.5811135003691419  0.2471312670727173  0.0864973098929482
  0.5049082225913608  0.3333243950719833  0.1701704055924722
  0.4318532558139552  0.4182709805278719  0.2600779000553715
  0.3334826845699510  0.5123411812476917  0.3332594121447059
  0.2508853202288677  0.5784232788851966  0.4230407087486157
  0.1620357119785893  0.6563124169435213  0.5068743576965673
  0.0908345288851962  0.7565565771502420  0.5856036438722754
  0.0040083582502746  0.8137153220745645  0.6696353525286085
  0.9311420957918060  0.9182452583979313  0.7497902888519761
  0.8297150096899202  0.0039955131044636  0.8186831178479110
  0.8343503742155747  0.0076245962532298  0.0024887190845320
  0.7600922259136240  0.0727380338685890  0.0875830684754533
  0.6806994979697336  0.1697034920634906  0.1807533328719089
  0.5736942852528628  0.2544354914174960  0.2581984869878156
  0.4889367031192293  0.3516342663344432  0.3588545325765935
  0.3961707627353235  0.4366297245293467  0.4274893498523440
  0.3366339096530098  0.5054902911590986  0.5015274035621999
  0.2526785732742738  0.5705308665559272  0.5874095358065716
  0.1850049921557755  0.6532302016426712  0.6584534569952041
  0.0975299995385726  0.7398356759874503  0.7551429923403461
  0.0050332899593926  0.8376277362495372  0.8161257779623483
  0.9229977680878534  0.9274675359911413  0.9113434865263912
 
  0.00000000E+00  0.00000000E+00  0.00000000E+00
  0.00000000E+00  0.00000000E+00  0.00000000E+00
  0.00000000E+00  0.00000000E+00  0.00000000E+00
  0.00000000E+00  0.00000000E+00  0.00000000E+00
  0.00000000E+00  0.00000000E+00  0.00000000E+00
  0.00000000E+00  0.00000000E+00  0.00000000E+00
  0.00000000E+00  0.00000000E+00  0.00000000E+00
  0.00000000E+00  0.00000000E+00  0.00000000E+00
  0.00000000E+00  0.00000000E+00  0.00000000E+00
  0.00000000E+00  0.00000000E+00  0.00000000E+00
  0.00000000E+00  0.00000000E+00  0.00000000E+00
  0.00000000E+00  0.00000000E+00  0.00000000E+00
  0.00000000E+00  0.00000000E+00  0.00000000E+00
  0.00000000E+00  0.00000000E+00  0.00000000E+00
  0.00000000E+00  0.00000000E+00  0.00000000E+00
  0.00000000E+00  0.00000000E+00  0.00000000E+00
  0.00000000E+00  0.00000000E+00  0.00000000E+00
  0.00000000E+00  0.00000000E+00  0.00000000E+00
  0.00000000E+00  0.00000000E+00  0.00000000E+00
  0.00000000E+00  0.00000000E+00  0.00000000E+00
  0.00000000E+00  0.00000000E+00  0.00000000E+00
  0.00000000E+00  0.00000000E+00  0.00000000E+00
  0.00000000E+00  0.00000000E+00  0.00000000E+00
  0.00000000E+00  0.00000000E+00  0.00000000E+00
  0.00000000E+00  0.00000000E+00  0.00000000E+00
  0.00000000E+00  0.00000000E+00  0.00000000E+00
  0.00000000E+00  0.00000000E+00  0.00000000E+00
  0.00000000E+00  0.00000000E+00  0.00000000E+00
  0.00000000E+00  0.00000000E+00  0.00000000E+00
  0.00000000E+00  0.00000000E+00  0.00000000E+00
  0.00000000E+00  0.00000000E+00  0.00000000E+00
  0.00000000E+00  0.00000000E+00  0.00000000E+00
  0.00000000E+00  0.00000000E+00  0.00000000E+00
  0.00000000E+00  0.00000000E+00  0.00000000E+00
  0.00000000E+00  0.00000000E+00  0.00000000E+00
  0.00000000E+00  0.00000000E+00  0.00000000E+00
  0.00000000E+00  0.00000000E+00  0.00000000E+00
  0.00000000E+00  0.00000000E+00  0.00000000E+00
  0.00000000E+00  0.00000000E+00  0.00000000E+00
  0.00000000E+00  0.00000000E+00  0.00000000E+00
  0.00000000E+00  0.00000000E+00  0.00000000E+00
  0.00000000E+00  0.00000000E+00  0.00000000E+00
  0.00000000E+00  0.00000000E+00  0.00000000E+00
  0.00000000E+00  0.00000000E+00  0.00000000E+00
  0.00000000E+00  0.00000000E+00  0.00000000E+00
  0.00000000E+00  0.00000000E+00  0.00000000E+00
  0.00000000E+00  0.00000000E+00  0.00000000E+00
  0.00000000E+00  0.00000000E+00  0.00000000E+00
  0.00000000E+00  0.00000000E+00  0.00000000E+00
  0.00000000E+00  0.00000000E+00  0.00000000E+00
  0.00000000E+00  0.00000000E+00  0.00000000E+00
  0.00000000E+00  0.00000000E+00  0.00000000E+00
  0.00000000E+00  0.00000000E+00  0.00000000E+00
  0.00000000E+00  0.00000000E+00  0.00000000E+00
  0.00000000E+00  0.00000000E+00  0.00000000E+00
  0.00000000E+00  0.00000000E+00  0.00000000E+00
  0.00000000E+00  0.00000000E+00  0.00000000E+00
  0.00000000E+00  0.00000000E+00  0.00000000E+00
  0.00000000E+00  0.00000000E+00  0.00000000E+00
  0.00000000E+00  0.00000000E+00  0.00000000E+00
  0.00000000E+00  0.00000000E+00  0.00000000E+00
  0.00000000E+00  0.00000000E+00  0.00000000E+00
  0.00000000E+00  0.00000000E+00  0.00000000E+00
  0.00000000E+00  0.00000000E+00  0.00000000E+00
  0.00000000E+00  0.00000000E+00  0.00000000E+00
  0.00000000E+00  0.00000000E+00  0.00000000E+00
  0.00000000E+00  0.00000000E+00  0.00000000E+00
  0.00000000E+00  0.00000000E+00  0.00000000E+00