Li 
 1.0000000000000000
    21.6720000000000006    0.0000000000000000    0.0000000000000000
     0.0000000000000000   21.6720000000000006    0.0000000000000000
     0.0000000000000000    0.0000000000000000   21.6720000000000006
 Li 
 432
Cartesian
  0.2830368800000000  0.3052691100000000  0.2017787500000000
 19.8129932199999992  2.2493145700000001  1.7220188299999999
 17.6695118300000011  3.4996267599999999  3.9475055600000002
 16.1891068900000015  5.6717681300000002  5.5196401100000001
 14.6697601700000000  7.7742843300000004  7.1334293100000004
 12.6475864500000004  9.1399515499999993  9.5999192699999991
 11.0429494300000002 11.4340556600000003 10.5995506099999997
  8.9193993500000008 12.7804809600000002 12.2796240599999997
  7.0771082200000004 14.5130179500000001 14.7096779899999994
  5.0597097900000003 16.5700124200000012 16.2901784499999991
  3.5262546100000001 18.5612205500000016 18.3527499700000014
  1.8631154999999999 20.1177997300000015 19.9689848000000012
  1.9135700499999999 20.1697030999999996  2.1010897000000002
 -0.2340595300000000  0.2986308400000000  3.5319689300000001
 19.6930583199999987  1.6184543600000001  5.8637445100000001
 18.0187594799999999  3.7917462199999998  7.4243883300000002
 15.9969824500000009  5.8310036299999997  9.4986897300000006
 14.4686050000000002  7.2392704900000000 11.3580483200000000
 12.5248595500000004  9.2285590000000006 12.6317955800000004
 10.5946761899999995 11.0344878600000005 14.7635497000000004
  8.7898571400000005 12.9700021799999998 16.5208966299999993
  7.0502062700000003 14.4818728399999994 18.2365976399999994
  5.0944050799999996 16.2197818799999993 20.1484165600000011
  3.2219118600000001 18.1661668600000006  0.2112793900000000
  3.4711278000000001 18.0553294899999983  3.7954355999999998
  1.9117744600000000 20.0331930100000015  5.4939950000000000
  0.0245199500000000  0.2930372300000000  7.1775666200000003
 19.7061800399999996  1.7090639100000000  9.2758749799999993
 18.0496697399999988  3.5061766699999999 10.6834917399999991
 15.9746024099999993  5.5090865400000002 12.9824021199999997
 14.0593275700000007  7.2611275700000002 14.5438045000000002
 12.3233966000000006  9.0353758899999992 16.0175702700000002
 10.7873419199999994 11.1253751800000007 18.1746351600000011
  8.8534952699999998 12.7269499300000000 20.0967170999999993
  6.8671182499999999 14.7097966299999996 21.6797437100000003
  5.0936992800000001 16.1919229499999986  1.6191449600000001
  5.4214284099999999 16.3182771799999990  5.0846142299999997
  3.4626267099999999 17.7289525099999992  7.1969248099999996
  1.7257344200000000 20.0803312299999988  8.6945517199999998
 -0.3115789200000000 -0.0021748500000000 10.9283749900000000
 19.8703420000000008  1.7137323200000001 12.5401294300000004
 17.9330833399999996  3.3974844800000001 14.2112947199999997
 16.3496690300000012  5.2570023800000003 15.8644003399999995
 14.2513332800000008  7.2059921899999999 18.0556409600000016
 12.7686299400000003  8.9454637199999993 20.2279680800000001
 10.9481877000000001 10.9969027700000002  0.1649639000000000
  8.6679160599999996 12.9577951299999992  1.9615333399999999
  6.7397912399999997 14.0657169000000000  3.8209398700000001
  7.1563458999999998 14.5668095900000001  7.1368520499999999
  5.3521587899999998 16.3630829200000001  9.1824994699999998
  3.3920633300000000 18.5004575500000001 10.7476103599999995
  1.7874676500000000 19.8734246900000002 12.4125169000000000
  0.1481541300000000 -0.0685787700000000 14.0793859099999992
 19.7371421399999996  1.5898734699999999 15.9118525399999999
 18.0842608499999997  3.6334699900000000 17.7648958199999996
 16.2069378999999998  5.6329263999999997 19.5365345700000006
 14.6192621400000000  7.3430033200000002  0.3378302900000000
 12.6567542300000007  9.1649422699999992  1.8821221600000000
 10.7021437000000006 11.2703076899999992  3.8168688700000000
  9.3142364400000002 12.4871570900000002  5.6731662199999997
  8.7651183300000000 12.6927328300000006  8.9374103900000001
  7.0735191300000002 14.3775691499999994 10.8797155900000000
  5.2597216099999997 16.4799560700000001 12.7257231500000003
  3.5598434100000000 18.2914520799999991 14.3264399200000003
  1.8328597200000001 20.2265634799999994 16.2135494700000002
  0.0507125300000000  0.4926967000000000 17.8288452600000014
 19.5608170100000009  1.7152912199999999 19.5497194699999994
 17.6172048900000000  3.6861338899999998 21.0689892000000007
 16.3296402000000000  5.3978307200000000  1.8364330799999999
 14.3169891899999993  7.3237781799999997  3.7402121799999999
 12.7361819300000008  8.9438720000000007  5.4073910900000000
 10.9477722699999998 10.6301764700000003  7.4180057799999997
  1.8771904800000001  1.7376093200000000 19.8414368600000017
 -0.2638873900000000  3.8385537300000001  0.2181912800000000
 19.7147594800000014  5.5844972999999998  1.8203734000000000
 17.9200019099999999  7.2772933999999996  3.7140564800000000
 16.2888659699999998  9.2336166700000000  5.3802477599999996
 14.7210407500000002 10.9296744700000001  7.3678682499999999
 12.9128066500000003 13.1716419800000004  8.9049689900000004
 10.7748287600000001 14.2409173899999999 10.8532351600000005
  8.9663380999999998 16.3448750099999991 12.6807046299999993
  7.3275968999999996 18.4097858000000016 14.8404484500000002
  5.2316657700000002 19.8331480400000011 16.3137529800000003
  3.4111635300000001  0.1295443100000000 18.0032071699999996
  3.6757092899999999  0.0585518500000000  0.2349248600000000
  1.8800447300000001  1.8545494300000001  1.7037166600000000
  0.0568352700000000  3.5922592099999999  4.0223090299999997
 19.6394233199999988  5.4629583100000003  5.2794502600000000
 18.1780863699999991  7.4771784800000001  7.2425380900000000
 16.2982450199999995  9.0949596699999997  9.1729285600000008
 14.3699658899999996 11.1772514199999993 10.7730689900000005
 12.4304289499999996 12.7440719599999994 12.4672140099999993
 10.5131763100000004 14.3142914999999995 14.2536753600000008
  8.6791572699999993 16.2006225599999993 16.5632319400000014
  6.7712957899999999 17.8600786300000003 18.3545446299999995
  5.3018872799999999 19.8572723199999999 19.9656022399999991
  5.2926113800000003 19.6809350300000006  1.9954952699999999
  3.7878781099999999  0.3900381300000000  3.3262103100000000
  1.8385670800000000  1.8248632400000000  5.3437218900000003
 -0.3107065000000000  3.6000422200000002  7.3900801200000004
 19.4111131599999993  5.2022217599999996  9.1728782599999992
 17.8956880299999987  7.3663372499999999 11.0390601499999992
 16.2907707399999993  9.4054951700000000 12.7426268999999994
 14.3731956200000006 10.9067483500000009 14.5048186000000001
 12.6621110699999999 12.4611172000000003 16.0799878999999990
 10.9848360199999995 14.1426344499999992 18.1331978900000017
  9.1901733100000005 15.9425497899999993 20.1382399999999997
  7.0834587800000000 17.7260790600000000 22.1073028499999999
  7.1924687699999996 18.0047406999999993  3.5737488399999999
  5.3990247499999997 19.5701567899999986  5.2950837100000001
  3.9878230600000002  0.1355071600000000  7.2528384900000002
  1.9600635799999999  1.7237369100000000  8.9376806099999992
 -0.1698718000000000  3.6181141900000000 11.0338150099999996
 19.7638695599999998  5.4743188600000003 12.8637798100000005
 17.7493567699999986  7.0539210399999996 14.3102421999999994
 16.3923216600000003  9.0148040500000004 16.2887422099999988
 14.5335974300000004 10.6340434599999991 18.2452448400000016
 13.0130743599999992 12.6646851100000006 20.1066568799999992
 10.9686068900000002 14.4173964399999992 21.4803809399999999
  9.0884851399999995 15.8185426200000006  1.9762683800000000
  8.8510469999999994 16.1702789799999991  5.1904473299999996
  7.1887327599999997 18.0199997100000004  7.0606682599999999
  5.6380319700000001 20.0836081200000010  8.8287654199999999
  3.5739228199999999  0.0329875700000000 10.6552057599999994
  2.1473735000000000  1.5890339499999999 12.6430877000000006
  0.0211876600000000  3.4896771100000001 14.0652931500000005
 20.1396677599999983  5.3896482299999997 15.8396051500000006
 17.8117106999999990  7.0476389800000003 17.8645147999999985
 16.2064424299999992  8.8701496899999999 20.1913372200000012
 14.8482181299999993 10.9732310200000001 21.6906816900000017
 12.6543183599999995 12.8843294499999992  1.5428167500000001
 10.9432137100000002 14.5598831299999993  3.6346217200000002
 10.7544635100000008 14.4227237200000005  7.4096141400000004
  8.7340328599999992 16.2106508299999987  9.3253378399999995
  7.2292756200000001 18.0374286599999998 10.9495405100000003
  5.5166166399999996 19.8121543200000012 12.6084638400000006
  3.5959932700000001 -0.3603139300000000 14.2980136499999997
  1.5792735200000001  1.6266943300000001 16.0499569199999996
  0.0549317000000000  3.5258569600000000 17.6202722999999999
 19.7722760400000013  5.6740419500000003 19.6229753900000006
 17.7309594100000005  7.3613771500000000 21.6020245600000003
 16.3884766599999985  9.3335589199999998  2.1194829300000002
 14.3795273399999992 11.0244830700000005  3.3034743199999999
 12.7411270600000002 12.6811156300000007  5.4590816499999999
  3.5888110200000001  3.3668141700000001 17.4097714500000009
  1.8973302500000000  5.3369035699999996 19.7906745400000013
  0.0467450200000000  7.0246653200000004 -0.3589758300000000
 19.8250428499999991  9.0356147799999995  2.0942152500000000
 18.3019823099999996 10.9473724400000005  3.7511312800000001
 16.3616878099999994 12.5455731900000007  5.3108043900000004
 14.4728807400000008 14.2442460299999993  7.0350375700000001
 12.5228308500000001 16.0564319900000001  8.9635095899999992
 10.4253755300000002 17.7595590700000017 10.8276575699999995
  8.8964203299999998 20.1218929099999997 12.4249498999999997
  7.4332255900000002 21.4446823000000002 14.3221314999999993
  5.9545774299999996  1.7696349199999999 16.3910610199999986
  5.2689604799999996  1.8381736900000001 20.1530214200000017
  3.7548412600000001  3.7836602099999999 -0.2498957000000000
  1.9098095799999999  5.3831706400000003  1.9904523300000001
 -0.0272706600000000  7.2055502000000002  3.9080701300000000
 19.8818488299999991  9.2400431600000008  5.7309941400000000
 17.9357273200000016 11.0295929099999999  7.6453328500000000
 16.3568200700000013 12.8906828099999995  8.9684825400000001
 14.6009461100000006 14.5219427600000000 11.0616385099999999
 12.4436913300000001 16.3606154900000007 12.6558151500000005
 10.3981765199999998 18.1008195399999998 14.8786580700000002
  8.7172289200000002 20.1055548100000010 16.6935385300000014
  7.1495853599999997 21.5229625700000007 18.1924115499999992
  7.1490512199999996 -0.4355493100000000  0.0602196800000000
  5.6172116900000004  1.9162775500000000  1.5486264900000000
  3.7142880599999999  3.4114885199999998  3.6603222700000000
  1.9890191200000000  5.3816985600000002  5.5628381700000000
  0.2299720300000000  7.0691240999999998  7.2573791600000002
 20.1574738999999994  9.0244293399999993  9.0513466600000001
 18.0130410599999990 11.3131335600000007 10.7476608599999999
 16.1666291000000015 12.8050874199999996 12.8575306499999993
 14.5517215199999992 14.4862537800000002 14.2599304700000005
 12.3352552800000002 16.1802990899999983 16.0073553799999999
 10.8474236200000007 17.9661037400000012 17.6802845300000016
  8.6981900200000002 19.7084434399999999 19.4449367100000003
  9.3346249500000003 19.4664173399999996  1.9354900799999999
  7.2292215899999999 -0.1760846900000000  3.3232334799999999
  5.5315858499999999  1.6349214700000001  5.4555144699999998
  3.4595502300000001  3.5911851200000000  7.1608098299999998
  1.6919357500000001  5.1606920199999999  9.3576148000000003
  0.1320677900000000  7.1473920499999997 10.9510604399999991
 19.4450583799999990  9.1160460200000006 12.5944250499999999
 18.1867459999999994 11.4341464500000001 14.6238358799999997
 16.2056752899999985 12.7604505400000008 16.4431982400000010
 14.1958430500000006 14.5220437899999997 18.3080174900000010
 12.6328807500000000 16.7199633299999988 19.6304139599999985
 10.5642615600000003 18.1910016900000002 21.6163127700000004
 11.1894343700000007 17.8858830200000014  3.6402619299999999
  9.0107855200000007 19.7946765700000000  5.0220268499999996
  7.2831450899999997 -0.1015044500000000  6.7969176600000001
  5.8201051799999997  1.9761614700000001  8.8728683600000000
  3.9363294199999999  3.7812920499999998 10.5627341300000008
  1.7572258300000001  5.5593025100000002 12.4265260800000004
 -0.2279539800000000  7.3876606799999998 14.4055024899999999
 19.7553362499999992  8.8553428200000006 16.4186769499999983
 17.8754046899999999 10.9703370800000002 18.3593802599999982
 16.6080902899999998 12.7546418300000006 19.7745441399999997
 14.6242187599999998 14.5328305400000009 21.4156080099999997
 12.8008744199999995 16.0784903700000008  1.5022600399999999
 12.8112895400000006 15.8877380000000006  5.3393525400000001
 10.6596870399999997 17.6437040500000002  6.9647776500000003
  8.8777612500000007 19.6348247299999983  8.6218250800000007
  7.5178470300000004 -0.0445071400000000 10.7738123600000009
  5.5710651499999999  1.7784651800000000 12.5664715999999999
  3.8818359899999999  3.3811687799999999 14.5400494800000004
  1.9331558600000001  5.6901252900000001 15.9684427600000003
 -0.2319367800000000  7.0577833200000004 17.8454786699999985
 19.6124065799999983  8.9226562600000001 19.7674783299999994
 17.9830940300000002 10.8698256400000002 21.8341271799999994
 16.2321342299999998 12.9799429800000006  1.5706275100000000
 14.7534936200000004 14.6459303199999997  3.6742925600000000
  5.9152423399999998  5.2216662999999999 15.9641029000000003
  3.5146980100000000  7.1745803600000002 17.9090550099999994
  1.7439376600000001  8.9322949600000001 19.7562516300000013
 -0.1668820700000000 10.5809785400000003 -0.0430510500000000
 20.1017752200000004 12.6718875799999999  1.5211106000000001
 17.9387567200000007 14.6603037700000005  3.2620294099999998
 16.3971286399999983 16.2415255599999995  5.4733027900000000
 14.6096957900000000 17.5702195299999993  7.3964505899999997
 12.6116554599999997 19.3764710099999995  8.8923028399999993
 10.7077513300000007 -0.2281023100000000 10.6732722700000000
  9.1304320600000004  1.7479192400000001 12.5714182500000007
  7.4365329700000000  3.5536396200000002 14.3622797200000001
  7.2152096900000000  3.6981012099999999 18.2477250099999999
  5.4195164000000000  5.5790305599999996 19.8387209099999993
  3.6828269499999999  7.1888565399999997 -0.1770030000000000
  1.3863325799999999  8.8577985500000000  1.7023630500000000
 -0.0363657500000000 10.8738639199999998  3.7500195299999999
 19.8824413699999987 12.5635614100000002  5.4284665299999997
 17.8732155400000003 14.7197527699999995  7.3919827299999996
 15.9949302099999997 16.1963516399999996  9.3487638499999992
 14.0488051299999999 18.1054266000000013 11.1148609799999996
 12.4783497699999995 19.3866466899999992 12.8460914800000001
 10.4243603799999995 21.5268858499999993 14.4334106500000008
  8.9647318600000006  1.8324954000000000 16.3765410699999983
  8.9825753400000004  1.3631736699999999 19.6831192199999983
  7.4551644699999997  3.7798192099999999 -0.0974178000000000
  5.7420258899999999  5.5173794899999997  1.8652460600000000
  3.4414016400000000  7.2731090600000003  3.6525912200000001
  1.7972378600000001  9.1176249400000007  5.4791306899999999
 -0.0417203600000000 11.2826474399999999  7.1361337699999998
 19.8898307699999997 12.9035178800000008  9.4689695999999994
 18.0312799099999985 14.5383384000000007 10.9371178100000002
 16.3704043000000006 16.6306480400000005 12.7322474299999993
 14.2422992300000004 18.0722655699999990 14.8518393100000008
 12.3383055000000006 19.7847348899999993 16.3356931900000006
 11.0224162499999991  0.0679638900000000 18.4094409900000002
 10.9725870400000005 -0.1424869600000000 -0.3174028400000000
  9.0702446900000009  1.8597030900000000  1.5655327500000000
  7.4810500900000001  3.9631051099999999  3.7792050499999998
  5.2683739699999999  5.5563256799999996  5.2486793699999996
  3.2556410400000000  7.3451361500000001  7.5985264600000004
  1.6979607999999999  9.3109832000000008  9.3348547199999992
 -0.2598878300000000 10.8625495700000005 10.7485069899999992
 20.0611351700000000 12.7440827799999994 12.6070670000000007
 18.1598525799999990 14.6485679599999994 14.3818425800000007
 16.5036562300000007 16.5066578300000018 16.4144772199999984
 14.2200041200000005 18.2864860399999998 17.7206372899999991
 12.8384686200000004 19.9467582999999991 19.7405458699999983
 12.6411470300000008 19.7721854599999993  1.5821426300000001
 10.9088139200000001 -0.1094721000000000  3.6633361799999999
  9.2873866300000003  1.7348377600000000  5.4400963300000003
  7.2871744200000004  3.4865871799999999  7.0315976200000003
  5.5533864399999997  5.6303064599999999  8.8907712900000000
  3.8333786700000001  7.3094945999999998 10.9367405000000009
  2.0488005000000000  9.0464661900000003 12.6809469600000000
 -0.3264441200000000 10.7809531500000002 14.5188153500000006
 19.7385416499999984 12.6440788699999995 16.4041669399999996
 17.9088384599999983 14.5913682199999997 18.0012890399999996
 16.5155788000000001 16.4036673700000009 19.6574859000000011
 14.3931292800000001 18.1263997299999993 -0.3628389100000000
 14.6199788200000000 18.0242111600000001  3.3334934899999999
 12.8716327800000006 19.8316700600000004  5.4747579599999998
 10.7257078900000007 -0.3980738400000000  7.1101520499999999
  9.2897955999999997  1.7627238700000001  8.9596303099999997
  7.3549417600000000  3.9265764900000000 10.5700200599999992
  5.6974619000000004  5.1814541299999997 12.9402430699999993
  3.7818591800000001  7.2945938999999997 14.4673851800000008
  2.0005130200000001  8.9394111200000008 15.9899978100000002
 -0.1530008600000000 10.7799960200000005 17.9437167500000001
 20.1219074800000008 12.3983977900000006 20.1362147000000000
 18.2163234299999992 14.5639183100000000 -0.2808223200000000
 16.4551133199999988 16.4091676100000008  1.2833775599999999
  7.4795838699999999  7.3399656999999996 13.9597620700000000
  5.5953799999999996  8.8711772999999994 16.1019232700000003
  3.5729894000000000 10.5120857500000007 17.9595849200000011
  2.2317288199999998 12.4282214500000006 19.7936928499999993
  0.5617208600000000 14.3331041599999995 -0.0584039200000000
 20.3549520100000016 15.8822888700000000  1.0917645899999999
 18.4907794500000016 17.7010104300000002  3.3156923400000000
 16.4681643999999991 19.7467352200000015  5.5674003799999996
 14.3374656399999996  0.0432316200000000  7.3868145099999998
 12.3564154700000000  1.9719154600000000  9.3577421899999997
 10.8032225700000009  3.7002246500000000 10.5639790799999993
  8.9319818800000004  5.4007953400000002 12.4496527199999996
  8.9881021200000006  5.5620996199999997 16.3878197499999985
  7.1546518399999997  7.0113055800000001 18.1641213199999996
  5.4347790800000002  9.0798224500000000 19.8813112099999998
  3.4539987399999998 10.4629430299999999  0.1759622400000000
  1.8954183700000000 12.5731234500000006  1.9523809599999999
 -0.2352607300000000 14.5082113499999998  3.4544318500000002
 19.7535905900000017 16.1493183400000007  5.0655465599999996
 18.4402693400000004 18.1345940699999986  7.3944614900000003
 16.0905434999999990 19.5116063799999999  8.7913918599999992
 14.4329887899999996 -0.4981819000000000 10.5916345799999991
 12.5806451100000007  1.5077380899999999 12.4963912399999995
 10.7092520600000007  3.3407144500000001 14.4993014799999997
 10.8765220399999993  3.5870997400000002 18.1663356900000004
  9.3513831799999991  5.3708097099999996 20.1318064300000010
  7.1532372400000002  7.1091022600000002  0.3888303100000000
  5.2396438999999999  9.0108651399999999  1.8503216899999999
  3.3808647500000002 10.6135728000000000  3.5802284300000000
  1.7467857700000000 12.9051810000000007  5.4290930700000004
 -0.1424579900000000 14.6889382400000006  7.3236455800000000
 19.9804012399999991 16.2475905800000007  9.2085325000000005
 17.8272108699999983 18.3018752199999994 10.8316218099999997
 16.2391172399999988 19.8965795599999993 12.7600592800000001
 14.7679826399999996 -0.3350864500000000 14.1519135899999995
 12.5931263399999995  1.6761280900000000 16.1227906300000008
 12.7590478899999997  1.7065816899999999 19.4162737099999987
 10.8873224999999998  3.3491177500000000  0.0170956700000000
  9.2291972399999995  5.0904272600000002  1.4057156200000001
  7.5005480000000002  7.1118937700000000  3.7252016399999999
  5.0484166500000001  9.1689878000000000  5.7877723300000001
  3.2827831700000001 11.0607336699999994  7.4097419899999997
  1.8987696300000001 12.9619055299999992  9.0803184300000002
  0.1042477200000000 14.6824536099999996 10.8929817700000005
 19.7817907300000009 16.1602312599999998 12.3934486100000001
 18.3414801999999995 18.0824549700000006 14.5423726700000007
 16.6495437099999997 19.8893575899999995 16.1575216799999986
 14.6700702399999994 -0.3212799200000000 18.0060463199999994
 14.3737851899999995  0.1055034300000000 -0.3524899200000000
 12.7558834999999995  1.4941867099999999  1.9997719000000000
 10.8499450100000008  3.3196376399999998  3.7630784199999998
  8.8568019600000003  5.3836517300000004  5.6812434300000003
  7.2129132800000004  7.2535260600000004  7.0797670600000000
  5.2014809299999998  9.2833859699999994  9.4317770299999992
  3.6446780799999998 10.7383585600000000 10.9264434799999997
  1.6782653599999999 12.5587993000000004 12.6873607300000000
  0.0745394700000000 14.4398322799999992 14.5686828800000008
 19.9754080999999992 15.9327722999999999 16.4461915999999988
 18.3599451699999996 18.3551365699999991 18.0887616999999992
 16.3663896700000002 19.7057974099999988 19.9674800700000006
 15.8571035699999996 19.6726255300000012  1.8229179499999999
 14.4822213600000005 -0.2706522800000000  3.3872761200000001
 12.7582347499999997  1.5130419900000001  5.5448432700000003
 10.7440888399999999  3.5905367400000001  7.5138445799999998
  8.9315091300000002  5.3626720600000004  8.9351876800000003
  6.9103846200000003  6.9211613300000003 11.1931938100000004
  5.6328237799999998  9.2033197799999993 12.1670989400000007
  3.5838941200000001 10.6830448899999997 14.3173635200000007
  2.0940449600000002 12.4396245099999998 16.1170356900000016
  0.0814365800000000 14.1534730700000004 18.0154587600000013
 20.0474443700000009 16.2658457100000007 19.7939542099999990
 18.6167798799999993 18.4711133200000006  0.1405313600000000
  9.0282375500000001  9.2965704099999993 12.2783689500000008
  7.3008673799999997 10.7241311499999998 14.2700897300000005
  5.5604581199999998 12.5504650400000006 16.4036855400000015
  3.8295587000000002 14.1646856299999993 17.9278052599999995
  1.7940150600000000 16.3279631999999992 19.4208312899999989
  0.2286713300000000 18.2711617000000004 -0.2357815400000000
 20.0067594699999987 19.9471279700000004  1.6034651799999999
 18.0824905600000001 21.5126327500000016  3.5240695799999999
 16.3097573199999992  1.3212286600000001  5.7023864199999998
 14.3118961700000007  3.6864738799999999  7.3068199800000002
 12.9151227199999994  5.6786432900000001  9.2642480400000000
 10.6036199999999994  7.1604511500000001 10.5616024100000008
 10.6948963500000005  7.3668902999999997 14.2801407099999995
  8.9757846200000007  9.1228537400000000 16.4847997100000008
  7.4791314800000004 10.8059689399999996 17.9769456900000009
  5.5105229199999997 12.1326103199999995 20.1170112100000011
  3.5906116099999998 13.9408090799999993 -0.1142094900000000
  1.8371838300000001 15.9943110599999994  1.5608005400000000
  0.2676773300000000 17.8142813900000014  3.4265662400000001
 19.9327350000000010 19.9617559600000014  5.6877945900000002
 17.8606985800000011 21.4633072499999997  7.8481331499999998
 16.0704669299999985  1.8563228800000000  9.3602086300000007
 14.4061589899999998  3.6603389000000002 11.0497193199999995
 12.6793577699999993  5.5322989700000003 12.6489461700000003
 12.4441959900000008  5.5904005999999997 16.0596011099999991
 10.6353019399999997  7.3424747699999999 17.7656801299999998
  9.4100552799999999  8.7391416799999995 19.7741020399999989
  7.6338039799999997 10.2859959799999992 -0.1385615800000000
  5.5835119100000004 12.2296340200000007  1.6127754700000001
  3.7382819999999999 14.4116218400000005  3.6219631500000000
  1.6737087200000000 16.0301804499999996  5.5974406300000004
 -0.0016888500000000 17.8585220100000015  7.2332877000000000
 19.9779165899999995 19.8551780399999984  9.2752171299999997
 17.7517240799999989 -0.1419572200000000 10.7894955800000005
 16.2848606700000005  1.4843062300000001 12.6466194699999992
 14.4860392000000004  3.4366915400000000 14.3566599600000000
 14.3036511599999994  3.6630278800000000 17.9459329399999987
 12.8074615800000000  5.1790653600000001 20.2511371000000011
 11.1889618300000002  7.4867553899999999 -0.0374305500000000
  9.0195221700000001  9.1989323899999995  2.0134330700000000
  7.2458337100000003 10.5748314400000005  3.8271143400000001
  5.2107113600000003 12.4752028999999993  5.5551114899999998
  3.5023638099999999 14.4448815400000008  7.3546847499999997
  2.1896633300000001 16.2210565600000010  9.0034344300000004
  0.2327159000000000 18.3479654500000002 10.7337644500000007
 19.4361881700000012 19.7097618499999996 12.3895217500000001
 17.9665488499999988 21.4803374600000012 14.4063015799999992
 16.3155865999999996  1.7314334499999999 16.1394216600000000
 16.2242573899999982  2.2515282499999998 19.4843114600000007
 14.7363307999999993  3.6331239900000001  0.0889971200000000
 12.5938917799999999  5.3558288200000002  1.8745696999999999
 10.9423709999999996  7.2238062899999997  3.6879330299999999
  9.3591237599999992  9.0647686899999993  5.6364082499999997
  7.2272367400000004 11.1034580799999993  7.2223979800000002
  5.4371866600000001 12.5355892999999998  9.1681382399999993
  3.5116379499999999 14.2236027000000007 10.9849810800000007
  1.9685659099999999 16.3960941399999989 12.6912021700000004
  0.0868691400000000 17.6348384600000010 14.5123373600000001
 20.1797114999999998 19.9002112400000009 16.2494551399999985
 17.9815836900000008 21.7585907600000006 17.7425005300000009
 18.0820413100000010  0.1652402500000000  0.0539355200000000
 16.4727187199999996  1.5763786700000000  1.8981002600000001
 14.7521195200000008  3.6778140800000001  3.9172862300000002
 12.4331025499999992  5.5141259700000003  5.5956776100000001
 10.5962362300000006  7.6206178199999997  7.7770954300000001
  8.5858127700000004  9.4626393899999997  9.2645491900000003
  7.2955300899999997 10.9549855899999997 10.8691018899999996
  5.4760500399999996 12.3645449400000000 12.7303394599999997
  4.0094281900000004 14.1568049299999998 14.2700033200000007
  2.1136701499999999 16.0337187700000001 16.3654589299999991
  0.1090814600000000 18.1530683000000010 17.6870778599999987
 20.0032076299999986 20.1000764399999987 19.7506360399999998
