Li                                      
   1.00000000000000     
    21.0527999999999977    0.0000000000000000    0.0000000000000000
     0.0000000000000000   21.0527999999999977    0.0000000000000000
     0.0000000000000000    0.0000000000000000   21.0527999999999977
   Li
   432
Direct
  0.9946250512995931  0.9956770952082366  0.9787960936312530
  0.9079325058899528  0.0953927563079517  0.0737242414310657
  0.8246432089793316  0.1566911123461026  0.1845991516567835
  0.7512398650060774  0.2395855947902419  0.2489794336145295
  0.6653509143676857  0.3347149319805425  0.3312055470056237
  0.5883862369851016  0.4152270439086507  0.4304398179814584
  0.4910003020975822  0.4975474264705895  0.4986223343213254
  0.4101852860427115  0.5787229940910450  0.5913461525307824
  0.3279199237156121  0.6556373655760765  0.6543850361947108
  0.2473637435400491  0.7395184825771395  0.7422224929700576
  0.1695519503343945  0.8398372297271592  0.8184014164386682
  0.0743369076797364  0.9178718992248065  0.9095818731950160
  0.0740227960176298  0.9274957749087989  0.0720886447408446
  0.0010956233850123  0.9956566361719084  0.1581208034085719
  0.9072126401238805  0.0838352114683047  0.2472870758283960
  0.8279134590173243  0.1699205269607873  0.3213708803579607
  0.7530915289177713  0.2545945133188923  0.4123546535377685
  0.6814596348229216  0.3357321087931311  0.5000630837703284
  0.5868211914804675  0.4246103762919873  0.5690069862441121
  0.5120089850281175  0.4892313777739759  0.6612471861225089
  0.4159189499734026  0.5680962679548571  0.7428834772571804
  0.3371954338615311  0.6524647424570631  0.8222452514629879
  0.2559033354233193  0.7601230757903963  0.9098625223248220
  0.1767636870155016  0.8262913232444120  0.0137833775079770
  0.1608191855715120  0.8344678760069897  0.1698573429662531
  0.0755730306657512  0.9173767527359757  0.2587371546777604
  0.9970252754977977  0.9996679695812460  0.3279158211734341
  0.9158025621294996  0.0806715197028396  0.4130104565663473
  0.8312866454818391  0.1652223984458132  0.4908719182246557
  0.7652072802667576  0.2551892185362519  0.5872354879160966
  0.6717076930384565  0.3269841631516925  0.6725505338957305
  0.5838105805403586  0.4243334687072533  0.7588431372548996
  0.5123939732482157  0.4724810832763353  0.8381917459910326
  0.4239342771507850  0.5742226896184803  0.9205367400060780
  0.3339674257105969  0.6579487859097100  0.9859034712722305
  0.2440724022457843  0.7431978515921855  0.0921028832269357
  0.2518941812965494  0.7532295756383931  0.2434653438022494
  0.1586984287125688  0.8380528533021732  0.3183548136114922
  0.0834926152340785  0.9193654882010946  0.4110026623537024
  0.9868763043395674  0.9977366492818049  0.5110010758663961
  0.9121507709188350  0.0847386048411636  0.5725539633682928
  0.8290889150136778  0.1615112013603905  0.6616351345189244
  0.7625603055175532  0.2572101516187857  0.7435866977314163
  0.6775900759043907  0.3398931263299900  0.8373224226706171
  0.5902117457060356  0.3972787515199911  0.9131344243996082
  0.4994571990424106  0.4878804458314363  0.9774650535795715
  0.4278101506687975  0.5763342842757240  0.0774645809583490
  0.3296307674038630  0.6580278224274210  0.1567888162144726
  0.3342053584321292  0.6754646488828087  0.3239584839071270
  0.2371776690036498  0.7467506621447058  0.4169155171758661
  0.1565851345189273  0.8242027549779607  0.4977915308177501
  0.0945887824897369  0.9251407427990586  0.5967152483280103
  0.9971209159826699  0.0157173520861846  0.6668141743616047
  0.9198176275839813  0.0814633483432132  0.7439929938060530
  0.8293818589451263  0.1808612198852444  0.8349578578621362
  0.7544091560267532  0.2596554444064481  0.9115848884708910
  0.6710235113619092  0.3293511034161725  0.9914231513147911
  0.6047634461924289  0.4269649837551270  0.0740320247188038
  0.5179829628362995  0.5156918951398382  0.1721542464660288
  0.4098485574365398  0.5891596585727328  0.2393767095113262
  0.4063525896792797  0.5876345284237701  0.4210595388736920
  0.3212142541609637  0.6623533525231764  0.5116014235636115
  0.2412196581927333  0.7377588116545084  0.5822987521849825
  0.1838010354917188  0.8223992623309044  0.6694483560381528
  0.0799896298829594  0.9261196866925090  0.7391394308595522
  0.0096189884480893  0.0080837898046795  0.8378671701626388
  0.8923339460784305  0.0918318161954730  0.9209421492628067
  0.8210759433424499  0.1827671402378783  0.0026291220170265
  0.7411241435818496  0.2493220222488191  0.0817077965876294
  0.6725113049095626  0.3439351335689338  0.1627581965344262
  0.5870203032375727  0.4283329775611762  0.2704218541001637
  0.5137680541305656  0.5194358123385001  0.3388603473172225
  0.0766277245782021  0.0945973005965968  0.9187918680650569
  0.9971224530703751  0.1749330022609854  0.9906920998632032
  0.9059442720208253  0.2475230420656658  0.0972795732634140
  0.8104073424912599  0.3366818484952105  0.1558859282375735
  0.7471987132352922  0.4216882585689348  0.2598426765085904
  0.6592354731912167  0.5180824132656952  0.3316488680840521
  0.5942410007219934  0.5817077524129814  0.4322176798335633
  0.4965091493768057  0.6724691470968267  0.5073837594049238
  0.4197088292293643  0.7535316855715166  0.5868045115139111
  0.3323375199498386  0.8385381854195160  0.6617622753268009
  0.2543211886304917  0.9330487213102288  0.7511751424988589
  0.1656477195432444  0.0058722307721553  0.8390455250607971
  0.1748884438174514  0.0059129616963034  0.9945922927116584
  0.0789638014895857  0.0823745245288023  0.0714562770747804
  0.9905464788531688  0.1675082563839467  0.1574978506421942
  0.9022163716940241  0.2548224145956866  0.2360291006421917
  0.8394837841047291  0.3433177168832628  0.3154771260829889
  0.7459377716978253  0.4331692093213277  0.4160865481076144
  0.6998398103815191  0.5103401229290156  0.4936553342073253
  0.5894031824745412  0.5890815620725007  0.5732580934602538
  0.5134966075771388  0.6441546316879467  0.6715844395994850
  0.4165827391130890  0.7457922361871141  0.7390762734648106
  0.3229830374107010  0.8371346324479418  0.8187300496846035
  0.2498388299893577  0.9243520168338648  0.9108968626500982
  0.2486720915982659  0.9253621124031000  0.0831243321553430
  0.1708296107881111  0.0026865780323746  0.1523653504521931
  0.0726453231874160  0.0841959829571337  0.2300735493616060
  0.9897799271355794  0.1749221015731877  0.3144496385278899
  0.9059018059355495  0.2593077186882482  0.3884963976288205
  0.8380651181790526  0.3330590990272100  0.4954808614531103
  0.7490114915830688  0.4236652891776842  0.5912905808253512
  0.6613852860427087  0.4942607819387419  0.6674606266149894
  0.5834846167730632  0.5769615333827360  0.7729294801641586
  0.4959737783097751  0.6603825063649467  0.8259553570071461
  0.3922718868749016  0.7594214817031428  0.9018956001102012
  0.3232641544117669  0.8455849516453853  0.0027016016871855
  0.3230282456490343  0.8331335466066250  0.1562093484002105
  0.2467768353853188  0.9205171388128903  0.2637443841199243
  0.1582218621751039  0.0115294231646175  0.3221892232862160
  0.0826748470512229  0.0801324569653445  0.4011655817753450
  0.9866895519835808  0.1663966227770146  0.4831542683158503
  0.9153756056201559  0.2519793181904575  0.5841880367457080
  0.8315532983736134  0.3427026808785527  0.6743636019911818
  0.7521530898502817  0.4270785249468005  0.7442367523559810
  0.6746387245402019  0.4808077334131298  0.8393933310533512
  0.5959601311939480  0.5962356859895124  0.9124120810533540
  0.4966490998821982  0.6688221238980105  0.9937530675254607
  0.4007682697788439  0.7545394199346376  0.0754770833333325
  0.4086318375702973  0.7536730867153096  0.2539840938022522
  0.3215170115139045  0.8300924722602190  0.3365424090857303
  0.2435650873043045  0.9207086724806217  0.4040277426280596
  0.1631950030399736  0.0108606019151836  0.4858778699270374
  0.0927769579343334  0.0702907133492943  0.5810175444596410
  0.0049845996732003  0.1543109676622620  0.6645576697636386
  0.9036498261513941  0.2438483655380779  0.7603071173430607
  0.8190022904316763  0.3559170324137426  0.8299446510677910
  0.7698867780057768  0.4183119822541386  0.9084210936312545
  0.6652610854613172  0.5056640209378358  0.9946303209074330
  0.5776924257105946  0.5915569425444573  0.0749239920580607
  0.5089877693228431  0.6875309422024642  0.1677404388014878
  0.4977413479442134  0.6599366478568172  0.3301892731608120
  0.4075801617837058  0.7467431505547921  0.4248508245934062
  0.3243521156330758  0.8264859453374385  0.5058280855753168
  0.2268947940416481  0.9063253785719709  0.5754921017631887
  0.1839462351801160  0.9995093142004876  0.6900100138698875
  0.0972651533287703  0.0884270714584261  0.7358429980810186
  0.9828157575239374  0.1655413037695723  0.8249810286517700
  0.9217846419478661  0.2578909465724308  0.9181531031501748
  0.8308191209720306  0.3264199222906186  0.0036801166590692
  0.7426406530247789  0.4248331751595984  0.0817060177268587
  0.6722695289937661  0.5223304524813770  0.1711955497606041
  0.5654949018657831  0.5905592291761650  0.2448456024851779
  0.1593745283287760  0.1799535453716388  0.8363784612973078
  0.0736526457288349  0.2536329903860803  0.9127496755775937
  0.9828739407584735  0.3301542740158112  0.0005921920124621
  0.9218569824441403  0.4184311122510991  0.0971981665146657
  0.8210501842985281  0.5052673706110369  0.1757148246314060
  0.7630150873043036  0.5895362246352036  0.2539200776143815
  0.6653539757181974  0.6664613647590798  0.3373474364455049
  0.5771769308595509  0.7459623147514804  0.4317957345341270
  0.5071428285073694  0.8374160054719582  0.5133753785719719
  0.4320945669934630  0.9170308001786012  0.5923517593859273
  0.3201152739778053  0.9919374529753782  0.6672220868483052
  0.2582097806467516  0.0890597169972622  0.7639228696420446
  0.2574950438896479  0.0922235574365402  0.9194138841389261
  0.1835226416438687  0.1614238153594769  0.9979836473058228
  0.0745748109515105  0.2521656919744615  0.0696402307531514
  0.9943810039519718  0.3360752816727484  0.1611512155152752
  0.9289870753533975  0.4178528005775988  0.2375342287011719
  0.8238097754217932  0.4930348001215989  0.3329798245364017
  0.7747379274965809  0.5894762421150617  0.4102803845569269
  0.6803944453944339  0.6574824474654193  0.4921937552249602
  0.5928086762805904  0.7373116910814730  0.5759678864569082
  0.5035203326873372  0.8207434260525943  0.6559887634898942
  0.4275018885848922  0.9235533054985581  0.7569816342719236
  0.3471273479062162  0.9894723058215504  0.8425914486434110
  0.3305715035529744  0.0070475570945447  0.9900644603093198
  0.2615278219524271  0.0853494656292781  0.0751369357045135
  0.1503967567259465  0.1757248646260834  0.1549443076455361
  0.0844498617761076  0.2578613956338316  0.2566014525383764
  0.9989430626804960  0.3307210850813220  0.3270306800045617
  0.9143573410662711  0.4108587698548405  0.4044727613429089
  0.8443175283097730  0.5058747682018563  0.4976279796511633
  0.7580574351155178  0.5805483802629610  0.5858398631060950
  0.6613687504749990  0.6531904340515311  0.6733230976402211
  0.5814927002584014  0.7358764363885086  0.7513082948586387
  0.5014590904772760  0.8280785800463590  0.8293252835727287
  0.4220251382238942  0.9101553247074037  0.9041876719486268
  0.4065090049779627  0.9191973946458418  0.0824176579837328
  0.3385937571249400  0.9996276443038425  0.1767505927952584
  0.2517745772533786  0.0980395553085600  0.2357281796245658
  0.1636850290697680  0.1598088054795568  0.3116519251596017
  0.0786189062737463  0.2383318655950717  0.4154642988106119
  0.9894002080483375  0.3326673183614517  0.4912598352713147
  0.9231748256763979  0.4196047846367250  0.5840223737460093
  0.8390474782451776  0.5077734030627781  0.6545958808329502
  0.7550411550957605  0.5848004274965817  0.7624973248214033
  0.6829317677458562  0.6745274866051076  0.8333327129882946
  0.5775853838919289  0.7580409370725008  0.9165306211050321
  0.4958842021013865  0.8256986282109722  0.0102114830331388
  0.5125575904392790  0.8469545623385031  0.1626542683158547
  0.4125359163626712  0.9050721604727130  0.2662955454856331
  0.3279838035795706  0.9895143130604964  0.3204618416552663
  0.2519035306467572  0.0738420015389849  0.4222313639990887
  0.1768210380566941  0.1411779093517254  0.5030412073453405
  0.0882984766871857  0.2374569116697032  0.5672109781121719
  0.9920258659180732  0.3187887829647380  0.6633844476744173
  0.9053486396108852  0.4304784935970503  0.7466240951322405
  0.8336768524851834  0.5018135340667271  0.8478087404050783
  0.7525798539861697  0.5812740485826140  0.9201963482292115
  0.6690684479024185  0.6873622069273466  0.9981340102029179
  0.5874140869623048  0.7483517560609485  0.0808471110731119
  0.5829020567335448  0.7662242856057162  0.2424027397780790
  0.5057496637026873  0.8260106199650394  0.3540954566613479
  0.4078651333789338  0.9251611025611766  0.4189349791951642
  0.3174027972526190  0.9897417516909854  0.5129207069843460
  0.2412291699916409  0.0864282641738896  0.5954873874258979
  0.1546257390940866  0.1669906682246562  0.6686503738220111
  0.0824281786745686  0.2598716232520175  0.7572701175140608
  0.9887511775155815  0.3365335779563736  0.8170050050349573
  0.9100464774281818  0.4056874947750444  0.9324230624904999
  0.8339524438554520  0.5007211192810459  0.0077138827139365
  0.7419290431676515  0.5859012625398989  0.0753841598267186
  0.6641315520975866  0.6688428251823950  0.1830085993312025
  0.2350480472906185  0.2556726411688715  0.7502393467852286
  0.1734649552553549  0.3348568788949677  0.8355778186274492
  0.0804466622017017  0.4187793082155338  0.9135974160206715
  0.0115420466636280  0.5140612156102762  0.9972999629502937
  0.9231891924114635  0.5746397315321445  0.0926743202804374
  0.8385765446876405  0.6727597402720775  0.1918368625550997
  0.7315429420314672  0.7431861980354171  0.2580371656026728
  0.6687159399224782  0.8253185913512695  0.3527241549817575
  0.5857854133416964  0.9126298416362673  0.4315863505091926
  0.4800197679168576  0.0019887710898345  0.5082981859895099
  0.4136658477732169  0.0672538583941318  0.5980750565245501
  0.3134874696002399  0.1679434526523806  0.6683034161726695
  0.3232749810001536  0.1868567216712265  0.8312200153898743
  0.2472457858337123  0.2408393159104705  0.9097203374372995
  0.1673302534579690  0.3270333965078294  0.9941539106437176
  0.0701443898198804  0.4193238956338377  0.0758962033553701
  0.0046320855183168  0.5190152454780375  0.1672248437262525
  0.9156941247720027  0.5830366744566078  0.2547278704020357
  0.8380382756687936  0.6820554415564644  0.3379584045827642
  0.7339215648274831  0.7448502465230291  0.4287079115367050
  0.6791148930308566  0.8308652070033418  0.5137077205882363
  0.5784408002735972  0.9058294521393861  0.5962771845075210
  0.5025047832117338  0.9972181496048051  0.6871279373765020
  0.4016013124144990  0.0657959430574522  0.7498476972184207
  0.4110968042255649  0.0910894289595703  0.8983376035491730
  0.3411678584321294  0.1859961938554520  0.0024715144778824
  0.2579045281387735  0.2634807897286819  0.0958500726744163
  0.1516601853435162  0.3439111016111838  0.1601076450638388
  0.0782169260145906  0.4255925435096515  0.2634813601991155
  0.0149738115595071  0.5138277169782626  0.3252648588311260
  0.9119193907698744  0.5947141852865201  0.4041057992286028
  0.8360908320983427  0.6692919830141335  0.5142030328507374
  0.7521743117305064  0.7500483037885672  0.5969808937528498
  0.6693129417464689  0.8225809298525633  0.6568682332041362
  0.5898770149338830  0.9223908757979942  0.7585646940074469
  0.5126496456528358  0.0007518254103971  0.8386553560571528
  0.5055186554757540  0.9823710888812869  0.9793022101573214
  0.4363174181106544  0.0728177544079642  0.0661238220094233
  0.3364315592225253  0.1585350129198986  0.1580478435172523
  0.2360436198510385  0.2566029886760930  0.2389492195812437
  0.1620096618977058  0.3300651922784610  0.3430879270215854
  0.0805533035985704  0.4119163541191639  0.4150248508511964
  0.9922873465762265  0.4941441057721505  0.4877538108945103
  0.9290122610769131  0.5774378752470000  0.5739788602941189
  0.8424460717814242  0.6597717861757104  0.6675161498707993
  0.7536186849255202  0.7424790393676872  0.7389945057189564
  0.6852329561863542  0.8277259148426808  0.8343866331319347
  0.6049415493426054  0.9125732220892218  0.9140978340173262
  0.5892371290279712  0.9263618293053639  0.0765206518847847
  0.4992973894208816  0.9835484876120972  0.1735435733014157
  0.4277637212152285  0.0817679372815050  0.2469992518809860
  0.3229536408458742  0.1543602437680534  0.3283553327823370
  0.2468381022951789  0.2312828759119938  0.4242441751216006
  0.1674454827861354  0.3416144156596772  0.4921760079419357
  0.0691089076037414  0.4163906150250796  0.5785962969296250
  0.0063093526751814  0.5060531895994842  0.6785377868977065
  0.9217745012539922  0.5898826274889828  0.7510233460632350
  0.8465795276637778  0.6645367134062923  0.8316959050577566
  0.7565479394664862  0.7429730976402169  0.9214498869509029
  0.6617573006915975  0.8288865998822033  0.0097804852561154
  0.6673453013375905  0.8346168652150752  0.1677140983622110
  0.5963424352105164  0.9218100000950002  0.2643313212494292
  0.4982400089299261  0.9970649163056677  0.3391828554871594
  0.4027722070223447  0.0606539453184354  0.4334671483128147
  0.3289744988790062  0.1535817387710878  0.5116912263451923
  0.2468593859249140  0.2472385221918216  0.5919641420618618
  0.1571156701246395  0.3363977998176040  0.6506083637330917
  0.0995398730810138  0.4009612246352035  0.7530062338501295
  0.0102984192126456  0.4837874947750436  0.8498390451626392
  0.9203701350889162  0.5766167759157952  0.9204931272799826
  0.8272254882960937  0.6694844148996779  0.0020832250341982
  0.7417045091389269  0.7625166885164916  0.0718159351725163
  0.3385422285871726  0.3310348689960492  0.6824454329115355
  0.2443695646184807  0.4219778708770363  0.7498048383112916
  0.1619242689808473  0.4907993202804377  0.8468348001215986
  0.0832396085081299  0.5944835380566929  0.9164217263261918
  0.9869553973818199  0.6616493027055768  0.9994199935400516
  0.9159787310951515  0.7459367571059445  0.0908547124372987
  0.8475064661232707  0.8126923226364156  0.1662604955160347
  0.7450977000683991  0.9110494114797092  0.2537652882276973
  0.6558934279525772  0.9953699735902077  0.3351868388052921
  0.5880181733546124  0.0853116944064425  0.4158380476706185
  0.4947753457972368  0.1651051931334564  0.4965034741222070
  0.4240286113961105  0.2448017432360530  0.5851380262957875
  0.4113732410890734  0.2497846870725056  0.7500635012919901
  0.3276279592263265  0.3323606741146037  0.8166786014211880
  0.2461058994528074  0.4203858688630504  0.9104543324403380
  0.1655672751368016  0.5168408553731538  0.0046883079685358
  0.0909491944064413  0.5980362194102469  0.0651273075315402
  0.0074829034617707  0.6602995207288345  0.1801178028575805
  0.9244526984534147  0.7446979242666032  0.2663067853207153
  0.8383774391054857  0.8286830963102290  0.3406474568703430
  0.7464217277511764  0.9277494238296100  0.4184287667198632
  0.6701625408496739  0.0006664704932362  0.5004940843973245
  0.5803239849331234  0.0809889264135890  0.5809222241222045
  0.5089564646982794  0.1674711848305179  0.6662688145994835
  0.4777813122245007  0.1613927311331480  0.8236943114455073
  0.4027883521431832  0.2616697612669086  0.9182447123423003
  0.3334659921720657  0.3407819064447466  0.0035395396336853
  0.2454477808177558  0.4288323272913814  0.0789034684222543
  0.1677454091617250  0.4946404635012911  0.1577719775991824
  0.1051278575771377  0.5950796530627755  0.2503287467700233
  0.0177274633302957  0.6701274566803477  0.3436787211202343
  0.9245604537163672  0.7500936896754808  0.4256306728796204
  0.8299743516301845  0.8384124249505973  0.5111962442050455
  0.7473213672290626  0.9291956922594622  0.5902965786023699
  0.6800368886798935  0.0007385236168105  0.6659380566955448
  0.5850202790127668  0.0816657432740513  0.7477949721652237
  0.5753181510297907  0.0739658121485007  0.9056676508587955
  0.4987070912182716  0.1803045656634765  0.9927493915298697
  0.4112306168300677  0.2574932089793265  0.0898221343479264
  0.3468037377450983  0.3352329048867588  0.1682036579457389
  0.2312707221842203  0.4093990205578351  0.2466540844923273
  0.1734867428560563  0.4964370359287145  0.3302655817753433
  0.0826300192848493  0.5693648474312241  0.4258248988258089
  0.0120704709112331  0.6680573234914107  0.5018386266909900
  0.9182924893600841  0.7494765038379683  0.5826855639154900
  0.8327960280817734  0.8427542640408845  0.6734820926432619
  0.7396259604423179  0.9206347820717440  0.7481691703716393
  0.6768930612555124  0.0118537828697356  0.8359656169250655
  0.6673133644930829  0.9995460024319840  0.0073782000494020
  0.5641610588615293  0.0755584397324824  0.0757552971576203
  0.4977912244452014  0.1736914685932547  0.1637882756687929
  0.4137306306049524  0.2456144161346714  0.2640738025345826
  0.3218354902910789  0.3427957402340809  0.3234487483850117
  0.2523297675368568  0.4203776804035542  0.4272015332877359
  0.1770168238904120  0.4967674480354134  0.5066929311065493
  0.0994198220664231  0.5826316708466308  0.5966046696876433
  0.0054092904506788  0.6381187732748117  0.6690413351193172
  0.9271452842377244  0.7365309564523486  0.7503982301641585
  0.8310957136342907  0.8350433866279090  0.8116041220170231
  0.7610394113847079  0.9155044830141392  0.9314310794763614
  0.7545884319425440  0.9041895106589166  0.0979344676242562
  0.6725805014059887  0.0161805593555258  0.1716521132580908
  0.5715151177040596  0.0817226421188622  0.2563857387140871
  0.4988007324441384  0.1624591436768483  0.3483418215154259
  0.3979332065093502  0.2619598908458727  0.4162998489512120
  0.3278084976820210  0.3260469144246869  0.5086822014173862
  0.2594759390674852  0.3948542426660566  0.5802729931410582
  0.1756967895006838  0.4893964133036945  0.6692470721234258
  0.0886349597203235  0.5705300696344437  0.7644382504939955
  0.0006324745402040  0.6588968080255384  0.8375870744034017
  0.9111770339337255  0.7451674827101371  0.9108047798867602
  0.8378056367799047  0.8214079229366149  0.0020757766187884
  0.4293000398996796  0.4021519318095486  0.5840921293129639
  0.3419529397514793  0.4879974701702352  0.6631367390560854
  0.2488937139002871  0.5780961520557852  0.7371772134822905
  0.1689064105487148  0.6768377617229078  0.8230375313497476
  0.0817326621637022  0.7537213050045608  0.9204955673354647
  0.9862728235674112  0.8320329029867750  0.9982522804567537
  0.9120489569083432  0.9143376776485823  0.0794877484230128
  0.8159287410700742  0.9995108284883685  0.1720939703982367
  0.7474047684868523  0.0848792996656016  0.2625787277701761
  0.6620025065549484  0.1728748294763633  0.3389521484078131
  0.5899004027967791  0.2602321021431848  0.4195216921264660
  0.4922010321667400  0.3191706765845908  0.5090769455844324
  0.5230259575923384  0.3324578683120549  0.6600280404506762
  0.4267854537163700  0.4011969514743896  0.7563759922670599
  0.3423188164994713  0.4829937338501296  0.8216963924038581
  0.2638680978302190  0.5853833119585019  0.8988399091807295
  0.1776242385810889  0.6855615158078763  0.9944864583333342
  0.0683631431448575  0.7584334758321916  0.0883290673924577
  0.0059932726288210  0.8249284674722617  0.1718248133264950
  0.9231381996694026  0.9119080236358101  0.2517542326911411
  0.8415449460404290  0.9949043276903780  0.3335138000646012
  0.7528892612859082  0.0737274438554465  0.4208030395006830
  0.6684276642536844  0.1600372302021569  0.4945882243692026
  0.5876903343023230  0.2576763922138596  0.5576265247377989
  0.5814578925368608  0.2552659722222188  0.7597530589755266
  0.4977596604727168  0.3276531886494922  0.8428971291229672
  0.4205908985978084  0.4138690734724122  0.9121016710366305
  0.3364166832915316  0.4976703269873823  0.9800097084473336
  0.2685052401580776  0.5816640114379084  0.0833141491868048
  0.1656868901048796  0.6726703355373189  0.1564416628666976
  0.0840195513185904  0.7543120098039182  0.2589602670428661
  0.9936972260221921  0.8236542341161268  0.3427737745098014
  0.9262942235712117  0.9259956561597491  0.4261057707288316
  0.8323144489094076  0.9979602565929468  0.4969734396374861
  0.7512444126196982  0.0777677700828363  0.5793386043661641
  0.6665050824593379  0.1749151324289429  0.6693677719828273
  0.6767343289253702  0.1652768828849389  0.8188597070223409
  0.5776205697104402  0.2585664035187705  0.9136048943608444
  0.4943843384252915  0.3324214883530914  0.0047011152910770
  0.4413454390864899  0.4244397628818959  0.0863756554947557
  0.3252184483774130  0.4907001638736901  0.1574834991070091
  0.2485573434412558  0.6007686892004855  0.2502263390142900
  0.1727934901770780  0.6597225053199551  0.3463070422936596
  0.0808303731570135  0.7423839114037065  0.4133471329229366
  0.0102458095835232  0.8348243217054261  0.5099936763755863
  0.9359328170124641  0.9060467600509199  0.5956159541723665
  0.8263052976326222  0.9975583285833736  0.6513035235218112
  0.7555790574175418  0.0826982391890851  0.7463516434868538
  0.7602317397210854  0.0764079751861999  0.9217221333979353
  0.6631519275345781  0.1613838088045298  0.0055567007713933
  0.5903714712532278  0.2506379526713758  0.0827514501633999
  0.5045912401200781  0.3371832521089857  0.1770669630642985
  0.4274453825619418  0.4303773593061280  0.2538129778461737
  0.3207082521089859  0.5019825343897253  0.3304880604955187
  0.2564625702994405  0.5758817800957559  0.4239648768809872
  0.1689906957744327  0.6603613771089840  0.5178242319311437
  0.0744211553807546  0.7482501030741773  0.6029627731228118
  0.0014305474806235  0.8348104185666543  0.6857599031957733
  0.9035374487004120  0.9261960556315572  0.7579474331205347
  0.8374429026067816  0.9922924432854572  0.8323378039975680
  0.8389162462950281  0.0013159698472407  0.0053786384708943
  0.7499404212266327  0.0834789111187106  0.0824038474692230
  0.6617693252203978  0.1563711710556319  0.1681256184450532
  0.5663622411270737  0.2448093816499437  0.2475839931030563
  0.4902738329343350  0.3426908810229534  0.3279387986396074
  0.4053821244680051  0.4213907185742514  0.4082749254255944
  0.3475406226250186  0.4969437262501870  0.4975929168566680
  0.2626607738638072  0.5595246399528833  0.5909931581547383
  0.1684640575125371  0.6635553294573668  0.6727674888850856
  0.0729058894778873  0.7408206352599152  0.7537530390256890
  0.9959978943418477  0.8307021669326673  0.8519865851573201
  0.9071000484496139  0.9164369138546888  0.9062587594049276
 
  0.00000000E+00  0.00000000E+00  0.00000000E+00
  0.00000000E+00  0.00000000E+00  0.00000000E+00
  0.00000000E+00  0.00000000E+00  0.00000000E+00
  0.00000000E+00  0.00000000E+00  0.00000000E+00
  0.00000000E+00  0.00000000E+00  0.00000000E+00
  0.00000000E+00  0.00000000E+00  0.00000000E+00
  0.00000000E+00  0.00000000E+00  0.00000000E+00
  0.00000000E+00  0.00000000E+00  0.00000000E+00
  0.00000000E+00  0.00000000E+00  0.00000000E+00
  0.00000000E+00  0.00000000E+00  0.00000000E+00
  0.00000000E+00  0.00000000E+00  0.00000000E+00
  0.00000000E+00  0.00000000E+00  0.00000000E+00
  0.00000000E+00  0.00000000E+00  0.00000000E+00
  0.00000000E+00  0.00000000E+00  0.00000000E+00
  0.00000000E+00  0.00000000E+00  0.00000000E+00
  0.00000000E+00  0.00000000E+00  0.00000000E+00
  0.00000000E+00  0.00000000E+00  0.00000000E+00
  0.00000000E+00  0.00000000E+00  0.00000000E+00
  0.00000000E+00  0.00000000E+00  0.00000000E+00
  0.00000000E+00  0.00000000E+00  0.00000000E+00
  0.00000000E+00  0.00000000E+00  0.00000000E+00
  0.00000000E+00  0.00000000E+00  0.00000000E+00
  0.00000000E+00  0.00000000E+00  0.00000000E+00
  0.00000000E+00  0.00000000E+00  0.00000000E+00
  0.00000000E+00  0.00000000E+00  0.00000000E+00
  0.00000000E+00  0.00000000E+00  0.00000000E+00
  0.00000000E+00  0.00000000E+00  0.00000000E+00
  0.00000000E+00  0.00000000E+00  0.00000000E+00
  0.00000000E+00  0.00000000E+00  0.00000000E+00
  0.00000000E+00  0.00000000E+00  0.00000000E+00
  0.00000000E+00  0.00000000E+00  0.00000000E+00
  0.00000000E+00  0.00000000E+00  0.00000000E+00
  0.00000000E+00  0.00000000E+00  0.00000000E+00
  0.00000000E+00  0.00000000E+00  0.00000000E+00
  0.00000000E+00  0.00000000E+00  0.00000000E+00
  0.00000000E+00  0.00000000E+00  0.00000000E+00
  0.00000000E+00  0.00000000E+00  0.00000000E+00
  0.00000000E+00  0.00000000E+00  0.00000000E+00
  0.00000000E+00  0.00000000E+00  0.00000000E+00
  0.00000000E+00  0.00000000E+00  0.00000000E+00
  0.00000000E+00  0.00000000E+00  0.00000000E+00
  0.00000000E+00  0.00000000E+00  0.00000000E+00
  0.00000000E+00  0.00000000E+00  0.00000000E+00
  0.00000000E+00  0.00000000E+00  0.00000000E+00
  0.00000000E+00  0.00000000E+00  0.00000000E+00
  0.00000000E+00  0.00000000E+00  0.00000000E+00
  0.00000000E+00  0.00000000E+00  0.00000000E+00
  0.00000000E+00  0.00000000E+00  0.00000000E+00
  0.00000000E+00  0.00000000E+00  0.00000000E+00
  0.00000000E+00  0.00000000E+00  0.00000000E+00
  0.00000000E+00  0.00000000E+00  0.00000000E+00
  0.00000000E+00  0.00000000E+00  0.00000000E+00
  0.00000000E+00  0.00000000E+00  0.00000000E+00
  0.00000000E+00  0.00000000E+00  0.00000000E+00
  0.00000000E+00  0.00000000E+00  0.00000000E+00
  0.00000000E+00  0.00000000E+00  0.00000000E+00
  0.00000000E+00  0.00000000E+00  0.00000000E+00
  0.00000000E+00  0.00000000E+00  0.00000000E+00
  0.00000000E+00  0.00000000E+00  0.00000000E+00
  0.00000000E+00  0.00000000E+00  0.00000000E+00
  0.00000000E+00  0.00000000E+00  0.00000000E+00
  0.00000000E+00  0.00000000E+00  0.00000000E+00
  0.00000000E+00  0.00000000E+00  0.00000000E+00
  0.00000000E+00  0.00000000E+00  0.00000000E+00
  0.00000000E+00  0.00000000E+00  0.00000000E+00
  0.00000000E+00  0.00000000E+00  0.00000000E+00
  0.00000000E+00  0.00000000E+00  0.00000000E+00
  0.00000000E+00  0.00000000E+00  0.00000000E+00