Li 
 1.0000000000000000
    21.0527999999999977    0.0000000000000000    0.0000000000000000
     0.0000000000000000   21.0527999999999977    0.0000000000000000
     0.0000000000000000    0.0000000000000000   21.0527999999999977
 Li 
 432
Cartesian
 -0.1131577200000000 -0.0910092500000000 -0.4464016000000000
 19.1145214599999989  2.0082846200000000  1.5521017100000001
 17.3610485499999996  3.2987866499999998  3.8863290199999998
 15.8157026300000005  5.0439476100000000  5.2417142200000004
 14.0074997299999993  7.0466865199999997  6.9728041400000000
 12.3871777699999992  8.7416919100000001  9.0619633999999998
 10.3369311600000007 10.4747664599999997 10.4973962800000002
  8.6355487899999996 12.1837394499999991 12.4494922799999994
  6.9036325700000001 13.8030023300000000 13.7766372900000000
  5.2076994200000000 15.5689347100000006 15.6258616999999997
  3.5695432999999999 17.6809252299999997 17.2296413400000006
  1.5650000500000001 19.3237735199999996 19.1492452600000007
  1.5583871199999999 19.5263830499999997  1.5176678200000000
  0.0230659400000000 -0.0914399700000000  3.3288856500000001
 19.0993662700000009  1.7649659400000000  5.2060853500000004
 17.4298964699999992  3.5773028700000000  6.7657568699999997
 15.8546853399999996  5.3599273700000003  8.6812200500000003
 14.3466334000000000  7.0681009399999999 10.5277280900000001
 12.3542291800000008  8.9392373299999992 11.9791902799999992
 10.7792227599999997 10.2996903500000005 13.9211047600000004
  8.7562584700000006 11.9600171100000008 15.6397772699999997
  7.0989080299999996 13.7362097300000006 17.3105648300000006
  5.3874817400000001 16.0027190899999994 19.1551537100000004
  3.7213705500000001 17.3957459700000001  0.2901786900000000
  3.3856941500000000 17.5678853000000004  3.5759726700000001
  1.5910238999999999 19.3133492999999987  5.4471415700000003
 -0.0626262800000000 -0.0069901700000000  6.9035462000000001
 19.2802081799999989  1.6983613700000000  8.6950265400000006
 17.5009114900000000  3.4783941100000000 10.3342283199999994
 16.1097558300000010  5.3724475800000002 12.3629512800000008
 14.1413277199999996  6.8839321900000003 14.1590718800000008
 12.2908473899999997  8.9334076499999995 15.9757727999999997
 10.7873278399999997  9.9470497499999997 17.6462831899999983
  8.9250035499999996 12.0889954399999997 19.3798758800000002
  7.0309494199999998 13.8516642000000001 20.7560286000000005
  5.1384074699999998 15.6463957300000001  1.9390235800000000
  5.3030778200000004 15.8575916100000001  5.1256271900000003
  3.3410462800000000 17.6433591099999987  6.7022602200000003
  1.7577533299999999 19.3552177500000013  8.6527568499999994
 -0.2762905400000000 -0.0476498700000000 10.7580034500000004
 19.2033277499999997  1.7839849000000001 12.0538640800000003
 17.4546431099999992  3.4002630200000001 13.9292721600000000
 16.0540295999999998  5.4149938799999999 15.6545820300000003
 14.2651683499999997  7.1557020099999997 17.6279815000000006
 12.4256098399999999  8.3638300999999995 19.2240364100000001
 10.5149725200000006 10.2712494499999991 -0.4744237200000000
  9.0066015400000001 12.1334504200000008  1.6308463300000000
  6.9396506200000001 13.8533281400000003  3.3008435899999999
  7.0359585700000000 14.2204221600000000  6.8202331699999998
  4.9932540300000001 15.7211923400000000  8.7772389999999998
  3.2965555200000001 17.3517757599999989 10.4799055400000007
  1.9913587200000000 19.4768030299999992 12.5625267800000007
 -0.0606127800000000  0.3308942700000000 14.0383054499999993
 19.3647365499999999  1.7150315800000000 15.6631356999999998
 17.4608103999999997  3.8076350900000002 17.5782007900000004
 15.8824250800000009  5.4664741399999999 19.1914143400000015
 14.1269237800000003  6.9337629099999996 -0.1805666800000000
 12.7319638800000003  8.9888084100000007  1.5585814099999999
 10.9049917199999999 10.8567583299999999  3.6243289200000000
  8.6284597099999996 12.4034604599999998  5.0395499900000003
  8.5548597999999991 12.3713522000000005  8.8644822600000008
  6.7624594499999997 13.9443926600000001 10.7706424500000004
  5.0783492199999998 15.5318887100000005 12.2590191700000002
  3.8695264400000000 17.3138071899999986 14.0937623500000004
  1.6840056800000001 19.4974125399999991 15.5609546099999996
  0.2025066400000000  0.1701864100000000 17.6394499600000003
 18.7861280999999991  1.9333168599999999 19.3884108799999986
 17.2859476200000017  3.8477600500000002 21.1081503800000014
 15.6027383700000009  5.2489266700000003  1.7201778999999999
 14.1582460000000001  7.2407975799999997  3.4265157600000000
 12.3584210399999996  9.0176085100000005  5.6931372099999997
 10.8162560899999995 10.9355782700000006  7.1339591200000001
  1.6132281600000000  1.9915380499999999 19.3431414400000001
 -0.0605804200000000  3.6828295099999999 -0.1959573600000000
 19.0726635699999996  5.2110531000000000  2.0480073999999999
 17.0613436999999983  7.0880956199999998  3.2818352700000002
 15.7306250700000003  8.8777185700000008  5.4704158999999999
 13.8787525699999996 10.9070854300000004  6.9821372899999998
 12.5104369400000000 12.2465769699999996  9.0993923700000003
 10.4529078200000001 14.1573584599999993 10.6818488100000000
  8.8360460399999994 15.8639518699999993 12.3538780199999998
  6.9966353400000001 17.6535767099999994 13.9319488299999996
  5.3541731199999996 19.6432881200000011 15.8143400399999994
  3.4873483099999998  0.1236269000000000 17.6642576300000016
  3.6818914299999999  0.1244844000000000 -0.1138473800000000
  1.6624091200000000  1.7342143900000000  1.5043547100000001
 -0.1990230900000000  3.5265178200000000  3.3157707500000000
 18.9941808300000012  5.3647253299999997  4.9690734499999998
 17.6734842100000016  7.2277992299999996  6.6416768399999997
 15.7040787200000000  9.1194247300000004  8.7597868800000001
 14.7335875600000001 10.7440885399999999 10.3928270200000004
 12.4085873200000005 12.4018163099999992 12.0686879900000008
 10.8105413800000001 13.5612586299999993 14.1387328900000000
  8.7702330899999996 15.7010147900000003 15.5596249699999998
  6.7996972900000001 17.6240279899999983 17.2365599899999999
  5.2598069199999999 19.4601981399999993 19.1769294700000010
  5.2352438100000001 19.4814634799999986  1.7499999399999999
  3.5964416300000002  0.0565599900000000  3.2077172500000000
  1.5293874599999999  1.7725611900000000  4.8436924200000000
 -0.2151611500000000  3.6826000200000002  6.6200453499999998
 19.0717695399999982  5.4591535400000000  8.1789369599999997
 17.6436173200000006  7.0118266000000000 10.4312594799999996
 15.7687891300000000  8.9193406000000000 12.4483223400000007
 13.9240121499999994 10.4055733900000007 14.0519150800000006
 12.2839849399999999 12.1466557700000006 16.2723297600000016
 10.4416367599999997 13.9029008300000001 17.3886729399999993
  8.2584215800000003 15.9879485700000004 18.9874276900000005
  6.8056155900000004 17.8019308699999996 21.1096762799999986
  6.8006490499999996 17.5397939299999983  3.2886441700000000
  5.1953433599999999 19.3794632200000017  5.5525577699999999
  3.3310132200000000  0.2427266400000000  6.7829852800000001
  1.7405370200000001  1.6870125899999999  8.4456587600000006
 -0.2802222000000000  3.5031148200000000 10.1717501800000001
 19.2712195500000014  5.3048701899999999 12.2987938999999997
 17.5065252800000017  7.2148510000000003 14.1972420400000008
 15.8349285700000006  8.9911987700000005 15.6682675000000007
 14.2030341399999998 10.1223490500000004 17.6715799199999992
 12.5466294499999993 12.5524306499999998 19.2088290599999993
 10.4558541700000003 14.0805784099999993 20.9212845799999982
  8.4372942299999991 15.8851674999999997  1.5890039400000000
  8.6028443499999998 15.8669287600000004  5.3470763300000002
  6.7688333399999996 17.4757707999999994  7.0851600299999999
  5.1277270699999997 19.3834955399999984  8.5059152600000001
  3.4357117599999998  0.2286460800000000 10.2290896199999999
  1.9532147399999999  1.4798163300000000 12.2320461599999994
  0.1049397800000000  3.2486779399999999 13.9907997099999992
 19.0243590599999983  5.1336908699999997 16.0065936800000017
 17.2422914200000008  7.4930500999999996 17.4726587500000008
 16.2082723599999987  8.8066385000000000 19.1248076000000005
 14.0056085800000005 10.6456435000000003 20.9397532200000001
 12.1620431000000000 12.4539299999999997  1.5773598200000001
 10.7156177100000001 14.4744514199999994  3.5314059100000001
 10.4788490500000009 13.8935142599999999  6.9514087299999998
  8.5807036300000004 15.7210342000000001  8.9442994400000000
  6.8285202199999997 17.3998433100000014 10.6490975199999998
  4.7767707200000000 19.0806869299999988 12.1157201200000006
  3.8725833000000001 -0.0103303100000000 14.5266428199999993
  2.0477038200000002  1.8616374499999999 15.4915554699999998
 -0.3617764200000000  3.4851079600000001 17.3681605999999995
 19.4061477099999991  5.4293265200000000 19.3296936499999994
 17.4910687899999999  6.8720533399999999 21.1302767600000010
 15.6346651399999992  8.9439278699999996  1.7201404499999999
 14.1531559399999995 10.9965185499999993  3.6041456699999999
 11.9052510700000003 12.4329253400000006  5.1546855000000003
  3.3552800700000001  3.7885260000000001 17.6081084700000012
  1.5505944199999999  5.3396846199999999 19.2159363700000014
 -0.3605515000000000  6.9506718999999997  0.0124673000000000
 19.4076706799999990  8.8091465200000005  2.0462935600000001
 17.2854053199999989 10.6372929000000003  3.6992890599999999
 16.0636040300000005 12.4113882300000000  5.3457286100000001
 14.0075641799999993 14.0308778200000006  7.1021081099999996
 12.1511904899999994 15.7045954200000004  9.0905092399999994
 10.6767765400000005 17.6299516800000013 10.8079891700000008
  9.0968005000000005 19.3060660300000002 12.4706631199999993
  6.7393228399999998 20.8830608099999999 14.0468931500000007
  5.4360388700000000  1.8749564100000000 16.0827153900000006
  5.4209916600000003  1.9415641100000001 19.3562366200000007
  3.8636654699999999  3.3984233000000001 -0.0424498700000000
  1.5700085800000001  5.3087938799999996  1.4661218499999999
 -0.1182956000000000  7.0753256899999997  3.3926843099999999
 19.5577791000000012  8.7969714400000001  5.0007606100000004
 17.3435024400000017 10.3797630400000003  7.0101576500000000
 16.3104026399999995 12.4101254300000008  8.6375508799999992
 14.3242081799999994 13.8418464700000001 10.3620566899999993
 12.4802824999999995 15.5224755699999992 12.1257367200000008
 10.6005128600000003 17.2789472000000011 13.8104002399999999
  9.0001117599999994 19.4433830299999997 15.9365829500000000
  7.3080026299999998 20.8311625599999992 17.7389092499999990
  6.9594557500000001  0.1483708100000000 -0.2091709300000000
  5.5058929299999999  1.7968452300000000  1.5818428800000000
  3.1662728400000000  3.6995004300000001  3.2620115200000002
  1.7779060499999999  5.4287043900000000  5.4021790599999999
 -0.0222514900000000  6.9626048599999999  6.8849115000000003
 19.2497822300000010  8.6497275100000000  8.5152841499999994
 17.7752480599999991 10.6500803200000007 10.4764623300000004
 15.9592315700000000 12.2221689399999995 12.3335694700000005
 13.9236640299999994 13.7514875700000001 14.1753365099999993
 12.2420495200000001 15.4922594399999998 15.8171432700000008
 10.5571179399999995 17.4333727299999985 17.4596193299999989
  8.8848108299999993 19.1613180199999995 19.0356822200000018
  8.5581527800000003 19.3516789100000004  1.7351224700000001
  7.1283466500000001 -0.0078391300000000  3.7210948799999999
  5.3005598200000001  2.0640071500000001  4.9627382200000003
  3.4460281799999999  3.3644228200000001  6.5611456500000003
  1.6551481100000001  5.0175530999999998  8.7466867900000000
 -0.2231553000000000  7.0035785199999996 10.3423950599999994
 19.4354149700000001  8.8338556100000005 12.2953062299999996
 17.6642987500000004 10.6900519000000003 13.7810761599999996
 15.8957304300000004 12.3116864400000008 16.0527036800000005
 14.3776259199999998 14.2006922699999993 17.5439869399999999
 12.1597895699999992 15.9588842399999997 19.2955358600000011
 10.4397509300000007 17.3832680800000006 21.2677803099999991
 10.7907724399999996 17.8307650100000004  3.4243277800000000
  8.6850361399999993 19.0543031800000016  5.6062668599999999
  6.9049774199999998 -0.2207530700000000  6.7466190599999996
  5.3032746499999996  1.5545808900000000  8.8891524600000000
  3.7225779499999998  2.9721902899999999 10.5904259300000003
  1.8589301700000000  4.9991328700000004 11.9413792799999996
 -0.1678778500000000  6.7113964900000003 13.9661001000000002
 19.0601238399999993  9.0627776299999994 15.7185277499999998
 17.5512320399999986 10.5645799700000005 17.8487478499999987
 15.8439131500000006 12.2374462899999994 19.3727096799999998
 14.0857642199999997 14.4708990699999998 21.0135156899999984
 12.3667112899999996 15.7548998499999993  1.7020580599999999
 12.2717204199999994 16.1311666400000000  5.1032564000000002
 10.6474465200000008 17.3898363799999984  7.4547008300000002
  8.5867030799999995 19.4772316600000011  8.8197543300000003
  6.6822176100000004 -0.2159648500000000 10.7984170600000002
  5.0785494699999996  1.8195569599999999 12.5366768700000009
  3.2553047600000000  3.5156211399999999 14.0769625900000008
  1.7353439600000000  5.4710253099999999 15.9426563300000002
 -0.2368192100000000  7.0849741100000001 17.2002429700000015
 19.1590264800000014  8.5408576899999993 19.6301162500000004
 17.5570340099999989 10.5415815800000008 21.2151988299999985
 15.6196837599999991 12.3348621000000005  1.5870476400000000
 13.9818287399999992 14.0810142299999992  3.8528434400000000
  4.9484195299999998  5.3826249800000001 15.7946389200000006
  3.6519230100000000  7.0496749000000003 17.5912526999999983
  1.6936274899999999  8.8164770200000007 19.2337836799999984
  0.2429924000000000 10.8224279600000006 -0.0568433400000000
 19.4357174300000004 12.0977753400000001  1.9510539300000000
 17.6543842799999986 14.1634762599999995  4.0387031000000002
 15.4010272500000003 15.6461503900000007  5.4324048400000002
 14.0783429400000006 17.3752672399999994  7.4258310900000000
 12.3324231500000003 19.2134135300000004  9.0861011200000004
 10.1057601699999999  0.0418692000000000 10.7011000500000009
  8.7088243599999995  1.4158820299999999 12.5911545500000006
  6.5997890000000003  3.5356799200000002 14.0696581599999995
  6.8058435199999998  3.9338571899999999 17.4995087399999996
  5.2052160799999996  5.0703419500000004 19.1521603200000001
  3.5227703600000000  6.8849686900000000 -0.1230765500000000
  1.4767358100000001  8.8279421100000004  1.5978275900000001
  0.0975183700000000 10.9267241599999991  3.5205511899999999
 19.2779252700000008 12.2745545000000007  5.3627349100000004
 17.6430522100000005 14.3591768000000002  7.1149706999999998
 15.4511039199999995 15.6811832700000000  9.0255019200000000
 14.2972700199999991 17.4920390300000008 10.8149858999999999
 12.1777984799999999 19.0702462900000000 12.5533043099999997
 10.5791327000000006 20.9942342599999989 14.4659670400000007
  8.4548321099999999  1.3851888299999999 15.7863936000000002
  8.6547388000000005  1.9176875300000000 18.9125219000000016
  7.1825386900000003  3.9157406699999999  0.0520323000000000
  5.4296124499999996  5.5470083700000004  2.0179124100000001
  3.1928715500000000  7.2402916399999997  3.3707142299999999
  1.6466852999999999  8.9599147000000006  5.5470203800000002
  0.3152406600000000 10.8175121599999997  6.8477360200000001
 19.1984565499999995 12.5203988000000006  8.5075585700000005
 17.6020530700000002 14.0904702600000000 10.8254136100000000
 15.8353753499999996 15.7906169300000006 12.5681193600000007
 14.0909115000000007 17.3176318000000009 13.8289155400000006
 12.4185628200000000 19.4189106299999992 15.9699107900000001
 10.7927104600000003  0.0158280300000000 17.6560434800000010
 10.6425831500000001 -0.3711379400000000 -0.4357464300000000
  9.1857033399999999  1.5330176200000001  1.3920916000000001
  7.0828263299999996  3.3376059200000001  3.3273496400000000
  4.9693791200000001  5.4022113999999997  5.0305501300000000
  3.4107570100000002  6.9487964800000004  7.2229615100000002
  1.6958725900000000  8.6719926199999993  8.7374351800000003
 -0.1623729500000000 10.4031170300000007 10.2685834299999996
 19.5583093300000002 12.1566840999999997 12.0838621499999999
 17.7358486599999985 13.8900434599999993 14.0530840000000001
 15.8657834500000003 15.6312627200000005 15.5579035300000008
 14.4260723800000008 17.4259481399999991 17.5661749100000009
 12.7357134500000004 19.2122215300000008 19.2443188800000016
 12.4050914300000006 19.5025103199999990  1.6109739800000000
 10.5116080800000002 -0.3463504000000000  3.6535781400000000
  9.0056240699999996  1.7214440300000000  5.2000258500000003
  6.7990784099999999  3.2497153399999998  6.9127991499999997
  5.1966332000000000  4.8691521299999998  8.9315277700000006
  3.5251962600000000  7.1919399700000000 10.3616830600000007
  1.4549360099999999  8.7661883399999994 12.1810721199999996
  0.1328295400000000 10.6538365899999992 14.2851203200000008
 19.4059342199999989 12.4186809799999995 15.8111443000000005
 17.8228694800000014 13.9903585199999991 17.5095275500000014
 15.9274524599999996 15.6416640299999994 19.3991001800000014
 13.9318440999999993 17.4503838100000017  0.2059066000000000
 14.0494871600000000 17.5710219400000014  3.5308513700000002
 12.5546780200000008 19.4066815699999999  5.5649144399999999
 10.4893472600000006 -0.0617917300000000  7.1407488199999998
  8.4794827200000000  1.2769353800000001  9.1256971799999995
  6.9258343299999998  3.2333256300000000 10.7725330499999998
  5.1970812799999999  5.2050631599999999 12.4625026900000009
  3.3077247800000000  7.0821155999999998 13.6971277600000008
  2.0955930399999998  8.4413564700000006 15.8528896400000008
  0.2168105600000000 10.1850813700000007 17.8914914500000002
 19.3763683799999988 12.1393976600000002 19.3789577100000017
 17.4154127599999988 14.0945214900000000  0.0438577200000000
 15.6149566899999996 16.0531113400000010  1.5119265200000001
  7.1272618300000001  6.9692108900000003 14.3673872100000004
  5.1446635699999996  8.8838157199999994 15.7854913000000003
  3.4089592500000001 10.3326999300000004 17.8282436799999999
  1.7524268300000001 12.5155430299999999 19.2932433199999984
 -0.2746254100000000 13.9295704400000009 -0.0122107600000000
 19.2839170300000013 15.7040573600000002  1.9127460900000000
 17.8423841299999992 17.1094489299999992  3.5002489600000000
 15.6863928599999998 19.1801410499999996  5.3424698599999996
 13.8083931599999996 -0.0974750200000000  7.0566214799999996
 12.3794290000000000  1.7960500399999999  8.7545552499999992
 10.4164063999999996  3.4759266100000001 10.4527883399999997
  8.9269895500000001  5.1537621400000004 12.3187938399999997
  8.6605585699999992  5.2586670599999996 15.7909368800000003
  6.8974859000000004  6.9971227999999996 17.1933712599999993
  5.1812182800000004  8.8502996199999995 19.1676129700000004
  3.4856547299999998 10.8809471599999998  0.0987020100000000
  1.9147352000000000 12.5903369200000004  1.3711121799999999
  0.1575360700000000 13.9011537500000006  3.7919840800000002
 19.4623177699999985 15.6779764600000000  5.6065034899999997
 17.6501925499999999 17.4460994900000017  7.1715827799999996
 15.7142673500000001 19.5317230700000017  8.8090971400000004
 14.1087979400000005  0.0140310700000000 10.5368018600000006
 12.2174447900000001  1.7050436700000000 12.2300394000000008
 10.7149586600000006  3.5257373599999999 14.0268241000000007
 10.0586344099999998  3.3977688900000000 17.3410715999999994
  8.4798226200000002  5.5088811499999997 19.3316222800000013
  7.0203928400000004  7.1744133200000002  0.0745172200000000
  5.1673630399999997  9.0281212199999992  1.6611389400000001
  3.5315105500000001 10.4135667499999993  3.3215418900000002
  2.2132357599999999 12.5280929200000006  5.2701210400000003
  0.3732127400000000 14.1080593200000006  7.2353993799999996
 19.4645863199999987 15.7915724300000004  8.9607174300000008
 17.4732840299999985 17.6509290999999990 10.7621122899999992
 15.7332072800000002 19.5621710700000015 12.4273958100000002
 14.3166806100000006  0.0155479900000000 14.0198607200000005
 12.3163149300000008  1.7192925600000000 15.7431779899999995
 12.1120579700000004  1.5571874500000000 19.0668399199999996
 10.4991806499999996  3.7959159599999999 -0.1526456100000000
  8.6575559299999991  5.4209530299999997  1.8910074299999999
  7.3011897299999999  7.0575913000000003  3.5411579700000000
  4.8688962599999996  8.6189956999999993  5.1927591099999999
  3.6523816999999998 10.4513896299999995  6.9530152400000000
  1.7395932700000001 11.9867242600000008  8.9648064299999994
  0.2541172100000000 14.0644772200000006 10.5651082400000007
 19.3326281199999990 15.7785789399999992 12.2671626400000005
 17.5326882200000007 17.7423369700000002 14.1786837999999999
 15.5711974200000007 19.3819399399999988 15.7510559099999998
 14.2504942400000001  0.2495553200000000 17.5994169400000011
 14.0488148000000006 -0.0095579200000000  0.1553317700000000
 11.8771699399999999  1.5907167200000001  1.5948611200000000
 10.4798990900000000  3.6566917499999998  3.4482018100000000
  8.7101882199999991  5.1708711799999998  5.5594929500000001
  6.7755382099999997  7.2168101599999996  6.8095018100000004
  5.3122481300000004  8.8501272300000000  8.9937884399999994
  3.7266997900000001 10.4583457299999996 10.6673049399999993
  2.0930656299999999 12.2660280400000001 12.5601987899999994
  0.1138807100000000 13.4341869099999993 14.0851934199999995
 19.5190042400000010 15.5060389199999999 15.7979838600000004
 17.4968918400000000 17.5800014100000013 17.0865392599999986
 16.0220105199999985 19.2739327799999991 19.6092322299999999
 15.8861993399999992 19.0357209300000001  2.0617947600000002
 14.1597027799999999  0.3406460800000000  3.6137576100000000
 12.0319934699999997  1.7204904400000001  5.3976376799999999
 10.5011520600000008  3.4202198600000000  7.3335707000000001
  8.3776082100000000  5.5149891899999997  8.7642774600000006
  6.9012867399999998  6.8642004800000000 10.7091846499999992
  5.4626950499999998  8.3127873999999995 12.2163712699999998
  3.6989093700000000 10.3031648100000002 14.0895247599999998
  1.8660140800000000 12.0112554500000002 16.0935656000000016
  0.0133153600000000 13.8716227199999995 17.6335531600000017
 19.1828278599999997 15.6878619799999992 19.1749908699999985
 17.6381545099999997 17.2929367200000002  0.0437009100000000
  9.0379678800000001  8.4664241899999997 12.2967747799999998
  7.1990668500000004 10.2737131399999999 13.9608851400000002
  5.2399095800000000 12.1705426699999997 15.5196444400000004
  3.5559528800000000 14.2493300299999994 17.3272445399999988
  1.7207013900000001 15.8679438899999994 19.3790090799999994
 -0.2889955000000000 17.5166223000000016 -0.0367943900000000
 19.2011842799999997 19.2493682600000007  1.6734396700000000
 17.1775845999999994 21.0425015699999989  3.6230599400000001
 15.7349631100000007  1.7869469200000001  5.5280174400000002
 13.9370063700000006  3.6394992099999999  7.1358917899999996
 12.4190552000000007  5.4786143999999997  8.8321062799999996
 10.3622098900000008  6.7194364200000001 10.7174951200000006
 11.0111608800000003  6.9991690100000001 13.8954383299999993
  8.9850288000000003  8.4463191799999997 15.9238324900000006
  7.2067695799999996 10.1683704800000001 17.2990098100000012
  5.5551622900000002 12.3239577899999997 18.9230968399999995
  3.7394875700000001 14.4329894799999998 -0.1160754900000000
  1.4392355800000001 15.9671482800000000  1.8595741900000000
  0.1261751700000000 17.3670540399999993  3.6173934299999999
 19.4346438900000003 19.1982172400000017  5.3001315099999999
 17.7168774400000011 20.9455218300000006  7.0213993300000004
 15.8504270399999996  1.5521691300000000  8.8590822300000003
 14.0722739299999997  3.3692318000000001 10.4124669700000005
 12.3725270700000003  5.4248095500000000 11.7395996999999994
 12.2413167200000004  5.3740634600000003 15.9949291999999996
 10.4792345800000000  6.8980170500000000 17.7453446799999988
  8.8546160700000005  8.7131028300000004 19.2022940599999998
  7.0825131499999996 10.4773538599999991 -0.4208516100000000
  5.6527871200000002 12.2456560999999997  1.7539961200000000
  3.4881729600000000 14.1615940400000007  3.2935350400000001
  1.7688468100000001 15.8803798799999996  5.4518387099999996
 -0.1326910400000000 17.3402278599999988  7.2163477199999999
 19.5010870300000008 19.4948013499999995  8.9707195700000000
 17.5225496300000003 -0.0429423100000000 10.4626824299999992
 15.8157983699999996  1.6372293099999999 12.1966997700000004
 14.0317982000000008  3.6824533000000002 14.0920658299999992
 14.2471524800000005  3.4795411600000001 17.2392896399999991
 12.1605303300000003  5.4435467800000001 19.2339411200000008
 10.4081746000000006  6.9984031099999999  0.0989716400000000
  9.2915572599999994  8.9356454400000001  1.8184494000000000
  6.8467589499999999 10.3306124100000005  3.3154686099999999
  5.2328280400000002 12.6478630600000006  5.2679650699999998
  3.6377867899999998 13.8890059600000004  7.2907329000000001
  1.7017056800000001 15.6292600099999994  8.7021145200000003
  0.2157029800000000 17.5753894799999983 10.7367948700000007
 19.7040064100000016 19.0748212300000013 12.5393835599999992
 17.3960401699999991 21.0013959800000016 13.7117628200000006
 15.9070547799999993  1.7410294900000001 15.7127918799999993
 16.0050067700000014  1.6086018200000001 19.4048317300000015
 13.9612049000000003  3.3975810499999999  0.1169841100000000
 12.4289725099999995  5.2766306900000002  1.7421497300000000
 10.6230584599999993  7.0986515700000004  3.7277553600000002
  8.9989221500000003  9.0606484700000003  5.3434738599999996
  6.7518066900000004 10.5681379000000000  6.9576990399999996
  5.3992551999999998 12.1239239399999992  8.9256477600000004
  3.5577273200000001 13.9024560000000008 10.9016499899999992
  1.5667736999999999 15.7527597700000008 12.6940546699999999
  0.0301170300000000 17.5750967799999991 14.4371660899999998
 19.0219932000000007 19.4990203199999996 15.9569157199999996
 17.6305179400000007 20.8905343499999994 17.5230413200000008
 17.6615359500000011  0.0277048500000000  0.1132354000000000
 15.7883457000000007  1.7574648200000000  1.7348317200000001
 13.9320972500000000  3.2920509899999999  3.5395150200000001
 11.9235109900000005  5.1539229500000001  5.2123362899999997
 10.3216369500000003  7.2146025800000002  6.9040299400000000
  8.5344287899999998  8.8714545200000003  8.5953303499999993
  7.3167032200000000 10.4620568800000004 10.4757241600000004
  5.5297447399999999 11.7795603399999997 12.4420607600000004
  3.5466401099999998 13.9696976399999997 14.1636393900000002
  1.5348731099999999 15.5963486699999994 15.8686119800000007
 -0.0842555300000000 17.4886065799999990 17.9367031799999985
 19.0969958999999996 19.2935630600000003 19.0792844099999996
