Li 
 1.0000000000000000
   -10.6364300000000007   18.4228371711498369    0.0000000000000014
   -18.2338799999999992  -10.5273355263713349    0.0000000000000078
    -0.0000000000000001    0.0000000000000000   22.3096999999999994
 Li 
 504
Cartesian
  0.0317516200000000  0.0163707500000000 -0.1467602800000000
 -10.6440537200000005 16.5557456400000014 14.7171205999999994
 -10.4775410900000008 15.0676341100000002  7.4849035500000003
 -10.7983676499999994 13.3655106600000000  0.0478566600000000
 -10.8017255999999993 11.5584630100000005 14.7364212499999994
 -10.8220552899999998  9.7289749499999996  7.9355151700000004
 -10.6208547699999993  7.7208986099999999  0.0116337000000000
 -10.7241861899999993  6.0933500499999997 15.1892821799999993
 -10.9212472999999992  4.2577067099999999  7.7987417199999998
 -10.7912363800000008  2.5952550300000001 -0.2900479600000000
 -10.6734919700000006  0.6317755300000000 14.5464975499999998
 -10.9124914799999999 -0.6469207700000000  7.3184042900000001
 -1.8218364499999999  0.4995797400000000 14.5409109999999995
 -1.6553445000000000 -0.7508232900000000  7.2842976899999998
 -12.3054147199999999 15.7739018400000006  0.1251355700000000
 -12.2409514399999999 14.0858045199999999 14.5457103500000002
 -12.2209719499999991 12.3931153399999996  7.7816649499999997
 -11.9278100600000005 10.7297486600000003 -0.1968668300000000
 -12.1838783399999997  8.8013733399999996 15.0770154499999993
 -11.9860890399999995  7.1833999500000001  7.8491922299999999
 -12.1400547499999991  5.3388549500000000  0.1811541100000000
 -12.0193483499999996  3.4103723399999999 15.0229330999999995
 -11.8294735800000002  1.3392710400000001  7.9326235100000000
 -12.2051519800000001 -0.0740218800000000 -0.3220752500000000
 -3.0513463199999999  1.6454926900000000  7.4270936200000000
 -3.1944259000000002 -0.2699943000000000 -0.3237674100000000
 -3.2968751200000002 -1.5673291000000000 14.7776683500000008
 -13.8289682200000001 15.0019307099999999  7.3370507900000002
 -13.3517789300000000 13.1781123999999998  0.1654733900000000
 -13.8662055899999999 11.7146101300000005 15.1190592699999993
 -13.6492915900000007  9.8884840900000004  7.3689991299999997
 -13.7320503200000008  7.8644739899999996 -0.5637877500000000
 -13.6160293800000005  6.0908806400000000 14.7510650600000002
 -13.5275177099999997  4.4424938899999997  8.2034138599999995
 -13.6596734299999998  2.3726263599999999  0.1850863000000000
 -13.6137625999999994  0.9800328200000000 14.5779762500000007
 -4.5944653700000000  2.8322969599999999 -0.1415603900000000
 -4.6769566600000001  0.9258934500000000 15.3588664599999998
 -4.7133351299999999 -0.7627607800000000  7.4114420599999997
 -4.7270637700000000 -2.5938662300000002 -0.3368603700000000
 -14.9910249899999997 13.9907874299999992 15.0331754300000000
 -15.4853748800000002 12.2744080699999998  7.4464416699999996
 -15.2210827099999992 10.6653600799999992  0.0693185100000000
 -15.0693037000000007  8.8986008499999993 15.4813499100000005
 -15.1672694600000000  6.9492655299999999  7.8570358799999998
 -15.1254728299999996  5.1867005099999997 -0.3638798400000000
 -15.1888542500000003  3.3124547000000000 14.8383457500000002
 -15.3185699100000008  1.7443691200000000  7.8383157600000004
 -6.0841321300000004  3.5902566199999999 15.1721539199999995
 -6.0426073200000001  1.9393271999999999  7.4323939599999997
 -6.2419220199999996  0.1023975100000000 -0.1686519800000000
 -6.0383549099999998 -1.6734317999999999 14.9038745499999994
 -16.8143722800000006 14.9775993399999994  6.5494422700000001
 -16.9691839100000017 13.2278384700000000 -0.3286338000000000
 -16.8014727899999983 11.4422668499999993 15.2324816999999992
 -16.8507396199999988  9.7781978800000005  8.2860130699999992
 -16.7524966999999982  7.9215647699999998 -0.1480855800000000
 -16.8149209000000006  5.9886238799999996 15.0142902500000002
 -16.8862584099999999  4.2144975899999997  6.6245065500000004
 -16.7552780800000001  2.5535333100000002  0.1005149700000000
 -7.7029401000000002  4.4565783899999998  8.1231661899999992
 -7.4701084699999996  2.7933467099999998 -0.5019450400000000
 -7.6338264400000000  1.0414426299999999 15.3512713400000003
 -7.7575196000000002 -0.7260529900000000  6.6673542000000001
 -7.5620665100000002 -2.4815226300000002 -0.0372992300000000
 -18.2541703099999992 14.3344806899999995 15.4197286400000007
 -18.2474822799999998 12.3746319699999994  7.2364212800000001
 -18.3878278399999999 10.8367155200000003  0.0813924400000000
 -18.4052700599999994  8.8161553300000008 14.6718457499999992
 -18.1801953400000009  6.8969914599999997  6.5544631999999998
 -18.3873077500000015  5.3410506599999996  0.1136550100000000
 -18.4127714800000000  3.5381471400000000 14.9792068399999998
 -9.1952426700000007  5.4998629499999998 -0.1400421300000000
 -9.0954415199999996  3.6964274000000001 15.2414034699999998
 -9.0482268599999998  1.9880533499999999  7.7594234899999996
 -9.2998265199999999 -0.0208026900000000 -0.2280078600000000
 -9.0483685099999995 -1.7658198199999999 14.9459463699999997
 -9.1405268000000000 -3.5186071700000001  7.3002191500000002
 -19.7711233899999996 13.3291791400000008 -0.0345425000000000
 -19.7000617399999989 11.5687336999999992 14.6233010799999992
 -19.8654268199999997  9.6492499200000008  7.4323684400000003
 -19.8317838900000005  8.1066143400000001 -0.5906610200000000
 -19.8154073199999985  6.0899210200000002 15.2682719000000002
 -19.8847114599999983  4.3332775200000002  7.4245892199999997
 -10.8320837999999995 -2.5997445500000000  0.0968008700000000
 -10.7982028400000001 -4.1539791599999996 14.5485618900000002
 -21.5527937999999999 12.2451505899999997  7.6233229199999997
 -21.2094154900000014 10.2696344699999997 -0.1370130500000000
 -21.2215544300000012  8.7016411700000003 15.0801114399999996
 -21.2961431899999987  7.1352877499999998  7.3921861000000000
 -21.2741443200000013  5.3470682099999998  0.4673586100000000
 -12.0250930100000009 -1.6366543099999999 14.5423842499999996
 -12.2578901299999998 -3.4514136700000000  7.1849322700000000
 -12.2006020999999993 -5.1185370099999998  0.0117796700000000
 -22.7910922800000009 11.5918117499999997 14.5851579900000008
 -22.8172268000000003  9.6278696499999992  7.6122777199999998
 -22.6930434900000009  7.9338952300000001  0.0430454600000000
 -22.8541987599999992  6.3227262099999999 13.7639878099999997
 -13.8347494999999991 -0.8624460600000000  7.1505701799999999
 -13.6884272899999999 -2.3432938700000001  0.5701519400000000
 -13.5925437999999996 -4.1832387999999998 14.8591537299999992
 -13.4602857799999995 -5.7797055600000000  6.9141085300000000
 -24.3684474599999987 10.5462778600000000 -0.4233339700000000
 -24.3550469599999992  8.8963882299999995 15.0303315200000007
 -24.4522401199999990  7.1501130599999998  7.6305438299999997
 -15.3445032599999998  0.2264760400000000  0.1649646200000000
 -15.3893726300000004 -1.6460925700000000 14.2989192099999993
 -15.2212817099999995 -3.3676313000000002  7.3101693499999998
 -14.8784861900000003 -5.0133154900000001  0.6583127300000000
 -15.1804300300000001 -6.8709994400000003 14.9143848999999999
 -25.6465557500000010  9.8241873599999998  7.3569294400000000
 -25.5957722700000012  7.8762330900000004 -0.6536127100000000
 -16.8253985600000000  0.7325114100000000 14.7547965300000001
 -16.8619305600000011 -0.9144038500000000  7.3523398300000000
 -16.7835181200000001 -2.6038177400000002  0.2300725300000000
 -16.7392951799999992 -4.2682015800000004 14.7615962100000004
 -16.8247547100000006 -6.0679272500000003  6.8003741800000004
 -16.9554541900000011 -7.8408506100000004  0.0180914500000000
 -27.2335204299999987  8.9343023699999993 14.8948051499999998
 -27.3301662500000013  6.9407599600000003  8.0813242899999995
 -8.9201182499999998 15.8415730299999993  0.1556640600000000
 -9.2450842699999995 14.1843187700000009 14.6965203800000008
 -9.2732556000000006 12.4343002600000005  7.3869101300000004
 -9.1734544499999995 10.7792600800000002 -0.3317222500000000
 -9.0050175899999996  8.7525796699999994 15.2308383099999993
 -9.0138754900000002  6.9603343400000002  7.4761992700000004
 -18.2595180699999986 -8.7149704799999999  7.5375076099999996
 -1.4203397499999999  2.5988625399999998  0.2065925100000000
 -3.1637850500000000  3.4029362500000002 14.7711381599999996
 -4.6155961000000003  4.5380528099999999  7.9305900500000002
 -6.2082303899999998  5.2334627500000002  0.4144960200000000
 -7.4971499100000001  6.3165869499999996 14.8896038999999991
 -25.7914789199999994  6.3199658799999998 14.3840078099999999
 -25.8719192900000010  4.4491515599999998  7.4720732700000001
 -7.8098776499999998 13.2978471599999999  0.2007035800000000
 -7.9093599799999996 11.4094181799999994 14.5714421499999993
 -7.6031705499999997  9.6724420999999996  7.7054004300000001
 -7.7725561499999998  7.7651057500000000  0.1173977200000000
 -18.2035344499999994 -7.0077414400000002 14.6982348500000004
 -19.9101037000000005 -6.1216000800000003  7.1272640000000003
 -3.3801675499999999  5.2190291599999998  0.0050802100000000
 -4.7686454999999999  6.4029525300000003 14.6498495700000007
 -5.9231001100000000  7.1645086899999999  7.6099199300000002
 -24.3336355399999995  5.3725720199999998  0.2151517000000000
 -24.4996451700000009  3.5371101700000001 14.0478726999999992
 -24.1416438800000002  1.5324958900000001  7.0321627700000002
 -5.9270970800000002 10.6689916100000008 -0.2348645600000000
 -6.0949005900000000  8.7434320099999994 14.4614267999999999
 -18.3784933300000013 -5.4169430099999998 -0.0998812400000000
 -19.8876497900000011 -4.2315157200000000 14.3758480100000003
 -21.3860849500000008 -3.4935138900000000  7.5997076500000000
 -4.5121779300000000  8.0189673399999997  0.3004153000000000
 -22.8368491099999993  4.3964715700000001  7.1609940999999999
 -22.7548058200000014  2.4805215000000000  0.5674072500000000
 -22.8796716800000013  0.9312626300000000 15.0153876499999992
 -22.7188208399999994 -0.9182378100000000  7.8409134900000002
 -18.3273414999999993 -3.5603726800000000  7.7151454199999998
 -19.7056954900000001 -2.6154034300000002 -0.1773787700000000
 -21.3829477200000007 -1.6952977800000000 14.9742535300000004
 -21.5357839800000015  3.5803096900000000 14.9346716599999993
 -21.2341593999999994  1.6220215700000000  7.4571276800000001
 -21.3982947800000005 -0.0237611700000000  0.0003809300000000
 -18.3192009099999993 -1.6715857300000001 14.7902842700000008
 -20.0100619600000016 -0.8469296400000000  7.5438236900000000
 -19.8117426099999996  2.6175977399999999 -0.4405256000000000
 -19.8918801000000016  0.7953581500000000 14.4685741399999994
 -18.5017759899999987  0.0953337000000000 -0.5751292700000000
 -18.2834862600000001  1.8246383500000001  7.9712075300000000
 -0.0219587300000000 -0.6329776800000000 16.8402147900000010
 -10.7576834300000002 16.7780132100000010 10.2495669599999992
 -10.5451044199999995 14.3739452599999993  2.8316593000000001
 -10.7953963099999992 12.8577932799999992 17.3114584299999983
 -10.7992007599999997 11.5875301799999999 10.3367871800000000
 -10.2975062499999996  9.3266337499999992  2.5112299400000002
 -10.2020668600000004  7.9482668600000004 17.2705305399999993
 -10.8020132699999998  6.1063300099999998  9.7154848600000001
 -10.3013784099999999  3.9496703100000001  2.1509261600000000
 -10.7516248799999996  2.3805405899999998 17.4006358200000015
 -10.6761761699999997  1.0849176899999999  9.7617490799999995
 -10.9401376100000007 -1.4437841000000000  2.5565972000000001
 -1.7495897000000000  1.0113496000000000 10.2468273100000005
 -1.3415364400000001 -1.0891286400000000  2.0433247899999998
 -12.0691138099999993 15.8971905800000002 16.9923023800000017
 -12.1184550200000007 13.9833284100000004 10.6187640000000005
 -11.9250579200000004 12.0158338600000008  2.2873190800000001
 -12.1501664799999993 10.5762212600000005 17.3877576599999983
 -11.9553733999999992  8.6515326500000000  9.9000732700000000
 -12.0116209999999999  6.5487264999999999  2.6818395900000001
 -12.3566153300000003  5.4222958500000003 17.5679729500000015
 -12.0473764800000005  3.4128372800000002 10.4887540500000007
 -11.8291745499999994  1.3830038600000001  1.8943013799999999
 -12.7297327399999993 -0.2780882800000000 16.9339743700000014
 -2.6731078099999999  1.6445126200000000  2.6791848300000001
 -2.8006641299999999  0.0641296900000000 17.1585322699999985
 -2.9872100499999998 -1.6708550900000001  9.8539635499999996
 -13.5085961799999996 14.8856169099999995  2.1920267800000000
 -13.6166967400000001 12.9205126299999993 17.6076456499999985
 -14.0360944399999994 11.3478328200000007  9.7781278199999999
 -13.4930886000000001  8.9608410700000007  2.2324589700000002
 -13.4441629799999998  7.7233108799999997 17.3091129200000005
 -13.8611074199999997  5.8333282700000000 10.6864787400000001
 -13.5863050699999999  4.3483792899999996  2.3565171500000002
 -14.1156832199999993  2.8508809600000000 17.0248086900000004
 -13.5749856399999995  0.7789589600000000 10.4221322999999995
 -4.7918603400000004  2.6558732200000001 17.5279087199999992
 -4.4194200800000001  0.8378595200000000  9.9452950399999995
 -4.3077512499999999 -0.7837660200000000  2.2766052800000001
 -4.5579155000000000 -2.2673182600000001 17.5746723600000010
 -15.0821815099999998 13.8398229500000003  9.9248992000000005
 -15.1650659999999995 12.1913130800000005  2.4596054999999999
 -14.8347009799999991 10.4383440200000006 17.4582047200000012
 -15.3854313999999999  8.7603217000000004 10.1901022999999995
 -14.8929857299999995  6.7704683000000001  2.1515478500000000
 -15.3198676200000001  5.3274990999999998 17.4116509300000004
 -15.2854528700000003  3.1821384500000001 10.0856526500000001
 -14.6934807099999993  1.8614372200000000  2.5691315499999998
 -5.7816870099999997  3.3905638800000002 10.0578898900000002
 -5.9913423400000001  1.8523494000000000  2.3407053900000001
 -5.6906928499999996 -0.1151643600000000 17.3335902699999984
 -5.7967383799999999 -1.6085737000000000  9.2654295599999994
 -16.7099580100000011 15.1493994000000001  2.5823786499999999
 -16.7500554299999997 13.1965460799999992 17.8994123599999995
 -17.2120169099999991 11.7138523600000006  9.5760408100000003
 -16.2249766000000015  9.5705927099999997  2.4959446199999999
 -16.4773418800000009  8.2165719500000005 17.3749115200000013
 -16.6410098899999994  5.9945377999999998  9.6138220400000005
 -16.7393907099999986  4.0217776299999999  2.9429378499999999
 -16.6941205000000004  2.6925641800000002 17.2997678400000012
 -7.5141317200000000  4.3509530800000000  2.4339452200000000
 -7.6161525299999999  2.4503665099999998 17.6395527600000008
 -7.4639509799999999  1.0057970400000000  9.7369035499999992
 -7.8587226299999999 -0.7647633200000000  2.0619228199999999
 -7.8428285200000003 -3.0757422000000001 17.2551580300000005
 -18.3014796900000007 14.4901928400000006  9.8010170599999995
 -18.0243582499999988 12.4373268899999996  3.2136397099999998
 -18.5893492500000015 10.5669727899999994 17.4589607200000003
 -18.2915138100000014  9.0347590300000000 10.2090390699999993
 -18.0748344400000001  6.6632875000000000  2.5775600999999999
 -18.4760136000000017  5.2827441999999998 17.9460521100000001
 -17.9615903800000005  3.2910371500000002 10.4205907700000004
 -9.2419725300000000  5.3703225400000001 17.7467662100000005
 -8.9551309400000001  3.9920582300000000 10.3993162399999992
 -9.1141217399999999  1.5621734300000001  2.5156386199999998
 -9.2702632900000008 -0.1890524900000000 17.6455134300000012
 -9.1818829900000001 -1.7178378500000000  9.7570167100000003
 -9.1665383499999997 -3.7853877900000001  2.4159672599999999
 -19.8761176199999987 13.0128327800000001 17.6826319000000005
 -19.6287513800000006 12.0102530900000009 10.0660440700000002
 -19.6094654499999983  9.5744906400000005  2.4768302300000000
 -19.9471041999999983  8.0009319199999993 17.5718619199999999
 -19.4486174600000012  6.0658383499999999  9.7396749000000007
 -19.7258497199999994  3.9842514800000002  2.1984620800000001
 -11.0891378399999994 -2.5719936900000002 17.4769585899999988
 -10.8346721400000003 -4.1929382100000003  9.8934613799999997
 -21.4942672899999998 12.3172607099999993  2.2352909599999999
 -21.4336734600000014 10.4150503099999998 17.2603396099999991
 -21.2466101599999995  9.0963515299999997 10.2914655499999999
 -21.1868292599999997  6.8430128999999997  2.6912498399999998
 -21.7407904499999987  5.3874003500000001 17.3213374000000009
 -11.8731389499999995 -1.8596100400000000  9.6963346599999998
 -12.4416926500000002 -3.3856087800000001  2.4164504500000001
 -12.2486491700000002 -5.1035719999999998 16.6568582200000002
 -22.9462462199999990 11.0772426999999993  9.5375767200000006
 -22.6396662199999987  9.6721089700000000  2.1563865700000000
 -22.8986932100000011  7.8726258500000004 17.5670087099999996
 -22.7035755799999990  6.1445955500000000  9.8126201900000005
 -13.6070086200000002 -0.8274884800000000  2.6906213499999998
 -14.0704964100000005 -2.9096979599999999 17.3977071300000006
 -13.4399285699999993 -4.7537775099999999  9.7096501600000007
 -13.9164240299999999 -6.1990332099999996  2.3374068100000001
 -24.5372312299999997 10.8945855199999997 17.3296290400000004
 -24.1310685199999995  9.1196655199999999  9.9290105600000000
 -24.1200336899999996  7.1225065599999997  2.8945016300000002
 -15.1704624500000005 -0.1025010200000000 17.2380760100000003
 -14.9692440500000004 -1.9830956500000001  9.6388458700000008
 -15.1118341300000001 -3.3312159399999999  2.9507767899999999
 -15.1581211000000007 -4.8668967299999997 17.6233661400000017
 -15.4000944200000003 -6.9288366000000003  9.5518038700000005
 -25.7204894400000015  9.7816995700000007  2.0920298900000001
 -25.9148844499999988  7.9420238100000002 17.1879952399999993
 -16.6924547099999998  0.8509134600000000 10.3034876999999998
 -16.7600493499999992 -0.6835893400000000  2.8212538299999999
 -16.8245164100000011 -2.8672570199999998 17.0047929700000005
 -16.7346702500000006 -4.3190291299999997  9.6560060300000004
 -16.3148399399999988 -6.2728822600000003  2.4302933699999998
 -16.9141284300000017 -7.7469033999999999 17.8191098799999992
 -27.3993849900000015  8.8240276499999997  9.8792621700000005
 -27.5530319199999987  6.7649101700000003  2.7784868500000002
 -9.0797295899999995 15.5041048400000001 16.9552877600000009
 -9.2968940500000006 14.2005311499999998 10.4350947999999999
 -9.0390438199999998 12.2405947099999999  2.6915032700000001
 -9.1185089000000001 10.5804991099999999 17.0840538500000001
 -8.8744025099999995  8.8188141499999997 10.1483944000000008
 -9.1251976900000003  6.5939803100000001  2.6412669400000000
 -17.8177639899999996 -8.6919997999999996  2.6276296800000001
 -1.3389657800000001  3.1810757800000000 17.3235367499999988
 -3.0926028099999998  3.7584527400000001 10.0777362499999992
 -4.3968007199999999  4.2805389099999998  2.6025834300000001
 -5.7024526900000003  5.2900593000000002 17.2478572999999997
 -7.1264481699999997  6.1902501799999996 10.3793840599999996
 -25.9313779699999998  6.5589926500000004 10.1636700900000001
 -25.5021711499999988  4.4575772999999996  2.4288128400000000
 -7.8201146799999997 12.8801841499999998 17.3918071800000007
 -7.5115913799999996 11.5362382199999995 10.0185462600000008
 -7.5956875699999999  9.2340120700000003  2.2029680400000000
 -7.3637170599999999  7.6988276700000000 17.3157085399999993
 -18.4536000400000013 -6.7201752399999997  9.9787676399999992
 -19.6145671200000002 -6.2084300800000003  2.5381619999999998
 -2.6262315900000002  5.2880767500000001 16.8018040900000010
 -4.4476975599999999  6.4737783300000000 10.0680392899999998
 -6.0614087500000000  6.8082944100000002  2.4626898100000001
 -24.5492475900000002  5.2915648600000003 16.6306611900000014
 -24.4923000299999991  3.7504345200000002  9.7885480999999999
 -24.1772465799999985  1.3939776900000000  2.3995258200000000
 -24.7698300700000011 -0.2229362300000000 17.5190997599999996
 -5.7978326100000004  9.1241227600000006 10.1950890399999992
 -18.2163590100000015 -5.1061717000000000 17.0582740199999989
 -20.0128403400000003 -3.9247460699999999  9.9774395400000007
 -21.3803347499999994 -3.6399872700000002  2.2287155900000002
 -22.8844566200000017 -2.3361474900000001 17.6038249200000010
 -22.8074199499999999  4.2516487200000004  2.7475277299999998
 -22.9866103099999997  2.3027587199999999 17.0325892500000009
 -22.7218811999999986  1.1280671600000001 10.2665851299999993
 -23.0561953600000002 -1.6495063999999999  1.7198180900000000
 -17.9147653499999997 -3.8481826600000000  2.4057930500000002
 -19.5096249899999989 -2.4312740100000001 17.3188666799999993
 -21.3835287200000010 -1.3223118599999999 10.0579939300000003
 -21.4134514200000012  3.9458618300000001  9.5482403500000004
 -21.2514898499999987  1.5546031800000000  2.5852910100000002
 -21.4063475399999987  0.0470300900000000 17.2314033600000016
 -18.1483697299999989 -2.0518447399999999  9.6187506700000007
 -20.1075437100000016 -1.3717704300000000  2.5497260100000001
 -19.7627498400000015  2.5815657600000002 17.5766460799999997
 -19.5656278899999982  1.0809574300000000 10.0015932500000009
 -18.0500018000000004  0.2048393900000000 17.1879165200000017
 -18.3063313299999990  1.6429322200000001  2.3499048299999998
  0.0936027000000000  0.2305452300000000  4.9867094400000003
 -10.4589962900000000 16.5071488299999984 19.6820557899999997
 -10.7403062800000004 15.6631258899999999 12.5422027200000006
 -10.4850346499999993 12.9730166100000002  5.4885662100000001
 -10.6786229800000001 11.2019639899999994 19.5456387499999984
 -11.0483045000000004  9.3957530299999998 12.6558370000000000
 -10.8849004399999991  7.1733546199999996  5.5482276199999996
 -10.8281301699999997  6.2167712200000000 20.0990000000000002
 -10.7190952900000003  4.5929803099999997 13.1014553599999992
 -10.4132311000000009  2.6035640700000000  5.4794091099999997
 -10.7733939400000001  0.3982437300000000 19.8446449300000012
 -10.4939781399999994 -0.4078471500000000 12.1248535799999999
 -1.5673649000000001  0.8489531900000000 19.9173125099999986
 -1.6861873700000001 -0.6682970700000000 12.6021026999999997
 -12.1187594099999991 15.9195797500000005  4.6332413600000004
 -12.0987771100000003 14.2292796900000003 20.0871984899999987
 -12.4164608899999998 12.3919515499999999 12.6914128200000000
 -12.1214130400000002 10.1674081300000001  4.8374968599999999
 -11.8900388299999999  8.7254175299999996 19.3174371700000016
 -12.5569811500000004  7.0265535699999999 12.8523213199999997
 -11.8533409800000005  4.8865220200000001  5.3000749300000001
 -12.3530912900000001  3.7108609100000001 20.1505745199999993
 -12.0723717399999995  1.8339676400000000 11.9001681799999997
 -11.8567639699999994  0.0616906800000000  4.8971724600000002
 -3.0262014499999998  1.9437928300000000 12.4568263800000008
 -3.1754268200000002 -0.0500961000000000  4.5416074399999999
 -13.8853969900000003 16.9149284800000004 19.1956263999999983
 -13.9193126100000004 14.8229690099999996 12.0144786200000002
 -13.1253074200000004 13.4239117799999992  4.5949344999999999
 -13.5434942199999995 11.4917883599999993 19.8501864400000017
 -13.8156867099999996  9.8314563199999991 13.3003369599999992
 -14.1159172999999996  7.6794392000000000  4.9239303799999998
 -13.6988006000000002  6.1386174000000002 20.1516332600000005
 -13.6349959100000007  4.0235802700000001 12.2335874600000007
 -13.2368201400000007  2.2319632399999998  5.1898782900000002
 -13.6546068100000006  0.9717041000000000 19.9735959600000008
 -4.1022642300000003  2.6829907099999999  5.1372415800000004
 -4.5713501599999997  1.0481819100000000 19.4200101700000012
 -4.8297689100000003 -0.7863467200000001 12.4354990399999998
 -4.5054070900000003 -2.8966835299999998  4.9973829099999998
 -14.9618988700000006 13.7925168399999993 19.8179319300000003
 -15.5502956200000000 12.1594777799999996 12.8857932500000008
 -14.8375226199999997 10.7128371300000005  5.0441384999999999
 -15.0965183500000002  8.4390280600000001 19.8867210999999990
 -15.3489898900000004  6.6395405900000002 12.6406159000000002
 -14.9419965200000000  4.8020991700000000  5.3091926100000002
 -15.2951967399999997  3.7523324100000002 20.0355777400000008
 -15.0783468599999999  1.2991225200000001 12.3202185600000007
 -6.1168028200000002  3.4011293100000000 19.5213629900000001
 -6.0761545799999999  1.7608731099999999 12.6138428900000008
 -6.0758406200000001 -0.0094496400000000  4.7117412700000001
 -6.3504952000000001 -1.7833312800000001 19.6746377599999995
 -16.3604831500000003 14.7339900099999994 12.1592671100000000
 -16.7576594800000009 13.0387329399999992  4.8691563000000002
 -16.5604254799999993 11.0538600400000000 19.3589780299999994
 -16.7000874900000014  9.3730894599999992 12.7159108300000003
 -16.7860882099999991  7.6512186000000000  4.7769490699999997
 -16.8478025900000006  6.1357933400000002 19.7340145999999983
 -16.3734097699999985  4.3469780900000003 12.7420203000000001
 -16.3190582000000006  2.1528804099999999  4.7284395500000000
 -7.3138167500000000  4.5486975799999998 13.0431796000000002
 -7.5107271400000002  2.5304662300000000  4.7217337099999996
 -7.5464099999999998  0.6459201600000000 19.6476634700000012
 -7.3728300200000003 -1.0124202700000000 12.6003571099999991
 -7.7656357199999997 -2.6562084200000000  4.4983767300000004
 -18.3735050899999983 13.5895129600000004 19.5676842700000009
 -17.9523441400000010 12.5520032700000002 12.7602654500000003
 -17.7935845599999993 10.3736908400000001  5.0339902500000004
 -18.1348433900000003  8.6888110800000007 20.0550423799999997
 -18.2610058399999993  7.1233851699999997 12.6749902300000006
 -18.2660941600000015  5.2898109299999998  4.8263426699999998
 -18.4301902300000009  3.6624059700000000 19.4865857700000014
 -8.8180757399999994  5.1367203000000003  5.4883829300000002
 -9.2791808600000003  3.2892829300000002 19.5922204099999995
 -9.2601449099999993  1.9476037300000000 12.8291652500000009
 -9.2778149100000000 -0.2765187800000000  5.0081150599999997
 -9.4097533999999996 -1.9555885099999999 19.9144971999999996
 -9.1940378900000006 -3.3533263899999999 12.6827545300000004
 -19.6959348399999996 13.0290314600000006  5.1469266899999999
 -19.7858355400000008 10.9521372600000007 19.8759731200000012
 -19.4766450099999986  9.9302138299999996 12.4331661499999999
 -19.5131913200000007  7.9076084399999997  4.9820581900000001
 -20.0981030700000005  6.2723154900000004 19.7747459300000017
 -19.3766558499999988  4.5623081000000001 12.3004965599999991
 -10.6587106400000007 -2.9277431300000001  4.5971017999999999
 -10.5091032299999991 -4.5336583800000003 19.8542968100000010
 -21.1871420400000012 12.4573467999999998 12.1787072599999995
 -21.0765349200000003 10.4259609700000002  4.8802557200000001
 -21.3030888199999993  8.3664168599999993 19.4759302900000009
 -21.3012282199999987  6.9030628700000003 11.6523627399999992
 -21.3621113099999995  4.5944506499999997  5.0813966099999996
 -12.2654899799999999 -1.9259640099999999 19.8550787399999997
 -12.0162819499999998 -3.5516758099999999 11.7934311600000008
 -12.4356789600000006 -5.1703317999999996  4.8025181200000002
 -22.7647261500000013 11.5220926899999991 19.8676943299999991
 -22.4908445800000010  9.5280301400000003 12.7741888600000006
 -22.8274052999999988  7.8487731099999998  4.9242145700000002
 -23.0341144600000014  6.5204875900000001 19.8984622800000004
 -13.2359038000000009 -0.7967153600000000 12.7590607800000004
 -13.6273487600000003 -2.3649856200000001  4.7384683900000004
 -13.5733597899999996 -4.1175509500000000 20.0998474999999992
 -13.1612295699999997 -6.4340758400000002 12.1109875599999999
 -24.1065846300000004 10.1772510999999994  4.9236875700000002
 -24.4309491100000002  8.9951095199999997 19.8789551499999995
 -24.4993572200000003  7.3041149399999998 11.8877197700000004
 -14.9678480100000009 -0.0116511900000000  4.9282502299999997
 -15.5034599100000001 -1.4425374900000001 20.0369423299999987
 -15.1164843300000005 -3.6052284299999999 12.3464300900000001
 -15.1850041900000008 -5.0676189899999997  4.8143725499999999
 -15.0308583200000001 -6.9548930499999999 20.1511221099999993
 -25.7908257499999998 10.0616109799999993 12.6487926099999992
 -25.8136155000000009  7.8247846900000004  5.2978712600000000
 -16.3799044699999996  0.6738293800000000 19.9395318699999997
 -16.8941944399999997 -1.2253310600000000 11.5581075799999997
 -16.4667958600000013 -2.4999831000000001  5.4618274400000004
 -16.9252357300000007 -4.3700026400000000 20.4007207900000012
 -16.7762251999999989 -6.0395473400000004 11.9213157400000007
 -16.2116846899999985 -7.9068539900000001  4.1987927799999998
 -27.4890903599999987  8.4129214099999992 19.8969240499999991
 -27.3585974599999986  7.4259532999999998 12.0189362499999994
 -8.7763979600000006 15.5798481500000001  5.4625650200000004
 -9.0506378600000001 13.7500186400000004 19.7518758900000009
 -9.2392070799999999 11.9345913800000005 12.4397877999999995
 -9.0242021599999998 10.2761837699999994  5.0563111599999999
 -9.2276997600000001  8.5887276499999992 19.2575080599999993
 -9.1983877900000000  7.1479856399999999 12.7634787500000009
 -18.4112574799999997 -8.6422486000000003 12.0667560399999996
 -1.0469065200000001  2.2646137700000000  4.8961612099999998
 -3.0272494499999998  3.7585362299999998 19.9981694099999991
 -4.6256114899999998  4.4906279199999997 12.8003404799999991
 -6.1343070199999996  5.1314941100000002  5.1949596900000001
 -7.5122648999999999  6.1361765999999998 19.5454669900000013
 -26.0346380999999987  5.8702558099999997 19.2101629600000017
 -25.9117537099999993  4.6769415800000003 12.2202293500000003
 -7.3240501299999998 13.1551598300000006  4.9716924899999997
 -8.1191290499999997 11.4971095600000002 19.6114504099999998
 -7.3141065999999997 10.2833961400000007 12.4132544199999995
 -7.5970321900000002  7.8109811699999998  5.0653716299999996
 -18.3631899999999995 -6.8181947000000003 19.7039110400000013
 -20.0539125700000014 -5.7890978799999999 12.5795568899999992
 -3.3439737300000001  5.0979985000000001  5.1539920400000003
 -4.3403803999999999  6.3014614800000004 19.6252138999999985
 -5.6814433900000001  7.4262123200000003 12.5641591699999999
 -24.1581289199999993  5.3009646100000003  5.2253711400000000
 -24.6390807999999986  3.6030080700000000 20.0920246300000009
 -24.1069795499999984  2.2084067900000002 12.5922955099999996