fcc
1.0
0.0 2.1217 2.1217
2.1217 0.0 2.1217
2.1217 2.1217 0.0
Li
1
Direct
0.0 0.0 0.0
