fcc
1.0
0.0 2.27325 2.27325
2.27325 0.0 2.27325
2.27325 2.27325 0.0
Li
1
Direct
0.0 0.0 0.0
