Li                                      
   1.00000000000000     
   -10.5278949999999991   18.2348490367503473   -0.0000000000000021
   -18.0478199999999980  -10.4199137352859115    0.0000000000000046
    -0.0000000000000002    0.0000000000000000   22.0820499999999988
   Li
   504
Direct
  0.9939051318607426  0.9711371285733605  0.9954784483324701
  0.9364662686203502  0.0349558053506271  0.6745984874592708
  0.8631104738575672  0.0422986038107283  0.3516088533446862
  0.7941268364214338  0.0935175101188364  0.0130922079245366
  0.7283039625113048  0.1931078443045777  0.6570646045090953
  0.6555534376935412  0.2191365062967918  0.3262344551343759
  0.5863106808655090  0.2533031166351094  0.0241249145799429
  0.5099445852461670  0.2919021084380162  0.6737415842279120
  0.4184766488062053  0.3601398928744004  0.3447193870134342
  0.3640469538979758  0.3860840596976374  0.9952403123804174
  0.2821187414191471  0.4147039754833060  0.6708914176899370
  0.1960059342768901  0.4705617384568299  0.3357133291519574
  0.0856779802791436  0.0547888908360719  0.6707635676941237
  0.9948534366732957  0.0531890665085513  0.3379818975140410
  0.9185949357219272  0.0946743700451265  0.0009710208064888
  0.8805156099124716  0.1764098895589896  0.6879388983359789
  0.7915122612584824  0.1947176585459189  0.3309694358087256
  0.7349654726975885  0.2311845887655366  0.0097482914856215
  0.6531010297156570  0.3306019128494029  0.6781093191075982
  0.5774984755243580  0.3599326842255479  0.3417795390373612
  0.5324649107460431  0.3755959832534472  0.0140733256196768
  0.4450480924023168  0.4310738268244094  0.6538142903398949
  0.3493568456453175  0.4863018897304414  0.3401301391854474
  0.2854850369052926  0.5169034962333399  0.9748744586666547
  0.1158179576379936  0.0535585972639794  0.3408522374507825
  0.0606070693591576  0.1052505182082442  0.9951539789104729
  0.0334754168625579  0.1703159947400721  0.6813154589361048
  0.9431393348604971  0.1703918225147873  0.3359695612499749
  0.8663485347426985  0.2419499420331661  0.0104594849662973
  0.8214364705239703  0.3266696586708591  0.6896646276047775
  0.7305548322738460  0.3483078019438537  0.3401182947235455
  0.6676363148083198  0.3740560566046796  0.9918814190711487
  0.5763177436903604  0.4365525779729040  0.6800799078889881
  0.5013014037415999  0.4671187931869767  0.3690376735855594
  0.4448333445478241  0.5078445339160993  0.0031129713953177
  0.3439569350001648  0.5378242543307934  0.6587537298393968
  0.2108371216837099  0.1096324465121938  0.0329595499512081
  0.1606065291118526  0.1700188646161109  0.6582036382491694
  0.0939540153370331  0.2051587527858416  0.3480597177345430
  0.0002564629929296  0.2537097485756732  0.0151207288272630
  0.9259517062869165  0.3228204105061181  0.6552943680500647
  0.8811419647200509  0.2920615279481709  0.3342344170944287
  0.8142379603256558  0.3823863208230875  0.9822626576789730
  0.7377837216983494  0.4370253989263304  0.7018924108042484
  0.6478938274638253  0.4825165018995534  0.3534196553309101
  0.5913857125031257  0.4857447660862633  0.0146775358266069
  0.4841060199758545  0.5483896112010385  0.6615163963490716
  0.4037300327795279  0.5930043094706505  0.3109865420103688
  0.3236789943123100  0.1660685675153246  0.6780275961697413
  0.2242146642591294  0.1902723712459249  0.3258228764992381
  0.1395583704174470  0.2519761749548692  0.0142673673866298
  0.0612820338471636  0.2975352996799998  0.6608666346648064
  0.0017692269041802  0.3025004834335476  0.3235939838013238
  0.9422350097118652  0.3967730092847503  0.0010851750630039
  0.8809621029259063  0.4423754698028262  0.6659517331950582
  0.7996427335540659  0.4556754518623194  0.3390443763146962
  0.7163713701298775  0.4845119496020303  0.0145504937268086
  0.6363204827358047  0.5286681455936559  0.6529651513333192
  0.5417768640755298  0.6012158427767744  0.3407986373547729
  0.5269401251890500  0.6509044466712766  0.9797956901646359
  0.3612625389697541  0.2109133143112629  0.3568631893325147
  0.3123724770397445  0.2408287693935165  0.9977036108513460
  0.2482934476548024  0.3019031054111920  0.6631572598558577
  0.1517265444537728  0.3176360070788533  0.3425349467101100
  0.0755970410159676  0.3707769381494970  0.0153141538036579
  0.0302515162923456  0.4156680697659567  0.6488175133196421
  0.9307700330242881  0.4304043021912776  0.3194195407582185
  0.8694859908438843  0.5018789690070378  0.0074385204272218
  0.7790022922237227  0.5604492787887594  0.6906331649461919
  0.6973845270768066  0.5949153312871474  0.3337607685880641
  0.6542356127978621  0.6169873299491826  0.9928727029419804
  0.5752815416710675  0.6553713331498656  0.6801889344512873
  0.4492167356198919  0.2679812645045772  0.9845948632486596
  0.3865424933235957  0.3115925999511830  0.6530061615656138
  0.2859609782601495  0.3574597029879456  0.3459755176715902
  0.2271026089432340  0.3681592695860019  0.9846468647611957
  0.1553006405707080  0.4254404660861439  0.6577584119228064
  0.0631804934639462  0.4539270526170682  0.3347321643597425
  0.0136154128538806  0.5001919984293224  0.0099785250916469
  0.9282005939477429  0.5354389487473057  0.6707140152295636
  0.8504729282857113  0.5840224930581925  0.3145302261338969
  0.7896649050420308  0.6107167117431658  0.0005250993453956
  0.7047192383074687  0.6505654774160519  0.6951599570692011
  0.5955911348497551  0.7145470471985504  0.3292627953473541
  0.1516147116437594  0.4601045037771456  0.9767808532269413
  0.0623024494907582  0.5326198279636216  0.6645078830996241
  0.9651084904325842  0.5717922612879178  0.3295000962320103
  0.9259562437433217  0.6250055580826910  0.0091895779603774
  0.8416396061433389  0.6735280703531856  0.6741394616894709
  0.7811148405345421  0.7298414171855967  0.3099925151876732
  0.6896016055183694  0.7551408909924362  0.9889219248212910
  0.2287460088840376  0.5594382139671055  0.6620998702566112
  0.1033515107889116  0.5976565339372257  0.3099150658566572
  0.0801616538386654  0.5782687812356428  0.9737571579631421
  0.9738716522790298  0.6616037095521676  0.6584852801257099
  0.9074073261025148  0.7147161335032166  0.3203632828473815
  0.8539133722217116  0.7365867854485444  0.9910029381330077
  0.7872043659347980  0.7735817252109598  0.6717111101550799
  0.2504923445721019  0.5679346401970520  0.2835153910076258
  0.2069363283504231  0.6294062786220849  0.9550152069214590
  0.1296973002463986  0.6649171928367252  0.6522874352698267
  0.0317950601215244  0.7132677861105634  0.3102285892840584
  0.0178333424482133  0.7323639626950040  0.9873903926492318
  0.9114456379397637  0.7778746272714443  0.6710855586324627
  0.8592404159955436  0.8419515520790100  0.3203614700627853
  0.3919315923420612  0.6364719716087563  0.0066585593275974
  0.3009264424427087  0.6862694126625613  0.6599259158456761
  0.1663657942256975  0.6995819205200533  0.3045736211085455
  0.1345329269585207  0.7351442063882487  0.9747967498488563
  0.0586476677673673  0.7871705242932521  0.6357145473359580
  0.0140138220407948  0.8221396946005584  0.3416052141898049
  0.9313319324925615  0.8500687747645514  0.9862037433118758
  0.4244059227861854  0.6735856966397620  0.6613381289327762
  0.3325429876073827  0.7074808222535012  0.3296793735183101
  0.2633780489834905  0.7519518886489891  0.9764906116053567
  0.2058485802569834  0.7995379536783602  0.6499183463491818
  0.1315850771468945  0.8272082702636965  0.3299366394877268
  0.0690973954339142  0.8827540753452965  0.9876522247707982
  0.0350746174640619  0.9173846342756704  0.6548274915598853
  0.9376518165886054  0.9669682187874145  0.3396271306332537
  0.8510034300567639  0.9711126847299312  0.9932749966601833
  0.7700428123947916  0.0423916509364020  0.6698292228303089
  0.7114222471248794  0.0882698332322249  0.3406087754533687
  0.6486822379184147  0.1040304314221814  0.0125653320230654
  0.5943060033920347  0.1846102791594220  0.6887496726979592
  0.5007185936910901  0.2366934965592833  0.3179177245771996
  0.0652500083503682  0.9451279763061748  0.3282333320502389
  0.1197798956494864  0.0001425870543486  0.0041337362246736
  0.2323858116409383  0.0544140275974812  0.6651492818827975
  0.2928364005115043  0.0831535555672076  0.3359756585099660
  0.3821713984281061  0.1324022272687628  0.0131470044674273
  0.4471109376947382  0.1471353650800040  0.6708764865580861
  0.8677104763185994  0.9104259492236650  0.6507331733240349
  0.7603243805433664  0.9485110797702632  0.3315440885243888
  0.7198814214993732  0.9804752774575505  0.0051206020274392
  0.6364005520114802  0.0558383588977023  0.6855408936217415
  0.5828325641038674  0.0880381088981252  0.3324009713772043
  0.4938430264952061  0.1636527431333121  0.0308749486573916
  0.1414450962677449  0.9315625814213746  0.6471876130160013
  0.2009262796820082  0.9409409172280760  0.3099298448287158
  0.2945030129967847  0.0150402476302531  0.0302653503637558
  0.3645399648565260  0.0429055468575612  0.6822992715803124
  0.4300465170796173  0.1073663790457857  0.3487585559311768
  0.7713426855241536  0.8581555743454743  0.0053762037492007
  0.7287570778737376  0.9308243307855761  0.6520345235157095
  0.6203410841130506  0.9626996081671706  0.3604834424340098
  0.5510350087700360  0.0077834395702610  0.9936545995503110
  0.5186034444504699  0.0220256784579576  0.6784866857923078
  0.1953084596654335  0.8772503035840700  0.9581477272264110
  0.2956227024480356  0.9336109019821137  0.6539229718255299
  0.3656828341762974  0.9684306303193111  0.3246779429446107
  0.4232600805757727  0.0287376527473526  0.0036959679921011
  0.6983131695410449  0.8304834153905958  0.3414422374734229
  0.6265890760590551  0.8776146542409720  0.0091961122269026
  0.5642454286126011  0.9156599846040407  0.6754723515253360
  0.5170474330910295  0.9843139279091915  0.3327273690622050
  0.2622306495871385  0.8240038090675128  0.3370594722863132
  0.3522499235842176  0.8699991545099266  0.9997170842380996
  0.4138251316646731  0.9268829252216122  0.6550829429332907
  0.6336780891230802  0.7934499049697692  0.6899278658457888
  0.5620493549246461  0.8374149978521288  0.3484143424183870
  0.4957348776510671  0.8918165651170966  0.9904402625662030
  0.3512521717415353  0.8279966576230890  0.6587134541403543
  0.4262000440183442  0.8503633789332739  0.3300963651472557
  0.5675240918272948  0.7701366847226936  0.9821840091839320
  0.5058503129357916  0.8004749725836575  0.6720705269664720
  0.3878181409306549  0.7693439242626994  0.0075260109455400
  0.4501517666887125  0.7168858225667591  0.3560429991780651
  0.9951015100477747  0.0058734128485085  0.7650072792154745
  0.9270145357009412  0.0457233347111554  0.4552435457758648
  0.8541159755486021  0.0643589525827366  0.1317258465586306
  0.7968533521316559  0.1501907703179626  0.7970976005398072
  0.7104629417593813  0.1549371895201830  0.4460471419093821
  0.6413138683509274  0.2232629581831844  0.1228456415957737
  0.5681904908451116  0.2495609858910512  0.7863271100282816
  0.5116851180447526  0.2700667235246286  0.4428674606750747
  0.4458173757850261  0.3269392119690764  0.1219605249512625
  0.3634808548500317  0.3799254971308770  0.7577656558154686
  0.2869085308137542  0.4278740093256985  0.4549306862361036
  0.2163133050435917  0.4471303640771040  0.0883474419268140
  0.0554666544454534  0.0485831095388249  0.4532207503379411
  0.0045476805500897  0.0733161576675272  0.0987580070690868
  0.9223917521548515  0.1470973399805473  0.7685750417194086
  0.8562949473954475  0.1577517049034327  0.4527973657337085
  0.7847725480001770  0.2248065281996219  0.1216200819217406
  0.7321996907906225  0.2548195353413263  0.7910983486587497
  0.6827925285779415  0.3018861520309386  0.4491122975448363
  0.6201772020026866  0.3468837148155259  0.1463069941423001
  0.4874157490068569  0.3953163525073649  0.7950838961962319
  0.4280295243063605  0.4146278614925620  0.4441107306613290
  0.3601772426524832  0.4545202682631526  0.1000190869959994
  0.2840129059571410  0.4965175582113730  0.7886634705564006
  0.1284796877847398  0.0591778268715828  0.1111979395029010
  0.1027115631195770  0.1051319133386315  0.7841225488575532
  0.0027385040704218  0.1572125556820438  0.4284626250733083
  0.9068900738980687  0.2051674221849993  0.1164096367864431
  0.8668931950013459  0.2819845774620617  0.8110047554461630
  0.8128073159129556  0.2805803095795838  0.4393842953892388
  0.7699544395863072  0.3389839628969895  0.1134710183157779
  0.6530327740423942  0.3806147652914831  0.7843350155443005
  0.5919752176833555  0.4053177228954823  0.4545398180875395
  0.5068118380749880  0.4481332567584104  0.1259842818035466
  0.4161212504201899  0.5017144263577293  0.7969531497302142
  0.3172335665492199  0.5419649287777872  0.4283055232643704
  0.2267758023359079  0.1466699897531569  0.7789614791199213
  0.1662977107445798  0.1559076948097200  0.4251263501350664
  0.0633191409579510  0.2079506185514077  0.1069846477116059
  0.9879285713935744  0.2780345118063252  0.7822295633784009
  0.9536879417266348  0.2779477929598073  0.4385391741255873
  0.8657225094304124  0.3673266578223959  0.1100595035334138
  0.8105347505228480  0.3922690138002451  0.7927878063857321
  0.7506302744304278  0.4142515836802048  0.4665892500922695
  0.6576243753836621  0.4469780946685091  0.1306560862782220
  0.5527215043369509  0.5265251469761196  0.7965820886194876
  0.5025368607302809  0.5219251060018308  0.4327230320554492
  0.4287563968749311  0.5884870994459419  0.1026240897018198
  0.3002183069030764  0.1556039930499438  0.4689683417074022
  0.2098016206357016  0.2094302894819151  0.1387281606553756
  0.1479052106001575  0.2747926892471568  0.7586261556331948
  0.0876448659584241  0.2744560619454646  0.4491284966749021
  0.0162591652521797  0.3288201215125923  0.1171063533503442
  0.9436542641270051  0.3932375500735645  0.7829760687979572
  0.8699990232390888  0.4189071235881272  0.4448460899237148
  0.8014777492271534  0.4958510928910087  0.1222087872276347
  0.7104682567719323  0.4990444431444914  0.7959185709660090
  0.6485798587734095  0.5502182406361982  0.4534167425578701
  0.5749284218041311  0.5458737128766984  0.0846094805509452
  0.4822214228493351  0.6169218422774421  0.7779489952246266
  0.3816972626257353  0.2237076736851833  0.1243209910311762
  0.2795266123469275  0.2432439588551887  0.7854817858849188
  0.2226433612320733  0.2979191354136788  0.4373151754479352
  0.1660466166828982  0.3303089915822071  0.1024387115326704
  0.0897587180399313  0.3942515329353355  0.7759156618158158
  0.0130306786214973  0.4067252207576431  0.4462404015931511
  0.9478238770590153  0.4815984353694702  0.1292569426298726
  0.8422126425925285  0.5074704358262281  0.8149563129328996
  0.7926754880101043  0.5414864683466405  0.4453269737184726
  0.6834984185652289  0.5484928920323497  0.1281506676237001
  0.6470754239653758  0.6182936620274333  0.7778815123595848
  0.5769444478175387  0.6573274906633557  0.4535618971064750
  0.4294054297944143  0.2363439353170946  0.7848300474820036
  0.3676304216909685  0.3045396364564681  0.4693126408100667
  0.2932621915431213  0.3148829869737284  0.1297885975260442
  0.2054861573931248  0.3735656041013087  0.7675049544765997
  0.1395805833809902  0.4220098839708157  0.4371893361350061
  0.0748904596227362  0.4611455341747686  0.1091036756098305
  0.9924892881872438  0.4897795548348753  0.7916395850928666
  0.9334465888748085  0.5257700007102173  0.4469916312117732
  0.8601107823492313  0.6022892684578736  0.1423016717197925
  0.7773610541104006  0.6327580713480287  0.7950015093707350
  0.7168855754245911  0.6922761577251606  0.4293297832402345
  0.5968015803178730  0.6738944208541184  0.1137393054539757
  0.1483820390255488  0.5078034584372588  0.7754292703802435
  0.0604761566558238  0.5324160149383061  0.4367426353078656
  0.0179461813749597  0.5775200532160412  0.0982048048075228
  0.9116035122551622  0.6111708694649280  0.7721031964876417
  0.8614414871517653  0.6526951983465281  0.4285756019029066
  0.7604424262980984  0.6917507733559205  0.0946099334074475
  0.7097150091442828  0.7590157799559663  0.7863427580319780
  0.1969714473768320  0.5574782042384427  0.4306807357106806
  0.1527634784684793  0.5847538965287242  0.0656881861059091
  0.0345305381590180  0.6205583256021114  0.7694074494895204
  0.0225294700394087  0.6496865419213762  0.4354158142020310
  0.9086042132997676  0.6837218852926554  0.1021934218063976
  0.8563168717200824  0.7440463290193762  0.7667375044436540
  0.7958456251481252  0.8083952223720772  0.4526723565067527
  0.2955803471508247  0.5775986213920845  0.0761654339157829
  0.1944350279005107  0.6442110128503842  0.7598654767107220
  0.1344658288010052  0.6577069487226197  0.4179336384076677
  0.0529328492977541  0.7034392214983569  0.0912279380764005
  0.9960579115670356  0.7691154440316339  0.7485636492082932
  0.9102596673541257  0.7968366062693946  0.4400829528961339
  0.8367434263047997  0.8259886876045357  0.1019684304672808
  0.3423319203589017  0.6262418877910534  0.7806502331078846
  0.2706090698265129  0.6559614954503559  0.4288488333284306
  0.2027445059621229  0.6947208521252932  0.0791229822412305
  0.1535334492749385  0.7761107035113213  0.7391415842279159
  0.0663311947880487  0.7744196831554646  0.4501517811978530
  0.9668096986077686  0.8225721631795864  0.1009488072891784
  0.9388475971240098  0.8504751984714005  0.7528658023145525
  0.4343091221496067  0.6615607588321879  0.4405204706990489
  0.3535612109449531  0.7252162108830120  0.0875182286064913
  0.3062264507216383  0.7383302842437445  0.7600896981937808
  0.1911564454114583  0.7616193248899279  0.4585961126797571
  0.1327970283500832  0.8231286105035593  0.0903443951082465
  0.0701238661761820  0.8806371018717556  0.7500326699740256
  0.9836419364660500  0.9072995888306039  0.4520540710667689
  0.9303369385988134  0.9648293387129456  0.1200198677206146
  0.8708129525595325  0.9894393683455007  0.7760749703945038
  0.7761968269091284  0.0324429203619871  0.4470320962048362
  0.6984971526854338  0.0929834599818022  0.1188109084075109
  0.6777432807581505  0.1577693512691667  0.7870866898680120
  0.5767181107520756  0.1626759068631998  0.4119872407679566
  0.4957858854629791  0.2184256428401739  0.1185766276228861
  0.0361606274490498  0.9311781689468432  0.1059986708661569
  0.1587758959163992  0.9814250125090567  0.7704453173505215
  0.2150196162846285  0.0420625769104035  0.4453828462484211
  0.2835678998720113  0.0776549630247274  0.1357148878840491
  0.3921646922205468  0.1335962087163267  0.8018365165371861
  0.4268088014796518  0.1513859531481572  0.4654675272449822
  0.8289862319727419  0.9344121823768958  0.4297829440654297
  0.7836161171559155  0.9360077354647132  0.1182788450347658
  0.7383522305585899  0.0015898154826104  0.7728082927083335
  0.6508839715151282  0.0388100757158298  0.4693189880468509
  0.5608743172770474  0.0775810562999055  0.1252109994316655
  0.5224100533172020  0.1194538255441415  0.8034245393883239
  0.1315674163628557  0.9110371310834537  0.4290977785124142
  0.1883238304004706  0.9414285258577522  0.0966553331778499
  0.2597230624938547  0.9906707208397592  0.7715252170880902
  0.3371945167036685  0.0232953433471721  0.4407104698159827
  0.4416314406291306  0.0820355917976627  0.1182570925253756
  0.7947829540547531  0.8848203640063872  0.7614210134475741
  0.6981185001539814  0.9033115003818395  0.4631956539361184
  0.6453633841071849  0.9376518646171590  0.1159900634225508
  0.5922953970064313  0.0081018899419973  0.7956010402113947
  0.4964168319260125  0.0485773598833745  0.4581319334029246
  0.2241374042320174  0.8772718241135351  0.7543143050577257
  0.2799110332118673  0.9214100258648372  0.4359057809397200
  0.3539126122068694  0.9364839742146387  0.1200389347909265
  0.4289155990320097  0.0030286472010985  0.7716333017088530
  0.6928411414306055  0.8178040938649929  0.0993161192008927
  0.6550226437630968  0.8936842762084183  0.7686281626932256
  0.5734155654180881  0.9309744271558955  0.4562133234912551
  0.4993461646441588  0.9598387744322352  0.1084604450220894
  0.2797955412306337  0.8396469440883010  0.0705273636279244
  0.3551131690916947  0.9055548893265453  0.7642673483666584
  0.4331901597669656  0.9180587585060209  0.4233437271448963
  0.6360187060149016  0.7996934879137356  0.4537388267846509
  0.5457905347907115  0.8189856945453542  0.1192660536499091
  0.5182259814680066  0.8938421023055909  0.7791227825315161
  0.3488554685657093  0.7953638614948773  0.4325451876071256
  0.4137732155124567  0.8439074222411591  0.1090632595252714
  0.5631882522949354  0.7406914726878639  0.7871402319983858
  0.4965574333779017  0.7830566051704864  0.4551594308499460
  0.4288390202407939  0.7722565358587374  0.7632985841441382
  0.4771424322394822  0.6847842345135362  0.0884829904832216
  0.9971048931003779  0.0031217122873031  0.2166264825955935
  0.9221398934825658  0.0519512975032086  0.8930820132188799
  0.8291331992077104  0.0795335479701791  0.5717355349707134
  0.7711578247507020  0.1166936107849139  0.2320308689637045
  0.7029697535778467  0.1750967455435912  0.9098625870333592
  0.6381286760112488  0.2379510086240089  0.5509168039199253
  0.5748598957316773  0.2693690549897951  0.2503643706087075
  0.5124712021745736  0.2824349003360140  0.8961980355084762
  0.4320127753936376  0.3351471048579384  0.5698730661328995
  0.3608579233450868  0.3572053618168241  0.2386917799751416
  0.2977768352562435  0.4301849306448062  0.8745183689920069
  0.2405502023584063  0.4718767833091206  0.5379490627002497
  0.0612138450371233  0.0566293683615484  0.8699735300843869
  0.9915688933414657  0.1006881188772297  0.5597556087410354
  0.9210594269906949  0.1028418115806673  0.2326606012575851
  0.8349485526055389  0.1837640866191563  0.8953398900917264
  0.7927777412648922  0.2357879800234102  0.5775439816502512
  0.7403839532507845  0.2688902200094461  0.2226831788715273
  0.6261134447281691  0.2727491567299296  0.9000087845104972
  0.5869111181760331  0.3466201371417768  0.5511074682830639
  0.5235480027671784  0.3748526497608822  0.2447651526918904
  0.4402589386511124  0.4051855726104137  0.9127303905208066
  0.3587975790131281  0.4811712462721616  0.5559066055914172
  0.2899509238007951  0.4860584552080098  0.1816125658623164
  0.1521813303570312  0.0881064324134897  0.5690686974261894
  0.0681893558142193  0.1351765460798191  0.2273679006251683
  0.9886245802141360  0.1628139423535089  0.8982826884279334
  0.9301334074747487  0.2081490628848073  0.5761287421231245
  0.8754066708820787  0.2190096940602189  0.2173438258676157
  0.7760601002372880  0.2987366009308801  0.9046077130520018
  0.7373652211331745  0.3412985887081206  0.5687945620990789
  0.6869677438716977  0.3550029401962078  0.2389970605084244
  0.5825097163978725  0.3913082089295798  0.8846269223192564
  0.5342355050312264  0.4560451482649555  0.5714019486415438
  0.4321471256389913  0.4919055529543641  0.2494451497936083
  0.3730438952161066  0.5582082434761588  0.8998439198353410
  0.2105092422209438  0.0987700559606850  0.2269848804798471
  0.1475798295892048  0.1896258417895851  0.9074548925484720
  0.0700168659568519  0.2019516460701141  0.5472012562239499
  0.0010554565426304  0.2504363238519716  0.2289445028880905
  0.9281806461361484  0.3163733640099693  0.9004360845120800
  0.8521979844106866  0.3258732395886383  0.5484381848605508
  0.8017171056914236  0.3826157503552636  0.2316276070382983
  0.7206282418587477  0.4233298157714600  0.8979197882442946
  0.6764824763743604  0.4675105098228372  0.5602985026299621
  0.5836667409176002  0.4746911475528464  0.2455273314751096
  0.4863444761219071  0.5396694737402399  0.9103633417187282
  0.4395745741494821  0.5700096930645699  0.5432676214391350
  0.2895785503842205  0.1515232026528821  0.8983782479434623
  0.2014031545507535  0.2105269443190849  0.5644542109994291
  0.1480790475472276  0.2536836834433629  0.2390866418652280
  0.0822371069871011  0.3007508642337982  0.8713864432876477
  0.0086734541416931  0.3111774882234499  0.5553796354957967
  0.9131123870574100  0.3622244202269442  0.2204186522537555
  0.8750221153258266  0.4245472044364291  0.8999474613996412
  0.8034647252280323  0.4905529192221252  0.5775209009127309
  0.7267775794967832  0.4974862534479882  0.2452217710765083
  0.6311656269443020  0.5425985865285199  0.8987589748234441
  0.5777319132472414  0.5682820340176207  0.5644109541460125
  0.5243259732032186  0.6203474291268236  0.2285588801764362
  0.3850195127630798  0.1914397836790869  0.5654518860341327
  0.2904801258754972  0.2544846205910716  0.2384808249234140
  0.2295226705212627  0.2980741488242060  0.8792382097676636
  0.1718105513414727  0.3437725213119833  0.5420174884125331
  0.0849691985893202  0.3971305237428950  0.2234037958432324
  0.0031844312688420  0.4065385499172152  0.8881433059883506
  0.9433703316499304  0.4238310667035847  0.5470809562517971
  0.8582768640979737  0.4952626086611716  0.2387866357516657
  0.7777792506204975  0.5430775947615132  0.9047100414137290
  0.7156210400937724  0.6051096836128664  0.5633775410344626
  0.6213203037937163  0.6054171035777003  0.2078076469349526
  0.5762369155630651  0.6625443703354890  0.8767766240000370
  0.4239280330378250  0.2553082599793939  0.2472396217742485
  0.3678641222563357  0.3008339708961074  0.8821284482192553
  0.3132058018696213  0.3458395526177540  0.5523390038515430
  0.2203568759366732  0.3943256126008947  0.2373984426264784
  0.1595290841876107  0.4052199945603761  0.8801412581712285
  0.0836935429792263  0.4465772634776286  0.5340282224702904
  0.9992491043361795  0.4889450687509438  0.2147872991864404
  0.9237032703937587  0.5414830327506550  0.8922063331982315
  0.8819314693675082  0.5871998636568421  0.5525384346109163
  0.7897019889048167  0.6177188070093180  0.2151864043419849
  0.7137769523393231  0.6886768791106945  0.8897496903593662
  0.6605209913577426  0.6862183531135457  0.5569431982085007
  0.1556433848084993  0.5092723385589792  0.2045007184568490
  0.0608453411826915  0.5262591668572441  0.8769216662402286
  0.0156974881439638  0.5397690620283555  0.5578396955898555
  0.9429174136744507  0.6396863757043150  0.2186189361947797
  0.8433479897636076  0.6526006185405038  0.8884053351024903
  0.7926810599592073  0.6959633896094246  0.5433688507181174
  0.6674382052801136  0.7383911594764641  0.2096314753385684
  0.2108818981602241  0.5458630044386794  0.8604516872301247
  0.1507038025939025  0.5698445995245223  0.5779643543058697
  0.0797709212616127  0.6291261341760119  0.2006414309359883
  0.0058768176499697  0.6790885941264335  0.8661815189260054
  0.9547363627042600  0.6822310888942624  0.5238760821572299
  0.8277636858754462  0.7470938855934008  0.1949951449254002
  0.7953008902301093  0.7871115472256989  0.8783541301645457
  0.2990914713226616  0.6288431923921820  0.5393399611901941
  0.2246967515886311  0.6214666559414823  0.1700061742456001
  0.1426773651186863  0.6616089556053737  0.8593839394440295
  0.0860946911867515  0.6761802617229336  0.5326402308662495
  0.9806781165685834  0.7644316826058883  0.1969690332192897
  0.9050479445427442  0.8081743739625153  0.8577655512056168
  0.8544526735299485  0.8256172468812011  0.5594334950785793
  0.3718663025501669  0.6331364094230523  0.2028905047312151
  0.2928766517117367  0.6732108017936369  0.8723634667071209
  0.2120747722996086  0.7032274914688230  0.5659105526887203
  0.1025579998608492  0.7398267539267849  0.2066803575754932
  0.0801413381615887  0.7916895612143335  0.8755733367146590
  0.9764898214139990  0.8204976352592581  0.5621941051668671
  0.9127535265460835  0.8842009711778545  0.2389273341922546
  0.4336196759927518  0.6776885846165470  0.8977396799663069
  0.3545289026396006  0.7170187938789923  0.5462246100339385
  0.2535337487649301  0.7264382370860574  0.2189590771690106
  0.1939644655957551  0.7718345912402000  0.8472492531264066
  0.1169896331807507  0.8073714872923503  0.5628021397469922
  0.0569910950670902  0.8597831990344886  0.1973717938325450
  0.9886808245225680  0.9072731205715172  0.8548990822862947
  0.9209534039456031  0.9713311432277223  0.5557325298149394
  0.8390842300646213  0.0022915980835236  0.2304651135198057
  0.7800201382418024  0.0430128778270600  0.8866321419433447
  0.6758206048026878  0.1238413001570748  0.5548939790463265
  0.6283844361822801  0.1359805442562489  0.2205960098813264
  0.5549285379687561  0.1552606419922995  0.9135264280263868
  0.5114573309718438  0.1870245194460196  0.5490738613489228
  0.0589476563050226  0.9455682699586205  0.5459676266469842
  0.1077619107439531  0.9682758692566864  0.2136828695705333
  0.1897601597235763  0.0586313467913016  0.9084821848515006
  0.2689248612514703  0.0872172975935541  0.5599318636630173
  0.3614919377704595  0.1332982718026940  0.2315282765866371
  0.4281806179359435  0.1627397521326870  0.9090621473096903
  0.8357187728528288  0.9299748900352824  0.8707755520886877
  0.7663511378880585  0.9710997869650768  0.5780107893062478
  0.6984705679426995  0.0022672561067694  0.2219353751123663
  0.6575826997668059  0.0401841531574760  0.8942379765465631
  0.5712674169067995  0.0876200936115268  0.5629989058986808
  0.5066931275209186  0.1355578322610782  0.2493096800342371
  0.0991292815603586  0.9226654633250533  0.8555065344929460
  0.1850526007774462  0.9484916986948093  0.5686007313632544
  0.2886192670045560  0.9978148747050355  0.2223224089248959
  0.3497886907915770  0.0230698600251316  0.8842330413163637
  0.4235651536498608  0.0652532786073579  0.5590363725288157
  0.7608650414375688  0.8655491530043307  0.2222570064826428
  0.7302048609416545  0.9116225159335940  0.8818163191370374
  0.6380270313366196  0.9669117819729109  0.5747697283540276
  0.5913964773638369  0.0051715865375215  0.2224588333057866
  0.4895215268495434  0.0630213319441566  0.9026108056090791
  0.1962560494217627  0.8906860046572334  0.1968383107546643
  0.2472152604450386  0.9287725800477276  0.8766771803342550
  0.3496141062099056  0.9449989959620169  0.5621557550136842