Li 
 1.0000000000000000
   -10.5278949999999991   18.2348490367503473   -0.0000000000000021
   -18.0478199999999980  -10.4199137352859115    0.0000000000000046
    -0.0000000000000002   -0.0000000000000000   22.0820499999999988
 Li 
 504
Cartesian
  0.5850780400000000  0.1896096300000000 -0.0998451300000000
 -10.4898946300000002 16.7120845600000010 14.8965175300000006
 -9.8501340299999995 15.2979413900000001  7.7642442799999998
 -10.0482711400000007 13.5063385900000004  0.2891027900000000
 -11.1526832599999999 11.2683457300000001 14.5093334499999997
 -10.8565339800000000  9.6705344800000006  7.2039255500000001
 -10.7441863400000006  8.0518901300000003  0.5327275700000000
 -10.6368397600000009  6.2571677399999999 14.8775953500000000
 -10.9054181799999999  3.8782318999999998  7.6121107400000003
 -10.8006237200000008  2.6153786499999998 -0.1051036600000000
 -10.4546191900000007  0.8232130100000000 14.8146578299999998
 -10.5561434500000004 -1.3290740999999999  7.4132385200000002
 -1.8908288200000001  0.9914295200000000 14.8118346400000007
 -0.9057642200000000 -0.6480722900000000  7.4633331600000004
 -11.3795370200000008 15.7639412100000005  0.0214421300000000
 -12.4537898200000008 14.2178933900000004 15.1911011499999997
 -11.8471872299999994 12.4041653899999993  7.3084836299999996
 -11.9100171699999997 10.9930609700000002  0.2152622600000000
 -12.8424228800000009  8.4643552700000004 14.9740438900000008
 -12.5758436099999997  6.7801299999999998  7.5471928699999999
 -12.3844233700000004  5.7957395199999997  0.3107678800000000
 -12.4653624199999999  3.6236326900000000 14.4375598499999995
 -12.4546811599999998  1.3032455999999999  7.5107707399999999
 -12.3345377500000009 -0.1803132900000000 -0.5548234600000000
 -2.1859352200000002  1.5538470099999999  7.5267161500000004
 -2.5376072700000001  0.0084594400000000 -0.1070100800000000
 -3.4262580900000001 -1.1642588000000000 15.0448420299999999
 -13.0044728299999992 15.4225352999999998  7.4188966499999998
 -13.4874954099999993 13.2766372199999996  0.2309668700000000
 -14.5436721099999993 11.5749003699999999 15.2292087899999995
 -13.9774010799999999  9.6922198300000009  7.5105091899999996
 -13.7797014000000004  8.2766155700000006 -0.1792749100000000
 -13.9462350399999995  5.9602268499999997 15.0175585300000005
 -13.7081244400000006  4.2738178900000001  8.1491083599999996
 -13.8486454800000001  2.8197726500000000  0.0687407900000000
 -13.3276978300000000  0.6679204500000000 14.5466327999999994
 -4.1982977400000001  2.7022224499999998  0.7278144300000000
 -4.7593185399999998  1.1570539099999999 14.5344856500000006
 -4.6918062500000000 -0.4244992200000000  7.6858720900000002
 -4.5816078899999999 -2.6389571300000001  0.3338966900000000
 -15.5745269999999998 13.5208287499999997 14.4702430000000000
 -14.5476439699999993 13.0242347800000005  7.3805811099999996
 -15.4734512399999993 10.8630738099999995 -0.3916768800000000
 -15.6546652900000005  8.8996078300000008 15.4992233099999996
 -15.5293291599999996  6.7864658100000002  7.8042305000000001
 -14.9926807899999996  5.7224106299999997  0.3241100800000000
 -14.9938543400000004  3.1134277500000000 14.6076381400000006
 -14.9528624299999997  1.1829024500000000  6.8672203700000001
 -6.4048340799999997  4.1718174499999998 14.9722392800000002
 -5.7945099500000001  2.1058988599999999  7.1948370500000003
 -6.0168765200000003 -0.0807441900000000  0.3150527200000000
 -6.0150343499999996 -1.9828235200000000 14.5932900700000001
 -16.0059955100000018 15.1150816799999994  7.1456185300000001
 -17.0806390999999991 13.0471726300000004  0.0239628900000000
 -17.2585893699999993 11.4546967199999994 14.7055794700000000
 -16.6425032699999988  9.8332656299999996  7.4867948699999998
 -16.2862670200000004  8.0143510700000000  0.3213047300000000
 -16.2404227600000013  6.0945314699999997 14.4188091200000006
 -16.5544052499999985  3.6146021099999999  7.5255325500000003
 -17.2949765999999983  2.8263054500000000 -0.4461525800000000
 -7.6098596100000000  4.3898693199999999  7.8802707900000000
 -7.6350589199999996  3.1866499600000000 -0.0507089800000000
 -8.0627002500000007  1.3817892199999999 14.6438717700000005
 -7.3299986099999996 -0.5430291600000000  7.5638738200000004
 -7.4875931500000004 -2.4849630800000000  0.3381679100000000
 -18.3482822900000002 14.4552554400000002 14.3272207700000003
 -17.5669085500000008 12.4876753399999991  7.0534382700000000
 -18.2116785099999987 10.6254102199999991  0.1642577800000000
 -18.3161420399999990  8.3651560600000003 15.2505960799999993
 -18.0789158900000011  6.5177351400000001  7.3701219800000004
 -18.0230001100000017  5.5009328799999997 -0.1573853300000000
 -17.8845275199999989  3.6612593100000002 15.0199660599999998
 -9.5657842500000001  5.3990577000000002 -0.3401770000000000
 -9.6930459399999993  3.8017759999999998 14.4197147099999992
 -9.4619355299999999  1.4897560000000001  7.6398486800000001
 -9.0353846499999992  0.3049939600000000 -0.3390287000000000
 -9.3132617900000003 -1.6011692200000001 14.5246541400000009
 -8.8575513400000006 -3.5777939700000001  7.3915723900000003
 -19.6986117900000011 13.2711665599999993  0.2203462900000000
 -19.4355041600000007 11.3463700500000009 14.8107404200000001
 -19.4940225200000015  9.4227814599999995  6.9454721800000003
 -19.3356144900000011  8.0358048800000006  0.0115952700000000
 -19.1604987800000011  6.0716127699999998 15.3505569299999998
 -19.1663374200000014  3.4149958400000000  7.2707975100000004
 -9.9000670300000007 -2.0295778599999998 -0.5127263600000000
 -10.2685404299999998 -4.4137769000000002 14.6736962999999996
 -20.4801646599999998 11.6405815900000000  7.2760376000000004
 -21.0283579200000013 10.3721683200000001  0.2029247200000000
 -21.0164067800000005  8.3290667700000007 14.8863813000000000
 -21.3955415500000008  6.6386265900000003  6.8452702199999997
 -20.8887001699999999  4.7062782299999997 -0.2446266100000000
 -12.5048541499999999 -1.6581489899999999 14.6205224400000002
 -11.8744713999999991 -4.3429303299999997  6.8435599800000002
 -11.2804243500000005 -4.5637751599999996 -0.5794957500000000
 -22.1933231599999985 10.8645489800000004 14.5407048799999998
 -22.4521571800000004  9.0991551499999996  7.0742780300000003
 -22.2836960399999988  7.8958106700000004 -0.1986735700000000
 -22.2490686400000008  6.2938979300000000 14.8327583199999999
 -12.8871392599999997 -1.3501398700000000  6.2606010400000001
 -13.5380151600000005 -2.7849064200000000 -0.9933564499999999
 -13.3657453700000008 -4.5633691000000001 14.4038437600000009
 -13.2076636700000005 -6.8524106800000002  6.8504832200000001
 -23.9332155299999982 10.9288680300000003 -0.2784459800000000
 -23.6345452300000005  8.5146870999999997 14.8189448600000002
 -24.2413829400000012  6.8950567300000003  7.0742380000000002
 -15.6131462299999999  0.5148303800000000  0.1470346400000000
 -15.5537888199999994 -1.6635198300000000 14.5725170700000000
 -14.3774101900000009 -4.2559281200000001  6.7256099300000001
 -14.6840988400000008 -5.2069516000000000 -0.5565394299999999
 -14.8241484200000002 -7.1328175900000002 14.0378804200000005
 -25.5132602700000000  9.9237642699999995  7.5433434200000002
 -25.1468530299999991  8.1250538900000002 -0.3046496300000000
 -16.6248544000000003  0.7202730800000000 14.6037016299999998
 -16.2694641900000008 -1.3080179599999999  7.2799964099999999
 -16.3439087799999996 -3.0326148499999999 -0.5191354900000000
 -16.5970693099999984 -4.5774987200000004 14.3515294200000003
 -16.3146198399999989 -6.2200047999999999  7.2856773700000002
 -16.6592367800000005 -7.9382407400000004 -0.2726641900000000
 -27.4539496400000012  9.3153606399999997 14.4599334099999997
 -27.3231682300000003  7.0222138999999997  7.4996632800000000
 -8.4379216899999996 15.8189224100000008 -0.1485018600000000
 -8.8720067599999997 13.5998970900000007 14.7912023900000005
 -9.0828567800000002 12.0529132299999997  7.5213400100000003
 -8.7067809900000004 10.7446345599999997  0.2774682900000000
 -9.5886042899999993  8.9134570699999998 15.2090047100000003
 -9.5433143999999999  6.6642021500000004  7.0202750900000002
 -17.7444448299999991 -8.6583279300000004  7.2480648499999996
 -1.2636035500000000  2.1826825699999999  0.0912813700000000
 -3.4285880000000000  3.6705307199999999 14.6878597000000006
 -4.5836912800000000  4.4733746800000000  7.4190312900000004
 -6.4130319199999999  5.5892179700000000  0.2903128100000000
 -7.3626095899999999  6.6198626400000000 14.8143281200000008
 -25.5663684400000015  6.3360096900000000 14.3695224699999997
 -25.1231724800000009  3.9809966700000001  7.3211731400000000
 -7.2264573399999996 13.3303749699999994  0.1130733900000000
 -7.7077188400000001 11.0228371099999993 15.1381482900000002
 -7.7248959800000003  9.7105143199999997  7.3400948699999997
 -8.1527027800000003  7.2999055700000000  0.6817821600000000
 -18.3017929099999996 -7.1275717600000004 14.2912292300000008
 -19.0972630800000012 -6.1406628100000002  6.8438863300000001
 -3.3719404800000001  5.2134999000000004  0.6683209800000000
 -4.6121900599999996  6.2002591300000001 15.0665666300000005
 -6.4652136599999999  6.7230849099999999  7.7013038700000003
 -23.6084521400000007  5.1234103700000002  0.1187176000000000
 -24.4716279700000001  3.5896660699999998 14.3982589500000007
 -23.9055150400000009  1.2805791500000001  7.9602133999999998
 -5.9417128300000002  9.9669374299999998 -0.1401194500000000
 -5.8573180899999997  9.2271498500000000 14.9823769200000001
 -17.8886425299999985 -5.5794522100000004 -0.9241839800000000
 -19.9619262800000001 -4.3375097100000000 14.4399597600000007
 -21.3279321800000012 -3.4227923499999999  7.1695545699999998
 -4.9746896700000001  7.4186398100000002  0.0816145500000000
 -22.3401829200000002  4.0800696800000003  7.5397445599999999
 -22.4356953099999998  2.2810882200000000  0.2030690100000000
 -22.4659832100000010  0.7478321600000000 14.9158142399999996
 -23.2081416800000007 -0.8281843300000000  7.3473024000000002
 -17.6322091699999994 -3.8043122999999999  7.4429641200000001
 -19.4100383500000007 -2.6420919600000001 -0.0062473600000000
 -21.0849237299999999 -2.1120013200000001 14.4655743000000001
 -20.9913374499999996  3.2873447300000000 15.2350216300000003
 -21.0307117400000010  1.5230931000000001  7.6937029299999997
 -21.3143895800000003 -0.2530010200000000 -0.2110986000000000
 -18.6414806199999994 -2.2226234200000001 14.5457434299999999
 -19.8341945099999997 -1.0890195899999999  7.2892044399999998
 -19.8741223100000006  2.3239583200000000 -0.3934136000000000
 -19.7723672000000015  0.8832239300000000 14.8406949800000003
 -17.9678893299999984 -0.9446920700000000  0.1661897500000000
 -17.6773768199999992  0.7385610800000000  7.8621593100000000
 -0.0544315100000000 -0.1505236800000000 16.8929289900000015
 -10.5847182100000001 16.4275369100000006 10.0527107400000002
 -10.1535820999999995 14.9040611399999996  2.9087767300000000
 -11.0998044100000008 12.9655257099999996 17.6015490700000008
 -10.2759577600000007 11.3407523399999999  9.8496352900000002
 -10.7810947499999994  9.3678808100000008  2.7126836000000001
 -10.4858815799999991  7.7604638799999996 17.3637145599999982
 -10.2610828099999996  6.5164289200000001  9.7794214099999994
 -10.5940585699999996  4.7227341599999999  2.6931384100000000
 -10.6835152600000001  2.6692276100000001 16.7330190999999999
 -10.7427359899999999  0.7733234800000000 10.0458021599999991
 -10.3470520900000000 -0.7146193600000000  1.9508926300000000
 -1.4607663300000000  0.5051942600000000 10.0080432699999999
 -1.3710743200000000 -0.6810217700000000  2.1807792500000001
 -12.3656298299999996 15.2869327599999991 16.9717124999999989
 -11.8620576700000004 13.9706499399999995  9.9986940700000009
 -12.3192707400000003 11.9677443100000005  2.6856207300000001
 -12.3074585699999997 10.6963532499999996 17.4690732900000008
 -12.6367549799999992  9.3049910199999992  9.9173202099999997
 -12.7896553100000006  7.6943392700000004  3.2307583599999998
 -12.2660602000000001  4.7687903100000000 17.5570823500000017
 -11.9893789000000002  3.4846672100000000  9.8068753599999994
 -11.9950081799999992  1.8317156600000000  2.2086264799999999
 -11.9511175699999992  0.0052623400000000 17.4153061899999990
 -2.4206514299999999  1.7261798600000000  2.4554784600000001
 -2.9787384000000001  0.7774643800000000 17.3150333299999986
 -2.8661745900000000 -1.5882050599999999  9.4613331100000000
 -13.2504681800000004 14.3991767500000005  2.5705634200000000
 -14.2157674299999996 12.8694115700000005 17.9086475599999986
 -13.6210129999999996 11.8977960800000009  9.7025059799999998
 -14.2239210400000005 10.5078193199999994  2.5056726999999999
 -13.7443272499999996  7.9419810300000000 17.3197250300000007
 -13.5473542400000007  6.5712030199999996 10.0371709899999999
 -13.4234901700000009  4.5721274799999998  2.7819912100000002
 -13.4357324899999995  2.3600871400000001 17.5983592999999985
 -13.1210871600000001  0.1374783900000000  9.4578639800000008
 -5.0345454099999998  2.6069338800000001 17.2010663299999997
 -4.5645588500000001  1.4078689200000001  9.3876613199999994
 -4.4196726000000002 -1.0122125300000000  2.3624403400000000
 -15.4187250900000006 15.1176327300000004 17.2732323299999990
 -15.0566782499999992 14.4941636200000001  9.6838439699999999
 -15.7436810800000000 11.9588071800000009  2.4303394599999999
 -15.6128253000000008 10.6925695300000001 17.5063799799999984
 -15.3788947300000007  9.3711639699999996 10.3032471500000007
 -14.9903805699999992  7.3342080200000002  2.8851542299999999
 -15.3216250400000007  4.5924465799999998 17.5901655099999985
 -14.7102656700000001  3.7252692100000000  9.5554116300000000
 -15.1348115700000001  1.6863233600000000  2.2661502800000002
 -5.9689796700000004  3.8530553200000002 10.3557823700000000
 -5.9885295999999997  1.6434553300000001  3.0634021800000002
 -6.5165395200000003 -0.1662869300000000 16.7520206999999992
 -5.8760495500000003 -1.2616175900000000  9.9176779199999991
 -16.6335561500000004 15.1050551599999991  2.5859483499999998
 -17.0317735299999988 13.1098917000000004 17.2897166999999996
 -16.7196187300000005 11.4993247600000004  9.8231135999999992
 -17.3869048600000013  9.4481001500000001  2.6986205499999998
 -16.4863994900000002  7.7552813599999997 17.5755136800000002
 -16.7584204200000002  6.0935292099999998 10.0123711800000006
 -15.9046165700000000  4.7957759800000002  1.8683507800000001
 -16.2108708700000008  2.3649624700000000 17.1787086100000010
 -8.0559045299999994  4.6291773000000003  2.7452623400000000
 -7.3328500099999996  2.5625445099999999 17.3450480700000007
 -7.7207568599999998  0.9555763900000001  9.6568155699999991
 -7.7094785699999999 -0.4139562100000000  2.2620567500000002
 -8.0603510600000003 -2.4713302900000000 17.1338084399999993
 -18.0055841900000004 14.2344197799999996  9.8539028599999998
 -18.6703921299999998 12.2652111599999998  2.8542582699999999
 -18.0254613500000005 10.0698222299999998 17.9959060499999985
 -18.1178546199999992  8.8120755699999993  9.8337325000000000
 -17.0949005700000001  6.7482418600000003  2.8298294500000001
 -17.9711948399999990  5.3567560500000004 17.1772184500000016
 -17.9373387999999991  3.6711991600000000 10.0155764900000008
 -8.7862280800000008  5.3674597700000000 17.3306563500000017
 -9.3666510200000008  3.5304085000000001 10.3633851999999997
 -8.7703850299999999  2.0665382299999999  2.8659983000000002
 -8.9053814700000000 -0.1455123100000000 16.9480827800000000
 -9.0858481500000003 -1.8520757200000000  9.6540367800000002
 -9.1111104899999997 -3.4394804600000000  2.4092328200000002
 -19.2882762600000000 12.9944316299999993 17.4810249000000013
 -19.3162300100000017 11.5427795799999995  9.8704915500000006
 -19.9251643099999995  9.4081880499999997  3.1423126300000002
 -19.6038793300000016  7.5817769500000001 17.5552630799999996
 -20.0413715500000009  5.8588424000000003  9.4804817400000001
 -18.4453895800000005  3.8606649900000001  2.5115970299999999
 -10.7268959400000004 -2.5855441500000000 17.1230679200000004
 -10.2456350300000008 -4.4449553599999998  9.6441727099999994
 -21.1398084799999992 12.5443858099999996  2.1685634100000000
 -20.6275678999999990 10.2546046900000007 17.0496213899999987
 -20.8488909800000002  8.9072278100000002  9.4638278699999994
 -20.4904514599999992  6.6585694599999998  2.0891812800000000
 -21.1703852700000006  5.0326671000000003 17.3640600999999997
 -12.1349610000000006 -2.2171301899999998  9.5103135400000003
 -12.1618109299999997 -3.3074661900000000  1.4505298099999999
 -11.5632588399999996 -5.8365050700000003 16.9900937700000014
 -22.4905086599999997 11.8759928000000006  9.6148737799999999
 -21.9053792700000010  9.4439375999999999  2.2566402499999998
 -22.4436283299999992  7.8619103199999998 16.9311359099999983
 -22.9683506400000006  6.0887163500000003  9.9959336099999998
 -13.5362348099999998 -0.6286648000000000  1.6818889200000000
 -13.6735959600000001 -3.1671298000000001 16.7793874500000015
 -13.2858187500000007 -4.4012855799999997  9.2288315000000001
 -13.2528159300000006 -6.3645534899999996  2.0144998900000002
 -24.3672502000000009 10.1488490700000007 16.5298199299999986
 -23.9642818400000017  8.2954789200000008  9.7179337700000001
 -23.7164420900000010  6.6511591900000004  2.2516719799999998
 -14.9063353799999998 -0.2830155600000000 17.2383574800000012
 -14.6876188699999997 -1.9005466600000001  9.4698613799999993
 -14.6726697599999998 -3.5419158899999998  1.7471976499999999
 -15.6234903099999993 -5.2873473100000004 16.3217614200000014
 -14.6749148999999992 -6.8598469700000004  9.9402741399999996
 -25.0241053300000011  9.0584979200000006  2.2291566100000000
 -25.2333122199999984  8.2578659999999999 16.6248202899999988
 -16.5120903299999995  1.0261552400000000  9.7275950600000005
 -16.8108269399999983 -1.1095550500000000  1.9325819000000000
 -16.5491719900000014 -2.1093447699999999 16.7843387200000009
 -15.7580434700000005 -4.4502987400000000 10.1267422899999993
 -16.2537501700000000 -6.1553953500000000  1.9949894500000001
 -16.6318365999999997 -7.8974645199999998 16.5622589200000014
 -26.7304586899999990  8.4825787699999999  9.9822805999999993
 -27.2075558400000013  6.9111151499999997  2.6502847200000001
 -8.9772309499999992 15.9891836000000005 17.1373263000000016
 -8.7572426799999992 13.8157795300000004  9.8713850999999995
 -9.0318534300000000 11.7681105000000006  2.6235884199999999
 -9.9826029500000004 10.7146033799999998 17.3804876399999984
 -9.0075731999999995  8.8212987700000003  9.0975228500000007
 -9.1616884299999999  6.7646044200000004  2.6184150200000000
 -17.1864312699999999 -9.0434126100000007  2.3406679499999998
 -1.3363379300000000  3.0888042599999999 17.0130120200000015
 -3.0228417599999999  3.4825618199999999  9.8349662799999997
 -4.3868758699999999  4.3616598299999998  2.9968629400000002
 -6.5397890299999997  5.7590029899999999 17.7061940500000006
 -7.2255846799999999  6.2053654900000002 10.2784772100000001
 -25.5915828800000007  5.3799444599999999  9.4904884599999999
 -25.1427273299999996  4.5360017399999997  2.6118393700000002
 -7.8019874600000003 13.4471757200000006 17.0651913600000000
 -7.5528753699999998 11.4643733200000000 10.3635253600000006
 -7.3049948599999999  9.4190705900000005  2.7649155500000000
 -7.6557593300000004  8.2813698999999996 17.7412608499999997
 -17.8273620999999984 -7.0938163400000001  9.4753585999999999
 -18.9733860900000018 -6.3755474100000002  2.1343478999999999
 -2.5659639799999998  4.8332211200000001 17.0368584200000015
 -3.9703786299999999  5.9059556400000002  9.7317906300000008
 -6.1300130299999998  7.1982788600000003  2.6113590300000000
 -24.3364701500000002  5.2729953199999997 16.8137368900000013
 -23.6525216299999990  3.3176575499999998 10.2283095900000003
 -23.7168900200000010  1.9978523399999999  2.5612983800000002
 -24.4296651999999987  0.2960824200000000 17.5685019500000017
 -6.1029397300000001  8.5459140900000001 10.1164922599999993
 -18.1925390299999989 -5.0539849999999999 16.6568061999999983
 -19.5763162599999987 -4.4968775499999998  9.6256932499999994
 -20.6274490200000002 -3.3045391700000000  2.6507057600000001
 -22.6180588699999987 -2.6302607800000000 17.0392451499999993
 -22.0537398700000011  4.1124055100000003  2.1931035099999998
 -23.0250625699999993  2.6321259600000002 16.9728855199999984
 -22.8389177500000002  0.7554730500000000 10.0741254199999997
 -22.5800614199999998 -0.8959353000000000  2.3950289699999998
 -18.0994549900000017 -3.6470192699999999  1.5573887700000000
 -20.0818857999999985 -2.9603687999999999 16.8765898000000014
 -21.1295397399999985 -1.6669358999999999  9.3482973499999993
 -21.1286622800000004  3.2649679300000001 10.0194834600000000
 -20.5269318399999996  1.4186477200000001  2.6336389599999999
 -21.5877300900000009  0.1360149400000000 17.2046282400000017
 -18.0272975500000001 -1.9262960200000001  9.5514844599999993
 -19.5868502199999988 -1.2483504200000000  2.4083403500000000
 -19.2970531600000008  2.5517115100000001 17.3816699600000000
 -19.3601691799999998  0.8952675600000000 10.0508533100000008
 -18.4523191299999993 -0.2270316900000000 16.8551974999999992
 -17.3821680299999990  1.5652275700000000  1.9538858200000000
 -0.0258607200000000 -0.0853198100000000  4.7835568200000003
 -10.6457996399999999 16.2737537100000011 19.7210816700000002
 -10.1644344199999992 14.2903860100000006 12.6250926700000008
 -10.2247338899999995 12.8460091599999995  5.1237172500000003
 -10.5609062999999992 10.9940543500000008 20.0916311400000005
 -11.0126486700000008  9.1567510900000002 12.1653724099999998
 -10.9135888399999992  7.6756811000000003  5.5285585499999996
 -10.4925772500000001  6.4018877099999996 19.7898898299999999
 -10.5968597599999992  4.3854838200000001 12.5839655399999995
 -10.2458524000000004  2.8581406999999999  5.2708038200000003
 -10.8988634500000003  0.9474257699999999 19.3111583499999995
 -11.0488345199999998 -0.5305187500000000 11.8790180999999997
 -1.6664895799999999  0.5261520900000000 19.2107989900000007
 -1.7284392399999999 -1.2029014700000000 12.3605513400000007
 -11.5528874399999992 15.7237767999999996  5.1376230300000003
 -12.1067918500000005 13.3103548800000002 19.7709402200000000
 -12.6017398400000005 11.9992920200000004 12.7533550800000004
 -12.6475668100000007 10.6989767199999992  4.9173010899999996
 -11.5141842899999993  8.5750614600000006 19.8740389800000017
 -12.4346764699999994  7.0904837100000000 12.1695826700000005
 -12.2771315500000000  5.6408865199999996  5.4049163399999998
 -11.9477161600000006  3.8060565700000000 20.1549581199999999
 -12.4614752800000002  1.5288568100000000 12.2755574599999999
 -11.8248683900000007  0.2225241500000000  4.0103777599999999
 -3.1922780999999998  1.8569421600000000 12.5662034299999998
 -3.1575323499999999 -0.1651053400000000  5.0207493500000000
 -13.3465725000000006 16.3309127399999987 19.8359232399999996
 -13.5489836700000001 14.7919469899999996 12.7221036900000009
 -13.1688370500000005 13.6808463699999994  4.7993972300000003
 -13.5618236499999991 11.0385291599999995 19.9755927500000006
 -13.9225991199999992  9.8894416399999994 12.5601499600000004
 -13.6393534400000007  8.8276530900000001  5.2775450399999997
 -13.1948612500000007  6.5445789599999999 19.5343759299999995
 -13.8549960500000005  4.9897526799999996 12.6177264000000005
 -13.4274224400000008  2.7545241699999998  5.5082602700000001
 -14.0018088600000006  0.9859173700000000 19.8703984300000016
 -3.9988033900000000  2.8094287900000001  5.0122914800000000
 -4.9760380099999999  0.7152110000000000 20.0384643099999984
 -4.3819171700000004 -0.8275717500000001 12.0833255000000008
 -4.5309414300000004 -2.5902788000000001  5.0555639599999997
 -15.4816379099999999 13.6286508000000008 19.8834746399999993
 -14.8531524699999995 12.1441305499999999 12.1106394200000000
 -15.3457737000000005 10.6323672800000004  5.1148123999999999
 -15.2268787799999998  8.7294870400000004 19.8279096599999995
 -15.5594820100000000  7.4641366500000004 12.3725395500000008
 -14.7119225500000006  5.6968341000000002  5.4217468100000001
 -14.8600411000000001  3.2451087400000000 20.1026888300000017
 -14.9152272999999997  2.0761241699999999 11.9964627799999999
 -5.7833160599999998  3.7015624499999999 19.8380333899999997
 -5.9199036600000001  1.4788835199999999 12.4643061100000008
 -6.1373981200000003  0.0568369800000000  5.2795231800000000
 -6.2936810899999998 -1.6342168300000000 19.2419990100000007
 -16.2352835099999986 15.1505655800000003 12.2639208800000006
 -16.1505124699999989 12.8761193200000008  4.8672956999999997
 -16.8742924800000011 11.5321509300000002 19.8726848400000016
 -17.3122030500000008  9.5395388699999994 12.7528454100000008
 -16.6299804000000009  8.0689156000000004  5.4149994100000001
 -16.4375670700000001  5.8553794600000000 19.8464406199999992
 -16.3385527800000006  4.6134044500000000 12.4633509100000008
 -16.7159675300000004  3.0970382700000001  5.0470486200000000
 -7.5085157599999999  5.0259866600000001 12.4863368200000000
 -7.6510368900000003  2.6451534500000000  5.2661455000000004
 -7.7959791599999999  1.0794043300000000 19.4153821099999995
 -8.0131480300000000 -0.4491405500000000 11.9688572799999999
 -8.0618870099999995 -2.5886652899999998  4.9332137899999999
 -17.8985549299999995 14.0568200399999998 19.6120248900000007
 -17.5809305999999985 12.7859324300000008 12.0806690299999993
 -17.9742591199999993 10.4899553900000004  5.2728984299999997
 -17.9897449599999995  8.5238655300000001 19.9778523700000008
 -18.4548938199999988  6.7440509300000002 12.4405310300000007
 -17.4676538299999997  5.0212879499999996  4.5888188500000000
 -18.0240432800000008  3.6039379800000000 19.3610252500000009
 -9.0708273399999992  5.0699736399999997  5.4595576899999996
 -9.3022322099999997  3.5732827100000000 19.4792045000000016
 -9.5390477899999997  2.1076422099999998 12.1967774999999996
 -9.4366117299999992 -0.0906645000000000  5.2422442800000004
 -8.9928429699999999 -1.3133686200000001 19.4353232700000014
 -8.9408629000000008 -3.1271574400000000 11.7924379100000003
 -19.3443822400000016 13.1263911300000000  4.7429438800000003
 -19.4972393500000010 11.2013832000000004 19.7017448600000016
 -19.8825593500000011  9.9633152799999998 12.2011813399999998
 -19.4623774599999990  7.9635198699999998  4.7517569399999999
 -19.9436851600000011  5.8396613000000004 19.6474971499999995
 -19.3386409599999993  4.8941645200000004 12.2984475500000006
 -10.8298527100000008 -2.4684402099999998  4.5157950900000001
 -10.1384040800000008 -4.3740695100000000 19.3642280800000002
 -20.4348113799999993 12.8967433000000007 12.3182440500000006
 -21.4718800899999991 10.5284798399999993  4.8275542800000002
 -20.6566975799999994  8.5782811300000006 19.6178110299999986
 -20.9058849500000008  7.2025409800000002 11.9986981299999993
 -20.3530700799999984  4.4766627300000001  4.6290927200000000
 -12.0717797299999994 -1.8424458399999999 19.0005371799999985
 -11.8710465700000007 -3.1896704800000002 12.7626377699999995
 -12.1941751099999998 -5.1008293399999998  4.4305741100000002
 -22.8458342300000012 11.2659673500000004 19.1270636100000004
 -22.3641480699999988 10.3006843499999992 11.5682578399999993
 -22.1980251399999986  7.3094920099999996  4.3058925400000003
 -22.5784917900000011  6.3005572499999998 19.3958598199999983
 -14.4980523500000000 -1.0986039900000000 11.9097319899999992
 -13.5817021499999999 -2.3783175999999999  3.7540848400000000
 -13.4426916599999995 -4.2922080300000003 18.9769591200000001
 -13.1099755200000008 -5.4758163000000000 11.7617882100000006
 -24.1208016500000006  9.9172052199999996  4.3494800400000004
 -24.1140353599999990  8.0823053799999993 18.9412217900000002
 -23.8961794900000015  6.9779550199999996 12.3534384100000008
 -15.3417013400000002  0.1836991200000000  4.4802382700000001
 -15.2333620100000005 -1.6742369500000001 19.2635736900000012
 -14.9244241199999994 -3.4604183399999999 12.4964651199999999
 -14.4319799399999997 -5.8388013100000000  4.5639259900000004
 -15.1319902899999992 -6.7879717299999998 19.3344541999999997
 -25.0885759399999984  9.2566299000000001 12.4143983400000000
 -25.5672732600000003  7.4306249199999996  5.2760053400000002
 -16.7959040100000010  0.8455327400000000 19.8239325000000015
 -16.6730691899999997 -1.0064929600000001 12.0617591500000003
 -15.7798032300000006 -2.9462741299999999  4.8350652900000002
 -15.9719692999999996 -4.5055371099999997 18.7090003699999983
 -15.8029498499999992 -6.2794529499999996 12.4278249899999995
 -16.1172086800000010 -7.9196427500000004  4.3583738199999997
 -26.7830298800000008  8.5747379299999995 18.8779242799999984
 -27.2261103700000007  6.6722595699999996 12.2717135099999997
 -8.8751490200000003 15.2766960100000002  5.0891421599999997
 -8.9882587899999997 13.7753589900000009 19.5786552900000004
 -9.3500338599999999 11.0330710399999994 12.2531965899999999
 -9.0697177500000006 10.0415897899999997  4.8712121200000000
 -8.6443455000000000  8.5012356199999992 20.1725362600000011
 -8.7599539400000008  7.3775678600000001 12.1246764599999999
 -17.6860406700000006 -8.7778381900000007 12.0560844300000003
 -0.5619546800000000  2.2955848799999998  4.7185558099999998
 -3.0559430299999999  2.8493142900000001 20.0611490299999993
 -4.4052947900000001  3.9950075300000001 12.3644434099999998
 -6.2114923800000001  5.2027944200000000  5.1126189799999997
 -7.4449383400000002  6.1120747499999997 20.0739557899999994
 -25.5823789099999992  5.5489475300000004 19.2285092800000008
 -25.5942984699999982  3.8555212999999999 12.7636631499999993
 -7.3943438300000004 12.7128807500000001  4.9007880500000001
 -7.6481979800000000 11.5722058499999996 19.7466077099999993
 -7.5955950600000000  9.5039812900000005 12.4321699900000002
 -7.7809353999999997  7.8269717700000001  5.5052688200000004
 -17.6957228700000009 -7.8064870500000003 18.8913380699999998
 -19.0664218000000005 -6.5087954400000001 12.5558697800000001
 -2.9991165899999999  5.2856975799999999  4.9093345499999996
 -4.0988992900000003  6.1379580200000001 19.5256782300000005
 -5.6369288900000001  7.0437130999999997 12.3446691299999998
 -23.6315825799999999  4.8553116599999999  4.9078903299999999
 -24.1403191799999988  3.8161474300000000 19.4723120499999993
 -24.1677313900000001  1.5591892400000000 12.6920938799999998