Li                                      
   1.00000000000000     
    21.0527999999999977    0.0000000000000000    0.0000000000000000
     0.0000000000000000   21.0527999999999977    0.0000000000000000
     0.0000000000000000    0.0000000000000000   21.0527999999999977
   Li
   432
Direct
  0.0029716698016387  0.9856170490386091  0.9926748912258674
  0.9531907109743116  0.0715418272153840  0.0721337484800131
  0.8511096276979799  0.1514917227162158  0.1877104418414675
  0.7531121242780046  0.2414552620079036  0.2680182051793594
  0.6474343398502782  0.3178992547309605  0.3363524443304442
  0.5856519907090743  0.4267873731760119  0.4294334392574868
  0.5027303090325290  0.4876934156026778  0.5172308234534100
  0.4207191090971278  0.5872836710556300  0.5872568427952558
  0.3178311697256433  0.6763801945584405  0.6781304596063222
  0.2421507272191832  0.7263928859819089  0.7386931415298648
  0.1760170742134051  0.8209771560077499  0.8169004835461351
  0.0910903048525640  0.9087067910206699  0.9016537866697050
  0.0717384485674089  0.9118156302249574  0.0789535225718225
  0.0048270054339596  0.9787206742096046  0.1754084335575286
  0.9553535249468013  0.0766433624031038  0.2313330559355506
  0.8267707331091358  0.1525587280551761  0.3226874871751022
  0.7533735726364199  0.2373725817943466  0.4136808073035425
  0.6602558225034230  0.3165019911840687  0.4867153286023722
  0.5861167564409513  0.4034451246390063  0.5780932294041676
  0.5148263708390317  0.4762713729290198  0.6629082910586703
  0.4280099506953974  0.5735936322009394  0.7423761960404320
  0.3376645852333198  0.6735516928864556  0.8355960789063701
  0.2248054624563025  0.7366503163474718  0.9060018301603563
  0.1700049684602547  0.8320817363961055  0.0028139173886643
  0.1682981498898002  0.8268921972374201  0.1632675211848280
  0.0683902782527710  0.9045178641320888  0.2140082155342782
  0.0188871888774855  0.9954798772609834  0.3420632091693250
  0.9395637696648436  0.1164653029525766  0.4064613281843776
  0.8470293690150470  0.1610238619091078  0.5005114141586873
  0.7399724663702685  0.2331429021317817  0.5957552335081289
  0.6526219733242158  0.3023532389990891  0.6596975000949996
  0.5846003063725504  0.3935947246921998  0.7430397073073394
  0.4900285330217358  0.4918796008131920  0.8393013295143632
  0.4397345056239530  0.5838995687034512  0.9224225019949870
  0.3243851967434281  0.6752451650136777  0.9791088415792686
  0.2567472426470587  0.7278471590477267  0.0685932992286027
  0.2468544032147761  0.7431291885164910  0.2388210418566672
  0.1346897913816676  0.8163753505471973  0.3367595417236657
  0.0854067207212310  0.8997865167578638  0.4193060400516799
  0.0134708618331061  0.9904938302743602  0.4957954671112645
  0.9232937039253670  0.0778074422404629  0.5934344524243826
  0.8379313069995433  0.1552795713634296  0.6594073135164891
  0.7464319126196983  0.2470710043319642  0.7535889268885825
  0.6466526001292010  0.2936292592909240  0.8168564171986645
  0.5891066100471178  0.3979401889534913  0.9217064865481106
  0.4915714907280773  0.5013204072617441  0.9964353102675148
  0.4193056700296367  0.5926658786479706  0.0963801793585617
  0.3350317496960002  0.6823751144740839  0.1669771484078098
  0.3440265475376165  0.6796809678522564  0.3396492048563644
  0.2314693974198221  0.7475984021127857  0.4168366497568030
  0.1804203113125098  0.8352803004825944  0.4981117290811667
  0.0966760107919171  0.9339561782755723  0.5716026922784607
  0.0069572318171467  0.0198827923126643  0.6431127944976467
  0.9313822778917782  0.0995596723476240  0.7366832240842101
  0.8409607083143342  0.1699828089375259  0.8415057797537600
  0.7617996290279692  0.2443270040089658  0.9257653832269312
  0.6778630771203851  0.3212681106551116  0.0134750864493114
  0.5866570931182551  0.4222540255927925  0.0927671008131910
  0.4791173240614057  0.5052990818323480  0.1378155694254417
  0.4090560685514504  0.5909029839261279  0.2534071334929351
  0.4024195855183166  0.5549846856475114  0.4238842543509662
  0.3267684445774464  0.6430984918870664  0.4738418072655435
  0.2521868772799820  0.7375851235940090  0.5785994589793262
  0.1765936341009251  0.8329138223894219  0.6557279240766078
  0.0905337503799970  0.9270168162904682  0.7532871019531839
  0.9988145771583845  0.0177185623765013  0.8315907313991460
  0.9483985621865045  0.0890266187870523  0.9083009827671376
  0.8462795632884905  0.1718195802933593  0.9773368421302635
  0.7644590377527010  0.2369526780285724  0.0794121850775227
  0.6612944320945431  0.3197334136076933  0.1537525754293938
  0.5684785938212471  0.4232434873270989  0.2372300064599457
  0.4958955160358727  0.5163006702196355  0.3455842804757552
  0.0798749149756830  0.0818042113163102  0.9275869732292108
  0.0168202120383043  0.1696987730848178  0.0150781155000743
  0.9054405931752569  0.2211671487878064  0.0829093085005326
  0.8382841261019891  0.3302651476288219  0.1743247140522897
  0.7513675083599338  0.3944285795713611  0.2487820109439127
  0.6593520885582933  0.5026813454742367  0.3369904416514657
  0.5874864070337438  0.5811917664158699  0.4301753282223757
  0.4856877745478059  0.6612395952082366  0.5053615561825495
  0.3877124985750129  0.7498791832915330  0.5763144869091050
  0.3120367499809973  0.8361383739930091  0.6806974069957477
  0.2395182232292115  0.9429795096139202  0.7513813307493535
  0.1328130072959439  0.0095005761703888  0.8418542279411767
  0.1687683206034336  0.9952330179358597  0.0237557788037677
  0.0888165498176008  0.0880323339413280  0.0958222212722291
  0.0120425867343030  0.1757074189656507  0.1616137164652685
  0.9175598656710733  0.2509797813117487  0.2667649386304944
  0.8200025858793154  0.3340867566309456  0.3316979157166742
  0.7405963425292583  0.4000817981456137  0.4113996304529550
  0.6688777412030689  0.5096609367875047  0.5083695636684880
  0.5586896389078859  0.5791202296131601  0.5998438473742240
  0.4981702880376986  0.6712253861719120  0.6797483218384244
  0.4273139853131198  0.7803151006041986  0.7388674285605745
  0.3182044516643856  0.8452192629958972  0.8163892536859692
  0.2180495501785984  0.9130492362061133  0.9166761243160053
  0.2533731313649525  0.9128811013261924  0.0875658031235744
  0.1705222355221139  0.9849640689124470  0.1656177463330266
  0.0771737963596308  0.0777742946306432  0.2490657997986006
  0.0183018201854352  0.1798916809165547  0.3276186630756968
  0.8948964864531064  0.2716486586107294  0.4121200633644904
  0.8111063145994848  0.3194942477960154  0.5170973186464494
  0.7467810158268762  0.4069622321021455  0.5734678807569509
  0.6626645562585480  0.4960873755509922  0.6538672893866817
  0.5919230192658489  0.5645859519873824  0.7422699550653604
  0.4921649638052870  0.6770076331889356  0.8312072151922791
  0.4125616834815347  0.7886027117533061  0.8997272101573159
  0.3166649191556488  0.8423266539367660  0.9740421145880802
  0.3367022367571053  0.8253844030247777  0.1596994053047567
  0.2441322351421178  0.8955258825429411  0.2467481821895419
  0.1654216788265686  0.9833765470626261  0.3100382785187747
  0.0841530129008987  0.0834599221956225  0.4127645643334859
  0.9915843821249410  0.1826538189694489  0.4940965282527756
  0.9149450111149093  0.2650020833333357  0.5595832972336225
  0.8366403053275562  0.3255437670998660  0.6601976364189071
  0.7275998570261422  0.3933446220930250  0.7359037652948786
  0.6563517907356768  0.4941410372966999  0.8163329580863348
  0.5865433880528954  0.5843347977466209  0.9115686493008042
  0.4947973129464955  0.6997385682664543  0.9888612213102306
  0.3811957692088441  0.7682746708276369  0.0801928864569064
  0.4213947888166913  0.7563314547233588  0.2347701849635229
  0.3149689471234254  0.8258784365975060  0.3414456732596136
  0.2408057612289127  0.9268015893372876  0.4199066442468435
  0.1614528898768839  0.0112758735180094  0.5150875313497494
  0.0785466622017026  0.1231984586373329  0.5912858926128592
  0.0041024899300837  0.2144644954590333  0.6445310167768667
  0.9268580212608271  0.2672455863353065  0.7511105040659700
  0.8424201184640552  0.3063153827519400  0.8190804634062943
  0.7380326559887536  0.4157631996693993  0.9058077671378655
  0.6628194335195303  0.5021506231950141  0.9885748237764105
  0.5631107235142139  0.6030457891586849  0.0520470645234852
  0.4829611652606758  0.6777185723514236  0.1360442720208255
  0.4875200315397450  0.6705571838425328  0.3225109529373782
  0.4185927748328027  0.7627932602789187  0.4452666334169351
  0.3145674133606917  0.8475978031425768  0.5024061754255982
  0.2599780623005046  0.9335955497606037  0.5757797437870522
  0.1744414880680978  0.0175981679396600  0.6531077220132246
  0.0857661436958495  0.0936270567335455  0.7497473884708938
  0.0086154511513925  0.1794880258207954  0.8262386713406329
  0.9293125883492905  0.2511182151542783  0.9369875113999058
  0.8365911517707829  0.3332660467966235  0.0089439623233005
  0.7365954067867477  0.4277550264097911  0.0806366649566783
  0.6621690573225436  0.5040885739664063  0.1838570969182243
  0.5507942154962748  0.5774799209606343  0.2259990072579399
  0.1886986068361480  0.1830921069881413  0.8477934422024589
  0.0748480401656764  0.2709428878818940  0.9258108066385446
  0.9928260715914305  0.3310736225110205  0.0256822869167053
  0.9138900440796505  0.4307621209530339  0.0603498161764691
  0.8359267560609496  0.4995514074137404  0.1844309650022780
  0.7498760578165360  0.5786704010867894  0.2548639083637312
  0.6419558799779637  0.6603401395538810  0.3284018258853934
  0.5878129431714569  0.7529595117989061  0.4213793804149546
  0.5060657575239418  0.8478331309849523  0.5159035657964708
  0.3999417768657878  0.9254300477846158  0.5862387254901975
  0.3380792056163529  0.0241747672518642  0.6713433372283006
  0.2122041239170116  0.0999249083257325  0.7440335095569210
  0.2450101506687972  0.0857459283325710  0.9333891268619823
  0.1751424333105334  0.1657977024433777  0.0140095113239127
  0.0962811065511460  0.2696274956300329  0.0761336468308258
  0.9676560110769117  0.3243237355601138  0.1437196448928404
  0.9000403860769097  0.3949867148312833  0.2517488215344272
  0.8208804800311569  0.4830841242020085  0.3395888223894232
  0.7413277735028103  0.5816959663322692  0.4354362930346554
  0.6485712503799945  0.6428273441062444  0.5070836653556796
  0.5775444078697376  0.7736374805251529  0.5883074607653143
  0.4683800430346565  0.8433079718612220  0.6515875816993457
  0.4210775516795877  0.9309054539063695  0.7726596946724413
  0.2983217154012792  0.0138297110123133  0.8191349934450542
  0.3288849625702994  0.9854314960480295  0.9897486158610747
  0.2548094994490029  0.0611315587475332  0.0792848081965332
  0.1720859401124812  0.1627341831015343  0.1510419131896938
  0.0885218108755126  0.2594976178940556  0.2340000327747376
  0.0001017218612276  0.3396460694064416  0.3306279112517103
  0.9119455478606184  0.4170479579913362  0.4115101064941484
  0.8406808377032959  0.4930339783781719  0.4907172504369939
  0.7470734158876695  0.5784796202880358  0.5889774994300012
  0.6446694491944100  0.6714173031615758  0.6645814741982079
  0.5619807222792232  0.7562870150288816  0.7580596063231511
  0.4993409399224831  0.8417278875018965  0.8469679315815455
  0.4014167825657395  0.9428341337019290  0.9207466845265273
  0.4204079428864560  0.9174072028423765  0.0832762881896940
  0.3570154359515101  0.9798822071173419  0.1694289928180552
  0.2575180854803136  0.0678037272951784  0.2500691898464780
  0.1811813625741010  0.1749985645614842  0.3180061322009422
  0.0884829101117219  0.2597394759841904  0.4032564893980819
  0.0149160315967478  0.3261069392194855  0.4912402336031292
  0.9016551969334259  0.4175040170428659  0.5769034684222518
  0.8117468232254126  0.4724680042559655  0.6611460922062591
  0.7262888447142402  0.5933951023141830  0.7368207012843868
  0.6422452034883719  0.6788724112707101  0.8405738381592940
  0.5881342885506911  0.7663089598533190  0.9197483028385776
  0.5088651253039984  0.8311311521507818  0.9946993259803918
  0.5055506787695734  0.8226038313193484  0.1450978606171134
  0.4230493867799083  0.9065743820299446  0.2575300211848273
  0.3330239250836016  0.9966959834321329  0.3293397381820924
  0.2492360403366760  0.0924965852523201  0.4087092885506891
  0.1764266458618309  0.1919668424152619  0.4946767893106880
  0.1077488248593994  0.2702828360123135  0.5850154677762589
  0.0012505110959111  0.3320576179890580  0.6257740956072340
  0.9101129925710580  0.3993813796739616  0.7333257951436423
  0.8251090296777619  0.4942948163664695  0.8096802396830824
  0.7356115937072474  0.5975128201474362  0.9045757751937984
  0.6632032218992236  0.6789102618179044  0.9930147723818195
  0.5651391197370401  0.7508098751710008  0.0845500607995149
  0.5641989626083017  0.7571381972944238  0.2525769394094866
  0.5008928294573636  0.8105929890560901  0.3500501838235266
  0.4260037192202475  0.8981100395196862  0.3907666319919443
  0.3388500546245652  0.0029062732748173  0.4877140836373286
  0.2627406117001030  0.0894617713558290  0.5801906539747677
  0.1762121922024633  0.2011865466826279  0.6596199992400074
  0.0897514473134180  0.2495774182056536  0.7562765636874929
  0.9796010193418425  0.3395342667008663  0.8205799865101113
  0.9216733560381485  0.3997529658762744  0.9205233028385749
  0.8084386722906203  0.5124077310381523  0.9892440739474111
  0.7430365894322861  0.5998783928978568  0.0648307037543674
  0.6511813787239689  0.6571847948966436  0.1734830920352621
  0.2537573728910161  0.3015133412182678  0.7591991502318010
  0.1616513912638666  0.3552566010221909  0.8509983935628540
  0.0698896009081906  0.4087271579077338  0.9146452994376020
  0.9905305446306443  0.5083700101649171  0.0025108945128451
  0.9101100708694361  0.5649649281805722  0.0810398982558169
  0.8540810500266005  0.6473818128704991  0.1770758573681377
  0.7712521878324949  0.7519692701208385  0.2690159427724552
  0.6911644916590660  0.8183286232710145  0.3159007381440944
  0.5910322356171136  0.9002649709302304  0.4023836805555590
  0.5137257381440961  0.0013933054035533  0.4889661793205633
  0.4183065995972015  0.0971812628248969  0.5881985484116115
  0.3241375123498997  0.1645610840363290  0.6970243530551770
  0.3222257238942063  0.1601672219372219  0.8325448947408418
  0.2438458319083452  0.2572119238296082  0.9392757504939979
  0.1491650550045591  0.3462163346443248  0.9983026903784804
  0.0950336159560692  0.4164528751519967  0.0866656064751510
  0.9758810500266009  0.4984260217168242  0.1845106209150345
  0.9169064613733084  0.5830510117419081  0.2973514040887650
  0.8104777155532759  0.6761352333181350  0.3458995919782666
  0.7343944591693301  0.7488560671264608  0.4346889615633103
  0.6823368806049572  0.8719152730278168  0.4970337285301696
  0.5794790673924624  0.9290622506269983  0.5880500945242417
  0.4941211064561486  0.0025929467814265  0.6751594733242143
  0.4236917706908372  0.0849450025649787  0.7602851440188445
  0.4191378134974926  0.0684075372397004  0.9204515271127818
  0.3554707402340753  0.1522879526713794  0.0112996143030841
  0.2623104888660919  0.2461980905152785  0.0908763285643701
  0.1888253823719381  0.3253045590135244  0.1482565525725761
  0.0752260981912158  0.4020010502165974  0.2342094329495339
  0.0047664766681876  0.4854622995516067  0.3201102955426336
  0.9053395206338379  0.5927667303161570  0.4126331314599483
  0.8387681339299320  0.6634739654582731  0.5163150497795996
  0.7272757566689450  0.7757734372625009  0.5887252617229066
  0.6620197137672932  0.8772716683766504  0.6822539500684002
  0.5702720934982537  0.9191130604955191  0.7525191337969304
  0.5218446572427453  0.0192194225946167  0.8323951422138620
  0.4979856142650831  0.9888490609325160  0.9971839631782942
  0.4050897320071414  0.0432214052287563  0.0944721025231772
  0.3382183628780950  0.1385380481456124  0.1920273403062751
  0.2643910087969275  0.2520616383568921  0.2426312927496568
  0.1821306956794331  0.3558854228416166  0.3312835665564648
  0.0954065858223103  0.4419449892650889  0.4115969044497660
  0.9969215510525942  0.4959623988258102  0.4876621779525792
  0.9273783064485457  0.5654003206224374  0.6058699203906386
  0.8157843066005483  0.6793441380718974  0.6622327148882832
  0.7372436930004582  0.7680324887900909  0.7567988391092868
  0.6808163598191186  0.8117754607463112  0.8402680341807240
  0.5881809493274019  0.9103042659408729  0.9070721143980833
  0.5967387221652203  0.9163951056391539  0.0937867271811825
  0.5013898968308226  0.9739762924646627  0.1784678266073882
  0.4273979779411761  0.0520919910890711  0.2639400564295471
  0.3485718080255324  0.1414235735864082  0.3195964128286946
  0.2691908392232847  0.2466596238980117  0.4120711530057761
  0.1908995848533195  0.3229422903366768  0.4825350566195468
  0.0965288830939386  0.4508667706908369  0.5666942074213424
  0.0121916400668809  0.4766492642308862  0.6911600200448405
  0.8911902887026883  0.5676493373803027  0.7339734690872461
  0.8448536446458448  0.6613481095151243  0.8360624254255953
  0.7804310281767712  0.7421805626804954  0.9065045343137257
  0.6751084079077359  0.8345750417996669  0.9929947327671371
  0.6770941926964582  0.8158776846785258  0.1833224910700721
  0.5745892821857410  0.8886648640560892  0.2391467629008943
  0.5124888019645866  0.9815646156330757  0.3346051983584104
  0.4104326051641607  0.0663298155114731  0.4004892769607835
  0.3516113771089806  0.1618503058975520  0.4813221424228615
  0.2698014192886475  0.2549902193532461  0.5988663203944355
  0.1711742419060656  0.3606464085537340  0.6617781876994968
  0.0784625645994836  0.4064895054339530  0.7418805560305515
  0.9832420229138137  0.5041655756003962  0.8314179501063990
  0.9179554135316934  0.5830095521735856  0.9218122701018387
  0.8379162196952450  0.6654904473514236  0.9949352860427112
  0.7629597944216471  0.7497357106893148  0.0991851207440320
  0.3210933966028264  0.3612809593023272  0.6588844039747670
  0.2607330374107022  0.4340123199764392  0.7718691261969894
  0.1672385549665591  0.5041562552249559  0.8250676461088347
  0.0640030699004441  0.5601311265009912  0.9210917018163869
  0.9914834582573349  0.6472519617343053  0.0091798221614212
  0.9083441470968268  0.7486274828051407  0.0781556139800870
  0.8551608831129371  0.8410723058215552  0.1594130661954694
  0.7673054838311302  0.9112999192506450  0.2415467738258101
  0.6582600494946007  0.9812536788455688  0.3322653476022168
  0.5896917141662854  0.0784254597963212  0.3900267679358578
  0.5012173202614392  0.1551660653214739  0.4766526134290956
  0.4126201906634748  0.2370319278195794  0.5825880785453705
  0.4178686265009901  0.2688176579837389  0.7541139254635993
  0.3326932845037263  0.3521142104613162  0.8720543343403264
  0.2424293960898325  0.4345409441974439  0.9315422542369660
  0.1623960917312672  0.5084124259005947  0.0106602912676692
  0.0871039172936605  0.5727596941974440  0.1013565216978236
  0.9860669150896797  0.6695028851269171  0.1722874453754386
  0.9268146474578174  0.7510394284845745  0.2574115742324068
  0.8300442069463472  0.8211602043433643  0.3345081932094516
  0.7766452918376672  0.9157416044421609  0.4110372496770012
  0.6795864041837660  0.0003804771811815  0.4941557636038922
  0.6125704965610268  0.0861263518391837  0.5772677491830080
  0.4952872834017299  0.1552212123802974  0.6661120245288004
  0.4836223081965372  0.1778277868027089  0.8510213073795398
  0.4263055446306439  0.2411285453716374  0.9350270386836925
  0.3221803418072682  0.3437155827253378  0.9994115433576525
  0.2571507039443688  0.4453652673278583  0.1072528927268550
  0.1583845996732052  0.5074704234116112  0.2014126519987869
  0.0775189091237252  0.5952628101725210  0.2617044906140720
  0.9928686355259160  0.6622751472488204  0.3424746603777180
  0.9223702201132369  0.7541342828507354  0.4144617951056375
  0.8365453721120204  0.8203476060191548  0.5133790996922016
  0.7456498223514245  0.9186703873118987  0.5863820950182372
  0.6639281572997433  0.0047573249163975  0.6819164662182686
  0.5797978131174943  0.1243031136000923  0.7597644864341078
  0.5932036854955172  0.0841319909940736  0.9173927567829452
  0.5092559811521511  0.1436712988296094  0.0262298060115498
  0.4146432930536577  0.2360191770215820  0.0964051028841766
  0.3585154516263884  0.3242595535985728  0.1719744152796778
  0.2644410254217959  0.4139160667464665  0.2470370069539456
  0.1777733797879648  0.4993269498594017  0.3389321591427290
  0.0808897538569724  0.5959881635696931  0.4002928327823412
  0.9964717638508915  0.6646315810723493  0.5217857482140147
  0.9215902701778376  0.7599656036251687  0.6160827813877461
  0.8406264910130687  0.8458224117457078  0.6636041068171465
  0.7668791158420731  0.9268043371903048  0.7607978492172052
  0.6650284323225435  0.0033180531805712  0.8187717158762737
  0.6407447370421053  0.0127782033743742  0.9943526960784297
  0.5909127655228730  0.0744037249202023  0.0792584734572088
  0.4982545366887052  0.1509901557037523  0.1858265793623630
  0.4187225323947388  0.2577348685210552  0.2633563877488996
  0.3302312637748912  0.3161028628020972  0.3129676356589144
  0.2732969144246837  0.3997747743768016  0.4125940881972952
  0.1815444202196375  0.5202107686388473  0.4771326246390046
  0.0692381379198963  0.5693936958504366  0.5681726397438851
  0.0140845331737367  0.6560513432892563  0.6739441328469340
  0.9294178555821588  0.7636176190340507  0.7555494746542024
  0.8483458808329516  0.8266295860883091  0.8315342030513762
  0.7505926161840719  0.9607091199270386  0.9025760331167376
  0.7582338667540682  0.9336349435704534  0.0923241516567899
  0.6652204552363585  0.9998329998860029  0.1648987455350337
  0.5993893078355370  0.0793944159446696  0.2595617072313416
  0.5051693228454184  0.1678270895082861  0.3235602228682168
  0.4172989645082836  0.2438842306011537  0.4116596200980425
  0.3383198434412549  0.3331495121789061  0.5125966546017651
  0.2350108166134675  0.4445785301717606  0.5748411009461947
  0.1562617086563307  0.5114285254217990  0.6759991811065476
  0.0768877450980412  0.5607616008321941  0.7521276728036170
  0.0111020980582168  0.6641122881516921  0.8384437110503100
  0.9455806899794794  0.7558928384822892  0.9398706913094728
  0.8438217358261113  0.8662004213216292  0.9838012150402804
  0.4178615276827813  0.4198266097621186  0.5843625997492055
  0.3309865742324050  0.4834684754521987  0.6703736001861955
  0.2462615053579569  0.6026534940720509  0.7630437457250352
  0.1525008407432722  0.6536344956490368  0.8310834468574271
  0.0911249325505423  0.7453810704514368  0.9296475437946512
  0.9951895073339401  0.8265437428750602  0.0037216232520123
  0.9236963330293335  0.9142410714964271  0.0638043015655896
  0.8604353748670022  0.0151484809621536  0.1734898802059561
  0.7453587152302816  0.0555391083371362  0.2649492305061543
  0.6722270548335629  0.1605459440074455  0.3367383459682287
  0.5702010183918560  0.2271933429282598  0.4106154872510999
  0.4755954300615599  0.3281053817069477  0.5060598433462502
  0.5160297133872902  0.3101786992704092  0.6448367775307773
  0.4307975314447461  0.3873974687452488  0.7644159057227569
  0.3517894356095184  0.5016007096443218  0.8351548425862561
  0.2592931838045303  0.5659050359097151  0.9181635730164146
  0.1643349525953823  0.6527436654506786  0.0008714133036918
  0.0700176123840990  0.7150446786175735  0.0784277692278437
  0.9949516472868183  0.8343923653860799  0.1504796986624086
  0.9284883891928857  0.9227092804757575  0.2796103449422418
  0.8464936464508312  0.0117946786175693  0.3407944539443690
  0.7474175781843755  0.0747748038265712  0.4082451840135306
  0.6723393410852694  0.1685893377602952  0.5019994276295776
  0.5912110327367373  0.2421656967244274  0.5638509357425150
  0.5640451654886789  0.2344679752811984  0.7381465634024948
  0.4982803717320294  0.3174264734382106  0.8620870140788881
  0.4380328022875801  0.4238822631668953  0.9235683215534252
  0.3349354028917801  0.4997234928370560  0.9854137957896327
  0.2566422708618319  0.5857750251747973  0.0871957283591698
  0.1739356180650589  0.6427722682968522  0.1609610374867003
  0.0757145149338783  0.7473049841351269  0.2476868563801489
  0.0025586254559968  0.8214263057645539  0.3272572047423594
  0.9329532926736590  0.9245445004939938  0.4117252683728552
  0.8481412933196566  0.0037162087703280  0.4882260915412644
  0.7415270690834461  0.0921690169478637  0.5925512772647821
  0.6568751828735344  0.1565069805441581  0.6784663213444304
  0.6589279226516211  0.1878740286327698  0.8261386195660450
  0.5779393315853483  0.2450534935970481  0.9326081271849844
  0.4800954067867451  0.3242968194254416  0.0260220754483953
  0.4050813706490359  0.4396442691708486  0.0966668096405243
  0.3414330435856527  0.5092470763983883  0.1564306586297306
  0.2576376614987055  0.5808274082307321  0.2412082307341521
  0.1706385098419219  0.6562660087969263  0.3444720711734277
  0.0848877674228632  0.7237667668908614  0.4160809403024786
  0.9920946662676684  0.8372637150402795  0.4986097350471184
  0.9084555973552213  0.9215364835081346  0.5820719775991776
  0.8330334995820010  0.0051447541419662  0.6808670352637165
  0.7536604456414366  0.1024593317753428  0.7713876353739195
  0.7285470113239114  0.0925985137368883  0.9125317781957776
  0.6672406625246978  0.1752927534579740  0.0056666253419948
  0.5896223324213423  0.2393880728454150  0.1021805622055041
  0.4949167241412056  0.3307608864379077  0.1477494437794462
  0.4240012017403885  0.4328992846557256  0.2717966888014871
  0.3253845326987417  0.5191606327899407  0.3393509485674144
  0.2568456224350228  0.5900098495212021  0.4179860745364010
  0.1641328274623817  0.6681414605183136  0.5025777526029813
  0.0946396564827481  0.7416220744984017  0.5874526523787793
  0.0190442473210197  0.8488068176204564  0.6637811478758167
  0.9432459240576065  0.9500149182056532  0.7607950286897704
  0.8404094899490815  0.0309724654202768  0.8392213325543381
  0.8520916766415851  0.0148848932208523  0.0070621936274478
  0.7550928684070541  0.0764474972450202  0.0766967937756533
  0.6876483945128413  0.1420517722108201  0.1679454709112349
  0.5794991583067315  0.2390429852561198  0.2181160482216171
  0.5244253657470708  0.3208579034617713  0.3370857135392953
  0.4144359040127696  0.4224919383644945  0.4151895363087093
  0.3272565411726731  0.4915832473590243  0.5017041068171437
  0.2354781145500837  0.5905269555593549  0.5788469177496580
  0.1474603164424693  0.6546016406368764  0.6684095554985561
  0.0635845526485781  0.7457039529183760  0.7477811896754858
  0.0010690715724309  0.8393644778841747  0.8286989844581214
  0.9308491307569540  0.9246396450828414  0.9060737806847570
 
  0.00000000E+00  0.00000000E+00  0.00000000E+00
  0.00000000E+00  0.00000000E+00  0.00000000E+00
  0.00000000E+00  0.00000000E+00  0.00000000E+00
  0.00000000E+00  0.00000000E+00  0.00000000E+00
  0.00000000E+00  0.00000000E+00  0.00000000E+00
  0.00000000E+00  0.00000000E+00  0.00000000E+00
  0.00000000E+00  0.00000000E+00  0.00000000E+00
  0.00000000E+00  0.00000000E+00  0.00000000E+00
  0.00000000E+00  0.00000000E+00  0.00000000E+00
  0.00000000E+00  0.00000000E+00  0.00000000E+00
  0.00000000E+00  0.00000000E+00  0.00000000E+00
  0.00000000E+00  0.00000000E+00  0.00000000E+00
  0.00000000E+00  0.00000000E+00  0.00000000E+00
  0.00000000E+00  0.00000000E+00  0.00000000E+00
  0.00000000E+00  0.00000000E+00  0.00000000E+00
  0.00000000E+00  0.00000000E+00  0.00000000E+00
  0.00000000E+00  0.00000000E+00  0.00000000E+00
  0.00000000E+00  0.00000000E+00  0.00000000E+00
  0.00000000E+00  0.00000000E+00  0.00000000E+00
  0.00000000E+00  0.00000000E+00  0.00000000E+00
  0.00000000E+00  0.00000000E+00  0.00000000E+00
  0.00000000E+00  0.00000000E+00  0.00000000E+00
  0.00000000E+00  0.00000000E+00  0.00000000E+00
  0.00000000E+00  0.00000000E+00  0.00000000E+00
  0.00000000E+00  0.00000000E+00  0.00000000E+00
  0.00000000E+00  0.00000000E+00  0.00000000E+00
  0.00000000E+00  0.00000000E+00  0.00000000E+00
  0.00000000E+00  0.00000000E+00  0.00000000E+00
  0.00000000E+00  0.00000000E+00  0.00000000E+00
  0.00000000E+00  0.00000000E+00  0.00000000E+00
  0.00000000E+00  0.00000000E+00  0.00000000E+00
  0.00000000E+00  0.00000000E+00  0.00000000E+00
  0.00000000E+00  0.00000000E+00  0.00000000E+00
  0.00000000E+00  0.00000000E+00  0.00000000E+00
  0.00000000E+00  0.00000000E+00  0.00000000E+00
  0.00000000E+00  0.00000000E+00  0.00000000E+00
  0.00000000E+00  0.00000000E+00  0.00000000E+00
  0.00000000E+00  0.00000000E+00  0.00000000E+00
  0.00000000E+00  0.00000000E+00  0.00000000E+00
  0.00000000E+00  0.00000000E+00  0.00000000E+00
  0.00000000E+00  0.00000000E+00  0.00000000E+00
  0.00000000E+00  0.00000000E+00  0.00000000E+00
  0.00000000E+00  0.00000000E+00  0.00000000E+00
  0.00000000E+00  0.00000000E+00  0.00000000E+00
  0.00000000E+00  0.00000000E+00  0.00000000E+00
  0.00000000E+00  0.00000000E+00  0.00000000E+00
  0.00000000E+00  0.00000000E+00  0.00000000E+00
  0.00000000E+00  0.00000000E+00  0.00000000E+00
  0.00000000E+00  0.00000000E+00  0.00000000E+00
  0.00000000E+00  0.00000000E+00  0.00000000E+00
  0.00000000E+00  0.00000000E+00  0.00000000E+00
  0.00000000E+00  0.00000000E+00  0.00000000E+00
  0.00000000E+00  0.00000000E+00  0.00000000E+00
  0.00000000E+00  0.00000000E+00  0.00000000E+00
  0.00000000E+00  0.00000000E+00  0.00000000E+00
  0.00000000E+00  0.00000000E+00  0.00000000E+00
  0.00000000E+00  0.00000000E+00  0.00000000E+00
  0.00000000E+00  0.00000000E+00  0.00000000E+00
  0.00000000E+00  0.00000000E+00  0.00000000E+00
  0.00000000E+00  0.00000000E+00  0.00000000E+00
  0.00000000E+00  0.00000000E+00  0.00000000E+00
  0.00000000E+00  0.00000000E+00  0.00000000E+00
  0.00000000E+00  0.00000000E+00  0.00000000E+00
  0.00000000E+00  0.00000000E+00  0.00000000E+00
  0.00000000E+00  0.00000000E+00  0.00000000E+00
  0.00000000E+00  0.00000000E+00  0.00000000E+00
  0.00000000E+00  0.00000000E+00  0.00000000E+00
  0.00000000E+00  0.00000000E+00  0.00000000E+00