Li 
 1.0000000000000000
    21.0527999999999977    0.0000000000000000    0.0000000000000000
     0.0000000000000000   21.0527999999999977    0.0000000000000000
     0.0000000000000000    0.0000000000000000   21.0527999999999977
 Li 
 432
Cartesian
  0.0625619700000000 -0.3028013900000000 -0.1542140500000000
 20.0673333999999990  1.5061557800000001  1.5186173800000000
 17.9182407700000006  3.1893249400000001  3.9518303900000000
 15.8551189299999997  5.0833093399999996  5.6425336699999997
 13.6303056700000003  6.6926694299999996  7.0811607399999996
 12.3296142300000007  8.9850692100000007  9.0407763100000000
 10.5838806499999993 10.2673119400000008 10.8891570800000004
  8.8573152600000000 12.3639656700000007 12.3634008600000005
  6.6912360499999997 14.2396969599999998 14.2765449400000008
  5.0979508300000003 15.2926041500000007 15.5515589700000003
  3.7056522599999999 17.2838678700000017 17.1980424999999997
  1.9177059700000001 19.1308223300000009 18.9823368399999985
  1.5102952100000000 19.1962721000000016  1.6621927200000000
  0.1016219800000000 -0.4479893900000000  3.6928386700000000
 20.1128666900000006  1.6135573800000000  4.8702085600000000
 17.4058388899999983  3.2117883900000002  6.7934751300000000
 15.8606231500000003  4.9973574899999997  8.7091393000000004
 13.9002337800000006  6.6632531200000003 10.2467204699999996
 12.3393988500000003  8.4936495200000000 12.1704811399999997
 10.8385366199999993 10.0268459599999993 13.9560756700000006
  9.0108078900000006 12.0757520199999995 15.6290975799999998
  7.1087849800000003 14.1801490799999996 17.5916371299999987
  4.7327844399999996 15.5085517799999995 19.0738753299999999
  3.5790806000000002 17.5176503799999992  0.0592408400000000
  3.5431472899999998 17.4083960500000003  3.4372384700000000
  1.4398068500000001 19.0426336899999988  4.5054721600000001
  0.3976282100000000 -0.0951612400000000  7.2013883300000003
 19.7804481299999999  2.4519207299999999  8.5571490499999996
 17.8323399000000009  3.3900031600000000 10.5371667000000002
 15.5784923400000004  4.9083108900000001 12.5423157799999991
 13.7395198799999996  6.3653822699999996 13.8884795299999997
 12.3074733300000005  8.2862710199999992 15.6430663499999998
 10.3164727000000003 10.3554428600000001 17.6696430299999996
  9.2576426000000005 12.2927208399999994 19.4195764500000010
  6.8292166700000001 14.2158014099999992 20.6129826200000004
  5.4052483499999999 15.3232206699999995  1.4440810100000001
  5.1969763799999997 15.6449501800000004  5.0278516299999998
  2.8355972399999998 17.1869869800000004  7.0897312799999996
  1.7980506100000000 18.9430255800000005  8.8275661999999997
  0.2835993600000000 -0.2001314900000000 10.4378828099999996
 19.4379176899999990  1.6380645199999999 12.4934568400000003
 17.6408002199999991  3.2690697599999998 13.8823702900000008
 15.7144817700000008  5.2015364399999999 15.8651569600000002
 13.6138478599999999  6.1817180699999996 17.1971147799999997
 12.4023436399999998  8.3777552100000001 19.4045023199999989
 10.3489562799999995 10.5541982700000005 -0.0750467000000000
  8.8275584100000000 12.4772762099999994  2.0290726399999999
  7.0533564200000001 14.3659068100000002  3.5153365100000000
  7.2427220999999999 14.3091874800000003  7.1505667800000001
  4.8730789300000001 15.7390396399999997  8.7755786199999992
  3.7983527300000000 17.5849891099999986 10.4866466099999993
  2.0353007200000000 19.6623926299999994 12.0338371599999991
  0.1464692100000000  0.4185884500000000 13.5393250399999996
 19.6082048200000010  2.0960098700000001 15.5092445800000007
 17.7045776000000004  3.5786140799999999 17.7160528799999994
 16.0380152299999992  5.1437675499999997 19.4899534599999988
 14.2709157900000001  6.7635932800000003  0.2836883000000000
 12.3507744499999994  8.8896295500000004  1.9530072199999999
 10.0867611999999998 10.6379605099999992  2.9014036200000000
  8.6117755999999996 12.4401623400000005  5.3349297000000000
  8.4720590500000004 11.6839815900000001  8.9239504299999997
  6.8793907100000000 13.5390239300000008  9.9756967999999997
  5.3092398899999997 15.5282320899999995 12.1811386899999992
  3.7177904599999998 17.5351681200000016 13.8049088399999995
  1.9059889400000001 19.5162996299999989 15.8588027000000000
 -0.0249564700000000  0.3730253500000000 17.5073133500000004
 19.9664452499999996  1.8742596000000000 19.1222789300000002
 17.8165543900000003  3.6172832599999998 20.5756770700000011
 16.0940032299999984  4.9885173399999996  1.6718488499999999
 13.9220994200000003  6.7312836100000002  3.2369222199999999
 11.9680661399999995  8.9104604900000002  4.9943558799999996
 10.4399891199999999 10.8695747500000000  7.2755167399999996
  1.6815906100000000  1.7222077000000000 19.5283030300000000
  0.3541125600000000  3.5726343300000001  0.3174365500000000
 19.0620597200000006  4.6561877500000000  1.7454730899999999
 17.6482280500000002  6.9530060999999996  3.6700233400000002
 15.8183898799999998  8.3038260000000008  5.2375579200000004
 13.8812076500000003 10.5828498300000007  7.0945923700000000
 12.3682338299999994 12.2357140199999996  9.0563951500000002
 10.2250875800000003 13.9209449500000009 10.6392757699999994
  8.1624336900000003 15.7870564699999996 12.1330336299999999
  6.5692472899999999 17.6030539600000004 14.3305863700000007
  5.0425292500000003 19.8523590200000015 15.8186808800000005
  2.7960856800000000  0.2000137300000000 17.7233886900000002
  3.5530457000000002 -0.1003583200000000  0.5001256600000000
  1.8698370600000001  1.8533271200000001  2.0173260599999998
  0.2535301700000000  3.6991331500000002  3.4024212500000002
 19.3172043400000000  5.2838271399999996  5.6161488999999998
 17.2633504400000000  7.0334616700000003  6.9831698800000002
 15.5916266799999992  8.4228420800000006  8.6611141400000005
 14.0817493099999993 10.7297897700000000 10.7026027500000005
 11.7619812300000000 12.1921023700000006 12.6283925499999992
 10.4878794400000004 14.1311738099999999 14.3106054700000005
  8.9961558700000008 16.4278177499999991 15.5552282000000002
  6.6990946800000000 17.7942320999999986 17.1872796799999996
  4.5905535700000000 19.2222429599999991 19.2985991100000014
  5.3342138600000002 19.2187032500000008  1.8435053400000001
  3.5899705200000001 -0.3165484500000000  3.4867172900000001
  1.6247244999999999  1.6373666700000000  5.2435324699999999
  0.3853045600000000  3.7872235800000000  6.8972901899999997
 18.8400767500000015  5.7189648799999997  8.6762812700000005
 17.0760590199999989  6.7262484999999996 10.8863464299999997
 15.7218313700000003  8.5676944800000001 12.0731046000000006
 13.9509443700000002 10.4440282999999994 13.7657372700000007
 12.4616369400000000 11.8861151300000003 15.6268609099999995
 10.3614505500000007 14.2529062999999994 17.4992392599999995
  8.6855786100000003 16.6022951700000014 18.9417770099999991
  6.6666832100000004 17.7333345800000011 20.5063138299999999
  7.0885248499999998 17.3766527599999989  3.3621196400000000
  5.1396671200000004 18.8533273000000001  5.1947401299999996
  3.4825895199999999 -0.3499702300000000  6.5271738700000004
  1.7716565500000001  1.7570650500000000  8.6898498199999992
 -0.1771723200000000  3.8453743199999999 10.4021153900000005
 19.2621543300000013  5.5790358600000003 11.7807952399999998
 17.6136210200000001  6.8536078199999997 13.8990088000000007
 15.3180142700000008  8.2810056599999999 15.4928347899999999
 13.8180429799999995 10.4030524300000007 17.1860944999999994
 12.3483806400000002 12.3018836300000007 19.1910724600000009
 10.4168688700000001 14.7314561299999998 20.8182975200000016
  8.0252382900000008 16.1743329899999999  1.6882847999999999
  8.8715402099999991 15.9228948500000005  4.9425697499999997
  6.6309782500000001 17.3870535500000010  7.1883874700000003
  5.0696355300000002 19.5117684999999987  8.8402106000000007
  3.3990353999999998  0.2373887100000000 10.8440347799999994
  1.6536271700000000  2.5936725100000002 12.4482236400000001
  0.0863689000000000  4.5150781300000000 13.5691825900000005
 19.5129565499999984  5.6262678800000003 15.8129792200000008
 17.7353022699999983  6.4487964900000003 17.2439371799999996
 15.5376539000000005  8.7529794899999995 19.0697897599999990
 13.9542049699999993 10.5716766399999997 20.8122680500000001
 11.8550574399999995 12.6958023900000008  1.0957364400000000
 10.1676848199999998 14.2678735600000000  2.8641128500000002
 10.2636617200000000 14.1171062799999998  6.7897585899999999
  8.8125499699999992 16.0589339500000001  9.3741093800000002
  6.6225248399999996 17.8443070299999995 10.5770567300000007
  5.4732661499999997 19.6548003899999983 12.1217757899999992
  3.6724817600000002  0.3704907100000000 13.7497462499999994
  1.8056174700000001  1.9711117000000000 15.7842818200000004
  0.1813793700000000  3.7787255100000001 17.3946375000000018
 19.5646320600000010  5.2867415600000003 19.7262106800000012
 17.6125861999999991  7.0161834299999999 21.2410954499999995
 15.5073957799999995  9.0054410199999992  1.6976275800000000
 13.9405127300000000 10.6124759300000004  3.8707066900000000
 11.5957604599999993 12.1575692800000006  4.7579118999999999
  3.9726340300000000  3.8546015100000002 17.8484257799999995
  1.5757608200000000  5.7041064300000004 19.4909097500000001
 -0.1510312800000000  6.9700267599999997  0.5406840500000000
 19.2399443199999993  9.0687487800000000  1.2705326100000001
 17.5985988099999986 10.5169558700000003  3.8827882200000001
 15.7869906699999998 12.1826322200000003  5.3655988900000002
 13.5149687499999995 13.9020088899999994  6.9137779600000000
 12.3751083299999998 15.8519060100000004  8.8712158199999998
 10.6541011799999996 17.8492613400000018 10.8612145899999994
  8.4198942399999996 19.4828937099999990 12.3419666400000008
  7.1175138999999996 21.5617465400000015 14.1336570100000003
  4.4674909800000000  2.1036991100000000 15.6639886700000002
  5.1581497000000001  1.8051918800000000 19.6504546100000006
  3.6872386200000000  3.4905058699999998  0.2949394400000000
  2.0269868799999999  5.6764137400000001  1.6028264400000001
 -0.6809315300000000  6.8279227400000000  3.0257009400000001
 18.9483702399999991  8.3155763100000009  5.3000175900000004
 17.2818325699999988 10.1702734499999998  7.1492955599999997
 15.6070253500000007 12.2463288400000003  9.1671531900000005
 13.6542408200000001 13.5333155099999995 10.6755309900000004
 12.1589269099999999 16.2872351500000008 12.3855193099999994
  9.8607113700000006 17.7539940700000010 13.7177430400000002
  8.8648614800000001 19.5981663399999988 16.2666500200000002
  6.2805074100000002 21.3439541400000010 17.2450851900000011
  6.9239493400000001 -0.3067078000000000 -0.2158203400000000
  5.3644534300000002  1.2869904800000000  1.6691672099999999
  3.6228908799999999  3.4260102099999998  3.1798551900000001
  1.8636319800000001  5.4631514499999998  4.9263558900000000
  0.0021415300000000  7.1505007699999998  6.9606432900000001
 19.1990072299999994  8.7800272499999998  8.6634399700000007
 17.6986855399999996 10.3797457400000006 10.3309721299999993
 15.7279872100000002 12.1786157500000005 12.3996255000000009
 13.5720969799999995 14.1352142000000001 13.9913008600000008
 11.8312677500000003 15.9219592700000003 15.9592772800000002
 10.5125249400000005 17.7207288699999985 17.8310464700000004
  8.4509472399999996 19.8492984499999991 19.3842958000000003
  8.8507643399999996 19.3139903599999982  1.7531990399999999
  7.5161745700000004 -0.4235358700000000  3.5669547000000001
  5.4214767500000001  1.4274583100000000  5.2646566400000001
  3.8143749900000001  3.6842097800000002  6.6949195000000001
  1.8628130100000000  5.4682432399999996  8.4896782200000001
  0.3140242300000000  6.8654641700000001 10.3419823900000001
 18.9823665300000002  8.7896285699999996 12.1454333400000003
 17.0895435199999994  9.9467744000000007 13.9189764500000006
 15.2904137900000006 12.4926284100000000 15.5121388600000003
 13.5210598199999996 14.2921651000000001 17.6964329000000014
 12.3818735499999999 16.1329492700000010 19.3632770699999988
 10.7130357099999998 17.4976379199999990 20.9412059699999986
 10.6432573300000008 17.3181139399999999  3.0547162399999999
  8.9063741299999997 19.0859291499999983  5.4217280299999997
  7.0110860900000000 -0.0695588000000000  6.9335236399999998
  5.2471165099999997  1.9473121099999999  8.6044749100000004
  3.7142748900000000  4.0414395399999998 10.4143315100000002
  2.2684144599999998  5.6902104900000001 12.3162136400000009
  0.0263267600000000  6.9907426199999998 13.1742968800000000
 19.1604268100000006  8.4080963099999995 15.4385612999999999
 17.3708553799999983 10.4062899099999999 17.0460361499999991
 15.4866837600000000 12.5793178999999995 19.0438528799999993
 13.9622847900000000 14.2929619599999995 20.9057414000000001
 11.8977608600000000 15.8066501400000003  1.7800155200000001
 11.8779679199999997 15.9398790399999992  5.3174517899999998
 10.5451965600000008 17.0652520800000005  7.3695365099999997
  8.9685711000000001 18.9077310400000016  8.2267317500000008
  7.1337424299999999  0.0611851900000000 10.2677470599999996
  5.5314255499999998  1.8834207800000000 12.2146378000000002
  3.7097600399999999  4.2355401300000004 13.8868479199999992
  1.8895192700000001  5.2543034700000000 15.9217392400000008
 -0.4294556600000000  7.1481470099999997 17.2755063399999997
 19.4038048299999986  8.4159192399999991 19.3795929899999990
 17.0198976799999997 10.7876174799999998 20.8263576400000012
 15.6430007100000008 12.6291198300000005  1.3648678400000001
 13.7091913299999995 13.8355800500000008  3.6523048400000002
  5.3423032199999998  6.3477000700000001 15.9832678700000006
  3.4032144099999999  7.4791461699999999 17.9158989800000015
  1.4713717900000001  8.6048511100000002 19.2558445599999999
 -0.1993585500000000 10.7026121500000002  0.0528613600000000
 19.1603652999999987 11.8940936399999995  1.7061167699999999
 17.9807975300000003 13.6291998299999992  3.7279426099999999
 16.2370180600000005 15.8310586499999992  5.6635388400000002
 14.5509478100000003 17.2281088400000009  6.6505950599999997
 12.4428834500000001 18.9530983800000001  8.4713031500000007
 10.8153652200000003  0.0293329800000000 10.2941071799999992
  8.8065251799999995  2.0459376900000001 12.3832263999999999
  6.8240022199999997  3.4644715900000000 14.6743143000000007
  6.7837537200000000  3.3719684900000000 17.5274011600000001
  5.1336375299999997  5.4150311899999997 19.7743845200000017
  3.1403420700000000  7.2888232500000001 -0.0357331200000000
  2.0007237099999999  8.7674990899999994  1.8245536800000000
 -0.5077714300000000 10.4932633499999994  3.8844652000000002
 19.3034483500000000 12.2748563399999995  6.2600796399999998
 17.0628252499999995 14.2345398400000001  7.2821549299999999
 15.4610596699999991 15.7655170099999999  9.1514197700000004
 14.3651018799999992 18.3562578599999995 10.4639516799999992
 12.1996569099999999 19.5593617500000008 12.3801010300000005
 10.4026328299999999 21.1073887900000017 14.2139973600000005
  8.9198981100000001  1.7883301500000000 16.0061310799999994
  8.8240245599999998  1.4401702000000001 19.3780819099999988
  7.4836543999999998  3.2060878100000001  0.2378885200000000
  5.5223702599999998  5.1831591599999998  1.9132011700000000
  3.9753030100000002  6.8485718200000001  3.1212155500000001
  1.5837200000000000  8.4632477099999992  4.9307643499999996
  0.1003476800000000 10.2203406999999995  6.7392180300000000
 19.0599318599999989 12.4793994200000000  8.6870827899999998
 17.6584177699999998 13.9679847000000006 10.8698774799999995
 15.3111910499999997 16.3322030200000015 12.3943151900000004
 13.9373686299999999 18.4690249800000004 14.3633559599999998
 12.0058243299999994 19.3499034399999985 15.8426348200000007
 10.9862912000000001  0.4046226600000000 17.5242484500000018
 10.4839915399999999 -0.2347584900000000 -0.0592854600000000
  8.5282731100000007  0.9099316000000000  1.9889022800000000
  7.1204435500000001  2.9166138199999998  4.0427131899999997
  5.5661710299999996  5.3066032600000002  5.1080680799999998
  3.8343611100000001  7.4923846300000001  6.9744466699999998
  2.0085757700000002  9.3041794699999993  8.6652673100000008
 -0.0648099700000000 10.4413971900000000 10.2666543000000008
 19.5239100100000016 11.9032598699999994 12.7552582599999997
 17.1745438499999992 14.3020962699999998 13.9418529000000007
 15.5210440199999997 16.1692343799999989 15.9327345999999999
 14.3330906599999999 17.0901464199999999 17.6899948699999996
 12.3828558900000001 19.1644536499999987 19.0964078099999988
 12.5630209700000002 19.2926828800000010  1.9744732100000000
 10.5556612199999993 -0.5478719100000000  3.7572474599999999
  8.9979241499999993  1.0966822700000001  5.5566772200000001
  7.3384125600000001  2.9773622099999999  6.7283993600000001
  5.6672209000000002  5.1928757299999999  8.6752515700000004
  4.0189707800000001  6.7988394500000000 10.1587140399999996
  2.0322032700000001  9.4920079499999996 11.9304998100000006
  0.2566681600000000 10.0348016300000005 14.5508536700000004
 18.7620509099999992 11.9506079700000001 15.4521966499999994
 17.7865348099999991 13.9232294799999998 17.6014550300000003
 16.4302583499999990 15.6249789499999991 19.0844586599999992
 14.2129222899999998 17.5701414400000004 -0.1474804900000000
 14.2547286199999999 17.1765097199999985  3.8594517399999999
 12.0967132399999997 18.7088836500000006  5.0347089699999996
 10.7893242499999999 -0.3881164600000000  7.0443763199999996
  8.6407555499999997  1.3964283399999999  8.4314206499999997
  7.4024039999999998  3.4074021200000000 10.1331787999999996
  5.6800753200000003  5.3682580900000003 12.6078128700000001
  3.6036970799999999  7.5926167099999997 13.9322838299999994
  1.6518566800000001  8.5577422599999995 15.6186629700000008
 -0.3528023400000000 10.6140970299999999 17.5036758200000016
 19.3255317300000016 12.2739834999999999 19.4067293599999999
 17.6404825900000013 14.0104372900000005 -0.1066264100000000
 16.0624399599999990 15.7840359699999997  2.0881245100000001
  6.7599150600000000  7.6059757799999996 13.8713615800000003
  5.4891604899999997  9.1371745700000009 16.2500063399999988
  3.5208398500000002 10.6139008100000005 17.3699841399999997
  1.3474438300000000 11.7923285799999995 19.3915593800000003
 -0.1792970500000000 13.6264661000000000  0.1932609600000000
 19.1231876599999993 15.7607046700000009  1.6453945100000000
 18.0035310399999986 17.7069270400000001  3.3560913999999999
 16.1539288899999995 19.1854149400000011  5.0852359199999997
 13.8582171699999996 -0.3946625500000000  6.9951159100000000
 12.4146617199999998  1.6510755200000000  8.2111555400000000
 10.5520280000000000  3.2666801400000001 10.0348721399999992
  8.6868103500000000  4.9901857700000001 12.2651102999999999
  8.7973046200000002  5.6593643900000004 15.8762096499999998
  7.0041251800000000  7.4129900500000003 18.3591854900000016
  5.1038175900000002  9.1483035899999994 19.6115727699999987
  3.4188924400000000 10.7035051200000009  0.2244289800000000
  1.8337813500000000 12.0581952900000005  2.1338385799999999
 -0.2933304500000000 14.0949103400000002  3.6271331299999998
 19.5120434100000004 15.8114828799999998  5.4192343899999997
 17.4747546800000002 17.2877215500000005  7.0423340899999998
 16.3505579999999995 19.2789248499999992  8.6534850100000007
 14.3071966499999998  0.0080101100000000 10.4033624600000003
 12.8963241499999999  1.8132008600000000 12.1531024700000003
 10.4271841199999997  3.2678411399999998 14.0235232300000003
 10.1816037300000009  3.7437728300000002 17.9163813800000007
  8.9749253699999993  5.0764310400000001 19.6849372400000000
  6.7827982999999996  7.2361754200000004 -0.0123886600000000
  5.4137423399999998  9.3761858999999994  2.2579737000000000
  3.3344393000000001 10.6836733299999995  4.2403002799999996
  1.6319900899999999 12.5319488900000007  5.5096122999999997
 -0.1501351900000000 13.9427462200000001  7.2100505300000002
 19.4184757700000006 15.8766382299999993  8.7255812800000001
 17.6116224099999990 17.2706140800000014 10.8080675100000008
 15.6980165800000009 19.3405839300000011 12.3449849700000005
 13.9775467100000004  0.1001550100000000 14.3562509800000004
 12.2063673999999995  2.6169285900000001 15.9951697799999994
 12.4885985500000007  1.7712139800000000 19.3136862299999983
 10.7212643199999995  3.0246831200000002  0.5522108600000000
  8.7294023200000002  4.9688645300000003  2.0295973500000000
  7.5477540999999997  6.8265715299999998  3.6205429699999998
  5.5672240200000003  8.7140921700000007  5.2008207000000004
  3.7426274099999999 10.5122304100000008  7.1354709600000001
  1.7029558100000000 12.5472196100000009  8.4272849500000007
 -0.0742792500000000 13.9923557499999998 10.9850510000000003
 19.4020556400000004 15.9994038599999993 12.9702675799999998
 17.6975413900000014 17.8069300699999999 13.9707245400000009
 16.1449526500000005 19.5118263499999998 16.0169249600000008
 14.0007105799999998  0.0698543100000000 17.2374371800000006
 13.4894707999999994  0.2690169600000000 -0.1188915600000000
 12.4403682700000005  1.5664067399999999  1.6686127900000001
 10.4896531100000008  3.1787655500000001  3.9121698100000000
  8.8152817300000006  5.4260406400000001  5.5443893600000003
  6.9522927499999998  6.6548503500000002  6.5888450399999998
  5.7536652799999999  8.4163783700000003  8.6862608199999993
  3.8220183699999999 10.9518932699999993 10.0449777200000003
  1.4576566700000000 11.9873315999999992 11.9616249499999991
  0.2965188600000000 13.8117177200000008 14.1884110400000001
 19.5668482300000015 16.0762890100000000 15.9064319800000007
 17.8600561599999992 17.4028673500000011 17.5061232699999998
 15.8020762300000008 20.2256169600000000 19.0017527100000017
 15.9629459499999999 19.6556297399999984  1.9436819000000001
 14.0047531999999997 -0.0035158200000000  3.4715803099999998
 12.6188232199999995  1.6714747599999999  5.4645007100000003
 10.6352287200000006  3.5332301500000001  6.8118486599999999
  8.7853116399999998  5.1344459300000000  8.6665876500000003
  7.1225800000000001  7.0137300500000004 10.7915948499999992
  4.9476357200000001  9.3596228799999999 12.1020147300000005
  3.2897465000000001 10.7670024600000005 14.2316755599999993
  1.6187023199999999 11.8056018300000005 15.8343934700000002
  0.2337302500000000 13.9814231800000002 17.6515877600000017
 19.9071211499999983 15.9136607500000000 19.7869096900000017
 17.7648102399999992 18.2359442300000012 -0.3410297800000000
  8.7971551699999999  8.8385256499999993 12.3024689400000007
  6.9681941500000004 10.1783651200000005 14.1132413299999993
  5.1844942200000004 12.6875434800000004 16.0642073699999983
  3.2105697000000002 13.7608363100000002 17.4966335899999983
  1.9184349800000000 15.6923586000000004 19.5716838099999997
 -0.1012743400000000 17.4010601099999995  0.0783505900000000
 19.4463941600000005 19.2473344299999987  1.3432592000000001
 18.1145738600000001 21.3717179399999999  3.6524477499999999
 15.6918879600000007  1.1692537400000000  5.5779231600000001
 14.1522617400000001  3.3799416500000001  7.0892850500000000
 12.0043279999999992  4.7830560100000001  8.6446057300000003
 10.0126154700000001  6.9075369799999997 10.6539766700000005
 10.8638703499999991  6.5301301199999999 13.5756197099999998
  9.0694942699999999  8.1558014300000004 16.0930951799999988
  7.4061526300000002 10.5600994200000002 17.5823478699999995
  5.4588475399999998 11.9138855400000008 19.3299140700000009
  3.4597108900000002 13.7420818400000009  0.0183456900000000
  1.4740667900000000 15.0536926100000006  1.6511241400000001
 -0.1062819600000000 17.5662955899999993  3.1680190000000001
 19.5472803599999985 19.4256139400000016  5.8865806699999998
 17.8210614400000011 21.3011110099999996  7.1746774799999997
 15.7352327899999995  1.5742189900000001  8.5947042099999997
 14.1546256800000005  3.5492776099999999 10.5684935499999995
 12.4466476299999993  5.0982659799999999 11.8706409799999992
 11.8747300599999992  4.9362073899999999 15.5400519700000004
 10.4901970099999993  6.6827160599999997 18.1493454900000017
  9.2218169799999998  8.9239085100000004 19.4436991600000013
  7.0513280500000004 10.5205787500000003 -0.3070804400000000
  5.4030383999999998 12.3322044500000008  1.8357142300000000
  3.6618317800000000 13.5321560099999996  3.3886805299999998
  1.5940025400000000 15.7328623699999994  5.2145018500000004
  0.0538662300000000 17.2933237300000009  6.8896804800000000
 19.6412790800000003 19.4642504599999988  8.6679697299999994
 17.8557490200000011  0.0782366000000000 10.2785262599999996
 15.6112210800000000  1.9404158800000000 12.4748635300000004
 13.8290618500000004  3.2949101600000001 14.2836157700000008
 13.8722777700000002  3.9552743499999998 17.3925311299999983
 12.1672411599999997  5.1590621900000002 19.6340123800000015
 10.1073525800000006  6.8273560800000004  0.5478375500000000
  8.5280970800000002  9.2557428700000006  2.0351070099999999
  7.1881215799999998 10.7210768499999993  3.2933033699999998
  5.4239941600000003 12.2280432599999997  5.0781086400000000
  3.5924184200000000 13.8162370299999999  7.2521016200000004
  1.7871251900000000 15.2373169900000001  8.7596688199999999
 -0.1664294100000000 17.6267455400000017 10.4971310300000003
 19.1255339999999983 19.4009232800000007 12.2542449300000005
 17.5376876599999996 21.1611114799999989 14.3341575199999998
 15.8666626300000004  2.1570558200000001 16.2398696099999995
 15.3379545200000003  1.9494579900000000 19.2113490200000001
 14.0472842199999999  3.6904032800000000  0.1192983300000000
 12.4132010400000006  5.0397892200000003  2.1511869400000001
 10.4193828100000001  6.9634427900000002  3.1105394899999999
  8.9264124999999996  9.1137420599999999  5.7220813300000000
  6.8502554900000003 10.9297849700000000  7.1442876499999999
  5.4073195199999997 12.4213593600000003  8.7997772300000001
  3.4554555900000001 14.0662485400000001 10.5806689100000000
  1.9924297600000000 15.6132212100000007 12.3675232000000008
  0.4009347300000000 17.8697601699999993 13.9744517500000001
 19.8579677900000000 20.0004740699999992 16.0168655800000010
 17.6929729100000017 21.7048571199999998 17.6679588699999996
 17.9389156499999984  0.3133686800000000  0.1486789500000000
 15.8968191399999998  1.6094338699999999  1.6146822599999999
 14.4769241199999996  2.9905875499999999  3.5357224100000000
 12.2000798800000005  5.0325241600000004  4.5919535399999996
 11.0406223400000005  6.7549572700000002  7.0965981100000004
  8.7250361999999999  8.8946382800000006  8.7409022699999994
  6.8896665099999996 10.3492037900000007 10.5622762199999993
  4.9574736499999998 12.4322458900000008 12.1863483899999991
  3.1044525500000000 13.7811974199999998 14.0718926900000003
  1.3386328700000001 15.6991561799999992 15.7428878300000008
  0.0225069500000000 17.6709724799999996 17.4464339799999983
 19.5969805800000003 19.4662535199999986 19.0753900899999991
