bcc
1.0
-1.72 1.72 1.72
1.72 -1.72 1.72
1.72 1.72 -1.72
Li
1
Direct
0.0 0.0 0.0
