Li                                      
   1.00000000000000     
   -11.1791050000000016   19.3627778431472777   -0.0000000000000023
   -19.1641800000000018  -11.0644444817984429   -0.0000000000000019
     0.0000000000000000   -0.0000000000000001   23.4479499999999987
   Li
   504
Direct
  0.9985303542939761  0.0008346416940554  0.9858022471047576
  0.9290126513948422  0.0456021595355836  0.6423059133101177
  0.8614249946778116  0.0958334222947315  0.3363628944108115
  0.7838840293882186  0.1264763990760898  0.0126635859424837
  0.7168189771273745  0.1656996599228648  0.6898823389677986
  0.6398922372660110  0.2115288361369139  0.3611970765034869
  0.5707668762666955  0.2516312057021253  0.0171949722683635
  0.4947882072111796  0.2901444705082312  0.6800082855857355
  0.4267952317965324  0.3331044151248435  0.3336807789167082
  0.3515920211151737  0.3797695684757301  0.0120424118099862
  0.2846929231365110  0.4215760178364008  0.6831952187717931
  0.2057456302701013  0.4628096764859890  0.3458686017327750
  0.0747095287400867  0.0418025051796675  0.6566099676091071
  0.0052866376642413  0.0884968379786883  0.3179051038576901
  0.9361397816506454  0.1227896777347297  0.9972997166063564
  0.8521421252413361  0.1654215785389184  0.6771834846969540
  0.7849206170516680  0.2231628290547576  0.3448779078768069
  0.7143209811476794  0.2534226848238248  0.0349397930309507
  0.6480342240383692  0.2921608644816303  0.6739509185237935
  0.5699880928422587  0.3348335572597776  0.3499866662117554
  0.4988684680767506  0.3756280667464438  0.0138585381664527
  0.4341808729091454  0.4177792101074544  0.6692962391168535
  0.3535627400331265  0.4450836250276282  0.3407855893585605
  0.2827804047756928  0.5010835388245169  0.0002387948626605
  0.1419632980014640  0.0769874242203628  0.3285385716022091
  0.0740132810297354  0.1218602940472309  0.9800482059199211
  0.0120358429510858  0.1696752074905561  0.6748325904823247
  0.9305387604204327  0.2244355120172159  0.3382772771180456
  0.8711172548683450  0.2513314397232236  0.0046549822052668
  0.7879152691360503  0.2816794282471164  0.6768830737868328
  0.7164062028323031  0.3390959444070347  0.3470959469804384
  0.6417756520138411  0.3747258682444965  0.0075882173068464
  0.5750941065912372  0.4172831995699937  0.6804940517188101
  0.4969632129761905  0.4496041646969431  0.3374651174196472
  0.4356692041943262  0.5017826690755953  0.9996289978441624
  0.3663862813734227  0.5532407606256555  0.6711074358312743
  0.2150498774030254  0.1215902157188253  0.9925427045861142
  0.1454050550892347  0.1654153113583092  0.6612628656236481
  0.0711164515255120  0.2164126328999672  0.3237613795662284
  0.0124350347252360  0.2551732388825414  0.0026075302958262
  0.9303173745848170  0.2848978060210285  0.6633852208828515
  0.8548203944306181  0.3453124284221261  0.3401779481788409
  0.7873540155128183  0.3795420251954695  0.0174947080661667
  0.7221548611387476  0.4148372819014199  0.6678429035374123
  0.6401721122565007  0.4585649889018413  0.3535264579632766
  0.5722012789607689  0.4946808974536481  0.0028951098070422
  0.5035182923940695  0.5443762915974446  0.6701756567205237
  0.4272239276845653  0.5775102140504771  0.3320015736983422
  0.2885446250934507  0.1549254728819420  0.6600265178832245
  0.2123177120549897  0.2080745413358400  0.3166225806520373
  0.1434399667781179  0.2506888669481810  0.9900103983503854
  0.0765795087451835  0.2892204529955933  0.6615899236393830
  0.9970005457397235  0.3519096754527666  0.3305482786341685
  0.9304923204446496  0.3826409461847859  0.0022721692088226
  0.8579859573407873  0.4058056083986799  0.6571423344044973
  0.7910289810969076  0.4666646479147332  0.3312913495636067
  0.7064944124537078  0.4956353113603953  0.9997237779848547
  0.6471277038272305  0.5390073460229701  0.6585556946342876
  0.5747152274569629  0.5784312789360015  0.3342426340042550
  0.5009124069053073  0.6268776878219100  0.0177108838938977
  0.3544033910931716  0.2061128448289153  0.3481512119396371
  0.2715567446293363  0.2476146518311992  0.9998662727445264
  0.2152194004600574  0.2923325978059097  0.6694171916947980
  0.1427019533116862  0.3347125945500196  0.3382354107715173
  0.0766531266292034  0.3757596170999165  0.0135917583413487
  0.0134823227385326  0.4112681726252845  0.6644398567891869
  0.9248215153919048  0.4685697375611539  0.3167946634993655
  0.8570210253060324  0.5052480925819012  0.9962788973023251
  0.7903268925212217  0.5434744530776427  0.6633406408662594
  0.7162413328560433  0.5769735905560438  0.3263224260543041
  0.6405117663822466  0.6206140904477735  0.0072866949989248
  0.5722918359350260  0.6762650771094627  0.6576994581615878
  0.4286145233856189  0.2557623477000988  0.0094974989284751
  0.3506930375552102  0.2876146915965805  0.6826175089933244
  0.2788097205773425  0.3273803376218183  0.3490682665222309
  0.2098805215188406  0.3777828194311539  0.0226002409592283
  0.1470927895396841  0.4129205586147151  0.6617216498670473
  0.0626776740626056  0.4515726511908298  0.3373902315554247
  0.9999322496273280  0.4990178817215210  0.0006537889239766
  0.9281004912571404  0.5426119321403178  0.6706631679954995
  0.8665001228350988  0.5829533846119972  0.3338877462635352
  0.7800916114919474  0.6213811973959906  0.0006881518426951
  0.7263802789154212  0.6655539220605959  0.6521999014839253
  0.6455718817909073  0.7055106437328362  0.3202785979158094
  0.1447879868231610  0.5003285860686617  0.9990278621372042
  0.0726727806426197  0.5425616068391221  0.6615192697016141
  0.0035716424658929  0.5902890817061461  0.3219544800291700
  0.9218426484795685  0.6240485765197761  0.9823868576997157
  0.8616681895460729  0.6675339933096254  0.6765566657213071
  0.7827187535931230  0.7117253453115850  0.3181681247187953
  0.7044557584005418  0.7432006138006244  0.0022253135135486
  0.2210277969935106  0.5528068526537950  0.6893298505839525
  0.1434241017411892  0.5814472728342466  0.3478672480963141
  0.0799620572919366  0.6287247617960929  0.9977718956241404
  0.0006796899822348  0.6649379208670112  0.6648187159218608
  0.9296040947782345  0.7082843672958745  0.3235805791124591
  0.8510100949157646  0.7452963864290894  0.9848709264562601
  0.7905992336625687  0.7965721640042318  0.6603120929548183
  0.2829930055828314  0.5720988775060505  0.3370613367053394
  0.2254432749595381  0.6244447274907401  0.0019386931480128
  0.1435520328865465  0.6680064068171845  0.6683927597082047
  0.0648857005453749  0.7092317981048382  0.3153295422414359
  0.9989690274982763  0.7522669714983294  0.9872397301256584
  0.9337721095439662  0.7959142546843339  0.6559481165730929
  0.8613296138170980  0.8433534243327472  0.3213481391763438
  0.3590043089633141  0.6265389239010801  0.9987484863282319
  0.2851724970258758  0.6671134858175805  0.6656666941033222
  0.2103148376466635  0.6960711946396856  0.3277974070227856
  0.1465894164783279  0.7504236492925926  0.0053011499939259
  0.0727236450692530  0.7980238364379844  0.6584824954846766
  0.9964790997943140  0.8288455954334566  0.3255145029736042
  0.9233163575848664  0.8709875617084180  0.9881929712405579
  0.4283049120512104  0.6626230366320769  0.6671781400932701
  0.3616327206789265  0.7085133125494849  0.3256642358926882
  0.2881260433691111  0.7463774139014632  0.0019890395535640
  0.2090075950263284  0.8063180501019716  0.6705825861109389
  0.1373364939458384  0.8286925834472285  0.3152398729952921
  0.0676949588706321  0.8763507192488547  0.9867607441162249
  0.0070530583839172  0.9147720585882126  0.6589048390157757
  0.9338256825872335  0.9607976481467304  0.3246259152719091
  0.8662228677123096  0.0023665128611299  0.9949530278766403
  0.7741611133084447  0.0458658970750676  0.6630643391000035
  0.7184956361389965  0.0830268465209798  0.3397397448391004
  0.6402635243096029  0.1251846420808462  0.0108535897594493
  0.5685796528456066  0.1636887985802389  0.6839548757993796
  0.4950162798286328  0.2140078391606792  0.3333599743261146
  0.0696023418346527  0.9550264552088592  0.3159572363468897
  0.1511007727805023  0.0022038065550234  0.9879138845826603
  0.2117462840580657  0.0300762363511069  0.6427874291782416
  0.2841762958630412  0.0835210549074361  0.3235018434447383
  0.3490491616715090  0.1289504065142495  0.0070488793263408
  0.4199691373746148  0.1624467410830874  0.6852507626466249
  0.8609103849042867  0.9201989211938439  0.6625397478244395
  0.7941152788105299  0.9564352284351756  0.3263250821500421
  0.7126344175679975  0.9990026549215045  0.9990946462270713
  0.6439768711420939  0.0328047931052140  0.6763780377389068
  0.5600787399213800  0.0746082722115489  0.3413276793920161
  0.4959155657626155  0.1303877389591079  0.0130912681065922
  0.1418238329198687  0.9188967829714798  0.6506879462810176
  0.2149806944640531  0.9511241359459888  0.3127264971991153
  0.2824288965342561  0.9980586119838861  0.9839203444224367
  0.3561390028462554  0.0326857696278395  0.6773413522290852
  0.4256374895197368  0.0815117715823206  0.3359705227962380
  0.7763357240315472  0.8738302977638668  0.9913356758266687
  0.7177537095448514  0.9158370870477412  0.6753148458607257
  0.6502284426973048  0.9528351369638699  0.3371469539981078
  0.5749676950191542  0.9981073641435714  0.0114244221776332
  0.4946280679525046  0.0314940650949751  0.6674526344520544
  0.2162419382885261  0.8718986612768731  0.9934553238129595
  0.2820927075628106  0.9167915456033597  0.6675374158508518
  0.3608720725271368  0.9520502468486285  0.3319407052642163
  0.4270284507606448  0.0017464812457106  0.9939624154776823
  0.7249449078823531  0.8347852199033738  0.3279772850078615
  0.6449280656956518  0.8714752771129000  0.0070700287231915
  0.5722521706985262  0.9118462212984468  0.6597904981032485
  0.5126271766041981  0.9475013539263415  0.3434133994656250
  0.2812162425251046  0.8244234434818694  0.3235814303595816
  0.3519569198519079  0.8744781100730066  0.9933514528988709
  0.4244880628676526  0.9153139974658941  0.6719513782654758
  0.6545339913536026  0.7978547490468699  0.6596443360720201
  0.5834177626030765  0.8180377200065507  0.3304688546333452
  0.5030103042775167  0.8782882295198533  0.0034519068831145
  0.3528829535722267  0.7895527280220662  0.6717822423708668
  0.4336573758668507  0.8258080596800923  0.3377204808949159
  0.5696975369408648  0.7460846180894123  0.9930334677445174
  0.5020472760301189  0.7932740136178751  0.6569602788303470
  0.4356004118618486  0.7548842453866058  0.9935985555240450
  0.4947383855248120  0.6995576137715105  0.3177134960625523
  0.9957481710088842  0.0032483582774603  0.7648114581445284
  0.9271662998852293  0.0345940990494569  0.4456939365701515
  0.8718162094696353  0.0937890895220619  0.1254738030403502
  0.7720703761042742  0.1197091045972627  0.7969050838133001
  0.7090180710049054  0.1687416741722672  0.4622195769779438
  0.6373807798447473  0.2117072750899709  0.1271699564354236
  0.5634960313163546  0.2410214289800692  0.7982601515271028
  0.4952109260191762  0.2845356159712793  0.4468031695734567
  0.4286508476921327  0.3430703821040382  0.1247923153196737
  0.3495351614420770  0.3712497763560449  0.7974040455562204
  0.2948913573027809  0.4161667336207273  0.4507233114195515
  0.2120876147584170  0.4656686565987229  0.1090135342322043
  0.0677968261492765  0.0435539664003599  0.4451319642015648
  0.0186630091899929  0.0922207185827517  0.0913148667580757
  0.9194074778195969  0.1233603424550154  0.7745938792090570
  0.8535087098028100  0.1568577797067121  0.4614971560413608
  0.7758460604633299  0.2023226021799047  0.1220782661170787
  0.7135635116137919  0.2439076192929051  0.7944912638418273
  0.6345933763626093  0.2985683323438764  0.4507706251505965
  0.5663665551399433  0.3428465460876637  0.1275447695853984
  0.5077572111860746  0.3741978989783874  0.7726700990918189
  0.4273691869331913  0.4047679068715340  0.4351848916429830
  0.3516209543281832  0.4627939108986112  0.1250761832057847
  0.2802576620726214  0.5034443174002590  0.7723387993406661
  0.1537944889236513  0.0798366274946929  0.0938806936214007
  0.0665405041830596  0.1320036900605572  0.7738818583287639
  0.9983475028834263  0.1691733415558829  0.4486727249077234
  0.9453393391109373  0.2202319957049141  0.0958494682904032
  0.8536737901102498  0.2519233055945804  0.7889171983051853
  0.7962739118375524  0.2862708798814921  0.4578269315654495
  0.7139044012196933  0.3278093118934891  0.1209596152328913
  0.6431078508086401  0.3783707416380935  0.7798879108834669
  0.5672866268041759  0.4131822339312379  0.4566558095697033
  0.4938449782289069  0.4598564772745988  0.1115218840026557
  0.4342178249915492  0.5054191215876642  0.7683444015361687
  0.3595223408683381  0.5472668886217420  0.4486784375606376
  0.1996123837977777  0.1204448587011981  0.7764609388027495
  0.1361515651651928  0.1671050708720117  0.4368059672593958
  0.0818934423765327  0.2156039469917985  0.1061286999503182
  0.9849535535270135  0.2659845469515716  0.7815813966679386
  0.9441088769490378  0.2903650191740326  0.4371059312221348
  0.8579191932028039  0.3322431561209811  0.1122134740990148
  0.7773174136312022  0.3736810818249694  0.7711491230576684
  0.7328572083906124  0.4198435804398812  0.4415217321770157
  0.6329540123227133  0.4544004087872864  0.1139858733919183
  0.5661621681295941  0.5134548222491944  0.7753650331905320
  0.4938913911749836  0.5428470761315509  0.4462815184269857
  0.4192557484060018  0.5709435043250366  0.1084041999407219
  0.2885108638532898  0.1627738441897009  0.4391109824099786
  0.2231190707380790  0.2068558618587701  0.1088437176810757
  0.1337484048164725  0.2475986475275320  0.7846030394981227
  0.0765930374423718  0.2851332069602179  0.4409183173795554
  0.0015715282337396  0.3509836116580303  0.1159324499583150
  0.9293771746914885  0.3693630423801366  0.7649257721890379
  0.8799435461211758  0.4182457696514561  0.4485647329510698
  0.7889946829478447  0.4552235589983127  0.1187650050430875
  0.7105048159214036  0.5022745648292215  0.7711241306809313
  0.6466420941525257  0.5363790421530723  0.4521266648043891
  0.5529786094670897  0.5842336004991253  0.1129404894670998
  0.5040368060674538  0.6332250292528698  0.7821590190187209
  0.3575063271771342  0.2000134678510861  0.1110510688567672
  0.2741635279225463  0.2527671966232532  0.7826429197435161
  0.2268401100161412  0.2894234546908905  0.4465227894122918
  0.1563746191446995  0.3340064001301641  0.1149760699762652
  0.0753850107074996  0.3882959286478567  0.7618714134924360
  0.0197239958605167  0.4234838604759332  0.4395141003797747
  0.9241004484656372  0.4613619270981388  0.0989453048134266
  0.8545607980138499  0.4938567322014009  0.7683766052042955
  0.7891946769681013  0.5383308375694895  0.4425117662738103
  0.6982856372388824  0.5766030762242167  0.1133021360076256
  0.6378221110624835  0.6316613076641318  0.7754022846346942
  0.5753675430950267  0.6612778225913445  0.4472256201501636
  0.4183202366923098  0.2571433654031523  0.7924695387016811
  0.3560420062531762  0.2875502258737441  0.4432894739198971
  0.2919135016038226  0.3375559421093470  0.1249953125966243
  0.2028307529210949  0.3810979914541619  0.7876222300883455
  0.1474118318225450  0.4165583783816160  0.4490865325113731
  0.0708072905751820  0.4535998834228536  0.1109697977861615
  0.9929605577188880  0.5107371369086522  0.7767410809900213
  0.9353262362132853  0.5489203423322522  0.4422506952633398
  0.8471887898363875  0.5739059398104231  0.1032480528148483
  0.7782778795940715  0.6256642097308927  0.7702265311040009
  0.7095879809376839  0.6800786824356493  0.4349583673626043
  0.6304816828720021  0.7093432537472069  0.1054736524941404
  0.1349891371972163  0.5004496921555202  0.7850002435180912
  0.0694300321899703  0.5505097457858881  0.4552991792459480
  0.9937966247984207  0.5925262861616218  0.0941627813945374
  0.9322855070210636  0.6215130737152990  0.7815104859913120
  0.8550904998792532  0.6713270229849257  0.4419387029569748
  0.7824724201258633  0.7041609980603809  0.1080397454788127
  0.7102332135628018  0.7541688437018408  0.7812178190417498
  0.2237874015799477  0.5350208607965783  0.4566087811514450
  0.1472241751267802  0.5813724165458325  0.1113981213709536
  0.0776866840499650  0.6307393711551228  0.7802135184525696
  0.0110440834971328  0.6819588096624400  0.4443377079872661
  0.9218814314106112  0.7095029169372467  0.1009586454252940
  0.8570016348453890  0.7404339621570983  0.7777618111604667
  0.7915787600879298  0.7844006232047107  0.4283875618124426
  0.2886468414817642  0.5810580004548598  0.1112015779631079
  0.2183472896307350  0.6294299115721387  0.7738168927347573
  0.1528150988020585  0.6774139715295107  0.4418750219102279
  0.0706133414815042  0.7188187989873498  0.1001098326292933
  0.0020413762482931  0.7530554508763672  0.7693425565987653
  0.9357611524285616  0.7983205314331272  0.4472743941367980
  0.8574647131842141  0.8291177758463348  0.0920781292181161
  0.3470546577388447  0.6273331335021055  0.7691318955388411
  0.2844414948115030  0.6732848816461328  0.4370942393684771
  0.2012704116827209  0.7231409313837389  0.0972185346693450
  0.1405973813101511  0.7589262066839737  0.7814568484664974
  0.0705370025954508  0.7913659212969293  0.4290115933375844
  0.0035653510032745  0.8435305114423102  0.1064322996253395
  0.9118113810034458  0.8694657622485025  0.7733918602692356
  0.4252114759689150  0.6646413534489071  0.4323137088743394
  0.3395279034611320  0.7151196329181957  0.1137807573796437
  0.2830996902184992  0.7485804030008012  0.7874335538927681
  0.2196392542382881  0.7967525970194629  0.4367559769617415
  0.1469030236726496  0.8509777826938603  0.0966813994400368
  0.0800327847814231  0.8734517081078366  0.7652375393158053
  0.0092214721359127  0.9166236475934824  0.4391981687098436
  0.9321162443042894  0.9648575787076012  0.1084102153919630
  0.8519056003448924  0.9883430318258561  0.7652069110519264
  0.7856941641535826  0.0323285207632082  0.4583330303928506
  0.7079757114042877  0.0877411830175774  0.1263089481169999
  0.6331809510946158  0.1295650136720425  0.7914127878983024
  0.5673652546158721  0.1650545948377342  0.4474193807987490
  0.4854102399183802  0.2044507586485409  0.1047087792322969
  0.0754515172571573  0.9813557123849250  0.1068150243411452
  0.1420094452304070  0.0032227745083517  0.7568057791832530
  0.2158522720586120  0.0388121926515126  0.4275354741032800
  0.2866210253060757  0.0860233859677635  0.1146943408698817
  0.3543891671293906  0.1383047784876794  0.7925684829590622
  0.4288806240719651  0.1616572841120245  0.4493144854880740
  0.8525133336269661  0.9118243707523135  0.4308223102659312
  0.7696227643207365  0.9694964818358116  0.1010174898018832
  0.7144024454201769  0.9959030488333482  0.7815128328915719
  0.6424473585331185  0.0410611287300426  0.4522769704814280
  0.5696306549722721  0.0872364795595857  0.1180803272780793
  0.4934598731416600  0.1161972307118120  0.8020372450470106
  0.1592838283823639  0.9253909412096775  0.4282246729458237
  0.2173544852298832  0.9511839774722475  0.1007917937388996
  0.2717420583344818  0.0059158438797127  0.7799990092950537
  0.3668185142224942  0.0399836331929038  0.4511005507944219
  0.4196020600200399  0.0694348723931668  0.1170705055239338
  0.7725376078062425  0.8733193466083691  0.7739636458624304
  0.7163653623343578  0.9112202101055829  0.4517104975061770
  0.6427477924113134  0.9578718390307230  0.1032496252337651
  0.5892264337170730  0.9837268283172733  0.7862963316622569
  0.5056593351151619  0.0473507496025078  0.4600638767994667
  0.2011610676262521  0.8784431373058510  0.7738933160468164
  0.2962967268394294  0.9107946272423746  0.4569287519804490
  0.3601796296560877  0.9473772497030097  0.1065692625581320
  0.4386180795349475  0.0125347008836485  0.7879591989918069
  0.7107741898431073  0.8345084590341969  0.1034700184877551
  0.6560592310741384  0.8715917847569230  0.7753704413392200
  0.5767738774318616  0.9217777088783379  0.4504179469847074
  0.5032170546545842  0.9592923922769288  0.1105286253169240
  0.2756203695673420  0.8389711847033325  0.1047544100870255
  0.3618226000676117  0.8838812838572352  0.7784510991365963
  0.4463626325350347  0.9122727569253897  0.4397774794811511
  0.6437322702591644  0.7930908021571739  0.4335209969314988
  0.5696263815965423  0.8296580985652469  0.1027025654694782
  0.5127278468488612  0.8724096169860971  0.7806782302930557
  0.3613181766094371  0.8021282097785871  0.4492868323243613
  0.4185027384727391  0.8242142347768464  0.1103916670753762
  0.5719683225577015  0.7509768607607299  0.7680017250975055
  0.5035786628740553  0.7865107227113981  0.4407706481803331
  0.4294590417928248  0.7416439914777797  0.7780834439684483
  0.4795180817247413  0.7206066017434907  0.1249198155915536
  0.9930229883483221  0.9989499512027322  0.2101605091276610
  0.9252574014935604  0.0403768398479016  0.8856574549160996
  0.8547241692684793  0.0755369786607076  0.5612539224111259
  0.7778128797943182  0.1131860218609404  0.2323057380282734
  0.7072772595962178  0.1675997230698911  0.9043928040617644
  0.6290844829178468  0.2121840324809412  0.5616907772321227
  0.5620666239596801  0.2505946455188379  0.2410876400708801
  0.4891227080569109  0.2925403674327498  0.9061623207999006
  0.4396821662039798  0.3348187685243147  0.5678634707938244
  0.3563556938762105  0.3775103088579783  0.2372246362688415
  0.2714767591007501  0.4100906099271171  0.9018477112071608
  0.2220875565894147  0.4519357956194057  0.5775550843463932
  0.0811797819912101  0.0481068484664178  0.8795604400384676
  0.0032237997523978  0.0824455235793522  0.5421635247431027
  0.9261997848394472  0.1241076020107528  0.2203309675259462
  0.8451166533408809  0.1615288452234154  0.8967085531997441
  0.7776729349138591  0.2049700052358006  0.5748393565322374
  0.7138461530878004  0.2420240809043435  0.2463355231480762
  0.6531804959505649  0.2962296832849916  0.8903366383841629
  0.5756726745767224  0.3247305360978672  0.5591459684108813
  0.4981208708989584  0.3807334773274462  0.2219517394910824
  0.4225327260867431  0.4151450173782578  0.8895745073663193
  0.3709624302433880  0.4632235222824050  0.5597739555057046
  0.2813686442965846  0.4937122022283660  0.2314104874839771
  0.1491897504454016  0.0954928687189849  0.5493984962438105
  0.0797326866386356  0.1260129634628058  0.2159650570732197
  0.9802184274427646  0.1621413499916216  0.8844713584769650
  0.9247522504840759  0.2106861641276723  0.5735385212779818
  0.8543945332121083  0.2366539821581668  0.2262146643949663
  0.7802870205677976  0.2942238074853947  0.9062453438360265
  0.7219420873045195  0.3264150457835200  0.5720164551698588
  0.6543888054692815  0.3645372571555043  0.2306660637710323
  0.5621470729671714  0.4047226479743671  0.8815743977618524
  0.4981646065229128  0.4602484430012979  0.5723870547318626
  0.4350080353655628  0.5039395667753439  0.2283126708304977
  0.3534899319331899  0.5316981897725910  0.8829549026674002
  0.2113241127607353  0.1161516143354930  0.2143630070006139
  0.1375686191362817  0.1650955439768609  0.8829854034147999
  0.0730762407632071  0.2069379379395784  0.5583800635023550
  0.9972306571732048  0.2424747828627005  0.2227892843510872
  0.9175035756693219  0.2989680920194431  0.8884322079328868
  0.8595446348500531  0.3280592863782630  0.5556744107693845
  0.7813481628576540  0.3627353033553860  0.2288352760049364
  0.7157611975527587  0.4187928263892289  0.8844678771491772
  0.6553507820288189  0.4569030094618043  0.5683682402939283
  0.5728825332426979  0.5020895753543257  0.2243322200874687
  0.4997919870439205  0.5498636450230237  0.8999521271582367
  0.4322402719363794  0.5880603686040686  0.5612300631824994
  0.2820802806579152  0.1679828437269819  0.8792127917365917
  0.2209015229510030  0.2197815758498862  0.5422650807426663
  0.1461469056927456  0.2494767506794275  0.2137578125166613
  0.0585468507394609  0.2872003966861243  0.8871939094888859
  0.9993003078950835  0.3327842366074876  0.5536894734934208
  0.9186815056358881  0.3725255939434007  0.2202129520917637
  0.8564636671489225  0.4181350157563273  0.8777051567407810
  0.7915725031799852  0.4446145257369807  0.5599919873592398
  0.7240537787285959  0.4969690934830666  0.2381879008612700
  0.6307458467406661  0.5311251256757288  0.8906564245488440
  0.5831931184740284  0.5909129575750924  0.5536674945997433
  0.4948006836668597  0.6326298293595869  0.2230088536524519
  0.3662856921949498  0.2126536536890669  0.5667077544092365
  0.2793164195697102  0.2517539940350275  0.2292771734842489
  0.2057550417952640  0.2942938264768600  0.8975566789420810
  0.1508971851946797  0.3376923866559522  0.5560267217390020
  0.0776180179199315  0.3718862292976368  0.2113071948720489
  0.0034711404654004  0.4256947777712128  0.8660884695676998
  0.9260822867368788  0.4700553896868200  0.5591670337918657
  0.8570822290989710  0.4888416236577058  0.2180494171132210
  0.7857821746247282  0.5319611291869464  0.8781969054864049
  0.7384302713309339  0.5726833703092424  0.5491755134244158
  0.6421371689973938  0.6192841845242185  0.2271396488818880
  0.5768001266160212  0.6710840615432616  0.8809539290215156
  0.4290671307668106  0.2534571426019312  0.2300214504892750
  0.3502071395764546  0.2905875959694200  0.8904661746549252
  0.2914671188378932  0.3343012346191543  0.5639924803660890
  0.2147932378342716  0.3708606124008824  0.2315306007561446
  0.1341585250760460  0.4146463606337321  0.8951409155171319
  0.0821924801713863  0.4553979363559364  0.5462272838350444
  0.0097315346259848  0.4924703192416757  0.2123131757786965
  0.9250248133571404  0.5434997690417802  0.8880446452674988
  0.8606337012580738  0.5754257660435940  0.5531234009796151
  0.7868774177101585  0.6190718431620539  0.2174745468153958
  0.7195264931225864  0.6600288419906732  0.8755297738181795
  0.6558675180628768  0.6997007630634755  0.5544346038779508
  0.1484732772936184  0.4940349768912924  0.2282333500369944
  0.0796052380424968  0.5387774324480858  0.8921669335698823
  0.9947261888936580  0.5934617947706613  0.5606130395194455
  0.9321569011237330  0.6133905821101209  0.2111880083333517
  0.8434550762636164  0.6646370619387838  0.8808536541573986
  0.8052866195143977  0.7042780346121518  0.5480415516068575
  0.7101578387530409  0.7500130312910187  0.2083772653899416
  0.2079559429004831  0.5475905756959847  0.8922223772227440
  0.1453189229656360  0.5813550244090919  0.5577732245249578
  0.0732475453989423  0.6236280565614081  0.2061886177682908
  0.9888520048654357  0.6741882850270002  0.8772403024571460
  0.9222072347210286  0.7013475004562650  0.5486749029232811
  0.8539482766865447  0.7390696147892655  0.2099171496868593
  0.7802712378825802  0.7875841232565435  0.8948296721035334
  0.2896699590542369  0.5961802353342023  0.5560649007695773
  0.2188345910374423  0.6165919908475246  0.2184607178879148
  0.1390484354118939  0.6612346716866995  0.8868834026002261
  0.0664022759324112  0.7073107023161214  0.5248020010278083
  0.9913306843277141  0.7500921056981653  0.2188080130672390
  0.9291980997428269  0.7989125465934066  0.8817393017300006
  0.8502966999242645  0.8376003455609933  0.5550999102266942
  0.3569198316298525  0.6233183770778368  0.2225918270040665
  0.2896845435780477  0.6575892430807855  0.8943803100057792
  0.2202723119201337  0.7076178676286702  0.5611616734085487
  0.1458045436299145  0.7545837597686997  0.2045894805302808
  0.0707862113025470  0.7863018444460792  0.8815215731012742
  0.0087439580449740  0.8357485932035544  0.5491686949178956
  0.9264794224857837  0.8700649553329214  0.2190512275060286
  0.4271475288236743  0.6676154061791166  0.8926948654359990
  0.3577156511976582  0.7054258076848612  0.5562986064879851
  0.2841813430911486  0.7626432874531019  0.2191251636070533
  0.2064318659610649  0.7831124350259344  0.8923764892026824
  0.1517501014195091  0.8349358304122916  0.5442479026951190
  0.0700646729471330  0.8733623439319231  0.2060491778598958
  0.9974359630097496  0.9157358221816949  0.8736781245268759
  0.9341197142306754  0.9493045704040171  0.5443832953413832
  0.8432274462632705  0.9907449590507440  0.2221804690815219
  0.7805551427344071  0.0401849748375369  0.9009014408509088
  0.7138573036147164  0.0956454744149866  0.5608583812230918
  0.6390533692894564  0.1243114077466103  0.2463789559428449
  0.5715073893931404  0.1723887213383577  0.9012843549222822
  0.5101965813856779  0.1963814979847029  0.5680207284645320
  0.0825291971028008  0.9589449227685236  0.5430953098245297
  0.1431338090071321  0.0058303872150702  0.2102285752059316
  0.2134188201666163  0.0289601527631902  0.8777371382146413
  0.2912878535930332  0.0825595256076141  0.5420808121818723
  0.3633550391804476  0.1417982217200375  0.2372631603189177
  0.4275227240401875  0.1541750217368403  0.9025227646766538
  0.8523069656140834  0.9293742533815035  0.8844033759880929
  0.7789899649319025  0.9698295391756844  0.5461974462586312
  0.7128142692947463  0.9930349019919333  0.2265871745717618
  0.6415102965813091  0.0428727639761490  0.8888512211088795
  0.5699566352019403  0.0841761092637796  0.5630802206589465
  0.5027479708868938  0.1292806587559951  0.2344076172970375
  0.1348222036845286  0.9172727175741002  0.8699387673549310
  0.2150838927498029  0.9625096904298118  0.5363833106945393
  0.2829854211182692  0.9967908114956998  0.2000740563673986
  0.3525482314290969  0.0378662042043985  0.8879012271861697
  0.4520241959856932  0.0845309457819425  0.5687214340699285
  0.7798392575216653  0.8653951224129202  0.2066897865271784
  0.7093291971026758  0.9207931873956241  0.8944022462518078
  0.6578256984055031  0.9649127839451808  0.5583998208798633
  0.5570466014190316  0.0033201135056871  0.2327825046539260
  0.5114803916923307  0.0408665628182519  0.8874909273518554
  0.2006191284552870  0.8741161593133597  0.2076964685612168
  0.3007773023758631  0.9053539319252621  0.8846676549549102
  0.3770082836230344  0.9634815609907861  0.5444794820016270