Li 
 1.0000000000000000
   -11.1791050000000016   19.3627778431472777   -0.0000000000000023
   -19.1641800000000018  -11.0644444817984429   -0.0000000000000019
     0.0000000000000000   -0.0000000000000001   23.4479499999999987
 Li 
 504
Cartesian
  0.0004341000000000 -0.0376912700000000 -0.3329082000000000
 -11.2594579699999997 17.4837030200000001 15.0607569399999992
 -11.4665294200000005 15.6192372200000005  7.8870203300000004
 -11.1869383500000001 13.7787812200000008  0.2969351300000000
 -11.1888927200000001 12.0462319200000003 16.1763265899999986
 -11.2071991999999998 10.0496421700000003  8.4693309899999996
 -11.2029685600000004  8.2674727200000007  0.4031868500000000
 -11.0916701799999995  6.3701867500000002 15.9448002800000008
 -11.1548616799999998  4.5783259500000000  7.8241302199999998
 -11.2084564899999997  2.6058588899999999  0.2823698700000000
 -11.2617707700000000  0.8479413800000000 16.0195273299999990
 -11.1694199500000000 -1.1369250399999999  8.1099096799999995
 -1.6362964000000000  0.9840625100000000 15.3961576900000008
 -1.7550692100000000 -0.8768043599999999  7.4542229799999999
 -12.8183684000000007 16.7676670500000000 -0.0633161100000000
 -12.6963551999999993 14.6695407899999992 15.8785644900000005
 -13.0514426199999996 12.7290708000000006  8.0866799399999998
 -12.8421071999999992 11.0272572400000008  0.8192665200000000
 -12.8434660300000001  9.3151450499999999 15.8027674400000002
 -12.7887672999999999  7.3318055099999997  8.2064698499999995
 -12.7755068699999992  5.5033634300000003  0.3249543100000000
 -12.8601495499999992  3.7844529100000002 15.6936247499999997
 -12.4821776999999994  1.9213537300000001  7.9907234599999999
 -12.7640869699999993 -0.0687968400000000  0.0055992500000000
 -3.0624234700000001  1.8969807200000000  7.7035559999999998
 -3.1627548499999998  0.0847862600000000 -0.4678286700000000
 -3.3862361700000001 -1.6443145600000000 15.8234408400000000
 -14.7037130600000001 15.5345610300000008  7.9319086800000003
 -14.5548722099999992 14.0864071200000005  0.1091497900000000
 -14.2063427900000008 12.1396019200000005 15.8715204700000001
 -14.5072758799999999 10.1197058999999996  8.1386884100000003
 -14.3557913900000003  8.2804258100000006  0.1779281400000000
 -14.4259277499999996  6.5184126300000003 15.9561904999999999
 -14.1718990799999993  4.6479679699999998  7.9128651999999997
 -14.4866451699999992  2.8838195299999998 -0.0086992400000000
 -14.6982762299999994  0.9729544900000000 15.7360936000000002
 -4.7342419400000004  2.8186348099999998 -0.1748582900000000
 -4.7955471799999998  0.9852172500000000 15.5052586100000003
 -4.9423889299999999 -1.0174735100000001  7.5915406399999998
 -5.0291984400000000 -2.5825733199999998  0.0611412400000000
 -15.8599484499999992 14.8612926900000009 15.5550234900000000
 -16.1737564800000015 12.7310072000000005  7.9764755200000002
 -16.0755249000000013 11.0459392199999993  0.4102150400000000
 -16.0230613599999998  9.3929800700000001 15.6595470100000007
 -15.9445732499999995  7.3217435300000000  8.2894707099999998
 -15.8768519399999999  5.6060369200000002  0.0678843900000000
 -16.0614090999999988  3.7262915799999998 15.7142452899999991
 -15.8434908399999994  1.8824122999999999  7.7847562999999997
 -6.1946903100000004  3.8728611800000001 15.4762687900000007
 -6.3610999599999998  1.8088314800000000  7.4241504400000000
 -6.4077770200000002  0.0036631600000000 -0.2342356800000000
 -6.3987631900000004 -1.7172716299999999 15.5129274499999994
 -17.8896341499999991 15.4110150099999998  7.7506795100000003
 -17.7350713199999994 13.7832065799999999  0.0532777100000000
 -17.3684468299999999 12.1229778600000007 15.4086406000000000
 -17.7862413500000009 10.1531333400000001  7.7681030000000000
 -17.3964195400000001  8.1957649700000008 -0.0064768400000000
 -17.5639423500000014  6.5663731099999998 15.4417810000000006
 -17.5099630200000007  4.7280625000000001  7.8373045699999997
 -17.6133492400000016  2.7630022799999998  0.4152839200000000
 -7.9118963800000000  4.5817100000000002  8.1634322099999999
 -7.7810931200000004  2.5183743500000002 -0.0031356300000000
 -8.0082748000000006  0.9327476400000000 15.6964608400000003
 -8.0097725299999993 -0.9403027000000000  7.9309269999999996
 -8.0580382900000007 -2.6733539600000000  0.3186988700000000
 -19.2114425900000008 15.0733791999999998 15.5797525399999994
 -19.3184316199999984 12.7226496999999998  7.4281854300000001
 -19.2633934199999999 11.0040182499999997 -0.0872522300000000
 -19.2503895599999986  9.2896811300000000 15.5539781799999997
 -19.0641628099999991  7.4845295500000004  7.6515919300000004
 -19.0539084299999999  5.5353368900000000  0.1708580600000000
 -19.3577761899999992  3.5986622800000001 15.4217040099999991
 -9.6930024299999999  5.4692995000000000  0.2226968800000000
 -9.4323340099999999  3.6080945899999999 16.0059812199999989
 -9.3908188599999995  1.7762491100000000  8.1849352599999996
 -9.5861743399999995 -0.1160871200000000  0.5299293200000000
 -9.5576496500000001 -1.7206115900000001 15.5160161599999995
 -9.3546998699999993 -3.7827866499999998  7.9111092799999998
 -20.7416161199999998 13.8401103600000006  0.0153300100000000
 -20.7740455799999992 11.9669040300000002 15.7256764300000000
 -20.8585194499999993 10.3277940200000007  7.8289831799999998
 -20.6289871500000004  8.2295028099999996  0.0161357500000000
 -20.8750765700000009  6.7007555500000002 15.2927506799999993
 -20.7374488200000009  4.6939815800000000  7.5098765500000004
 -11.2069871899999995 -2.7323602400000002 -0.0227946400000000
 -11.2101649400000003 -4.5959958700000003 15.5112707600000004
 -22.5314389800000008 12.9007139899999999  7.5491725499999998
 -22.2647550099999982 10.9446835799999995 -0.4129920800000000
 -22.4254207699999988  9.2983969200000001 15.8638668700000007
 -22.3897277599999995  7.2807637700000001  7.4603902800000004
 -22.1180152300000010  5.4171184200000004  0.0521790400000000
 -13.0649829799999999 -1.8367886000000000 16.1633718699999989
 -12.7463132899999998 -3.6563020499999999  8.1567738399999996
 -12.9428987400000004 -5.4082026699999997 -0.0522444800000000
 -23.9296933299999992 12.0187698199999993 15.5886360100000001
 -23.9658308899999994 10.1629445100000009  7.5873012400000004
 -23.7965253099999998  8.2316289200000003 -0.3547457600000000
 -24.1038441799999994  6.4945688400000003 15.4829649400000005
 -14.1274143900000002 -0.8504255700000000  7.9033973700000004
 -14.4872251999999992 -2.5439259700000001  0.0454583800000000
 -14.4065782700000007 -4.6115536800000001 15.6724400100000008
 -14.3172098999999999 -6.5908884499999996  7.3938313400000002
 -25.5841592999999996 11.0193992099999996 -0.2992021700000000
 -25.6917805000000001  9.2740728299999997 15.3806386400000008
 -25.7910710200000004  7.3464968199999996  7.5349551000000003
 -16.0204515799999996  0.0190155400000000 -0.0293454300000000
 -15.9726562100000002 -1.8595084200000001 15.6085193600000007
 -15.6907653200000006 -3.6293616100000001  7.6861772100000003
 -16.0199923700000006 -5.4646425000000001  0.1243011000000000
 -16.1064577100000008 -7.4215586499999997 15.4400646300000002
 -27.0238906700000001 10.1238873599999994  7.6326477900000000
 -27.0136129199999999  8.2409759900000008 -0.2768506200000000
 -17.4866927300000015  0.9616170600000000 15.6439596699999992
 -17.6208068100000013 -0.8370921800000000  7.6361587200000001
 -17.5247023999999989 -2.6793308900000001  0.0466389000000000
 -17.7889420999999999 -4.8744936699999997 15.7237869499999992
 -17.4165129199999988 -6.5098070600000000  7.3917287800000002
 -17.5513119800000013 -8.3855714300000006 -0.3104334100000000
 -28.7888082700000005  9.3778999899999995 15.4499677200000001
 -28.8522344299999993  7.4507669999999999  7.6118122300000000
 -9.7289486699999994 16.7462967999999996 -0.1183411500000000
 -9.5334106799999994 14.4824289799999999 15.5474994700000000
 -9.6232795899999992 12.9934254500000002  7.9662005499999999
 -9.5566341799999996 11.0121818600000001  0.2544944300000000
 -9.4931732400000008  9.1981558799999998 16.0373397299999993
 -9.6351237199999993  7.2170123999999998  7.8166080100000004
 -19.0803907799999983 -9.2191425099999993  7.4085494799999996
 -1.7314055500000001  2.9013467999999998 -0.2833946300000000
 -2.9435203500000000  3.7672194100000000 15.0720475000000000
 -4.7774491799999996  4.5783284100000001  7.5854550500000002
 -6.3732860300000000  5.3317967599999996  0.1652817700000000
 -7.8080376700000000  6.3343861600000002 16.0677256200000009
 -27.2590653500000002  6.4881266499999999 15.5351988799999994
 -27.2067949599999999  4.7938532399999998  7.6516542100000002
 -7.9475016800000002 13.8096169799999995 -0.0212286900000000
 -7.8277620199999998 12.1062142799999997 15.8596784100000008
 -7.6909853999999997 10.0191811299999998  8.0034343600000000
 -8.0426662800000006  8.1596350300000005  0.3069634000000000
 -19.1953668700000009 -7.4209790699999996 15.2572984300000005
 -20.6308058999999986 -6.3610367700000001  7.3327952700000001
 -3.1200971800000001  5.4900883599999997 -0.3770349600000000
 -4.6077112800000002  6.5341905100000002 15.8822661600000004
 -6.3203524499999997  7.3396416799999997  7.8778200199999997
 -25.4249796900000007  5.3635693399999997 -0.2031606400000000
 -25.5751108699999996  3.7644770200000002 15.8347487400000002
 -25.5292761100000014  2.0476374100000001  7.9054049199999996
 -6.3913534199999997 11.1539127100000002  0.2678792800000000
 -6.1330570399999997  9.2289090599999994 15.6503960000000006
 -19.1266142200000004 -5.4600297199999996 -0.1534592400000000
 -20.7231021999999996 -4.6816907299999997 15.6523839500000008
 -22.2794890899999984 -3.5464213299999998  7.7833290599999998
 -4.8072657699999999  8.2491331799999994 -0.1415689800000000
 -24.1022094600000010  4.8005124800000001  7.6903949799999998
 -23.9108276400000008  2.8452090399999999  0.1657776800000000
 -23.8720522200000005  0.9913197600000000 15.4707346099999992
 -23.8887995300000000 -0.5576899900000000  8.0523402199999996
 -18.9431451700000011 -3.6766597900000000  7.5873211999999999
 -20.6932192700000002 -2.8607508500000001 -0.1558948000000000
 -22.2866388300000011 -1.9081728499999999 15.7558823199999996
 -22.6073362399999986  3.8457766900000001 15.4673074100000001
 -22.1991105399999995  2.2454555900000002  7.7488171799999996
 -22.4548787300000008  0.0219054200000000  0.0809401400000000
 -19.0760461899999996 -1.9031680900000001 15.7519164299999996
 -20.6738356400000001 -0.7402960000000000  7.9188529499999998
 -20.6668084999999984  2.7759150099999998 -0.1633509000000000
 -20.8148851999999991  0.9438935899999999 15.4043717699999991
 -19.3363602999999991  0.0820591800000000 -0.1501007500000000
 -18.9371803900000018  1.8392930700000001  7.4497301699999996
 -0.0147204800000000 -0.1182685000000000 17.9332608299999983
 -11.0278569599999994 17.5697505999999990 10.4506091399999992
 -11.5435159400000007 15.8430594100000004  2.9421034599999998
 -10.9251826300000001 13.6249124300000002 18.6857905600000009
 -11.1599832800000005 11.8615265099999991 10.8381015299999994
 -11.1825429900000000  9.9990390500000004  2.9818747800000001
 -10.9183593499999994  8.2440802499999997 18.7175641199999987
 -10.9889066999999994  6.4404306199999999 10.4766183799999997
 -11.3665953900000005  4.5039879400000000  2.9261239699999999
 -11.0221878100000001  2.6602991399999998 18.6974901899999999
 -11.2721156400000009  1.1052621199999999 10.5685376699999996
 -11.2951076700000002 -1.0457596300000001  2.5561438999999999
 -1.5925838900000000  0.8308344400000000 10.4374320399999991
 -1.9759701900000000 -0.6590033199999999  2.1411464300000000
 -12.6422525399999994 16.4373690799999999 18.1626385500000005
 -12.5475142099999992 14.7907553400000005 10.8211622399999996
 -12.5506113399999997 12.7839477099999996  2.8624850799999999
 -12.6512909400000009 11.1178694399999998 18.6291914299999988
 -12.8160032499999996  8.9839978299999999 10.5696470799999993
 -12.9018441100000008  7.1730232100000002  2.9906633800000000
 -12.8474670700000004  5.6912982000000003 18.1175298500000004
 -12.5346500400000007  3.7965225899999999 10.2041935800000001
 -12.7998733799999993  1.6878008900000001  2.9327800900000001
 -12.7811273500000002 -0.1437648500000000 18.1097615500000018
 -3.2492882399999998  2.0945405899999998  2.2013098100000001
 -3.2736057600000001 -0.1721385000000000 18.1459431199999983
 -3.2235949300000000 -1.9038059800000000 10.5204556199999999
 -14.7886133399999995 15.8676509200000009  2.2474735400000001
 -14.3712125099999994 13.7421045199999998 18.4984910199999995
 -14.3877763400000003 12.2506465999999996 10.7351030000000005
 -14.2630089200000008 10.1961443900000006  2.8362550099999999
 -14.4405351900000003  8.2658923800000004 18.2867727400000000
 -14.2600554699999993  6.4126130400000001 10.7076425900000007
 -14.3335171700000004  4.4741541399999996  2.6149595600000000
 -14.5401096800000005  2.8154814699999999 18.0161011100000010
 -14.5070591600000007  0.9061471100000000 10.5205895700000003
 -4.5397147499999999  2.5323947900000001 18.2064172699999993
 -4.7244843000000003  0.7873477300000000 10.2422044799999998
 -5.0473682400000000 -0.7998533700000000  2.4885004500000001
 -16.1082749300000003 16.1284655900000011 18.3264815100000007
 -16.1188997600000015 15.0678428100000001 10.2492380199999999
 -15.9579363900000004 12.9356127900000004  2.6311759299999999
 -15.8510045000000002 10.9164508100000006 18.0818660800000011
 -16.2386456300000006  9.5448153300000005 10.3527795000000005
 -15.7840705900000007  7.2280598300000003  2.6727350599999999
 -16.1691269599999998  5.2813799100000001 18.1807205299999985
 -15.9244827999999998  3.5568079500000001 10.4643867299999993
 -15.6285681200000006  1.8007832100000001  2.5418562599999999
 -6.3447204900000003  3.7853696000000001 10.2962523600000004
 -6.4584944899999996  2.0314597999999999  2.5521620500000002
 -6.2402125100000001 -0.1498008400000000 18.3973328400000007
 -6.3205857099999996 -1.6717865700000001 10.3386306599999998
 -17.9229863899999984 15.5097683100000001  2.7183782900000000
 -17.4681448500000016 13.9085268899999992 17.9359412599999999
 -17.8523185099999999 12.4104942999999999 10.5179234299999997
 -17.5442406300000009 10.2403329700000008  2.7847959000000002
 -17.5684881100000005  8.1999578700000004 18.0812800600000010
 -17.5081443800000010  6.5860510799999998 10.6014434299999998
 -17.3781638200000010  4.2429817300000003  2.6482229500000001
 -17.7699188200000009  2.7532695199999999 18.3400255700000017
 -7.8296948700000000  4.7092776799999996  2.6039199100000001
 -7.9089789200000000  2.5118388700000001 18.3513720499999984
 -8.0824325899999998  1.1899449099999999 10.4700440399999994
 -8.1490870599999994 -0.6677482600000000  2.6959531399999999
 -8.2841100200000000 -2.8366155300000000 17.8643228100000009
 -19.5153225500000005 15.0590755299999994 10.3057046499999991
 -19.1722389600000014 12.7884382599999995  2.3200645600000001
 -19.0175842000000017 11.0824204900000005 18.0168562200000011
 -19.1391592300000006  9.3246695400000004 10.3759937699999991
 -18.8563335999999993  7.1409569399999997  2.6567028200000000
 -19.2355513500000015  5.3610263700000003 18.1815940000000005
 -19.1049414000000013  3.8240421599999999 10.4865239799999994
 -9.6043875900000000  5.2546933200000003 18.5817861200000003
 -9.4908952600000003  3.7123787600000000 10.3942294200000003
 -9.7323145199999992  1.9173872999999999  2.9308838399999999
 -9.5708967900000008 -0.2892707600000000 18.4681266700000002
 -9.6309320899999999 -1.7546845000000000 10.5301585600000003
 -9.4844319499999994 -3.6478048900000002  2.6020142700000002
 -20.8882687599999990 13.5754519899999995 18.2129860299999997
 -20.9757184499999987 12.0370154700000001 10.3698721900000006
 -20.4692491700000012 10.0539779199999995  2.4209551800000000
 -20.6907916699999994  8.1469947699999992 18.0602331900000017
 -20.9657088300000005  6.2149016100000001 10.1988820499999999
 -20.6422027300000011  4.3593877100000000  2.4731409300000000
 -11.0997657200000006 -2.9234331600000001 18.4066464600000010
 -11.3262334800000009 -4.7467262300000002 10.6758323900000001
 -22.4650372199999993 12.6866890699999999  2.2079241900000000
 -22.3329059900000004 11.1749402599999996 18.3248187999999992
 -22.4245783900000006  9.1290668099999994 10.3625566100000004
 -22.2420094599999985  7.3596893699999999  2.5333105499999999
 -22.3927991400000010  5.4076286299999996 18.3179563600000002
 -12.7549789400000009 -1.5865628700000001 10.7065398700000003
 -12.7873601499999996 -3.5818938299999998  2.6120575800000001
 -12.9560704399999995 -5.4745507499999997 18.2944075700000006
 -24.3717493500000018 12.0311265899999995 10.4188083599999999
 -23.9028509299999996  9.9999297200000008  2.3672732700000001
 -23.7703209899999983  8.4014418000000006 18.2369200599999992
 -23.8815368100000001  6.6482065300000004 10.0448101300000001
 -14.3623134599999993 -0.8400793200000000  2.6074490400000001
 -14.5034354000000008 -2.7364822499999999 18.1444198099999987
 -14.6904193200000002 -4.5362844700000000 10.3610634200000007
 -14.5649668099999996 -6.5860602500000001  2.3473703499999998
 -25.6336159700000010 11.0701643300000008 18.0395058000000006
 -25.7601305399999987  9.2859621099999998 10.4876676300000007
 -25.4750503600000009  7.4291711500000002  2.1590433700000000
 -15.9020855500000007 -0.2211503900000000 18.0345662299999994
 -16.0827540000000013 -1.9419457200000001 10.2489638700000008
 -16.1084260400000012 -4.1039984199999999  2.2795753400000001
 -16.1159513200000006 -5.6747410199999999 18.3235611100000000
 -15.9544195200000001 -7.3902319900000002 10.0594423899999992
 -27.3845329900000003 10.0986164299999999  2.4956192399999999
 -26.8558335399999990  8.0350455499999995 18.1344536699999992
 -17.4907902700000015  0.8793879900000000 10.1368702299999995
 -17.5002994500000000 -1.3381981100000000  2.6679255099999999
 -17.5107307500000005 -2.8010299000000001 18.4637026000000013
 -17.7244804699999996 -4.5627987900000004 10.2410323099999996
 -17.9505357299999986 -6.5711458199999999  2.2669806200000000
 -17.6336806599999996 -8.1146008999999992 17.9432515600000002
 -28.8485333799999992  9.3993997000000000 10.2982966999999999
 -28.9109296799999989  7.3727466499999998  2.5419973100000002
 -9.3001459200000003 16.6242367599999987 17.9425333900000012
 -9.4029071500000008 14.8555244299999991 10.7469699799999994
 -9.5960226399999993 12.7375689699999999  2.9616859000000000
 -9.5614035800000003 10.8265771900000001 18.5570074799999993
 -9.5057717200000003  9.1595299800000003 10.4910672700000003
 -9.3445831800000008  7.1367565700000002  2.4552062200000000
 -19.6503579500000001 -9.3972048299999997  2.5045933499999999
 -1.6493003300000000  2.7140391300000002 17.7455440700000011
 -3.1568390599999998  3.7500642399999999 10.0248304200000007
 -4.8527341899999996  4.5979782599999997  2.6893471700000000
 -6.6122513800000000  5.3316931700000003 18.5841061600000010
 -7.8925308200000002  6.5156722000000000 10.5355035899999994
 -27.0047024399999991  6.4181961599999999 10.1018999899999997
 -27.1832987800000012  4.1750946100000004  2.3686530499999998
 -7.9078652399999996 13.8781463299999999 18.3248738300000014
 -7.9688893399999996 11.9852468999999999 10.6049677899999999
 -8.0397765000000003 10.0644086399999999  2.7687416100000002
 -7.7432643800000003  8.2690960899999997 18.8061292199999990
 -19.5150092099999988 -7.1547593100000002 10.0409907199999999
 -20.6584895700000004 -6.3157357000000003  2.3633609400000002
 -3.1512053000000000  5.1962255800000001 18.2893777700000015
 -4.8669562300000004  6.6602287100000002 10.5773831600000001
 -6.0214378799999997  7.3564031800000000  2.7450633600000001
 -25.3727281900000001  5.2956806500000004 18.1478608699999988
 -25.4711117300000005  3.7886779399999999 10.5916851600000008
 -25.5421733999999994  1.8470629300000001  2.4209920500000002
 -6.2751621799999997 11.5891141399999995 18.4370370699999988
 -6.5602570900000003  9.2670596300000003 10.7875547800000007
 -19.0834431000000002 -5.8244482599999996 18.1462117800000016
 -20.7669643999999991 -4.3403088900000002 10.7140425300000004
 -22.1821940399999988 -3.5081248299999999  2.4988307399999998
 -5.1435748300000004  8.3541749299999992 18.4760278999999983
 -23.9384896199999986  4.5291902200000003  2.4261598200000001
 -24.0374968799999991  3.0594502299999999 18.1808473399999997
 -24.1129296699999998  0.9689861700000000 10.5613775000000008
 -24.0095683700000002 -0.8703573800000000  2.5916696799999999
 -19.1593838500000011 -3.9459741099999999  2.4562761700000002
 -20.9837128600000007 -2.7737647700000001 18.2530824500000008
 -22.4728940600000016 -1.4509707800000000 10.3118803499999991
 -22.3952855299999989  3.6893357899999999 10.1651786600000005
 -22.2676302700000015  1.8498431099999999  2.4081646200000000
 -22.4508533700000008  0.2751076200000000 18.3053041100000016
 -19.4113432299999999 -1.8789794600000000 10.5348551799999992
 -20.4738760100000015 -1.0160970899999999  2.5884582900000002
 -20.7859496700000008  2.7657537799999998 18.0080660500000000
 -20.7023918100000017  1.0483775500000001 10.3351681200000005
 -19.0139666699999985  0.1096412500000000 18.2444616900000014
 -19.1704176100000012  1.3116903499999999  2.9291135900000000
  0.0981200700000000 -0.1234761200000000  4.9278331099999999
 -11.1173386700000005 17.4688062100000003 20.7668517199999982
 -11.0026554900000004 15.7140594999999994 13.1602539099999998
 -10.8643691499999999 13.8082775400000006  5.4470933300000004
 -11.1186380099999997 11.8404546199999992 21.2061572500000004
 -11.0989344800000005  9.8331246399999994 13.1704972599999994
 -11.0858427000000006  8.1104806299999996  5.6530109299999998
 -11.0742503699999997  6.2339776799999997 21.2476487899999995
 -11.3317802499999996  4.8088844300000000 13.3152342699999995
 -11.2184132299999995  2.7230942800000002  5.5624314100000003
 -10.8939174600000008  0.7191193900000000 21.1464800400000001
 -11.1437190499999996 -0.7001865000000000 13.5424827400000005
 -1.8294456100000001  1.0395905299999999 20.6238892199999988
 -1.6160400500000001 -0.8497922000000000 12.7126232199999993
 -12.7325050700000002 16.5606189999999991  5.1663095099999996
 -12.5432156700000004 14.5765790699999993 21.0259773199999991
 -12.6217694700000003 12.7900290299999995 13.4788044899999999
 -12.6183541500000000 11.1441824700000005  5.7760630300000004
 -12.9789723200000005  9.3697719500000005 20.8765689799999983
 -12.6586997199999995  7.5536591199999998 13.1108267099999996
 -12.8649904100000008  5.4323993399999999  5.2043132900000000
 -12.6794515499999996  3.5880583100000001 20.8586985700000014
 -13.0243269200000000  2.0575521800000001 13.1255517200000007
 -12.6070391300000004 -0.0145727000000000  5.4261015400000003
 -3.4978504099999999  1.8321524499999999 12.8822684699999996
 -3.3062751900000000  0.1495828600000000  5.0639378600000002
 -2.8861657400000000 -2.1770301600000002 20.7390401900000008
 -14.3755300800000008 15.5746470200000005 13.4483025699999992
 -14.0866457100000009 13.9250066900000000  5.3042701399999999
 -14.3614685400000006 11.8531012499999999 21.2495955099999989
 -14.3261430900000004 10.3672030999999993 13.4126132400000007
 -14.3015387799999996  8.6373828199999991  5.4086463299999998
 -14.0404788299999996  6.4066976200000001 20.6711123999999984
 -14.3893184499999993  4.5534572600000001 13.4213030399999997
 -14.5205890699999998  2.8471525899999999  5.3534640900000001
 -14.1412608800000008  0.9616019200000000 20.7034824099999994
 -4.5883648900000003  2.8066687600000000  5.0263730700000000
 -4.7018147600000004  0.8370201300000000 20.7041975899999997
 -4.7827228599999998 -0.8746943100000000 13.0928678099999996
 -15.7949766100000009 16.6263068999999994  5.2239519999999997
 -15.9863471399999995 14.4575020500000004 20.8319139900000003
 -15.8959269400000007 13.0133780500000000 13.0294258000000003
 -15.6862978000000002 11.1156062700000007  5.3657181100000004
 -16.0273906900000007  9.2254150799999994 20.7389585600000004
 -16.0824067200000016  7.6340336200000003 13.3270700800000004
 -16.0264489899999987  5.5372549900000001  5.2601306799999996
 -16.1249129700000005  3.5934254399999999 21.1020324799999983
 -16.1017541400000006  1.8628110600000001 13.1596944600000008
 -6.3726585299999998  3.6032209599999998 20.6157375800000011
 -6.6814150000000003  1.8455060700000001 12.7150044999999992
 -6.4148089600000002  0.0694884100000000  5.0121824999999998
 -6.1584614899999996 -2.0440831799999999 20.8028784299999998
 -17.5488200799999987 15.6671571499999995 12.9828830899999996
 -17.4091845499999991 13.6664371500000001  5.1635422899999996
 -17.5877119700000009 11.9570840500000006 20.5803866299999996
 -17.3697449299999995 10.4076297899999997 13.1306641200000005
 -17.6182783799999996  8.5210055199999992  5.5850179899999999
 -17.2297515600000004  6.3363872399999996 20.8840673099999989
 -17.8439393899999992  4.7541151800000003 12.9823677300000000
 -17.6552607200000011  2.5810180900000002  5.2291004499999998
 -8.1700791099999996  4.7394139400000004 13.2881350900000008
 -7.9471664400000002  2.6228236900000002  5.3760797000000000
 -7.9400570799999999  0.7277914599999999 21.0458641299999982
 -8.1584931600000008 -0.8145899900000000 13.0376867700000005
 -7.9945946100000000 -2.6118141000000001  4.9547205400000003
 -19.3760005900000003 14.7199125300000002 20.3079991299999989
 -19.3609972200000016 12.7306238199999999 13.1113206499999997
 -18.9496611000000001 11.1867317899999996  5.1128118300000001
 -18.9789402699999989  9.3290713000000007 20.5919171299999988
 -19.2299967299999999  7.9616379400000001 12.8770399799999993
 -19.0465924199999996  5.5815238699999998  5.3259591300000002
 -19.3088849300000014  3.7432803699999999 20.6565636800000014
 -9.6538848099999992  5.5035690500000003  5.3935314700000001
 -9.4838753800000006  3.5657927200000001 20.8796063399999987
 -9.6649505599999994  1.9447556200000000 13.2244674799999995
 -9.5084356900000007  0.0556270900000000  5.4289179499999998
 -9.4461297299999991 -1.9901499199999999 20.9892194299999986
 -9.6461663899999994 -3.4472504499999999 12.8079100399999994
 -20.7256846900000014 14.1022968800000008  4.9783087300000002
 -20.7566769200000003 11.8975269400000006 20.8228264400000000
 -20.6486774699999991 10.2974927199999993 12.9696098499999994
 -20.6605895100000012  8.3864465900000003  5.0993323000000004
 -20.6925737500000011  6.6291791599999996 20.5293783599999990
 -20.7412032199999992  4.9576168000000003 13.0003548700000007
 -11.1275735800000000 -2.5913674900000001  5.3516041799999998
 -11.2151430100000002 -4.4198944500000001 20.9194856499999986
 -22.4933571699999995 12.6943371299999992 13.1452265199999996
 -22.1758074000000001 11.2623209499999994  4.9519258600000002
 -22.1662971499999983  8.9777933900000004 20.6542124399999985
 -22.4992947000000001  7.8001407000000000 12.8504509000000002
 -22.3123137800000002  5.4521509200000002  4.8860197000000003
 -12.8188856799999993 -2.0321807999999999 20.9207856899999989
 -12.7657278299999994 -3.6185923700000000 13.0786386799999992
 -12.7701623299999998 -5.4818220599999998  4.8347004000000000
 -23.9747460399999994 11.6874028400000007 20.5694867499999994
 -23.7502012499999999 10.0964733300000002 12.8653016900000008
 -23.7100405800000011  8.3574160499999994  4.9221268299999998
 -23.8161379999999987  6.3940378300000003 20.9819214100000018
 -14.6635562299999993 -0.9875880500000001 13.0385819900000008
 -14.2628547700000006 -2.5850022799999999  5.1224559899999997
 -14.2264573300000006 -4.6238303500000004 20.7955976800000002
 -14.2973476300000009 -6.5402674799999998 12.3055310799999997
 -25.4570899399999995 10.8955633499999998  5.1305993499999998
 -25.6981069700000013  9.1523328599999996 20.6749790599999983
 -25.5574798799999989  7.1965235800000000 13.0159549400000003
 -15.9354298500000002  0.0142878300000000  5.2193220299999998
 -15.8405725499999992 -1.6667622099999999 20.9713847899999983
 -16.0233634900000013 -3.5643147700000002 13.1580908599999997
 -16.0909432999999993 -5.5258691300000002  4.7972039100000003
 -15.8601565699999991 -7.3293754199999999 20.6698737699999988
 -27.2932911000000011 10.2849912499999991 12.8768800999999993
 -27.0312921599999996  8.3124298400000001  5.1363022300000001
 -17.5694288900000011  0.8839691100000000 20.9318645699999983
 -17.5178479799999991 -0.8787760000000000 13.0440619099999999
 -17.7923263100000000 -2.9356841000000000  5.1380358800000003
 -17.3154311700000001 -4.6676096999999999 20.9243993000000010
 -17.6972908599999990 -6.2997976400000004 12.7614976099999993
 -17.5205334999999991 -8.3066224700000006  4.8314308199999996
 -28.6997674899999993  9.1810227999999992 20.4859609800000015
 -28.6352660300000004  7.5836247900000000 12.7646722900000000
 -9.2491628899999991 16.4296275999999999  5.2096765300000003
 -9.4960199900000006 14.6690913999999992 21.1242919399999991
 -9.8132528400000005 12.7639963400000003 13.1509792799999996
 -9.5263709100000007 10.9984117500000007  5.7770814399999999
 -9.6926296000000001  9.1585851799999993 21.1332704900000010
 -9.4670315299999999  7.7059708799999997 13.3189216399999992
 -19.2999956700000013 -9.0121983500000002 12.7344716699999996
 -1.7118424699999999  2.7069581500000002  4.9294291200000000
 -2.9408289800000000  3.8119532000000000 20.5811365299999984
 -4.8385231099999997  4.7266667099999999 12.7106837800000001
 -6.7794307800000002  5.4666443500000002  5.5633347200000003
 -7.7339592899999996  6.5721665600000003 21.1623086600000008
 -27.3387245400000012  6.2200205999999998 20.7374461399999994
 -27.2943984700000009  4.3527845400000000 12.8072104099999997
 -7.8351451699999997 13.8791292800000008  5.3130047400000002
 -7.9931323299999999 11.9470580399999999 20.8417389899999996
 -7.9847711800000001 10.1045818199999999 13.2030768599999995
 -8.0978301699999999  8.3041786000000002  5.4963780900000003
 -19.0859710400000004 -7.5385806799999999 20.3982807199999989
 -20.8501543799999993 -6.4850133999999997 12.5770890499999997
 -3.1020222700000000  5.5148917300000004  4.6913264699999999
 -4.6668484499999998  6.4073445700000002 20.8194635800000007
 -6.6731922099999998  7.8171561299999999 13.3353517499999992
 -25.3024928399999993  5.5247380100000001  4.8464517799999998
 -25.5759119599999991  3.5465185600000000 20.9718991499999987
 -25.8456648300000005  2.0611089300000001 13.0933310800000005