Li                                      
   1.00000000000000     
   -10.5278949999999991   18.2348490367503473   -0.0000000000000021
   -18.0478199999999980  -10.4199137352859115    0.0000000000000046
    -0.0000000000000002    0.0000000000000000   22.0820499999999988
   Li
   504
Direct
  0.0027595415640604  0.0120390693261214  0.9796070890157367
  0.9325877497363351  0.0577124019681960  0.6662506551701526
  0.8440765268309249  0.0733413943378949  0.3208952556488214
  0.7920153212959917  0.1211526909623757  0.0031615244055700
  0.7056976340873220  0.1736543669307551  0.6539974726078412
  0.6489377529738221  0.2009837617593533  0.3254419639480943
  0.5689102297844855  0.2372277408796819  0.9986888264450116
  0.4846385523310701  0.2757809097224211  0.6561955692519490
  0.4377824852841385  0.3472905421313826  0.3256133511154999
  0.3518674189900395  0.3797352710162158  0.9899720537721848
  0.2704424086503536  0.4181685593153119  0.6697841264737647
  0.2068742968393380  0.4633893010167753  0.3236913959528209
  0.0678358913773707  0.0544050366386415  0.6740064808294548
  0.0132396539294319  0.0946523354950699  0.3326019540758196
  0.9180208744303471  0.1318833718526164  0.9968819946517655
  0.8583503348393862  0.1843354527913093  0.6655028038610524
  0.7916069186817651  0.1803902581500054  0.3325670094035686
  0.7168319083653358  0.2512666419589777  0.9936597186402523
  0.6444843052334406  0.2885881782594453  0.6476650238542163
  0.5833686451497755  0.3261328474891130  0.3316994694786004
  0.4939601706910608  0.3787946765195187  0.0065009145437145
  0.4265615347433354  0.4176964005172579  0.6732980244134978
  0.3577526919889067  0.4625110507958041  0.3323388032361123
  0.2893197103732632  0.5032649737065142  0.0018772450927358
  0.1492959968476271  0.0886457074188343  0.3351247791758496
  0.0627578637562110  0.1317160454808572  0.9924868624063450
  0.0092211655990511  0.1810557650062776  0.6683244436091726
  0.9295968805462707  0.2045695258087292  0.3312295805869496
  0.8436455333382611  0.2415107950874855  0.9997780255909205
  0.7816070082492388  0.2942459774026958  0.6653330288628112
  0.7300469117199881  0.3323454150328260  0.3305722127248174
  0.6372034239710445  0.3590915910504648  0.0086380585135899
  0.5568418940786088  0.3999247337096321  0.6668709331787568
  0.5035264769143950  0.4435565437446414  0.3405024329715758
  0.4357190103859452  0.4920708805358700  0.9945972552367195
  0.3382056017582045  0.5442277868616685  0.6732401606734868
  0.2150200414630064  0.1423046805975332  0.0006287056681771
  0.1420890503481758  0.1569379319654516  0.6853202524222155
  0.0825377547025781  0.2078086519566043  0.3218903231357615
  0.9942660179454705  0.2587451116534822  0.9962061253370962
  0.9326237362862742  0.2948847799828727  0.6645853627720228
  0.8553932407464302  0.3109291846722684  0.3296230590004114
  0.7891410087544202  0.3752780313433632  0.9971466784107434
  0.7126704600068123  0.3959318076890455  0.6658578515128823
  0.6303669127711800  0.4503089431782286  0.3364081876456240
  0.5608802968620310  0.4983502227453371  0.0079616738482144
  0.4942015356885605  0.5367105053924561  0.6546653530808939
  0.4301350714037113  0.5898225953297569  0.3304608729714857
  0.2781843242682669  0.1551589263111950  0.6669094563231255
  0.2317005744722422  0.2009932136134154  0.3458498862198027
  0.1412775080350670  0.2646326132211598  0.0004059772530169
  0.0781144871022832  0.2884201910152200  0.6793285818119230
  0.0144854135074723  0.3260588850931398  0.3196347508496729
  0.9400708643509645  0.3706518137677506  0.0000817170507261
  0.8521435968305084  0.4252502389566217  0.6618926435724930
  0.7865409482088737  0.4658558271335025  0.3465268958271537
  0.7082718582255580  0.4856228045906050  0.9935655448656249
  0.6461524975149828  0.5284507642570944  0.6604610020355892
  0.5560596047314590  0.5774280172145865  0.3448156258137232
  0.5196238809818468  0.6083553133581034  0.0074382745261445
  0.3689934438990647  0.1987717257232333  0.3357557740336574
  0.2995493675560894  0.2498483579209605  0.0044402005248614
  0.2086828267138472  0.2840677540031677  0.6690920698032983
  0.1524073625507754  0.3278464567930399  0.3460699939543659
  0.0663645763319565  0.3873536243522864  0.0072666550433524
  0.9834683684914651  0.4163156636480494  0.6686745551250937
  0.9224112266594702  0.4293849173422544  0.3355270878383152
  0.8562056135238336  0.4944728716493501  0.0034270617990657
  0.7752151210590341  0.5348580616982090  0.6469656354369278
  0.7224047345342726  0.5824120440762570  0.3385887601015298
  0.6556903426876204  0.6096668672266645  0.9919607636066416
  0.5625878050989357  0.6628116298609967  0.6743940861468900
  0.4312917787759858  0.2742696618585043  0.9949857390957817
  0.3383160371007250  0.3006151454628565  0.6720741027214387
  0.3078560940106883  0.3312205433756219  0.3305441800014037
  0.2049024029329445  0.3730322192195104  0.0110681096184422
  0.1350380493349377  0.4066807750518890  0.6578715486107498
  0.0752102596827342  0.4642937037901191  0.3354421935463421
  0.9853534886626321  0.4995629125000178  0.0017782316406283
  0.9274954443000070  0.5478976058843230  0.6779061350735134
  0.8513453747366526  0.5681835538052198  0.3118982657860130
  0.7833351619226505  0.6164881213060838  0.9972566170260464
  0.7096976306416849  0.6740978202827534  0.6674190272189406
  0.6511258036645273  0.6976985451555535  0.3317247692130039
  0.1279110858498385  0.5204182537745226  0.9844826612565427
  0.0617505958496167  0.5467198930789294  0.6690959154607441
  0.9957101599897129  0.5783598487349266  0.3384740492843719
  0.9279528848646663  0.6237605352445712  0.9930982295574893
  0.8535003206121274  0.6691580147701615  0.6627061549991993
  0.7909749195581881  0.7112535735206791  0.3334569018727862
  0.7058554619873689  0.7391112140425022  0.9999958744772357
  0.1885178953927280  0.5494403474593810  0.6609684811872114
  0.1399510000917132  0.5768596930759244  0.3358342051575818
  0.0691801630891291  0.6255644342039517  0.0019884562348125
  0.9991687973327998  0.6744448246050823  0.6736225056097567
  0.9434060427040691  0.7029155504679281  0.3275643570230145
  0.8541672810681362  0.7554150103712871  0.0017418047690327
  0.7842182190139155  0.8017911777230964  0.6713933416507984
  0.2845371113354460  0.5989877142090947  0.3329641980703784
  0.2110926209749593  0.6320256303033176  0.0097431026557757
  0.1410784631756812  0.6628803945809025  0.6576247200780756
  0.0829480169267498  0.6974499195657415  0.3259036728926858
  0.0001125698437860  0.7494261449030688  0.0004310455777414
  0.9201074197524335  0.7951727353290039  0.6721710751492722
  0.8683141708207458  0.8382508409651166  0.3415007804981869
  0.3549331150407085  0.6229572332186635  0.9984311778118453
  0.2739168623597763  0.6706866986897495  0.6622519417354837
  0.2298720838838122  0.7114650366326813  0.3355986971318359
  0.1393686082962518  0.7585783427339692  0.0051085818572076
  0.0694949922653691  0.7926430249417606  0.6558397816325936
  0.0040003636003050  0.8336406398143481  0.3361389250545130
  0.9272575363073514  0.8796217709284306  0.0001584246027875
  0.4224181886561311  0.6718698703631816  0.6677725025529782
  0.3643293358482680  0.6990716040369236  0.3361678118652947
  0.2920033409690106  0.7566350510271604  0.9930286526839680
  0.2103687559936489  0.8071334419125549  0.6782223398642770
  0.1526005391037373  0.8264804567738651  0.3239885671846565
  0.0714048936243614  0.8699796721951216  0.9947086611070972
  0.9932677835094168  0.9206184186417019  0.6653524944468501
  0.9363018904335334  0.9700842311821773  0.3247847785871301
  0.8547635822700244  0.0026380923589286  0.9848186065152476
  0.7870058673172906  0.0524866534849977  0.6542956048011845
  0.7154012116225701  0.0736697878837873  0.3156287926166286
  0.6430126138459542  0.1239568412004459  0.0044518996198235
  0.5674528146628717  0.1725074474243868  0.6648880977988938
  0.4973261853115574  0.2091752433418179  0.3352030644799768
  0.0713707716809466  0.9628412578180630  0.3385421389771324
  0.1464465865613391  0.0067022894495707  0.9979300187256186
  0.2222372860690243  0.0495903531385196  0.6777619346935637
  0.2905735754733172  0.0769519137293244  0.3310431001650684
  0.3512313143638721  0.1246098410592040  0.9966054564680391
  0.4193002860894879  0.1549387585082229  0.6648244551570173
  0.8484967360407580  0.9248544647010135  0.6597232969765017
  0.7880079144385093  0.9488965840540544  0.3238327609981866
  0.7173963129883560  0.0141027488899752  0.0022903417028743
  0.6291845236983349  0.0485673460217839  0.6672581599081582
  0.5592970780759927  0.0805829085290668  0.3267233544892818
  0.4787309337740808  0.1226637503019461  0.9821989090686785
  0.1546315781455476  0.9254384535971312  0.6680172674185627
  0.2028288459393366  0.9556120222264823  0.3394435548329966
  0.2959928112073555  0.9985470396343814  0.0007720981521189
  0.3562349170725909  0.0392777248291480  0.6705959351600086
  0.4272051678780002  0.0747734313132042  0.3520224657583881
  0.7861699620142204  0.8735475413518259  0.9839124809517230
  0.7116302007960016  0.9313723739039261  0.6621329514243470
  0.6443192981077459  0.9547358092582883  0.3319667195754050
  0.5697933904665931  0.0024162654256159  0.9836838866862436
  0.4869135000432152  0.0573688604752576  0.6564299944977918
  0.2256667860445347  0.8863163285945674  0.9899256183189493
  0.2834332915568609  0.9233106777984830  0.6680449278939236
  0.3530956204812554  0.9416714335921696  0.3392508666541403
  0.4268126797795304  0.9939939390249037  0.0076657629160337
  0.7176981267824445  0.8264623416865717  0.3407197465814988
  0.6438027339876982  0.8664652609492194  0.9964239642605648
  0.5499135689643140  0.9133157044379061  0.6737184496004645
  0.5142817055476598  0.9516636149725173  0.3322005678820545
  0.2849865004137229  0.8347241554507363  0.3220462814820166
  0.3655073486973848  0.8698934852622386  0.0212384950672586
  0.4280731411685181  0.9220216462408004  0.6631006183755588
  0.6250093094348799  0.7898300900744317  0.6830321328862112
  0.5924132456566511  0.8234276501603830  0.3356002083139913
  0.5052122253768658  0.8783335681825335  0.9925269374899486
  0.3554920199821652  0.7966807537026526  0.6727157994841946
  0.4328265204861310  0.8296430670910198  0.3406354573058223
  0.5669036034318466  0.7430421722927107  0.0028538890184535
  0.4879328906479117  0.7755596088731096  0.6643150083438840
  0.4322856519979723  0.7442040166490358  0.9954194560740532
  0.5104759114096709  0.6994985252872468  0.3443817218057177
  0.0092192054495044  0.0027433508891477  0.7727287919373396
  0.9418310604258551  0.0520521214250778  0.4412919144735170
  0.8632789639421716  0.0835044815333958  0.1133995937877117
  0.7749611510123842  0.1295146008250612  0.7693122581463214
  0.7233270932456577  0.1720138117320857  0.4258117937419783
  0.6451669614953559  0.2053182618126641  0.0914531046709897
  0.5573077075118817  0.2569999120461191  0.7737314733007139
  0.5115245268463013  0.2885575516288057  0.4482475100817211
  0.4330158430966904  0.3334566357898936  0.1147020675163759
  0.3523727456425476  0.3836736438535837  0.7878157286121521
  0.3018202003622292  0.4208105029697506  0.4299422689469523
  0.2040524918420346  0.4518586932603910  0.1078077420348222
  0.0783153669628831  0.0320536563268163  0.4582392631118921
  0.9916117300970839  0.0797769085002855  0.1185589191220942
  0.9328691371503268  0.1258239751582622  0.7638222696715218
  0.8679402976181620  0.1768202287260863  0.4525966361818732
  0.7860181906550281  0.2068334375394869  0.1171002284661071
  0.7209244373885468  0.2422380248827452  0.7759549507405339
  0.6554171284007708  0.2846861737869304  0.4443372014826537
  0.5765885757554017  0.3361481135254891  0.1104940139162807
  0.5015127470759495  0.3812523245257822  0.7781065924585775
  0.4338523133097567  0.4132324419219486  0.4616602711251900
  0.3618730959283880  0.4588906728203739  0.1065260394755043
  0.2888430192875120  0.5108873266387874  0.7747968870643831
  0.1554099793786392  0.0825752913731179  0.1022726033135513
  0.0548890730644089  0.1302674451612802  0.7882298541122736
  0.0043167912156221  0.1725316611837329  0.4469072454776608
  0.9281797553962789  0.2115838225371434  0.1131576189710657
  0.8687954827549547  0.2416940462106538  0.7771526352852192
  0.7895516324384246  0.2958442269819699  0.4387468260419638
  0.7190038353217787  0.3288178847714036  0.1145568006593578
  0.6495377768153290  0.3532388115104652  0.7789942514395207
  0.5820042509316181  0.4192338396902429  0.4480153595341037
  0.5154991765103958  0.4633562162694531  0.1226090218073068
  0.4363062417303283  0.4970336716134369  0.7826174698454196
  0.3531739790634134  0.5500715876869435  0.4359180433881846
  0.2072376737276471  0.1144306570517131  0.7941889018456152
  0.1434884106640482  0.1577569794474911  0.4457673798401842
  0.0679704958897602  0.2005912135745263  0.1099377521561635
  0.0145892856631775  0.2628530339073123  0.7836250194162204
  0.9360715082174238  0.2802565677735771  0.4325940924868874
  0.8604448694852493  0.3303511820691156  0.1073962326867317
  0.8069384628830392  0.3740175429113322  0.7711888561071092
  0.7168567654120821  0.4226732898323462  0.4317996540176310
  0.6514664131197776  0.4595423251477655  0.1093548665092214
  0.5681923229639949  0.4830164232593717  0.7654632115224800
  0.4978302532289050  0.5417559182318286  0.4571849651640107
  0.4211477430422192  0.5734700025689818  0.1112556320631484
  0.2897922329860734  0.1620404624662157  0.4472397698583208
  0.2130058026659967  0.2066734677729301  0.1086784909009779
  0.1515710515346598  0.2493253148803305  0.7776831444544356
  0.0861496620587374  0.2952740454836160  0.4416116189393620
  0.0000309863865837  0.3419361800248240  0.1242441698121297
  0.9418854978890963  0.3773050798490303  0.7821511313487619
  0.8576941977106713  0.4103837463135633  0.4422480892851866
  0.7760542521351113  0.4546937779309630  0.1046117919305516
  0.7168627017804283  0.4987638294397527  0.7724573597107138
  0.6493933793817774  0.5471276330423009  0.4597998790873135
  0.5793503068093528  0.5808307619254478  0.1070829003647731
  0.4978028538525763  0.5976901400800614  0.7824534461247907
  0.3623630588721696  0.2101842856541651  0.1166019010916131
  0.2878753332248465  0.2448460378438355  0.7786830303345909
  0.2340440165959734  0.2830420160384648  0.4415018193510107
  0.1331502650755993  0.3399494326772938  0.1254625566919714
  0.0796620405864914  0.3796148427466406  0.7705883973634684
  0.0007605631426131  0.4119235398565451  0.4464357326425770
  0.9304870037002146  0.4649139423032551  0.1058042138297850
  0.8610903625713604  0.4932062375033013  0.7778966355025929
  0.7978476490358304  0.5375151749604044  0.4450115057252404
  0.7147161913165476  0.5937987559173052  0.1169312156253639
  0.6471008242024752  0.6137536992491590  0.7756496806229478
  0.5759366328726756  0.6607741301976020  0.4583642419974581
  0.4366473644227398  0.2598319622719316  0.7796774656338528
  0.3746660806191144  0.2981422378536820  0.4394286581182456
  0.2745479955029992  0.3317886759112127  0.1163329020629860
  0.2165430519429279  0.3755259680208098  0.7693634875385200
  0.1534487426322002  0.4156008127123485  0.4360483827362032
  0.0726135791458020  0.4562931502629581  0.1141136706057608
  0.0073855301064398  0.4928024966184310  0.7765387067776786
  0.9342274687733791  0.5381543822266650  0.4398965295341668
  0.8679603554656978  0.5847019348317133  0.1093307890345301
  0.7901855737864096  0.6180319062724422  0.7734865929567221
  0.7250612213219654  0.6793019119954948  0.4624984324372079
  0.6497921187428375  0.7082383768260030  0.1144959752378085
  0.1551878653212810  0.4951114239073462  0.7861961344168691
  0.0622032280600209  0.5239044220478135  0.4566908104093628
  0.0078044353600575  0.5833190304421834  0.1082964711156791
  0.9299034281965461  0.6270987253755180  0.7841253293965025
  0.8583883357195248  0.6661634292850920  0.4353917466901862
  0.7957887880457335  0.7131483113903698  0.1130890782332230
  0.7189344381839575  0.7462899094137327  0.7948679610815148
  0.2152379701969735  0.5348903873018003  0.4334895913196490
  0.1303322590888953  0.5852872186889826  0.1214660409699277
  0.0631315187431127  0.6176476876144577  0.7822186504423243
  0.0034546409699203  0.6605440542185192  0.4492148219934293
  0.9116452796090755  0.6990226813559772  0.1060173982940924
  0.8599466149797479  0.7530702972374357  0.7751253008665415
  0.7926255545380485  0.7891360052076450  0.4438022896424911
  0.2794770439651870  0.5853931885526436  0.1119373029225059
  0.2177815396556753  0.6346648203254830  0.7808958959879178
  0.1488656439019067  0.6543106542448527  0.4390612637866482
  0.0725317083210086  0.7029558456714327  0.1044680534642382
  0.9927779789015219  0.7641239385040706  0.7797133830418801
  0.9355729912235446  0.8034545343184192  0.4410627387402855
  0.8532787722458863  0.8438949612787852  0.1091202220808327
  0.3526810656780697  0.6318466043019697  0.7915088748553671
  0.2766100070032209  0.6689146318126404  0.4592076795406257
  0.2037996111627791  0.7245628298951061  0.1102642847924002
  0.1516989093768899  0.7430431237936546  0.7693437461648713
  0.0558341198891128  0.7792527667269553  0.4454622727509445
  0.0038109477357651  0.8235150473789830  0.1092146109622973
  0.9196638888760944  0.8765189597757939  0.7593734857044510
  0.4179499609032433  0.6669729566427733  0.4502251167803735
  0.3639136839092316  0.7100161447055910  0.1055051723005818
  0.3009627763583893  0.7445004948847256  0.7805854569661790
  0.2186482476034328  0.7855943940762415  0.4375515887338324
  0.1318020302553009  0.8363503245647053  0.1084418081654590
  0.0719227878632438  0.8767993719611837  0.7752236178253398
  0.9961138021991616  0.9233644386079050  0.4492093320140143
  0.9267642915285563  0.9529992868411767  0.1083332358182290
  0.8556482693317236  0.9977733999753937  0.7724277632737895
  0.7838131173809089  0.0460681633898758  0.4369062922147151
  0.7114702503113435  0.0836398650417891  0.1020111189857857
  0.6406598660145093  0.1367340293667141  0.7630491901793519
  0.5735220051574359  0.1629973708466181  0.4395762436005697
  0.4952434568626956  0.2013969890387060  0.1127698547009928
  0.0643056953740668  0.9572063368983024  0.1139809388168231
  0.1466386502238777  0.0099494691049244  0.7852588609300284
  0.2144168017651253  0.0346743869775352  0.4490577210902060
  0.2882692672374461  0.1012327152419061  0.1086715839335568
  0.3536270567884685  0.1203417857099609  0.7789210671110709
  0.4224868784110001  0.1581141437143785  0.4358423733303738
  0.8626906217534795  0.9213452852862360  0.4349399294902412
  0.7803493555661802  0.9708779853346030  0.1105530618760469
  0.7124405287838087  0.0152128428375065  0.7784438423968822
  0.6424761044524203  0.0404916024381805  0.4268610052055877
  0.5635397320587074  0.0839369022163226  0.0932550483311090
  0.4974830917837636  0.1383665060614092  0.7724145036353036
  0.1369996307121895  0.9072683838171756  0.4466496081659059
  0.2081324073442516  0.9618159672128002  0.1173852952964083
  0.2881694509665635  0.9912932979172169  0.7757392397897860
  0.3540302810755946  0.0407163687368168  0.4575272259595451
  0.4315882035628960  0.0751084008844956  0.1080536988187220
  0.7738066610762502  0.8757371212638816  0.7729707300726147
  0.7044549720144744  0.9084810803966192  0.4482800817858816
  0.6371587807351489  0.9557854011228102  0.1077716815241345
  0.5655503491640133  0.9850977734035453  0.7775415144880142
  0.5030537574645564  0.0372587532487429  0.4526081129242954
  0.2133878522931170  0.8752653653894242  0.7824199003262819
  0.2764840507298558  0.9055405990718768  0.4402743911910321
  0.3522084658325895  0.9595157328477057  0.1253503488127237
  0.4151304612968758  0.9986630558241885  0.7681884698205081
  0.7106493423832774  0.8297348362056951  0.1132808520948032
  0.6358681836382658  0.8603001669351542  0.7792753286040011
  0.5686098061508957  0.9129993719392715  0.4458204460183737
  0.4990907149749404  0.9504918404144576  0.1198967849452401
  0.2826573137079009  0.8358286657502774  0.1134475598959312
  0.3606387741547792  0.8628663424596326  0.7714903344571695
  0.4185846335286740  0.9218820832431049  0.4355786609486003
  0.6445540090023769  0.7765642649025750  0.4532905368840332
  0.5618597343197180  0.8257503184514263  0.1117156101901742
  0.4946669886222992  0.8630837394110884  0.7803866135616957
  0.3408012194660230  0.7914766972182647  0.4454573882406763
  0.4273770322305097  0.8423072232139717  0.1064614331549834
  0.5760781367291870  0.7398210822536697  0.7865535885481663
  0.4967800567780074  0.7929126439729117  0.4385670533306438
  0.4402677677348450  0.7404098245329962  0.7814055696821640
  0.4928358989023067  0.7048994601079741  0.1154278973193144
  0.9922340203179871  0.0010054260661079  0.2276538437328028
  0.9418619348166786  0.0390824219076435  0.8791219365955598
  0.8546062596203754  0.0895353362552385  0.5583978588944447
  0.7752361428885308  0.1160722894767616  0.2125703202374751
  0.7207533941616120  0.1580186657099247  0.8891306744618390
  0.6321294976836569  0.2025223706787713  0.5391634798399636
  0.5839773920557150  0.2476474268949715  0.2151741514035166
  0.5073272376590410  0.2953690845368371  0.8866171093716417
  0.4220463931435745  0.3432873597950135  0.5574053957852669
  0.3539632581233860  0.3688292488854117  0.2180086042736065
  0.2859406127745601  0.4302580867092942  0.8858367302854546
  0.2173677657649549  0.4777460400005040  0.5461513401156139
  0.0780434064024931  0.0473752515235759  0.8707447166363664
  0.9980482125425425  0.0956948719243940  0.5559170443867316
  0.9274829639842608  0.1281118362708042  0.2327784535403197
  0.8657351386264764  0.1553028633225537  0.8863816339515580
  0.7790749051980299  0.2089400277119466  0.5423391351799296
  0.7227339436805735  0.2606112781485521  0.2256595234591003
  0.6297441243379254  0.2708686291254807  0.8885997377960848
  0.5634616249027431  0.3275416414001526  0.5522710495628829
  0.5230151828640857  0.3795186211631716  0.2453266956645805
  0.4326115807835222  0.4195539212894985  0.8969420502172554
  0.3492102262970960  0.4612391715242055  0.5710645392977582
  0.2873186538777333  0.5126190393318311  0.2202556628573902
  0.1407781897610434  0.0693183087988274  0.5703160390452879
  0.0755824162602394  0.1286337578591699  0.2212155225624457
  0.9928388933171632  0.1737490571847857  0.8969973852065394
  0.9265896297533089  0.2154537556263492  0.5542927563337656
  0.8466251890727179  0.2452809560981493  0.2172963669586849
  0.7841047222641038  0.2861576204217116  0.8802006222248409
  0.7118523477481205  0.3325070644213142  0.5372459830495799
  0.6590106324906060  0.3779447505158728  0.2246053658967355
  0.5624567034748225  0.4251659975426918  0.8897768132940556
  0.5096902701435440  0.4620174671183079  0.5624648757701394
  0.4463347638318496  0.4832206250687605  0.2182207956235942
  0.3650142934107450  0.5344193357132596  0.8836345950670363
  0.2120572130326224  0.1291825864397964  0.2286107834191142
  0.1313022069301724  0.1764092417904664  0.8961985839177089
  0.0820389237214982  0.2092285996395731  0.5663082490076761
  0.9978422375112146  0.2584391747544501  0.2107443769939863
  0.9194194699754661  0.2937592905482589  0.8998391761634466
  0.8648972694606414  0.3361071166119629  0.5607180148582245
  0.7979012801023941  0.3895737481156374  0.2192259880762890
  0.7146987878202395  0.3947244273935127  0.8818837023736492
  0.6428176268440993  0.4513699981735257  0.5575923000808345
  0.5889276329768194  0.5122357513218461  0.2312214192070030
  0.5146044699162644  0.5295288341855624  0.8919389966058375
  0.4143886310354645  0.5829229659462953  0.5588149279618548
  0.2855973619724850  0.1749964267638262  0.9038431490735661
  0.2171802779357890  0.1976032234264977  0.5632267085709870
  0.1343571252024631  0.2495338763001058  0.2245949515556731
  0.0773704919385878  0.2989720173833845  0.8906086952977645
  0.0084937990582930  0.3355766505518787  0.5678519349426381
  0.9327201394509572  0.3744322271318623  0.2224391014421201
  0.8536573900044644  0.4187125005712033  0.8995293648008200
  0.7758173226859455  0.4509487543415887  0.5386528596756222
  0.7133793949421303  0.5054348189911977  0.2222554305419990
  0.6478209288344985  0.5221855361161616  0.8818318711351552
  0.5711682488894496  0.5925122856033624  0.5707094703616704
  0.5116394709200449  0.6279180672401523  0.2097026295112983
  0.3626009955436587  0.2103121724408226  0.5580027293661587
  0.2824878799290573  0.2304676244185870  0.2337422748340856
  0.2177557463018687  0.3051679564228422  0.9007479627117974
  0.1498070965044676  0.3264747536126862  0.5467787845784216
  0.0775566648815129  0.3753507529206956  0.2249665714913220
  0.0019183093410007  0.4207356096570365  0.8926421890177778
  0.9242809772673368  0.4719909524159789  0.5522249066549563
  0.8552650009538851  0.5019698907005150  0.2174284620313784
  0.7911525082433357  0.5318552536665067  0.9002362008962024
  0.7138387800931199  0.5866559327526275  0.5483790798408634
  0.6414239986722805  0.6186520184431217  0.2151919767412878
  0.5846963368993201  0.6526923378136189  0.8805009466965217
  0.4356448545757132  0.2564136512740376  0.2176375970528071
  0.3597188936833930  0.3099435210338513  0.8775404715594775
  0.2851565122982009  0.3242896793052168  0.5478410342336844
  0.2136579866250017  0.3713498882912489  0.2218449106853768
  0.1379781060510368  0.4308545030477831  0.9057996463190676
  0.0709471597162903  0.4585804391864912  0.5685413129668646
  0.9983231515268116  0.4839690851668905  0.2382030024386310
  0.9172349424584425  0.5318243142643553  0.8811604447956611
  0.8562379985883339  0.5823045456931553  0.5506190412574909
  0.7811530333228021  0.6324288515868446  0.2230384176287998
  0.7152371370027026  0.6587244465832924  0.8935436592164194
  0.6365484974873539  0.7236884563368520  0.5643167839942365
  0.1355241795032001  0.5028277054086914  0.2208902601887033
  0.0662803837454007  0.5429100494890093  0.8878832594799846
  0.9968518699930016  0.5872294461137173  0.5595060494836304
  0.9303792218322258  0.6246036015634360  0.2154871721601950
  0.8593028165870891  0.6612540153750928  0.8863867263229608
  0.7821181407366424  0.7196313458760883  0.5589154879189238
  0.7162991157040466  0.7521303975369307  0.2330886774552212
  0.2100603859142325  0.5617652261289976  0.8975126883600026
  0.1288910235343153  0.5934390335114230  0.5474715327607740
  0.0605202894830796  0.6281004102962342  0.2287440962229468
  0.0033604235166891  0.6710838707423221  0.8932897593294129
  0.9321605533923076  0.7137342283302814  0.5484286300411441
  0.8571624875182238  0.7509508081014360  0.2264151127273024
  0.7879538295303519  0.7746172794197079  0.8847839276697584
  0.2727917313743049  0.5994416929702950  0.5563135696187658
  0.1891567227291375  0.6373619342703734  0.2243541392216741
  0.1364515597859466  0.6751770333473672  0.8915046791398424
  0.0780547089406909  0.7171408491450393  0.5546793141941109
  0.0048087133615198  0.7358213324736624  0.2219628336137305
  0.9215344798517293  0.7912309728954199  0.8962009650372167
  0.8526495477583680  0.8338142911111959  0.5682136826064621
  0.3543843251634158  0.6240609217641619  0.2149388082175321
  0.2831730851854815  0.6711235147702723  0.8913794846945819
  0.2147746999275242  0.7224327409352753  0.5711413605167976
  0.1372004388164711  0.7551701760204992  0.2300656270590835
  0.0734532665529031  0.8060244269016437  0.8921419610045263
  0.9986945865415819  0.8295715779424739  0.5520100162801924
  0.9292855879282840  0.8808556088922543  0.2244107879476758
  0.4330112621809334  0.6521839018752260  0.8946676771404825
  0.3471687658000917  0.7218921274911310  0.5565930051784136
  0.2984150073427472  0.7450506469075648  0.2203449299317768
  0.2137087781375300  0.7992911926864181  0.8862671350712432
  0.1468399890418652  0.8461206557670735  0.5535140251924062
  0.0633599000529088  0.8862820160569242  0.2248265958097164
  0.0100820821176839  0.9158426340734565  0.8789521905801294
  0.9264212215329550  0.9643943802591863  0.5525576026682302
  0.8468441201265691  0.9917386483209683  0.2116829877660820
  0.7979654924717536  0.0447392505928192  0.8668611922353193
  0.7010234256531547  0.0824582621160488  0.5522946433868228
  0.6432969593431608  0.1160967096422709  0.2138793155526741
  0.5635399525532492  0.1692380288153643  0.8956036264748946
  0.4833697090151290  0.2076515139949393  0.5640501090252030
  0.0624133987776503  0.9619612685119705  0.5553235125361979
  0.1194943097492853  0.0081982961854692  0.2364339918621710
  0.2154134995285588  0.0538050399095695  0.8992529108484035
  0.2886513121970111  0.0821716536167614  0.5683099286524609
  0.3732892595867909  0.1270618845069649  0.2353023913087782
  0.4252946564550015  0.1982560670917977  0.8871443991839527
  0.8575142575523103  0.9214221803789258  0.8896984016429599
  0.7835563314138696  0.9690259508511048  0.5591153796862187
  0.7140514593231515  0.9959490648537610  0.2126426744799517
  0.6607901199624777  0.0590732570469825  0.8787050373493415
  0.5666980390871927  0.0932327077610609  0.5506345601970821
  0.5054211669675510  0.1246662623734167  0.2365658546194780
  0.1431808536636439  0.9205977933411802  0.8967563360285808
  0.2107808987556510  0.9629219390427721  0.5667137765741828
  0.2753919048843940  0.9924693437504999  0.2195854143976703
  0.3608196296354009  0.0533675959345601  0.9027642243360532
  0.4257790975192819  0.0796843800593265  0.5508859865818607
  0.7714027784474951  0.8729403316188069  0.2158095838022263
  0.7088740421839788  0.9158529022154198  0.8931294123507527
  0.6360476391909060  0.9690560754484636  0.5498898766192468
  0.5680042564705161  0.0007252343122488  0.2197467558492079
  0.4977170088839458  0.0370451262676497  0.8705660760663108
  0.2051517276239707  0.8686268603358300  0.2184049071530936
  0.2819752520276566  0.9133127072441027  0.8824345783113401
  0.3422195616966306  0.9466419987295893  0.5644974343414688