Li 
 1.0000000000000000
   -10.5278949999999991   18.2348490367503473   -0.0000000000000021
   -18.0478199999999980  -10.4199137352859115    0.0000000000000046
    -0.0000000000000002   -0.0000000000000000   22.0820499999999988
 Li 
 504
Cartesian
 -0.2463311200000000 -0.0751262400000000 -0.4503172800000000
 -10.8597689499999994 16.4042385800000012 14.7121802800000001
 -10.2100013300000008 14.6273970400000000  7.0860250799999998
 -10.5247960999999997 13.1798792299999992  0.0698129400000000
 -10.5635933499999997 11.0588262999999998 14.4416048900000007
 -10.4592672800000006  9.7390485000000009  7.1864257199999999
 -10.2708707300000004  7.9020995599999999 -0.0289534000000000
 -10.0794680099999994  5.9636975500000000 14.4901433700000002
 -10.8767652300000002  4.3641600399999998  7.1902103000000004
 -10.5578170599999996  2.4594404999999999 -0.2214376100000000
 -10.3942201700000005  0.5741961799999999 14.7902065700000005
 -10.5411175700000008 -1.0561549699999999  7.1477695900000002
 -1.6960614500000000  0.6700814500000000 14.8834448100000003
 -1.8476539999999999 -0.7448460800000000  7.3445329800000003
 -12.0450347299999994 15.3657587000000007 -0.0688519500000000
 -12.3634752700000004 13.7311292599999994 14.6956661900000007
 -11.5896054300000007 12.5551817299999993  7.3437613300000004
 -12.0815461899999992 10.4531448999999999 -0.1400064100000000
 -11.9934505900000001  8.7450100899999992 14.3017714399999996
 -12.0276307700000000  7.2393630399999997  7.3246042700000000
 -12.0367789500000004  5.0602812899999998  0.1435535200000000
 -12.0293045000000003  3.4259247300000002 14.8678006400000005
 -12.1136989699999997  1.7042410800000001  7.3387220700000002
 -12.1287631900000008  0.0317236300000000  0.0414534200000000
 -3.1716343500000002  1.7987093400000000  7.4002421299999996
 -3.0378956800000001 -0.2280896600000000 -0.1659054800000000
 -3.3647413199999998 -1.7184388900000001 14.7579737800000004
 -13.4787323299999997 14.8194619700000008  7.3142281599999999
 -13.2405549499999999 12.8672272900000007 -0.0049016500000000
 -13.5391749499999996 11.1864681000000008 14.6919172099999997
 -13.6839674599999999  9.8492846699999994  7.2997121299999996
 -13.1892311400000004  7.8776048400000001  0.1907460400000000
 -13.0801426000000003  5.9867466499999997 14.7258772899999997
 -13.3063025400000008  4.5599083699999996  7.5189917499999996
 -13.4680106700000000  2.8179342500000000 -0.1193036800000000
 -13.3827181999999993  0.4963215000000000 14.8665228900000006
 -4.8319976799999997  2.4380554999999999  0.0138831100000000
 -4.3282861500000003  0.9556926700000000 15.1332760799999999
 -4.6194419599999996 -0.6602847300000000  7.1079982099999999
 -4.6094184399999998 -2.8006600399999999 -0.0837765300000000
 -15.1405922000000004 13.9335790700000004 14.6754072099999995
 -14.6170841800000009 12.3581113299999998  7.2787528699999999
 -15.0809440400000003 10.4795024500000000 -0.0630071900000000
 -14.6486257700000007  8.8698629699999998 14.7035063699999995
 -14.7635314199999996  6.8024651499999997  7.4285824199999997
 -14.8990239899999999  5.0348012100000004  0.1758100800000000
 -14.8893564699999992  3.4192132300000000 14.4563530599999996
 -15.1734288999999993  1.6975475300000000  7.2972535199999999
 -5.7289757300000002  3.4559065300000000 14.7267279599999998
 -6.0668086600000004  2.1306930500000001  7.6370744799999999
 -6.2633965399999996 -0.1812749700000000  0.0089648100000000
 -6.0277368100000004 -1.5809076300000000 15.0009677099999994
 -16.5650479799999992 15.1014829099999996  7.0581905500000000
 -16.5864245699999984 13.2798903700000004  0.0018044800000000
 -16.6461180800000008 11.1076390400000005 14.6159464499999991
 -16.6883026299999990  9.4882779199999998  7.6520242400000003
 -16.2210447199999983  7.8550826799999998 -0.1420859600000000
 -16.3400099200000000  6.2760818699999996 14.5843328700000008
 -16.2754540500000004  4.1229128199999998  7.6142358899999998
 -16.4500328499999995  3.1362531400000000  0.1642523500000000
 -7.4721205599999996  4.6573555100000004  7.4141757899999998
 -7.6628424800000001  2.8588391600000000  0.0980487300000000
 -7.3237945800000004  0.8453383500000000 14.7749245400000007
 -7.5214425499999997 -0.6370065499999999  7.6419349099999998
 -7.6895677800000000 -2.8260433200000001  0.1604626400000000
 -17.8674418800000012 13.5954239300000008 14.7657049600000008
 -17.4605102400000014 12.3458756699999999  7.4091259300000001
 -17.9382001799999991 10.4604154400000002  0.0756765500000000
 -17.8144054199999999  8.5627558399999995 14.2863275099999996
 -18.1166689299999994  7.1042580199999996  7.4767339300000000
 -17.9061969599999991  5.6037382500000001 -0.1775228200000000
 -17.8851703300000011  3.3522636900000000 14.8920039299999996
 -9.4905640499999997  5.0066742599999996 -0.1107251600000000
 -8.9872037500000008  3.0367579800000000 14.8407739400000001
 -9.2188853799999997  2.1624199100000001  7.2990931100000003
 -8.8896093300000008 -0.1505991600000000  0.2444065500000000
 -8.7613678299999993 -1.7751801500000000 14.5271524299999992
 -9.1712949100000003 -3.4664526100000002  7.4072512899999996
 -19.3897195899999986 12.7623696599999992  0.0392670000000000
 -19.6529320200000015 11.2036936199999992 14.9695571699999999
 -19.2173492199999991  9.6037307700000003  6.8873531000000003
 -19.3731369800000017  7.8602453800000003 -0.0605795200000000
 -19.6376182600000000  5.9171880200000002 14.7379803299999992
 -19.4469218499999990  4.6032220800000001  7.3251629400000002
 -10.7390494499999996 -3.0902739700000001 -0.3426546500000000
 -10.5172060100000007 -4.5707613299999998 14.7750094599999997
 -20.9208664599999992 12.1301647199999998  7.4742008799999997
 -21.0269083999999999 10.4215497999999993 -0.1524052400000000
 -21.0624051600000008  8.5908807100000004 14.6339104500000001
 -21.1638773700000016  7.0121073699999998  7.3634119800000004
 -20.7705183399999989  5.1696926999999997 -0.0000911000000000
 -11.9008970999999999 -2.2875256600000000 14.5955390499999993
 -11.8844493399999998 -3.4588428800000002  7.4159077099999999
 -12.0183958000000004 -5.2568376099999998  0.0439091900000000
 -22.6914029799999994 11.1920352899999997 14.8749658500000006
 -22.6181730899999991  9.8785473699999997  7.2332925100000001
 -22.6261775800000002  7.7042521800000001  0.0384626200000000
 -22.7267499199999996  5.9455059300000004 14.8257413400000004
 -13.8059992800000000 -1.0529090400000001  7.3525320699999996
 -13.6290457600000003 -2.7364104700000000  0.2151476800000000
 -13.4488052899999992 -4.3346120499999996 14.5217019500000006
 -13.4607186199999997 -5.7548234300000001  7.1966212000000001
 -24.0545882900000016 10.4279459499999998  0.0095183700000000
 -24.0379286999999984  8.4923885899999991 14.8429152900000005
 -24.2701207100000005  7.0990763699999997  7.5410373100000001
 -14.9797185800000001 -0.0190088600000000 -0.0346428100000000
 -14.9882007799999997 -1.9936649099999999 14.6238804899999995
 -15.2604620799999999 -3.2217215600000002  7.4107072100000000
 -15.1579434600000003 -5.3629553599999999  0.1128079600000000
 -15.0371146200000005 -6.9920412499999998 14.4822868499999995
 -25.6154066200000017  9.6213315099999992  7.4226365500000000
 -25.6373253699999992  7.7428182200000002  0.0034983400000000
 -16.5729608199999987  0.7019058100000000 14.7457857899999993
 -16.4523394699999983 -0.6407753700000000  7.4232744300000002
 -16.7297937200000000 -2.5594351199999998 -0.1539416400000000
 -16.7817392500000011 -4.5742183299999999 14.9765396200000005
 -16.5227329699999999 -5.8292072700000004  7.1543317399999999
 -16.4529797500000008 -7.7630556799999999 -0.1168436100000000
 -27.0721744400000013  8.5193235800000000 14.6923470500000004
 -27.3651935799999997  6.9651296199999999  7.1719137200000000
 -9.0464730600000003 15.5589961900000002 -0.3352362900000000
 -9.2327848100000001 13.8040267799999992 14.4481882600000002
 -8.8612479099999995 12.2776002599999998  6.9697307799999999
 -9.0067200399999994 10.4336183499999997  0.0983070700000000
 -9.0874670099999992  8.5499036900000007 14.6820922199999995
 -9.0109549999999992  6.8890799200000004  7.4019708299999998
 -18.1285696999999999 -8.7312875999999999  7.4757044400000003
 -1.6627360000000000  2.6005941199999998 -0.0457094300000000
 -3.2346885799999998  3.5357361599999999 14.9663729300000004
 -4.4479423799999998  4.4967329800000000  7.3101102899999999
 -5.9466623800000002  5.1062262000000000 -0.0749584800000000
 -7.2106562099999998  6.0314289199999997 14.6806868599999998
 -25.6244914500000007  5.8353061500000001 14.5680428299999996
 -25.4215793300000001  4.4817848099999997  7.1508912200000001
 -7.8071969299999999 12.9346640399999995  0.0505754400000000
 -7.5005233200000001 10.9670172499999996 14.7344280500000000
 -7.3425667399999996  9.3590308300000000  7.2147214499999999
 -7.2538422899999997  7.4514406099999997 -0.3930845800000000
 -18.3300916500000000 -6.8233053699999999 14.7511907000000004
 -19.3820745599999995 -6.2588414500000003  7.4956095500000002
 -3.0899584700000000  5.4125239499999998  0.0170495100000000
 -4.4592811100000000  6.0866194299999998 14.8081329700000008
 -5.8470685800000002  7.0108890400000003  7.7733776900000002
 -24.0423435999999988  5.2334005499999998 -0.3552454000000000
 -24.3012089899999992  3.2716494900000002 14.6212529399999998
 -24.0142259500000002  1.8008003600000000  7.3305056999999998
 -6.0423333100000001 10.3649191799999993 -0.3602932300000000
 -6.1615570699999997  8.2810155900000009 14.4953199599999998
 -18.3718737899999986 -5.1203399100000002 -0.2224630000000000
 -19.6477008499999997 -4.4524543300000001 14.7518014999999991
 -20.7124701500000015 -3.3734897699999999  7.4913546000000002
 -4.3850427700000001  7.8454474200000002  0.1692757600000000
 -22.4716941000000006  4.4754506899999997  7.5237904799999997
 -22.4156966500000010  2.7111523900000001 -0.0789662000000000
 -22.2727897500000012  0.5109200600000000 14.8770844899999997
 -22.5897574200000015 -0.5384035100000000  7.3356695500000004
 -18.0652592600000013 -3.5010678799999999  7.1114420899999997
 -19.5477040299999985 -2.3992437500000001  0.4689895100000000
 -21.1471897899999988 -1.8015369100000000 14.6426210099999992
 -20.8347436799999990  3.1669890000000001 15.0827497099999999
 -21.0979384600000017  2.2225210199999998  7.4107405799999997
 -21.1708274000000003  0.0603086500000000 -0.1650205400000000
 -18.1209334999999996 -1.8190014100000000 14.8549439200000002
 -19.5300009000000010 -0.7522829300000000  7.5219291999999998
 -19.3785929900000014  2.5949662899999999  0.0630197200000000
 -19.1340664599999997  0.8161183800000000 14.6694372299999998
 -17.9823180899999997  0.1281219500000000 -0.1011478000000000
 -17.9986602699999985  2.0197368899999999  7.6046544000000003
 -0.1465703300000000  0.1395253400000000 17.0634358199999987
 -10.8549258300000009 16.6317685900000001  9.7446301200000001
 -10.5955841399999997 14.8716520899999995  2.5040955000000000
 -10.4961658300000007 12.7817686300000002 16.9879917499999991
 -10.7195859999999996 11.3973912700000000  9.4027973199999995
 -10.4977970599999999  9.6251235699999995  2.0194720300000002
 -10.5055651799999996  7.4845050000000004 17.0855770800000002
 -10.5931112600000006  6.3208277300000004  9.8982239300000003
 -10.5769106700000002  4.4213891500000004  2.5328567899999999
 -10.6342161300000004  2.4276175499999999 17.3965863100000000
 -10.7722435900000004  1.1188366500000000  9.4940066800000000
 -10.3033075699999994 -0.9874622199999999  2.3806159500000001
 -1.4029945800000001  1.0940725600000001 10.1188623199999999
 -1.3514884599999999 -0.9842273400000000  2.6180239799999998
 -12.0919967800000006 15.6996529200000001 16.8667615499999997
 -12.3288039800000000 13.9843087700000002  9.9942615499999992
 -12.0080096300000001 12.1777364699999993  2.5858131000000002
 -11.9616850499999998 10.6218489599999995 17.1346760200000006
 -12.0381275300000006  8.9850270200000004  9.8118762999999998
 -12.1370046299999998  7.0113712899999996  2.4399343400000002
 -12.1606468700000008  5.1723929000000002 17.1821886799999994
 -12.0254963299999993  3.6053850399999998 10.1944051899999995
 -12.0917382199999999  1.8171000500000001  2.3523133299999999
 -12.2613114900000006 -0.0563930200000000 17.1091036000000010
 -3.1264439400000001  1.9734501000000000  2.2583887400000000
 -2.9289098000000000 -0.3564815800000000 17.4057310500000000
 -3.1592670900000002 -1.7190489900000001  9.8686281400000002
 -13.5904057500000004 14.7205325400000007  2.4987522000000002
 -13.5086382599999997 13.3239233600000002 17.1611233500000004
 -13.6516600399999994 11.3146834999999992  9.6884293499999998
 -13.5040428800000001  9.6846724000000002  2.5296490000000000
 -13.2134560000000008  8.1635053600000003 17.2017900099999999
 -13.6935365200000003  6.2443792100000000  9.8930975700000001
 -13.7896907899999999  4.5719178600000001  2.7074585500000001
 -13.5637605400000005  2.7769304699999999 17.2817980999999996
 -13.6457715700000008  0.7083757000000001  9.6259640300000004
 -4.2470003700000003  2.5865901199999999 17.5373190399999999
 -4.3578004899999998  0.9726753900000000  9.8434575700000000
 -4.3358203599999996 -0.8507114099999999  2.4276509399999999
 -15.4254137100000008 15.7619765199999993 17.3040468599999997
 -14.9128826399999994 14.1488733799999995  9.5525643799999997
 -15.0207919099999998 12.2478514799999996  2.3715289799999999
 -15.2455646999999992 10.8171705199999995 17.0294308799999996
 -15.1753242099999994  8.6675556799999995  9.5350215499999997
 -15.1523071599999994  7.0910003100000001  2.4147796300000000
 -14.6992625799999992  5.3279117700000000 16.9029969099999988
 -15.0186179299999996  3.4328095799999998 10.0955812599999994
 -14.7836826000000006  1.7040575600000001  2.4567524299999999
 -5.9753793000000002  3.5958699799999998  9.8759709600000001
 -5.9725082699999996  1.7306089499999999  2.3998438700000002
 -6.0955025200000001  0.1659269700000000 17.1728380799999982
 -6.2360274200000001 -1.5058039999999999  9.7516898500000000
 -16.6994238499999987 14.6724685699999995  2.7435659700000001
 -16.7256057899999995 13.2436534800000008 17.2715003899999999
 -16.4362464400000015 11.3637609800000003  9.7657444200000008
 -16.3764491399999983  9.4133621900000009  2.3100428200000001
 -16.5486550699999988  7.8748070700000001 17.0574420400000015
 -16.7112063500000012  6.1405675000000004 10.1533239200000001
 -16.5820682400000017  4.5121589499999999  2.3646099600000001
 -16.0278202400000005  2.8494801900000000 17.2781761200000012
 -7.6082883900000002  4.4175335499999999  2.5748090100000001
 -7.4496585000000000  2.6980886499999999 17.1949176100000010
 -7.5722821900000001  1.3184839200000000  9.7492652500000005
 -7.5371381800000004 -1.1142687800000000  2.7704704499999999
 -7.6898939500000001 -2.5029286300000000 17.0161715200000003
 -17.9702240300000007 13.9565100399999995  9.8582161700000004
 -18.1867526200000000 12.1229268700000006  2.3363739400000001
 -17.9667663200000014 10.5626863199999992 17.1775523999999997
 -18.1006333999999995  8.9477696800000004  9.8267663200000008
 -18.2412300800000011  6.8454100400000000  2.5820809499999999
 -17.8895258199999994  5.4045252399999999 17.1279350299999997
 -17.9889329599999996  3.6169081200000002 10.1216221100000006
 -9.2863780899999995  5.2547721400000000 17.2168767799999998
 -9.3252626000000003  3.7253630200000001  9.7034856000000005
 -8.8784747700000004  1.5491318700000001  2.5688689600000001
 -9.0571675900000006  0.0356816700000000 16.9891229999999993
 -9.1161809100000006 -1.5324099600000001  9.6288421900000003
 -8.9995647800000000 -3.4304376099999998  2.5198637800000001
 -19.4996598399999996 13.2345635599999998 17.1475665500000005
 -19.5479621200000011 11.4279746200000005  9.7138171599999996
 -19.6903907599999997  9.7345823300000003  2.4142479500000000
 -19.4731193500000010  7.9690754999999998 17.0801696199999995
 -19.8932870400000006  6.1431145899999997 10.2129135099999999
 -19.6231019400000015  4.4690783999999999  2.5283058500000002
 -10.5694834100000001 -2.3291910300000001 17.3608223499999994
 -10.1102017600000007 -4.3247724099999996 10.0846693100000007
 -21.1376961399999992 12.2990277599999995  2.3914080900000001
 -21.1076905699999990 10.4223340100000001 17.3150947299999984
 -21.0598199299999997  8.7112162499999997  9.6143423200000004
 -21.2487531599999997  7.0801445300000001  2.4972386800000002
 -21.0377722300000016  5.3333844700000004 17.5523140600000005
 -11.9196081800000009 -1.6486798000000000  9.5723388299999996
 -11.9352827099999992 -3.7220532600000000  2.6822191900000001
 -11.8118362900000005 -5.2846419100000004 17.2729913500000016
 -22.4856452900000008 11.4150318300000002  9.9195841599999994
 -22.2135413100000001  9.3399580100000001  2.3410814900000001
 -22.6447048399999993  7.8340691700000002 17.1163556499999991
 -22.5868631899999990  6.2306782299999997  9.8000643499999995
 -13.5073758700000006 -1.0035248200000000  2.4718051200000000
 -13.7470976199999999 -2.6419391800000001 17.2437822199999999
 -13.3761227799999993 -4.1033180299999996  9.6953727799999996
 -13.4504267800000008 -6.0021345200000003  2.3068687799999998
 -24.2426336199999994 10.1410510499999997 17.2176699100000015
 -24.3502170299999996  8.6881053200000000  9.7395694499999994
 -24.2136936799999987  6.7660969000000000  2.4095982000000000
 -15.1164430099999993 -0.1527011200000000 17.4781385500000006
 -14.9845719800000001 -1.9260910400000000 10.1402469400000008
 -15.2223604399999992 -3.8336270400000001  2.4348614500000001
 -15.0073787400000001 -4.9762385399999998 16.9886870700000010
 -14.6516294200000008 -7.1016198599999996  9.8367201800000004
 -25.4306675999999996  9.7233853400000001  2.4116825000000000
 -25.5013812699999995  7.6366802299999996 16.7685232800000001
 -16.4375411699999994  0.6714537699999999  9.9418935400000006
 -16.6454886299999991 -0.7623958900000000  2.3297704900000000
 -16.6051154300000015 -2.2696201399999998 17.2369270899999982
 -16.4801720100000004 -4.1988080300000004  9.6620360600000001
 -16.4818980500000016 -6.3113081099999997  2.3946174299999998
 -16.5815127999999987 -7.8246726400000002 17.1185266899999995
 -27.1516966999999987  8.5426070099999993  9.9194629299999999
 -26.9564367400000009  6.9692365900000004  2.3922199300000000
 -8.9679898599999994 15.6258180000000007 17.0567884899999989
 -9.0833321199999997 13.8126875800000004  9.6477865900000008
 -8.9998013199999995 12.1020324299999995  2.2526146300000001
 -9.2125509500000007 10.2575791499999998 16.8496903700000011
 -8.9797266600000007  8.7596686399999992  9.7067445899999996
 -8.8486477200000007  6.9321504200000001  2.4901895700000001
 -17.9524912800000003 -8.8014028100000008  2.5169327899999998
 -1.7233625400000001  2.5702610400000001 17.3401254300000005
 -2.8831546700000001  3.5485538900000000  9.9161150500000002
 -4.8618984000000003  4.2017104099999996  2.3996913499999999
 -5.8948554099999999  5.1943849699999998 17.2001739499999999
 -7.3015131000000002  6.0564487099999997  9.6242930799999993
 -25.7105901500000016  6.1306948600000002  9.6043652700000006
 -25.7376672000000006  4.1130878400000004  2.4412382400000001
 -7.7750577300000003 12.8327289800000006 17.1896358499999984
 -7.4947061200000000 11.2935357700000001  9.4259660600000004
 -7.4477652299999999  9.4014466599999995  2.0592626400000000
 -7.7346635499999996  7.6297620200000003 17.0564956899999984
 -17.8165342100000004 -6.9554907100000003  9.8629389799999991
 -19.5498775800000004 -6.2267763800000004  2.5921079599999999
 -2.8766807299999999  5.3454495199999998 17.1299126800000003
 -4.4620353200000000  6.0314276800000002 10.1031390800000000
 -5.8992581900000003  7.0873226799999998  2.3860471799999998
 -23.9517012099999995  4.9851423900000000 17.0687783099999990
 -23.8125309899999991  3.3793355799999998  9.8989431799999998
 -23.9577836200000007  1.6592927500000001  2.3798196599999999
 -23.7329219900000012  0.0480914200000000 17.1697105999999984
 -5.9685364099999996  8.7848763299999995  9.9945149799999999
 -18.0431566699999983 -5.2290943299999997 17.2774353599999984
 -19.2538287900000000 -4.3940099999999997  9.7221611200000009
 -21.0251809799999982 -3.5756029599999999  2.7679926699999999
 -22.3941409799999995 -2.8361415999999999 16.9631761999999995
 -22.4565466299999983  4.3128180599999997  2.5014734399999998
 -22.2208960299999987  2.6307068100000000 17.2079967700000012
 -22.4639126599999983  0.8551392799999999  9.8446293800000007
 -22.4086802899999995 -0.8031991400000000  2.6475667999999999
 -18.0606718300000004 -3.5550491499999999  2.5051546899999999
 -19.3696235799999990 -2.4147992500000002 17.0360881400000004
 -21.0447769700000009 -1.9731041800000000  9.6184697700000008
 -20.8010890000000011  3.6616124000000001 10.0095843000000002
 -20.8181933999999984  1.6411803500000000  2.4669096900000000
 -20.7845820900000007  0.0269197500000000 17.2325362200000001
 -17.8723484200000016 -2.0326601200000001  9.8366123200000004
 -19.7011896700000015 -0.9836129400000000  2.3508866899999998
 -19.4170478600000003  2.7958259999999999 17.3687156700000003
 -19.5403929500000011  0.7966279900000000  9.6844596000000003
 -17.9978760700000002  0.3132097800000000 17.2550368600000006
 -17.9104231700000014  1.6417966500000001  2.5488846000000001
  0.0636136700000000 -0.1520879200000000  5.0270635600000002
 -10.6211760700000006 16.7674747300000000 19.4128145600000011
 -10.6131226000000005 14.6506656500000005 12.3305694399999997
 -10.2564565000000005 12.9268507899999996  4.6939884400000000
 -10.4399084900000005 11.4962884699999996 19.6338280099999984
 -10.3100802700000003  9.4165203300000009 11.9058349200000002
 -10.6175488500000004  8.0682747599999995  4.7514863700000003
 -10.6718559600000003  6.1733152100000002 19.5783233400000007
 -10.6388485900000003  4.1189275900000002 12.3086538200000000
 -10.3830519100000007  2.6112976200000002  4.8140768999999999
 -10.7755732500000008  0.7308317600000001 19.5610909699999986
 -10.9106995500000004 -1.0144041300000000 12.0601412000000003
 -1.6766528000000001  0.9294637000000000 19.2278283700000010
 -1.7065356100000000 -1.0327228600000000 12.2757879699999997
 -12.0765826199999999 15.5775975500000001  5.1402254500000000
 -11.9172467599999994 14.1683071199999997 19.5731235599999991
 -11.9729308099999994 12.0291762200000001 11.9759598999999994
 -12.3123325099999992 10.4633973200000003  4.9830248800000003
 -11.5184682800000004  8.6608612899999997 19.6221038400000012
 -11.8434774100000002  6.8616820199999999 12.1952769300000003
 -12.3557326900000000  5.5825516100000003  5.4173163600000001
 -12.1265229500000000  3.5168911999999999 19.8063192000000008
 -12.0008101400000005  1.5617233800000001 12.6102757099999998
 -12.2765167700000006 -0.1022338900000000  4.8636965600000002
 -2.7331423600000000  1.8447782399999999 12.5937472899999996
 -3.1172826499999999  0.0378812900000000  4.8848922300000002
 -13.5882953299999993 16.2938171499999989 19.8075411099999990
 -13.6435089299999994 14.6512124700000008 12.2399203599999993
 -13.3399676399999993 12.8822761099999994  4.7983492400000003
 -13.4194934099999994 11.3162935200000003 19.4366341499999997
 -13.4953344200000007  9.5158251699999994 11.8634926600000004
 -13.7590735700000000  8.0788077000000005  4.9597469199999997
 -13.5948045099999995  5.8261200600000000 19.6480960799999984
 -13.7043737300000004  4.4799429799999997 12.4203775099999998
 -13.4200443899999993  3.1037298099999999  4.8187625199999999
 -13.4879361299999996  1.0873771600000000 19.5124633100000011
 -4.5639801400000000  2.5207598600000001  5.0481947500000004
 -4.5661380899999999  0.5561068400000000 19.7899019400000000
 -4.6398172799999999 -0.6841765700000000 12.5052470699999994
 -4.6415470100000000 -2.7322603800000000  4.6536678699999996
 -14.9812664400000006 13.7045287699999996 19.8702936799999996
 -15.1715483800000008 12.2690639800000003 12.3818032400000000
 -15.4311777800000005 10.4902845399999993  4.8409592300000002
 -14.6481892100000000  8.9194300200000001 19.4738000100000015
 -14.9137609599999994  7.0184459400000003 12.3127810499999999
 -15.4449069199999993  5.4015541400000000  5.1058429399999996
 -14.9745429100000003  3.8660900499999999 19.6958415199999983
 -14.8831287600000000  1.4823071100000000 12.3397791800000007
 -6.1650430500000004  3.3843771100000000 19.9587096099999997
 -5.8527585699999998  1.9012410399999999 12.4372003400000004
 -5.9180401900000001 -0.1501395700000000  4.9595169500000003
 -6.2103415699999998 -1.7044233900000001 19.6664657399999996
 -16.6737438100000013 14.8930524299999991 12.5393348200000005
 -16.5772651300000007 13.1064594299999992  4.9119113600000004
 -16.5440632100000009 11.2033655000000003 19.8634524100000007
 -16.3063652599999998  9.4480646400000001 11.8945593800000005
 -16.6323800000000013  7.7417783599999996  4.9078555300000000
 -16.2445012800000015  6.3717886000000004 19.4726554699999994
 -16.7067544300000002  4.2412398900000001 12.6024350599999995
 -16.7190388799999994  2.7868164200000001  4.6306639499999998
 -7.6131014400000003  4.4205397199999998 12.3218441700000003
 -7.1334409399999998  2.7496710800000002  5.1615086000000003
 -7.8001259799999998  0.7909193799999999 19.8903615500000015
 -7.4693109700000004 -0.6701289800000000 12.0739964600000000
 -7.5907712500000004 -2.4968883900000001  4.9677230799999998
 -18.1414513100000008 13.8858003599999993 19.7113694499999994
 -18.2491408300000018 11.9360190799999994 12.1942579999999996
 -18.0636023600000009 10.3651452200000005  4.8012661699999999
 -17.9279984200000015  8.8846606900000005 19.8790608000000013
 -18.1030803999999996  6.9038381800000002 12.1093342600000007
 -17.9181647800000015  5.2499691200000003  4.7518799899999999
 -17.9352954699999998  3.8608515799999998 19.4432659299999990
 -9.2141307099999992  5.2721100300000003  4.8058842999999998
 -9.3808876199999993  3.3298349699999998 19.3778925700000002
 -8.8548195799999991  1.8207154699999999 12.0974531100000000
 -8.9514247900000008  0.0265873300000000  4.8987904100000002
 -9.2286035300000009 -1.9734568200000000 20.0019130800000013
 -9.0233014699999998 -3.4846578699999999 12.5545577000000002
 -19.2448282500000012 13.1613558400000006  5.2600106100000001
 -19.2548226599999985 11.1840772299999998 19.4578290000000003
 -19.5237113700000009  9.5458075099999995 12.1587972000000004
 -19.6378591900000004  7.6543535599999997  4.9251454900000002
 -19.4184817199999991  6.1783893100000000 19.7312757599999991
 -19.7625147400000003  4.0665944700000001 12.4612714400000009
 -10.5017282499999993 -2.7681583600000002  4.8777097700000001
 -10.4961357700000004 -4.4484630899999997 19.6062825300000014
 -21.0929631600000000 12.0585631899999992 12.3550405600000008
 -21.0676681300000013 10.4570090100000002  4.7583985100000001
 -20.9808432700000012  8.7790473400000000 19.5732360099999987
 -21.2218346599999990  6.7633096799999999 12.3419997499999994
 -21.1154359099999986  5.2244723799999999  5.1470758300000004
 -12.3501313699999997 -2.0231257700000000 19.8189200599999999
 -12.0672320200000005 -3.8332751799999998 12.0892937600000003
 -11.9729943999999993 -5.4411737499999999  5.0511385700000000
 -22.6748740899999994 11.3034898100000003 19.7256691300000000
 -22.6950353100000015  9.5607578800000006 12.1104284300000007
 -22.5771416800000004  7.8053859200000000  4.9997098400000004
 -22.2756484099999987  6.2967738999999998 19.5378429300000001
 -13.6905384800000007 -1.2718146900000000 12.2845440600000000
 -13.4944155800000001 -3.1920120900000000  4.9541993199999999
 -13.6220212600000004 -4.5471128500000004 19.6862509000000010
 -13.7645807399999995 -6.0492299500000000 12.2484563499999997
 -23.8584915899999999 10.6553403899999992  4.9013943900000001
 -23.9818124200000007  8.5594836399999998 19.7899545199999984
 -24.0251351500000006  6.8596627999999997 12.5473229499999999
 -14.9938601499999997 -0.0405163000000000  4.7462895100000004
 -15.0935328999999996 -1.8294306700000000 19.6834863499999990
 -15.2994615599999992 -3.6113026100000001 12.6119720799999993
 -15.0736072199999995 -5.3669788000000000  5.0803206799999998
 -15.3202920500000008 -7.0592957700000003 19.7003233900000012
 -25.4861102600000002  9.5669807400000000 12.1895127799999994
 -25.6809445700000012  7.7669429499999998  4.9554502400000002
 -16.3291947700000009  1.1001950000000000 19.7560963799999989
 -16.6835354900000006 -1.1914836600000001 12.2907145700000004
 -16.5882218299999984 -2.3218108599999998  4.8656677600000000
 -16.6753671499999996 -4.4315979700000003 19.5705951899999988
 -16.8165492800000003 -6.1388992099999999 12.2227243800000007
 -16.6625046700000006 -8.0796239399999994  4.9646321300000000
 -27.1630011099999997  8.8756930399999998 19.4090662199999997
 -27.1584815299999995  6.8442448699999998 12.2016046100000004
 -8.7663865899999998 15.5281572600000004  4.6743943200000002
 -9.2083428600000001 14.0846011600000001 19.1420721900000004
 -8.8684928900000006 11.9238483599999991 12.1957979299999995
 -8.8678553600000001 10.5207052399999998  4.7228937400000000
 -8.9872669300000005  8.5126203000000000 19.7767640600000014
 -8.8365226900000007  6.6504628099999996 12.4553827100000003
 -18.0183855299999998 -8.8854545300000005 12.2626815699999998
 -1.4059849200000001  2.0935351600000001  5.2209472300000002
 -3.2389143800000002  3.3673887699999998 19.8573477400000016
 -4.5219099199999997  4.4072915600000000 12.5494482600000001
 -6.2231401499999999  5.4828994199999999  5.1959591700000001
 -8.0555473000000006  5.6893727399999996 19.5899669799999998
 -25.6574817199999998  6.0355033999999996 19.6463645900000010
 -25.7380047199999993  4.1908646000000003 12.3464137699999998
 -7.4443482400000001 13.0628309599999994  4.6955861700000003
 -8.0228725099999991 11.4338698399999998 19.4036085699999994
 -7.6487845800000001  9.3621764200000008 12.1591398900000005
 -7.5709752400000001  7.9172669800000000  5.2238590299999998
 -18.1221762599999998 -6.9816683399999997 19.8022182499999992
 -19.5977209999999999 -6.1900056699999997 12.5142019500000004
 -2.7633851300000001  5.1001985999999997  4.8488961000000002
 -4.7618399399999998  6.0234057300000003 19.9348847400000011
 -5.9206869800000002  6.9337131999999997 12.1646918999999993
 -23.8759174300000012  4.9704502599999998  4.7655180200000000
 -23.9920998099999991  3.3831029099999999 19.7221283400000011