Li                                      
   1.00000000000000     
    21.6720000000000006    0.0000000000000000    0.0000000000000000
     0.0000000000000000   21.6720000000000006    0.0000000000000000
     0.0000000000000000    0.0000000000000000   21.6720000000000006
   Li
   432
Direct
  0.9953635954226669  0.9994518839977857  0.9931526988741268
  0.9189061517164987  0.0743166786637133  0.0785876162790728
  0.8242114078073115  0.1716056381506093  0.1663558305647825
  0.7361995621077853  0.2427623135843504  0.2667614036544848
  0.6757391329826490  0.3476744476744216  0.3254285086747899
  0.5862394102990010  0.4245326716500557  0.4122651319675157
  0.5132049672388348  0.5183490656146148  0.5036436069582848
  0.4255770325765980  0.5923601651901080  0.5850771820782583
  0.3357805592469560  0.6640483148763394  0.6656648791066786
  0.2530688252122530  0.7427402150239928  0.7594681312292337
  0.1639683979328197  0.8378353732927266  0.8164469430601713
  0.0831762615356197  0.9124087121631561  0.9177408061092649
  0.0634593747692875  0.9085444758213370  0.0700398329641914
  0.0017864341085243  0.9905407179771117  0.1639273002030279
  0.9167230786268021  0.0852195279623444  0.2601171516242147
  0.8435042981727605  0.1560440522332982  0.3264700322997385
  0.7548377048726493  0.2290565637689213  0.4045425249169412
  0.6747730481727601  0.3224516920450355  0.4901592635658929
  0.6009153580657056  0.4155463450535279  0.5860759897563668
  0.5196618480066419  0.4998193106312314  0.6757083485603559
  0.4139444375230710  0.5853429249723163  0.7428569942783341
  0.3397063842746419  0.6622444167589521  0.8440380334071591
  0.2394654019010716  0.7539988824289381  0.8990248329641943
  0.1531177630121832  0.8403085594315272  0.9956214521040962
  0.1626407336655618  0.8218334569952006  0.1789052874676997
  0.0576734523809534  0.9133153137689192  0.2572461521779275
  0.9829884062384622  0.0005790591546670  0.3374417972499089
  0.9267676305832424  0.0988412292358802  0.4144632419712053
  0.8459996087117005  0.1674932424326343  0.5115323749538589
  0.7507065757659674  0.2546795971760787  0.5903381501476588
  0.6672053714470252  0.3491560077519367  0.6693216177556280
  0.5733012278516085  0.4204256778331512  0.7658201315060893
  0.4900356279992621  0.5004001393503117  0.8500565042451100
  0.4232381981358415  0.5828395275009228  0.9389723426541181
  0.3257170884090073  0.6781223260428177  0.9918809440753051
  0.2376067607973411  0.7520582821151720  0.0709635912698445
  0.2369645035068260  0.7514266495939452  0.2589510520487295
  0.1535227579365070  0.8488470681063092  0.3527802307124404
  0.0693392967884847  0.9164222309892978  0.4282064585640484
  0.9984575087670748  0.9892884796050225  0.4938495062753816
  0.9190567538759709  0.0769181256921385  0.5860554641934286
  0.8283093060169833  0.1648466491325209  0.6713164341085260
  0.7496833697858989  0.2587072905131009  0.7345907082871932
  0.6683757871908469  0.3419807433554851  0.8433369799741612
  0.5911221414728658  0.4209619772056143  0.9249667870985618
  0.4956968913805824  0.4882704706533758  0.0224549007936474
  0.4011012181616849  0.5840549003322266  0.0755462656884447
  0.3332631902916177  0.6658477662421589  0.1659330214101118
  0.3136703322259109  0.6564506095422686  0.3216581007751955
  0.2548005430970832  0.7571686115725385  0.4240467787929134
  0.1677409846806910  0.8216865148578805  0.5119657105943176
  0.0781716578995955  0.9060362619970448  0.5946885765042467
  0.9914785769656689  0.9827971617755651  0.6620242100406060
  0.9096574031007734  0.0855997674418632  0.7578036055740114
  0.8404268000184558  0.1678887167774121  0.8209738459763756
  0.7784460788113705  0.2457811581764489  0.9185498624953823
  0.6734210197489858  0.3398117681801409  0.9806243129383532
  0.5843448758767096  0.4103605786268005  0.0808873075858259
  0.4940794306017011  0.4847816906607605  0.1671954761904786
  0.4161237956810595  0.5934731884459197  0.2472849801587316
  0.4126740554632704  0.5875303202288649  0.4253696557770397
  0.3394797951273532  0.6612321599298667  0.4886091685123688
  0.2672513473606486  0.7414161374123296  0.5587773661867814
  0.1703598689553374  0.8218197697489842  0.6674065125507553
  0.0738150798265025  0.9192550830564770  0.7462290494647448
  0.9995485049833874  0.9848085215946867  0.8207527136397204
  0.9243930232558171  0.0832763865817654  0.9084300904392748
  0.8466968110926558  0.1482158997785135  0.9921610192875576
  0.7570053409929898  0.2423526956441506  0.0617603520671821
  0.6750148804909557  0.3116959809892919  0.1623977828534535
  0.5804863985788131  0.3993445418050925  0.2418726591915856
  0.5130665923772639  0.5017907253599105  0.3272792321889995
  0.0603999598560350  0.0801328728312996  0.9106884436138785
  0.0156514050387599  0.1491752320967166  0.0026861720191960
  0.9235813404392772  0.2538477284053187  0.0797166865079362
  0.8344051698043558  0.3191315356219988  0.1675789262643050
  0.7562204245108930  0.4163056612218554  0.2588063505906248
  0.6676558121077889  0.4961151172019171  0.3293648320413425
  0.5970233831672189  0.5848273329641955  0.4353690803802124
  0.5158360954226637  0.6840220431893655  0.5017348564968600
  0.4053299783130271  0.7454792972499078  0.5777864055001842
  0.3307716334440727  0.8313647812846057  0.6677513782761153
  0.2524309122369885  0.9262313732004444  0.7559490499261727
  0.1569509159283839  0.0079943447766695  0.8558664091915844
  0.1642876273532679  0.0005400987449278  0.9997217894056831
  0.0863667875599887  0.0748724736987825  0.0881591883536359
  0.0044339756367648  0.1546560815799154  0.1739617363418233
  0.9237948117386452  0.2437932253599087  0.2516356695275022
  0.8349721004060555  0.3247123827980829  0.3219356861387936
  0.7527119213731979  0.4152034860649678  0.4184079521963824
  0.6684753169988937  0.4911799732373581  0.5025635137504594
  0.5889972586747874  0.5972935095976339  0.5881242524916956
  0.5091627385566611  0.6691835091362108  0.6862670334994476
  0.4177020173495762  0.7534751061277234  0.7581836554078976
  0.3428016057585808  0.8447277104097424  0.8383325830564772
  0.2531841016057612  0.9185913081395327  0.9108594204503504
  0.2486645842561828  0.9127157830380241  0.0957567035806548
  0.1589862693798452  0.0041247019195296  0.1803479198966400
  0.0903072139165744  0.0779803599114075  0.2612533144149154
  0.0160375226098211  0.1541940033222602  0.3238012832225934
  0.9113602030269448  0.2526001222775918  0.4103169084533036
  0.8277127953119248  0.3320404235880403  0.5176638801218161
  0.7474448218899994  0.4225013132152071  0.5926118692321865
  0.6614644324473957  0.5016139151901058  0.6738086281838349
  0.5647041597452969  0.5830956630675530  0.7683668733850126
  0.5094588815060916  0.6743999796973057  0.8395891675895157
  0.4239886484865281  0.7574913016795861  0.9286454909560717
  0.3387288902731669  0.8383496059431508  0.9937408744001459
  0.3418230283314898  0.8226392123477311  0.1698487287744541
  0.2342077404023613  0.9019577224067916  0.2536345353451424
  0.1722902380952362  0.9934729660391284  0.3426723763381290
  0.0870505873938754  0.0776578571428601  0.4131282802694756
  0.0062047577519380  0.1714580218715369  0.5006834892949428
  0.9160291712809183  0.2437636088039881  0.5965667852528611
  0.8508556649132544  0.3450403022332935  0.6706253737541559
  0.7576899289405716  0.4281440942229580  0.7596915430047986
  0.6665093789221146  0.5013430860095980  0.8432804129752682
  0.5863769841269857  0.5790192529531168  0.9501986918604644
  0.4996368226282755  0.6596772582133639  0.0051908310262121
  0.4173311291066781  0.7494561351052056  0.0816223195828698
  0.4139129189737929  0.7480566989664084  0.2470159689922511
  0.3346740402362514  0.8332173126614961  0.3355779849575455
  0.2411937103174608  0.9081203405315605  0.4223715180878571
  0.1620965282392035  0.9936938985788117  0.5090936429494306
  0.0869926702657793  0.0681777934662264  0.5791722328349920
  0.0017704171280926  0.1657478792912528  0.6629649538575109
  0.9132616754337377  0.2435063021410144  0.7412426467331130
  0.8541483720930216  0.3420902214839430  0.8389916574381715
  0.7588239539497934  0.4076745293466217  0.9122331755260262
  0.6747417880214073  0.5023830910852709  0.0017657793466199
  0.5841291620524203  0.5846815776116614  0.0812060132890338
  0.5013954780361729  0.6659862066260587  0.1513322411406435
  0.4959992072720567  0.6543204037467731  0.3354852791620502
  0.4120564857881135  0.7497617045035057  0.4006646128645244
  0.3294174354005150  0.8547670427279428  0.4882837998338871
  0.2597271267072685  0.9078208647102244  0.5935911452565534
  0.1672092575673645  0.0007078539128855  0.6737472637504638
  0.0702723025101548  0.0763162398486514  0.7340428331487630
  0.0021151462716844  0.1566170681063142  0.8277838999630873
  0.9316314802510135  0.2431376490402357  0.9035720731819836
  0.8436856510705084  0.3253033121077920  0.9955920930232551
  0.7567879065153207  0.4068355481727579  0.0904773297342203
  0.6615073292727942  0.4934321244001509  0.1574335765042463
  0.5650993198597263  0.5837499640088595  0.2365709722222249
  0.1726705061830955  0.1660590720745674  0.8213976305832418
  0.0944283259505383  0.2450129023624967  0.9007043623108189
  0.0138215203949770  0.3332102819306044  0.9877930343300108
  0.9268312809154651  0.3866182336655584  0.0825406095422636
  0.8342441846622393  0.4927123528054622  0.1589192515688467
  0.7569602242524951  0.5853676033591739  0.2585743120155044
  0.6656024238648968  0.6700815180878550  0.3312708453303799
  0.5941671571613156  0.7482681829088236  0.4101306630675552
  0.5051198920265776  0.8377711244924342  0.4859824557032084
  0.4029011567921756  0.9193886858619393  0.5977733517903303
  0.3296855103359206  0.0068187324658524  0.6706532982650444
  0.2472045676448857  0.1112500313768905  0.7453831598375800
  0.2682223666482102  0.0928632604282029  0.9076179969545990
  0.1733815780730907  0.1712937107788832  0.9795146400885955
  0.0855474270948662  0.2480311734034686  0.0619482839608736
  0.0131116648209684  0.2969436807862706  0.1634969684385368
  0.9126749538575112  0.4061005440199352  0.2547367884828375
  0.8560641399040207  0.5012290263935029  0.3351321917681815
  0.7613839087301599  0.5806781146179389  0.3948540425433720
  0.6793856215393106  0.6713031635289752  0.5019813109080857
  0.5890544693613862  0.7502847254521967  0.6018180730897029
  0.5056686743263228  0.8399875978220734  0.6525793766149874
  0.4044985077519385  0.9380432945736459  0.7507134122369905
  0.3294880384828360  0.0155025401439630  0.8348061392580277
  0.3225774630860130  0.9921939207272032  0.9991657009043919
  0.2464845491878904  0.0939614114987108  0.0835968678479162
  0.1559454503506856  0.1671358370247304  0.1643858887043166
  0.1004413049095589  0.2462444818198577  0.2642992774086395
  0.0020535732742744  0.3308526822628295  0.3309433882428934
  0.9357269287559973  0.4031234131598396  0.4140253908268718
  0.8389229291251397  0.4955647203765210  0.4972961051125893
  0.7419585497416037  0.5731889368770737  0.5722702643964581
  0.6648881349206377  0.6435073606496857  0.6711480047988161
  0.5873402925433737  0.7553313302879303  0.7711272831303049
  0.4919957073643388  0.8493529877260997  0.8412084223883340
  0.4185451818014059  0.9235110529715769  0.9106177948504950
  0.4128301564230341  0.9065078165374700  0.0652023592654132
  0.3174713911960154  0.9954495662606107  0.1827649492432641
  0.2309633522517558  0.1077735801956408  0.2531208614802480
  0.1820224054078992  0.1507897794389095  0.3457736447951305
  0.0857445288852006  0.2597742843300139  0.4129796073274292
  0.9959300212255471  0.3356604074381693  0.4935235889627165
  0.9202831270764094  0.4280773075858235  0.5811442114248777
  0.8378951070505707  0.4946583485603568  0.6567163468992234
  0.7668160760428222  0.5676057133628660  0.7516428400701329
  0.6761648403469920  0.6532983425618326  0.8426420381136950
  0.5819466528239232  0.7463989857881117  0.9264852205610907
  0.5019035783499461  0.8354138745847166  0.0009618281653729
  0.4898261323366526  0.8347701564230334  0.1510620925618298
  0.4091642437246250  0.9180199630860102  0.2500526601144344
  0.3253495653377598  0.9951557696566979  0.3398548887966015
  0.2581025849021756  0.0721509191583607  0.4208479895717971
  0.1629783665559259  0.1607514913252146  0.4929307285898830
  0.0929375179955727  0.2537236821705449  0.5807701794942801
  0.9976114765596193  0.3402952062569184  0.6556728889811723
  0.9330350009228496  0.4236849783130339  0.7460852473237338
  0.8436882908822412  0.4900274603174637  0.8406327528608344
  0.7660715969915088  0.5871296396271717  0.9090101864156495
  0.6804096853082342  0.6447964322628295  0.0095420708748648
  0.5835144222960480  0.7521950885935738  0.0875795150424494
  0.5657017801771858  0.7460360825027692  0.2358387435400502
  0.5040685248246604  0.8266215623846449  0.3345688026024334
  0.4277918540051644  0.9371271977667064  0.4195208393318595
  0.3369799750830538  0.9988782613510523  0.5093741634366893
  0.2387084366925052  0.0887512859911439  0.5981966131413827
  0.1658429586563273  0.1599230052602465  0.6526316837393864
  0.0838777611664838  0.2473125549095627  0.7504596239387240
  0.0033839036544876  0.3355183061092646  0.8218692889442565
  0.9340490554632694  0.4214465960686624  0.9193938302879303
  0.8500212117017369  0.4831640171650022  0.9933635257475046
  0.7661927164082698  0.5719533144149125  0.0798120381136940
  0.6723033241048384  0.6557593941491291  0.1595419878183861
  0.2486004697305262  0.2615024907715053  0.7575532355112600
  0.1662754909560746  0.3305014557954991  0.8216209897563687
  0.1087422471391690  0.3952402468623077  0.9206226102805459
  0.0010336512550779  0.4845465199335521  0.0099339594868937
  0.9356922406792165  0.5812918092469559  0.0843198237356972
  0.8418017377261009  0.6573033019564392  0.1705955334071589
  0.7607124381690653  0.7373789188815039  0.2526317432631942
  0.6643078502214834  0.8246612158545616  0.3193544361387950
  0.5909547531376873  0.9206231339977862  0.4009742008121080
  0.5013358038021423  0.0010626965669971  0.5223813076781099
  0.4158893701550355  0.0944665933001119  0.5773645478036187
  0.3327466837393871  0.1770785155961576  0.6591780057216710
  0.3381885626615002  0.1664566620524184  0.8325759025470632
  0.2552945104282003  0.2476644688999627  0.9018445745662618
  0.1827521571613175  0.3434017704872616  0.9912956201550358
  0.0904384823735711  0.4136580795496485  0.0839762213916586
  0.9915887573828002  0.4837758250276849  0.1719396456256916
  0.9207531898301937  0.5868306732188984  0.2519117552602452
  0.8366326476559607  0.6571833891657448  0.3426550844407501
  0.7373559293097074  0.7483894407530443  0.4121171197858970
  0.6595849515503858  0.8302700452196348  0.5047822420634915
  0.5754751365817654  0.9297557848837243  0.5756143789221113
  0.5012352763935013  0.0136018198597299  0.6707748837209309
  0.4189231487633833  0.0974558121077891  0.7513600036913957
  0.4220995911775560  0.0820672411406420  0.9191867824843101
  0.3479545353451456  0.1635973057401259  0.9958566011443324
  0.2618691034514598  0.2577230781653768  0.0858689848652645
  0.1708718927648576  0.3318771590070142  0.1789252754706538
  0.0846618480066468  0.4029771373200433  0.2545521470099672
  0.0097532853451483  0.4969384768364691  0.3428009962163188
  0.9235878972868221  0.5877156169250668  0.4096988127537813
  0.8240738016795888  0.6639173648025078  0.4890926356589134
  0.7540111950904418  0.7292284505352526  0.5854201684200788
  0.6706813579734217  0.8423241514396480  0.6521009597637502
  0.5799371931524533  0.9246559976005884  0.7267905781653781
  0.5087961618678492  0.0062633868586204  0.8364517395717996
  0.5044228866740497  0.9963469725913612  0.9942100382982630
  0.4201545856404607  0.0809878262273926  0.0798598924880025
  0.3476335917312667  0.1697351748800315  0.1686820030454044
  0.2718267534145440  0.2360261821705407  0.2614108273348066
  0.1669382645810273  0.3435187961424901  0.3395172595976348
  0.0855145011997038  0.4116329535806571  0.4223541782022906
  0.0014903931339987  0.5026059131598402  0.5029499963086010
  0.9200211798634186  0.5867550207641230  0.5785571645441152
  0.8276034210040635  0.6662272351421166  0.6732063616648176
  0.7390125378368424  0.7544616537467732  0.7525351674972285
  0.6698896317829437  0.8454131464562593  0.8421380389442632
  0.5932872406792171  0.9162999847729765  0.9173754628091544
  0.5850640651531904  0.9241188312107766  0.0737013787375389
  0.4928052274824637  0.9901256621447061  0.1543432438169035
  0.4037654286637107  0.0729020833333323  0.2359391754337423
  0.3486778672942066  0.1546061789405684  0.3517409320782576
  0.2579469956626070  0.2652129328165387  0.4135740711517144
  0.1772029461978590  0.3337461411037310  0.4955147965116282
  0.0844816772794417  0.4144964207272039  0.5823406953672929
  0.9967863736618696  0.5016229789590270  0.6584766043743073
  0.9169836064968635  0.5712218609265420  0.7464050009228487
  0.8376081524547772  0.6746490831487648  0.8203228474529354
  0.7403260954226667  0.7373801241232911  0.9175128465300872
  0.6684184962163187  0.8318202962347740  0.0176522111480253
  0.6727267894056865  0.8242791426725731  0.1686567215762267
  0.5699368516980456  0.9088069384459203  0.2309946839239601
  0.5029776725729036  0.0172914964008868  0.3164748541897353
  0.4329826342746372  0.0958109523809512  0.4176815102436322
  0.3282563252122586  0.1695250239940904  0.4992310377445577
  0.2395482918050931  0.2490547799003338  0.5726455357142868
  0.1699573897194568  0.3343975143041718  0.6787961913990372
  0.0799344370616453  0.4269707290513125  0.7321356136950925
  0.0142384196197867  0.4783973140457718  0.8286426656515289
  0.9064634256183126  0.5834105366371318  0.9188423818752298
  0.8324579526578049  0.6691393544665942  0.9951687320044300
  0.7607860737356944  0.7468302547065306  0.0948386650978250
  0.3127038113695093  0.3394579277408667  0.6639971299372434
  0.2486480537098572  0.4377538284422329  0.7413871889996315
  0.1732328146917652  0.5116622665190107  0.8399980587855325
  0.0659582152085676  0.5818813150609046  0.9190715005537129
  0.9947243586194148  0.6603015582318221  0.9931998311184955
  0.9215571202473214  0.7517090453119266  0.0710322918973816
  0.8255435169804386  0.8336081012366208  0.1691463478220712
  0.7566580744739753  0.9205918553894392  0.2601501315060943
  0.6676621566998904  0.9996156298449606  0.3293277113325956
  0.5849347854374329  0.0914286637135504  0.4147795556478400
  0.4967123034330001  0.1724343498523453  0.4892635492801745
  0.4130014908637847  0.2544596308600973  0.5740545302694713
  0.4240988547434483  0.2491373555740140  0.7498246562384665
  0.3345138275193804  0.3379675853636002  0.8182822646733143
  0.2442516638981189  0.4213618184754537  0.9224521996124011
  0.1590121045588759  0.5071640157807309  0.0004298855666320
  0.0746315628460721  0.5935519301402721  0.0649775936692478
  0.9958851388888874  0.6638457996493159  0.1691343724621603
  0.9118793627722397  0.7377166846622387  0.2503326850313741
  0.8370809588409003  0.8403929425064618  0.3320920413436710
  0.7373579780361723  0.9195243992248052  0.4147165397748225
  0.6617894347545246  0.9950177740863779  0.4917022296050177
  0.5826316251384256  0.0969029858803978  0.5812592515688451
  0.5042818360095964  0.1754970944075325  0.6840919246031731
  0.5115383241048335  0.1597344098375757  0.8268356136950885
  0.4052680850867461  0.2392868853820573  0.9102903608342530
  0.3094417248061987  0.3392626854927983  0.9941169102990060
  0.2405356441491335  0.4189838090623823  0.0987905264857858
  0.1449377293281628  0.5043075138427469  0.1690591966592834
  0.0730328114617933  0.5788518133997798  0.2559649469361389
  0.9963857876522724  0.6589199404761885  0.3329038542820228
  0.9084572226836443  0.7472312486157264  0.4218947291435953
  0.8312614294942762  0.8217611263381315  0.5043738768918402
  0.7370117331118493  0.9263662569213764  0.5743832290513069
  0.6623327570136581  0.0015445976375048  0.6577282138242921
  0.5843575618309345  0.0909860534329994  0.7307259560723480
  0.5943816883536357  0.0901466657438164  0.9096947951273506
  0.5034180818567719  0.1801428492986332  0.9872131579918815
  0.4042334270025805  0.2680439087301565  0.0714379886489453
  0.3200617155777010  0.3242056266149902  0.1781475885935748
  0.2561435986526419  0.4248976758028817  0.2454271244001447
  0.1562670399593955  0.4971734071613128  0.3191573634182348
  0.0820512153931361  0.5897178940568466  0.4013939613325945
  0.9949986341823518  0.6631496022517567  0.5020505956995223
  0.9112911558693213  0.7423001527316373  0.5852051153562172
  0.8284003672942077  0.8264412458471782  0.6670354148209654
  0.7335486415651502  0.9171054563492049  0.7483279831118494
  0.6525961909376150  0.9949806621447053  0.8250993050941275
  0.6854858051864170  0.9945664507198231  0.9938917571059420
  0.5802424769287526  0.0848190886858617  0.0768828414544132
  0.4910625442967884  0.1780532562753763  0.1722547088409030
  0.4189473251199729  0.2604415365448531  0.2610088732004456
  0.3323135732742699  0.3566884246954629  0.3330266754337359
  0.2501193687707612  0.4375081238464347  0.4318358720930249
  0.1457237301587284  0.5062127833148793  0.5002470980989315
  0.0776347946659257  0.5982590010151370  0.5981198717238811
  0.0123689299557057  0.6751730915466965  0.6819748232742739
  0.9160837527685501  0.7631360580472517  0.7384908928571434
  0.8190301785714311  0.8306208453303796  0.8204031118493873
  0.7541214553340723  0.9225545113510520  0.9118686489479515
  0.7496618687707652  0.9182227634736080  0.0944988436692498
  0.6631007424326327  0.9961671391657418  0.1585117054263563
  0.5846669642857165  0.0753057115171671  0.2233465453119265
  0.4908687532299751  0.1631021327057951  0.3160657036729404
  0.4035672102251766  0.2577258642487976  0.4112887910668164
  0.3347864188815066  0.3431285322074586  0.4905969532115151
  0.2401917317275775  0.4048475013842747  0.5872196299372447
  0.1634878825212240  0.5047920454964938  0.6596633951642659
  0.0842464479512728  0.5845200549095608  0.7440594605943147
  0.9813558803986737  0.6642603659099322  0.8370989110372804
  0.9091548500369129  0.7604387541528226  0.9233140254706527
  0.8203399949243249  0.8306276195090447  0.0040568212439993
  0.4172185465116272  0.4270917183462544  0.5905312670727199
  0.3209406270764106  0.4933876375046111  0.6792160714285700
  0.2272995694905902  0.5955446322443692  0.7458180841639006
  0.1615475535252884  0.6584206653746776  0.8293888473606472
  0.0897844735142144  0.7554326356589129  0.9024995344222972
  0.9948511544850476  0.8214964668696965  0.9935866417497223
  0.9017577404023598  0.9113188390549993  0.0838722231450717
  0.8422054568106319  0.0030302145625711  0.1781293392395753
  0.7508043743078616  0.0867768097083825  0.2547989650239941
  0.6648246594684366  0.1434810248246592  0.3084860552786992
  0.5882334666851250  0.2235643397009994  0.4069837786083426
  0.4925463681247706  0.3453209163898094  0.4864081418420056
  0.4834173283499439  0.3520596516242165  0.6788750313768901
  0.4034040005537065  0.4277922720561094  0.7491537070874870
  0.3244615010151364  0.5102402510151336  0.8391647623661882
  0.2433083439461043  0.5855474229420423  0.9159157419712045
  0.1634075770579528  0.6673484302325576  0.9870601859542276
  0.0796659929863424  0.7509961600221473  0.0745690563861174
  0.9930401956441486  0.8298492644887432  0.1672121853082302
  0.9005700705980075  0.9223082765780717  0.2546266412882972
  0.8335322406792187  0.0030310714285733  0.3481631367663311
  0.7388414410298978  0.0913688805832393  0.4308652736249527
  0.6662731856773689  0.1768163062938370  0.5159019910483593
  0.5776304517349544  0.2687718401624224  0.5924568618493922
  0.5720320261166449  0.2695976868770771  0.7670232931893679
  0.4803466449796971  0.3555098158914731  0.8463952007198259
  0.4051976513473576  0.4273070021225536  0.9334642954042067
  0.3206530846253202  0.5076236004983414  0.0150251896456268
  0.2309406256921349  0.5928831261535592  0.0915846668512401
  0.1607439465669955  0.6724083527131768  0.1675477671650043
  0.0649109989848640  0.7573458947028442  0.2727338625876712
  0.9757020159653038  0.8442291145256533  0.3311858102620917
  0.9126338635105213  0.9227240697674404  0.4302485566629741
  0.8429901024363247  0.0071082276670325  0.5168020810262064
  0.7583130320228832  0.0837327791620552  0.5920817737172399
  0.6702049183277978  0.1744439225729053  0.6748424423218893
  0.6801818600036924  0.1824032728866740  0.8142309551495046
  0.5775410709671434  0.2484632779623510  0.9184887467700236
  0.4972143881506099  0.3335230107973430  0.9956814465669979
  0.3987387504614262  0.4029674118678486  0.0853359814507186
  0.3426983928571445  0.4897921497785163  0.1791659353082338
  0.2337957516611269  0.5803710377445555  0.2429996050203016
  0.1649214368770799  0.6663743738464376  0.3288526854928051
  0.0839420611849420  0.7578017091177571  0.4135503774455529
  0.9807391103728307  0.8166747416020641  0.5079038473606516
  0.9001563215208535  0.9079499810815790  0.5861427242524897
  0.8511401370431884  0.9941134473052813  0.6888065582318177
  0.7528995422665190  0.0806727528608349  0.7447510289774826
  0.7612508319490559  0.0697249340162429  0.9083322688261362
  0.6778466131413836  0.1751136692506492  0.9968787218530792
  0.5839348181985997  0.2645256335363584  0.0749566749723130
  0.4982088888888896  0.3274714599483204  0.1545732350498312
  0.4183818221668503  0.4085469665928372  0.2576665914544094
  0.3307252810077514  0.5077238727390210  0.3295302334809875
  0.2630070676448852  0.5804671313215195  0.4075275170727224
  0.1645347895902560  0.6589796668512378  0.4872137758397912
  0.0918643807678095  0.7395970888704326  0.5829486494093743
  0.0035893715393129  0.8199999589331881  0.6617326522702101
  0.9208832807308980  0.8995103234588413  0.7555342594130678
  0.8424544827427098  0.9794094910483579  0.8223905149501647
  0.8326351199704689  0.9906343609265420  0.0121894624400127
  0.7539609957548876  0.0785065042451123  0.0803769716685139
  0.6668725336840140  0.1694126130490972  0.1542653940568499
  0.5944744744370638  0.2633223541897394  0.2541980486341799
  0.5007349986157266  0.3410510358988574  0.3493670657991856
  0.4227440882244338  0.4403210769656667  0.4249701882613479
  0.3332211148025124  0.5101560165190122  0.5241927353266860
  0.2591573966408234  0.5898414516426698  0.5831692077334836
  0.1721952293281674  0.6985882401255097  0.6789525576781088
  0.0675408001107414  0.7586795076596502  0.7736797106866007
  0.9924250087670714  0.8446956446105602  0.8505018415466949
  0.9116473883351759  0.9096133134920663  0.9365445482650401
 
  0.00000000E+00  0.00000000E+00  0.00000000E+00
  0.00000000E+00  0.00000000E+00  0.00000000E+00
  0.00000000E+00  0.00000000E+00  0.00000000E+00
  0.00000000E+00  0.00000000E+00  0.00000000E+00
  0.00000000E+00  0.00000000E+00  0.00000000E+00
  0.00000000E+00  0.00000000E+00  0.00000000E+00
  0.00000000E+00  0.00000000E+00  0.00000000E+00
  0.00000000E+00  0.00000000E+00  0.00000000E+00
  0.00000000E+00  0.00000000E+00  0.00000000E+00
  0.00000000E+00  0.00000000E+00  0.00000000E+00
  0.00000000E+00  0.00000000E+00  0.00000000E+00
  0.00000000E+00  0.00000000E+00  0.00000000E+00
  0.00000000E+00  0.00000000E+00  0.00000000E+00
  0.00000000E+00  0.00000000E+00  0.00000000E+00
  0.00000000E+00  0.00000000E+00  0.00000000E+00
  0.00000000E+00  0.00000000E+00  0.00000000E+00
  0.00000000E+00  0.00000000E+00  0.00000000E+00
  0.00000000E+00  0.00000000E+00  0.00000000E+00
  0.00000000E+00  0.00000000E+00  0.00000000E+00
  0.00000000E+00  0.00000000E+00  0.00000000E+00
  0.00000000E+00  0.00000000E+00  0.00000000E+00
  0.00000000E+00  0.00000000E+00  0.00000000E+00
  0.00000000E+00  0.00000000E+00  0.00000000E+00
  0.00000000E+00  0.00000000E+00  0.00000000E+00
  0.00000000E+00  0.00000000E+00  0.00000000E+00
  0.00000000E+00  0.00000000E+00  0.00000000E+00
  0.00000000E+00  0.00000000E+00  0.00000000E+00
  0.00000000E+00  0.00000000E+00  0.00000000E+00
  0.00000000E+00  0.00000000E+00  0.00000000E+00
  0.00000000E+00  0.00000000E+00  0.00000000E+00
  0.00000000E+00  0.00000000E+00  0.00000000E+00
  0.00000000E+00  0.00000000E+00  0.00000000E+00
  0.00000000E+00  0.00000000E+00  0.00000000E+00
  0.00000000E+00  0.00000000E+00  0.00000000E+00
  0.00000000E+00  0.00000000E+00  0.00000000E+00
  0.00000000E+00  0.00000000E+00  0.00000000E+00
  0.00000000E+00  0.00000000E+00  0.00000000E+00
  0.00000000E+00  0.00000000E+00  0.00000000E+00
  0.00000000E+00  0.00000000E+00  0.00000000E+00
  0.00000000E+00  0.00000000E+00  0.00000000E+00
  0.00000000E+00  0.00000000E+00  0.00000000E+00
  0.00000000E+00  0.00000000E+00  0.00000000E+00
  0.00000000E+00  0.00000000E+00  0.00000000E+00
  0.00000000E+00  0.00000000E+00  0.00000000E+00
  0.00000000E+00  0.00000000E+00  0.00000000E+00
  0.00000000E+00  0.00000000E+00  0.00000000E+00
  0.00000000E+00  0.00000000E+00  0.00000000E+00
  0.00000000E+00  0.00000000E+00  0.00000000E+00
  0.00000000E+00  0.00000000E+00  0.00000000E+00
  0.00000000E+00  0.00000000E+00  0.00000000E+00
  0.00000000E+00  0.00000000E+00  0.00000000E+00
  0.00000000E+00  0.00000000E+00  0.00000000E+00
  0.00000000E+00  0.00000000E+00  0.00000000E+00
  0.00000000E+00  0.00000000E+00  0.00000000E+00
  0.00000000E+00  0.00000000E+00  0.00000000E+00
  0.00000000E+00  0.00000000E+00  0.00000000E+00
  0.00000000E+00  0.00000000E+00  0.00000000E+00
  0.00000000E+00  0.00000000E+00  0.00000000E+00
  0.00000000E+00  0.00000000E+00  0.00000000E+00
  0.00000000E+00  0.00000000E+00  0.00000000E+00
  0.00000000E+00  0.00000000E+00  0.00000000E+00
  0.00000000E+00  0.00000000E+00  0.00000000E+00
  0.00000000E+00  0.00000000E+00  0.00000000E+00
  0.00000000E+00  0.00000000E+00  0.00000000E+00
  0.00000000E+00  0.00000000E+00  0.00000000E+00
  0.00000000E+00  0.00000000E+00  0.00000000E+00
  0.00000000E+00  0.00000000E+00  0.00000000E+00
  0.00000000E+00  0.00000000E+00  0.00000000E+00