Li 
 1.0000000000000000
    21.6720000000000006    0.0000000000000000    0.0000000000000000
     0.0000000000000000   21.6720000000000006    0.0000000000000000
     0.0000000000000000    0.0000000000000000   21.6720000000000006
 Li 
 432
Cartesian
 -0.1004801600000000 -0.0118787700000000 -0.1483947100000000
 19.9145341199999990  1.6105910600000000  1.7031508200000001
 17.8623096299999986  3.7190373900000000  3.6052635600000000
 15.9549169099999997  5.2611448599999999  5.7812531399999996
 14.6446184899999992  7.5348006300000003  7.0526866400000001
 12.7049804999999996  9.2004720599999992  8.9346099399999996
 11.1221780500000005 11.2336609500000009 10.9149642500000006
  9.2231054500000003 12.8376295000000002 12.6797926899999993
  7.2770362799999999 14.3912550800000005 14.4262892600000008
  5.4845075799999998 16.0966659400000012 16.4591933399999988
  3.5535231199999999 18.1575682100000009 17.6940381500000008
  1.8025959400000000 19.7737216099999991 19.8892787499999990
  1.3752915699999999 19.6899758799999987  1.5179032600000000
  0.0387156000000000 -0.2050015600000000  3.5526324499999999
 19.8672225599999983  1.8468776099999999  5.6372589099999999
 18.2804251499999992  3.3817867000000001  7.0752585400000001
 16.3588427400000000  4.9641138500000004  8.7672456000000007
 14.6236815000000000  6.9881730700000002 10.6227315600000001
 13.0230376400000001  9.0057203900000005 12.7014388500000006
 11.2621115700000001 10.8320840999999994 14.6439513300000002
  8.9710038500000007 12.6855518699999994 16.0991967799999998
  7.3621167600000001 14.3521610000000006 18.2919922600000007
  5.1896941900000000 16.3406637799999999 19.4836661800000002
  3.3183681599999999 18.2111671000000008 -0.0948918900000000
  3.5247499800000002 17.8107746800000015  3.8772353900000001
  1.2498990600000000 19.7933694799999991  5.5750386100000000
 -0.3686752600000000  0.0125493700000000  7.3130386300000003
 20.0849080899999990  2.1420871199999998  8.9822473800000004
 18.3345035199999984  3.6299135499999999 11.0859296300000008
 16.2693129100000000  5.5194162300000000 12.7938083900000006
 14.4596748099999992  7.5669089999999999 14.5055381000000008
 12.4245842100000008  9.1114652899999999 16.5968538899999984
 10.6200521299999995 10.8446718200000003 18.4224245599999996
  9.1724182299999999 12.6312982399999996 20.3494086100000011
  7.0589407399999997 14.6962670499999994 21.4960438200000006
  5.1494137200000001 16.2986070900000009  1.5379229500000000
  5.1354947199999996 16.2849183500000017  5.6119871999999997
  3.3271452099999999 18.3962136600000008  7.6454531599999997
  1.5027212400000001 19.8607025899999989  9.2800903699999999
 -0.0334288700000000 -0.2321400700000000 10.7027064999999997
 19.9177979699999987  1.6669696199999999 12.7009940199999996
 17.9511192800000003  3.5725565800000001 14.5487697600000008
 16.2471379899999988  5.6067043999999999 15.9200498300000000
 14.4850400599999993  7.4114066699999999 18.2767990299999994
 12.8107990500000000  9.1230879700000003 20.0458802100000000
 10.7427430299999997 10.5817976399999996  0.4866426100000000
  8.6926655999999998 12.6576377999999998  1.6372386699999999
  7.2224798600000000 14.4302527900000008  3.5961004399999998
  6.7978634400000004 14.2265976100000007  6.9709743599999996
  5.5220373699999996 16.4093581499999992  9.1899417900000007
  3.6352826199999999 17.8075901499999993 11.0953208799999992
  1.6941361699999999 19.6356178700000008 12.8880908299999994
 -0.1846762800000000 -0.3728199100000000 14.3473886799999999
 19.7140952399999989  1.8551181600000000 16.4231197400000006
 18.2137296100000015  3.6384842700000002 17.7921451899999994
 16.8704834199999993  5.3265692600000003 19.9068126200000002
 14.5943803400000007  7.3644006400000004 -0.4199098900000000
 12.6639221499999994  8.8933344600000002  1.7529897299999999
 10.7076894199999995 10.5061888000000003  3.6234603600000002
  9.0182348999999995 12.8617509400000003  5.3591600899999996
  8.9434721300000000 12.7329571000000001  9.2186111799999999
  7.3572061199999998 14.3302233700000006 10.5891379000000008
  5.7918712000000001 16.0679705300000002 12.1098230800000000
  3.6920390799999998 17.8104780500000004 14.4640339400000002
  1.5997204100000000 19.9220961599999988 16.1722759600000003
 -0.0097848000000000 -0.3292297200000000 17.7873528100000016
 20.0334456000000003  1.8047658499999999 19.6874969200000010
 18.3496132900000006  3.2121349800000001 21.5021136099999985
 16.4058197499999991  5.2522676199999996  1.3384703499999999
 14.6289224900000008  6.7550752999999997  3.5194847500000002
 12.5803012299999999  8.6545949100000001  5.2418642699999998
 11.1191791900000005 10.8748085999999997  7.0927955200000001
  1.3089879300000000  1.7366396200000001 19.7364399500000012
  0.3391972500000000  3.2329256300000000  0.0582147200000000
 20.0158548100000004  5.5013879699999997  1.7276200300000000
 18.0832288400000003  6.9162186400000003  3.6317704900000001
 16.3888090400000017  9.0221762900000009  5.6088512300000000
 14.4694367600000007 10.7518068200000005  7.1379946399999996
 12.9386907600000001 12.6743779599999993  9.4353187100000007
 11.1791998600000007 14.8241257199999996 10.8735978099999997
  8.7843112899999998 16.1560273300000006 12.5217869799999999
  7.1684828400000002 18.0173375399999998 14.4715078699999999
  5.4706827300000000 20.0732863200000011 16.3829278100000018
  3.4014402499999998  0.1732534400000000 18.5483368199999994
  3.5604414599999998  0.0117050200000000 -0.0060293800000000
  1.8717410200000000  1.6226362500000000  1.9105859300000001
  0.0960931200000000  3.3517066000000000  3.7700987499999998
 20.0204811599999992  5.2834867799999996  5.4534482300000002
 18.0955153600000003  7.0371667599999999  6.9769901900000004
 16.3127727600000014  8.9982899500000002  9.0677371400000002
 14.4871970700000006 10.6448523799999997 10.8915564699999994
 12.7647485900000000 12.9445449400000001 12.7458288000000000
 11.0345748700000001 14.5025450100000004 14.8727791499999995
  9.0524381199999997 16.3293125000000003 16.4313561800000016
  7.4291964000000004 18.3069389399999984 18.1683437400000010
  5.4870058500000001 19.9077108299999992 19.7401453599999996
  5.3890588700000004 19.7803764499999986  2.0752392799999999
  3.4455504299999999  0.0893905400000000  3.9085001199999998
  1.9571379400000000  1.6899903599999999  5.6618818299999996
  0.3475651900000000  3.3416924400000001  7.0174214099999999
 19.7509983200000008  5.4743498500000003  8.8923880400000002
 17.9381917000000008  7.1959800600000001 11.2188116099999995
 16.1986241799999995  9.1564484600000000 12.8430844299999993
 14.3352571799999993 10.8709767700000004 14.6027805900000001
 12.2382685500000008 12.6368492099999994 16.6520468800000003
 11.0409928799999992 14.6155963599999996 18.1955764400000000
  9.1886819899999992 16.4163514900000003 20.1256050799999997
  7.3409325100000000 18.1687126600000006 21.5363522299999985
  7.4079886699999999 17.8282370099999987  3.6809616500000000
  5.0757501500000002 19.5472277599999984  5.4967676499999998
  3.7338740399999999 -0.1414538800000000  7.4263957400000002
  1.8865603300000000  1.6830010799999999  8.9533160899999995
  0.1344695100000000  3.7158382500000000 10.8508125799999995
 19.8521841999999999  5.2828449300000004 12.9287953699999996
 18.4397439699999985  7.4777134299999997 14.5337931000000005
 16.4206561399999984  9.2787388100000001 16.4640351199999984
 14.4445912599999993 10.8651073599999997 18.2755731099999998
 12.7079620000000002 12.5485052499999998 20.5927060500000003
 10.8281292199999992 14.2965255399999993 21.7844956900000000
  9.0444002300000008 16.2422133600000009  1.7689189100000000
  8.9703207799999998 16.2118847799999983  5.3533300800000001
  7.2530558000000003 18.0574855999999997  7.2726460900000003
  5.2271500900000003 19.6807840200000008  9.1536355399999998
  3.5129559600000002 -0.1366658300000000 11.0330774300000005
  1.8853051500000000  1.4775491400000000 12.5518206299999999
  0.0383684800000000  3.5920880400000001 14.3677764799999999
 19.7922070300000001  5.2772685800000003 16.0642106399999989
 18.5111035199999989  7.4137792800000000 18.1826271999999989
 16.4452327300000007  8.8351223999999995 19.7699173799999990
 14.6230040300000006 10.8876463500000007 21.7102679700000003
 12.6592471999999994 12.6712191500000007  1.7598967200000000
 10.8662428000000002 14.4332530699999992  3.2796723299999999
 10.7492948199999994 14.1804317900000001  7.2706369700000000
  8.9300881600000004 16.2488356600000010  8.6832034900000004
  7.1391346599999999 18.5245113500000009 10.5820865099999999
  5.6288062900000000 19.6742937799999993 12.8643073000000001
  3.6237590300000000  0.0153406100000000 14.6014506999999991
  1.5229413400000000  1.6539255500000001 15.9081762799999993
  0.0458394500000000  3.3942051000000002 17.9397326799999988
 20.1903174400000012  5.2692791300000001 19.5822139700000015
 18.2843554300000015  7.0499733800000000 21.5764718400000000
 16.4011075099999992  8.8169400000000007  1.9608246899999999
 14.3361868399999999 10.6936610000000005  3.4119004700000000
 12.2468324600000003 12.6510292199999999  5.1269661099999997
  3.7421152100000001  3.5988322099999999 17.8013294500000008
  2.0464506800000000  5.3099196199999996 19.5200649400000010
  0.2995399900000000  7.2213332299999999 -0.2645493600000000
 20.0862875199999991  8.3787903600000000  1.7888200900000000
 18.0797399699999986 10.6780621100000008  3.4440980200000002
 16.4048419800000005 12.6860867000000006  5.6038224899999998
 14.4249357299999996 14.5220066600000006  7.1793017600000004
 12.8767906300000003 16.2164680600000004  8.8883517300000001
 10.9469583000000004 18.1561758100000006 10.5322117800000008
  8.7316738699999998 19.9249915999999985 12.9549440800000006
  7.1449443800000001 21.8197755700000009 14.5343982799999996
  5.3574173900000002  2.4110106800000000 16.1539438400000002
  5.8129151300000004  2.0125325799999998 19.6698972300000001
  3.7575255599999999  3.7122772999999998 -0.4439587200000000
  1.8539838399999999  5.3753315900000000  1.3425432100000001
  0.2841560000000000  6.4353634499999997  3.5433062999999998
 19.7794916000000001  8.8010109900000000  5.5206556800000000
 18.5526220399999993 10.8626354599999999  7.2629848600000004
 16.5007120699999987 12.5844561000000006  8.5572768099999994
 14.7236451899999992 14.5484821600000007 10.8789389700000001
 12.7659884600000009 16.2601705699999997 13.0426012799999995
 10.9588515100000006 18.2042112200000012 14.1427002500000008
  8.7662916600000003 20.3292742799999999 16.2694610699999984
  7.1406647699999999 22.0079710499999983 18.0919186500000002
  6.9908987800000002 -0.1691733500000000 -0.0180809300000000
  5.3418131500000001  2.0363317099999998  1.8117113199999999
  3.3796498000000001  3.6221678599999998  3.5625709799999998
  2.1767639600000002  5.3366104099999996  5.7278939400000004
  0.0445050400000000  7.1702393300000002  7.1722051100000002
 20.2790740000000014  8.7364906100000006  8.9727582699999999
 18.1811377199999988 10.7398786200000007 10.7774011900000009
 16.0797256900000001 12.4221506399999999 12.4022411699999999
 14.4094556600000008 13.9460915199999995 14.5451195599999998
 12.7288388200000000 16.3695405899999997 16.7118704800000017
 10.6625309700000006 18.4071779500000012 18.2306689300000002
  9.0707111800000000 20.0143315400000006 19.7349088500000001
  8.9468551499999993 19.6458374000000013  1.4130655299999999
  6.8802399899999998 -0.0986170000000000  3.9608819799999999
  5.0054377700000003  2.3356690300000000  5.4856353100000002
  3.9447895700000002  3.2679160999999999  7.4936064299999998
  1.8582554300000000  5.6298282899999998  8.9500940500000006
 -0.0882045800000000  7.2744323499999997 10.6956432199999991
 19.9443759299999996  9.2772914100000001 12.5945573500000005
 18.1588627600000017 10.7202357300000006 14.2323566699999997
 16.6184380000000012 12.3011510200000007 16.2896036299999984
 14.6538444200000004 14.1582816800000000 18.2617382500000005
 12.6119478600000008 16.1759588200000017 20.0787876999999995
 10.8772543499999994 18.1050894900000010 21.6928447400000017
 10.6155119399999993 18.0911388299999984  3.2738176700000001
  8.8674074899999997 19.8953286399999989  5.4191412500000000
  7.0509757799999999 -0.1049841600000000  7.3653351499999999
  5.5935992199999998  1.5636547199999999  9.1206176299999999
  3.5320671600000000  3.4838063199999998 10.6827947499999993
  2.0141418899999999  5.4986996399999999 12.5864513299999992
 -0.0517640800000000  7.3748777099999998 14.2097428499999996
 20.2207345399999987  9.1821008499999994 16.1691594800000011
 18.2844126399999993 10.6198751199999997 18.2181930200000011
 16.6023036499999996 12.7242735499999995 19.7000687600000006
 14.7458387000000002 13.9740282800000006 21.8787957599999991
 12.6459245599999992 16.3015719600000004  1.8980232500000001
 12.2598889799999995 16.1680939799999983  5.1110972500000003
 10.9241730700000002 17.9145424999999996  7.2507750900000003
  9.2711050600000000 20.3094206300000018  9.0918556299999995
  7.3030300199999996 -0.0243103200000000 11.0391568699999993
  5.1732892399999999  1.9234178700000000 12.9641169999999999
  3.5941486000000000  3.4658513700000002 14.1438338500000000
  1.8177988400000000  5.3597576900000004 16.2639609699999994
  0.0733359600000000  7.2713527300000003 17.8115512299999992
 20.2427111300000000  9.1335906300000005 19.9251030900000003
 18.4216596999999993 10.4711305800000005 21.5281743299999988
 16.6049285500000003 12.3953722299999995  1.7296864900000000
 14.5701576399999997 14.2116175899999995  3.4575939600000001
  5.3876693800000002  5.6672819800000003 16.4176937199999990
  3.6035224399999999  7.1626275499999998 17.8061700899999984
  2.3566619800000002  8.5656466299999998 19.9517332100000004
  0.0224012900000000 10.5010921800000006  0.2152887700000000
 20.2783222400000014 12.5977560900000007  1.8273792200000001
 18.2435272600000005 14.2450771599999992  3.6971463999999998
 16.4861599599999984 15.9804759300000008  5.4750351400000001
 14.3968797300000002 17.8720578699999990  6.9210493399999997
 12.8071714100000005 19.9517445600000016  8.6899128799999996
 10.8649495399999996  0.0230307600000000 11.3210476999999994
  9.0131544300000002  2.0472800100000001 12.5126444800000005
  7.2112861300000004  3.8376455900000002 14.2857057399999992
  7.3292225300000000  3.6074487799999999 18.0435849600000005
  5.5327426300000004  5.3673843699999999 19.5447756199999993
  3.9606047499999999  7.4422031700000000 -0.1886413200000000
  1.9599827900000000  8.9647979000000007  1.8199326700000000
 -0.1822884500000000 10.4843896799999996  3.7262759999999999
 19.9545631300000004 12.7177943500000001  5.4594315599999996
 18.1315027399999984 14.2424784100000004  7.4260209899999996
 15.9799776999999992 16.2190959600000006  8.9314022200000007
 14.2945250700000006 17.9936124200000016 10.9396407500000006
 12.4716971599999997 20.1496673699999995 12.4747148200000009
 10.8627709100000001 21.9667786400000011 14.5370332799999993
  9.0789024800000000  2.1120623599999999 16.2834739999999982
  9.1477423400000006  1.7785612500000001 19.9206159499999984
  7.5408706900000002  3.5454808099999999 -0.0897957400000000
  5.6752272100000001  5.5853745500000000  1.8609526400000000
  3.7031356600000001  7.1924417900000002  3.8776685700000000
  1.8347915699999999  8.7333205199999995  5.5166541300000000
  0.2113732000000000 10.7696506700000008  7.4291831899999998
 20.0159969099999984 12.7369728500000008  8.8789926700000006
 17.8593274300000004 14.3884171300000006 10.5996155999999999
 16.3409306200000017 15.8038389800000001 12.6872258900000006
 14.5350063899999995 18.2548490100000009 14.1323319999999999
 12.5683988499999995 20.0391447800000009 15.7510054099999994
 11.0266304200000000  0.1357401200000000 18.1275821000000015
 10.9318527999999997 -0.0791684100000000 -0.1254800500000000
  9.1055901800000001  1.7551681699999999  1.7307235900000000
  7.5339152000000000  3.6785007099999998  3.6556763700000001
  5.8910293999999999  5.1151594200000003  5.6652954500000003
  3.6178860700000000  7.4447393499999999  7.3580180500000001
  1.8532702700000001  8.9209093700000004  9.1532597500000001
  0.0322998000000000 10.8924753499999998 10.8999323199999996
 19.9386990100000006 12.7161548100000008 12.5384908700000004
 17.9358213400000004 14.4384766399999993 14.5897282700000002
 16.0158797200000009 16.3506929599999999 16.3089421500000000
 14.5178481000000001 18.3217937100000015 18.2508155800000011
 12.8577210799999992 19.8580532699999992 19.8813610300000008
 12.6795084199999994 20.0275033100000002  1.5972562800000001
 10.6800748900000002 -0.2139966500000000  3.3449267800000002
  8.7504043700000000  1.5799339500000000  5.1132738099999999
  7.5565467399999999  3.3506251100000002  7.6229294799999998
  5.5902272899999996  5.7476946800000004  8.9629772699999997
  3.8403422500000000  7.2329463699999996 10.7387966699999993
  1.8308869100000000  8.9829664299999994 12.6204875500000000
 -0.0696457100000000 10.8711731999999994 14.2705049699999993
 19.8728687199999996 12.3795201699999993 16.1760891800000017
 18.1526438799999994 14.6209949300000002 17.7780367499999983
 16.0443471399999993 15.9805020500000001 19.8843384100000016
 14.4859656500000007 18.0272094600000017  0.3825587200000000
 14.5793349800000005 17.8637775800000007  3.6551284700000002
 12.3516714499999996 19.6956639699999982  5.0061167900000001
 10.9005321199999994  0.3747413100000000  6.8586430399999996
  9.3835996500000007  2.0764149600000001  9.0519936899999998
  7.1139710799999998  3.6739463200000002 10.8193350499999994
  5.1914905800000000  5.3975151900000000 12.4103740499999997
  3.6833165499999998  7.2470629300000002 14.7108710600000006
  1.7323391200000000  9.2533096399999994 15.8668430199999992
  0.3085750300000000 10.3678265900000000 17.9583438499999986
 19.6448753600000003 12.6436731499999997 19.9131521000000014
 18.0410287499999988 14.5015880900000003 -0.1047032400000000
 16.4877557900000014 16.1853052800000015  2.0553435499999999
  6.7769170000000001  7.3567322099999997 14.3901458000000009
  5.3887006199999998  9.4870009700000004 16.0673431600000001
  3.7543015600000000 11.0887446399999998 18.2044379300000010
  1.4294464400000000 12.6105318600000000 19.9181175599999989
 -0.1143337000000000 14.3100553700000006 -0.1473732600000000
 19.9719859100000008 16.2910384300000004  1.5394118299999999
 17.8911790999999987 18.0659547700000012  3.6657396499999999
 16.3982937900000003 19.9510666900000011  5.6379736500000002
 14.4695742599999999 -0.0083300700000000  7.1371901600000003
 12.6767066699999997  1.9814419999999999  8.9891025300000003
 10.7647490399999999  3.7369972300000001 10.6033196400000005
  8.9505683099999995  5.5146491199999996 12.4409097800000001
  9.1910703799999993  5.3993047699999996 16.2501999499999989
  7.2495836699999998  7.3244335100000004 17.7338132399999999
  5.2934220600000002  9.1317533300000004 19.9913840699999987
  3.4461103300000002 10.9912585499999995  0.0093164800000000
  1.6174152300000000 12.8634574300000004  1.4081944099999999
 -0.0891772700000000 14.3868661699999993  3.6654801199999998
 19.7622495499999999 15.9877959900000004  5.4252099500000002
 18.1412185400000006 18.2129958499999987  7.1970987199999996
 15.9800220999999993 19.9279327799999990  8.9877368499999992
 14.3423006300000004 -0.1079748000000000 10.6561707200000004
 12.6267925800000000  2.1000815099999999 12.5970504999999999
 10.9287959499999996  3.8033730299999999 14.8256401899999997
 11.0860585599999997  3.4617641300000002 17.9191814200000010
  8.7829699399999992  5.1858253799999998 19.7278127000000012
  6.7062210599999998  7.3525009199999998 -0.1274983200000000
  5.2128884800000002  9.0802171099999995  2.1409882900000001
  3.1410904700000000 10.9293524400000006  3.6638509099999998
  1.5827670899999999 12.5448765000000009  5.5472723300000002
 -0.0783272100000000 14.2801129499999995  7.2146923300000001
 19.6880849299999987 16.1939956199999990  9.1433025699999995
 18.0150976999999983 17.8092071300000008 10.9307906599999995
 15.9725182799999992 20.0762095199999990 12.4480333400000003
 14.3540755099999995  0.0334745200000000 14.2542858500000005
 12.6641970799999992  1.9718497500000001 15.8362929200000000
 12.8814399500000007  1.9536585399999999 19.7149056000000016
 10.9100766700000005  3.9040558299999999 -0.2771164400000000
  8.7605468299999991  5.8090475899999996  1.5482040900000000
  6.9363774999999999  7.0261843400000004  3.8608145399999998
  5.5511440700000003  9.2083824300000003  5.3188966400000002
  3.3866192900000001 10.7747420799999993  6.9167783800000002
  1.7782139400000001 12.7803661999999996  8.6990099300000008
 -0.1083896000000000 14.3717781799999997 10.8804405099999997
 19.7495019300000010 16.0871289100000006 12.6825652600000005
 17.9530927600000005 17.9106346800000011 14.4559915100000005
 15.8974661600000005 19.8755094499999991 16.2177640499999995
 14.1430646499999995 -0.1087790900000000 17.8815521400000002
 14.8558483700000004 -0.1177558800000000 -0.1323778400000000
 12.5750149600000007  1.8381992899999999  1.6662049400000001
 10.6423074599999996  3.8587701700000001  3.7331040500000001
  9.0794264299999998  5.6442889799999998  5.6565842999999996
  7.2018997599999999  7.7301515399999996  7.2173541099999996
  5.4205869599999996  9.4816760599999999  9.3587470199999991
  3.1581246799999998 10.9706434399999999 10.8413551100000003
  1.6825012699999999 12.9654690699999993 12.9624538600000001
  0.2680594500000000 14.6323512400000002 14.7797583699999997
 19.8533670899999990 16.5386846500000004 16.0045746300000005
 17.7500220300000002 18.0012149599999987 17.7797762400000003
 16.3433201799999992 19.9936013700000004 19.7620173600000015
 16.2466720199999983 19.8997237300000016  2.0479789400000001
 14.3707192900000003 -0.0830657600000000  3.4352656800000001
 12.6709024499999998  1.6320253800000000  4.8403663300000002
 10.6381076199999995  3.5347494199999998  6.8497759299999998
  8.7461085799999996  5.5854349299999999  8.9134506800000004
  7.2554912700000003  7.4362815500000004 10.6322171700000006
  5.2054352100000001  8.7738550499999999 12.7262238199999995
  3.5431093900000001 10.9398532100000008 14.2962250999999991
  1.8257890200000000 12.6677186299999995 16.1252566299999991
 -0.4040553600000000 14.3958506499999999 18.1416076000000004
 19.7032039099999992 16.4802286799999997 20.0100615600000005
 17.7784083700000011 18.0013617699999990  0.0879194300000000
  9.0419603399999993  9.2559317199999995 12.7979936199999997
  6.9554252700000001 10.6926968799999997 14.7199706999999993
  4.9260362700000000 12.9066432700000000 16.1633695199999998
  3.5010585800000000 14.2692926599999996 17.9745151000000014
  1.9458091099999999 16.3717360800000016 19.5589699099999983
 -0.1115857800000000 17.8034714299999983 -0.1389903000000000
 19.5428937500000011 19.7501018799999990  1.8176788200000000
 18.2522766599999997 21.7376708100000009  3.8604190400000000
 16.2714323999999984  1.8806270199999999  5.5220031699999996
 14.4080800199999999  3.1095207700000000  6.6855097900000002
 12.7481956899999993  4.8450863699999998  8.8201524500000001
 10.6744648899999994  7.4837949000000004 10.5414372499999995
 10.4766203400000002  7.6298367699999998 14.7125796799999993
  8.7425715000000004  9.2711141200000000 16.2356591399999992
  7.0317296499999999 11.0579267199999993 18.1863787300000013
  5.2729784300000002 12.6899837499999997 19.8497259600000007
  3.5413690099999999 14.4627751799999995 -0.2804316500000000
  1.7265214000000000 16.2755887799999996  1.6160605900000000
 -0.1508328800000000 17.9844932600000007  3.6238224799999998
 19.5171545699999989 19.9882649699999995  5.5182685700000000
 18.0643107200000017 21.7376893799999991  7.5453915000000000
 16.0121717100000005  1.9801463800000001  9.3377122099999994
 14.4394724799999992  3.8319629900000001 11.1806279499999999
 12.5184071499999998  5.8248233200000001 12.8397251099999998
 12.3970780699999992  5.8427210699999996 16.6229288100000012
 10.4100724899999992  7.7046087300000003 18.3430767900000014
  8.7814435000000000  9.2605973499999994 20.2300382100000000
  6.9491936499999998 11.0012186700000001  0.3256259100000000
  5.0049452399999996 12.8489631099999997  1.9848228999999999
  3.4836428100000001 14.5724338200000005  3.6310952099999998
  1.4067511699999999 16.4132002300000011  5.9106882699999996
 -0.5265859100000000 18.2961333699999997  7.1774588799999997
 19.7786010899999987 19.9972760399999991  9.3243467199999994
 18.2692815000000017  0.1540495100000000 11.2001346999999996
 16.4341600300000010  1.8146567899999999 12.8315961999999999
 14.5246809900000002  3.7805486899999998 14.6251854100000003
 14.7409012700000002  3.9530437300000001 17.6460132600000001
 12.5164700900000003  5.3846961599999998 19.9054881200000011
 10.7756302200000000  7.2281106900000003 -0.0935916900000000
  8.6414662000000000  8.7331097500000006  1.8494013899999999
  7.4269595700000002 10.6147754699999997  3.8828841500000002
  5.0668215300000004 12.5778011299999992  5.2662874400000002
  3.5741773800000001 14.4416654300000005  7.1268954000000004
  1.8191923500000000 16.4230786400000000  8.9624637800000002
 -0.4174220000000000 17.6989750000000008 11.0072921800000003
 19.5081878000000017 19.6770919900000010 12.7028851199999995
 18.4459090500000009 21.5444266300000002 14.9278157300000007
 16.3168388799999988  1.7483398999999999 16.1402442999999991
 16.4978280300000009  1.5110787699999999 19.6853769300000003
 14.6902918000000007  3.7950634399999998 -0.0676443400000000
 12.6550353799999993  5.7327995300000003  1.6244610600000000
 10.7971830400000002  7.0969614800000000  3.3499111500000001
  9.0671708500000001  8.8540298600000007  5.5841503699999997
  7.1674782900000000 11.0033917700000003  7.1415792199999997
  5.6998891699999996 12.5798836699999992  8.8319363499999994
  3.5657979599999998 14.2814073399999995 10.5588969499999994
  1.9908848600000000 16.0285481099999991 12.6336631300000004
  0.0777888600000000 17.7710391100000002 14.3410700400000000
 19.9573824600000016 19.4941877300000002 16.3739384699999988
 18.2576735499999998 21.2257624900000010 17.8228472400000015
 18.0448683199999991 -0.2029721300000000  0.2641700300000000
 16.3398426999999984  1.7013929600000000  1.7419297300000001
 14.4524615500000007  3.6715101500000000  3.3432396199999999
 12.8834508099999994  5.7067220599999997  5.5089801100000004
 10.8519288899999999  7.3912580500000002  7.5714830500000003
  9.1617098800000001  9.5426383799999996  9.2099539200000002
  7.2215680000000004 11.0561011899999997 11.3603049600000006
  5.6164591000000001 12.7830439400000007 12.6384430699999992
  3.7318150100000000 15.1398043399999995 14.7142598299999996
  1.4637442199999999 16.4421022900000011 16.7671866899999991
 -0.1641652100000000 18.3062440100000003 18.4320759099999982
 19.7572222000000011 19.7131397300000017 20.2967934499999991
