Li                                      
   1.00000000000000     
    20.6400000000000006    0.0000000000000000    0.0000000000000000
     0.0000000000000000   20.6400000000000006    0.0000000000000000
     0.0000000000000000    0.0000000000000000   20.6400000000000006
   Li
   432
Direct
  0.0254067349806206  0.9895818149224809  0.0188854500968958
  0.9205064898255841  0.0807345581395325  0.1083776661821716
  0.8362289263565899  0.1793539181201567  0.1595068323643432
  0.7598368183139570  0.2839425789728693  0.2478297369186038
  0.6604511269379856  0.3488726405038776  0.3218825571705395
  0.5616370125968970  0.4320343633720896  0.3990007049418622
  0.4685922180232538  0.4924055164728713  0.5107350426356589
  0.4173824699612396  0.6059171744186074  0.5946523231589111
  0.3277775266472887  0.6709042117248032  0.6706099476744214
  0.2365171128875971  0.7658487301356587  0.7400229898255830
  0.1585866661821740  0.8097526472868211  0.8223204806201565
  0.0879086201550408  0.9084449190891490  0.9310412160852692
  0.0740279999999984  0.9288042286821678  0.1235777456395368
  0.0119492853682175  0.0083120460271289  0.1939895232558158
  0.9343295809108554  0.0990470421511631  0.2460149966085297
  0.8361095702519350  0.1767479142441886  0.3448565595930262
  0.7632077475775176  0.2346883105620137  0.4138396695736404
  0.6379094234496137  0.3173014602713167  0.5091470818798456
  0.5578754084302346  0.4273116119186042  0.5904445377906953
  0.4845105523255810  0.5205071666666683  0.6825559825581422
  0.4039711773255803  0.5874218934108555  0.7621576264534866
  0.3108600576550415  0.6989536303294557  0.8399023202519373
  0.2402258415697673  0.7768006002906986  0.9216934830426382
  0.1525996855620164  0.8215410557170557  0.0270315363372120
  0.1503346812015494  0.7940085547480606  0.1789723633720897
  0.0717661356589119  0.9177801085271327  0.2517398081395328
  0.0087249840116286  0.0242600179263590  0.3524619607558108
  0.9317679781976764  0.1081997049418604  0.4315912902131771
  0.8658683212209297  0.1740437451550392  0.5344430649224776
  0.7542270489341050  0.2441439413759667  0.5938148657945703
  0.6747689791666645  0.3419482718023232  0.6798346666666646
  0.5382568856589174  0.4000763013565916  0.7380296041666696
  0.4718261438953490  0.5133588682170540  0.8298929811046492
  0.4108678691860490  0.6048258415697703  0.8992243750000029
  0.3138261739341104  0.6833035818798479  0.0042894404069784
  0.2774259859496127  0.7673166516472847  0.1117818948643432
  0.2576189723837174  0.6982154384689920  0.2631139937015519
  0.1776635484496154  0.8153945159883733  0.3227702141472832
  0.0757263575581391  0.9053725135658937  0.3882170896317803
  0.0154336031976712  0.9942197097868188  0.4684086724806207
  0.9417221225775165  0.0788532422480586  0.5875655184108552
  0.8503310809108555  0.1954413716085242  0.6720905804263566
  0.7433204927325576  0.2792124389534862  0.7645445193798466
  0.6545964442829444  0.3275326889534895  0.8295290096899208
  0.5768012572674408  0.4135522606589177  0.8971757848837214
  0.5112972189922473  0.5642481017441838  0.9630116531007786
  0.4183706962209328  0.5834394932170568  0.0776893493217088
  0.3656122892441829  0.6708190111434078  0.1486335169573678
  0.3536398149224809  0.6225135290697708  0.3211933391472854
  0.2754675092054271  0.7315071574612375  0.3902615281007726
  0.1741935353682180  0.8175651661821703  0.4648560741279084
  0.0781477674418625  0.9099389718992228  0.5603436593992228
  0.0101055518410860  0.9677442742248061  0.6696667814922463
  0.9160489113372066  0.0856125145348869  0.7578999917635656
  0.8239529728682200  0.1419396138565858  0.8348377272286811
  0.7476555014534867  0.2387007756782964  0.9318364079457382
  0.6700463023255807  0.3367503541666679  0.9935061012596904
  0.5734620998061999  0.4322886332364320  0.0695585009689950
  0.5163203953488349  0.5135376734496120  0.1524871812015505
  0.4395180600775177  0.5424433570736440  0.2248306138565894
  0.4485609602713154  0.5691161206395350  0.4193065881782942
  0.3414362136627886  0.6506853018410865  0.4839730784883756
  0.2667544374999977  0.7677390784883755  0.5499938367248092
  0.1526616177325550  0.8287215731589157  0.6397407936046520
  0.0856371782945757  0.8813248280038763  0.7465066327519381
  0.0034368309108501  0.9723769050387574  0.8410676841085305
  0.9069954617248044  0.0682328129844976  0.9303182049418623
  0.8260335377906998  0.1531468929263582  0.9996621128875987
  0.7529250397286802  0.2400628502906983  0.0752095867248030
  0.6658847548449600  0.3613572664728650  0.1497575513565863
  0.6020757567829449  0.4312611109496132  0.2264528265503856
  0.5095935348837202  0.4769628575581422  0.3327663604651150
  0.0881339457364376  0.0535505014534863  0.9321911085271353
  0.0111497785852706  0.1469455639534871  0.9803381269379869
  0.9161167800387631  0.2182308367248069  0.0752836971899242
  0.8585045799418580  0.3277238236434101  0.1556915048449596
  0.7569159229651135  0.4096645310077491  0.2479300469961245
  0.6801354307170513  0.4918998657945721  0.3260262906976763
  0.5828979408914705  0.5542448309108536  0.4427875750969008
  0.5315966453488343  0.6550852243217022  0.4944143202519413
  0.4156380973837202  0.7451989113372122  0.5552720096899222
  0.3340286443798419  0.8351469835271317  0.6586640978682183
  0.2455124593023257  0.8930051942829422  0.7550113187984522
  0.1642589709302342  0.9824369244186073  0.8103966065891441
  0.1824069253875962  0.9686540717054228  0.0108723464147289
  0.1104596545542620  0.0915546458333338  0.0691101312984514
  0.0177756802325604  0.1902105111434125  0.1492398909883690
  0.9312852766472872  0.2589494215116304  0.2521778682170535
  0.8596246647286847  0.3312370896317844  0.3432355067829462
  0.7453578851744211  0.4102986148255781  0.4466006821705406
  0.6490228754844978  0.4707640634689909  0.5011678861434135
  0.5915655910852706  0.5620590794573630  0.5761408018410847
  0.5110054781976743  0.6806807015503864  0.6960597291666701
  0.4199907810077548  0.7677464341085241  0.7381369520348855
  0.3160736434108529  0.8388305750968996  0.8323882950581378
  0.2259753691860453  0.8991272369186021  0.9274537742248086
  0.2418298585271330  0.9005040823643427  0.1259375130813964
  0.1491385658914695  0.0222828657945726  0.1885319515503880
  0.0624374408914719  0.1059883066860436  0.2591519181201534
  0.9856064791666697  0.1810444883720947  0.3399956623062010
  0.9130662921511643  0.2413459835271325  0.4054116322674446
  0.8424222529069780  0.3228578003875953  0.5054308735465085
  0.7409916831395336  0.4096622606589122  0.6004075586240276
  0.6631955319767471  0.4778576332364324  0.6698763226744191
  0.5798372325581411  0.5921395843023234  0.7688114171511629
  0.4795746705426325  0.7024149646317852  0.8163145901162778
  0.4104520130813967  0.7685602189922491  0.8966387403100811
  0.3299669282945743  0.8410936395348827  0.0124442529069739
  0.3526393226744204  0.8247515377906964  0.1802677882751951
  0.2244138750000033  0.9021899941860454  0.2471965838178320
  0.1539952243217044  0.0240785935077525  0.3276636812015497
  0.0977378367248036  0.1105705411821702  0.4246917485465147
  0.0204326661821739  0.1802139360465134  0.5001010959302334
  0.9231551303294552  0.2525623008720927  0.5735258759689899
  0.8712531957364362  0.3380312703488357  0.6676296128875947
  0.7640346002906995  0.4100603682170529  0.7385683662790683
  0.6517556007751963  0.4773379341085260  0.8156982596899240
  0.6154835402131766  0.6145631080426384  0.8838569670542640
  0.5105608328488387  0.6626540092054256  0.9967481138565901
  0.4272239656007741  0.7713243590116292  0.0490038367248076
  0.4492825813953516  0.7387559849806209  0.2451996288759659
  0.3649802175387578  0.8176082950581360  0.3220303997093055
  0.2454226274224780  0.9120502165697673  0.3831932243217082
  0.1370410915697704  0.9934498202519393  0.4908226962209312
  0.0934924249031042  0.0798133478682175  0.6045508154069736
  0.0309796051356557  0.1865543687015503  0.6809239156976759
  0.9254812194767439  0.2188505964147254  0.7919348653100755
  0.8322591022286829  0.3392206245155052  0.8521319932170570
  0.7428106763565907  0.4117420939922454  0.9106791138565882
  0.6514062456395351  0.5151076375968984  0.0057734476744216
  0.5954935155038754  0.5826384384689902  0.1062556598837219
  0.5163067829457333  0.6806138832364326  0.1630551322674449
  0.5029233551356569  0.6531954559108542  0.3173286182170543
  0.4527189767441868  0.7244819045542670  0.4088010440891452
  0.3402757567829440  0.8575651758720966  0.4762497344961218
  0.2591850983527166  0.9247633745155071  0.5862162320736459
  0.1794503599806205  0.9820123008720927  0.6499709350775191
  0.0809924244186035  0.0628169840116257  0.7477345377906985
  0.0225675484496151  0.1249538585271353  0.8347446133720950
  0.9152680368217077  0.2211028449612371  0.9021501967054277
  0.8454672475775169  0.3290831516472892  0.0091930436046539
  0.7797740421511605  0.4186142843992258  0.0783638982558159
  0.6811246676356575  0.5013746923449602  0.1709375857558157
  0.5800231298449603  0.5716755358527124  0.2576016094961275
  0.1350999016472869  0.1524894171511662  0.8481211937984483
  0.0792229767441839  0.2604361429263591  0.9039877291666656
  0.9866045872092997  0.3331424718992224  0.9689181332364356
  0.9152020838178316  0.4338189239341119  0.0879683037790713
  0.8292713924418607  0.5142715901162802  0.1755501303294551
  0.7516318701550375  0.5947467088178300  0.2653735184108541
  0.6593009559108509  0.6388546739341052  0.3498224559108536
  0.5914747848837223  0.7544694253875974  0.4243309660852717
  0.4762895392441848  0.8482580571705398  0.5041269980620129
  0.4240214937015523  0.9394659646317862  0.5626986230620190
  0.3446729098837196  0.0023223871124003  0.6711052979651129
  0.2344571874999986  0.0504591167635624  0.7465900998061983
  0.2393151579457395  0.0653139840116310  0.9158930203488396
  0.1696032572674397  0.1603884365310080  0.0099156211240299
  0.1090774297480621  0.2636385213178301  0.0737377093023284
  0.9851684941860483  0.3206000281007775  0.1601206724806232
  0.9163639413759697  0.4421458740310058  0.2488531627906951
  0.8141489278100806  0.5014315620155045  0.3591992156007748
  0.7308781918604623  0.5950082601744171  0.4396073890503871
  0.6525194089147277  0.6755603527131768  0.4958530058139559
  0.5637958774224785  0.7449761749031012  0.5733091918604671
  0.5022908585271324  0.8360350901162761  0.6525998740310044
  0.4130996448643387  0.9073525838178327  0.7247053890503850
  0.3259981976744157  0.9789560319767432  0.8362300988372127
  0.3418121385658921  0.9690313653100802  0.9869879777131771
  0.2345511206395372  0.0662962083333341  0.0848020251937953
  0.1557936937984508  0.1770748561046531  0.1489659093992231
  0.0753197664728660  0.2592730828488357  0.2567431099806186
  0.0182203948643433  0.3391997843992272  0.3255828154069746
  0.9262380014534912  0.4294722151162773  0.4438873343023246
  0.8355317218992226  0.5120387538759701  0.5083826187015532
  0.7220830101744156  0.5953818105620172  0.5957747088178280
  0.6483871419573646  0.6841386487403085  0.6827817470930242
  0.5764729026162811  0.7739965014534889  0.7515646065891488
  0.5062929118217028  0.8369389350775194  0.8432002519379864
  0.4186011865310064  0.9037061933139512  0.9132606075581364
  0.4159029297480643  0.8993053013565913  0.1142498071705447
  0.3312256884689901  0.0072419801356602  0.1698925557170554
  0.2481421153100740  0.0949232718023225  0.2349310639534892
  0.1550563168604668  0.1865706826550380  0.3282548856589145
  0.0799122703488351  0.2466488759689938  0.4358191933139537
  0.9932215295542619  0.3344625237403136  0.5125578590116291
  0.9348533594961239  0.4187729166666685  0.5876752262596909
  0.8434693105620141  0.5072001245155064  0.6583286773255779
  0.7732543125000007  0.5737805305232584  0.7295644156976735
  0.6763200532945746  0.6810464084302339  0.8328012209302358
  0.5879291506782920  0.7573020595930231  0.9101027533914703
  0.5045679452519352  0.8541678720930221  0.9971046409883755
  0.5239445998061996  0.8183136773255839  0.1786319932170528
  0.4428334108527139  0.9255760833333326  0.2469748105620155
  0.3251914961240345  0.9843591879844951  0.3109030116279072
  0.2582529297480605  0.0498918803294544  0.4020371104651161
  0.1712647485465126  0.1507919215116260  0.5052374660852692
  0.0976035697674433  0.2621787189922458  0.6104755348837188
  0.9747448938953482  0.3292789200581367  0.6634033018410861
  0.9115357640503845  0.4211548250968988  0.7608081414728716
  0.8348161889534893  0.5029052931201576  0.8066775029069788
  0.7272883536821695  0.5768476540697662  0.9112842572674396
  0.6576384903100774  0.6794662785852736  0.0286770886627892
  0.5720072509689942  0.7886356981589131  0.0665754704457342
  0.5984919738372128  0.7669745319767429  0.2865275658914754
  0.5279039544573649  0.8487367349806192  0.3420125654069750
  0.4186266094961226  0.9374585402131785  0.4000434607558105
  0.3325679791666687  0.0028706749031002  0.4866091850775192
  0.2576314549418584  0.0528789946705430  0.5935835605620170
  0.1801351342054289  0.1754867175387602  0.6716846574612418
  0.0802729031007772  0.2661471855620121  0.7676719723837238
  0.9913303057170566  0.3489843246124025  0.8491296405038753
  0.9142828071705438  0.4210067388565903  0.9134761942829428
  0.8101195237403118  0.4993476991279096  0.9994216395348872
  0.7706848832364344  0.5849614718992271  0.0744540857558107
  0.6472891027131809  0.6515803556201547  0.1911570993217069
  0.2578174505813919  0.2328242185077514  0.7823214617248055
  0.1815229404069783  0.3516278977713156  0.8245640925387576
  0.0838287500000021  0.4263958943798443  0.9243906705426355
  0.0042321390503872  0.5065603086240316  0.0069359404069758
  0.9053398444767424  0.5851558948643429  0.0730276458333350
  0.8208625663759719  0.6747917577519402  0.1522761012596874
  0.7429677596899253  0.7399925775193807  0.2701732427325609
  0.6490975406976744  0.8308496686046496  0.3333106124031033
  0.5839521768410876  0.9161376312984473  0.4294537529069800
  0.5070969995155039  0.0122956182170526  0.5014240140503858
  0.4136261211240324  0.0853041792635665  0.5834806967054291
  0.3239779181201570  0.1395029641472902  0.6850427892441857
  0.3243025164728692  0.1346924530038791  0.8407617403100787
  0.2393265106589126  0.2303667257751911  0.9213326041666647
  0.1873702732558158  0.3635717902131788  0.9817505523255790
  0.0861313720930212  0.4152554840116309  0.0633095155038745
  0.9700868977713171  0.5081177257751932  0.1719416899224839
  0.9080733754844985  0.5882554249031031  0.2693527500000030
  0.8208050436046506  0.6643946395348834  0.3507293716085300
  0.7286311056201527  0.7661207940891472  0.4064341438953463
  0.6732301971899233  0.8441166264534914  0.4873609995155022
  0.5673532257751930  0.9283134840116247  0.5813261996124055
  0.4885231254844982  0.0161139215116251  0.6550700881782916
  0.4314207921511652  0.0868182335271328  0.7570231487403092
  0.3896402621124011  0.0635816705426322  0.9407089757751947
  0.3251583037790695  0.1608024907945733  0.0158195343992276
  0.2409577185077509  0.2582402432170525  0.0723302843992215
  0.1302349249030996  0.3579371540697664  0.1562031482558126
  0.0474276899224790  0.4462011637596888  0.2571980998062031
  0.9797792533914702  0.5201308410852690  0.3329628028100799
  0.8895506666666648  0.5817047252906988  0.4428216138565872
  0.8280305271317800  0.6843853929263588  0.5255284093992216
  0.7451659113372102  0.7723977030038753  0.5788938716085283
  0.6347651245155035  0.8220077088178286  0.6377213943798452
  0.5674645562015499  0.9182837698643382  0.7281396429263580
  0.4857902393410853  0.9791327030038772  0.8287342417635628
  0.5057848391472888  0.9886736749030973  0.0060440973837217
  0.4240626172480617  0.0786990692829477  0.0719617446705456
  0.3189387296511654  0.1850355406976760  0.1289135373062038
  0.2293666167635635  0.2753987863372060  0.2246612737403098
  0.1442082340116286  0.3481588982558108  0.3209604830426329
  0.0752895780038756  0.4165729282945705  0.4273686782945703
  0.9891957296511649  0.5019891395348850  0.5279464602713162
  0.8984690096899257  0.6079260184108506  0.5937140489341104
  0.8520135547480621  0.6758592044573675  0.6629037558139501
  0.7257899811046542  0.7855590964147297  0.7148357950581428
  0.6820418226744209  0.8438818323643389  0.8295758522286789
  0.6005575978682174  0.9141930780038763  0.9084429084302315
  0.5919877989341060  0.9357931763565901  0.1126421971899205
  0.5145937892441879  0.0178442911821719  0.1932571705426369
  0.4105001821705443  0.1081579932170555  0.2399781821705460
  0.3172209011627913  0.1818995373062009  0.3237550058139504
  0.2528114738372125  0.2339146196705428  0.4366721177325559
  0.1681584922480610  0.3348691230620133  0.4983487238372106
  0.0945570421511661  0.4006394467054264  0.5848545431201586
  0.9904415184108544  0.4902348488372112  0.6732530920542601
  0.9112003270348836  0.5978002955426334  0.7345404287790700
  0.8237088129844992  0.6696199961240339  0.8134943246123996
  0.7484126831395344  0.7751618590116252  0.9240304035852702
  0.6840614903100786  0.8570563730620151  0.0148111235465151
  0.6429064195736416  0.8469374108527106  0.1881354869186040
  0.5654008759689901  0.9555527688953518  0.2528284462209314
  0.5021904229651142  0.0206278115310070  0.3449026419573613
  0.3966798183139559  0.0840808866279090  0.3982238880813966
  0.3258873255813981  0.1238544234496146  0.4963040518410864
  0.2508350072674403  0.2387940896317815  0.5892443134689955
  0.2025786947674391  0.3302499510658947  0.6915358401162806
  0.1090175983527146  0.4277489195736450  0.7392116274224776
  0.0131371753875982  0.5042589074612422  0.8230973473837224
  0.8945219079457374  0.5836091690891436  0.9262290281007779
  0.8245911497092990  0.6788240843023274  0.0087039922480585
  0.7258096632751929  0.7505935600775189  0.1195443018410884
  0.3278159127906974  0.3115123735465133  0.6669072858527159
  0.2633979108527100  0.4690962383720958  0.7493184040697685
  0.1912609728682142  0.5099056099806205  0.8400147524224835
  0.0982413168604666  0.5860211157945727  0.9065175639534857
  0.0088716104651141  0.6529558750000035  0.0003906264534876
  0.8953670353682170  0.7503143420542671  0.0735910687984500
  0.8236548357558107  0.8493406153100764  0.1862444689922498
  0.7540017509689889  0.9080096274224800  0.2577181850775219
  0.6919945862403125  0.9965082437015482  0.3529887073643394
  0.6003432083333351  0.0934993687015506  0.3904960736434120
  0.4805329345930218  0.1351656187015493  0.4932409602713150
  0.4310847088178278  0.2233926555232557  0.5866241521317832
  0.4133462601744213  0.2513406434108560  0.7360241569767467
  0.3040122974806181  0.3263443289728656  0.8406187466085271
  0.2581795799418600  0.4371129762596908  0.9142935925387619
  0.1705897412790662  0.4897262810077549  0.9980328565891483
  0.0768537650193792  0.5762987529069790  0.0600275363372091
  0.0032373483527124  0.6552345222868183  0.1574863212209294
  0.9255685290697642  0.7358972989341055  0.2538859273255838
  0.8455466841085268  0.8493861913759702  0.3418855048449601
  0.7847590184108526  0.9313696908914721  0.4106658376937986
  0.6715627000968993  0.0013483352713166  0.5248038619186062
  0.5937044152131818  0.0836100348837192  0.5991363861434138
  0.4837220358527148  0.1237586957364343  0.6488738468992281
  0.4649587587209325  0.1663341157945766  0.8177646366279063
  0.4122930387596924  0.2161412805232530  0.9156505717054273
  0.3361690862403108  0.3163291342054251  0.0012846981589121
  0.2593873779069753  0.4288859883720946  0.0739568943798474
  0.1606099113372110  0.4950200339147273  0.1673656860465087
  0.0743350009689934  0.5872864152131783  0.2559161676356609
  0.9764463730620179  0.6647926593992253  0.3540831317829429
  0.9390116816860470  0.7414626947674421  0.4295977466085290
  0.8500995474806174  0.8125964452519412  0.5094519660852725
  0.7498425930232528  0.9143533158914749  0.5719418483527150
  0.6662936904069738  0.9912124404069758  0.6554879437984482
  0.5855720004844969  0.0726473473837217  0.7751886061046491
  0.5808802674418629  0.0845958827519411  0.8922100004844964
  0.5061866899224796  0.1651646225775210  0.9840744946705442
  0.4215195009689907  0.2459248570736463  0.0761929123062046
  0.3327282863372076  0.3299980872093045  0.1217177248062029
  0.2462741589147299  0.4208654389534914  0.2370252020348858
  0.1739484229651183  0.5013975271317861  0.3232202722868251
  0.0642321153100767  0.5595386724806204  0.4347456618217080
  0.0047374922480614  0.6466799927325582  0.5131073614341091
  0.9353711569767427  0.7554481157945716  0.5929343948643435
  0.8212151889534880  0.8504478231589161  0.6558286589147286
  0.7307228202519411  0.8930012160852741  0.7414165523255818
  0.6755530455426353  0.0023239631782914  0.8178638527131810
  0.6654921579457351  0.0239847650193781  0.0183948817829460
  0.5750547684108511  0.0992520043604657  0.0763350755813974
  0.4979598730620154  0.1820211874999984  0.1722657475775193
  0.3970387456395343  0.2557147306201557  0.2327025872093031
  0.3083103057170575  0.3205883570736461  0.3127007466085274
  0.2508909457364368  0.3950989006782919  0.4126468885658880
  0.1663362514534867  0.4959301618217040  0.5110726996124058
  0.0920980024224818  0.5807967572674428  0.6101967107558153
  0.9921843822674390  0.6720700188953472  0.6774061686046480
  0.9405891463178264  0.7692507456395319  0.7569663764534909
  0.8102067659883687  0.8156478129844942  0.8428524471899195
  0.7455467325581395  0.9257217378875993  0.9129195978682176
  0.7279222655038780  0.9492433590116249  0.1133435484496133
  0.6584643241279053  0.0224771230620178  0.1873269656007750
  0.5823960460271351  0.1009150406976715  0.2707042960271338
  0.4719922664728671  0.1594400639534896  0.3424482737403096
  0.3976053551356600  0.2344327674418594  0.4057021865310091
  0.3516090426356584  0.3192796220930205  0.4956791826550386
  0.2712527359496093  0.3981144486434118  0.5714107180232588
  0.1649145920542665  0.4938733720930202  0.6509516661821735
  0.0986552679263539  0.5819050402131793  0.7484894898255803
  0.9969829467054296  0.6439810886627910  0.8519357117248063
  0.9221866826550382  0.7768296894379816  0.9306030775193790
  0.8186851986434078  0.8671672843992226  0.0318958318798437
  0.4076749171511622  0.4245153478682155  0.5690621739341069
  0.3536946409883726  0.5038786647286813  0.6538426036821718
  0.2483382834302290  0.5867302524224840  0.7592885043604625
  0.1983372509689900  0.6760410910852741  0.8196067650193797
  0.0860286070736436  0.7545710755813957  0.9362665213178261
  0.9919473938953516  0.8660217538759696  0.0200633110465134
  0.9079393580426327  0.9269158163759670  0.1020154365310049
  0.8480334428294540  0.0022229612403066  0.2005313740310086
  0.7877282500000007  0.0875663391472870  0.2575375726744156
  0.6575095382751925  0.1792376036821679  0.3039022490310046
  0.5676904462209293  0.2213685479651133  0.4057541501938005
  0.4866216816860458  0.3169727688953472  0.4716984404069748
  0.4790697916666673  0.3187126768410877  0.6574197412790710
  0.4051725828488344  0.3959045169573656  0.7437389849806166
  0.3519375285852746  0.5301728924418612  0.8510947088178327
  0.2437497107558144  0.5636980436046528  0.9168252500000023
  0.1591644689922447  0.6620210411821716  0.0113385736434140
  0.0642503628875986  0.7387319161821679  0.0878351976744156
  0.9930112926356571  0.8146131753875991  0.1809968207364321
  0.9342324326550369  0.9357716797480649  0.2411818851744201
  0.8492470668604639  0.0185380101744173  0.3482805910852704
  0.7601123943798456  0.0904425833333349  0.4269651448643401
  0.6826395809108519  0.1540012969961211  0.4792494471899218
  0.5607096419573665  0.2347351027131808  0.5790848507751960
  0.5515510968992245  0.2184834457364317  0.7737593900193787
  0.4630046012596907  0.3217001099806183  0.8437144927325591
  0.4139374709302359  0.4139452054263586  0.9400777504844982
  0.3523169147286822  0.5194396303294582  0.9748464278100784
  0.2631171899224825  0.5693991584302296  0.0924879156976743
  0.1639351346899218  0.6722732742248070  0.1381459641472844
  0.0915734510658908  0.7084085610465110  0.2691104069767434
  0.9902466400193788  0.8191455159883745  0.3253433885658907
  0.9046956133720911  0.9212320755813934  0.4251863459302356
  0.8360890876938001  0.0287854869186077  0.5001987151162766
  0.7685041298449633  0.0789317926356574  0.5841178197674424
  0.6611003735465104  0.1858212122093050  0.6742422655038780
  0.6751669709302348  0.1863336424418591  0.8354220828488366
  0.5645020988372096  0.2356895784883690  0.8871623270348863
  0.5085410528100809  0.3224734922480650  0.9827636991279078
  0.4338831875000011  0.4254410348837183  0.0444294360465136
  0.3658732911821687  0.4822602078488387  0.1557524830426331
  0.2681814840116274  0.5710036477713203  0.2137032470930222
  0.1820081879844935  0.6379063997093013  0.3510858473837217
  0.0949947335271304  0.7347932025193771  0.3909784767441877
  0.0176647955426361  0.8054121463178276  0.4813349583333348
  0.9485211429263600  0.9178864573643395  0.5437717640503905
  0.8388453124999984  0.9856904496124059  0.6714724966085299
  0.7469282451550399  0.0869793396317817  0.7224769098837243
  0.7437379079457358  0.0643055532945738  0.9157243299418596
  0.6579656763565893  0.1665873057170515  0.9936598318798460
  0.5897610562015529  0.2332133284883753  0.0861157558139567
  0.5087579617248039  0.3455825179263599  0.1583376957364351
  0.4465027281976717  0.4136630184108512  0.2624487262596915
  0.3271592441860491  0.5015418435077521  0.3325660169573652
  0.2440455271317816  0.5732175310077494  0.4112510983527145
  0.1666343672480650  0.6549898086240304  0.4899756952519354
  0.1006289370155073  0.7289583706395319  0.5694065077519355
  0.0075652369186017  0.8300039031007742  0.6387994292635639
  0.9251635804263572  0.8869776821705457  0.7517703488372121
  0.8147367960271339  0.9955121308139567  0.7807331293604634
  0.8041892776162811  0.0005807281976757  0.0382826952519366
  0.7558419384689898  0.0880554786821719  0.0976615557170533
  0.6786971608527139  0.1680130121124037  0.1993118270348830
  0.5698907083333324  0.2522825726744173  0.2665210872093056
  0.5042224229651140  0.3198091424418621  0.3398651279069753
  0.4008852790697688  0.4272511438953472  0.4074538066860498
  0.3297014714147295  0.4950554331395338  0.4879043871124011
  0.2516165319767438  0.5797701656976741  0.5852349767441893
  0.2023582955426377  0.6961564791666675  0.6603331831395352
  0.0809253812984494  0.7367200329457333  0.7534136090116306
  0.9920123037790702  0.8403122427325584  0.8304484505813932
  0.8984865348837232  0.9331813643410882  0.9175039820736401
 
  0.00000000E+00  0.00000000E+00  0.00000000E+00
  0.00000000E+00  0.00000000E+00  0.00000000E+00
  0.00000000E+00  0.00000000E+00  0.00000000E+00
  0.00000000E+00  0.00000000E+00  0.00000000E+00
  0.00000000E+00  0.00000000E+00  0.00000000E+00
  0.00000000E+00  0.00000000E+00  0.00000000E+00
  0.00000000E+00  0.00000000E+00  0.00000000E+00
  0.00000000E+00  0.00000000E+00  0.00000000E+00
  0.00000000E+00  0.00000000E+00  0.00000000E+00
  0.00000000E+00  0.00000000E+00  0.00000000E+00
  0.00000000E+00  0.00000000E+00  0.00000000E+00
  0.00000000E+00  0.00000000E+00  0.00000000E+00
  0.00000000E+00  0.00000000E+00  0.00000000E+00
  0.00000000E+00  0.00000000E+00  0.00000000E+00
  0.00000000E+00  0.00000000E+00  0.00000000E+00
  0.00000000E+00  0.00000000E+00  0.00000000E+00
  0.00000000E+00  0.00000000E+00  0.00000000E+00
  0.00000000E+00  0.00000000E+00  0.00000000E+00
  0.00000000E+00  0.00000000E+00  0.00000000E+00
  0.00000000E+00  0.00000000E+00  0.00000000E+00
  0.00000000E+00  0.00000000E+00  0.00000000E+00
  0.00000000E+00  0.00000000E+00  0.00000000E+00
  0.00000000E+00  0.00000000E+00  0.00000000E+00
  0.00000000E+00  0.00000000E+00  0.00000000E+00
  0.00000000E+00  0.00000000E+00  0.00000000E+00
  0.00000000E+00  0.00000000E+00  0.00000000E+00
  0.00000000E+00  0.00000000E+00  0.00000000E+00
  0.00000000E+00  0.00000000E+00  0.00000000E+00
  0.00000000E+00  0.00000000E+00  0.00000000E+00
  0.00000000E+00  0.00000000E+00  0.00000000E+00
  0.00000000E+00  0.00000000E+00  0.00000000E+00
  0.00000000E+00  0.00000000E+00  0.00000000E+00
  0.00000000E+00  0.00000000E+00  0.00000000E+00
  0.00000000E+00  0.00000000E+00  0.00000000E+00
  0.00000000E+00  0.00000000E+00  0.00000000E+00
  0.00000000E+00  0.00000000E+00  0.00000000E+00
  0.00000000E+00  0.00000000E+00  0.00000000E+00
  0.00000000E+00  0.00000000E+00  0.00000000E+00
  0.00000000E+00  0.00000000E+00  0.00000000E+00
  0.00000000E+00  0.00000000E+00  0.00000000E+00
  0.00000000E+00  0.00000000E+00  0.00000000E+00
  0.00000000E+00  0.00000000E+00  0.00000000E+00
  0.00000000E+00  0.00000000E+00  0.00000000E+00
  0.00000000E+00  0.00000000E+00  0.00000000E+00
  0.00000000E+00  0.00000000E+00  0.00000000E+00
  0.00000000E+00  0.00000000E+00  0.00000000E+00
  0.00000000E+00  0.00000000E+00  0.00000000E+00
  0.00000000E+00  0.00000000E+00  0.00000000E+00
  0.00000000E+00  0.00000000E+00  0.00000000E+00
  0.00000000E+00  0.00000000E+00  0.00000000E+00
  0.00000000E+00  0.00000000E+00  0.00000000E+00
  0.00000000E+00  0.00000000E+00  0.00000000E+00
  0.00000000E+00  0.00000000E+00  0.00000000E+00
  0.00000000E+00  0.00000000E+00  0.00000000E+00
  0.00000000E+00  0.00000000E+00  0.00000000E+00
  0.00000000E+00  0.00000000E+00  0.00000000E+00
  0.00000000E+00  0.00000000E+00  0.00000000E+00
  0.00000000E+00  0.00000000E+00  0.00000000E+00
  0.00000000E+00  0.00000000E+00  0.00000000E+00
  0.00000000E+00  0.00000000E+00  0.00000000E+00
  0.00000000E+00  0.00000000E+00  0.00000000E+00
  0.00000000E+00  0.00000000E+00  0.00000000E+00
  0.00000000E+00  0.00000000E+00  0.00000000E+00
  0.00000000E+00  0.00000000E+00  0.00000000E+00
  0.00000000E+00  0.00000000E+00  0.00000000E+00
  0.00000000E+00  0.00000000E+00  0.00000000E+00
  0.00000000E+00  0.00000000E+00  0.00000000E+00
  0.00000000E+00  0.00000000E+00  0.00000000E+00