Li 
 1.0000000000000000
    20.6400000000000006    0.0000000000000000    0.0000000000000000
     0.0000000000000000   20.6400000000000006    0.0000000000000000
     0.0000000000000000    0.0000000000000000   20.6400000000000006
 Li 
 432
Cartesian
  0.5243950100000000 -0.2150313400000000  0.3897956900000000
 18.9992539499999999  1.6663612800000001  2.2369150300000000
 17.2597650400000013  3.7018648700000001  3.2922210199999999
 15.6830319300000003  5.8605748300000000  5.1152057700000002
 13.6317112599999994  7.2007313000000002  6.6436559800000001
 11.5921879400000005  8.9171892600000007  8.2353745499999995
  9.6717433800000006 10.1632498600000005 10.5415712799999994
  8.6147741799999995 12.5061304799999995 12.2736239499999993
  6.7653281500000002 13.8474629300000007 13.8413893199999993
  4.8817132100000000 15.8071177899999995 15.2740745100000002
  3.2732287900000001 16.7132946400000009 16.9726947199999998
  1.8144339199999999 18.7503031299999989 19.2166907000000009
  1.5279379200000001 19.1705192800000006  2.5506446700000001
  0.2466332500000000  0.1715606300000000  4.0039437600000003
 19.2845625500000004  2.0443309500000000  5.0777495300000002
 17.2573015299999994  3.6480769500000001  7.1178393900000003
 15.7526079100000000  4.8439667300000000  8.5416507799999994
 13.1664504999999998  6.5491021399999996 10.5087957700000008
 11.5145484299999996  8.8197116700000002 12.1867752599999992
 10.0002978000000002 10.7432679199999992 14.0879554799999998
  8.3379650999999999 12.1243878800000005 15.7309334100000004
  6.4161515900000001 14.4264029300000001 17.3355838899999988
  4.9582613699999998 16.0331643899999996 19.0237534900000007
  3.1496575099999999 16.9566073899999985  0.5579309099999999
  3.1029078200000000 16.3883365699999999  3.6939895800000002
  1.4812530399999999 18.9429814400000005  5.1959096400000000
  0.1800836700000000  0.5007267700000000  7.2748148700000002
 19.2316910700000001  2.2332419099999998  8.9080442299999998
 17.8715221500000006  3.5922629000000001 11.0309048599999997
 15.5672462899999999  5.0391309499999997 12.2563388300000007
 13.9272317300000008  7.0578123300000000 14.0317875200000000
 11.1096221199999992  8.2575748600000001 15.2329310299999996
  9.7384916100000005 10.5957270399999999 17.1289911299999993
  8.4803128200000000 12.4836053699999994 18.5599911000000013
  6.4773722300000003 14.1033859300000000 20.7285340500000004
  5.7260723499999999 15.8374156900000003  2.3071783099999998
  5.3172555900000003 14.4111666500000002  5.4306728299999998
  3.6669756400000000 16.8297428099999991  6.6619772199999998
  1.5629920200000000 18.6868886799999991  8.0128007300000004
  0.3185495700000000 -0.1193051900000000  9.6679549999999992
 19.4371446100000007  1.6275309200000001 12.1273523000000001
 17.5508335100000004  4.0339099100000002 13.8719495800000008
 15.3421349700000000  5.7629447400000000 15.7801988800000004
 13.5108706099999996  6.7602747000000001 17.1214787599999987
 11.9051779500000006  8.5357186600000006 18.5177082000000013
 10.5531746000000002 11.6460808199999999 -0.7634394799999999
  8.6351711699999996 12.0421911399999999  1.6035081700000000
  7.5462376500000001 13.8457043899999999  3.0677957899999999
  7.2991257799999998 12.8486792399999992  6.6294305199999997
  5.6856493900000000 15.0983077300000001  8.0549979399999998
  3.5953545700000000 16.8745450300000002  9.5946293699999998
  1.6129699200000001 18.7811403800000001 11.5654931300000001
  0.2085785900000000 -0.6657581800000000 13.8219223699999993
 18.9072495300000014  1.7670423000000000 15.6430558299999998
 17.0063893600000000  2.9296336300000001 17.2310506900000000
 15.4316095499999992  4.9267840100000004 19.2331034599999988
 13.8297556799999999  6.9505273100000000 -0.1340340700000000
 11.8362577400000006  8.9224373900000007  1.4356874600000000
 10.6568529600000002 10.5994175800000008  3.1473354200000001
  9.0716527599999992 11.1960308899999994  4.6405038699999999
  9.2582982200000004 11.7465567300000000  8.6544879800000007
  7.0472434499999999 13.4301446299999991  9.9892043400000006
  5.5058115900000004 15.8461345799999993 11.3518727899999998
  3.1509357900000001 17.1048132700000011 13.2042499800000002
  1.7675513599999999 18.1905444500000009 15.4078969000000008
  0.0709361900000000 -0.5701406800000000 17.3596369999999993
 18.7203863300000002  1.4083252600000000 19.2017677499999984
 17.0493322200000001  3.1609518699999999 20.6330260099999983
 15.5403728200000000  4.9548972300000003  1.5523258700000000
 13.7438613400000005  7.4584139800000004  3.0909958600000000
 12.4268436199999996  8.9012293299999996  4.6739863399999999
 10.5180105600000005  9.8445133800000004  6.8682976800000004
  1.8190846400000000  1.1052823500000000 19.2404244800000015
  0.2301314300000000  3.0329564400000000 -0.4058210600000000
 18.9086503400000012  4.5042844700000000  1.5538555100000000
 17.7195345300000007  6.7642197199999998  3.2134726599999999
 15.6227446499999996  8.4554759199999996  5.1172761700000002
 14.0379952899999996 10.1528132299999996  6.7291826400000003
 12.0310135000000002 11.4396133100000004  9.1391355500000007
 10.9721547600000005 13.5209590300000002 10.2047115700000006
  8.5787703299999993 15.3809055299999997 11.4608142799999992
  6.8943512199999999 17.2374337400000002 13.5948269800000006
  5.0673771600000004 18.4316272099999985 15.5834336199999992
  3.3903051600000000 -0.3625018800000000 16.7265859600000013
  3.7648789400000000 -0.6469799600000000  0.2244052300000000
  2.2798872700000001  1.8896878900000000  1.4264331100000001
  0.3668900400000000  3.9259449499999999  3.0803113500000001
 19.2217281100000008  5.3447160599999997  5.2049512000000000
 17.7426530800000002  6.8367335300000001  7.0843808599999996
 15.3841867499999996  8.4685634099999998  9.2178380799999999
 13.3958321500000004  9.7165702700000001 10.3441051700000006
 12.2099138000000007 11.6008993999999994 11.8915461499999999
 10.5471530700000002 14.0492496800000009 14.3666728100000007
  8.6686097199999992 15.8462864000000003 15.2351466900000005
  6.5237600000000002 17.3134630700000010 17.1804944100000014
  4.6641316200000000 18.5579861699999995 19.1426459000000015
  4.9913682799999997 18.5864042599999983  2.5993502700000000
  3.0782200000000000  0.4599183500000000  3.8912994799999998
  1.2887087800000001  2.1875986500000000  5.3488955899999997
 -0.2970822700000000  3.7367582399999999  7.0175104700000004
 18.8456882700000001  4.9813811000000001  8.3676960900000008
 17.3875953000000010  6.6637849999999998 10.4320932299999996
 15.2940683400000008  8.4554290600000002 12.3924120099999993
 13.6883557800000002  9.8629815500000007 13.8262473000000004
 11.9678404799999996 12.2217610200000006 15.8682676499999999
  9.8984211999999996 14.4978448699999998 16.8487331400000002
  8.4717295499999992 15.8630829200000001 18.5066236000000011
  6.8105174000000002 17.3601727200000013 20.8968493799999990
  7.2784756200000000 17.0228717399999994  3.7207271500000001
  4.6319023799999997 18.6212014799999999  5.1021374899999996
  3.1784614300000000  0.4969821700000000  6.7629783799999998
  2.0173089499999999  2.2821759699999999  8.7656376900000001
  0.4217302300000000  3.7196156399999998 10.3220866200000003
 19.0539218900000016  5.2128858899999999 11.8375740799999996
 17.9826659599999985  6.9769654200000000 13.7798752100000002
 15.7696741500000002  8.4636460000000007 15.2440510800000002
 13.4522355999999998  9.8522549599999998 16.8360120799999997
 12.7035802699999998 12.6845825500000000 18.2428078000000014
 10.5379755900000003 13.6771787499999995 20.5728810700000011
  8.8179026500000006 15.9201347700000007  1.0114391899999999
  9.2731924800000005 15.2479235299999996  5.0609203400000000
  7.5331916899999998 16.8754352099999991  6.6467074500000001
  5.0655230299999996 18.8247164699999985  7.9091081499999998
  2.8285281300000000 -0.1351957100000000 10.1305804500000001
  1.9296836500000001  1.6473475000000000 12.4779288299999997
  0.6394190500000000  3.8504821699999998 14.0542696199999995
 19.1019323700000001  4.5170763100000002 16.3455356199999997
 17.1778278700000016  7.0015136900000003 17.5880043400000012
 15.3316123599999994  8.4983568199999997 18.7964169100000014
 13.4450249100000008 10.6318216400000001 20.7591639599999986
 12.2909861599999992 12.0256573699999993  2.1931168200000002
 10.6565720000000006 14.0478705500000007  3.3654579299999998
 10.3803380500000006 13.4819542099999996  6.5496626800000000
  9.3441196800000004 14.9533065100000009  8.4376535500000003
  7.0232916200000002 17.7001452300000004  9.8297945200000001
  5.3495804299999996 19.0871160499999988 12.0995030299999993
  3.7038554299999999 -0.3712661100000000 13.4154000999999994
  1.6716836399999999  1.2965425500000001 15.4332408599999997
  0.4657942000000000  2.5790476400000002 17.2291288199999997
 18.8911322800000008  4.5635627200000002 18.6203800599999987
 17.4504439900000001  6.7922762499999996 20.8297444200000008
 16.0945362299999992  8.6401988299999992  1.6174308600000000
 14.0584131400000008 10.3483736499999992  3.5281517700000000
 11.9716774000000008 11.7993830600000003  5.3168972200000004
  2.7884619700000002  3.1473815699999999 17.5052214399999997
  1.6351622400000001  5.3754019900000003 18.6583067299999996
 -0.2764813200000000  6.8760606199999996 -0.6415297300000000
 18.8897710100000005  8.9540225899999992  1.8156657899999999
 17.1161615400000002 10.6145656200000005  3.6233546900000002
 15.5136818000000005 12.2755720700000008  5.4773094200000001
 13.6079717299999992 13.1859604699999995  7.2203354900000001
 12.2080395599999996 15.5722489399999997  8.7581911399999992
  9.8306160899999995 17.5080463000000002 10.4051812399999992
  8.7518036299999995 19.3905775100000000 11.6140995799999995
  7.1140488599999996 20.6879340700000007 13.8516133499999992
  4.8391963499999999  1.0414761699999999 15.4096196600000006
  4.9394648600000002  1.3480806299999999 18.9040319399999994
  3.5006112300000001  3.3104173299999999  0.2046584200000000
  2.2513581500000002  5.4414990799999998  1.5219463200000001
 -0.3061222800000000  6.6171845800000000  3.3048906800000002
 18.9137517499999994  9.1258908400000003  5.1363292800000000
 16.8040338700000014 10.3495474400000003  7.4138718099999998
 15.0853258799999992 12.2809704899999996  9.0734965100000000
 13.4680005999999999 13.9435656800000007 10.2344060399999996
 11.6367469099999994 15.3763082499999992 11.8331017200000002
 10.3672833200000003 17.2557642599999994 13.4696613999999997
  8.5263766699999994 18.7277573299999993 14.9579192299999999
  6.7286028000000000 20.2056524999999993 17.2597892399999999
  7.0550025400000003 -0.6391926200000000 -0.2685681400000000
  4.8411351299999996  1.3683537400000001  1.7503138000000000
  3.2155818400000000  3.6548250300000000  3.0746563700000000
  1.5545999800000001  5.3513964300000003  5.2991777899999999
  0.3760689500000000  7.0010835499999997  6.7200293100000001
 19.1175523500000004  8.8643065199999995  9.1618345800000007
 17.2453747399999990 10.5684798799999999 10.4930172499999994
 14.9037933299999992 12.2886805700000004 12.2967899900000006
 13.3827106100000002 14.1206217100000000 14.0926152600000005
 11.8984007100000007 15.9752877899999994 15.5122934800000003
 10.4498856999999994 17.2744196199999998 17.4036532000000008
  8.6399284900000008 18.6524958299999994 18.8496989399999997
  8.5842364700000005 18.5616614200000001  2.3581160200000002
  6.8364982100000002  0.1494744700000000  3.5065823500000000
  5.1216532600000004  1.9592163300000001  4.8489771599999996
  3.2003623800000001  3.8508188900000002  6.7751808400000000
  1.6493892600000000  5.0908328000000003  8.9953081499999996
 -0.1399076300000000  6.9033064900000003 10.5791942100000007
 19.2953733400000011  8.6434730000000002 12.1296166700000008
 17.4092065699999985 10.4686105699999992 13.5879039000000006
 15.9599690100000000 11.8428301499999993 15.0582095400000000
 13.9592459000000009 14.0567978700000005 17.1890171999999986
 12.1348576700000006 15.6307145100000007 18.7845208300000017
 10.4142823900000003 17.6300248800000006 20.5802397900000003
 10.8142165400000003 16.8899943000000015  3.6869643399999998
  9.1400816000000003 19.1038903600000012  5.0975600900000000
  6.7119524799999999 -0.3228263600000000  6.4170381599999997
  5.3303404700000003  1.0297684100000000  8.2980459599999996
  3.5349044100000002  3.1123452600000001 10.4281012999999998
  2.0145376800000001  5.4113687600000002 12.6002150400000001
 -0.5212653900000001  6.7963169099999998 13.6926441499999996
 18.8140981700000012  8.6926355900000001 15.7030800399999997
 17.2306061399999990 10.3799652499999997 16.6498236599999991
 15.0112316200000002 11.9061355800000008 18.8089070700000001
 13.5736584400000009 14.0241839899999992 21.2318951100000000
 11.8062296599999996 16.2774408100000016  1.3741177099999999
 12.3528743399999996 15.8303543399999995  5.9139289599999998
 10.8959376199999998 17.5179262099999988  7.0591393499999997
  8.6404532199999995 19.3491442700000000  8.2568970299999993
  6.8642030900000002  0.0592507300000000 10.0436135800000006
  5.3175132300000003  1.0914224500000000 12.2515646900000004
  3.7179891700000001  3.6220458500000001 13.8635713299999992
  1.6568327199999999  5.4932779099999998 15.8447495099999998
 -0.1789424900000000  7.2030364599999999 17.5260357800000008
 18.8707971400000005  8.6895790900000005 18.8541486499999991
 16.7208669699999994 10.3065365100000008 20.6280626399999996
 15.9069359899999991 12.0736047800000001  1.5367323300000000
 13.3600470799999993 13.4486185400000000  3.9454825300000000
  5.3213521799999999  4.8054918700000000 16.1471149700000005
  3.7466334899999998  7.2575998100000003 17.0190028700000013
  1.7302253999999999  8.8008112599999997 19.0794234399999993
  0.0873513500000000 10.4554047699999995  0.1431578100000000
 18.6862143900000000 12.0776176700000004  1.5072906100000001
 16.9426033700000005 13.9277018800000008  3.1429787299999998
 15.3348545600000001 15.2734468000000003  5.5763757299999996
 13.3973732400000003 17.1487371599999996  6.8795310399999998
 12.0527729299999997 18.9090807100000013  8.8639254600000008
 10.4664820699999996  0.2537815600000000 10.3493916499999994
  8.5372431399999993  1.7606782599999999 12.0430415800000006
  6.6869042299999997  2.8793411799999999 14.1392831700000006
  6.6936039400000000  2.7800522299999999 17.3533223200000002
  4.9396991799999999  4.7547692200000000 19.0163049499999985
  3.8673224400000001  7.5041217500000004 -0.3766686000000000
  1.7777515200000000  8.5708731900000004  1.3067084000000000
 -0.6174064300000000 10.4875498599999997  3.5488764800000001
 18.7426344699999987 12.1415919700000003  5.5594407600000002
 16.9414161000000014 13.7131053600000001  7.2390542299999998
 15.0389460199999991 15.8127331899999994  8.3888007299999998
 13.8954712699999998 17.4225671700000007 10.0591310299999996
 11.7101705799999998 19.1603903100000004 11.9985727600000001
 10.0831173100000004 20.9725913400000010 13.5206466200000008
  8.9045251499999996  1.7919283399999999 15.6249577899999998
  8.0421750099999993  1.3123256800000000 19.4162332599999985
  6.7112673899999997  3.3189634099999998  0.3265151900000000
  4.9733673100000004  5.3300786200000001  1.4928970699999999
  2.6880488499999999  7.3878228600000000  3.2240329800000000
  0.9789075200000000  9.2095920200000005  5.3085687799999999
 -0.4173562100000000 10.7355005600000002  6.8723522499999996
 18.3603257599999985 12.0063855299999993  9.1398381099999995
 17.0905500799999999 14.1257145099999999 10.8469063699999992
 15.3802244100000003 15.9422885900000004 11.9483695099999991
 13.1015521699999997 16.9662391100000001 13.1625695799999995
 11.7124684400000003 18.9533770100000005 15.0288022300000002
 10.0267105399999998 -0.4307010100000000 17.1050747500000000
 10.4393990799999994 -0.2337753500000000  0.1247501700000000
  8.7526524200000004  1.6243487900000000  1.4852904099999999
  6.5828953800000001  3.8191335600000000  2.6607754099999998
  4.7341269700000002  5.6842309499999999  4.6370086900000000
  2.9764579499999999  7.1859996600000002  6.6246243700000003
  1.5539768899999999  8.5980652400000004  8.8208895199999997
 -0.2230001400000000 10.3610558400000006 10.8968149400000005
 18.5444003600000009 12.5475930200000008 12.2542579699999994
 17.5855597699999997 13.9497339799999995 13.6823335200000002
 14.9803052099999991 16.2139397500000015 14.7542108100000000
 14.0773432199999995 17.4177210199999983 17.1224455900000017
 12.3955088199999999 18.8689451300000002 18.7502616300000007
 12.2186281700000006 19.3147711599999994  2.3249349499999998
 10.6212158100000007  0.3683061700000000  3.9888279999999998
  8.4727237599999992  2.2323809799999998  4.9531496800000001
  6.5474394000000000  3.7544064499999998  6.6823033199999999
  5.2180288199999998  4.8279977499999998  9.0129125099999996
  3.4707912799999998  6.9116986999999996 10.2859176600000009
  1.9516573500000001  8.2691981800000001 12.0713977700000008
 -0.1972870600000000 10.1184472799999998 13.8959438199999994
 18.8071747500000015 12.3385981000000005 15.1609144499999999
 17.0013499000000010 13.8209567199999999 16.7905228599999994
 15.4472377800000000 15.9993407699999999 19.0719875300000012
 14.1190291600000002 17.6896435399999987  0.3057015900000000
 13.2695884999999993 17.4807881599999995  3.8831164500000002
 11.6698740799999996 19.7226091500000003  5.2183791299999998
 10.3652103300000000  0.4257580300000000  7.1187905300000001
  8.1874714500000003  1.7354295000000000  8.2193410500000006
  6.7263143999999997  2.5563552999999999 10.2437156300000005
  5.1772345499999997  4.9287100099999996 12.1620026299999999
  4.1812242599999996  6.8163589900000003 14.2732997400000006
  2.2501232299999998  8.8287376999999996 15.2573279900000003
  0.2711513000000000 10.4079038500000003 16.9887292499999987
 18.4629321799999992 12.0456932499999994 19.1173671399999989
 17.0195613299999984 14.0109291000000002  0.1796504000000000
 14.9807114499999994 15.4922510800000008  2.4673943899999999
  6.7661204399999999  6.4296153900000004 13.7649663800000006
  5.4365328799999997  9.6821463600000008 15.4659318599999995
  3.9476264799999998 10.5244517900000005 17.3379044899999997
  2.0277007800000000 12.0954758299999998 18.7105225200000014
  0.1831100400000000 13.4770092600000009  0.0080625300000000
 18.4803756099999994 15.4864880199999995  1.5189196599999999
 17.0002358099999995 17.5303903000000005  3.8440858400000000
 15.5625961400000001 18.7413187100000016  5.3193033400000003
 14.2827682599999992 -0.0720698500000000  7.2856869199999998
 12.3910838200000004  1.9298269699999999  8.0598389600000004
  9.9181997699999993  2.7898183699999999 10.1804934199999995
  8.8975883899999992  4.6108244100000002 12.1079225000000008
  8.5314668099999995  5.1876708799999998 15.1915385999999994
  6.2748138200000003  6.7357469500000002 17.3503709300000004
  5.3288265299999997  9.0220118300000003 18.8710197499999985
  3.5209722600000002 10.1079504399999998 -0.0406018400000000
  1.5862617100000000 11.8948062599999993  1.2389683499999999
  0.0668188700000000 13.5240405399999997  3.2505176699999998
 19.1037344400000002 15.1889202500000007  5.2402055399999998
 17.4520835599999984 17.5313309900000007  7.0565168199999997
 16.1974261400000010 19.2234704200000017  8.4761428900000002
 13.8610541299999994  0.0278296400000000 10.8319517100000002
 12.2540591299999999  1.7257111199999999 12.3661750099999992
  9.9840228199999999  2.5543794800000001 13.3927562000000009
  9.5967487800000004  3.4331361500000002 16.8786620999999997
  8.5097283200000007  4.4611560299999997 18.8990277999999989
  6.9385299399999996  6.5290333299999999  0.0265161700000000
  5.3537554800000002  8.8522067999999994  1.5264702999999999
  3.3149885700000001 10.2172134999999997  3.4544277600000002
  1.5342744200000000 12.1215916099999994  5.2821097000000004
 -0.4861468600000000 13.7213204900000001  7.3082758400000003
 19.3812011099999992 15.3037900199999992  8.8668974899999995
 17.5460546599999994 16.7719906300000012 10.5150885800000005
 15.4767511199999994 18.8722524400000005 11.8048797499999996
 13.7523017700000008 -0.1813752300000000 13.5292711600000004
 12.0862060899999992  1.4994412500000001 15.9998928300000003
 11.9893687199999999  1.7460590199999999 18.4152144100000008
 10.4476932799999993  3.4089978099999998 -0.3287024300000000
  8.7001624999999994  5.0758890499999998  1.5726217100000000
  6.8675118299999998  6.8111605199999996  2.5122538400000001
  5.0830986400000002  8.6866626599999996  4.8922001699999997
  3.5902954500000002 10.3488449599999992  6.6712664200000003
  1.3257508600000001 11.5488782000000008  8.9731504599999994
  0.0977818400000000 13.3474750499999999 10.5905359400000005
 19.3060606800000016 15.5924491100000004 12.2381659099999993
 16.9498815000000000 17.5532430700000006 13.5363035200000006
 15.0821190099999995 18.4315451000000010 15.3028376399999999
 13.9434148600000007  0.0479666000000000 16.8807099200000010
 13.7357581399999997  0.4950455500000000  0.3796703600000000
 11.8691304199999994  2.0485613699999998  1.5755559600000000
 10.2778917799999991  3.7569173100000000  3.5555650299999999
  8.1948797100000004  5.2779520399999997  4.8029814000000002
  6.3635247100000001  6.6169436900000003  6.4541434100000004
  5.1783891200000003  8.1548413100000001  8.5170317799999999
  3.4331802300000001 10.2359985400000006 10.5485405199999995
  1.9009027700000001 11.9876450699999992 12.5944601100000000
 -0.1613143500000000 13.8715251899999998 13.9816633199999991
 19.4137599799999983 15.8773353900000007 15.6237860099999999
 16.7226676500000018 16.8349708599999985 17.3964745100000009
 15.3880845599999994 19.1068966700000011 18.8426605000000009
 15.0243155599999998 19.5923829299999994  2.3394108400000002
 13.5907036500000000  0.4639278200000000  3.8664285700000001
 12.0206543900000007  2.0828864399999998  5.5873366700000000
  9.7419203799999998  3.2908429199999998  7.0681323699999998
  8.2065745299999993  4.8386923199999998  8.3736931299999995
  7.2572106400000003  6.5899314000000002 10.2308183300000000
  5.5986564699999999  8.2170822200000000 11.7939172200000009
  3.4038371800000000 10.1935464000000007 13.4356423899999999
  2.0362447299999999 12.0105200300000003 15.4488230699999995
 -0.0622719800000000 13.2917696700000008 17.5839530900000014
 19.0339331300000012 16.0337647899999993 19.2076475199999983
 16.8976624999999991 17.8983327500000016  0.6583299700000000
  8.4144102899999993  8.7619967800000005 11.7454432700000009
  7.3002573899999996 10.4000556399999997 13.4953113400000007
  5.1257021700000003 12.1101124099999993 15.6717147299999997
  4.0936808600000001 13.9534881199999994 16.9166836300000014
  1.7756304500000000 15.5743469999999995 19.3245410000000000
 -0.1662057900000000 17.8746890000000000  0.4141067400000000
 18.7398683499999983 19.1315424500000013  2.1055986099999999
 17.5034102599999990 20.6858819199999999  4.1389675600000002
 16.2587110800000012  1.8073692400000001  5.3155754999999996
 13.5709968700000001  3.6994641399999999  6.2725424199999997
 11.7171308100000005  4.5690468299999996  8.3747656599999996
 10.0438715100000007  6.5423179500000002  9.7358558100000003
  9.8880005000000004  6.5782296499999999 13.5691434599999994
  8.3627621100000002  8.1714692299999996 15.3507726499999997
  7.2639905899999997 10.9427684999999997 17.5665947899999999
  5.0309940299999996 11.6347276199999996 18.9232731600000008
  3.2851546400000000 13.6641142900000006  0.2340281600000000
  1.3261274900000000 15.2474267500000007  1.8129184800000000
 -0.1442469200000000 16.8136159399999983  3.7357743800000001
 19.2825574099999990 19.3143274699999985  4.9779941100000000
 17.5284594600000005 21.0226245300000016  7.1885114000000003
 15.6887198199999993  1.8667349200000001  8.8125605900000004
 14.0896809500000000  3.1785867699999999  9.8917085900000004
 11.5730470099999998  4.8449325200000004 11.9523113199999997
 11.3840146400000002  4.5094983199999996 15.9703938099999991
  9.5564149700000005  6.6398902700000004 17.4142671299999989
  8.5436694000000006  8.5438290400000003 19.4032047699999985
  7.2718211200000002 10.7212339700000001 -0.5191697300000000
  5.4307388000000003 11.7523986300000001  1.9089505800000000
  3.3836211800000000 13.8757203800000006  2.8513326999999999
  1.8900760299999999 14.6215527000000005  5.5544387999999998
 -0.2013093500000000 16.9071634499999988  6.7150875399999999
 18.6729174600000007 19.0142300400000011  8.7758461800000003
 17.2568787700000001  0.5941324500000000 10.3241014799999995
 15.8619252399999997  1.6291522000000001 12.0561918000000006
 13.6451117100000001  3.8353498199999998 13.9163603600000005
 13.9354462800000007  3.8459263799999999 17.2431117900000004
 11.6513233199999995  4.8646329000000001 18.3110304299999989
 10.4962873299999995  6.6558528800000003 -0.3557572500000000
  8.9553489899999992  8.7811029600000001  0.9170235600000000
  7.5516247300000003  9.9538506899999994  3.2147312499999998
  5.5352658300000002 11.7855152899999993  4.4108350200000004
  3.7566489999999999 13.1663880899999999  7.2464118900000001
  1.9606912999999999 15.1661316999999993  8.0697957599999999
  0.3646013800000000 16.6237066999999996  9.9347535400000009
 19.5774763900000011 18.9451764800000007 11.2234492100000001
 17.3137672500000015 20.3446508799999997 13.8591923300000008
 15.4165989799999998  1.7952535700000001 14.9119234200000008
 15.3507504200000007  1.3272666200000001 18.9005501699999989
 13.5804115599999999  3.4383619900000002 -0.1308610700000000
 12.1726682000000004  4.8135231000000003  1.7774292000000000
 10.5007643300000009  7.1328231700000000  3.2680900400000001
  9.2158163099999992  8.5380047000000001  5.4169417099999997
  6.7525668000000003 10.3518236500000000  6.8641625900000003
  5.0370996799999999 11.8312098399999996  8.4882226700000007
  3.4393333400000001 13.5189896500000000 10.1130983499999996
  2.0769812600000002 15.0457007699999998 11.7525503199999992
  0.1561464900000000 17.1312805600000004 13.1848202200000006
 19.0953763000000016 18.3072193600000013 15.5165400000000009
 16.8161674699999999 20.5473703800000003 16.1143317900000014
 16.5984666899999986  0.0119862300000000  0.7901548300000000
 15.6005776100000002  1.8174650800000001  2.0157345100000001
 14.0083093999999999  3.4677885700000002  4.1137961100000000
 11.7625442200000005  5.2071123000000004  5.5009952400000000
 10.4071508099999992  6.6008607000000001  7.0148162400000000
  8.2742721600000007  8.8184636100000002  8.4098465699999991
  6.8050383700000001 10.2179441400000002 10.0703465500000000
  5.1933652199999996 11.9664562199999995 12.0792499200000005
  4.1766752199999999 14.3686697300000006 13.6292769000000007
  1.6702998700000000 15.2059014799999996 15.5504568899999995
 -0.1648660500000000 17.3440446900000005 17.1404560199999985
 18.5447620800000017 19.2608633599999983 18.9372821900000012
