Li 
 1.0000000000000000
   -11.0705700000000018   19.1747897087477881    0.0000000000000013
   -18.9781199999999970  -10.9570226907130195    0.0000000000000076
     0.0000000000000001    0.0000000000000001   23.2203000000000017
 Li 
 504
Cartesian
 -0.2036432100000000  0.1849431400000000 -0.1456063100000000
 -11.2531761600000006 17.3230194900000001 15.6110816400000001
 -10.8721928600000002 15.7635998100000005  7.6097542400000000
 -10.9266155900000008 13.5224348400000007 -0.3756589300000000
 -10.7349059600000007 11.8776999500000002 15.6079530200000001
 -11.1035989799999992  9.9853163400000007  8.1186539399999997
 -11.2374239300000003  7.9344778900000001  0.0399728400000000
 -11.2507105700000007  6.1471692999999998 15.5743324699999999
 -11.0652408900000001  4.6188383499999999  7.6530760700000000
 -11.6361054100000008  2.7620101400000001  0.1142270600000000
 -11.1670600400000009  0.8735458500000000 15.7517743200000009
 -10.9705914300000007 -0.7495840300000000  7.8140400600000000
 -1.6691907500000001  0.8575696100000000 15.5357745600000001
 -1.7277836099999999 -1.1106481600000000  7.1146962000000000
 -12.7969429399999992 16.5099057400000007  0.0832723500000000
 -12.3790312799999995 14.6471961600000000 15.9008033999999991
 -12.5816448500000000 13.0993951200000005  7.9191751600000000
 -12.6876522499999993 10.9560125799999994 -0.0009711600000000
 -12.3193502600000002  8.9421318400000001 15.7106656900000008
 -12.7348929099999992  7.3695758099999997  7.7344860500000001
 -12.8304557100000007  5.5369558400000001  0.0998268400000000
 -12.6444047899999994  3.6153519699999999 15.5769584600000002
 -12.3192495300000004  1.7163411099999999  7.7307018200000002
 -12.7185854799999998  0.3802152000000000 -0.0651423900000000
 -3.3159047199999998  1.7422348200000000  7.4752322700000002
 -3.2097720399999998 -0.0904793000000000 -0.2837255700000000
 -3.4647293900000000 -1.7997407599999999 15.1055270400000001
 -13.9725026999999997 15.6362111899999991  7.9852403199999999
 -14.1775093499999993 13.6757798299999997 -0.0231928400000000
 -13.8099011399999991 11.7191714299999994 15.5508463100000007
 -14.1359812999999992  9.9946198800000001  7.8469765899999997
 -14.2572393099999992  8.5231933800000004  0.0480898700000000
 -14.2109066800000008  6.1606506000000003 15.5885474399999993
 -14.1838416600000006  4.5055403700000003  8.2771402700000003
 -14.4457885099999999  2.9121500600000001  0.1950217500000000
 -14.5349560100000001  1.2035364799999999 15.8092401500000008
 -4.7122298000000002  2.6809439899999998 -0.4710671800000000
 -4.8979548099999999  0.6368284100000000 15.5327026400000001
 -5.0234361999999999 -0.7338121200000000  7.4554567799999996
 -5.0893181600000004 -2.6860616500000001  0.0268791500000000
 -15.4747629300000007 14.2932430999999998 15.5005761100000008
 -15.5162363899999995 12.6060724000000004  7.6898201200000003
 -15.9629404600000004 10.9477800599999995 -0.4466560800000000
 -15.5733938900000002  9.1826464399999992 15.6064919300000007
 -15.5702454199999991  7.1669439400000003  7.4171506200000001
 -15.8000885800000006  5.3229275899999999  0.0100564500000000
 -16.0255836400000007  3.5617127700000002 15.5612607399999998
 -15.4723265500000000  2.1127511299999999  7.9028851199999997
 -6.4826866499999998  3.5408897000000001 15.2788890599999991
 -6.4214677099999999  1.8019855700000000  7.4617292600000003
 -6.4861443899999998  0.2386827200000000 -0.0001672600000000
 -6.4837358199999997 -1.8291561500000000 15.4992072099999998
 -16.8273279400000000 15.3699198700000004  7.8604280099999997
 -17.6704485499999997 13.6844131400000002 -0.2757659700000000
 -17.2417963699999994 11.7852990200000001 15.6905131499999992
 -17.3973295400000012  9.9322424300000005  7.6663954600000004
 -17.3897114299999984  8.0957995900000004  0.2027876700000000
 -17.4288518000000003  6.2089036799999997 15.4915811300000001
 -17.1751763900000007  4.6311534200000004  7.7493478299999996
 -17.5676620300000010  2.6260888200000001 -0.0821260700000000
 -7.6824943399999999  3.9632271900000000  7.7319200900000000
 -7.8382858799999999  2.7395599599999998  0.0440687600000000
 -8.4608921600000002  0.6449913200000000 15.4238948899999997
 -7.9072023400000004 -1.2441442100000000  7.9053288300000002
 -7.9954893800000004 -2.6152562900000000 -0.1596676800000000
 -18.7614636600000004 14.6978233500000002 15.4021801099999998
 -18.8166998399999983 12.5186204399999994  7.8782950500000002
 -19.0242177400000010 10.8982919400000000 -0.1045233300000000
 -18.8703129499999989  9.1167690199999996 14.8892730100000001
 -18.8869341599999991  7.5195380500000004  7.9445142300000002
 -18.6125119099999985  5.5895282200000000 -0.0660078300000000
 -19.1704548800000012  3.3219837299999999 15.1759977399999997
 -9.4161556799999993  5.3678555000000001 -0.0999684400000000
 -9.6667314500000003  3.5141280099999999 15.3924788699999997
 -9.1528355500000007  1.5517522100000001  7.4911709999999996
 -9.4437626100000003  0.3430030400000000  0.0788502200000000
 -10.1338503499999995 -1.9940318200000000 15.3713045699999995
 -9.0545146600000006 -3.7631861999999998  7.9976055199999996
 -20.8475612900000016 13.7255616899999993 -0.0286175300000000
 -20.7609963600000000 12.0589411299999991 15.3545381800000005
 -20.6013665500000016 10.0500950200000005  7.4951034500000002
 -20.6090534500000011  8.2638692000000002 -0.0672182200000000
 -20.5753005900000012  6.1029780799999997 15.0608944900000008
 -20.5364745199999987  4.7103313800000004  7.7548513699999999
 -10.8735143000000001 -2.6192894899999999 -0.1300724900000000
 -11.1006915799999994 -4.5748069400000002 15.2842373600000005
 -22.1672046899999984 13.0181259800000007  8.0159221699999996
 -21.9466177400000007 11.2576915999999994 -0.0060803600000000
 -22.1253320900000006  9.3948695499999992 15.3846486400000000
 -22.4209791600000017  7.3775901199999998  7.9168885700000002
 -21.8198530899999987  5.5540176299999997 -0.1835650700000000
 -13.2681521199999999 -1.5857254999999999 15.5114626100000006
 -12.4079877700000001 -3.2457976400000002  7.5079798200000001
 -12.5945728700000004 -5.6736726700000002 -0.0640643500000000
 -23.6672444300000002 11.9324369600000004 15.6484740799999997
 -23.6743620200000002 10.1368180900000002  7.5959194099999996
 -23.6984818500000003  8.5709823400000005  0.0930758700000000
 -23.6565952800000012  6.6443267099999996 15.4470109799999999
 -14.0382875600000006 -0.4767748400000000  7.8333377200000003
 -14.3110357799999992 -2.7730707600000000 -0.1549993500000000
 -14.8243312100000004 -4.4306486999999999 15.6971962499999993
 -14.2531650200000009 -6.2810214000000002  7.5992323300000004
 -25.5413801900000017 11.2991001099999995  0.0791196400000000
 -25.2847778199999986  9.4304873100000002 15.3365214699999992
 -25.6845027600000009  7.0616521700000003  7.7136694600000002
 -15.8006384099999995  0.0757010100000000  0.1788966900000000
 -15.6464950399999996 -1.5725027800000000 15.2335674399999998
 -15.7766629399999996 -3.4072959200000001  7.9616975999999999
 -15.5788061599999992 -5.0886279700000001  0.0286370500000000
 -16.0751736399999992 -7.0562650600000003 15.6113801799999994
 -26.8812303600000000 10.2405033900000006  7.8362772900000000
 -26.8791401900000011  8.7534133300000008 -0.0542436700000000
 -17.8136358399999999  0.8236937500000000 15.6158151000000007
 -17.2665982599999985 -0.6175191100000000  8.0143965799999997
 -17.2988504700000014 -2.7471048100000002  0.3038938600000000
 -17.7986230600000006 -4.3193234000000000 15.4373413100000008
 -17.2589712599999991 -6.1707058600000000  7.9960335899999997
 -17.4426304999999999 -7.7796916300000003 -0.2599583100000000
 -28.5272871200000004  9.1628498000000000 15.4551794900000008
 -28.1664366699999995  7.6925987100000004  7.3342452299999996
 -9.4594069199999993 16.8158000299999983 -0.0065735400000000
 -9.6108845100000000 14.6132131100000002 15.5649153400000007
 -9.6697850600000006 12.8386215600000000  7.8555071099999996
 -9.2225598699999995 11.0055208899999997  0.0894529500000000
 -9.1912208100000008  9.0912724800000007 15.7806094300000002
 -9.1895805799999994  6.8763731300000002  7.7115423999999999
 -18.8309738499999995 -8.8962394400000004  7.9048879899999998
 -1.4402680699999999  2.9010303000000000 -0.2442708900000000
 -3.2510566500000002  3.5900027600000000 15.3000399999999992
 -4.6309513700000000  4.5225002500000002  7.5060773699999999
 -6.4624241600000003  5.1998289000000000 -0.1251652300000000
 -8.0510165800000006  6.3873638200000000 15.4858567399999991
 -26.9738414400000011  6.4650234299999996 15.4524358599999996
 -26.8610192499999982  4.5136130600000000  7.6581523799999998
 -8.0198459900000003 13.9784870699999999  0.1477997000000000
 -7.6965187100000003 11.7357339700000001 15.7636511400000003
 -7.9992211400000004 10.1188360999999993  8.0555391499999995
 -7.8934536599999996  8.4421897799999996  0.2596631700000000
 -19.0721627699999985 -7.0104593399999997 15.6370653500000003
 -20.2493815700000006 -6.2576265800000002  7.6694381299999996
 -3.1537069500000001  5.4176183299999998 -0.0246484700000000
 -4.7946476100000002  6.0334776200000002 15.3155329699999996
 -6.3948261200000003  7.2758262699999996  7.6424968900000003
 -25.1298614399999991  5.6057382899999997  0.1024770600000000
 -25.4840036000000012  3.7215834299999999 15.6377355700000003
 -25.3561715700000008  1.8206692300000000  7.9368399700000003
 -6.1994987600000000 11.0297947399999998  0.3491705300000000
 -6.7086360400000000  9.0779735400000003 15.4728382399999997
 -18.8577850600000012 -5.4139705700000000  0.1757339200000000
 -20.9320420899999995 -4.4452040799999999 15.3409713500000002
 -22.0763404100000002 -3.5186006600000002  7.8565471799999997
 -4.6254821200000000  7.9595273500000001  0.0474839100000000
 -23.7551996800000005  4.8793716600000003  7.6211949099999998
 -23.6375981199999998  2.8107395500000001 -0.1535199600000000
 -23.5766375000000004  0.9028069100000000 15.8507313399999994
 -23.4384992700000012 -0.7359651600000000  8.3239103100000005
 -19.2378348800000012 -3.2885356200000002  7.5314235199999997
 -20.3539189100000009 -2.6377961299999999 -0.2002300700000000
 -22.1543555800000007 -1.6601484000000000 15.1994813400000002
 -22.3209614199999997  3.4959519200000000 15.1434009900000000
 -22.0854662799999986  2.0718261299999998  7.7188674900000001
 -22.2310047900000001 -0.1554212600000000  0.2896187100000000
 -19.1299178800000007 -1.8417837200000000 15.3523445299999999
 -20.7800382299999988 -0.5281962400000000  8.0317629299999993
 -20.8017533599999993  2.6321501000000000  0.3469002600000000
 -20.5922254100000011  1.0028361100000001 15.2736839399999997
 -18.5566663399999996 -0.0891525000000000  0.0631941200000000
 -19.0957971999999998  2.0838037900000002  7.6695420700000003
  0.3503580800000000  0.1509503100000000 18.2250758700000013
 -10.8045419599999999 17.3980062900000014 10.1435106400000006
 -10.7413032899999994 15.4476283900000002  2.2999725400000002
 -10.6703573899999995 13.5348769999999998 18.2778184900000014
 -10.9001536300000001 11.6269878299999991 10.4951943799999992
 -10.8330126999999994 10.2967923799999994  2.5591392700000002
 -10.7059535300000004  8.0408928000000000 18.0728349000000001
 -11.3358506999999999  6.5770721700000001 10.3032516600000008
 -11.0712918800000004  4.9085377799999996  2.8255105800000000
 -11.1226643799999998  2.6429876000000001 18.1669512600000012
 -11.1456129599999993  1.1368319000000000 10.5857248899999998
 -11.1960741200000005 -0.7873549800000000  2.3925906100000001
 -1.4764198100000001  0.7962629300000000 10.2881098699999995
 -1.4912236600000000 -0.9725879100000000  2.4534248000000001
 -12.7371487200000004 16.2136840000000007 18.4198657200000007
 -12.4132635199999992 14.7383400499999997 10.1923125300000006
 -12.5467635600000005 12.9195462800000005  2.4483863499999998
 -12.2937741799999998 10.7343937399999998 18.1126374500000011
 -12.8645023300000005  9.0731965500000005 10.3564298099999998
 -12.6628569700000000  7.5200937600000000  2.4030372600000001
 -12.6221359599999996  5.3764845399999999 18.2163885199999989
 -12.5874418099999996  3.6942532500000000 10.6202533599999995
 -12.7341336300000005  1.9334161900000000  2.8084299000000001
 -12.7706084900000008 -0.1292502600000000 18.1570665799999986
 -3.0729887900000001  1.7200669600000000  1.9741834500000000
 -2.9302297199999998 -0.4234506700000000 17.8583544799999991
 -3.2626995399999998 -1.8001582700000001 10.4220302700000005
 -14.3421527799999993 15.4605696199999993  2.3870522300000001
 -14.2511980800000000 13.5827802900000005 18.2765892299999990
 -14.1430241100000007 11.9437358000000007 10.4374740999999993
 -14.0825566900000005 10.0709616799999999  2.3955222500000000
 -13.9264713800000006  8.0538150700000006 18.0995013399999998
 -14.4448725299999996  6.4189905100000004 10.4214160499999995
 -13.9186174499999993  4.5737346600000004  2.7370450000000002
 -14.5468381900000008  2.7910606400000000 18.3431030399999990
 -14.8075620699999995  1.1397608699999999 10.4484356199999997
 -4.6622222600000001  2.4136742600000001 18.0081333400000005
 -4.5588944199999997  0.9127539300000000 10.0963370500000007
 -4.4169590999999997 -1.0120486500000001  2.4603853500000001
 -5.0041590200000003 -3.1473915200000002 17.8932989199999994
 -15.8101907199999996 14.1903969900000000 10.6002941300000000
 -16.0570759000000010 12.6114195900000006  2.4352695600000001
 -15.2530899600000005 11.0922464699999992 18.1539800400000004
 -15.9895664600000007  9.1370983900000002 10.4567118299999997
 -15.7331485900000008  7.5057575600000002  2.9024092499999998
 -16.2820432400000001  5.5266534099999998 18.3194243999999991
 -16.1206879399999998  3.6404418700000001 10.4932639000000005
 -15.7451975500000003  1.9913924199999999  2.8183791199999999
 -5.9897025800000003  3.4885489500000002 10.2033866599999996
 -6.3161415400000003  1.6806968099999999  2.5610538599999999
 -6.2693374600000000 -0.5423456700000000 18.1269416200000002
 -6.2945660300000004 -2.0174728599999998 10.3429049000000006
 -17.3105531600000013 15.6732761499999995  2.4129547499999999
 -17.5862972500000012 13.5417349399999996 18.2426275199999992
 -17.2642894799999986 11.8248860199999992 10.3336496100000002
 -17.6229093600000013 10.1396169599999997  2.4815136700000000
 -17.3581831999999991  8.3592432300000006 17.5054901100000002
 -17.5761373600000006  6.2962271799999998 10.2450313400000006
 -17.3389631500000014  4.4469819499999996  2.7249240299999999
 -17.6935381900000017  2.8101118500000002 18.4233334599999985
 -8.1132359399999991  4.2433353399999998  2.9284366300000002
 -7.8397478800000000  2.5220138500000000 17.8630630299999993
 -7.7874715800000001  0.8533036300000000 10.4784877900000009
 -8.1060081400000001 -1.0356890100000000  2.4147159899999999
 -8.0557942600000008 -2.8884740099999999 18.2222997999999983
 -18.7837485599999994 14.7413204300000000 10.6848416900000007
 -19.3138618300000005 12.7218996700000009  2.6585937400000001
 -19.1126636699999999 10.6101008599999993 18.1488263299999986
 -19.1390395200000007  9.1254790200000002 10.4864476799999995
 -19.0371768699999997  7.3392173999999999  2.7403995299999999
 -19.2048072999999988  5.3781159299999999 17.9805984800000012
 -19.1125964099999983  3.6164905799999998 10.3952503699999994
 -9.5531801499999993  5.5409910399999998 17.9686353600000004
 -9.4293398800000006  3.8208034600000000 10.2983043399999996
 -9.7431963800000005  1.4808560300000000  2.5587630699999999
 -9.5560249600000002  0.0148124000000000 17.9083356699999996
 -9.4053728900000007 -1.8377250400000000 10.6148758500000007
 -9.4117627099999996 -3.5123345499999998  2.3300960499999999
 -20.7274284999999985 13.5619192900000005 17.8804260600000013
 -20.6659318700000014 11.7793811200000000 10.2666176900000004
 -20.2501169400000016 10.2807696100000001  2.7817394599999998
 -20.7755680299999987  8.3506100500000002 17.6305455400000000
 -20.6926573299999994  6.3232777899999997 10.1839623400000008
 -20.5250865699999991  4.5675250800000002  2.5330358099999999
 -11.5590865399999991 -2.7495750499999998 17.9867609199999983
 -11.1060588899999999 -4.5185378700000003 10.4449194799999994
 -22.4236998000000014 13.0443739099999991  2.7062790900000002
 -22.5246661800000005 11.0329965699999999 17.9913651899999998
 -22.0344555799999995  9.0286700000000000  9.6351566700000006
 -22.1778412799999991  7.5481856399999998  2.5676777000000000
 -22.0992688100000017  5.6431102800000001 17.6719195599999992
 -12.8300203899999996 -1.4633358599999999 10.1859433100000007
 -12.6349762200000004 -3.5474134600000000  2.6291541700000001
 -12.7954625199999992 -5.4150997299999997 18.0682106699999991
 -23.8761652799999986 11.8650522400000007 10.2037772199999992
 -23.4670113899999997 10.1311634099999992  2.5249307800000000
 -23.4525309200000009  8.3384608000000000 18.2192635000000003
 -23.7549807199999989  6.6147168100000000 10.3093335699999997
 -14.4917035799999994 -0.7706036900000000  2.4115874300000000
 -14.7526515600000003 -2.7772795499999998 18.1449443700000010
 -14.0885660799999997 -4.2678454900000000 10.0266265499999996
 -14.1475233300000003 -6.5025832899999996  2.5368691399999999
 -25.4007864099999985 11.0044116200000008 18.0452772199999991
 -25.4459620499999986  9.1916311499999992 10.2061320599999998
 -25.2639032899999982  7.5630531699999999  2.6792496200000002
 -15.8158486400000005 -0.0021953500000000 17.8070205799999997
 -15.9836335999999992 -1.5562224800000000 10.1767799900000000
 -15.5456065399999996 -3.4763634899999998  2.7344019099999999
 -15.8876810499999994 -5.4910030399999998 18.2080080799999990
 -15.5781116300000004 -6.9002974100000003 10.2279782400000006
 -26.9730060700000003 10.1136244499999997  2.5083046800000002
 -26.5808702600000011  8.3032505699999994 17.9523542399999982
 -17.6929342699999985  1.1637355700000001 10.2139050900000008
 -17.4110404699999997 -0.9820962700000000  2.6365492200000000
 -17.3303990600000013 -2.4920197499999999 17.8841395399999996
 -17.5278882500000002 -4.3316530999999996 10.3073350099999992
 -17.2796338799999987 -6.2087459799999998  2.8713864600000001
 -17.0982140899999990 -8.0245902400000002 18.0858647300000008
 -28.3783897600000010  9.2457036299999995 10.1594955500000008
 -28.3980558099999989  7.4269490200000003  2.5642304500000002
 -9.1888952100000001 16.3107715900000017 18.2761305999999983
 -9.5864768700000003 14.4624072500000000 10.4294311099999994
 -9.4136166299999999 12.6316871600000002  2.6015809200000000
 -9.1247195500000000 10.7046277799999991 18.1520292699999999
 -9.5155606600000002  8.7081384800000006 10.3390309899999995
 -9.5268244499999994  7.1572495199999997  2.4509068400000000
 -18.9552325699999997 -8.9638699400000004  2.5898827999999998
 -1.4200535500000000  2.7678463899999999 17.7846594600000003
 -2.9203598799999999  3.6814581199999998 10.1372336000000001
 -4.5692672800000000  4.5124813000000001  2.2783418599999998
 -6.5382861999999999  5.2393675399999999 17.9702843200000011
 -7.7998605500000000  6.2528698100000000 10.3659570100000007
 -27.2108753499999985  6.1102824900000003 10.1312157999999997
 -26.6173663900000008  4.5667521200000003  2.6874082700000002
 -7.6773060900000001 13.5331338500000005 18.1249796699999983
 -8.0640931100000000 11.2989572900000006 10.4786982900000005
 -7.7277639200000001 10.1494534600000001  2.9573335100000002
 -7.6871891600000000  7.8568560200000004 17.9335148800000006
 -18.8610863699999989 -6.9149673800000002 10.6417449899999994
 -20.4313704499999993 -6.2463239100000001  2.6340119500000001
 -3.3853121599999998  5.1489495500000002 17.6022174699999994
 -4.5480155099999999  6.4601293799999997 10.2538813300000005
 -6.6663246999999997  6.8858328499999999  2.5303875499999999
 -25.3739511799999988  5.5421063899999998 18.1218256900000014
 -25.3925854099999988  3.7397584899999998 10.4253274400000002
 -25.1012819399999998  1.9880490200000001  2.3655515999999999
 -5.9680958000000004 10.8214728099999995 18.0551716900000017
 -6.5403735300000001  8.8800323999999993 10.3411274500000001
 -19.1315886000000006 -5.3726711399999996 18.0007862799999998
 -20.5433050399999999 -4.5298529600000004 10.4135222200000008
 -22.4438943100000010 -3.7057491499999999  2.3944145300000002
 -4.5138410300000000  8.0789014399999992 18.0206196799999994
 -23.5250188800000011  4.8248115800000004  2.6168577700000002
 -23.6555211199999995  2.5823004799999998 17.7929979799999991
 -23.7218647999999988  0.9052803300000000 10.7179061900000008
 -23.7494938200000014 -0.9377083600000000  2.9885583599999999
 -19.0872744300000008 -3.4624111700000002  2.5039547700000000
 -20.4908804599999996 -2.8639089599999998 17.9594635199999999
 -22.0665664499999998 -1.9661156399999999 10.6187183100000002
 -22.4422703100000014  3.6217508199999999 10.1278427700000009
 -22.5249014099999982  2.1407331599999999  2.5780660200000001
 -21.8836167699999997  0.0212026500000000 18.0122983400000010
 -19.2686226800000000 -1.9321046300000000 10.1390437599999998
 -20.5101277800000013 -1.1603975900000001  2.9726214099999999
 -20.5997601999999986  2.6722335300000002 17.8255170599999992
 -20.6477443899999997  1.1576176800000000 10.3243724300000004
 -19.2137056199999989 -0.0967310200000000 18.2246333100000015
 -19.0541386199999998  1.7032619499999999  2.9004240499999998
  0.0160662700000000  0.2142584800000000  5.0886147099999999
 -10.8295106600000004 17.2354582500000006 20.7147869200000017
 -11.1592245400000003 15.2789433700000004 13.0642302200000007
 -11.0689106200000005 13.5358989699999999  5.1854893000000004
 -10.7492159600000008 11.8186475000000009 20.5918230300000005
 -11.2405655299999996  9.9214821499999992 13.2117793999999993
 -11.2773488999999998  8.1382743400000006  5.2222663400000000
 -11.1036092600000007  6.4051346000000002 20.7455893300000014
 -11.1250633400000005  4.3235148499999996 12.9925070500000004
 -10.9630538200000007  2.4554058200000002  4.9775112200000002
 -11.1212736200000002  0.9212095900000000 20.7060779199999985
 -11.4774262300000007 -1.0275311800000000 13.0649605100000006
 -1.3819446700000000  0.7560322400000000 20.3865028499999994
 -1.6048899100000000 -1.0827066200000000 12.8685770500000007
 -12.0371564499999995 16.3887579400000014  4.8276816100000000
 -12.5097447600000002 14.3543420499999996 20.7539551700000011
 -12.5824680999999998 12.6472390400000005 13.0262807800000004
 -12.4085140700000007 11.0454236699999999  5.1760453300000000
 -12.7509702399999991  9.2403645700000006 20.4342353400000007
 -12.7689746000000000  6.9361078599999999 13.0772946799999996
 -12.7255812099999996  5.5197984000000000  5.1863371400000000
 -12.7368704600000004  3.6117188200000001 20.9678645299999999
 -13.1225219400000004  1.9529298700000000 12.9608224799999991
 -12.3348056199999991 -0.0833892700000000  4.8595528200000002
 -3.4922824900000000  2.0299045499999999 12.7647902799999997
 -2.8908459299999998 -0.2953151800000000  4.9721527800000000
 -14.3836385599999996 16.9982480000000002 20.4876557099999985
 -14.0471545700000000 15.4707011300000001 12.9228938800000002
 -14.2086973600000004 13.7080547399999997  5.1275711499999996
 -13.9903649699999999 11.8420792000000006 20.5850341999999991
 -13.9173610599999993  9.7295743800000007 12.7517689200000000
 -14.4770628600000002  8.1049537699999998  5.0323247300000000
 -14.2558846700000004  6.2720461199999997 20.8236420399999993
 -14.4302113799999994  4.4619287600000002 13.0630385199999992
 -14.1600511000000004  2.5824526099999998  5.4234735199999999
 -14.0745441400000004  0.9668431900000000 21.2091963899999989
 -4.7522507100000002  2.5603848100000000  5.0308686700000003
 -4.5258060799999997  0.6553403100000000 20.4123755699999982
 -4.5250110200000000 -1.3382933200000000 12.9199285300000000
 -4.4440185600000000 -2.7957012300000001  5.1738499100000004
 -15.4759965200000007 14.5459662699999992 20.6417805200000011
 -15.7807246600000006 12.4886472600000005 13.1927031699999997
 -15.7936707599999995 10.7739471400000006  4.9608859900000004
 -15.6311414400000004  8.7445325999999994 20.5679625399999999
 -16.0301532699999996  6.9424462000000000 12.8168922100000007
 -15.9071720600000006  5.2805240299999996  5.3827357400000002
 -16.0216088399999990  3.5127417099999998 20.7670178400000012
 -16.3182654700000001  1.8103199900000000 12.9410529600000004
 -6.2908053300000004  3.1561635300000002 20.5595137799999996
 -6.3674897300000000  1.5129029400000000 12.7203434299999998
 -6.4549381500000003 -0.2351455600000000  5.0320472599999997
 -6.3510159200000000 -1.7642188100000000 20.5551612800000001
 -17.1097406899999989 15.2142585300000004 13.3886707400000002
 -17.3367313000000003 13.5353804300000000  5.2011949299999998
 -17.4047788200000006 11.5624193000000002 20.8393316999999989
 -17.1230978200000017  9.7865504100000003 12.9763654899999992
 -17.5223380999999989  8.1809263600000008  5.0044891800000002
 -17.3732351999999999  6.5376918100000001 20.7816245899999998
 -17.6440333400000000  4.6468707699999996 12.9083149699999993
 -17.4270130799999983  2.5985681500000002  5.3733736299999997
 -7.8552586499999997  4.2874262999999999 12.8137826900000000
 -8.0413177800000000  2.7678697200000002  5.0058287200000002
 -7.6973077999999999  0.7063062100000000 20.5976105899999986
 -8.2259497800000005 -1.3750437900000001 13.0265391800000003
 -7.9054815999999999 -3.0750551800000001  5.1083466800000004
 -18.6764472099999992 14.3246640000000003 20.5808787799999990
 -18.7893265199999995 12.4761659700000003 13.1264449699999997
 -18.6547855399999989 10.7789514499999992  5.2494013099999997
 -19.0374325000000013  9.1275270200000005 20.6001286199999996
 -19.1202474600000016  7.0797528500000002 12.5937377599999998
 -18.8351030900000005  5.1824533099999996  5.3040708700000003
 -19.5184999800000014  3.8573464300000002 20.7829826400000002
 -9.5396275199999998  5.5775311600000004  5.1370615600000002
 -9.4019663599999994  3.3658224200000002 20.3962033600000012
 -9.8890581599999994  1.6331949500000000 12.8830922500000007
 -9.4598115800000002 -0.0141283500000000  4.9714819800000001
 -9.5597620499999998 -1.6847038299999999 20.5741019399999985
 -9.4915575600000004 -3.7030648600000000 13.1665680900000002
 -20.3077252199999982 13.5448623300000008  5.4005142099999999
 -20.4662539499999987 11.8958770299999994 20.7821524900000014
 -20.8960091500000011 10.0173632500000007 12.5082599699999992
 -20.6159758099999983  8.3059765700000003  5.0874666800000004
 -20.4346613099999992  6.8133777200000001 20.3489277100000017
 -20.9462498600000018  4.1792997600000001 12.5280632300000008
 -10.7470973900000004 -2.4881525600000001  5.1033772099999997
 -10.9341649400000005 -4.5665352300000004 20.7879110800000007
 -21.8374863099999992 13.0124266300000002 12.6673823900000002
 -22.0295338700000016 11.3142518100000000  4.6758934999999999
 -22.1053842399999994  9.3093257099999995 20.4240750499999990
 -22.1360789900000015  7.3891831500000000 12.4167479499999995
 -22.0402995900000001  5.5392488100000001  4.9755976700000000
 -12.4503713499999993 -1.7574012699999999 20.6133425499999987
 -12.8248593999999994 -3.2976900400000000 12.7921074299999997
 -12.6253715999999994 -5.0592277399999999  5.1290331299999998
 -23.8509104399999998 11.8462126899999998 20.7274607599999996
 -23.7202059399999996 10.1307092200000000 12.8346925200000008
 -23.4043605200000009  8.3061871499999995  5.0576361500000004
 -23.5266818499999992  6.5338793300000004 20.7940907099999990
 -14.2074867900000008 -0.8992951500000000 12.6272465000000000
 -14.2097558300000006 -2.4123025299999998  5.0832160300000000
 -13.9428880100000008 -4.3611522599999999 20.3203148999999996
 -14.0383368199999996 -6.2180866999999997 13.0473370899999992
 -25.4613342600000010 10.7766391499999994  4.9509033499999999
 -25.4948211899999997  9.4098130500000003 20.4660818300000003
 -25.9012941599999991  7.7572456100000000 12.8002008000000007
 -15.4986631999999993  0.3129342300000000  5.0200303599999998
 -15.6646132500000004 -1.6904465200000001 20.8057358599999986
 -16.1289751599999995 -3.6004467500000001 12.5626511599999997
 -15.7089486899999997 -5.2825243100000003  4.9513162599999996
 -15.6302119299999998 -7.1775535799999997 20.5287008799999988
 -26.9357774200000009 10.1587732600000002 12.8559500399999997
 -26.9436305999999988  8.3896651999999996  4.8324420000000003
 -17.1217210699999995  0.9381157100000000 20.5859604900000015
 -17.6223274399999994 -0.8173777800000001 12.8140182100000004
 -17.3588946300000018 -2.5998025400000002  5.1799890000000000
 -16.9400622200000015 -4.4583146300000003 21.0059490800000006
 -17.0623074800000012 -6.0254088399999999 12.8956156300000000
 -17.9832759200000005 -8.2585771900000005  5.4231189000000004
 -28.4376976600000013  9.3450956000000005 20.7323255899999985
 -28.6723720399999991  7.3985944899999998 12.8649007799999993
 -9.4163701700000004 16.4389210000000006  5.1881451299999997
 -9.0284894999999992 14.4588717399999993 20.6512823099999991
 -9.4125002200000001 12.6398195399999995 13.2100034599999994
 -9.6410926200000002 10.9370516400000000  5.3394211000000000
 -9.3776606000000005  9.0234386200000003 20.7657732099999990
 -9.4919925000000003  7.2441935300000004 13.2771073400000006
 -19.0705350100000004 -9.1085701199999995 12.8423684799999993
 -1.6854094200000000  3.1512377800000002  5.0942820900000001
 -2.6176245699999998  3.8309536799999999 20.3273448999999999
 -4.5947485500000003  4.4448106100000002 12.8875373999999994
 -6.3237130500000003  5.5866919399999997  5.1788753999999999
 -8.0698648100000003  6.0886805400000004 20.4532629300000011
 -26.5810665600000000  6.8579773199999998 20.8594952300000003
 -26.9470074699999991  4.6708948100000001 13.0233969500000004
 -27.0033854499999997  2.7301165500000000  5.2191181999999996
 -7.8896219399999996 11.7861895899999993 21.0810050800000006
 -7.5686410500000001  9.8363999799999995 12.9848484099999997
 -7.9691517999999997  8.2382598799999993  5.1736565900000002
 -18.9876443100000003 -7.2357370200000002 20.2583622299999995
 -20.6502231199999997 -6.6589757100000000 13.0631401199999999
 -22.0153927799999991 -5.5072631599999999  5.2010174400000002
 -4.7417005000000003  6.4097502400000002 20.5294233199999994
 -6.2708181800000000  6.8988767700000002 12.9190291899999998
 -25.5563796799999992  5.8315537099999997  5.1323928199999997
 -25.3188141999999985  3.7417129199999999 20.5704108900000016