Li                                      
   1.00000000000000     
    20.0207999999999977    0.0000000000000000    0.0000000000000000
     0.0000000000000000   20.0207999999999977    0.0000000000000000
     0.0000000000000000    0.0000000000000000   20.0207999999999977
   Li
   432
Direct
  0.0204563783664966  0.0134074872132999  0.9943059438184321
  0.9292450286701808  0.0757629295532638  0.0890664384040605
  0.8684598722328758  0.1583152536362178  0.1612515274114941
  0.7735488821625509  0.2460334052585296  0.2570934637976521
  0.6872864780628163  0.3280423469591653  0.3373830711060464
  0.6086876982937781  0.4259834931671094  0.4132579617198147
  0.5193187370135064  0.5026848552505427  0.4719099476544386
  0.4450087124390620  0.5732886902621246  0.5741642601694252
  0.3528984945656504  0.6459332494206009  0.6707448808239462
  0.2691796646487674  0.7181157011707811  0.7701518151122855
  0.1813663914528902  0.8111603891952370  0.8111846194957266
  0.1103748626428498  0.9526825651322639  0.8772577579317513
  0.0995507682010697  0.9431381093662594  0.0711547355750000
  0.0211993906337398  0.0096364241189164  0.1709591240110271
  0.9246089117318022  0.0864194347878211  0.2660255449332709
  0.8456475440541809  0.1690025608367307  0.3348380079717117
  0.7336272186925612  0.2269648325741258  0.4314715985375202
  0.6612363047430705  0.3212377292615685  0.5181266807520188
  0.5894662311196370  0.4314204527291636  0.5772258416247098
  0.4988439812594905  0.5021427180732019  0.6634998131942780
  0.4430093193079188  0.5965285782785870  0.7502395418764465
  0.3576160782785891  0.6657863641812511  0.8498706495244974
  0.2453255424358645  0.7609954841964353  0.9260626063893582
  0.1672391487852636  0.8550615519859335  0.9909358482178519
  0.1719906332414283  0.8469540612762714  0.1715949877127798
  0.0861941186166391  0.9205834237393091  0.2456706909813775
  0.0027660123471591  0.0117818708543140  0.3416149724286726
  0.9285251103852019  0.0832574542475797  0.3999070636537994
  0.8270056606129614  0.1746884899704284  0.4946535043554690
  0.7391933698953110  0.2340053809038594  0.5911891677655206
  0.6694372477623247  0.3512011572964084  0.6788138565891444
  0.5684974851154792  0.4015872942140177  0.7336962863621821
  0.5108004964836539  0.4845674433589053  0.8288322414688736
  0.4566183224446547  0.5862641552785135  0.9226770793374897
  0.3181423564492931  0.6614016622712384  0.9994517591704621
  0.2437010918644589  0.7525562240270105  0.0802174958043622
  0.2428399984016636  0.7646261513026431  0.2561301621313845
  0.1592630664109294  0.8413224716295034  0.3370476214736655
  0.1005644125109910  0.9334479086749781  0.4145626603332531
  0.9722264889514918  0.0022583288380105  0.5139351259689917
  0.8901321465675665  0.0938543524734285  0.5858915727643250
  0.8195944757452267  0.1754555786981555  0.6757585241348991
  0.6985320626548415  0.2338914364061395  0.7561176896028101
  0.6492566435906681  0.3414637761727803  0.8605146647486634
  0.5664175242747547  0.4266501338607824  0.9201992078238632
  0.4947771532606069  0.5025105340445961  0.0182913175297656
  0.4095136078478419  0.5686313998441648  0.0817221339806622
  0.3046632721969118  0.6673855315471897  0.1565380654119721
  0.3151962049468580  0.6810033390274128  0.3332089192240062
  0.2350984301326591  0.7595372422680384  0.4412298174898126
  0.1582614416007360  0.8504265668704534  0.5248086315232143
  0.0706452464436964  0.9187446450691255  0.6073104281547188
  0.9973819058179458  0.0204054148685344  0.6628084607008731
  0.9030939792615698  0.0678090201190784  0.7518448498561483
  0.8384055632142591  0.1741202454447404  0.8365289873531552
  0.7419676985934629  0.2474524459562062  0.9214149209821798
  0.6787671097059089  0.3491326705226570  0.0000150843123166
  0.5925740125269741  0.4184160203388458  0.0990526682250490
  0.5060160298289773  0.5070201040917439  0.1769469007232445
  0.3878933848797246  0.6047639250179841  0.2493850070926271
  0.4011923020059172  0.5652790148245828  0.4075352952928952
  0.3255551251698208  0.6495089277151749  0.4969359231399366
  0.2633981409334325  0.7345762596899235  0.5912572369735472
  0.1856400183808873  0.8276573703348546  0.6946704422400671
  0.0866238946495628  0.9009455226564356  0.7439935212379112
  0.0043189143290974  0.0045309003636191  0.8164800732238504
  0.9430680367417921  0.0780108497162928  0.9026395064133297
  0.8408634395228987  0.1542140963398069  0.0059503196675479
  0.7565778470390825  0.2511286292256045  0.0831333662990517
  0.6609159249380667  0.3406814922480592  0.1568880319467780
  0.6143982243466795  0.4268602878006860  0.2517895868296947
  0.5015170048149926  0.5061942914369055  0.3253940521857288
  0.0882132502197734  0.1017703613242205  0.9040097024094962
  0.0038490404978830  0.1737507082634053  0.9811256503236621
  0.9310301216734587  0.2504500174818176  0.0702830426356584
  0.8611424408615065  0.3308218832414269  0.1766281781946759
  0.7598287670822330  0.4065371508631017  0.2436502237672826
  0.6971579212618906  0.4921857418285001  0.3323855854910889
  0.5987098097978105  0.5648859486134441  0.4009822659434192
  0.5125336060497077  0.6432180532246434  0.4889025118876376
  0.4149576015943452  0.7311437594901307  0.5641555572204879
  0.3494737273235842  0.8162747272836270  0.6867266772556562
  0.2787731469271932  0.8856138685766837  0.7432824257771884
  0.1776640598777277  0.0103334492128155  0.8042689552865028
  0.1727624185846750  0.0140525378606284  0.9993124080955837
  0.0932466749580456  0.1050214696715415  0.0891304972828237
  0.0108624990010355  0.1589299878126766  0.1704090650723273
  0.9345919623591499  0.2355263096379758  0.2597630399384627
  0.8338871588547931  0.3256967813473963  0.3569243741508856
  0.7457304907895761  0.4014686341205120  0.4363755394389841
  0.6922337469032200  0.5124723717333950  0.5069958138535924
  0.5873529329497345  0.5710628671182008  0.5699213992447838
  0.5116668964277125  0.6537993531727011  0.6629045787381145
  0.4476465710660946  0.7257858911731816  0.7401516367977337
  0.3656155518261031  0.8007552680212555  0.8500900013985486
  0.2485452779109707  0.9307159878726097  0.8989005314472962
  0.2508061166386923  0.9314795078118792  0.0861241573763252
  0.1932141482857830  0.0178068738511925  0.1628594102133789
  0.0994486688843637  0.1001489346080078  0.2588054108726894
  0.0100946180971775  0.1661422800287724  0.3447993227043895
  0.9224448113961472  0.2514922420682524  0.4179315277111826
  0.8151302475425553  0.2956481099656330  0.5095529334492142
  0.7456278780068715  0.4169499385638957  0.5945393540717632
  0.6637477813074426  0.5116384814792596  0.6758031117637628
  0.5787007876808090  0.5832086579956837  0.7491965061336217
  0.5211316830496315  0.6626846469671577  0.8536689687724746
  0.4318687320186996  0.7344860719851383  0.9571323123951103
  0.3248230460321295  0.8373178204667155  0.0017466030328492
  0.3270752732158542  0.8344812125389609  0.1393849626388572
  0.2769937460041589  0.9050894389834596  0.2696063748701363
  0.1811749630384369  0.0030501987932539  0.3140016163190253
  0.0746151951969978  0.0641446670462713  0.4161736958563083
  0.0075410463118359  0.1634981124630386  0.5137071041117238
  0.9223728747102982  0.2568846150004021  0.5855832454247576
  0.7997530413370129  0.2994078738112336  0.6818824307719993
  0.7451631538200303  0.3991651322624463  0.7646147696395715
  0.6549212469032213  0.5042332539159275  0.8310313374090939
  0.6006866913410036  0.5917318378885952  0.9404936935587003
  0.4971229496323843  0.6434075990969390  0.0272907346359759
  0.4171163175297679  0.7346491373971062  0.0850618336929614
  0.4073299108926705  0.7378137172340757  0.2207839451969917
  0.3285809962638879  0.7957951125829155  0.3575972633461220
  0.2424911002557337  0.9127323313753664  0.4180974646367801
  0.1694021242907411  0.0067126423519568  0.5159857023695338
  0.0781958228442434  0.0793592089227175  0.5880211330216554
  0.9715090700671283  0.1649687504994830  0.6580333153520357
  0.9019625489490934  0.2551080721050099  0.7577647486613941
  0.8075263186286250  0.3416392017302030  0.8338458957683983
  0.7433608217453838  0.4232372807280456  0.9122853102773121
  0.6703630883880791  0.4931093607648052  0.0072688688763662
  0.5864382886797728  0.5728442080236533  0.0928808464197246
  0.4968974521497671  0.6333555467314014  0.1779431706025747
  0.4972355814952465  0.6734924368656579  0.3225958198473577
  0.4102244355869900  0.7334599736274257  0.4065654479341489
  0.3355316530807926  0.8243712923559485  0.5136673344721459
  0.2549230205586213  0.9150513081395317  0.6064772911172369
  0.1529401542395874  0.9978568029249573  0.6841995035163464
  0.0920486369176032  0.1013091454886919  0.7452353527331610
  0.9849047900183834  0.1814275793175071  0.8295666721609507
  0.9140701845081125  0.2701417405897857  0.9233655138655834
  0.8494510514065396  0.3602451535403191  0.9994764085351235
  0.7736982418284981  0.4099839352073857  0.1008041102253685
  0.6970769239990418  0.5025535063533937  0.1932700096899254
  0.5823292121193973  0.5885961764764644  0.2753283410253360
  0.1851257682010683  0.1570486783744940  0.8214810601973923
  0.0990694862343133  0.2498148061016536  0.9069417400903035
  0.0203928364500925  0.3482542001318620  0.9769378156717039
  0.9410906022736327  0.3892230330456314  0.0819990235155430
  0.8511373111963536  0.4988901712219302  0.1573536432110600
  0.7903169378845973  0.5680423639415011  0.2462145413769647
  0.6789680137656831  0.6568796371773331  0.3220489805602185
  0.5884338163310190  0.7453601394549665  0.4115555971789320
  0.4970702689203250  0.8078434413210260  0.4922366948373664
  0.4149626828098789  0.9092497267841466  0.5731038335131444
  0.3359064872532542  0.9935411601934021  0.6625384365260132
  0.2778456700031953  0.0933168574682313  0.7447801571365815
  0.2544624985015602  0.0742995919244009  0.9148380439343100
  0.1715052954926861  0.1638281232518182  0.0046823113961452
  0.0890728167705603  0.2587990924438586  0.0659722858227454
  0.9968254924878153  0.3250395973187921  0.1875197819267953
  0.9171118361903652  0.4096642706585172  0.2641172825261719
  0.8455880314472921  0.4751393455805939  0.3413366778550326
  0.7761001823103939  0.5789461724806202  0.4011982508191494
  0.6824945781387370  0.6597734800807160  0.4922554208623069
  0.5901276052904976  0.7264478457404309  0.5485171681451320
  0.5106221329817018  0.8197606504235608  0.6473698004075743
  0.4285533969671533  0.9060845395788348  0.7573825926036903
  0.3415932475225745  0.9838329871933169  0.8282224536482090
  0.3164313528929910  0.0026189662750724  0.9892506772956153
  0.2660118701550402  0.1168357278430463  0.0915698378686187
  0.1808559637976472  0.1941945831335445  0.1714544089147267
  0.0945388356109618  0.2283743886358209  0.2551680757012704
  0.0096577264644750  0.3282142621673430  0.3576665073323753
  0.9423966589746655  0.3859262222288820  0.4564134969631581
  0.8449908545113090  0.4948683179493329  0.5111472633461176
  0.7555869840366043  0.5839244990210162  0.5962993481778938
  0.6596635743826411  0.6601723572484630  0.6642545113082363
  0.5871451030927801  0.7479818583672966  0.7491252457444233
  0.5038627702189729  0.8287105570206990  0.8524571011148439
  0.4100100635339246  0.8928511273275817  0.9111129370454734
  0.3942747322784328  0.9236117742547734  0.0978870070127087
  0.3308672210900667  0.0052777231679073  0.1703892077239644
  0.2461427979900890  0.1014814807600075  0.2678512377127760
  0.1735308683968668  0.1643753516342983  0.3614373626428531
  0.0933159609006609  0.2531590311076499  0.4550955156637073
  0.9856095700471528  0.3010966729601208  0.5314361768760492
  0.9102429982817881  0.3915313568888337  0.5955118321945179
  0.8109081305442345  0.4844649084951627  0.6798833253416419
  0.7525686690841553  0.5858559043594695  0.7427195256932819
  0.6572332499200826  0.6547496613521915  0.8158403864980457
  0.5897420188004503  0.7425664513905517  0.9380759904699119
  0.5064622937145344  0.8416058394269967  0.0292923264804585
  0.4959080006792931  0.8364384624990038  0.1718254690122265
  0.3957052465435922  0.8793245414768620  0.2722268885359256
  0.3428306186565990  0.9844655977783106  0.3280603687165353
  0.2552631777950936  0.0621567349956038  0.4108427680212614
  0.1794459377247648  0.1347822539558834  0.5047951420522665
  0.1032718692559769  0.2401515039359055  0.5967120899264771
  0.0104195491688657  0.3110166621713404  0.6673812719771419
  0.9137599641372987  0.4076727892991272  0.7545491403939906
  0.8294498456605126  0.5048171366778575  0.8196805657116570
  0.7355373856189544  0.5921939248181900  0.9218450426556402
  0.6687301036921625  0.6648023825221756  0.0107083248421631
  0.5691118911332183  0.7367775748221845  0.0817176761168383
  0.5852107493207086  0.7323507107608123  0.2325114046391761
  0.4962462479021852  0.8240385509070549  0.3131834876728234
  0.4345234366259092  0.8885884460161435  0.4136269334891693
  0.3231044723487599  0.9905782406297448  0.4901312230280510
  0.2504378261607911  0.0735780992767516  0.5902384929673161
  0.1786101754175675  0.1597215770598552  0.6636009964636784
  0.0941834811795701  0.2140014325101873  0.7419021807320405
  0.9988544184048607  0.3139941875449566  0.8390673529529309
  0.9217316845480710  0.4191176801126844  0.8890390643730512
  0.8545665837528986  0.4875119735475124  0.9834883740909461
  0.7709978057819882  0.5649824157875827  0.0632587479021822
  0.6855256553184716  0.6573739525893103  0.1672880788979469
  0.2809964716694608  0.2504744310916678  0.7531238032446268
  0.1702438733716960  0.3262031077679239  0.8069344666546812
  0.0920056331415324  0.4282797910173386  0.8945590326060895
  0.0056824077958950  0.5093897576520448  0.9761851879045764
  0.9158900853112755  0.5764377422480607  0.0800077259649967
  0.8447744635578971  0.6689836924598396  0.1462334986613953
  0.7486889205226532  0.7497185961599939  0.2374544598617447
  0.6471225770198998  0.8142579906896827  0.3169004440381968
  0.5759844077159784  0.9042430532246470  0.4010196250899085
  0.4780610934627987  0.0099692924358692  0.4803482293414874
  0.4140293849396599  0.0788671246903192  0.5765540018380904
  0.3547203743107161  0.1726715840525870  0.6511975555422396
  0.3599993227043896  0.1668110365220201  0.8467428024854158
  0.2512295857308402  0.2394708847798270  0.9046046731399358
  0.1704300072924170  0.3383419323903141  0.9784161127427495
  0.0756622088028465  0.4191850515463926  0.0700370924238811
  0.9849369580636136  0.5103888126348579  0.1669500824142887
  0.9127870934228426  0.5952788484975642  0.2595439987413073
  0.8475903225645354  0.6754157875809170  0.3376185397186902
  0.7473416391952341  0.7760403465396024  0.4091365100295690
  0.6589556651082873  0.8060854920882292  0.4874559927675222
  0.5796065916446906  0.9149450006992765  0.5548205406377349
  0.5000106828897941  0.0009831590146234  0.6390501303644243
  0.4284473217853417  0.0583153954886910  0.7561543564692741
  0.4097767931351370  0.0687928194677525  0.9391126518420876
  0.3276659618996263  0.1673958168504726  0.0015171436705828
  0.2484437275233731  0.2633752122792288  0.0639846005154610
  0.1422266717613709  0.3589359141492849  0.1525023325741230
  0.0764371253895959  0.4180035972588527  0.2742630514265159
  0.9918114111324243  0.4917133041636674  0.3529673020059150
  0.8987448813234238  0.5802180187604904  0.4155704057779914
  0.8144900398585477  0.6780092383920717  0.5042354611204374
  0.7519680132662003  0.7695115255134652  0.5832473102972884
  0.6478028540318093  0.8491799843163079  0.6625019589626788
  0.5604758940701657  0.9174061501038935  0.7540007682010739
  0.4913885384200398  0.9886599911092446  0.8622377437465047
  0.4832530523255798  0.9831546656477244  0.0254150758211438
  0.4173597338767649  0.0858888700751237  0.0807944347878191
  0.3353441301046942  0.2015129690122279  0.1893989760648935
  0.2322897226884066  0.2520096729401402  0.2492277661232336
  0.1424881258491197  0.3286037441061325  0.3032246893231019
  0.0872816850475502  0.4094487368137152  0.4329632197514570
  0.9904775823143908  0.4923407940741598  0.5285988956485284
  0.8805664064373033  0.5845921756373400  0.5888616713617836
  0.8262133041636730  0.6824660872692405  0.6675445886278268
  0.7325478707144555  0.7721572304803033  0.7534358577079843
  0.6468691266083297  0.8393536367178172  0.8274772671421715
  0.5632387157356362  0.9063777271637505  0.9323556491249079
  0.5840636797730383  0.9203330691081248  0.1020114301126824
  0.4933038784663921  0.0008849086949567  0.1805967408894773
  0.4131949097938161  0.0737821405738046  0.2595164324102939
  0.3422117537760698  0.1606153475385597  0.3319864041396983
  0.2397725670302862  0.2530240095300869  0.4022768066211171
  0.1752982003716141  0.3248505374410584  0.4971775803164675
  0.1040164458962707  0.4135396907216489  0.5752908390274101
  0.9890616304043789  0.4938134729880943  0.6570571550587374
  0.9092075346639490  0.5896621283864789  0.7415607283425274
  0.8209523320746399  0.6786748546511632  0.8210262951530396
  0.7218160897666408  0.7539049688324155  0.9245245070127055
  0.6479725645328855  0.8440012077439434  0.0141619865340061
  0.6641566011348203  0.8314073978062808  0.1646391253096766
  0.5916581515224166  0.9267752837049485  0.2423603142731565
  0.5042707119595633  0.9942307485215380  0.3180715400982947
  0.4044504919883352  0.0705062964516898  0.4054921311835713
  0.3362153205666090  0.1696262062455034  0.4880152955925823
  0.2706302270638545  0.2405272716374967  0.5819283659993602
  0.1835160043554680  0.3177592493806429  0.6672898300767187
  0.0737535568009235  0.4073127047870244  0.7356994655558253
  0.0015654883920746  0.5058377792096209  0.8178167320986205
  0.9144502857028698  0.6020573618436842  0.8953093792455817
  0.8537552680212599  0.6692332234476126  0.9924564328098811
  0.7646515943418848  0.7426462563933498  0.0661108037640830
  0.3661927165747656  0.3305622317789485  0.6603569852353530
  0.2881270558619065  0.4331780967793506  0.7512137951530420
  0.1417028874970043  0.5062940207184496  0.8083535323263789
  0.0759661961559956  0.5991606374370662  0.9004688359106510
  0.9978694677535387  0.6730601424518525  0.9873515853512345
  0.9178504760049577  0.7605878536322237  0.0560656457284452
  0.8530869420802389  0.8416014469951278  0.1399681451290675
  0.7715786367178126  0.8831107103612226  0.2420962908575106
  0.6648522851234731  0.9930051925996963  0.3263393061216320
  0.5924768006273453  0.0724771807320366  0.4063889939462939
  0.4952840176216711  0.1679639894509677  0.4811342943338914
  0.4250461155398355  0.2542223882162560  0.5709857558139504
  0.4261592104211616  0.2595678024854138  0.7386336644889298
  0.3415950256732998  0.3428205046751387  0.8355351184767841
  0.2482236379165670  0.4466988721729379  0.8856745759410245
  0.1472031402341543  0.4966314023415634  0.9988436006553201
  0.0788649649364643  0.5780292500799149  0.0728564802605263
  0.9855231743986224  0.6776548509550082  0.1605458583073585
  0.9181807585111486  0.7502674633381261  0.2598479156677058
  0.8262680821945168  0.8508831610125469  0.3385426166786516
  0.7372674918085167  0.9227805187604901  0.4154305427355567
  0.6795172215895491  0.0058523695356811  0.4764854271557581
  0.5766045242947371  0.0612651537401092  0.5664949402621247
  0.5015100145848308  0.1638416811516024  0.6439899739271127
  0.4961363127347553  0.1632617517781512  0.8370885229361491
  0.4167788385079518  0.2706020174018988  0.9408867812474995
  0.3145648875169798  0.3414792470830363  0.9787049073963061
  0.2390198034044602  0.4259245949212840  0.0796977513386068
  0.1408501183768891  0.5098346164988428  0.1617637786701849
  0.0623862303204632  0.6222547775313672  0.2591596110045558
  0.0060955825940994  0.6925096674458544  0.3387322329777049
  0.9068179458363304  0.7665028790058344  0.4262520089107298
  0.8341814068368905  0.8522190756613099  0.4939931051706239
  0.7409031322424653  0.9139611419124094  0.5626117542755509
  0.6601685362223293  0.9916094996203952  0.6587021962159341
  0.5589036756772927  0.0706389954447388  0.7610749115919475
  0.5601883960680922  0.0768809248381714  0.9255998496563578
  0.4791480605170619  0.1721760758810831  0.9994254380444332
  0.4119671576560364  0.2596589616798539  0.0761524324702307
  0.3087207089626816  0.3287112133381314  0.1565981594142087
  0.2336273165907485  0.4384904029808965  0.2400744076160777
  0.1498117637656833  0.4910715820546656  0.3389492987293181
  0.0822600525453510  0.5772731109645974  0.4350541901422531
  0.9768865165228178  0.6845603911931590  0.5107352977902977
  0.8778008106569146  0.7512749320706433  0.5933889140294113
  0.8354255769000218  0.8441656597138945  0.6676118771477633
  0.7378799348677347  0.9134239131303445  0.7468152821066099
  0.6307676596339817  0.9936850840126255  0.8297760354231585
  0.6401744166067260  0.0155852808079615  0.0015608452209719
  0.5734461310237364  0.1064842064253142  0.0928386073483551
  0.4773478272596492  0.1796673689363075  0.1795731948773280
  0.4029456485255309  0.2742008176496427  0.2560703363501986
  0.3052457778909954  0.3414623636418099  0.3153870349836154
  0.2322480740030386  0.4061462109406193  0.4055905443338901
  0.1585949757252436  0.4967754440381995  0.5230018580676088
  0.0736158200471522  0.5846556381363399  0.6020979456365367
  0.9798652281627085  0.6820881048709353  0.6693030173619405
  0.9079800047950144  0.7686125084911666  0.7608685836729805
  0.8329748561496046  0.8555209597019129  0.8438197164948420
  0.7229607043674591  0.9095239610804740  0.9195378381483224
  0.7393476644289905  0.9366755419363884  0.0714462758730932
  0.6679883491169178  0.0052308858786887  0.1804834731878842
  0.5755150288699724  0.1146408979661118  0.2478481704027828
  0.4836322669423794  0.1756204752057826  0.3247037795692478
  0.4151140209182458  0.2798195631543194  0.3973989970430765
  0.3160208947694372  0.3182717104211648  0.4904139519899289
  0.2533325071925177  0.4077139894509685  0.5966651867058275
  0.1624778929912907  0.5056065701670249  0.6624647516582769
  0.0613038070406802  0.5948453418444828  0.7381473737313229
  0.9890213962478995  0.6719212359146525  0.8374377102813071
  0.9280965460920640  0.7428575526452477  0.9119786047510559
  0.8437995419763453  0.8447153894949224  0.9707953358507169
  0.4259455186605905  0.4196765239151290  0.5775711085471116
  0.3546240265124254  0.5078524729281568  0.6586049363661814
  0.2644684777831046  0.5813543120155060  0.7659086235315300
  0.1554486229321483  0.6575359531087699  0.8138111643890369
  0.0859443873371717  0.7476858302365557  0.9218183723927140
  0.0114983577079855  0.8421984985614941  0.9758968457803903
  0.9256074067969280  0.9256951605330457  0.0566783669983195
  0.8374036382162586  0.9994253006872853  0.1735469446775326
  0.7397059083553117  0.0822904014824601  0.2465206625109886
  0.6714393620634524  0.1407823853192696  0.3449704797011108
  0.5905233432230474  0.2460595270918233  0.3964867357947739
  0.5332082364341062  0.3281936715815519  0.4774456625109877
  0.5000206140613770  0.3494608422240901  0.6577374085950609
  0.4219139924478554  0.4289207129585222  0.7526964466954382
  0.3523085561016543  0.5177043484775865  0.8471501972948161
  0.2437798055022782  0.5769861259290323  0.9121023046032093
  0.1664120304882957  0.6791982188523917  0.0007428419443798
  0.0881401422520582  0.7715037471030115  0.0794820316870428
  0.9859699307719936  0.8448221434707932  0.1677979965835519
  0.9278423604451405  0.9298538135339243  0.2576245559617973
  0.8124572329777067  0.0059453443418818  0.3066851419523715
  0.7582377092823478  0.1015588098377691  0.4175402386518030
  0.6364775163829606  0.1729758151522418  0.5176967059258359
  0.5890443154119751  0.2556293000279695  0.5915738002477440
  0.5768449937065441  0.2418271932190521  0.7525914209222435
  0.4928334457164567  0.3472359571046084  0.8551635444138128
  0.4081992862423078  0.4087758301366549  0.9362245599576440
  0.3241561281267451  0.5153661312235300  0.9964365919443807
  0.2348698773275828  0.5761070142052276  0.0779236144409836
  0.1746595046151995  0.6695282236474043  0.1593679688124325
  0.1003251618316980  0.7486971199952066  0.2431366703628228
  0.0037864136298253  0.8382841899424633  0.3465325721249926
  0.8982619860345267  0.9416385544034185  0.4181957973707355
  0.8298958628026867  0.9874405433349338  0.4914630888875564
  0.7464134285343249  0.0855529509310315  0.5818555737033506
  0.6426580306481284  0.1378388161312216  0.6418228647206874
  0.6602692769519720  0.1376161631902804  0.8359166896427723
  0.5903799763246198  0.2497305122672415  0.9231819347878201
  0.5246768885359216  0.3451118926316639  0.0091067359945640
  0.3968796791337041  0.4228278445416791  0.0847282646048129
  0.3035414783625043  0.5227612178334553  0.1641042161152413
  0.2367314617797476  0.5852141153200705  0.2578799858147534
  0.1717462773715326  0.6821274344681498  0.3665153440421989
  0.0868977763126324  0.7603754525293667  0.4531146257891763
  0.9714607812874618  0.8596657531167580  0.4953246099057012
  0.9065362652841031  0.9147946175976998  0.6041200836130400
  0.8112545357827869  0.0140009435187380  0.6801415562814697
  0.7345547865220183  0.0816156337409097  0.7693812914568881
  0.7408567040278129  0.0636942829457396  0.9079979346479661
  0.6535750734236387  0.1806672745344855  0.0089974591424919
  0.5959802020898266  0.2425275048949089  0.0752843622632469
  0.5024943069208021  0.3569225185806744  0.1831259285343236
  0.4060085950611381  0.4354497447654424  0.2373974921082080
  0.3239296816311068  0.5144957464237194  0.3309497697394690
  0.2376261053504365  0.5680002202709176  0.4049061855670075
  0.1571247662431077  0.6491237657835853  0.5188277711180405
  0.0796630893870400  0.7730765039359042  0.5697547785303314
  0.9810431411332203  0.8048545752417482  0.6691801266682660
  0.9144447939143276  0.9238182535163446  0.7415483257412276
  0.8149496493646637  0.9829531482258460  0.8406340371014167
  0.8385816625709239  0.0111055532246453  0.9940685087508996
  0.7375683698953068  0.0924624725285668  0.0888541986334204
  0.6805179298529538  0.1842295377807091  0.1717389614800595
  0.5989704747063058  0.2484259899704284  0.2585359391233126
  0.5067480819947221  0.3619232568129149  0.3246470111084463
  0.4222138306161582  0.4003903455406359  0.4071479086749790
  0.3435305532246460  0.4894485644929247  0.4926922345760403
  0.2571109281347432  0.5780600055941818  0.5914648260808733
  0.1643386967553724  0.6863769814393024  0.6635864346080069
  0.0636301791137228  0.7508996703428465  0.7507020009190413
  0.0088991973347703  0.8267640768600657  0.8435440272116992
  0.9337250089906490  0.9410251378566272  0.9079587389115318
 
  0.00000000E+00  0.00000000E+00  0.00000000E+00
  0.00000000E+00  0.00000000E+00  0.00000000E+00
  0.00000000E+00  0.00000000E+00  0.00000000E+00
  0.00000000E+00  0.00000000E+00  0.00000000E+00
  0.00000000E+00  0.00000000E+00  0.00000000E+00
  0.00000000E+00  0.00000000E+00  0.00000000E+00
  0.00000000E+00  0.00000000E+00  0.00000000E+00
  0.00000000E+00  0.00000000E+00  0.00000000E+00
  0.00000000E+00  0.00000000E+00  0.00000000E+00
  0.00000000E+00  0.00000000E+00  0.00000000E+00
  0.00000000E+00  0.00000000E+00  0.00000000E+00
  0.00000000E+00  0.00000000E+00  0.00000000E+00
  0.00000000E+00  0.00000000E+00  0.00000000E+00
  0.00000000E+00  0.00000000E+00  0.00000000E+00
  0.00000000E+00  0.00000000E+00  0.00000000E+00
  0.00000000E+00  0.00000000E+00  0.00000000E+00
  0.00000000E+00  0.00000000E+00  0.00000000E+00
  0.00000000E+00  0.00000000E+00  0.00000000E+00
  0.00000000E+00  0.00000000E+00  0.00000000E+00
  0.00000000E+00  0.00000000E+00  0.00000000E+00
  0.00000000E+00  0.00000000E+00  0.00000000E+00
  0.00000000E+00  0.00000000E+00  0.00000000E+00
  0.00000000E+00  0.00000000E+00  0.00000000E+00
  0.00000000E+00  0.00000000E+00  0.00000000E+00
  0.00000000E+00  0.00000000E+00  0.00000000E+00
  0.00000000E+00  0.00000000E+00  0.00000000E+00
  0.00000000E+00  0.00000000E+00  0.00000000E+00
  0.00000000E+00  0.00000000E+00  0.00000000E+00
  0.00000000E+00  0.00000000E+00  0.00000000E+00
  0.00000000E+00  0.00000000E+00  0.00000000E+00
  0.00000000E+00  0.00000000E+00  0.00000000E+00
  0.00000000E+00  0.00000000E+00  0.00000000E+00
  0.00000000E+00  0.00000000E+00  0.00000000E+00
  0.00000000E+00  0.00000000E+00  0.00000000E+00
  0.00000000E+00  0.00000000E+00  0.00000000E+00
  0.00000000E+00  0.00000000E+00  0.00000000E+00
  0.00000000E+00  0.00000000E+00  0.00000000E+00
  0.00000000E+00  0.00000000E+00  0.00000000E+00
  0.00000000E+00  0.00000000E+00  0.00000000E+00
  0.00000000E+00  0.00000000E+00  0.00000000E+00
  0.00000000E+00  0.00000000E+00  0.00000000E+00
  0.00000000E+00  0.00000000E+00  0.00000000E+00
  0.00000000E+00  0.00000000E+00  0.00000000E+00
  0.00000000E+00  0.00000000E+00  0.00000000E+00
  0.00000000E+00  0.00000000E+00  0.00000000E+00
  0.00000000E+00  0.00000000E+00  0.00000000E+00
  0.00000000E+00  0.00000000E+00  0.00000000E+00
  0.00000000E+00  0.00000000E+00  0.00000000E+00
  0.00000000E+00  0.00000000E+00  0.00000000E+00
  0.00000000E+00  0.00000000E+00  0.00000000E+00
  0.00000000E+00  0.00000000E+00  0.00000000E+00
  0.00000000E+00  0.00000000E+00  0.00000000E+00
  0.00000000E+00  0.00000000E+00  0.00000000E+00
  0.00000000E+00  0.00000000E+00  0.00000000E+00
  0.00000000E+00  0.00000000E+00  0.00000000E+00
  0.00000000E+00  0.00000000E+00  0.00000000E+00
  0.00000000E+00  0.00000000E+00  0.00000000E+00
  0.00000000E+00  0.00000000E+00  0.00000000E+00
  0.00000000E+00  0.00000000E+00  0.00000000E+00
  0.00000000E+00  0.00000000E+00  0.00000000E+00
  0.00000000E+00  0.00000000E+00  0.00000000E+00
  0.00000000E+00  0.00000000E+00  0.00000000E+00
  0.00000000E+00  0.00000000E+00  0.00000000E+00
  0.00000000E+00  0.00000000E+00  0.00000000E+00
  0.00000000E+00  0.00000000E+00  0.00000000E+00
  0.00000000E+00  0.00000000E+00  0.00000000E+00
  0.00000000E+00  0.00000000E+00  0.00000000E+00
  0.00000000E+00  0.00000000E+00  0.00000000E+00