Li 
 1.0000000000000000
    20.0207999999999977    0.0000000000000000    0.0000000000000000
     0.0000000000000000   20.0207999999999977    0.0000000000000000
     0.0000000000000000    0.0000000000000000   20.0207999999999977
 Li 
 432
Cartesian
  0.4095530600000000  0.2684286200000000 -0.1139995600000000
 18.6042288700000000  1.5168344600000001  1.7831813500000000
 17.3872614100000007  3.1695980300000000  3.2283845800000002
 15.4870674600000005  4.9257856000000002  5.1472168199999997
 13.7600251199999999  6.5676702200000001  6.7546789900000004
 12.1864146699999996  8.5285303199999998  8.2737549999999995
 10.3971765699999992 10.0641529500000004  9.4480146800000000
  8.9094304300000005 11.4776982099999998 11.4952278200000002
  7.0653101800000000 12.9321003999999995 13.4288491099999998
  5.3891922299999999 14.3772508299999995 15.4190554599999992
  3.6311002499999998 16.2400799199999994 16.2405650299999991
  2.2097930500000000 19.0734670999999985 17.5634021199999992
  1.9930860200000000 18.8823794599999992  1.4245747300000000
  0.4244287600000000  0.1929289200000000  3.4227384299999999
 18.5114100999999991  1.7301862200000000  5.3260442299999999
 16.9305403500000011  3.3835664699999999  6.7037247899999999
 14.6878038199999992  4.5440175199999997  8.6384065799999998
 13.2384798099999994  6.4314363300000004 10.3733106500000005
 11.8015855199999997  8.6373826000000005 11.5565231300000004
  9.9872555799999994 10.0532989300000004 13.2837970599999995
  8.8694009800000000 11.9429793600000007 15.0203958199999992
  7.1597599799999996 13.3295756399999998 17.0150903000000007
  4.9116136199999998 15.2357383899999999 18.5405142299999994
  3.3482615500000001 17.1190163200000001 -0.1814715700000000
  3.4433900700000000 16.9566978699999993  3.4354689299999999
  1.7256752099999999 18.4308166100000008  4.9185237700000002
  0.0553777800000000  0.2358824800000000  6.8394050399999999
 18.5898155299999992  1.6668808399999999  8.0064593399999993
 16.5573149300000004  3.4974033200000001  9.9033588800000008
 14.7992426199999993  4.6849749300000001 11.8360800899999994
 13.4026692500000006  7.0313281300000003 13.5903964599999991
 11.3817744500000000  8.0400989000000003 14.6891866100000001
 10.2266345800000007  9.7014278699999998 16.5938845400000012
  9.1418641100000002 11.7374773999999995 18.4727332699999991
  6.3694644900000004 13.2417903999999993 20.0098237800000014
  4.8790908200000001 15.0667776500000006  1.6060184399999999
  4.8618510400000003 15.3084272499999994  5.1279307500000000
  3.1885740000000000 16.8439489400000006  6.7479630200000003
  2.0133799899999998 18.6883738900000012  8.2998761099999996
 -0.5560479100000000  0.0452135500000000 10.2893923699999998
 17.8211576799999989  1.8790392199999999 11.7300179999999994
 16.4089370800000012  3.5127610499999999 13.5292262599999997
 13.9851707199999993  4.6826936699999999 15.1380810399999994
 12.9986374100000006  6.8363779700000000 17.2281920000000000
 11.3401319699999998  8.5418769999999995 18.4231243000000013
  9.9058344300000005 10.0606629000000005  0.3662068100000000
  8.1987900400000004 11.3844555300000003  1.6361425000000001
  6.0996024400000000 13.3615922499999993  3.1340173000000000
  6.3104801799999999 13.6342316500000003  6.6711091299999996
  4.7068586500000000 15.2065432200000004  8.8337739299999996
  3.1685206699999999 17.0262202100000017 10.5070886500000000
  1.4143743499999999 18.3940027899999983 12.1588406199999994
 -0.0524163400000000  0.4085327300000000 13.2699556300000001
 18.0806639400000009  1.3575908299999999 15.0525353699999993
 16.7855500999999983  3.4860266100000001 16.7479795500000002
 14.8547869000000006  4.9541959300000000 18.4474638499999983
 13.5894605500000001  6.9899153700000003  0.0003020000000000
 11.8638057900000007  8.3770234600000002  1.9831136599999999
 10.1308457300000008 10.1509481000000008  3.5426185100000001
  7.7659358799999998 12.1078575900000001  4.9928873500000002
  8.0321908400000002 11.3173381000000006  8.1591826399999992
  6.5178740499999996 13.0036883400000001  9.9490547300000003
  5.2734414999999997 14.7068043799999995 11.8374428900000002
  3.7166616800000001 16.5703626799999988 13.9078579900000001
  1.7342796700000001 18.0376501199999986 14.8953454900000004
  0.0864681200000000  0.0907122500000000 16.3465842499999994
 18.8809765499999997  1.5618396200000000 18.0715650299999986
 16.8347587499999989  3.0874895800000002 20.1399301599999987
 15.1472937600000002  5.0277960600000000  1.6643965000000001
 13.2320655499999997  6.8207160199999999  3.1410239099999999
 12.3007439699999992  8.5460844500000004  5.0410289600000002
 10.0407716499999999 10.1344146700000000  6.5146492399999998
  1.7660998400000001  2.0375240500000000 18.0989974499999988
  0.0770608700000000  3.4786281799999998 -0.3778795800000000
 18.6399678599999987  5.0142097100000003  1.4071227399999999
 17.2407605799999999  6.6233187600000001  3.5362374299999999
 15.2123797799999991  8.1391989900000006  4.8780723999999998
 13.9576593100000004  9.8539522999999996  6.6546253300000000
 11.9866493599999995 11.3094686000000006  8.0279857499999991
 10.2613328199999998 12.8777399999999993  9.7882194100000000
  8.3077831500000006 14.6380829800000001 11.2948455800000005
  6.9967436000000003 16.3424730599999997 13.7488174599999997
  5.5812614199999997 17.7306981400000012 14.8811087900000008
  3.5569766100000000  0.2068839200000000 16.1021079000000000
  3.4588418299999999  0.2813430500000000 -0.0137661400000000
  1.8668730300000000  2.1026138400000001  1.7844638600000000
  0.2174759200000000  3.1819055000000001  3.4117258100000001
 18.7112787599999990  4.7154251399999998  5.2006638699999996
 16.6950880300000009  6.5207101200000004  7.1459115100000004
 14.9301210100000006  8.0377232299999992  8.7365873999999994
 13.8590733999999998 10.2601068600000005 10.1504617899999996
 11.7592756000000005 11.4331354500000000 11.4102823499999992
 10.2439806000000004 13.0895860899999992 13.2718799900000004
  8.9622424699999996 14.5308141699999993 14.8184278900000006
  7.3199158400000002 16.0317610700000017 17.0194818999999988
  4.9760752999999998 18.6336786500000002 17.9967077599999996
  5.0213390999999996 18.6489649300000018  1.7242745300000000
  3.8683018200000001  0.3565078600000000  3.2605756800000001
  1.9910419100000001  2.0050617900000001  5.1814913699999998
  0.2021023300000000  3.3263013600000000  6.9031582800000004
 18.4680830799999995  5.0350758799999999  8.3673235300000002
 16.3195596599999995  5.9191116800000003 10.2016573699999995
 14.9280666199999992  8.3476713300000007 11.9031535000000002
 13.2887615799999992 10.2434117100000002 13.5301189399999995
 11.5860527300000005 11.6763039000000006 14.9995134100000005
 10.4334731999999999 13.2674767800000009 17.0911356900000015
  8.6463575099999996 14.7049987499999997 19.1625546000000000
  6.5032172399999997 16.7637726200000010 20.0557683900000008
  6.5483086300000002 16.7069814600000015  2.7905984600000000
  5.5456363900000003 18.1206146399999994  5.3977353099999998
  3.6272677000000000  0.0610674200000000  6.2865635600000003
  1.4938559000000000  1.2842275500000000  8.3321303300000000
  0.1509777800000000  3.2733630100000002 10.2848271899999997
 18.4666428499999995  5.1430354999999999 11.7238450400000005
 16.0116956899999998  5.9943851600000002 13.6518317699999994
 14.9187624700000008  7.9916052799999999 15.3081993799999996
 13.1120473000000004 10.0951531299999999 16.6379121999999988
 12.0262281099999999 11.8469447799999994 18.8294361399999985
  9.9527991500000006 12.8815348600000004 20.5671823399999987
  8.3510023699999998 14.7082634500000005  1.7030059600000000
  8.1550706799999997 14.7716208699999996  4.4202712100000001
  6.5784544100000000 15.9324547899999995  7.1593832900000001
  4.8548658199999997 18.2736314600000007  8.3706457200000006
  3.3915660500000002  0.1343924700000000 10.3304465499999996
  1.5655429300000001  1.5888348500000000 11.7726535000000005
 -0.5704112099999999  3.3028063599999999 13.1743533999999993
 18.0580117999999992  5.1074676900000000 15.1710564800000007
 16.1673229200000002  6.8398901299999997 16.6942619100000016
 14.8826783400000000  8.4735489499999996 18.2646817400000003
 13.4212053200000003  9.8724438899999996 20.1663285700000010
 11.7409636899999992 11.4687993200000005  1.8595488499999999
  9.9482845100000006 12.6802847300000003  3.5625646299999998
  9.9550541300000006 13.4838573799999999  6.4586263900000001
  8.2130213800000007 14.6844554400000007  8.1397655199999992
  6.7176121200000001 16.5045727699999993 10.2840309699999999
  5.1037628100000001 18.3200592299999983 12.1421605499999998
  3.0619842400000001 -0.0429085200000000 13.6982214199999994
  1.8428873500000000  2.0282901400000002 14.9202079500000000
 -0.3022181800000000  3.6323252799999999 16.6085884300000011
 18.3004163499999990  5.4084537600000004 18.4865162800000000
 17.0066896099999987  7.2123961699999999 20.0103172799999989
 15.4900577599999991  8.2082063699999992  2.0181789299999999
 13.9560376799999997 10.0615232399999996  3.8694202099999999
 11.6586966899999993 11.7841663299999997  5.5122936500000002
  3.7063659800000002  3.1442401800000002 16.4467080099999983
  1.9834503699999999  5.0014922700000000 18.1576991899999989
  0.4082809000000000  6.9723276900000002 -0.4617233800000000
 18.8413867300000000  7.7925564999999999  1.6416860499999999
 17.0404498800000006  9.9881803399999995  3.1503458200000001
 15.8227773500000009 11.3726625600000002  4.9294120899999996
 13.5934828099999994 13.1512558399999993  6.4476782300000002
 11.7809157500000001 14.9227062799999999  8.2396723000000005
  9.9517444400000006 16.1736719700000009  9.8549724199999993
  8.3078848799999996 18.2039069299999987 11.4739972300000002
  6.7251165999999998 19.8914888599999991 13.2645495300000000
  5.5626925900000002  1.8682781399999999 14.9110945699999995
  5.0945427900000002  1.4875372700000000 18.3157895099999983
  3.4336732200000002  3.2799700899999999  0.0937436200000000
  1.7833090500000000  5.1813648700000003  1.3208179400000000
 -0.0635561800000000  6.5075527700000002  3.7542960500000002
 18.3613126499999986  8.2018064299999995  5.2878392900000000
 16.9293488600000011  9.5126698100000002  6.8338333599999999
 15.5381465300000006 11.5909655300000001  8.0323099399999993
 13.6640874500000002 13.2091928900000006  9.8553473300000007
 11.8148267600000008 14.5440670300000008 10.9817525200000006
 10.2230635999999997 16.4122640299999993 12.9608612999999995
  8.5799818499999994 18.1405373499999989 15.1634054099999993
  6.8389700900000001 19.6971234700000011 16.5816760999999993
  6.3352088300000000  0.0524338000000000 -0.2152100400000000
  5.3257704500000003  2.3391447400000001  1.8333014100000000
  3.6208810800000002  3.8879309100000001  3.4326544299999999
  1.8927431200000000  4.5722379599999998  5.1086690099999998
  0.1933554100000000  6.5711120999999997  7.1607696100000000
 18.8675350299999991  7.7265517099999999  9.1377633399999993
 16.9173928999999994  9.9076596200000004 10.2335771300000005
 15.1274558900000002 11.6906356099999993 11.9383899899999992
 13.2069924899999993 13.2171787300000005 13.2989067199999997
 11.7551146800000001 14.9751951900000009 14.9980867199999999
 10.0877357500000002 16.5914483200000014 17.0668731300000012
  8.2087294800000006 17.8755938500000013 18.2412098900000004
  7.8936955600000003 18.4914466100000006  1.9597761899999999
  6.6242264600000000  0.1056642400000000  3.4113282500000000
  4.9279757300000000  2.0317404300000002  5.3625960600000004
  3.4742268100000002  3.2909260400000000  7.2362651500000004
  1.8682601900000000  5.0684463300000004  9.1113762999999999
 -0.2881079200000000  6.0281962699999996 10.6397774100000007
 18.2237930199999987  7.8387709900000004 11.9226232900000007
 16.2350294999999996  9.6993750399999996 13.6118080799999994
 15.0670268099999998 11.7293038900000006 14.8698390800000002
 13.1583354499999992 13.1086120200000007 16.3337772100000009
 11.8071070099999993 14.8667744099999997 18.7810317900000001
 10.1397802899999991 16.8496221900000016 20.6072558100000016
  9.9284748999999994 16.7461671699999997  3.4400833500000001
  7.9223356000000003 17.6047807799999987  5.4502000900000001
  6.8637432499999997 -0.3110111600000000  6.5680310300000002
  5.1105730300000003  1.2444275600000001  8.2254008899999995
  3.5926512300000000  2.6984485500000002 10.1064025799999992
  2.0675854400000002  4.8080252300000001 11.9466534099999997
  0.2086077100000000  6.2268023899999996 13.3615069700000006
 18.2942054899999995  8.1619353799999992 15.1066774299999995
 16.6062494700000016 10.1068429299999991 16.4106606699999986
 14.7260468899999992 11.8561961300000007 18.4560752299999997
 13.3885116600000007 13.3098755400000002 20.2351892299999996
 11.3940753499999996 14.7508764699999997  1.6360532500000000
 11.7163873699999996 14.6622471099999991  4.6550643300000001
  9.9352468799999993 16.4979110200000001  6.2701839699999997
  8.6995068199999999 17.7902515600000015  8.2811421099999993
  6.4688100200000003 -0.1886311600000000  9.8128191900000008
  5.0139656300000004  1.4730924100000000 11.8170468199999998
  3.5759186000000001  3.1977537500000000 13.2858228300000007
  1.8856286400000000  4.2844798800000001 14.8534751800000002
 -0.0229354600000000  6.2864148300000000 16.7987996600000002
 18.4538057100000010  8.3910712499999995 17.7992732999999994
 17.1091066599999984  9.7603797199999995 19.6902240400000004
 15.4359928699999998 11.3113999500000002  1.2664907400000001
 13.7247720399999995 13.1611524299999996  3.3492411700000000
  5.6257741599999997  5.0146984899999998 15.0781410400000002
  3.4084185400000000  6.5308471800000003 16.1554735700000016
  1.8420263800000001  8.5745040400000008 17.9097874799999985
  0.1137663500000000 10.1983904600000006 -0.4767915900000000
 18.3368522200000008 11.5407447500000000  1.6018186800000001
 16.9130605799999998 13.3935887099999995  2.9277116300000001
 14.9893511400000001 15.0099660700000008  4.7540282500000002
 12.9559116900000006 16.3020963799999983  6.3446004100000000
 11.5316686300000004 18.1036693200000016  8.0287337099999991
  9.5711655400000009  0.1995932100000000  9.6169558300000002
  8.2891995099999995  1.5789829300000000 11.5430723600000000
  7.1017856699999999  3.4570232500000002 13.0374960200000007
  7.2074744400000004  3.3396903999999998 16.9524682999999996
  5.0298172900000004  4.7943986900000004 18.1109092400000016
  3.4121450900000001  6.7738761600000004 -0.4321266900000000
  1.5148179500000001  8.3924200800000008  1.4021986200000001
 -0.3015741500000000 10.2183923399999994  3.3424742099999998
 18.2747278400000006 11.9179587700000003  5.1962784900000001
 16.9694363300000006 13.5223644000000007  6.7593932600000004
 14.9623774899999997 15.5369485699999998  8.1912402400000008
 13.1928195800000001 16.1384764199999999  9.7592589400000005
 11.6041876500000001 18.3179308700000014 11.1079510799999994
 10.0106138799999993 20.0404836300000007 12.7942948500000000
  8.5778581400000000  1.1675208699999999 15.1388151400000002
  8.2040592199999995  1.3772872800000000 18.8017865800000017
  6.5601346899999999  3.3513981700000000  0.0303744300000000
  4.9740421799999996  5.2729824499999998  1.2810228900000000
  2.8474917500000001  7.1861841499999999  3.0532187000000000
  1.5303324000000000  8.3687664200000000  5.4909657000000003
 -0.1639421000000000  9.8444937199999991  7.0666877599999998
 17.9935915199999990 11.6164289099999998  8.3200519800000006
 16.3067421900000014 13.5742873599999996 10.0951973200000005
 15.0550011999999995 15.4062363500000004 11.6770777500000005
 12.9695313799999994 17.0012626299999994 13.2638192200000002
 11.2211757799999994 18.3672050499999990 15.0956985800000005
  9.8379916499999993 -0.2270360500000000 17.2626894200000010
  9.6751127100000005 -0.3372570700000000  0.5088301500000000
  8.3558757600000000  1.7195638900000001  1.6175692200000000
  6.7138577599999998  4.0344508499999998  3.7919190199999999
  4.6506260800000003  5.0454352599999996  4.9897392600000003
  2.8527262699999998  6.5789098399999997  6.0708008600000003
  1.7474491599999999  8.1974912700000004  8.6682700300000004
 -0.1906464200000000  9.8570565699999992 10.5829727699999996
 17.6296439099999986 11.7040030300000009 11.7894817500000002
 16.5414513200000002 13.6635170400000003 13.3647767000000002
 14.6661944099999992 15.4592054799999996 15.0843886200000004
 12.9508374100000001 16.8045312899999999 16.5667568699999990
 11.2764896799999992 18.1464071999999987 18.6665059800000002
 11.6934221199999993 18.4258043100000002  2.0423504399999999
  9.8763382899999996  0.0177165800000000  3.6156912299999999
  8.2724926500000002  1.4771774799999999  5.1957265899999996
  6.8513530800000000  3.2156477500000000  6.6466333999999998
  4.8004386099999996  5.0657430899999998  8.0539034899999997
  3.5096102100000000  6.5037676400000004  9.9538928999999996
  2.0824924600000001  8.2793954400000001 11.5177828299999998
 -0.2189949100000000  9.8865407800000007 13.1548098899999992
 18.2030622099999988 11.8055075400000007 14.8466390300000004
 16.4361224499999992 13.5876135300000005 16.4376032499999987
 14.4513355699999995 15.0937806000000005 18.5097202500000009
 12.9729291199999999 16.8975793799999998  0.2835343000000000
 13.2969464800000008 16.6454412299999994  3.2962069999999999
 11.8454695200000000 18.5547825999999993  4.8522473799999997
 10.0959030700000003 -0.1155050300000000  6.3680466899999999
  8.0974224100000001  1.4115924600000000  8.1182768599999999
  6.7312996900000002  3.3960523500000002  9.7704566300000000
  5.4182336500000003  4.8155484000000000 11.6506714299999992
  3.6741372200000000  6.3617943800000001 13.3596762299999998
  1.4766052100000000  8.1547262000000007 14.7292918600000000
  0.0313423300000000 10.1272770100000002 16.3733452300000017
 18.3080262800000000 12.0536700299999993 17.9248100199999989
 17.0928634700000011 13.3985845200000000 -0.1510282500000000
 15.3089366400000007 14.8683721700000007  1.3235911800000000
  7.3314711399999997  6.6181203300000000 13.2208751299999996
  5.7685341599999997  8.6725720400000004 15.0399011500000004
  2.8370051699999999 10.1364113299999996 16.1838844000000002
  1.5209040199999999 11.9956752899999994 18.0281064700000009
 -0.0426549600000000 13.4752025000000000 -0.2532313800000000
 18.3761008100000005 15.2275773000000001  1.1224790800000000
 17.0794830500000003 16.8495342500000014  2.8022742400000000
 15.4476215700000008 17.6805829099999983  4.8469614200000004
 13.3108746300000007 -0.1400416400000000  6.5335739799999999
 11.8618595300000003  1.4510511399999999  8.1362327699999994
  9.9159822599999998  3.3627734399999998  9.6326934800000004
  8.5097632700000005  5.0897355900000001 11.4315916200000007
  8.5320483199999995  5.1967550600000001 14.7880368699999991
  6.8390056899999996  6.8635407600000002 16.7280814999999983
  4.9696358099999998  8.9432687800000004 17.7319135500000016
  2.9471246299999998  9.9429579799999992 -0.0231520400000000
  1.5789396899999999 11.5726080099999997  1.4586450200000001
 -0.2898376300000000 13.5671922400000007  3.2142565200000002
 18.3827133300000014 15.0209548300000009  5.2023631500000000
 16.5425480200000017 17.0353615900000008  6.7778940199999997
 14.7606850000000005 18.4748042099999985  8.3172518100000001
 13.6044783900000006  0.1171691200000000  9.5396194399999992
 11.5440838600000006  1.2265773900000001 11.3416818999999993
 10.0406317000000005  3.2802415300000001 12.8931944699999992
  9.9330458900000007  3.2686308799999999 16.7591819000000015
  8.3442457700000006  5.4176688700000000 18.8373060700000003
  6.2978407000000001  6.8366877099999996 -0.4263447900000000
  4.7853676800000002  8.5273511299999996  1.5956127400000000
  2.8199320499999998 10.2072968900000003  3.2386402599999999
  1.2490222400000000 12.4580384500000001  5.1885827400000002
  0.1220384400000000 13.8645975499999992  6.7816902900000002
 18.1552207299999999 15.3460008400000003  8.5339062200000004
 16.7009791099999987 17.0621076699999996  9.8901371600000001
 14.8334734299999997 18.2982332300000010 11.2639374100000005
 13.2171022300000001 -0.1679845300000000 13.1877449299999991
 11.1896987100000000  1.4142492000000000 15.2373285900000006
 11.2154198399999991  1.5392176200000001 18.5312494699999988
  9.5929274899999992  3.4471027799999998 -0.0115031900000000
  8.2479120699999999  5.1985801399999998  1.5246326200000000
  6.1808355700000002  6.5810614599999999  3.1352204299999999
  4.6774057800000000  8.7789286600000001  4.8064817000000000
  2.9993513599999999  9.8316459300000005  6.7860361200000003
  1.6469120600000000 11.5574694999999998  8.7101329300000003
 -0.4627504300000000 13.7054466799999997 10.2253292499999997
 17.5742744699999989 15.0411251600000000 11.8801207699999996
 16.7258883900000015 16.9008718400000006 13.3661238699999991
 14.7729465999999992 18.2874774799999997 14.9518394000000008
 12.6284731600000004 -0.1264296700000000 16.6127800500000014
 12.8168039599999997  0.3120297900000000  0.0312493700000000
 11.4808503000000002  2.1318990000000002  1.8587031899999999
  9.5568853800000007  3.5970844600000000  3.5951990199999999
  8.0672942400000007  5.4897197300000000  5.1267329899999998
  6.1112646699999997  6.8363496899999996  6.3143007500000001
  4.6497922400000000  8.1313720600000003  8.1202471700000007
  3.1751982900000000  9.9458418099999992 10.4709155999999997
  1.4738476100000000 11.7052735999999999 12.0544825499999995
 -0.4031142400000000 13.6559495299999991 13.3999818499999996
 18.1784860799999990 15.3882373099999992 15.2331977399999996
 16.6768229999999988 17.1282140299999988 16.8939457799999992
 14.4742516699999992 18.2093973200000008 18.4098831499999989
 14.8023317199999997 18.7529936900000003  1.4304116000000000
 13.3736611399999994  0.1047265200000000  3.6134235200000000
 11.5222712900000008  2.2952024899999999  4.9621186499999999
  9.6827048900000001  3.5160624100000000  6.5008294299999996
  8.3109147900000000  5.6022115100000001  7.9562458400000002
  6.3269911299999997  6.3720542599999996  9.8184796500000004
  5.0719194600000002  8.1627602400000008 11.9457143699999992
  3.2529374000000000 10.1226480199999997 13.2630742999999995
  1.2273512600000001 11.9092796199999995 14.7783009399999994
 -0.2198004300000000 13.4524006800000002 16.7661729100000017
 18.5812353299999984 14.8726024900000002 18.2585412500000004
 16.8935418700000000 16.9118778700000014 -0.5847007400000001
  8.5277700400000001  8.4022597500000007 11.5634356500000006
  7.0998567100000001 10.1676127899999997 13.1857977099999992
  5.2948705000000000 11.6391784099999995 15.3341033699999993
  3.1122057900000000 13.1643958100000003 16.2931505600000008
  1.7206753900000000 14.9692684699999994 18.4555412700000012
  0.2302063200000000 16.8614877000000014 -0.4825644300000000
 18.5314007700000012 18.5331576700000014  1.1347462500000001
 16.7654907599999987 20.0092940599999984  3.4745486699999999
 14.8095040499999993  1.6475196700000001  4.9355408799999996
 13.4427531800000004  2.8185759799999999  6.9065849799999999
 11.8227497499999998  4.9263085799999997  7.9379816400000003
 10.6752554600000007  6.5706998600000004  9.5588441199999998
 10.0108127099999997  6.9964856299999996 13.1684291099999999
  8.4470556600000002  8.5873358100000008 15.0695850199999999
  7.0534991399999996 10.3648552200000008 16.9606246700000014
  4.8806667299999997 11.5517238300000002 18.2610178199999993
  3.3317019800000001 13.5980916999999994  0.0148722900000000
  1.7646361600000000 15.4461222199999995  1.5912938599999999
 -0.2808932100000000 16.9140151699999990  3.3594501299999999
 18.5761463300000003 18.6164172299999997  5.1578497099999998
 16.2660437699999996 20.1398305499999992  6.1400818900000003
 15.1805255300000006  2.0332886200000000  8.3594896100000007
 12.7427890599999998  3.4631142000000001 10.3647022100000008
 11.7931384300000008  5.1179030900000004 11.8437807399999997
 11.5488982500000006  4.8415738700000004 15.0674823199999999
  9.8669198500000004  6.9519416500000002 17.1210582900000006
  8.1724762700000007  8.1840191400000002 18.7439646700000004
  6.4898650099999999 10.3180422400000005 -0.0713422800000000
  4.7022828399999996 11.5341233100000000  1.5600931000000000
  3.4968230100000000 13.4044906600000004  3.1906742299999999
  2.0085899999999999 14.9895153000000008  4.8677906499999999
  0.0758070300000000 16.7831201099999987  6.9378593200000003
 17.9839235700000017 18.8523571700000012  8.3726144199999997
 16.6151790900000016 -0.2514503700000000  9.8394842100000002
 14.9437939699999998  1.7128385200000000 11.6492140699999993
 12.8665278999999995  2.7596433700000000 12.8498072099999998
 13.2191191400000001  2.7551856799999999 16.7357208600000007
 11.8198794300000003  4.9998046399999998 18.4828408800000012
 10.5044510500000001  6.9094161800000000  0.1823241400000000
  7.9458486800000001  8.4653517100000002  1.6963276400000000
  6.0771432299999999 10.4660977899999992  3.2854976900000001
  4.7395532500000002 11.7164547599999995  5.1629636200000002
  3.4384978700000000 13.6567369400000000  7.3379304000000003
  1.7397629999999999 15.2233248600000000  9.0717172999999995
 -0.5713779900000000 17.2111961099999995  9.9167949499999999
 18.1495812600000015 18.3149200800000003 12.0949673700000009
 16.2419648099999989 20.3011100900000017 13.6169780700000000
 14.7063744700000001  1.6340102800000000 15.4036289600000007
 14.8325438999999992  1.2752105000000000 18.1788450499999996
 13.0850958300000002  3.6171033700000002  0.1801363300000000
 11.9320004300000004  4.8555946700000003  1.5072531600000001
 10.0603380199999997  7.1458743599999996  3.6663275899999999
  8.1286168799999992  8.7180522499999995  4.7528877100000004
  6.4853313699999999 10.3006164400000007  6.6258791500000003
  4.7574647299999997 11.3718188100000006  8.1065457599999995
  3.1457635200000000 12.9959770900000002 10.3873470399999999
  1.5949187800000000 15.4776100700000008 11.4069464699999994
 -0.3795314800000000 16.1138324799999992 13.3975214800000000
 18.3079163300000012 18.4955804899999983 14.8463907200000005
 16.3159439400000004 19.6795083899999987 16.8301659299999997
 16.7890757499999985  0.2223420600000000 -0.1187532000000000
 14.7667088199999998  1.8511726700000000  1.7789321400000000
 13.6245133700000007  3.6884227300000001  3.4383514000000002
 11.9918680799999997  4.9736870599999996  5.1760963300000000
 10.1455020000000005  7.2459931400000004  6.4996928799999996
  8.4530586599999999  8.0161350299999992  8.1514268500000000
  6.8777565000000003  9.7991518200000005  9.8640926899999997
  5.1475664700000001 11.5732237599999994 11.8415989899999996
  3.2901921800000000 13.7418162699999993 13.2855312899999998
  1.2739270899999999 15.0336121200000008 15.0296546200000005
  0.1781690500000000 16.5524782299999984 16.8884262599999992
 18.6939216600000009 18.8400760799999993 18.1780603200000002
