Li 
 1.0000000000000000
   -10.8535000000000021   18.7988134399488125    0.0000000000000014
   -18.6059999999999981  -10.7421791085421763    0.0000000000000014
     0.0000000000000001    0.0000000000000001   22.7650000000000006
 Li 
 504
Cartesian
  0.0604920400000000  0.7883904000000000  0.3159693400000000
 -11.0881181000000009 16.9766106800000003 15.8130595399999994
 -10.4345654499999991 15.0929923099999996  7.1764789799999997
 -11.2620921500000009 13.3296436000000007  0.0736289200000000
 -11.5841617499999998 11.7688258900000005 14.9654897899999995
 -10.9134232699999991  9.7279754199999999  7.3515086800000002
 -11.2276017600000007  8.1465136900000008 -0.3333508900000000
 -10.9128260200000007  6.3344150099999998 14.8863716200000002
 -11.1627192500000003  4.5135874999999999  7.1374081900000004
 -10.6892665400000002  3.1638500399999998 -0.5809172200000000
 -11.3937811000000000  1.1804520500000000 15.1340707600000002
 -11.4518172000000007 -1.4443862999999999  7.7278522799999996
 -1.8643692199999999  0.6584440499999999 15.8754148100000005
 -1.9913599900000001 -1.4087874899999999  7.4355370399999998
 -12.1094101599999995 16.0065829099999988  0.6222884000000000
 -12.4200533199999992 14.8451835499999998 15.4121725600000001
 -11.8712588100000005 12.8800769000000006  7.5839378000000002
 -12.6907764099999998 10.6721578400000006  0.0691854400000000
 -12.5833395299999999  9.0119186300000003 15.5228482499999991
 -12.1444272200000007  7.0207868099999997  7.8575730000000004
 -13.1448675500000007  5.9142729000000003 -0.1552215200000000
 -13.1387455200000005  3.2617343700000001 15.6280218299999998
 -12.2808184399999991  1.3405153500000000  7.5091407200000004
 -12.4102996900000004  0.3557642700000000  0.2256525200000000
 -2.9415667600000002  2.0007261100000000  7.5725773399999996
 -2.8944124400000000  0.4247344400000000  0.0488934600000000
 -3.6537661300000002 -1.3629698800000001 15.8859625799999993
 -13.9750554800000000 15.2045150400000004  7.9227443700000002
 -14.2802230199999993 13.3812039899999995  0.2005962700000000
 -13.7476834799999992 12.1732693699999999 14.9454829700000005
 -14.0187758099999993 10.3207412099999996  7.3595502599999998
 -14.7721482900000005  8.0488898800000008 -0.0662225600000000
 -13.9359603399999994  6.3881327900000002 15.1746560600000002
 -13.6960668099999996  4.4121948099999999  7.6166506199999997
 -14.3758985500000005  2.5133250100000000 -0.2545479200000000
 -13.8250961799999992  0.4364000100000000 15.6918812699999997
 -4.6210050499999999  2.6690060099999999 -0.3530449000000000
 -5.1157052099999998  1.2732462300000000 15.0049870199999997
 -5.3953922399999996 -0.8699611100000000  7.8118345500000004
 -4.5202952999999999 -2.1696646799999999 -0.3907912000000000
 -14.8519506299999993 14.6697819900000006 15.2023782700000005
 -15.5083474199999998 12.7385944700000007  7.0803863800000002
 -15.7155339600000001 10.5116822299999999 -0.6363596000000000
 -15.2264825699999999  8.7839750199999997 15.4849567500000003
 -14.8727579700000003  6.9881310000000001  7.5397395700000001
 -16.4736615800000017  5.5239910600000002 -0.1376577200000000
 -15.0020847800000006  3.6334844199999998 15.3844503199999991
 -15.5021368099999997  1.8823549300000000  7.6256861799999998
 -6.5662165699999999  3.4827133300000002 14.9481517900000007
 -6.0754699900000002  1.9195878300000000  7.4826778200000001
 -5.8654415799999997 -0.0768525200000000  0.3330199200000000
 -6.2862252800000000 -1.9461089300000001 15.3149124899999993
 -17.3941526899999985 15.5842044699999995  7.5269252599999996
 -16.8376024599999994 13.1990620500000002 -0.0382841800000000
 -16.8724933700000008 11.9547422300000008 14.8777319299999995
 -17.3425647100000013  9.4263753200000000  7.7842769499999998
 -18.0459981399999982  7.6978372000000004  0.3864747500000000
 -16.9580014599999984  5.8973619599999996 15.2668477300000003
 -16.6153141099999999  4.1164624600000002  8.1107957299999995
 -17.7929386200000010  3.1118617700000000  0.2342646700000000
 -7.1556818199999999  4.3896335999999998  7.2677615600000003
 -6.9666280799999996  2.7063701800000000  0.0362605600000000
 -7.7889904000000003  1.6392365600000001 15.3309511000000001
 -8.3900235700000003 -0.8422561000000000  7.1485321500000003
 -7.6626796099999996 -2.4778051200000002 -0.3688634300000000
 -18.8099049100000002 13.8805967399999997 15.4280291199999997
 -18.2509095600000002 12.2528708500000008  7.5821080800000002
 -18.2432829299999995 10.4397293100000006 -0.5307655500000000
 -18.5134385600000009  9.1017571400000001 15.1394422199999994
 -18.0804178600000007  6.7701973000000004  7.6746660100000001
 -19.8044571900000008  5.0832911400000000 -0.3208511400000000
 -18.3930736500000016  3.3440557399999999 15.3539491800000008
 -9.2700851300000000  5.3914271400000002 -0.2829683100000000
 -9.9845867300000002  3.3006395600000000 15.3923786200000006
 -9.1925009000000006  1.6719142499999999  7.3232372600000000
 -9.4654935899999995  0.2231083100000000 -0.3516378400000000
 -9.3701117499999995 -1.0035377500000000 15.4749644400000008
 -9.0031077800000006 -4.0733627800000001  7.6012397600000003
 -20.1639489800000007 13.8786197599999994 -0.4013506200000000
 -19.5797521299999993 11.1428492800000001 15.7069923700000000
 -19.8104905500000008  9.7367125399999992  7.2859908600000001
 -21.0741196500000001  8.4015382200000008 -0.3094228500000000
 -20.0822010999999989  5.6078631000000003 15.2140641399999996
 -19.7751390799999989  4.2822579899999997  7.7580811599999997
 -10.1635454500000009 -2.2067951400000001  0.4677223400000000
 -10.8583425800000004 -4.7819827200000002 15.0924382300000008
 -21.7251899900000005 12.1941457300000007  7.2620300699999998
 -21.6114379499999991 10.8988502399999998 -0.3843071100000000
 -21.2460979899999991  8.6426006199999996 15.1267911900000005
 -21.8434977900000007  6.9333902399999996  7.5471010999999999
 -22.1889250599999990  5.1037090799999998  0.0657290100000000
 -12.5580604699999991 -2.0018957199999998 15.0151416100000006
 -12.2192805399999997 -3.5553031900000001  7.6166197200000001
 -12.4385505399999996 -4.8515948099999999 -0.1842964100000000
 -22.6274999600000015 11.2090378899999994 14.6609853999999995
 -23.0399196800000006  9.0434996299999995  6.9354357100000001
 -23.6568379799999988  7.9464460900000002  0.1456123600000000
 -23.4311093799999988  5.9548928500000002 15.3278321599999998
 -14.0747036399999992 -0.7537444700000000  7.5595770599999996
 -13.8069535400000003 -2.0216458899999998 -0.1398521300000000
 -13.6247024999999997 -4.9204098500000004 15.1653727699999994
 -13.5768972300000001 -6.4889676800000000  7.7429779900000000
 -24.8495198100000003 11.3966191099999996 -0.1930224100000000
 -24.7143814900000010  8.6045724200000002 14.8882823299999991
 -24.8609027900000008  6.7642408999999999  7.6373765699999998
 -15.8340062899999996  0.2948116300000000 -0.1299021200000000
 -15.6908747500000008 -2.1810778100000001 14.6793178500000003
 -15.6009435300000003 -3.4725484099999999  7.5664722099999997
 -15.6964702900000006 -4.7108009500000003 -0.1481350600000000
 -15.1487932700000005 -7.1751636500000000 14.6412140100000006
 -26.1946226300000014  9.8554788700000007  7.5545065899999999
 -26.0820796199999982  8.4919017399999994 -0.7319482700000000
 -16.7130276400000000  1.1359753500000001 14.8928113700000004
 -17.2390220999999997 -0.9497226100000000  7.7710117199999997
 -17.1537406399999988 -2.1251648599999999 -0.5518724000000000
 -17.1153999699999986 -4.4053334099999999 15.3575972099999998
 -17.0303922199999995 -6.9425858800000002  7.9699271200000004
 -16.9393426699999985 -7.7717916499999999 -0.4009044100000000
 -28.1757619900000016  8.9074182099999994 14.6174984000000006
 -27.7603833299999998  7.0147461499999997  7.2059390199999998
 -8.9944450200000006 16.3992804300000010 -0.2326798900000000
 -9.2061799000000004 14.5298832900000008 15.1536886200000005
 -9.2087645499999997 12.3859378299999996  8.3078500500000008
 -9.3918870999999999 10.2484390899999998 -0.0498019100000000
 -9.4206707099999996  9.4049640700000001 14.9486414399999994
 -9.4859422700000007  6.8222223800000004  7.8604997599999997
 -18.8033618800000006 -9.2272156499999998  7.7731027199999998
 -1.5821599600000000  3.2206601899999998  0.1840062600000000
 -3.0730210599999999  3.7961993900000000 15.3729199100000002
 -4.7731861899999997  4.0468301200000001  7.4476691500000003
 -6.0218618199999998  5.5745581399999997 -0.4232232100000000
 -7.8342327799999998  6.2513141699999997 15.3397210400000006
 -26.7457056199999990  5.9171233200000000 15.1238642799999994
 -26.1067296599999992  3.8097038300000001  7.6317857000000000
 -8.0413453399999995 13.0353557999999996 -0.0013516900000000
 -8.1693062800000007 12.0166550900000004 14.9232903100000005
 -7.8735146000000000  9.7113444900000001  7.4100172700000000
 -7.7982236800000004  7.7625946499999996 -0.1134687000000000
 -18.9131715699999994 -7.0107438399999999 15.8293493699999992
 -20.0225081600000010 -6.1516249900000002  7.7337342800000002
 -3.3875492199999999  5.6588658499999998 -0.4625315800000000
 -4.7115424399999997  6.1539720100000004 15.3195462199999994
 -6.4074843799999996  6.7893013199999999  7.9230858499999997
 -24.9361134900000003  5.0683051600000004  0.0719999700000000
 -24.1414127900000004  2.5631345300000001 15.3599098000000005
 -24.4945741199999993  1.6585107299999999  8.0635701100000006
 -6.6017670600000002 10.3841426800000001  0.1573244700000000
 -6.0731977800000001  9.4272290400000003 15.1195956599999999
 -18.6380775800000009 -5.2454534300000004  0.3571092200000000
 -20.4624057899999983 -4.2046377100000001 15.9330792700000003
 -21.4769251499999996 -3.7719496800000001  8.4758829000000002
 -4.9444139299999996  8.2350802900000009 -0.7631859700000000
 -23.3477788299999993  4.0267064899999996  7.6132633900000002
 -23.4898213600000005  2.0924193500000001  1.0807991100000001
 -23.3470482799999992  0.2884881600000000 15.7280028999999999
 -22.9284298500000006 -1.2070906200000000  7.7257885000000002
 -18.2464022600000000 -3.5468350900000001  7.3456834000000004
 -20.1143559699999983 -2.4122445199999998  0.0000323200000000
 -21.5084151000000006 -2.0252008899999998 15.0100187399999996
 -21.2995323600000006  3.1722183099999999 15.1035190200000002
 -21.8955981400000006  1.8131550900000000  7.4697338699999998
 -22.1846393299999995 -0.5577835300000000 -0.1012243200000000
 -18.4552048100000015 -2.2464157199999999 15.6742276799999996
 -19.6956322200000002 -1.0162028900000000  7.9687988799999996
 -20.4225487600000015  2.5821256799999999  0.1732863100000000
 -20.1385580699999984  0.4069789400000000 15.2159042499999995
 -18.9135818799999988  0.3329799400000000  0.1273076500000000
 -18.6373254899999985  1.5651861499999999  7.6091302699999996
 -0.0433846900000000  0.1384108700000000 18.1229289199999997
 -11.1085928000000003 17.1905403200000002  9.5755874399999996
 -10.2174275300000001 14.7523839599999995  2.7086419799999999
 -11.0171334900000009 13.7590273500000002 17.4226423900000000
 -10.3883116300000005 11.5521126499999998  9.9166157899999998
 -10.9650883599999993 10.2800246200000007  2.4683820100000000
 -11.2520304000000007  8.1012654400000006 17.7279320899999995
 -10.7318601099999995  6.4642181299999999 10.2413765100000003
 -10.7343085200000008  4.7474839099999997  2.5844044500000001
 -11.1642885300000003  2.3047262599999998 18.3878739600000003
 -10.4634763700000004  0.7982286900000000  9.9460366699999998
 -10.5576493100000004 -0.6988432200000000  2.1856706199999998
 -1.1597655499999999  0.9188068400000000 10.0420533299999999
 -1.2967774400000001 -1.0838984500000000  2.5038099900000002
 -12.1536512000000005 16.3658390800000006 18.4473981699999996
 -12.0483130000000003 14.0851683699999999  9.9935893700000005
 -12.2360368800000003 12.2695812600000007  2.7150649200000001
 -12.5511949800000000 10.8099285500000004 17.6276159700000008
 -12.1892976900000001  8.7311046599999997  9.4903457000000007
 -12.8532299699999992  7.2939716099999998  2.8014844600000002
 -12.3546104499999991  5.4528043899999998 18.3771130999999990
 -12.2541100499999995  3.4015755799999998 10.0469345499999996
 -12.1548574499999997  2.4888505900000002  2.5592002699999998
 -12.8870746500000006  0.1747403400000000 17.8026245199999984
 -2.9062639899999998  2.2487258699999999  2.6877827500000002
 -3.1732099800000002  0.5501204700000000 18.1837955800000017
 -3.6696443599999999 -1.3959915400000000 10.0196909699999992
 -13.9628022000000005 15.3201018799999993  2.3441607900000001
 -13.8725887700000001 13.5425640299999994 17.9992057099999982
 -14.0573671200000003 11.4916065799999991 10.1436911900000002
 -14.2538737199999996 10.1059935500000009  2.4871443700000002
 -14.2866766900000002  8.3529225100000009 17.7621277400000004
 -13.6248008899999995  6.4506541100000003 10.0978346200000004
 -14.2066768299999993  4.6158749099999996  2.2760209100000002
 -14.2831635600000002  2.4706845199999998 18.6624088499999985
 -13.4176024900000002  0.8266153100000000 10.5253854499999999
 -4.7003237000000002  2.7393256400000001 17.6219861500000015
 -4.5453537900000001  0.9993245300000000 10.5627908399999999
 -4.2692123100000003 -0.9509933800000000  2.9092776900000001
 -4.5399358899999998 -2.2402993200000001 18.2885077500000008
 -15.5461360099999997 14.1758086100000007 10.0601351500000007
 -15.5915517099999992 12.4422645799999998  2.5969123800000000
 -15.4016490800000003 10.5970936600000005 17.6528592700000004
 -16.0068397599999983  8.5741843099999997 10.4351657099999997
 -15.4700012999999998  7.1862604599999997  2.6515814500000001
 -15.2917006900000008  5.7898483799999996 18.1083536100000018
 -14.4415536000000007  3.8648628999999999 11.0160653400000008
 -15.8240677600000001  2.5789683200000000  2.3382289500000000
 -6.4979443400000001  3.6774359799999998  9.9684507599999996
 -5.9957201900000001  1.9447214799999999  2.5927632300000001
 -6.2639167999999996  0.3389763200000000 17.3572939200000000
 -6.5414657500000004 -1.3713307600000000 10.3117905400000005
 -17.2576371600000016 15.1655320699999994  2.3069951199999998
 -16.5418176700000004 13.7090614199999994 17.4170843099999999
 -16.7555599300000004 11.6083449499999993 10.4231688200000008
 -17.3758516800000002  9.3116572200000007  2.4285053300000001
 -17.6071844400000010  8.3465258500000008 17.4250944600000004
 -17.5619882199999999  6.0877069199999996 10.5123908400000001
 -17.6172156099999988  4.6187972200000003  2.6960131899999999
 -16.6817374600000008  2.7076678900000002 17.6190518300000001
 -7.5503998699999997  4.5665392999999996  2.2982054399999998
 -8.1058238399999993  3.3679441500000000 17.6209277700000015
 -8.1144096099999992  1.2566136800000001 10.1486672400000000
 -8.2193536599999995 -0.6598534300000000  2.7549477599999999
 -7.4977135300000004 -2.3384961700000000 17.8265372999999983
 -18.5162616299999989 14.4237925699999998 10.0245959500000001
 -19.0380284999999994 12.4127635400000003  2.4640971100000000
 -18.4988738700000006 11.0964376399999995 17.6230094500000014
 -18.7559332000000012  8.5622733100000001 10.0026614100000000
 -19.4729782600000014  7.5742404099999998  2.6156563300000002
 -18.3023900799999986  5.3858639799999999 17.8812618999999984
 -18.3500978600000018  3.2160441700000000  9.9031069200000008
 -9.7424182399999992  5.7129732100000004 17.7494902100000012
 -9.9545624299999993  3.7618561599999998  9.4930653700000001
 -8.8468921900000002  1.8921819900000001  2.2071245099999999
 -9.4582194600000005  0.4019586500000000 17.8769320100000009
 -8.9579161200000001 -1.9746743200000001  9.9637762199999997
 -9.3201980599999992 -3.5603415599999999  2.6105553100000001
 -20.0245573899999982 13.5546430400000002 17.1423416400000015
 -19.9163120700000000 11.8458761900000002  9.7307553599999999
 -20.5704678200000011  9.3768034100000008  1.9741382300000001
 -20.4401608699999997  8.1270515799999998 17.0794236099999992
 -20.6094645800000009  5.9978866499999999  9.9253631099999993
 -20.2704101600000008  4.1737917500000004  2.7092233299999999
 -10.9197655400000002 -2.3295352500000002 17.5232983500000010
 -11.1653714999999991 -4.7139363000000003  9.8102609199999993
 -22.0217541600000004 12.5484424400000005  2.6889262000000000
 -21.5481372499999999 11.0319899800000005 17.3753499399999995
 -21.7899204200000014  8.9775809800000008  9.7303224299999993
 -22.2566932400000006  7.3486127799999998  2.1370263299999999
 -21.9727957499999995  5.5355730899999998 17.6724648900000005
 -12.3006224300000007 -1.6750275600000000 10.3484101000000006
 -12.5723560800000005 -3.3709143400000001  2.5407352900000002
 -12.1052469699999996 -5.1671621900000000 17.6026864299999986
 -23.0173967300000015 11.3003997700000003  9.6589245699999999
 -23.5414052799999993 10.0674182600000002  1.9887128900000000
 -23.2815898499999996  8.1293096200000008 17.5915846900000012
 -23.1557832499999989  5.9201510300000004 10.4323116200000001
 -13.5824238600000005 -0.2650323800000000  2.3657336899999999
 -13.8796657799999998 -3.0483601700000000 17.3958966500000010
 -14.2485584900000006 -5.0858574699999997  9.7074243500000001
 -14.0751444299999999 -5.7519371000000001  2.2765700500000001
 -25.4572840700000000 11.2957893499999997 17.1986655199999987
 -25.0769482799999999  9.3322026699999991 10.2278041799999997
 -24.5860549400000004  6.7881677600000003  2.0127122499999999
 -15.8350972399999996 -0.2512744800000000 17.0208884699999992
 -15.2951212099999996 -2.0737290000000002 10.1231796299999992
 -15.6070069100000008 -2.9620834899999999  2.4556595899999998
 -15.2183317000000002 -4.9886496800000000 17.8198317599999996
 -15.7969256900000001 -7.1628332900000000 10.0371598500000001
 -26.2074332800000001  9.6978587500000000  2.2164009700000000
 -26.2062451400000000  8.2546494199999998 17.2310422999999986
 -16.2388416800000002  1.2742254200000001 10.4268188399999993
 -16.7599610299999995 -0.6888165700000000  2.2926293599999998
 -16.5406481399999983 -2.5197343600000002 17.7316867699999996
 -16.9378556499999995 -4.3974860600000003 10.3291978899999997
 -16.6063353800000009 -6.0308804399999998  2.8728061299999998
 -17.1635019000000000 -8.4080007299999995 17.8732530199999999
 -27.5779417000000002  8.6113472600000005 10.1814852600000005
 -27.5130815700000007  7.3526126200000004  2.4142439800000002
 -9.3963898399999994 16.3967539699999989 18.3603416899999985
 -8.7215762699999999 14.5498209599999999  9.9178601700000009
 -8.9620502399999999 12.2216490600000007  2.6933303199999998
 -9.0255611899999995 11.3742171499999998 17.6835696899999988
 -9.0097184600000002  9.4480220300000006  9.8829872400000003
 -9.5911504300000008  7.3281365100000002  2.3808435900000000
 -17.9138933199999997 -8.4099161299999992  2.6011729300000002
 -1.6730014600000001  3.0970013100000000 17.7493922399999988
 -3.1320645300000001  3.7138485999999999 10.2535910500000007
 -4.7334941300000004  4.5029182900000002  2.3761852800000001
 -6.2104454499999999  5.3744898499999998 18.0216396000000003
 -7.9094807500000002  6.1152481200000004 10.2943450199999997
 -25.8971774100000012  5.7396956499999998 10.0145342100000008
 -26.4500627699999988  4.1647566100000004  2.3309488799999998
 -8.0616842200000001 13.7996917200000002 17.5861992700000016
 -7.4982470799999996 11.7838583999999997  9.7181331199999992
 -7.3899589600000004  9.6893574499999993  2.5404424200000002
 -7.2996924800000000  7.7238856900000004 17.6041656099999990
 -18.4227750400000012 -7.6201723000000001 10.0902041499999999
 -20.2257904699999997 -5.5663853400000001  2.6041639499999998
 -3.2224782200000002  5.6037122400000001 17.5296844999999983
 -4.9588530999999998  6.0643720800000001 10.0401337200000000
 -5.7664779399999997  7.2368010099999998  2.4406861700000002
 -24.6354568100000009  5.4505117600000004 18.0492301600000005
 -24.0322475000000004  3.2281368200000000 10.2412653700000007
 -24.7686295299999983  1.2923968299999999  2.9594264899999998
 -6.3608165699999999 11.6539962599999996 18.2183635799999983
 -6.4121861400000002  8.6195197700000001 10.5528508700000003
 -18.1758643000000006 -5.5234314700000002 17.7588510299999989
 -19.6271746699999987 -4.6881252299999998 10.2184233599999992
 -21.3841838899999992 -3.2037444100000001  2.2435344300000000
 -4.4599705299999997  8.9769269800000000 17.3967860200000004
 -23.4460711800000006  4.2069945899999999  2.5489937600000001
 -23.0598825000000005  3.0324113599999998 18.3474217700000004
 -22.5167747700000014  0.2121756500000000 10.1123325000000008
 -22.7530331500000003 -1.2283062800000000  2.5868795000000002
 -18.3063840199999994 -3.5436251699999999  2.3066246000000001
 -19.4509534500000001 -3.1867909800000001 17.9752068300000012
 -21.4930922299999985 -1.7994223199999999 10.1437311500000007
 -21.1616355799999987  2.8723822999999999 10.3881769899999998
 -21.2613399899999997  0.6958013199999999  3.0793322000000001
 -21.6075181000000001  0.4239598600000000 17.6974764799999988
 -18.6576849399999993 -1.9108935700000000  9.9785123299999992
 -19.4129642000000011 -0.6337830400000000  2.3834958099999999
 -20.4017074700000016  3.1317416200000001 17.7660025099999999
 -19.6881820999999988  0.5309865000000000 10.2807305899999992
 -18.8240120200000014  0.3213583400000000 17.7335994799999987
 -18.3313366600000016  1.6487404999999999  2.9337318400000001
 -0.4959571800000000  0.2380689700000000  5.2919574200000001
 -10.3579609799999997 17.2175396399999983 20.5896533499999990
 -10.6029277600000000 15.1093922500000009 12.6976462600000009
 -10.8653807499999999 12.4769088499999992  5.5682865699999997
 -11.0305932700000007 12.0378226700000006 20.3599333300000005
 -10.4087984200000001 10.0165682199999999 12.8969634000000006
 -10.7004634299999992  7.5432682800000004  5.1761362300000000
 -11.0410841899999994  6.0291000700000001 20.2920819799999990
 -11.3774766399999994  4.7274701099999996 12.3831256500000002
 -10.9840700699999996  2.8160829199999999  5.2363914300000003
 -10.6322691799999998  0.9100905100000000 20.0844360699999989
 -11.2266943200000000 -1.1414186099999999 12.7087471999999995
 -1.0830027200000001  1.4289470900000001 20.3171496599999983
 -0.9241478300000000 -1.3952575700000001 12.9604302199999992
 -12.6395973399999999 15.8329756699999997  4.9386076799999996
 -12.5763179199999993 14.4750235899999993 20.5237685499999998
 -12.6335646599999993 12.9303857600000001 12.1068236400000000
 -12.5203876100000002 10.3891855100000008  5.1820161999999996
 -13.1088687099999994  8.6761342300000006 20.2155311699999984
 -12.6758492900000004  7.8270644200000001 12.5767822099999993
 -13.0480647100000002  5.5133100400000004  5.6651903600000004
 -12.8426746200000004  3.6965849400000002 20.3643790299999985
 -12.2035987499999994  1.8716633600000001 12.6331159700000004
 -11.9799703799999993  0.2355030300000000  4.5626173200000002
 -2.9848676300000001  2.1079105800000000 12.9574019000000007
 -3.0418623899999999  0.1603594100000000  5.0989453200000003
 -2.8192602000000000 -1.6920754000000000 20.7649100699999991
 -13.6455202700000005 15.1526862199999997 12.4846926000000007
 -13.9335756600000007 13.3772392399999998  5.1597523900000004
 -14.2326671499999993 12.3817403400000003 20.1287845300000008
 -13.9475824599999996 10.3322770300000002 12.9206335800000005
 -14.2385897299999993  8.0630162199999997  5.3037557599999996
 -14.3493131700000003  6.3874421400000001 20.5550713700000003
 -13.6636646299999995  4.4596688100000001 12.5693798099999992
 -13.8034337499999999  2.7401457400000000  4.7601218599999999
 -13.4834282800000000  1.0823839500000001 19.9642558900000004
 -4.7522508600000002  2.9076853800000002  5.1129251699999996
 -4.7326295299999996  0.7709874200000000 20.9407485400000013
 -4.5290741099999998 -1.0999000699999999 13.1117662300000006
 -4.7397857300000004 -2.8243700800000000  4.9541587600000003
 -15.3673170599999995 14.6933560799999992 20.3470977499999996
 -15.7193318299999998 12.7850451899999999 12.2040417199999993
 -15.9429462300000004 10.4989124799999995  4.6767949900000003
 -15.7564218500000006  9.6678039899999995 20.3302381600000004
 -15.3331550799999992  6.8662335900000002 13.0834054099999992
 -15.6557525599999998  4.8936445500000003  5.5337769600000000
 -16.2966502800000015  3.5595796100000001 20.3250234600000006
 -15.3372697200000001  1.8651238999999999 13.3094949400000004
 -6.3837349400000001  3.9279743100000002 20.1435029499999985
 -6.2161288800000003  1.9727114800000001 12.2300566199999992
 -6.3123309200000000 -0.3348339300000000  5.4938390799999999
 -6.1667492299999997 -1.5388372800000001 20.2908073999999985
 -16.8769894700000016 15.1858850299999997 12.5649164899999999
 -17.5296186499999997 13.7464772800000006  4.8451994699999998
 -16.7977094499999993 11.5348001199999999 20.5634006000000014
 -17.0395596500000011  9.6553839900000007 12.9708992399999996
 -17.2718542200000016  7.8188860800000004  5.1232863699999998
 -17.1968494499999984  6.3947307499999999 20.3549790799999997
 -16.9670190599999984  4.4189986399999999 12.8149403199999998
 -16.7271182799999991  2.9744906900000001  5.7971823699999998
 -8.0145199199999997  4.2185659199999996 12.3558183100000001
 -8.0692779199999993  2.1369250800000001  4.3713731700000000
 -7.3426902500000004  0.9606507500000000 20.1360375599999983
 -8.3149296699999997 -0.7241261700000000 13.4771383799999995
 -8.5215350300000008 -2.5112003399999998  5.0687371800000003
 -18.0290358799999986 14.5204065900000003 19.8041162499999999
 -19.1995831499999987 12.5200283700000004 12.2050200600000007
 -19.0322271000000001 10.7713196900000003  5.0499369500000002
 -18.6977055700000001  8.1476065099999992 20.4712185899999994
 -18.6635676299999993  7.2470668399999996 12.7953745600000008
 -18.3747896100000006  5.0145252700000000  5.3643324000000003
 -18.4899646599999983  3.7103204299999999 19.7992328399999984
 -9.4180515200000006  4.9312394499999996  5.2682830200000001
 -9.3714943099999992  3.8042005400000001 19.9728288899999988
 -9.6042550299999991  2.1353783499999999 12.3769551900000003
 -9.5860799300000004 -0.1841584500000000  5.4597953099999996
 -8.9504470800000000 -1.4956240100000000 19.9205380199999986
 -9.5780088100000000 -3.2031074199999998 12.6761638500000000
 -20.3888649400000013 13.1779204399999994  4.8136160900000000
 -20.1772705099999996 11.7050483500000002 19.7288792599999994
 -20.3524864200000017  9.5451781199999992 12.4066900100000002
 -20.3230432699999994  7.9229456200000001  4.7488840200000002
 -20.3849390600000007  5.8755305199999999 19.9507122800000012
 -20.0898808100000004  4.2512961499999999 12.3794347200000008
 -11.0180696600000001 -3.0095165100000001  5.1530901800000004
 -10.3994890899999994 -4.4386427599999996 20.1617858599999984
 -21.3952018200000005 11.9736786700000000 12.7374156299999992
 -22.1055044900000013 10.5398306900000005  4.8476460299999999
 -21.9640755299999988  8.8200018900000003 20.0224901499999994
 -21.9066464799999991  6.9820682100000004 12.3087239099999994
 -21.9784321499999997  4.8598920500000000  4.6876603599999997
 -11.9587198299999997 -1.6846090499999999 20.2207698899999997
 -12.6375622399999994 -4.4989977799999998 12.6005049800000002
 -12.7689823699999998 -5.3360902000000001  4.9298449900000003
 -23.8107682599999997 11.7480543799999992 19.6958463799999990
 -23.5202764000000002  9.6089911299999997 12.8914392699999993
 -23.4501015700000011  8.2958917900000007  4.3278836700000003
 -23.2289068199999988  6.4652981699999996 20.1539301500000008
 -14.0755597199999993 -1.1750541100000000 12.5679741400000005
 -13.9575093799999994 -2.4959907800000001  4.8355352600000003
 -13.9272240000000007 -4.2576321400000001 19.5701500000000017
 -13.8911858099999996 -7.0567362899999999 12.4322724000000004
 -24.7248409299999992 10.7742481199999993  4.1177642099999998
 -24.3207295700000010  9.5549617799999993 19.5186692700000002
 -24.7827349000000012  7.6716557700000001 12.2933986500000003
 -15.4162980800000007 -0.4548749600000000  4.8335971100000004
 -15.2754231899999997 -1.6811172999999999 19.5823390199999992
 -14.9227676999999996 -4.2643936399999998 12.1563712499999994
 -15.5229560499999995 -4.8597482799999998  5.5488293100000003
 -15.8077521799999996 -6.6587815499999996 20.1191154999999995
 -26.8223710799999999  9.8122999499999999 12.3530748900000003
 -26.0916672200000015  7.9034809700000004  5.0138484400000003
 -16.5786831499999998  0.9057898700000000 20.0876550999999992
 -17.0527693300000003 -0.4280851900000000 13.3711874200000000
 -17.5221834600000008 -2.4031214599999999  4.7605107000000002
 -16.8201857799999992 -4.1308681700000003 20.3600057700000008
 -16.5751357599999984 -6.3682521699999999 12.1999492800000002
 -17.2083208799999987 -8.2985334999999996  5.7013864300000003
 -27.4615948100000011  9.4836835599999993 19.9474768699999991
 -27.6458997300000000  6.8024486000000000 12.4681295599999995
 -9.3548554999999993 16.2871474099999993  5.0423883800000002
 -9.2041588999999995 14.3608389800000005 20.4262627700000010
 -9.0394677699999999 12.1731487800000000 11.9669753900000000
 -9.0871928900000007 10.1904143000000005  5.2760499699999999
 -9.7800302000000006  9.0092132800000009 20.2817682700000006
 -9.2962158499999994  7.2301172200000003 12.4322540099999994
 -19.5241329199999996 -9.0990340300000003 12.7815219100000004
 -1.1874006900000000  2.9523961500000002  4.9346555900000002
 -3.4489400799999999  3.2285323699999999 20.0047666299999989
 -4.9501445999999998  4.5694130199999998 12.4651638600000005
 -6.0137835500000003  5.1182078600000001  4.9006800300000002
 -7.8112906000000004  6.0267066600000003 20.2096098899999994
 -25.6774703100000004  6.0581058399999996 19.7496125400000011
 -25.8341959099999983  4.1239658500000003 12.4984604200000007
 -8.0559072599999997 13.2476727899999993  5.4108819900000000
 -7.8538772400000001 11.7749490600000009 20.6648668099999995
 -7.3506325400000003 10.3862638500000006 12.9506851199999993
 -7.5448926299999997  6.9203526300000000  5.0881841999999997
 -18.7204615399999987 -6.6869202599999999 19.8887309399999985
 -20.2596695999999987 -5.8405555299999996 12.4560500300000001
 -3.1402465600000000  5.3619068800000003  5.0900793100000001
 -4.5392831200000003  6.9907157099999999 19.8460649899999986
 -6.5201441899999999  7.2857889199999999 13.3225599799999994
 -24.9224833799999992  4.8955279899999997  5.1590325799999999
 -24.9564842800000015  3.5890060799999999 20.7853511100000006
 -24.0928043199999991  1.4788523000000000 12.4074777199999993