Li                                      
   1.00000000000000     
    22.0829999999999984   -0.0000000000000006    0.0000000000000000
    -0.0000000000000006   22.0829999999999984    0.0000000000000000
     0.0000000000000006    0.0000000000000006   22.0829999999999984
   Li
   500
Direct
  0.9959234795996892  0.0074726771724869  0.0012285133360521
  0.9921837377167932  0.1028718611601676  0.1013095489743208
  0.9944286890368161  0.2121202042294996  0.2058470022189027
  0.0100404419689326  0.2921971217678774  0.2997441656477804
  0.0017789611918673  0.4087277349092062  0.4104951333605058
  0.0157460431100844  0.4882213553412100  0.4962586455644598
  0.0103892935742422  0.5938655264230377  0.6003621065978351
  0.0061948602997788  0.6886128279672121  0.7072369678032899
  0.9935820762577521  0.7962262269619131  0.8024926803423469
  0.9848844151609839  0.9018640180229127  0.8946355237060217
  0.1016706502739666  0.9987496680704595  0.0885525109812946
  0.1078207349544869  0.0876281320472785  0.1943579260064325
  0.1030095014264347  0.1952671865235729  0.2891037911515610
  0.1023095435402794  0.2964701163791119  0.3896730829144559
  0.1146919200289815  0.4032951786442069  0.4983081225377006
  0.0929574632069929  0.4949606362360157  0.5873958809944284
  0.0971755440836830  0.5996413177557400  0.6915727247203733
  0.1026151999275484  0.6890126219263664  0.7899538943984084
  0.0876807634832204  0.8004151849839261  0.9021546687497164
  0.0947103595526002  0.8952450577367230  0.9993082832948446
  0.2194998963003201  0.0015624099986411  0.1965580324231340
  0.2179353815151899  0.0933761037902485  0.2907182719739154
  0.1956729615541377  0.1934741742516835  0.3903161404700484
  0.2100873273558861  0.2909228863831927  0.4889515957976727
  0.1946878508354857  0.4089815079472885  0.5897579237422477
  0.1996588158311852  0.4899437146221075  0.7021949381877448
  0.1921058026536215  0.5986517506679334  0.7882912910383553
  0.1878047525245634  0.7040428266087062  0.9028604143458807
  0.2127840655708013  0.7936024430557467  0.0103293836888128
  0.2005603092876882  0.9006944522936209  0.1006226848707144
  0.3080594792374214  0.0024055028755186  0.3043918878775500
  0.2939243979531767  0.1069106081601205  0.4005708440882145
  0.3165121722592019  0.1958310859031869  0.5139295892768203
  0.2945955468007071  0.2991597350903419  0.6052005248381107
  0.2985250867182927  0.3874885663179839  0.6922778603450652
  0.2931264868903654  0.5087922904496693  0.8046599836978672
  0.2892724186025433  0.6130629923470536  0.8897605040076044
  0.2971557854458169  0.7075244187836773  0.9900252402300396
  0.2867342127428358  0.7929376081148405  0.0990936983199759
  0.3016250464157935  0.8908179196667092  0.1896428062310349
  0.4059374659240120  0.0086838717565527  0.4205159262781351
  0.4043490897975843  0.1089408418240296  0.5191321650138150
  0.4038125798125236  0.2032541837612669  0.6210080405741962
  0.4022457763890799  0.3106967640266234  0.7036336358284672
  0.4001282688040604  0.4138036263188880  0.7998992261015232
  0.3872408757868016  0.5216512086220177  0.9156152021917308
  0.4063512493773516  0.6047053158538276  0.0149259018249310
  0.3953798048272432  0.7032947760720916  0.1030999171308267
  0.3881573373182974  0.8071638531902394  0.2112224951319988
  0.3929632722003333  0.9106173812434903  0.3004490603631780
  0.5096373708282371  0.0108060806955592  0.5020242933478229
  0.4887147045238436  0.1207923312050028  0.6083297337318285
  0.4999742793098747  0.2112990381741611  0.7017787388488870
  0.4952337123579227  0.3060592926685715  0.8041349857356366
  0.4951849630937843  0.4008363963229655  0.9078775383779387
  0.4883252977403458  0.4964839410406228  0.0061446891273818
  0.4878200520762590  0.6071109994113115  0.1162192002898124
  0.5004026500022647  0.6878409102024179  0.2022951089073075
  0.4981637485848864  0.8002089693429326  0.3009572866005499
  0.5058185681293281  0.9098335416383634  0.3975900511705817
  0.5976944436897185  0.0183282325770975  0.6039288470769364
  0.5951936027713600  0.1087242054974382  0.7007491939500952
  0.5983841162885497  0.1958208617488566  0.8021269306706529
  0.5964724552823455  0.2889949386405846  0.9033309364669648
  0.5840418579903073  0.4130133011819055  0.9979598944889716
  0.6024080088756065  0.5048880351401550  0.1135397092786334
  0.5990422850156207  0.5952651935878279  0.2113480917447816
  0.6088844486709206  0.6933271425983776  0.3077617434225388
  0.5985662826608689  0.8010362432640505  0.3979165611556397
  0.5945460843182531  0.9052769727844918  0.5046215740614954
  0.7113772752796237  0.0067543427070618  0.6949103622696171
  0.7008384689580254  0.1061545039170397  0.7901407073314317
  0.6939079187610346  0.1945041298736570  0.9090342575737012
  0.6903494710863569  0.3069706951048303  0.0069463569261430
  0.6941915654575936  0.4194006951048337  0.0851398840737190
  0.6992681700855883  0.4920626423040346  0.1993280550649814
  0.6989955934429233  0.5915359652221142  0.3227868473486382
  0.7040805280079709  0.6923497110899817  0.4006105506498230
  0.7081076189829290  0.7970241045147830  0.5068286736403564
  0.7034165453063466  0.9130367042521428  0.5867050609065814
  0.7976586759045432  0.9954143168953493  0.7908362088484324
  0.7922065045510109  0.1040583127292507  0.8820402563057570
  0.8032285740162095  0.2020078598922268  0.9889604401575838
  0.7984611705837068  0.3019402943440639  0.0910598569034988
  0.7994719349726012  0.4076356314812273  0.2046755540460978
  0.7972873984512958  0.4994554172893189  0.3027996680704632
  0.7952118747452772  0.5944141008920880  0.4255486876783081
  0.7998420318797272  0.6973826400398480  0.5044424041117637
  0.8038588719829747  0.8012786414889277  0.5961778390617241
  0.7949083602771339  0.8868342693474602  0.6952453470995792
  0.8842753389485125  0.9924624634334123  0.8823923891681389
  0.8849631440474610  0.0941475465290011  0.9919669456142728
  0.8847196984105423  0.1915827532491079  0.0960704532898617
  0.9063713254539678  0.3117968686319799  0.2100592030068356
  0.9017022238826229  0.3957637227731752  0.3090913105103468
  0.9117964520219175  0.5029209794864826  0.3965549726033615
  0.9111034402028722  0.5926880229135563  0.5061882438980234
  0.9067256491418760  0.6919929180817803  0.6189766893085178
  0.9121434166553470  0.7943093384051068  0.6941331576325709
  0.9001796485984670  0.8927727736267741  0.7821915034189217
  0.1037817900647582  0.0946503649866415  0.0015298238463970
  0.1001254661957134  0.1900977448716219  0.1003404963093786
  0.1114467219127846  0.2943063148122960  0.1879374056966867
  0.1053153190236813  0.3970304600824193  0.2978944527464549
  0.1141696644477648  0.5133083638998315  0.4127643585563590
  0.0940480179323444  0.6095643807453683  0.5043024376217033
  0.0936941384775594  0.7110319050853633  0.5998321342208968
  0.0925802264185123  0.7994364180591376  0.6977291898745648
  0.0855140162115688  0.8896620472761825  0.8070020128605719
  0.0921878857039360  0.9914649173572414  0.9059598519222902
  0.2237058031064620  0.0947442548566784  0.0951612104333677
  0.2071419503690635  0.1909959602409117  0.2013749300366783
  0.2100903563827359  0.3022613213784382  0.3081952660417500
  0.1908781229905330  0.3946143413485501  0.4110803070235036
  0.1984194824072816  0.5038471262962432  0.5072521754290662
  0.2004994991622482  0.6103389992301800  0.6088453199293582
  0.1938018181406491  0.7152083552959283  0.6969858855227997
  0.2062487737173413  0.8002506058959398  0.7844120504460435
  0.2021138699452081  0.9026177779287252  0.9064071824480351
  0.2191855304985708  0.9871168767830483  0.9989387827740828
  0.3099951324548300  0.1044338563600959  0.1853630453289838
  0.3128699637730392  0.2073605053661183  0.2951951867952758
  0.3041215613820611  0.2857898976588302  0.4074061096771260
  0.3012127817778349  0.3964461780555197  0.4953378902323067
  0.3093428293257290  0.4928027763437939  0.5918974867545188
  0.2971203106461999  0.5898262573020006  0.6930796884481296
  0.2857436829235169  0.6995112330752136  0.7971892251958508
  0.3014883679753666  0.7978431988407380  0.8989772426753646
  0.3074656518588981  0.8890820540687443  0.9943767730833670
  0.3163807222750563  0.0035288026989093  0.1011468441787784
  0.3978367776117366  0.0968708526921134  0.2947239233799763
  0.4034734392971941  0.2039052361545046  0.4030093474618468
  0.4010912040936461  0.2967851913236430  0.4959964882488777
  0.3926660852239294  0.4008605524611681  0.5956916700629478
  0.3934215355703472  0.5037842113843212  0.6967115432685773
  0.3986422211656020  0.5924453289860949  0.8014002966082501
  0.4030795480686535  0.7041807648417304  0.8988354960829597
  0.4038874636598280  0.7922243173481860  0.9982814843997616
  0.4021448919983683  0.8964467608567688  0.0970637820948212
  0.3848434017117270  0.0084337875288654  0.1958817724041140
  0.5006081872933947  0.1033701068695407  0.3984266548929014
  0.5021318258388803  0.2030677987592284  0.5025359711089976
  0.5146508142009694  0.3042220925598897  0.5945420178417820
  0.4966409197119930  0.3915340542498740  0.7085372544491264
  0.4910067056106513  0.5040360503554737  0.8042148009781300
  0.4978324865280968  0.6158671507494446  0.9016614151156972
  0.4888179939319812  0.7046986052619673  0.9986958732961995
  0.5064677829099296  0.7708608386541655  0.1086058474844904
  0.5010090549291277  0.8919317067427457  0.2102538681338615
  0.5064054222705252  0.9921012923968675  0.2962006602363800
  0.5939656405379736  0.1014732848797735  0.4870418973871296
  0.5944481755196307  0.1945308703527573  0.5964015468912720
  0.6115582420866730  0.2968119213874942  0.7100370601820387
  0.6027163379069904  0.3982792270072011  0.8195799673957325
  0.5923091545532770  0.4993603504958557  0.9038384037494893
  0.5782385305438567  0.6129554449123731  0.0047746397681507
  0.6076701340397577  0.6923412919440324  0.1042601480777066
  0.6227030308382027  0.7808625571706713  0.2098067681021618
  0.6138726368699920  0.8938180224607137  0.2988517212335253
  0.6034458479373299  0.9957880967259882  0.4045826219263660
  0.7034927346827899  0.1091440864013009  0.5957680781596721
  0.7073434515237977  0.2077219788977942  0.6871018711225858
  0.7051003332880512  0.2913725404157077  0.8114630222342996
  0.7060410763936034  0.3888643164425147  0.8957634166553490
  0.6906090540234544  0.5101491790064756  0.0045952298147895
  0.7068054901960750  0.6049313657564639  0.1032440442874645
  0.7141838867001766  0.6960080387628480  0.2143243852737413
  0.7098318819906737  0.8088447479961971  0.3012197314676470
  0.7065521382964306  0.8901867146673936  0.4210867504415177
  0.7060973490920617  0.0082707145768239  0.4997044790110010
  0.8153692451206780  0.0969872807136696  0.7050437911515672
  0.7952525834352215  0.1915421500701910  0.8016072875062292
  0.8078493374994338  0.2981775161889217  0.9188907517094620
  0.8051212104333629  0.3951942611963943  0.9905174958112610
  0.7929054322329421  0.5149257573699231  0.0859597473169416
  0.8028900049812080  0.5817246678440426  0.2085026355114792
  0.8159629031381641  0.6971853027215502  0.3127519408594850
  0.7956549042249677  0.7951313304351757  0.4016967092333488
  0.8114243042159117  0.9058705954806854  0.4987449680749876
  0.8061270900692818  0.0007943368201779  0.5843453955531430
  0.9001652950233208  0.0890352316261342  0.7933629411764684
  0.8973383190689646  0.1806447181089510  0.8900548181859378
  0.9234586378662328  0.2839174686410360  0.9962926853235530
  0.8969958135217126  0.4018311130734062  0.0986817583661619
  0.9115512145088971  0.5020685024679636  0.1950253217407081
  0.9036395938051882  0.5868455241588535  0.3118398039215720
  0.8960661979803461  0.6939546035411865  0.4088502925327191
  0.9014887279807979  0.7992915804012171  0.4840923162613748
  0.9133771629760474  0.9022250853597811  0.5974991409681678
  0.8915442476112858  0.0009547860345052  0.6974566693836906
  0.0067067748947167  0.0898491409681625  0.8991290657972186
  0.0041217203278521  0.1760387288864749  0.0075879744599945
  0.0129965693067078  0.2945763397183327  0.0935757732192215
  0.9998619680297054  0.3986549513200188  0.1931467028936282
  0.0034134592220241  0.4987264705882382  0.2991747851288338
  0.0215448811302821  0.6018422234297844  0.4028131060091482
  0.9943546619571606  0.6957123837340973  0.4958927686455610
  0.0104573758094446  0.7960465507403853  0.5999165847031662
  0.9912042217995776  0.9093589811166964  0.7043353090612712
  0.9986363569261414  0.0076061979803441  0.7976057184259417
  0.2000586550740380  0.2023124507539720  0.0002403083820113
  0.1987578666847796  0.2942988479826099  0.0927622089389999
  0.2132574645655012  0.3963033704659722  0.1985713259068049
  0.1951547285242015  0.4966036104695917  0.3045425716614574
  0.2053189833808844  0.6023143671602611  0.3982293873115097
  0.2053111429606460  0.7007030453289858  0.5067662681700824
  0.2092759158628823  0.8156589965131573  0.5949217311959458
  0.1980828039668552  0.8965848942625527  0.6853715382873702
  0.1849685740162101  0.0008027641171964  0.8132128451750233
  0.1886215849295851  0.1027584662409993  0.9120250658877893
  0.2949142448942652  0.2077830054793282  0.1005199039985527
  0.2936103210614505  0.3071761187338709  0.2093506298962993
  0.3099672807136713  0.4108876515871955  0.3057058121632039
  0.3039547566000991  0.5113561712629604  0.4050257519358809
  0.2912587990762106  0.6129689258705824  0.5021196572023712
  0.3098976882669930  0.7212458991079131  0.5966874817733085
  0.3005161907349532  0.8147050577367239  0.6980981365756449
  0.2940358180500837  0.8925297740343225  0.8040611882443542
  0.3040306140470079  0.9790325449440758  0.8974478272879622
  0.2881829543087449  0.1018207553321560  0.9908807453697435
  0.4029954100439284  0.2225425010188857  0.1884517071955827
  0.3875069098401482  0.3049377226826095  0.3002638418693095
  0.3931309989584761  0.3903670624462237  0.3959218924059229
  0.4005158574469050  0.5139068527826822  0.4816141828555871
  0.4085177675134730  0.5955224376217032  0.5891569668976118
  0.3821832033691095  0.6900893243671575  0.6998948779604248
  0.4003910333740919  0.8059859362405462  0.7849233432957448
  0.4034925064529276  0.8851651958520108  0.9060233265407760
  0.3942290748539605  0.0016605031019310  0.9808320268985184
  0.3912679703844617  0.1096488823982256  0.0883373069782181
  0.4876563845491972  0.2196208119367853  0.2950486147715452
  0.5025832060861291  0.3115448775075862  0.4011196196168996
  0.4827670470497694  0.4155235126567973  0.4989105058189551
  0.4947298627903791  0.4916239057193295  0.5974716954218167
  0.4999542082144615  0.6009595960693730  0.7113419150477753
  0.4936511923198807  0.7094826015487001  0.7992024797355413
  0.5071446420323298  0.8036819349726017  0.8968189630032128
  0.5054909446180318  0.8903719924829048  0.9986644599918506
  0.4896513974550558  0.0005600534347678  0.0992251985690373
  0.4988515731558181  0.1001965833446548  0.2008468695376564
  0.5998558977494000  0.2062764253045302  0.3907769270479520
  0.5930433808812197  0.3179833319748226  0.4906610677897021
  0.5900814069646358  0.4041552135126594  0.5923405180455532
  0.6101356604628023  0.4945498949418123  0.7064572105239293
  0.5914209355612883  0.6059714948150159  0.8089940596839185
  0.6050747760720938  0.7132640311551839  0.9157063410768487
  0.6086995195399183  0.7993814137571889  0.0058452035502441
  0.5892053679300844  0.8968853040800653  0.1018523597337335
  0.6073320576914369  0.9894508703527620  0.1896712190372654
  0.5964691527419248  0.0948792741022473  0.3090147769777687
  0.6912097835439042  0.2249740415704409  0.4959948390164399
  0.7048338110763908  0.3150810157134458  0.6039807983516710
  0.6924628225331730  0.3897753670244057  0.7160869777657055
  0.6932813920210137  0.5007220101435479  0.8128564819091579
  0.6960942865552724  0.5867443667074212  0.8871940832314422
  0.6954255110265848  0.6940561762441675  0.9871300950957718
  0.6943247122220697  0.7845682629171762  0.1050561653760838
  0.6988435665443973  0.8910138925870612  0.1857143888964359
  0.6930476860028065  0.0052893180274438  0.2857026463795691
  0.6934113571525629  0.1095614635692641  0.3922610614499860
  0.7974154666485518  0.2036202046823377  0.6056814359462024
  0.8054820835031506  0.2921592523660763  0.6946997844495755
  0.7934313145858809  0.3885510329212494  0.8101117216863685
  0.7956196549381858  0.4836223692433066  0.9049905565367027
  0.7851939804374410  0.6016830693293471  0.9985147475433607
  0.7975648589412643  0.6974543907077830  0.0819573513562446
  0.7847313562468869  0.7893574817733082  0.1965358560883956
  0.7880453104197827  0.9049586274509807  0.2920015038717594
  0.7921435448082264  0.0181061486211078  0.3894898523751280
  0.8071503156274034  0.1090803056649889  0.5045062360186563
  0.8982477996649010  0.2031653878549093  0.6932521324095475
  0.8979373957342744  0.2926617049313975  0.8089743146311648
  0.9037141719875024  0.3923399483765806  0.8990443313861363
  0.9108474201874728  0.5058451138885118  0.0004443920662922
  0.8913522632794439  0.5976997935063153  0.0903038645111636
  0.8911455558574488  0.6849860086944730  0.2043915373816958
  0.8963956074808692  0.7932702975139279  0.2906314137571897
  0.8880064035683546  0.9087565575329464  0.3874726169451606
  0.9021503862699802  0.9902542254222695  0.4916406964633424
  0.8927844436897132  0.0998497812797154  0.5909308209935276
  0.9911756446135058  0.1953420662953391  0.7906954938187738
  0.9867377734003497  0.2875432993705545  0.8928167993479121
  0.9952168011592661  0.4101550545668644  0.9915591808178235
  0.9933291332699383  0.5068170882579395  0.0972243499524552
  0.0054064483992207  0.6085256962369243  0.2005559892224795
  0.9964240488158325  0.6920120314268914  0.3051380174795071
  0.9931897210523957  0.7983195847484481  0.3954136018656911
  0.9994147280713648  0.9186770724086415  0.4915337431508391
  0.0051081823121848  0.9935825001132059  0.5921669152741913
  0.9970308114839455  0.0906866222886364  0.7021214042476132
  0.0937319277272124  0.1945762953403047  0.9127835592990081
  0.0822272635058638  0.3110344038400612  0.9952646791649684
  0.0967912543585570  0.3941083688810423  0.0993335710727692
  0.1103506461984338  0.4982537200561552  0.2036919884073711
  0.1145434601276989  0.6040835017887076  0.3027909477878907
  0.1153299578861535  0.7063094162930739  0.4056202191731231
  0.0909866585155967  0.8055483448806768  0.5018484182402787
  0.0942765991939467  0.8909314563238695  0.5953371819951983
  0.0966223850926085  0.0147235719784433  0.7055302698908648
  0.1034762038672312  0.0947990888919108  0.8129671557306537
  0.2905975709822002  0.2949797554680060  0.9845152864194162
  0.2970060739029989  0.3998346062582101  0.0794434596748630
  0.2989922841099499  0.4943395408232547  0.1927874944527446
  0.3019582040483613  0.5828514413802495  0.2820131327265329
  0.2887996834669195  0.6910388896436146  0.3977132174070519
  0.3139342163655314  0.8143827835891884  0.5004080269890849
  0.3155607195580288  0.9155048236199761  0.5944928130235922
  0.3082563664357210  0.9838738577186064  0.7203758221256180
  0.2837524041117589  0.0870688217180628  0.8013546515419137
  0.2995399678485740  0.1899694728977011  0.8998821550513938
  0.4050769361046989  0.3107666662138300  0.1077763274917345
  0.3973183371824476  0.4065694615767796  0.2010503097405234
  0.4063187062446261  0.4914689217950468  0.3001878041932713
  0.3896351564551921  0.6021880632160475  0.4018013621337673
  0.3964834673730948  0.7016865127020822  0.4965443322918048
  0.4020378358918606  0.8102403409862760  0.6049135045057312
  0.3975152850609049  0.8902161282434449  0.7021034660145844
  0.3995338364352676  0.9927980935561322  0.7891221912783593
  0.3934166277226794  0.0884718299144112  0.8910167114975351
  0.4045344282932604  0.2099259878639685  0.0001918747452763
  0.5108174890187058  0.2914753335144695  0.1870292759136021
  0.5001380989901705  0.3897161721686331  0.3039974070551992
  0.5098235760539751  0.5031845890503988  0.3899003912511887
  0.5016135448082224  0.5981429298555483  0.4982881266132324
  0.4954234071457648  0.7048968523298456  0.5874048263370000
  0.4976275936240526  0.7998190408911867  0.6918376583797468
  0.5119150595480662  0.8996267309695227  0.7796196218810820
  0.4884628410994907  0.9956886759045389  0.8910464982112956
  0.4894008662772293  0.0947373912059035  0.9899267671964864
  0.5123582647285261  0.1992213499071696  0.1016887044332719
  0.6003301181904632  0.2979702404564577  0.2947111058280143
  0.6005254159308038  0.4002297500339651  0.3898114228139278
  0.5927309831091776  0.4969389829280431  0.4964110188833075
  0.5963959330706885  0.5937763836435295  0.6046888280577818
  0.5986747642983303  0.7119756948784115  0.6917669750486795
  0.6141562518679535  0.7997576216999533  0.7854950867182922
  0.5908410560159396  0.8958913381334028  0.8941321269754994
  0.5913099094325958  0.9937696381832168  0.0100284802789474
  0.5962394787845824  0.0951345845220288  0.0908027043427069
  0.6014769152741906  0.1949301249830171  0.1918052076257766
  0.6941937617171590  0.3017499524521128  0.3922074206403110
  0.6979437938685891  0.4036128487977209  0.4958927097767543
  0.7013630987637569  0.4961666716478774  0.6099901607571425
  0.6973471321831255  0.6031775243399906  0.7090378173255445
  0.6909058615224382  0.7012951723044907  0.7925053380428366
  0.6928002717022110  0.7945561395643708  0.9057491803649853
  0.6930714626635890  0.8912596313906604  0.0012425236607356
  0.7025467427432872  0.9852911665081763  0.0992547851288350
  0.6934686414889271  0.1052728977041184  0.1909264017570109
  0.6978487329620080  0.2045570950504896  0.2974417665172311
  0.8042327532491029  0.3023884223158078  0.4963531458588051
  0.7959607295204449  0.3976522619209319  0.6004022007879399
  0.8057505959335245  0.4907375791332669  0.7092980998958467
  0.7976252008332239  0.6010027043427044  0.8028346035411857
  0.8001672567133085  0.6943992519132394  0.8969086614137609
  0.7992581678213995  0.7986383643526693  0.9968401666440272
  0.7957123674319604  0.8835467187429273  0.1082366055336692
  0.7855317687814178  0.0109519942942526  0.1995202200787958
  0.7895378259294503  0.1011219702938888  0.2884584689580194
  0.7920056586514548  0.1862307222750559  0.3989021890141728
  0.9100299977358119  0.3057630426119644  0.5918091006656709
  0.9048245623330189  0.3941977797400682  0.7276919173119580
  0.8974217954988006  0.4843874269800281  0.8275845990128161
  0.8892071118054616  0.5951405135171868  0.9021469211610764
  0.9176896064846289  0.7042596005977444  0.9964415568536893
  0.9110508535977928  0.7904117502150996  0.1093247199203020
  0.8992215989675287  0.8985372213920186  0.2006676434361268
  0.9003059815242480  0.9954334130326501  0.2904029239686636
  0.8902106611420564  0.1017111941312336  0.3863730960467322
  0.9085198396956926  0.1925030308382034  0.4903900810578250
  0.0095798799981921  0.3026698876964176  0.6984795983335630
  0.0001795747860314  0.4055261386586935  0.7999956305755589
  0.0128772761853000  0.5074443327446474  0.9150093705565396
  0.0182475823031325  0.5955949825657711  0.0000522791287381
  0.9993695852012863  0.6909391522890900  0.1120516533079723
  0.9929235248833947  0.7830021550513990  0.2167645559933007
  0.0227086541683619  0.9087842150070173  0.3073381325001137
  0.0020844541049669  0.0287864248516954  0.4133904052891353
  0.0020354503464191  0.0829272730154429  0.4970249621881067
  0.9986398025630550  0.2065164325499254  0.5973025920391279
  0.0976338255671791  0.2928819150477722  0.8054080269890846
  0.0894666322510531  0.4022360680161228  0.9121018874247184
  0.0937901648326758  0.5055970284834501  0.0128184789204369
  0.1097999723769405  0.6034165588914533  0.1175325499252793
  0.1125437236788471  0.7130191088167379  0.2132297156183469
  0.1070836204320074  0.7994692347054269  0.3169918530090996
  0.1101529117420625  0.9191777629851003  0.4044558058234813
  0.1186770674274342  0.9999148476203388  0.5242330118190495
  0.1065548304125343  0.1081822886383179  0.5974427781551412
  0.0935134583163517  0.1867945999184926  0.7083670819182188
  0.1911043377258537  0.3040339025494703  0.8955452778155149
  0.1946789150024912  0.4064443019517299  0.9886960847710924
  0.1854595408232598  0.4906066847801469  0.1002086215641000
  0.2090510854503478  0.5920685110718651  0.2043912104333643
  0.2223458520128574  0.7036564859846948  0.2754656310283963
  0.2096608744282946  0.8011280029887260  0.4060544455010628
  0.2107695743331988  0.9008903731377060  0.5013852529094791
  0.2050481492550844  0.0087910727709115  0.6119687764343595
  0.2111970067472697  0.1119457179731000  0.7046146864103591
  0.1958428284200551  0.1830624376217003  0.8067856609156365
  0.3935978381560474  0.3960903989494184  0.0017279812525501
  0.3874780460082405  0.4897531454059703  0.0910432717474947
  0.3912935063170764  0.5757663659828864  0.1926328619299937
  0.3781044219535374  0.7106366997237714  0.2938483525789053
  0.3989192768192709  0.8118847493547108  0.3964675646424851
  0.4110645419553478  0.9102181017071942  0.4988711474890195
  0.3977836960557894  0.0090211982067672  0.6025366743648988
  0.3935117393470122  0.1188955680840493  0.7054075003396250
  0.3968102200787911  0.2205975324910554  0.7956993959154133
  0.3925469225195855  0.2992908730697792  0.8922044889734195
  0.5074184743920682  0.3959895227097761  0.0935736281302368
  0.4981185024679604  0.4988794407462791  0.1930827206448384
  0.4975907372186725  0.6045759443916126  0.3017234533351427
  0.4969056713308859  0.6966180858578994  0.3946712222071298
  0.4955500135851096  0.7964469098401494  0.4845111058280125
  0.4950989195308608  0.9104744056514065  0.5916082751437770
  0.4919367685550000  0.0053323425259251  0.7001371353529890
  0.5037409654485359  0.1079119127835924  0.7902753077027569
  0.5010741325906807  0.1982851360775228  0.9083114436444291
  0.4939925132454803  0.3065900461893776  0.0123490834578632
  0.6067170642575732  0.4026873386768131  0.2005324000362236
  0.5970215523253160  0.5053874410179802  0.3090774786034487
  0.6099576438889613  0.6091309740524409  0.4050083679753627
  0.5992938862473380  0.6871271335416367  0.4922088583978592
  0.5995072730154405  0.7991527600416646  0.5835185332608788
  0.6061741941765177  0.8899633419372392  0.6991387719059929
  0.6109475107548761  0.9918337979441176  0.7967517570076552
  0.6021383466920227  0.0986271081827681  0.9062881542362931
  0.6056078775528704  0.1908318271973926  0.0068422442602909
  0.5964008205406870  0.2970765290042081  0.0915783842774971
  0.7021713526241911  0.4023924149798503  0.2876827310600945
  0.6994400072453928  0.4830617212335255  0.4086322352035481
  0.6975822510528431  0.5909919204818195  0.5095092700267188
  0.7062281243490460  0.6944121881085010  0.5915740166644028
  0.7020308232577079  0.8005644853507192  0.6807294851243029
  0.7043527885703966  0.8970731521985229  0.7924358352578906
  0.6914075732463871  0.0021860403930631  0.9050071430512148
  0.7109240039849638  0.0937961988860181  0.0119009369198011
  0.6887865665896840  0.2075935538649674  0.0873806661232592
  0.7019014948150186  0.3091697138070018  0.1903822718833510
  0.8187999624145306  0.3920735384685088  0.3986165140605920
  0.8068856314812294  0.4896349042249710  0.4943897953176659
  0.8085773096952380  0.5977570760313355  0.6174860408458969
  0.8028248784132614  0.7058445455780458  0.6989324131684995
  0.7953801562287737  0.7943944033872228  0.7845470094642906
  0.7922400185663179  0.8994599221120296  0.8835440787030748
  0.7826584100892120  0.9938585545442180  0.0120827165693100
  0.8047376479645010  0.1052236711497514  0.1011051415115674
  0.7787986718290085  0.2134552492867812  0.1855778866096074
  0.8046422709776735  0.2948321899198447  0.3018427998913182
  0.9084214305121563  0.4074065163247766  0.4985246221075030
  0.9048020998052806  0.4885777376262297  0.6161086971878831
  0.9146457129918915  0.5928412887741672  0.7232218797264878
  0.8996678630620849  0.6944673545261040  0.7990421328623825
  0.8956756921613902  0.7972864325499245  0.8879554788751562
  0.8882243082914485  0.8981766557985793  0.9933013684734888
  0.8956873685640545  0.9943290861748864  0.1098762419055390
  0.8984902970610875  0.1037263985871490  0.2058891613458300
  0.8954474795091230  0.1895398867907474  0.2832991065525547
  0.9016555708010685  0.2873117570076502  0.3998437517547444
  0.9945008766924772  0.3885505035547681  0.5991898342616508
  0.0045835733369586  0.4928089503237771  0.7171055042340271
  0.0016686749988679  0.6019464067382145  0.8111981632930281
  0.0025551070959580  0.6957815278721213  0.9030394783317490
  0.0122814776072104  0.8028112760947366  0.0113549866413081
  0.9982676601910967  0.9021036100167521  0.0980355164606266
  0.0020065770049342  0.0020408382013315  0.1996833768056874
  0.0122660883937868  0.0909673309785788  0.2911420432006508
  0.0031691617986667  0.1825072974686393  0.4100538699452088
  0.0069714594937267  0.3032255621971629  0.5088976764932269
  0.0900722705248356  0.3931287202825686  0.7020143703301187
  0.1109501141149281  0.5064879916677967  0.7982127745324448
  0.1090691699497341  0.6062708658243920  0.8952330072906776
  0.1003863542091210  0.6940741022506032  0.0152896911651510
  0.1038611991124370  0.8029888040574207  0.1088320173889414
  0.0987238300955511  0.9054556378209497  0.1850947611284681
  0.1022323950550188  0.0039741683648060  0.2972695956165410
  0.1109482398224912  0.0964287370375416  0.3975394932753673
  0.0875588955304991  0.1853118896889043  0.4940532309921650
  0.0962425807181972  0.2988611710365419  0.5801627106824228
  0.1889224018475772  0.4097132509169938  0.8039798650545649
  0.2041862192636898  0.5109325816238766  0.9024192519132370
  0.2012151478512862  0.6091065597971266  0.0137565072680346
  0.1875485857899761  0.6979918095367452  0.1152387501698158
  0.2012557066521765  0.8079052248335827  0.2006590291174177
  0.2093621455418173  0.9148176253226481  0.2951896485984662
  0.1958308775981550  0.0097248521487145  0.4073345904089152