Li 
 1.0000000000000000
    22.0829999999999984   -0.0000000000000006    0.0000000000000000
    -0.0000000000000006   22.0829999999999984    0.0000000000000000
     0.0000000000000006    0.0000000000000006   22.0829999999999984
 Li 
 500
Cartesian
 -0.0900218000000000  0.1650191300000000  0.0271292600000000
 -0.1726065200000000  2.2717193099999999  2.2372187700000001
 -0.1230312600000000  4.6842504700000003  4.5457193499999997
  0.2217230800000000  6.4525890400000003  6.6192504100000003
  0.0392848000000000  9.0259345700000004  9.0649640300000005
  0.3477198700000000 10.7813921900000000 10.9588796700000000
  0.2294267700000000 13.1143324200000002 13.2577964000000001
  0.1368011000000000 15.2066370800000001 15.6179139599999992
 -0.1417270100000000 17.5830637699999990 17.7214458599999993
 -0.3337974600000000 19.9158631100000001 19.7562362699999987
  2.2451929700000002 -0.0276110800000000  1.9555051000000001
  2.3810052900000001  1.9350920400000000  4.2920060800000002
  2.2747588200000002  4.3120852799999998  6.3842790200000001
  2.2593016499999998  6.5469495799999997  8.6051506900000003
  2.5327416700000001  8.9059674300000005 11.0041382700000003
  2.0527796600000001 10.9302157300000005 12.9714632400000003
  2.1459275400000002 13.2418792199999995 15.2720004800000009
  2.2660514599999999 15.2154657300000000 17.4445518499999999
  1.9362543000000001 17.6755685299999996 19.9222815500000010
  2.0914888700000001 19.7696966100000004 22.0677248199999987
  4.8472162100000000  0.0345027000000000  4.3405910299999997
  4.8126670300000001  2.0620245000000001  6.4199316000000000
  4.3210460099999999  4.2724901900000001  8.6193513300000006
  4.6393584499999996  6.4244500999999996 10.7975180900000005
  4.2992918099999997  9.0315386400000008 13.0236242299999994
  4.4090656299999997 10.8194270499999998 15.5065708200000003
  4.2422724399999998 13.2200266099999997 17.4078365800000014
  4.1472923499999998 15.5473777399999999 19.9378665300000009
  4.6989105200000001 17.5251227500000013  0.2281037800000000
  4.4289733099999999 19.8900355900000001  2.2220507500000002
  6.8028774800000003  0.0531207200000000  6.7218860600000001
  6.4907324800000001  2.3609069599999999  8.8458059500000008
  6.9895383000000004  4.3245378700000003 11.3491071199999993
  6.5055534599999998  6.6063444300000000 13.3646431900000007
  6.5923294900000000  8.5569100099999993 15.2875719900000000
  6.4731122100000000 11.2356601499999993 17.7693064199999995
  6.3880028199999996 13.5382700600000003 19.6485812099999997
  6.5620912100000002 15.6242617399999997 -0.2202726200000000
  6.3319516199999999 17.5104411999999989  2.1882861400000002
  6.6607858999999996 19.6719321200000010  4.1878820899999996
  8.9643170600000008  0.1917659400000000  9.2862532000000009
  8.9292409500000005  2.4057406100000001 11.4639956000000005
  8.9173931999999994  4.4884621400000002 13.7137205600000005
  8.8827934800000001  6.8611166399999997 15.5383415800000009
  8.8360325599999996  9.1380254799999996 17.6641746099999999
  8.5514402599999997 11.5196236400000007 20.2195305099999985
  8.9734546399999999 13.3537074899999997  0.3296086900000000
  8.7311722300000003 15.5308585400000005  2.2767554699999999
  8.5716784799999992 17.8245993700000014  4.6644263600000002
  8.6778079399999992 20.1091636300000012  6.6348165999999997
 11.2543220599999998  0.2386306800000000 11.0862024699999999
 10.7922868199999993  2.6674570499999999 13.4337455099999996
 11.0409320100000006  4.6661166600000001 15.4973798899999995
 10.9362460699999993  6.7587073599999998 17.7577128900000005
 10.9351695400000004  8.8516701399999995 20.0486596800000001
 10.7836875499999998 10.9638548700000005  0.1356931700000000
 10.7725302099999993 13.4068322000000002  2.5664685999999999
 11.0503917200000004 15.1895908199999994  4.4672828899999999
 11.0009500599999992 17.6710146700000017  6.6460397599999999
 11.1699914400000004 20.0918540999999991  8.7799811000000005
 13.1988863999999992  0.4047423600000000 13.3365607300000004
 13.1436603299999994  2.4009566300000000 15.4746444499999996
 13.2141164399999997  4.3243120900000003 17.7133690100000010
 13.1719012299999996  6.3818752300000003 19.9482570700000004
 12.8973963499999993  9.1205727299999992 -0.0450516500000000
 13.3029760600000007 11.1494424799999994  2.5072974000000001
 13.2286507800000006 13.1452412699999996  4.6671999099999999
 13.4459952800000000 15.3107432899999996  6.7963025799999999
 13.2181392199999994 17.6892833600000010  8.7871914199999992
 13.1293611800000001 19.9912313899999994 11.1435582199999992
 15.7093443700000002  0.1491561500000000 15.3457055300000000
 15.4766159099999996  2.3442099100000000 17.4486772399999985
 15.3235685700000008  4.2952347000000000 20.0742035100000003
 15.2449873700000005  6.7788338599999998  0.1533964000000000
 15.3298323399999994  9.2616255499999998  1.8801440599999999
 15.4419389999999996 10.8662193299999998  4.4017614399999996
 15.4359196900000004 13.0628887200000001  7.1281019499999996
 15.5482102999999992 15.2891586700000008  8.8466827899999991
 15.6371405499999998 17.6006833000000000 11.1922975999999998
 15.5335475699999996 20.1625895399999990 12.9562078599999992
 17.6146965400000006 -0.1012656400000000 17.4640360000000001
 17.4942962400000006  2.2979197199999999 19.4780949800000016
 17.7376965999999996  4.4609395699999999 -0.2437866000000000
 17.6324180300000002  6.6677475199999998  2.0108748200000002
 17.6547387399999991  9.0018176499999996  4.5198502600000001
 17.6064976199999990 11.0294739800000006  6.6867250699999996
 17.5606638299999993 13.1264465900000005  9.3973916699999993
 17.6629115900000002 15.4003008399999999 11.1396016099999997
 17.7516154700000008 17.6946362400000012 13.1653952200000006
 17.5539613199999991 19.5839611699999985 15.3531030000000008
 19.5274523100000010 -0.1664514200000000 19.4858711299999996
 19.5426411100000017  2.0790602699999998 21.9056060600000002
 19.5372650999999991  4.2307219399999996  2.1215238200000002
 20.0153979799999995  6.8854102499999996  4.6387373800000002
 19.9122902099999983  8.7396502900000002  6.8256634099999998
 20.1352010499999992 11.1060039899999996  8.7571234600000007
 20.1198972699999992 13.0883296100000006 11.1781549899999995
 20.0232225100000001 15.2812796100000003 13.6688622300000002
 20.1428630700000006 17.5407331199999987 15.3285425199999992
 19.8786671800000008 19.7151011599999997 17.2731349700000010
  2.2918132700000000  2.0901640100000001  0.0337831000000000
  2.2110706699999998  4.1979284999999997  2.2158191800000000
  2.4610779599999999  6.4991663500000003  4.1502217300000002
  2.3256781900000001  8.7676236500000009  6.5784032000000003
  2.5212086999999999 11.3353885999999999  9.1150753299999998
  2.0768623800000001 13.4610102200000004 11.1365107299999995
  2.0690476599999998 15.7017175600000005 13.2460930200000000
  2.0444491400000002 17.6539544200000016 15.4079537000000002
  1.8884060199999999 19.6464069899999991 17.8210254500000005
  2.0357850800000001 21.8945197699999987 20.0063114099999986
  4.9400952499999997  2.0922373799999998  2.1014450099999999
  4.5743156899999997  4.2177637900000002  4.4469625800000001
  4.6394253399999998  6.6748367599999998  6.8058760600000001
  4.2151615900000001  8.7142684999999993  9.0778864200000005
  4.3816974300000000 11.1264560899999996 11.2016497899999994
  4.4276304399999997 13.4781161199999993 13.4451312000000005
  4.2797255500000002 15.7939461100000003 15.3915393100000006
  4.5545916699999998 17.6719341300000004 17.3221713100000017
  4.4632805900000001 19.9325083899999989 20.0161898100000002
  4.8402740700000004 21.7985019899999983 22.0595651400000001
  6.8456225100000001  2.3062128500000001  4.0933721299999997
  6.9091074099999998  4.5791420399999998  6.5187953099999998
  6.7159164400000000  6.3110983100000002  8.9967491200000005
  6.6516818600000001  8.7547209499999994 10.9385466299999994
  6.8312176999999998 10.8825637099999994 13.0708722000000002
  6.5613078199999997 13.0251332400000006 15.3052787600000002
  6.3100777499999996 15.4473065599999995 17.6043296600000012
  6.6577676300000004 17.6187713600000002 19.8521144499999984
  6.7897639900000000 19.6335990000000002 -0.1241777200000000
  6.9866354900000003 22.1609265499999992  2.2336257599999998
  8.7854295600000007  2.1391990399999998  6.5083884000000003
  8.9099039599999994  4.5028393299999996  8.8996554200000002
  8.8572970600000005  6.5539073800000001 10.9530904499999995
  8.6712451599999998  8.8522035799999994 13.1546591500000005
  8.6879277699999999 11.1250667399999994 15.3854810099999995
  8.8032161700000007 13.0829702000000001 17.6973227500000014
  8.9012056600000005 15.5504238299999997 19.8489842600000017
  8.9190468599999999 17.4946896000000010 -0.0379499800000000
  8.8805656499999994 19.7962338200000012  2.1434595000000001
  8.4984968399999996 22.2692433299999983  4.3256571800000003
 11.0549306000000005  2.2827220700000002  8.7984558199999992
 11.0885771099999992  4.4843462000000001 11.0975018500000004
 11.3650339299999992  6.7181364700000001 13.1292713800000005
 10.9673214300000001  8.6462465200000000 15.6466281899999995
 10.8429010800000007 11.1306280999999991 17.7594754500000001
 10.9936348000000006 13.6001942899999992 19.9113890299999987
 10.7945677599999996 15.5618593000000001 -0.0287990300000000
 11.1843280499999995 17.0229199000000015  2.3983429300000001
 11.0637829599999993 19.6965278800000014  4.6430361700000002
 11.1829509399999996 21.9085728400000015  6.5409991800000000
 13.1165432400000004  2.2408345500000002 10.7553462199999998
 13.1271990600000006  4.2958252100000003 13.1703353599999993
 13.5050406600000006  6.5544976600000000 15.6797483999999994
 13.3097848899999995  8.7952001699999993 18.0987844200000012
 13.0799630600000008 11.0273746199999998 19.9594634699999993
 12.7692414700000008 13.5358950900000004  0.1054383700000000
 13.4191795700000007 15.2889727499999992  2.3023768499999999
 13.7511510300000008 17.2437878500000004  4.6331628599999997
 13.5561494400000004 19.7381833899999997  6.5995425599999997
 13.3258946599999994 21.9899885399999988  8.9343980399999996
 15.5352300600000000  2.4102288600000001 13.1563464700000008
 15.6202654400000007  4.5871244600000001 15.1732706200000003
 15.5707306600000006  6.4343798100000003 17.9195379199999998
 15.5915050900000001  8.5872907000000005 19.7811435300000014
 15.2507197399999992 11.2656243200000006  0.1014764600000000
 15.6083856399999998 13.3586993500000002  2.2799382300000000
 15.7713227699999994 15.3699455199999999  4.7329254000000001
 15.6752174499999999 17.8617185700000007  6.6518353299999999
 15.6027908699999998 19.6579932200000016  9.2988587099999993
 15.5927477600000000 22.2656421900000012 11.0349740100000009
 18.0057990399999994  2.1417701199999999 15.5694820400000005
 17.5615628000000008  4.2298252999999999 17.7018937299999983
 17.8397369200000000  6.5846540899999999 20.2918644700000002
 17.7794916900000004  8.7270748699999992 -0.2094021400000000
 17.5097306599999989 11.3711055000000005  1.8982490999999999
 17.7302199800000011 12.8462258400000007  4.6043637000000004
 18.0189087900000011 15.3959430400000006  6.9065011099999998
 17.5704472500000008 17.5588851699999999  8.8706684300000003
 17.9186829100000011 20.0043403600000005 11.0137851300000005
 17.8017045299999985 22.1005413399999995 12.9040993700000008
 19.8783502100000007  1.9661650200000000 17.5198338299999996
 19.8159221000000016  3.9891773100000001 19.6550805500000010
 20.3927371000000015  6.2697494599999999 -0.0818686300000000
 19.8083585500000012  8.8736364699999992  2.1791892700000002
 20.1297854700000016 11.0871787400000006  4.3067441799999999
 19.9550731500000005 12.9593097099999994  6.8863583899999998
 19.7878298500000014 15.3245995100000005  9.0286410099999994
 19.9075755799999996 17.6507559699999987 10.6902106200000002
 20.1701078900000006 19.9238365600000016 13.1945735299999996
 19.6879716199999990 22.1040845399999988 15.4019356300000005
 22.2311057100000014  1.9841385800000000 19.8554671599999999
 22.1740199500000017  3.8874632500000001 22.2505652400000002
 22.3700032399999991  6.5051293100000001  2.0664338000000000
 22.0799518399999997  8.8034972899999993  4.2652586399999999
 22.1583794199999993 11.0133766499999997  6.6066767799999999
 22.5587756100000014 13.2904818200000001  8.8953218199999995
 21.9583340000000007 15.3634165700000000 10.9508000100000000
 22.3139302300000004 17.5790959800000017 13.2479579399999992
 21.8887628300000010 20.0813743799999997 15.5538366299999993
 22.0528866699999995 22.2509676700000014 17.6135270800000008
  4.4178952799999998  4.4676658500000004  0.0053067300000000
  4.3891699700000002  6.4990014599999997  2.0484678600000001
  4.7093645899999999  8.7515673300000003  4.3850505899999996
  4.3096018699999998 10.9664975299999998  6.7252136100000000
  4.5340591100000003 13.3009081699999996  8.7940995599999994
  4.5338859700000000 15.4736253500000007 11.1909194999999997
  4.6214400500000004 18.0121976199999985 13.1376565900000006
  4.3742625600000000 19.7992842200000005 15.1350596799999995
  4.0846610200000004  0.0177274400000000 17.9581792600000014
  4.1653304599999998  2.2692152100000000 20.1402495299999984
  6.5125912699999997  4.5884721099999997  2.2197810400000000
  6.4837967200000000  6.7833702300000001  4.6230899599999997
  6.8450074599999997  9.0736320100000007  6.7509014499999997
  6.7122328900000001 11.2922783300000003  8.9441836800000001
  6.4318680600000002 13.5361927899999994 11.0883083899999999
  6.8434706500000004 15.9272731899999993 13.1766496600000007
  6.6362990399999999 17.9911317900000007 15.4161011499999994
  6.4931929700000000 19.7097349999999985 17.7560832200000007
  6.7139080499999997 -0.4630243100000000 19.8183403700000014
  6.3639441799999998  2.2485077400000000 21.8816194999999993
  8.8993476400000002  4.9144060500000002  4.1615790500000003
  8.5573150899999995  6.7339397300000003  6.6307264200000002
  8.6815118499999997  8.6204758399999992  8.7431431499999999
  8.8445916800000006 11.3486050299999999 10.6354860000000002
  9.0212978600000007 13.1509219900000005 13.0103533000000002
  8.4397516800000005 15.2392425500000002 15.4557785899999995
  8.8418351899999994 17.7985874300000013 17.3334621899999988
  8.9103250200000002 19.5471030200000015 20.0077131199999982
  8.7057606599999993  0.0366688900000000 -0.4232863500000000
  8.6403705899999999  2.4213762700000001  1.9507527499999999
 10.7689159399999994  4.8498863900000000  6.5155585599999997
 11.0985449400000000  6.8798455299999999  8.8579245600000007
 10.6609446999999999  9.1760057300000000 11.0174406999999999
 10.9251195600000006 10.8565307099999995 13.1939674500000006
 11.0404887800000004 13.2709907600000001 15.7085635099999994
 10.9012992799999999 15.6675042900000001 17.6487883600000011
 11.1992751300000002 17.7477081699999992 19.8044531600000013
 11.1627565299999993 19.6620847099999985 -0.0294927300000000
 10.8129718100000005  0.0123676600000000  2.1911900599999998
 11.0161392899999999  2.2126411500000001  4.4353014200000000
 13.2466177900000002  4.5552023000000004  8.6295268800000002
 13.0961769799999992  7.0220259199999999 10.8352683600000006
 13.0307677099999992  8.9249595799999994 13.0806556599999997
 13.4736257899999998 10.9211453299999999 15.6006945800000008
 13.0603485199999998 13.3816685199999998 17.8650158200000000
 13.3618662799999992 15.7510095999999997 20.2215431300000006
 13.4419114900000007 17.6527397599999993  0.1290796300000000
 13.0114221400000005 19.8059181700000018  2.2492056599999999
 13.4117138300000001 -0.2329564300000000  4.1885095300000001
 13.1718282999999996  2.0952190100000001  6.8239733200000003
 15.2639856500000004  4.9681017599999997 10.9530540300000006
 15.5648450500000006  6.9579340700000003 13.3377079700000003
 15.2916565099999993  8.6074094300000006 15.8133487299999995
 15.3097329799999997 11.0574441500000002 17.9503096900000010
 15.3718501300000003 12.9570758500000007 19.5919069400000012
 15.3570815599999992 15.3268425399999995 -0.2842061100000000
 15.3327726200000001 17.3256209500000011  2.3199553000000002
 15.4325624799999996 19.6762597899999996  4.1011308499999997
 15.3045720500000009  0.1168040100000000  6.3091715400000004
 15.3126029999999993  2.4194458000000001  8.6623010199999992
 17.6093257500000000  4.4965449800000004 13.3752631500000003
 17.7874608499999987  6.4517527699999997 15.3410553400000005
 17.5213437200000008  8.5803724599999995 17.8896971499999999
 17.5696688399999985 10.6798327799999999 19.9849064600000013
 17.3394386699999998 13.2869672199999993 -0.0327988300000000
 17.6126247800000009 15.4018853100000008  1.8098641900000001
 17.3292225400000000 17.4313812699999993  4.3401013099999997
 17.4024045899999997 19.9842013700000010  6.4482692100000003
 17.4929059000000002  0.3998380800000000  8.6011044099999996
 17.8243004200000001  2.4088203899999998 11.1410112100000003
 19.8360061600000002  4.4865012599999998 15.3090868400000009
 19.8291515099999991  6.4628484300000002 17.8645797900000005
 19.9567200599999985  8.6640430800000008 19.8535959700000006
 20.1142435800000001 11.1705776500000002  0.0098135100000000
 19.6837320300000016 13.1990045400000007  1.9941802399999999
 19.6791673100000004 15.1265460300000001  4.5135783199999997
 19.7951042000000008 17.5177879800000014  6.4180135099999998
 19.6098454099999984 20.0680710600000012  8.5565578000000002
 19.9221869799999993 -0.2152159400000000 10.8569014999999993
 19.7153588699999993  2.2049827199999998 13.0495253200000008
 -0.1948682400000000  4.3137388500000000 17.4609285900000017
 -0.2928697500000000  6.3498186800000003 19.7160733800000010
 -0.1056273800000000  9.0574540700000004 -0.1863986100000000
 -0.1473127500000000 11.1920417600000004  2.1470053199999999
  0.1193906000000000 13.4380729500000005  4.4288779099999998
 -0.0789677300000000 15.2817016900000002  6.7383628399999997
 -0.1503913900000000 17.6292913899999988  8.7319185699999995
 -0.0129245600000000 20.2871457900000003 10.8545396499999995
  0.1128039900000000 -0.1417176500000000 13.0768219899999991
 -0.0655685900000000  2.0026326800000001 15.5049469700000007
  2.0698821600000001  4.2968283300000003 20.1569993399999987
  1.8158246600000001  6.8685727400000003 21.9784299099999991
  2.1374412700000001  8.7030951099999996  2.1935832500000001
  2.4368733200000001 11.0029368999999999  4.4981301800000004
  2.5294632300000002 13.3399759699999994  6.6865325000000002
  2.5468314599999999 15.5974308399999995  8.9573113000000006
  2.0092583799999999 17.7889240999999991 11.0823186200000006
  2.0819101400000002 19.6744393500000001 13.1468309899999998
  2.1337121300000002  0.3251406400000000 15.5802249499999999
  2.2850650099999998  2.0934482800000001 17.9527536999999988
  6.4172661599999996  6.5140379399999997 -0.3419489300000000
  6.5587851300000004  8.8295476100000005  1.7543499199999999
  6.6026466099999999 10.9165000800000005  4.2573262400000003
  6.6681430199999996 12.8711083800000008  6.2276960099999998
  6.3775634099999996 15.2602118000000004  8.7827009799999995
  6.9326093000000002 17.9840150100000002 11.0505104599999999
  6.9685273700000003 20.2170930200000001 13.1281847900000006
  6.8072253399999996 -0.3561136000000000 15.9080592799999998
  6.2661043400000001  1.9227407900000000 17.6963147700000007
  6.6147411099999998  4.1950958700000003 19.8720976299999990
  8.9453139799999999  6.8626602900000000  2.3800246399999998
  8.7739808400000001  8.9782734200000007  4.4397939900000001
  8.9727359900000003 10.8531081999999994  6.6290472800000000
  8.6043131600000002 13.2981189999999998  8.8729794799999997
  8.7555444100000006 15.4953432600000003 10.9651884899999992
  8.8782015300000001 17.8925374499999990 13.3583049200000001
  8.7783300400000002 19.6586427599999993 15.5045508400000003
  8.8229057100000006 -0.1590397000000000 17.4261853500000008
  8.6878193899999996  1.9537234200000000 19.6763220399999987
  8.9333337799999999  4.6357955899999999 22.0872371700000016
 11.2803826100000002  6.4366497899999997  4.1301674999999998
 11.0445496399999996  8.6061022299999994  6.7131747400000004
 11.2584340300000001 11.1118252799999997  8.6101703399999998
 11.0771319100000003 13.2087903200000003 11.0036967000000008
 10.9404351000000002 15.5662371900000007 12.9716607800000006
 10.9891101500000001 17.6624038799999994 15.2778510099999991
 11.3046202600000001 19.8664571000000016 17.2163401100000009
 10.7867249199999993 -0.0952069700000000 19.6769798199999997
 10.8074393299999993  2.0920858099999999 -0.2224472000000000
 11.3144075599999994  4.3994050700000003  2.2455916600000001
 13.2570899999999998  6.5800768200000004  6.5081053500000001
 13.2614027599999993  8.8382735700000001  8.6082056500000004
 13.0892783000000001 10.9739035600000001 10.9622445299999995
 13.1702113900000004 13.1123638800000002 13.3533433899999991
 13.2205348199999992 15.7225592699999996 15.2762901099999997
 13.5624125099999997 17.6610475600000001 17.3460880000000017
 13.0475430400000008 19.7839684200000008 19.7451197600000015
 13.0578967299999995 -0.1375850800000000  0.2214589300000000
 13.1667564099999996  2.1008570299999998  2.0051961199999999
 13.2824147200000002  4.3046419499999997  4.2356344000000004
 15.3298808399999995  6.6635441999999996  8.6611164699999996
 15.4126928000000003  8.9129825399999998 10.9507987100000008
 15.4882013100000009 10.9568486099999998 13.4704127200000006
 15.3995167199999994 13.3199692699999996 15.6576821200000005
 15.2572741399999998 15.4867012899999992 17.5008953799999993
 15.2991083999999997 17.5461832300000005 20.0016591499999983
 15.3050971100000002 19.6816864400000000  0.0274386500000000
 15.5143397200000006 -0.3248151700000000  2.1918434200000001
 15.3138680100000002  2.3247414000000002  4.2162277300000000
 15.4105935699999996  4.5172343300000000  6.5684065299999999
 17.7598718899999994  6.6776435300000001 10.9609665199999995
 17.5772007899999991  8.7813549000000002 13.2586817999999997
 17.7933904100000007 10.8369579599999994 15.6634299400000003
 17.6139573100000000 13.2719427200000002 17.7289965500000015
 17.6700935299999990 15.3344186800000006 19.8064339700000005
 17.6500181199999986 17.6363309999999984 -0.0697786000000000
 17.5717162100000017 19.5113621899999998  2.3901889600000001
 17.3468980500000001  0.2418528900000000  4.4060050200000003
 17.4353638099999984  2.2330764699999999  6.3700283700000000
 17.4898609600000015  4.1125330399999998  8.8089570399999992
 20.0961924399999994  6.7521652699999999 13.0689203700000007
 19.9812408099999992  8.7050695699999991 16.0696206100000012
 19.8177655100000010 10.6967275500000003 18.2755507000000001
 19.6363606500000003 13.1424879600000004 19.9221104599999990
 20.2653395799999991 15.5521647600000001 -0.0785811000000000
 20.1187359999999984 17.4546626799999984  2.4142177899999999
 19.8575105699999988 19.8423974600000008  4.4313435700000001
 19.8814569900000002 -0.1008439400000000  6.4129677699999998
 19.6585220300000003  2.2460882999999998  8.5322770800000001
 20.0628436199999989  4.2510444300000003 10.8292841600000003
  0.2115524900000000  6.6838591300000001 15.4245249700000002
  0.0039655500000000  8.9552337200000007 17.6663035099999988
  0.2843688900000000 11.2058932000000002 20.2061519300000008
  0.4029613600000000 13.1525239999999997  0.0011544800000000
 -0.0139214500000000 15.2580092999999994  2.4744366599999998
 -0.1562698000000000 17.2910365900000009  4.7868116900000004
  0.5014752099999999 20.0686818199999983  6.7869479799999999
  0.0460310000000000  0.6356906200000000  9.1289003199999996
  0.0449488500000000  1.8312829700000000 10.9758022400000002
 -0.0300372400000000  4.5605023800000000 13.1902331400000001
  2.1560477699999998  6.4677113300000002 17.7858254600000016
  1.9756916400000000  8.8825790900000001 20.1419459799999991
  2.0711682100000002 11.1650991800000003  0.2830704700000000
  2.4247127900000001 13.3252478700000001  2.5954712999999998
  2.4853030500000002 15.7456009800000007  4.7087518099999999
  2.3647275900000002 17.6546791100000000  7.0001310900000000
  2.4325067499999999 20.2982025399999984  8.9315975600000002
  2.6207456800000002 -0.0018804200000000 11.5766375999999998
  2.3530503199999999  2.3889894800000002 13.1933288700000002
  2.0650577000000001  4.1249851499999997 15.6428702699999995
  4.2201570899999998  6.7139806699999998 19.7763263699999996
  4.2990944799999999  8.9755095199999992 21.8333756399999999
  4.0955030399999997 10.8340674200000002  2.2129069900000000
  4.6164751199999996 13.0746489300000004  4.5135711000000001
  4.9100634500000000 15.5388461800000002  6.0831075300000004
  4.6299410900000000 17.6913096900000006  8.9669003200000006
  4.6544245100000001 19.8943621099999994 11.0720905399999996
  4.5280782799999999  0.1941332600000000 13.5141064899999996
  4.6638634999999997  2.4720972899999998 15.5600061200000006
  4.3247971800000000  4.0425678100000004 17.8162477499999987
  8.6918210600000005  8.7468642800000005  0.0381590100000000
  8.5566776900000008 10.8152187099999999  2.0105085699999998
  8.6409345000000002 12.7146486599999999  4.2539114900000001
  8.3496799500000005 15.6929902400000003  6.4890531700000000
  8.8093343900000001 17.9288509199999986  8.7551932299999997
  9.0775382800000006 20.1003463400000015 11.0165715500000001
  8.7842573599999998  0.1992151200000000 13.3058173800000006
  8.6899197400000006  2.6255708300000000 15.5775138299999991
  8.7627600900000004  4.8714553100000000 17.5714297600000009
  8.6686136900000008  6.6092403500000003 19.7025517299999997
 11.2053221700000005  8.7446366300000005  2.0663864300000001
 10.9999508899999991 11.0167546900000008  4.2638457200000000
 10.9882962499999994 13.3508505799999995  6.6629590199999997
 10.9731679399999997 15.3834171899999994  8.7155246000000002
 10.9432309500000002 17.5879371099999986 10.6994587499999998
 10.9332694400000001 20.1060063000000007 13.0644855399999997
 10.8634396599999992  0.1177541200000000 15.4611283600000000
 11.1241117400000000  2.3830187700000001 17.4516496200000013
 11.0652200700000005  4.3787306600000004 20.0582416099999996
 10.9088366699999995  6.7704279900000000 22.3557048099999989
 13.3981329299999992  8.8925444999999996  4.4283569900000002
 13.1840269400000007 11.1604708600000002  6.8253579599999998
 13.4696946499999992 13.4514393000000005  8.9437997899999999
 13.2342068899999994 15.1738284900000000 10.8694482200000007
 13.2389191099999994 17.6476903999999983 12.8858397700000005
 13.3861447299999998 19.6530604800000006 15.4390815000000003
 13.4915538799999997 -0.1803342400000000 17.5946690500000003
 13.2970211099999993  2.1779824300000001 20.0135613100000000
 13.3736387600000004  4.2141392399999997  0.1510972800000000
 13.1703193200000008  6.5603409900000003  2.0223254599999998
 15.5060499800000002  8.8860317000000002  6.3528977500000003
 15.4457336800000000 10.6674519900000000  9.0238256499999991
 15.4047088500000005 13.0508745800000003 11.2514932099999996
 15.5956356700000001 15.3347043500000009 13.0637290099999994
 15.5029466700000000 17.6788655299999995 15.0325492199999999
 15.5542226299999999 19.8100664199999983 17.4993605499999987
 15.2683534400000003  0.0482743300000000 19.9852727399999992
 15.6993347799999992  2.0713014599999999  0.2628083900000000
 15.2104737500000002  4.5842884499999998  1.9296272500000000
 15.5000907100000003  6.8273947899999996  4.2042117100000000
 18.0815595699999996  8.6581599499999999  8.8026484800000002
 17.8184554000000013 10.8126075900000007 10.9176098499999998
 17.8558127300000002 13.2002695100000000 13.6359442400000006
 17.7287817899999993 15.5871651000000000 15.4345244800000003
 17.5643799899999991 17.5426116100000016 17.3251516099999989
 17.4950363300000014 19.8627734599999997 19.5113038900000006
 17.2834456699999990 -0.1356215400000000  0.2668226300000000
 17.7710214800000017  2.3236543300000001  2.2327048399999998
 17.1982110699999993  4.7137322700000004  4.0981164699999999
 17.7689152700000008  6.5107792499999997  6.6655945499999998
 20.0606704499999999  8.9967580999999992 11.0089192300000001
 19.9807447700000012 10.7892621799999997 13.6055283599999992
 20.1981212799999987 13.0917141800000003 15.9709087699999994
 19.8673654199999987 15.3359225899999991 17.6452474200000005
 19.7792063099999993 17.6064762899999998 19.6087208400000002
 19.6146573999999987 19.8344350899999995 -0.1479258800000000
 19.7794641599999999 -0.1252307900000000  2.4263970499999998
 19.8413612300000004  2.2905900600000000  4.5466503500000002
 19.7741666900000013  4.1856093200000002  6.2560941699999999
 19.9112599699999997  6.3447055299999997  8.8297495700000006
 -0.1214371400000000  8.5803607700000004 13.2319091100000001
  0.1012190500000000 10.8827000500000004 15.8358408500000003
  0.0368493500000000 13.2927824999999995 17.9136890400000013
  0.0564244300000000 15.3649434800000009 19.9418207999999986
  0.2712118700000000 17.7284814100000006  0.2507521700000000
 -0.0382552600000000 19.9211540199999995  2.1649183100000000
  0.0443112400000000  0.0450678300000000  4.4096080100000004
  0.2708720300000000  2.0088315699999999  6.4292897399999998
  0.0699846000000000  4.0303086500000003  9.0552196100000000
  0.1539507400000000  6.6961300899999996 11.2379873900000007
  1.9890659500000001  8.6814615300000000 15.5025833399999993
  2.4501113700000001 11.1847743200000007 17.6269327000000011
  2.4085744800000000 13.3882795300000002 19.7694304999999986
  2.2168318600000001 15.3272384000000006  0.3376422500000000
  2.2935668599999999 17.7324017599999983  2.4033374400000000
  2.1801183399999999 19.9951768500000000  4.0874476099999999
  2.2575979799999999  0.0877615600000000  6.5646044799999999
  2.4500699799999999  2.1294358000000000  8.7788646299999993
  1.9335630900000000  4.0922424599999996 10.9101774999999996
  2.1253249099999998  6.5997512399999998 12.8117331399999994
  4.1719733999999997  9.0476977200000004 17.7542873599999993
  4.5090442800000003 11.2829242000000001 19.9281243400000001
  4.4434341100000001 13.4509001599999998  0.3037849500000000
  4.1416354200000001 15.4137531299999999  2.5448173199999999
  4.4443297700000004 17.8409710799999992  4.4311533399999998
  4.6233442599999997 20.2019176199999997  6.5186730099999997
  4.3245332699999999  0.2147539100000000  8.9951697599999996