Li                                      
   1.00000000000000     
    20.0207999999999977    0.0000000000000000    0.0000000000000000
     0.0000000000000000   20.0207999999999977    0.0000000000000000
     0.0000000000000000    0.0000000000000000   20.0207999999999977
   Li
   432
Direct
  0.0123402226684277  0.9870344731479292  0.9789131268480773
  0.9481803829017821  0.0695870050147818  0.0747797220890263
  0.8351198093982291  0.1669832354351470  0.1762204772037066
  0.7386480680092689  0.2361787975505507  0.2683070356828878
  0.6642431800927042  0.3454875993966269  0.3249309338288171
  0.5733355100695263  0.4056451959961649  0.3915293230040788
  0.5014716949372655  0.4851331170582611  0.5070685082514217
  0.4184771337808684  0.5681320996163990  0.5925205591185190
  0.3213732268440808  0.6697271232917785  0.6728833563094412
  0.2334935127467404  0.7660225450531470  0.7377079562255275
  0.1712500714257175  0.8247018445816323  0.8299018565691654
  0.0782910862702764  0.8983004125709257  0.8979885728842021
  0.0706768191081295  0.9280532695996158  0.0772087199312708
  0.0208861299248753  0.0019201969951226  0.2054017781507227
  0.9132733117557734  0.1067270698473592  0.2695388810636956
  0.8508589916486855  0.1821451485455157  0.3590335760808756
  0.7507812809677930  0.2927298184887732  0.4107678144729476
  0.6663800177815062  0.3368855670103059  0.4915548634420190
  0.5767846085071540  0.4274370115080330  0.5750897801286641
  0.5024762826660307  0.4782578288579913  0.7054470081115625
  0.3996723792256063  0.5693885064532864  0.7487935776792156
  0.3358969801406531  0.6954233706944777  0.8157190067329978
  0.2317567265044360  0.7533098592463858  0.8956811041516843
  0.1587390174218797  0.8432168644609632  0.9948015234156458
  0.1514348697354748  0.8392243281986751  0.1765174718292997
  0.0969979925877098  0.9258041781547206  0.2874747627467400
  0.9767179343482795  0.0083385643930285  0.3426798554503350
  0.9250859950651318  0.0822706690042381  0.4274621568568691
  0.8313843897346729  0.1966734675937047  0.4908603177695170
  0.7338581784943656  0.2839717663629813  0.5630781012746766
  0.6542050177815071  0.3672014385039546  0.6724944223008080
  0.5677684583033624  0.4134403625229766  0.7682706849876126
  0.4944493541716639  0.5069811960561026  0.8645210041556766
  0.4219019874330669  0.5975959856749000  0.8998957644050165
  0.3237652591305036  0.6662667845440708  0.0091124710301287
  0.2334876183768912  0.7485997932150568  0.0991227143770459
  0.2342839177255627  0.7582937075441549  0.2669008456205546
  0.1630911961559960  0.8336334117517765  0.3612990929433408
  0.0968507946735429  0.9306240969391837  0.4343777311595929
  0.9974819942260069  0.9838666721609499  0.5063689183249451
  0.9149533994645580  0.0886704192639627  0.5753355640134288
  0.7933692899384610  0.1964246463677810  0.6427944003236661
  0.7446879750059949  0.2735913065411992  0.7367697314792636
  0.6745298669383857  0.3565207039678739  0.8329595505674092
  0.5809135519060149  0.4173843462798672  0.9277255574202812
  0.4911428164708695  0.5138940052345546  0.0002079787021501
  0.4042263391073249  0.5609265174218834  0.0785771787341147
  0.3219927954926902  0.6688530343442807  0.1669537371134027
  0.3578388935507064  0.6661405138655780  0.3381090715655688
  0.2572467019299935  0.7534893221050112  0.4399251138815643
  0.1686783974666355  0.8306522226884070  0.5083719017222066
  0.0827255374410640  0.9287956120634533  0.5722103966874457
  0.9916070306880869  0.0062034773835222  0.6856005149644346
  0.9027076890034351  0.1065501118836423  0.7465536182370300
  0.8274354306521232  0.1834068618636593  0.8388606559178484
  0.7446516757572113  0.2433075431551188  0.9248848917126224
  0.6874929088747734  0.3196913564892512  0.0053868262007484
  0.5864328078798025  0.4196662496004180  0.0757755614161297
  0.4818795962199331  0.5075939487932573  0.1461807145568628
  0.4231862253256580  0.5741554033804874  0.2352724616398945
  0.4257810736833676  0.5711420342843425  0.4207762292216088
  0.3372950576400555  0.6581924998002080  0.5070831540198171
  0.2448796491648650  0.7376887561935561  0.5880746843282978
  0.1287944517701618  0.8178999165867467  0.6543820671501663
  0.0708294608607076  0.9058091799528469  0.7418481209542094
  0.9933187445057143  0.9951823998042002  0.8239425477503417
  0.9249833203468398  0.0919336634899679  0.9197452034883753
  0.8268717888396040  0.1543747462638834  0.0050619760449138
  0.7539791981339405  0.2439170153040848  0.0969087264245161
  0.6559159618996233  0.3197607967713552  0.1662206350395579
  0.5732251338607881  0.4206066490849523  0.2314370684488125
  0.4957221015144242  0.4860484151482467  0.3234901597338791
  0.0804483162511005  0.0554146942180154  0.9038340715655693
  0.0168867347958113  0.1557320876288628  0.9975078298569500
  0.9229596050107887  0.2189167350954975  0.0761994655558240
  0.8348862762726768  0.3171579507312430  0.1768013401062873
  0.7421498761288277  0.4123443049228825  0.2270644714496939
  0.6600798639414975  0.4936843233037607  0.3098885648925105
  0.5890104671141998  0.5570560092503811  0.4103525293694545
  0.5088840925437523  0.6453053809038636  0.5079880034763846
  0.4195783220450764  0.7298535233357342  0.5832938488971493
  0.3328191326020971  0.8279931036721777  0.6484707773915162
  0.2349209262367111  0.8825345955206600  0.7318386652881017
  0.1546937914568858  0.9920961145408782  0.8231964636777747
  0.1684175971989106  0.9884889400023980  0.9962256508231420
  0.0865504785023603  0.0733185017581732  0.0956938543914347
  0.0055613731719006  0.1847118346919174  0.1785568803444448
  0.9167057585111493  0.2452289888515935  0.2728937025493465
  0.8292183114560885  0.3569096020139071  0.3307867962319193
  0.7449356684048567  0.4502838038440018  0.4064970660513083
  0.6670819128106800  0.4998897691400970  0.4850705830935809
  0.5984507277431490  0.5591318288979465  0.5904827404499287
  0.4955161741788530  0.6447072149964015  0.6673242887397137
  0.4239097913170298  0.7436145893271018  0.7239314383041631
  0.3317108482178526  0.8211851159793824  0.8162342039279125
  0.2748634225405553  0.9061103687165328  0.8875779843962306
  0.2425598297770293  0.9002917480819974  0.0697117767521789
  0.1815099456565150  0.9889208528130737  0.1834966060297276
  0.1066490644729470  0.0834380219571642  0.2718047155957777
  0.0022821136018507  0.1845265673699359  0.3495953368496743
  0.9160115020378825  0.2844648870174993  0.4288334237393130
  0.8324110669903320  0.3579956280468295  0.4959420992168120
  0.7493230525253765  0.4214077584312292  0.5780413489970400
  0.6614437050467501  0.4773616184168432  0.6959539249180864
  0.5871066136218346  0.5657385539039410  0.7764257132582131
  0.4995303314552899  0.6573587144369881  0.8312820626548358
  0.4124118621633528  0.7587064188244241  0.9203017446855242
  0.3170921411731769  0.8327062904579208  0.9928099676336615
  0.3210131018740512  0.8266272376728239  0.1645901307640045
  0.2740762526971920  0.9039172915168194  0.2540576690242133
  0.1877602143770503  0.9938822814273180  0.3467062989490941
  0.0927405852912955  0.0802240340046367  0.3949138226244742
  0.0179979176656246  0.1803551351594308  0.5057201924998012
  0.9113943413849626  0.2654529464357083  0.5784626648285780
  0.8476907346359752  0.3538274404619202  0.6623904978821997
  0.7600310786781748  0.4214963448014046  0.7700523705346427
  0.6698616658675007  0.4848530358427254  0.8662441805522292
  0.5796969366858491  0.5941210655917857  0.9347684478142710
  0.5044986943578706  0.6707443623631448  0.0187328183688962
  0.4140869945256966  0.7606498956085659  0.0963847923159946
  0.4247792850435559  0.7407773445616570  0.2495076580356397
  0.3370526672260823  0.8266751108846790  0.3340172076040915
  0.2607221869255980  0.9055196670462706  0.4350960610964592
  0.1809974426596312  0.0128868886358191  0.4815680762007517
  0.0873267142172125  0.0899470415767567  0.5782922405698088
  0.0021137192319998  0.1723453323543538  0.6470197194917304
  0.9087876553384504  0.2476113302165714  0.7542639070366803
  0.8225482742947321  0.3332846444697495  0.8467148760289334
  0.7589729381443320  0.4076067329976851  0.9420820531647109
  0.6774311016542782  0.5103908734915663  0.9962076590346030
  0.5917485664908497  0.5823443643610631  0.1014896297850214
  0.4892677340565825  0.6675277606289427  0.1526609031607151
  0.5131107303404434  0.6367955471309870  0.3211945811356216
  0.4490823648405637  0.7508110175417571  0.4317249385638959
  0.3378295792375923  0.8352607008710962  0.5173073793255014
  0.2322348142931361  0.9055291986334240  0.5801088318149112
  0.1504728287580903  0.9933676970950245  0.6768023495564606
  0.0599996163989474  0.1030708068608632  0.7558883416247113
  0.0029269884320300  0.1618701230720063  0.8523300032965722
  0.9143509954647158  0.2497968282985710  0.9359641722608458
  0.8177754260568975  0.3265616908415225  0.0095886672860246
  0.7482488042435875  0.4100796037121412  0.0931889549868146
  0.6637717463837589  0.5066155967793478  0.1566267137177348
  0.5815991553784059  0.5773723492567697  0.2341454407416279
  0.1575269769439771  0.1420653540318071  0.8341890648725325
  0.0907064228202685  0.2462008446215904  0.9215543364900469
  0.0213410363222266  0.3350808359306328  0.0142406672061028
  0.9169131618117135  0.3967985490090342  0.0781738711739806
  0.8530931765963388  0.4925664478941911  0.1751065426955947
  0.7451468477783081  0.5782572030088744  0.2300731928794022
  0.6735854351474444  0.6544019379844954  0.3109188508950709
  0.5909117088228228  0.7409113312155355  0.4100451920003181
  0.5239120904259593  0.8233780982777930  0.4996783934707878
  0.4147424658355305  0.9164819357867842  0.5815075296691461
  0.3364942305002785  0.9855979965835502  0.6608630669104159
  0.2523316735594960  0.0616066690641759  0.7571723547510558
  0.2653483272396713  0.0659277766123267  0.9110927505394386
  0.1698436256293476  0.1593281806920785  0.9775756802924960
  0.0764202869016231  0.2359671761368176  0.0836821365779556
  0.9957825051945974  0.3095075226764195  0.1472848197874228
  0.9228817569727497  0.4010069277950947  0.2447607628066777
  0.8350403790058323  0.4944614301126862  0.3153205581195522
  0.7684931925797187  0.5769397456645109  0.3836054768041208
  0.6718625574402637  0.6420130274514477  0.4891889849556463
  0.5824446900223776  0.7262864645768374  0.5863042191121224
  0.5155325856109627  0.8331207983696984  0.6531750244745496
  0.4207368296971126  0.9083167725565389  0.7358824227803069
  0.3459089456964790  0.9560237353152701  0.8019036676856075
  0.3300157671022106  0.9870715655718030  0.0067642087229274
  0.2539101564373070  0.0760558783864766  0.0781276302645253
  0.1737482678014857  0.1753371673459583  0.1675549308718942
  0.0882637866618694  0.2398504590226196  0.2574129205626150
  0.0175051081874855  0.3324401882042665  0.3207962898585492
  0.9445848892152142  0.4249603802045883  0.4047866713617836
  0.8519227133780873  0.5000348962079428  0.4931800747222894
  0.7400598152920992  0.5647593078198696  0.5756519170063115
  0.6501340301086884  0.6478931691041296  0.6764975010988579
  0.5638325571405716  0.7407083762886586  0.7532927305602186
  0.4962111164389071  0.8174959562055477  0.8390189173259799
  0.4253727788100363  0.9151902756133623  0.9085111963557893
  0.4112607348357713  0.8949658909733884  0.0639154584232386
  0.3337192305002787  0.9872136358187475  0.1455457084631959
  0.2602707544154086  0.0776988786661903  0.2314543095180994
  0.1913699937065445  0.1825286891632700  0.3233957963717700
  0.0995839511907590  0.2619998621433695  0.4237022996084079
  0.0279827094821385  0.3234751813114372  0.5173183474186871
  0.9467986808718933  0.4410841694637568  0.5850379015823535
  0.8428900793175131  0.4896924608407289  0.6711453538320171
  0.7421335166426886  0.5699823243826430  0.7753695551626336
  0.6577788000479501  0.6730799248781238  0.8367505364421035
  0.5993613032446277  0.7526801051905991  0.9234916866458889
  0.5070625764205232  0.8319443224047021  0.9932643710541029
  0.5124433519140084  0.8455608856788928  0.1843726294653578
  0.4054262556940813  0.9286239975425588  0.2467868726524429
  0.3252934283345326  0.9940252991888414  0.3463578308559079
  0.2671086210341258  0.0989152696195958  0.4171703098777257
  0.1827794373851219  0.1481799903100764  0.5160266557779920
  0.0928149954047797  0.2670129675137858  0.5975151197754371
  0.9924599496523641  0.3354869285942641  0.6918099876128849
  0.9319959806800924  0.4458843213058401  0.7692642801486471
  0.8350381942779492  0.5047483542116211  0.8373571245904259
  0.7497883181491218  0.6017494615599759  0.9310008725925059
  0.6769836305242549  0.6846908989650728  0.0258591854471319
  0.5846482183529105  0.7579486933589052  0.0857227238671783
  0.5782160967593697  0.7190810866698669  0.2364148016063297
  0.4898417465835507  0.8266889944457745  0.3187713223247854
  0.4153657970710469  0.9120809013625859  0.4320435157436293
  0.3378734930672067  0.0053676241708658  0.5103139574842146
  0.2650987792695574  0.0851231064692755  0.6031220975185789
  0.1586096254894898  0.1578333568089221  0.6953344951250671
  0.0783049443578676  0.2311797275833101  0.7767085531047684
  0.9828236968552702  0.3375466864460961  0.8631556820906283
  0.9110735255334461  0.4146261977543375  0.9347066905418373
  0.8221384030608192  0.4969380209582042  0.0099793115160267
  0.7660045972188954  0.5862895733437199  0.1047964676736228
  0.6713352912970478  0.6775587304203654  0.1595992258051595
  0.2385304892911364  0.2424638436026498  0.7615057130584191
  0.1684198338727754  0.3312740045352811  0.8470794698513515
  0.0874262861623905  0.4158598517541776  0.9168843337928578
  0.0004348262806673  0.5282194967234091  0.9969159314313103
  0.9200135074522464  0.5652555262526988  0.0734219921281891
  0.8684370424758256  0.6812540482897802  0.1732560337249254
  0.7582307545153029  0.7671720795372821  0.2472128641213160
  0.6459459007632091  0.8093610450131834  0.3463599106928825
  0.5778271792335943  0.9257162865619790  0.4200071850275719
  0.4840107817869423  0.0044336599936088  0.4942317240070295
  0.4059449042995311  0.0872878256613134  0.5920720330855929
  0.3178377712179312  0.1792687714776662  0.6792429768041259
  0.3441993996243937  0.1484081734995613  0.8302894624590422
  0.2598693623631405  0.2356544778430418  0.9145021577559334
  0.1557138470990154  0.3181634595021166  0.0130611838687784
  0.1177767721569580  0.4368866928394439  0.0884906102653247
  0.0060223597458631  0.4752246443698525  0.1640053199672309
  0.9383534918684546  0.5691910533045643  0.2524438853592272
  0.8564502961919587  0.6645815641732611  0.2968912860624968
  0.7712534389235230  0.7478849012027524  0.4096829032805900
  0.6705393970270919  0.8131995199992019  0.5209289513905517
  0.5765644200031943  0.9208802994885303  0.5699528840006423
  0.4963508715935419  0.9981462184328294  0.6741531272476635
  0.4125770568608615  0.0825877702189715  0.7297612128386461
  0.3937453008870762  0.0621399439582859  0.9072787266243125
  0.3225498906137645  0.1510101264684707  0.0024031781946761
  0.2425825961000569  0.2572692060257324  0.0714704811995546
  0.1610620859306309  0.3036813324142926  0.1708392087229313
  0.1036084706904816  0.3845399874130919  0.2387915173219852
  0.0170557749940059  0.4796810721849312  0.3182991823503585
  0.9289385703867978  0.5900709027611271  0.4168720340845553
  0.8171034484136470  0.6666834876728203  0.5004678124750228
  0.7534269934268352  0.7388921731399378  0.5888777641253071
  0.6491314193239006  0.8464607063653773  0.6610958847798258
  0.5837914209222390  0.9306545317869421  0.7593012506992736
  0.4884756932789927  0.9998542390913485  0.8341952948933127
  0.5103929718093170  0.0107876398545486  0.9882172061056522
  0.4175951270678482  0.0798686016542831  0.0913597158954715
  0.3255147596499626  0.1754880754015815  0.1376223352713168
  0.2779205281507231  0.2559848257811908  0.2484614955446318
  0.1833231039718726  0.3339229266562782  0.3355274969032180
  0.0896594441780536  0.4273881373371680  0.4300971914209200
  0.0166117632662051  0.5108005584192412  0.4976770074122925
  0.9156322784304294  0.5863998042036300  0.5799119495724483
  0.8139806516223160  0.6534779933868791  0.6775742822464608
  0.7257440386997516  0.7600920048149931  0.7447104870934211
  0.6815252272636485  0.8118762601894005  0.8313380579197656
  0.5909827599296733  0.9157383925717255  0.9096349876128826
  0.5912940347039068  0.9272508990649726  0.0590706715016367
  0.5075164783625041  0.9896873816231135  0.1635610714856526
  0.3948294878326521  0.0702721639494897  0.2497615599776211
  0.3337009460161440  0.1747530028770115  0.3335345580596183
  0.2591925102892958  0.2407078233636994  0.4420995919243964
  0.1807260089506926  0.3334667920362833  0.5238423624430624
  0.0894260239351041  0.4015558419243987  0.6078975935027557
  0.9884533934707918  0.5019317035283279  0.6629479156677078
  0.9091513156317461  0.5878700736234350  0.7383338692759551
  0.8325328813034432  0.6859195481699061  0.8293189592823467
  0.7636596794333883  0.7419707059657981  0.9414442929353442
  0.6823489281147630  0.8208079752057884  0.9937979456365369
  0.6552914094341915  0.8511637027491403  0.1758957184528072
  0.5885372752337545  0.9149695406776956  0.2663902965915455
  0.4907293889355060  0.0135712788699749  0.3234201775153807
  0.4151424034004663  0.0797096409733911  0.4128036142411915
  0.3367830411372168  0.1573555941820501  0.4943521842284042
  0.2497135164429025  0.2471307125589419  0.5916943473787271
  0.1572095685487085  0.3208596599536477  0.7002024774234812
  0.0634984830776020  0.4167531677055862  0.7612258231439313
  0.9825359001638319  0.5063851284663983  0.8676225025972997
  0.8893382272436696  0.5975594486733797  0.9213757317389906
  0.8370814263166295  0.6802414404019856  0.0150359241388927
  0.7702722763326122  0.7720336130424386  0.1078940816550755
  0.3478538754695109  0.3367241593742492  0.6787124790218186
  0.2534997712379123  0.4122507726963960  0.7482310951610316
  0.1703034828778058  0.4862218657596102  0.8408743012267266
  0.0803011498042068  0.6011493107168562  0.9033028325541466
  0.9943372402701200  0.6592704107727982  0.9903913220250971
  0.9205925427555357  0.7843171641492859  0.0908720810357195
  0.8690107228482375  0.8570741418924328  0.1538989505913833
  0.7665049113921540  0.9056751923000093  0.2583518550707282
  0.6664052565332028  0.0100894374850142  0.3305136063493990
  0.5533435022576541  0.0919294608607046  0.4025372058059631
  0.4765655258531112  0.1692713223247821  0.4879017142172160
  0.4099334022616503  0.2510350180811969  0.5789351109845740
  0.4294172190921444  0.2525882592104196  0.7689341484855774
  0.3261210086510005  0.3320290442939324  0.8319831010748828
  0.2380130524254795  0.4272097478622214  0.9017383556101635
  0.1832772161951581  0.5186948623431604  0.9725420832334351
  0.0893086939582801  0.5817373336729830  0.0676981659074585
  0.9809112258251389  0.6554417830456316  0.1365933579077776
  0.9255310427155763  0.7740994235994592  0.2480825461519984
  0.8449606758970702  0.8312050137856630  0.3353789493926342
  0.7349831425317674  0.9153492208103557  0.4129428189682756
  0.6346559632981723  0.0034314942459872  0.4898204042795484
  0.5919925202789074  0.1038788050427542  0.5849544478742104
  0.4980742742547761  0.1803575946016167  0.6555776602333552
  0.4973625459522069  0.1685820246943166  0.8459707883800860
  0.4007025863102385  0.2478872217893411  0.9307274724286714
  0.3250339811595921  0.3409584227403499  0.0148535418165139
  0.2340533305362413  0.4191072664429001  0.0851157890793601
  0.1778877752137760  0.5242026217733553  0.1825517012307216
  0.0814008176496444  0.5714797965116247  0.2433280198593479
  0.0146284938663754  0.6586257427275655  0.3327749985015558
  0.9103356124630366  0.7380023705346446  0.4028018176096850
  0.8256601714217240  0.8172380219571664  0.5160634709901686
  0.7428935137457060  0.9323039259170471  0.5554028710141452
  0.6488134020618546  0.0140847793294938  0.6458266922400711
  0.5851409414209243  0.0957800482498214  0.7414111389155309
  0.5971582109606004  0.1047391238112354  0.9011226968952286
  0.5041008071605546  0.1555968098177871  0.9908043220051113
  0.4357607702988915  0.2426991139215247  0.0718964801606319
  0.3455896492647668  0.3327930402381511  0.1530755069727476
  0.2399606294453775  0.4233939268161109  0.2369748196875250
  0.1701021242907359  0.5094220560616947  0.3339134490130249
  0.0833153665188178  0.6115801651282666  0.4184637811675884
  0.9995695421761397  0.6645622422680404  0.5009828123751277
  0.8979134330296503  0.7376170247942113  0.5933584447174951
  0.8286246953168686  0.8552876743187099  0.6575777866019337
  0.7330538654799028  0.9191818658595068  0.7321351334611990
  0.6867804228602239  0.0207083148525555  0.8192838123351720
  0.6814953268600661  0.0192838263206241  0.9932087144369888
  0.5803551216734633  0.0866501063893566  0.1046716539798638
  0.4972392826460492  0.1769796416726592  0.1840302270638503
  0.3989887267242054  0.2482711455086744  0.2179858072604475
  0.3400786057500227  0.3361887941540829  0.3162537665827543
  0.2473890029369485  0.4045836185367193  0.4090440501878021
  0.1686103787061484  0.4912626923000047  0.5095294498721330
  0.0731108357308372  0.5852893640613743  0.5824851464476950
  0.9942087449053005  0.6647413360105503  0.6773765773595457
  0.9306351429513313  0.7507297155957815  0.7443908784863709
  0.8176211460081504  0.8425257577119822  0.8296342219092168
  0.7528590890473907  0.9154122557540134  0.8950096229920916
  0.7681784653959909  0.9280869905298488  0.0751154164668719
  0.6853531672061024  0.9856629984815797  0.1774184463158335
  0.5863122277831039  0.0850436740789604  0.2526333303364510
  0.4838100275713231  0.1845229915887501  0.2972134170462724
  0.4002838453008906  0.2662535183409247  0.3911967823463627
  0.3233044194038186  0.3388130684088537  0.5196740060337248
  0.2570139624790215  0.4076935741828507  0.6165464412011517
  0.1635580106689076  0.5107300602373499  0.6646878766083262
  0.0776743047230894  0.5691198074003054  0.7543824517501818
  0.9792597318788481  0.6576726404539315  0.8311453843003278
  0.9336265189203203  0.7527672670422731  0.8949808049628416
  0.8409972918165138  0.8378760244345855  0.9968706999720283
  0.4221046371773340  0.4249299403620270  0.6078166861464069
  0.3343731818908324  0.4941240030368448  0.6750475555422355
  0.2613710541037335  0.5772421291856489  0.7635614391033343
  0.1628828892951333  0.6593837004515279  0.8197492018300991
  0.0861344856349362  0.7437138226244713  0.8967389864540891
  0.0012521867258073  0.8273492128186675  0.9987978197674394
  0.9353540882482250  0.9309897391712596  0.0867783804842972
  0.8228326340605747  0.0271135983577082  0.1832285163430001
  0.7182305257532136  0.1170433783864766  0.2638647501598328
  0.6482187994485713  0.1645580326460490  0.3624976824102930
  0.5546722808279370  0.2800975974986031  0.4124785088507963
  0.4848859521098063  0.3516878865979365  0.4956043150123861
  0.5016687514984426  0.3160602008910729  0.6732701390553828
  0.4320613641812514  0.4123761253296578  0.7524663025453506
  0.3401596824302757  0.4709671176975974  0.8301118511747774
  0.2672688149324713  0.5934781567170120  0.9012757192519771
  0.1735725180811940  0.6663479261567957  0.0038618811436137
  0.0846356069687531  0.7588990664708675  0.0954147671421737
  0.0099920217973306  0.8681709936665882  0.1904276112842638
  0.9111351104850982  0.9309684902701179  0.2543773006073664
  0.8392254260568990  0.0098815511867656  0.3326420277910955
  0.7435912246263854  0.0742296271877265  0.4203066306041734
  0.6546712758730919  0.1747398475585413  0.4837199632382294
  0.5760987083433236  0.2781700191800525  0.5622427330576230
  0.5996122342763499  0.2596452254655190  0.7791641333013644
  0.5009898235834740  0.3455541127227661  0.8380846254894934
  0.3930000779189626  0.4072130484296324  0.9180369290937449
  0.3165139424998031  0.4970814462958515  0.0007793649604437
  0.2507492757532148  0.5924202729161649  0.0757577469431823
  0.1499418579677112  0.6516116793534721  0.1656374610405180
  0.0716405693079167  0.7472128781067724  0.2486312090425926
  0.0017782486214344  0.8463142302005906  0.3433134010628933
  0.9057670702469451  0.9015239051386530  0.4196103037840615
  0.8127876243706567  0.0116822050067924  0.4777285278310544
  0.7271283290378037  0.0913465615759605  0.5659089706705061
  0.6504522032086655  0.1992546711420147  0.6462750439542901
  0.6727236059498125  0.1714444962239270  0.8182901617318024
  0.5871697509589993  0.2710849556461312  0.9069656207544128
  0.4921513351114868  0.3456038649804185  0.9930049083952710
  0.4237682829856979  0.4059769714496895  0.0964947844242019
  0.3112275418564678  0.5179229586230321  0.1504963253216687
  0.2563193708543139  0.6022406801926010  0.2738922420682499
  0.1610424398625412  0.6433753071805342  0.3467643595660519
  0.0915760529049763  0.7652221125029968  0.4190469231998719
  0.9934937270238962  0.8204831904819017  0.4962848742308026
  0.8952845730440373  0.9254256718013281  0.5878361299248809
  0.8346475380604161  0.0167940856509219  0.6675327849036989
  0.7439949207823844  0.1060728362502985  0.7269888336130421
  0.7573120874290709  0.0971624810197369  0.9046683124550441
  0.6565961774754285  0.1536037950531437  0.0037216694637578
  0.5715760424158844  0.2590537595900244  0.0705022057060631
  0.4916610080516293  0.3206038165308058  0.1485173534524122
  0.4109460256333435  0.4120351524414616  0.2160982133581086
  0.3258643126148826  0.4879205496283845  0.3325862013505940
  0.2542049238791648  0.5689162695796384  0.4146661571965140
  0.1775111459082552  0.6526938498961101  0.5097545098097953
  0.0677227433469199  0.7479661596939167  0.5919970905258509
  0.9888635449132934  0.8432036556980762  0.6585271013146325
  0.9030640064333113  0.9146346749380641  0.7440225220770387
  0.8316815501878025  0.0084058868776467  0.8446687270238940
  0.8411162735754800  0.0044422590505846  0.9960079532286414
  0.7592582224486506  0.0892055886877614  0.1008674933069642
  0.6609371303843972  0.1734777206705047  0.1544199652361513
  0.5960419338887561  0.2350478452409490  0.2250392431870836
  0.5021494026212707  0.3302223792256029  0.2891058464197229
  0.4133568923319757  0.4104376663270202  0.4173255019779418
  0.3351452394509735  0.4834475475505471  0.4847594846359797
  0.2624770308878794  0.5647349476544363  0.5694910767801460
  0.1638931126628336  0.6476845565611740  0.6608302060856701
  0.0776047101014967  0.7431456400343635  0.7471474126908006
  0.0132468937305177  0.8286516338008454  0.8136193169104118
  0.9105861454087716  0.9021776212738786  0.9044267491808498
 
  0.00000000E+00  0.00000000E+00  0.00000000E+00
  0.00000000E+00  0.00000000E+00  0.00000000E+00
  0.00000000E+00  0.00000000E+00  0.00000000E+00
  0.00000000E+00  0.00000000E+00  0.00000000E+00
  0.00000000E+00  0.00000000E+00  0.00000000E+00
  0.00000000E+00  0.00000000E+00  0.00000000E+00
  0.00000000E+00  0.00000000E+00  0.00000000E+00
  0.00000000E+00  0.00000000E+00  0.00000000E+00
  0.00000000E+00  0.00000000E+00  0.00000000E+00
  0.00000000E+00  0.00000000E+00  0.00000000E+00
  0.00000000E+00  0.00000000E+00  0.00000000E+00
  0.00000000E+00  0.00000000E+00  0.00000000E+00
  0.00000000E+00  0.00000000E+00  0.00000000E+00
  0.00000000E+00  0.00000000E+00  0.00000000E+00
  0.00000000E+00  0.00000000E+00  0.00000000E+00
  0.00000000E+00  0.00000000E+00  0.00000000E+00
  0.00000000E+00  0.00000000E+00  0.00000000E+00
  0.00000000E+00  0.00000000E+00  0.00000000E+00
  0.00000000E+00  0.00000000E+00  0.00000000E+00
  0.00000000E+00  0.00000000E+00  0.00000000E+00
  0.00000000E+00  0.00000000E+00  0.00000000E+00
  0.00000000E+00  0.00000000E+00  0.00000000E+00
  0.00000000E+00  0.00000000E+00  0.00000000E+00
  0.00000000E+00  0.00000000E+00  0.00000000E+00
  0.00000000E+00  0.00000000E+00  0.00000000E+00
  0.00000000E+00  0.00000000E+00  0.00000000E+00
  0.00000000E+00  0.00000000E+00  0.00000000E+00
  0.00000000E+00  0.00000000E+00  0.00000000E+00
  0.00000000E+00  0.00000000E+00  0.00000000E+00
  0.00000000E+00  0.00000000E+00  0.00000000E+00
  0.00000000E+00  0.00000000E+00  0.00000000E+00
  0.00000000E+00  0.00000000E+00  0.00000000E+00
  0.00000000E+00  0.00000000E+00  0.00000000E+00
  0.00000000E+00  0.00000000E+00  0.00000000E+00
  0.00000000E+00  0.00000000E+00  0.00000000E+00
  0.00000000E+00  0.00000000E+00  0.00000000E+00
  0.00000000E+00  0.00000000E+00  0.00000000E+00
  0.00000000E+00  0.00000000E+00  0.00000000E+00
  0.00000000E+00  0.00000000E+00  0.00000000E+00
  0.00000000E+00  0.00000000E+00  0.00000000E+00
  0.00000000E+00  0.00000000E+00  0.00000000E+00
  0.00000000E+00  0.00000000E+00  0.00000000E+00
  0.00000000E+00  0.00000000E+00  0.00000000E+00
  0.00000000E+00  0.00000000E+00  0.00000000E+00
  0.00000000E+00  0.00000000E+00  0.00000000E+00
  0.00000000E+00  0.00000000E+00  0.00000000E+00
  0.00000000E+00  0.00000000E+00  0.00000000E+00
  0.00000000E+00  0.00000000E+00  0.00000000E+00
  0.00000000E+00  0.00000000E+00  0.00000000E+00
  0.00000000E+00  0.00000000E+00  0.00000000E+00
  0.00000000E+00  0.00000000E+00  0.00000000E+00
  0.00000000E+00  0.00000000E+00  0.00000000E+00
  0.00000000E+00  0.00000000E+00  0.00000000E+00
  0.00000000E+00  0.00000000E+00  0.00000000E+00
  0.00000000E+00  0.00000000E+00  0.00000000E+00
  0.00000000E+00  0.00000000E+00  0.00000000E+00
  0.00000000E+00  0.00000000E+00  0.00000000E+00
  0.00000000E+00  0.00000000E+00  0.00000000E+00
  0.00000000E+00  0.00000000E+00  0.00000000E+00
  0.00000000E+00  0.00000000E+00  0.00000000E+00
  0.00000000E+00  0.00000000E+00  0.00000000E+00
  0.00000000E+00  0.00000000E+00  0.00000000E+00
  0.00000000E+00  0.00000000E+00  0.00000000E+00
  0.00000000E+00  0.00000000E+00  0.00000000E+00
  0.00000000E+00  0.00000000E+00  0.00000000E+00
  0.00000000E+00  0.00000000E+00  0.00000000E+00
  0.00000000E+00  0.00000000E+00  0.00000000E+00
  0.00000000E+00  0.00000000E+00  0.00000000E+00