Li 
 1.0000000000000000
    20.0207999999999977    0.0000000000000000    0.0000000000000000
     0.0000000000000000   20.0207999999999977    0.0000000000000000
     0.0000000000000000    0.0000000000000000   20.0207999999999977
 Li 
 432
Cartesian
  0.2470611300000000 -0.2595802200000000 -0.4221760700000000
 18.9833298100000007  1.3931875100000000  1.4971498599999999
 16.7197666799999993  3.3431379600000000  3.5280749299999998
 14.7883252400000007  4.7284884700000003  5.3717214999999996
 13.2986798600000000  6.9169381300000001  6.5053772399999996
 11.4786355800000006  8.1213413400000007  7.8387302700000001
 10.0398645099999992  9.7127531099999995 10.1519171900000007
  8.3782470000000000 11.3744591400000008 11.8627356099999997
  6.4341491000000000 13.4084727899999994 13.4716631000000007
  4.6747269200000003 15.3363841700000005 14.7695034500000002
  3.4285634300000001 16.5111906899999994 16.6152990900000006
  1.5674501800000000 17.9846928999999989 17.9784496199999992
  1.4150064600000001 18.5803688999999999  1.5457803400000001
  0.4181570300000000  0.0384438800000000  4.1123079200000001
 18.2844623199999994  2.1367613200000002  5.3963840300000001
 17.0348776999999991  3.6466915900000001  7.1881394199999997
 15.0312418700000006  5.8606851500000001  8.2239002600000006
 13.3414610600000003  6.7447185599999999  9.8413216099999996
 11.5476892899999992  8.5576309199999994 11.5137574699999998
 10.0599771600000008  9.5751043399999993 14.1236134599999996
  8.0017607700000006 11.3996134100000006 14.9914464600000006
  6.7249262600000002 13.9229322199999999 16.3313470900000013
  4.6399550700000001 15.0818660300000005 17.9322522500000012
  3.1780821200000000 16.8818762000000007 -0.1040776600000000
  3.0318472399999998 16.8019424300000004  3.5340210000000001
  1.9419774100000000 18.5353402900000006  5.7554747300000004
 -0.4661255800000000  0.1669447300000000  6.8607248500000004
 18.5209616900000000  1.6471246100000001  8.5581343499999996
 16.6449805899999994  3.9375601599999999  9.8274162500000006
 14.6924278200000007  5.6853419399999998 11.2732740499999995
 13.0977078200000001  7.3516665600000000 13.4638763299999997
 11.3671787500000008  8.2774068100000004 15.3813937299999992
  9.8992716299999994 10.1501691300000001 17.3084021200000002
  8.4468153099999999 11.9643497100000005 18.0166331200000016
  6.4820395000000000 13.3391940400000006 20.2032389600000002
  4.6746089099999999 14.9875667400000001  1.9845160399999999
  4.6905514600000000 15.1816466600000002  5.3435684500000002
  3.2652162200000001 16.6900078100000009  7.2334968799999997
  1.9390303900000001 18.6318389199999999  8.6965896800000007
 -0.0504124900000000 -0.3230021300000000 10.1379108400000000
 18.3180990199999982  1.7752527300000001 11.5186782599999997
 15.8838878799999996  3.9325785600000001 12.8692581300000004
 14.9092490099999999  5.4775168299999999 14.7507194399999992
 13.5046275599999994  7.1378297100000001 16.6765165700000004
 11.6303540400000003  8.3563685200000002 18.5738078400000006
  9.8330721000000008 10.2885691000000001  0.0041639000000000
  8.0929346899999999 11.2301976200000002  1.5731779800000001
  6.4465533600000002 13.3909728300000008  3.3425473800000001
  7.1642209200000000 13.3366659999999992  6.7692141000000001
  5.1502847699999998 15.0854590200000001  8.8076527200000001
  3.3770764600000001 16.6303220200000013 10.1780121700000006
  1.6562314400000000 18.5952311899999998 11.4561099100000003
 -0.1680339600000000  0.1241985800000000 13.7262707899999992
 18.0729301000000007  2.1332184800000000 14.9466006799999995
 16.5659192699999984  3.6719520999999999 16.7946614200000006
 14.9085222700000006  4.8712116600000002 18.5169354400000010
 13.7641580300000008  6.4004767100000004  0.1078485700000000
 11.7408539600000008  8.4020540500000003  1.5170873600000001
  9.6476150199999999 10.1624369300000001  2.9266548499999998
  8.4725267800000008 11.4950504999999996  4.7103428999999997
  8.5244777200000001 11.4347204399999995  8.4242767300000008
  6.7529168899999998 13.1775403999999998 10.1522104100000004
  4.9026864799999998 14.7691190500000005 11.7737256400000003
  2.5785679600000000 16.3750106500000001 13.1012524900000003
  1.4180624700000000 18.1350244300000014 14.8523928600000001
 -0.1337640800000000 -0.0964522100000000 16.4959889599999983
 18.5189060599999991  1.8405854900000000 18.4140347700000007
 16.5546347099999984  3.0907059200000000 20.1221448100000018
 15.0952667300000005  4.8834137799999997  1.9401902300000000
 13.1319622900000006  6.4018669600000004  3.3278700899999998
 11.4764257599999997  8.4208815999999995  4.6335552599999996
  9.9247530499999996  9.7310781100000003  6.4765317900000001
  1.6106396500000000  1.1094465099999999 18.0954811800000002
  0.3380859400000000  3.1178809799999998 -0.0498952400000000
 18.4783896600000013  4.3828881700000002  1.5255742600000000
 16.7150911600000001  6.3497558999999999  3.5397042700000001
 14.8584342399999993  8.2554628599999997  4.5460123699999997
 13.2153269400000006  9.8839550999999997  6.2042169800000000
 11.7924607600000009 11.1527069500000007  8.2155859200000005
 10.1882666400000002 12.9195299699999993 10.1703262199999998
  8.4002936699999999 14.6122514199999998 11.6780094900000009
  6.6633052900000003 16.5770843300000017 12.9829037399999994
  4.7033048800000001 17.6690486299999989 14.6519955500000005
  3.0970934600000000 -0.1582421100000000 16.4810517599999997
  3.3718550299999999 -0.2304606300000000 -0.0755654900000000
  1.7328098199999999  1.4678950600000000  1.9158675199999999
  0.1113431400000000  3.6980786999999999  3.5748515900000002
 18.3531826500000008  4.9096805400000001  5.4635502400000000
 16.6016139699999989  7.1456157600000001  6.6226162899999999
 14.9142080299999993  9.0150419799999995  8.1383964599999992
 13.3555135600000003 10.0081930900000007  9.7115011300000003
 11.9814623299999994 11.1942665199999993 11.8219368500000002
  9.9206302199999996 12.9075542100000007 13.3603661200000001
  8.4870131499999992 14.8877589700000001 14.4936865400000006
  6.6411165499999996 16.4407829700000008 16.3416617500000001
  5.5029856099999996 18.1410544700000003 17.7700213100000006
  4.8562418400000000 18.0245610300000010  1.3956855399999999
  3.6339743200000001 -0.2218133900000000  3.6737488500000000
  2.1351995900000000  1.6704959500000001  5.4417478499999996
  0.0456897400000000  3.6943695000000001  6.9991783200000004
 18.3392830800000013  5.6952146099999998  8.5855882099999992
 16.6655354899999999  7.1673588700000002  9.9291575800000000
 15.0020469700000003  8.4369204500000006 11.5728502399999993
 13.2426321300000005  9.5571614900000004 13.9335543400000006
 11.7543440900000000 11.3265384400000002 15.5446639199999996
 10.0009968600000008 13.1608473499999992 16.6429319199999988
  8.2568154099999997 15.1899094699999999 18.4251771700000013
  6.3484383400000004 16.6714461000000007 19.8768497999999987
  6.4269391100000002 16.5497386000000013  3.2952260899999999
  5.4872258399999998 18.0971473100000004  5.0864377799999998
  3.7591097000000002 -0.1224816200000000  6.9413374699999997
  1.8567407100000000  1.6061493400000000  7.9064906600000002
  0.3603327100000000  3.6108540900000001 10.1249228299999992
 18.2468438299999995  5.3145803500000000 11.5812853199999992
 16.9714466600000016  7.0839084200000002 13.2615876799999999
 15.2164302199999995  8.4386940199999998 15.4170645000000004
 13.4111664400000006  9.7071456600000001 17.3429014899999991
 11.6059964299999994 11.8947790300000005 18.7148121399999994
 10.1004674600000008 13.4288387300000007 20.3958460099999996
  8.2903529000000002 15.2288194299999997  1.9297006500000000
  8.5044211099999991 14.8309550600000009  4.9953429199999997
  6.7480640400000000 16.5506970600000010  6.6872917100000002
  5.2198667600000004 18.1292281499999994  8.7109712199999993
  3.6237135999999999  0.2580058200000000  9.6413781400000005
  1.7483506799999999  1.8008117299999999 11.5778732899999994
  0.0423183500000000  3.4504914300000000 12.9538524000000006
 18.1946558899999999  4.9573769199999997 15.1009668300000008
 16.4680744899999993  6.6726252099999996 16.9519091899999985
 15.1952453999999992  8.1606128800000004 18.8612363700000003
 13.5627125999999993 10.2184335999999991 19.9448742999999986
 11.8472796999999996 11.6590000499999995  2.0319035799999998
  9.7955314500000004 13.3644397900000005  3.0563934100000001
 10.2728873099999998 12.7491562900000002  6.4305724700000004
  8.9909882099999994 15.0318372199999999  8.6434786500000005
  6.7636184400000001 16.7225874400000016 10.3569075799999997
  4.6495267699999996 18.1294189800000005 11.6142429000000007
  3.0125864099999999 -0.1327840100000000 13.5501244799999991
  1.2012403199999999  2.0635600099999998 15.1334893099999999
  0.0586006500000000  3.2407693599999998 17.0643285300000009
 18.3060384099999993  5.0011323399999998 18.7387514999999993
 16.3725182499999988  6.5380263000000003 20.2127727899999989
 14.9805396599999998  8.2101217299999991  1.8657174299999999
 13.2892413800000000 10.1428495400000003  3.1357921100000001
 11.6440803699999993 11.5594563299999997  4.6877790399999997
  3.1538160999999998  2.8442620399999998 16.7011324300000012
  1.8160151499999999  4.9291378699999999 18.4502550599999999
  0.4272646200000000  6.7085863999999997  0.2851095500000000
 18.3573350300000016  7.9442243899999996  1.5651034399999999
 17.0796078700000002  9.8615743400000007  3.5057730700000000
 14.9184360100000006 11.5771718099999994  4.6062493800000004
 13.4857192799999996 13.1016503199999992  6.2248441300000001
 11.8305251400000007 14.8336375799999995  8.2094327800000002
 10.4891391800000005 16.4846882299999997 10.0039611799999992
  8.3034759600000001 18.3487015400000004 11.6422459499999995
  6.7368836900000000 19.7324603699999983 13.2310072900000009
  5.0518819700000002  1.2334148000000000 15.1591962799999997
  5.3124857900000002  1.3199268300000000 18.2408057399999990
  3.4004052599999999  3.1898776400000002 -0.4489528200000000
  1.5299952800000001  4.7242516400000003  1.6753833199999999
 -0.0844376200000000  6.1965882099999998  2.9487599200000001
 18.4768310800000002  8.0284794999999995  4.9003062799999997
 16.7181764199999989  9.8995134000000000  6.3129698300000001
 15.3858485100000006 11.5507952599999992  7.6800885299999999
 13.4512258899999999 12.8536144199999995  9.7939548300000006
 11.6610086499999994 14.5408360499999993 11.7382795099999999
 10.3213747900000001 16.6797448800000012 13.0770865300000008
  8.4234879199999995 18.1852284399999995 14.7329548100000007
  6.9253738199999999 19.1403600000000012 16.0547529500000010
  6.6071796699999998 -0.2588376000000000  0.1354248700000000
  5.0834844600000002  1.5226995299999999  1.5641776599999999
  3.4785793200000001  3.5103903600000002  3.3545837600000001
  1.7671116200000001  4.8019980699999998  5.1536125999999998
  0.3504662700000000  6.6557185199999997  6.4225983600000003
 18.9113451499999989  8.5080467800000008  8.1041529899999993
 17.0561742599999988 10.0110986499999992  9.8738596399999992
 14.8165895499999998 11.3069331500000008 11.5250119000000009
 13.0162033899999994 12.9713395600000005 13.5440211700000006
 11.2883788599999999 14.8295742599999993 15.0815231000000001
  9.9345435200000001 16.3669230399999996 16.7978299399999997
  8.5163033299999995 18.3228414700000002 18.1891209600000003
  8.2337689199999993 17.9179331099999999  1.2796386099999999
  6.6813259699999996 -0.2559932400000000  2.9139415199999998
  5.2108287200000003  1.5555937099999999  4.6339004399999997
  3.8313803700000002  3.6543703800000000  6.4746425600000004
  1.9937503700000001  5.2454468399999996  8.4828589999999995
  0.5602362300000000  6.4762319100000001 10.3571271700000000
 18.9556670300000008  8.8308579399999996 11.7129268199999999
 16.8753336999999988  9.8040348200000000 13.4368669000000001
 14.8581067099999995 11.4115021199999997 15.5235187900000007
 13.1692578000000005 13.4755985599999999 16.7524151400000001
 11.9996927800000002 15.0692578499999996 18.4890423599999991
 10.1517984299999995 16.6561908900000013 19.8859473199999996
 10.2595258600000001 16.9288053800000000  3.6912875399999998
  8.1169579800000005 18.5917953300000001  4.9408706200000001
  6.5126346699999997 -0.1196182900000000  6.9343608600000000
  5.3477282800000001  1.9803628300000000  8.3520833400000001
  3.6593905599999998  2.9666819499999999 10.3312664699999992
  1.8582304599999999  5.3458132200000001 11.9627307100000007
 -0.1509578400000000  6.7167167000000001 13.8505894000000005
 18.6593051299999999  8.9269608199999997 15.4012863000000007
 16.7181326800000001 10.1054658499999999 16.7645595199999988
 15.0113619600000003 12.0475056200000008 18.6393822699999987
 13.5537538699999995 13.7080595499999998 20.5385215800000012
 11.7051250499999995 15.1747391999999994  1.7162375100000000
 11.5763488300000006 14.3965786199999997  4.7332134600000000
  9.8070236400000006 16.5509750199999992  6.3820568900000003
  8.3159555500000000 18.2605893100000003  8.6498568200000001
  6.7644976300000002  0.1074641300000000 10.2168936800000001
  5.3074896400000000  1.7042326900000000 12.0749868899999999
  3.1754915900000000  3.1599500699999998 13.9211528599999994
  1.5677276300000000  4.6284030899999999 15.5503266000000000
 -0.3438833300000000  6.7579547000000000 17.2810672799999985
 18.2404208399999987  8.3011481800000002 18.7135757100000006
 16.4598685399999987  9.9490967300000008 20.2205937999999996
 15.3360248400000003 11.7379862900000003  2.0981091200000002
 13.4406695999999997 13.5652678299999998  3.1953041799999999
  4.7755712199999998  4.8543201199999997 15.2459535800000001
  3.3718998099999999  6.6323705899999998 16.9592086500000008
  1.7503441900000001  8.3258469200000000 18.3567578699999991
  0.0087055700000000 10.5753769000000002 -0.0617455200000000
 18.4194064299999987 11.3168678400000005  1.4699670199999999
 17.3868043400000012 13.6392510500000004  3.4687244000000002
 15.1803862899999995 15.3593987700000003  4.9493993100000004
 12.9323536899999993 16.2040556100000011  6.9344025000000000
 11.5685623900000003 18.5335806299999994  8.4088798499999999
  9.6902830600000005  0.0887654200000000  9.8949145000000005
  8.1273417400000003  1.7475721000000000 11.8537557600000003
  6.3633664500000000  3.5891042199999998 13.5989877900000007
  6.8911473399999998  2.9712503600000000 16.6230592699999988
  5.2027925300000000  4.7179911700000003 18.3090648000000016
  3.1175157900000001  6.3698869900000004  0.2614953500000000
  2.3579851999999999  8.7468211000000000  1.7716528100000000
  0.1205724600000000  9.5143775599999998  3.2835177099999999
 18.7865875899999999 11.3956602399999998  5.0541285399999998
 17.1468200899999985 13.3054545799999993  5.9440010599999997
 15.4411108499999994 14.9732540299999997  8.2021794700000008
 13.4247351599999991 16.2809049500000000 10.4294143500000001
 11.5432809400000007 18.4367602999999995 11.4109127000000008
  9.9373415299999994 19.9836858100000008 13.4970849299999998
  8.2601227399999999  1.6534732299999999 14.6104032900000007
  7.8830959199999997  1.2440913899999999 18.1644459299999994
  6.4577068500000001  3.0233435399999999  0.0481135500000000
  4.8566976400000001  5.1507353199999999  1.4308962100000000
  3.2245918100000002  6.0799432199999996  3.4203376300000001
  2.0743244700000001  7.6987981799999998  4.7807972100000002
  0.3414702600000000  9.6035988099999994  6.3726042700000001
 18.5980933300000011 11.8136915299999998  8.3461116200000003
 16.3590647199999992 13.3475367699999996 10.0197659800000007
 15.0842111499999998 14.7932124199999997 11.7898039400000005
 12.9961303200000007 16.9468205099999984 13.2356684900000001
 11.6879712799999993 18.6324482499999995 15.2018184800000000
  9.7796741600000008 -0.0029182500000000 16.7012571600000008
 10.2184756100000005  0.2159771800000000 -0.2359009600000000
  8.3605885200000003  1.5990333000000001  1.8290945999999999
  6.5170659000000004  3.5134116600000000  2.7553092499999998
  5.5641913100000000  5.1250210000000003  4.9743979100000004
  3.6702751999999998  6.6854041300000002  6.7175289100000004
  1.7950538000000000  8.5566524200000007  8.6108898499999995
  0.3325807900000000 10.2266358200000003  9.9638918299999997
 18.3316907200000010 11.7401932000000002 11.6103011600000006
 16.2965438300000010 13.0831522099999997 13.5655791899999993
 14.5299762500000007 15.2176500099999998 14.9096997200000008
 13.6446802700000003 16.2544122299999998 16.6440529899999987
 11.8319476399999992 18.3338152100000009 18.2116201599999989
 11.8381796099999992 18.5643047999999986  1.1826421000000000
 10.1608859099999993 -0.2064668700000000  3.2746235000000001
  7.9048022099999997  1.4069049400000000  5.0004262400000004
  6.6809599000000004  3.4986949200000002  6.6776286799999998
  5.1892414100000002  4.8191631900000003  8.8511875100000008
  3.6182792799999999  6.6762719500000003 10.4877431699999999
  1.7903805399999999  8.0394691999999992 12.1705961400000007
 -0.2311723000000000 10.0490742500000003 13.2727476299999996
 18.2019366600000012 11.7696291700000000 14.7820347299999995
 16.6679743100000017 13.7326580899999993 16.6036290199999996
 15.2890777100000008 14.8548471099999997 18.8484678999999993
 13.6611714200000005 16.4332323100000011 -0.1241700900000000
 13.1194582499999992 17.0409782599999993  3.5215730000000001
 11.7829870799999998 18.3184221799999989  5.3333468499999999
  9.8247949499999994  0.2717078600000000  6.4751306900000003
  8.3114830299999998  1.5958507799999999  8.2646586000000006
  6.7426659100000004  3.1503848799999998  9.8973262099999992
  4.9994643700000001  4.9477545699999999 11.8461941900000003
  3.1474613300000001  6.4238670800000000 14.0186137599999991
  1.2712904300000001  8.3437318200000004 15.2403499599999996
 -0.3496452500000000 10.1382353799999994 17.3704965999999992
 17.8052627799999996 11.9636182099999999 18.4466792499999990
 16.7590398200000017 13.6189778300000004  0.3010312300000000
 15.4214671899999995 15.4567305600000005  2.1601258300000001
  6.9643128699999997  6.7414870499999999 13.5883667999999993
  5.0752682199999999  8.2535902700000001 14.9801851100000007
  3.4096119699999998  9.7345507300000005 16.8349762100000007
  1.6076932600000000 12.0354901200000004 18.0848453499999984
 -0.1133729800000000 13.1991210399999996 -0.1923734200000000
 18.4309991800000006 15.7026570799999998  1.8193317600000001
 17.3982898800000001 17.1593099799999997  3.0811801100000000
 15.3460415300000008 18.1323418899999993  5.1724108199999996
 13.3419663600000007  0.2019986100000000  6.6171468100000004
 11.0783795900000008  1.8405013500000000  8.0591168900000003
  9.5412230800000000  3.3889472899999999  9.7681826399999991
  8.2071946600000008  5.0259218900000002 11.5907440699999995
  8.5972762599999992  5.0570190200000003 15.3946767999999992
  6.5292034900000004  6.6474870900000003 16.6569672699999991
  4.7652117199999999  8.5530809199999993 18.0535232699999995
  3.6693564900000002 10.3846860999999997 -0.5497294600000000
  1.7880315000000000 11.6468468099999996  1.3553714400000001
 -0.3821725300000000 13.1224688500000006  2.7347082999999999
 18.5298718999999998 15.4980897399999993  4.9668110399999996
 16.9167887000000015 16.6413893399999999  6.7145548699999997
 14.7149505000000005 18.3260236799999987  8.2674455899999995
 12.7063201100000001  0.0687012600000000  9.8065963499999995
 11.8521638500000002  2.0797367800000002 11.7112560099999996
  9.9718454300000001  3.6109033300000002 13.1251892199999993
  9.9575960600000002  3.3751470000000001 16.9370119599999995
  8.0223863400000006  4.9629004900000000 18.6339085799999999
  6.5074403299999997  6.8262603899999998  0.2973797900000000
  4.6859349200000002  8.3908627599999992  1.7040861899999999
  3.5614555700000001 10.4949558500000002  3.6548311000000000
  1.6297094900000000 11.4414827100000007  4.8716216200000000
  0.2928741500000000 13.1862142700000007  6.6624216900000004
 18.2256472299999999 14.7753978600000000  8.0644146299999999
 16.5303771600000005 16.3617589899999984 10.3320035400000005
 14.8733224600000007 18.6654704400000000 11.1196097999999992
 12.9897633599999995  0.2819885500000000 12.9299670399999993
 11.7149897599999999  1.9175931900000001 14.8436441299999995
 11.9555851099999995  2.0969610500000000 18.0411972899999995
 10.0925014399999995  3.1151726100000001 -0.1841048300000000
  8.7242792300000005  4.8590304199999999  1.4394250500000001
  6.9189812499999999  6.6627828999999998  3.0646941100000000
  4.8042037700000000  8.4766851299999999  4.7444254700000004
  3.4055806099999999 10.1990371000000000  6.6852143799999997
  1.6680402900000000 12.2443241700000005  8.3779796700000002
 -0.0086181100000000 13.3050677400000001 10.0300766899999996
 17.9769452600000008 14.7676829299999994 11.8795107499999997
 16.5897292999999983 17.1235434700000013 13.1652333499999994
 14.6763248300000004 18.4027563000000001 14.6579310799999991
 13.7498934899999998  0.4145970300000000 16.4027173499999996
 13.6440816399999996  0.3860776300000000 -0.1359669700000000
 11.6191738200000003  1.7348044499999999  2.0956102500000000
  9.9551282299999997  3.5432740100000002  3.6844323700000001
  7.9880734999999996  4.9705869500000004  4.3642502500000004
  6.8086457500000002  6.7307686100000002  6.3316534100000004
  4.9529257500000003  8.1000877100000004  8.1893891199999995
  3.3757146699999998  9.8354721099999995 10.2011872100000005
  1.4637374200000000 11.7179613000000007 11.6618186200000000
 -0.1159455600000000 13.3086533399999993 13.5616209800000007
 18.6320600700000014 15.0302094900000007 14.9033008999999996
 16.3694294400000011 16.8680396899999998 16.6099408299999993
 15.0728412499999997 18.3272856900000001 17.9188086599999998
 15.3795474199999997 18.5810440200000002  1.5038707300000000
 13.7213186900000004 -0.2870382400000000  3.5520592299999998
 11.7384398500000007  1.7026423900000001  5.0579213799999998
  9.6862638000000008  3.6942979100000000  5.9504503800000004
  8.0140028099999991  5.3306084399999998  7.8320725400000004
  6.4728131199999996  6.7833086800000002 10.4042893400000001
  5.1456251399999999  8.1623515100000006 12.3437529900000005
  3.2745622200000000 10.2252243899999993 13.3075830400000008
  1.5551017199999999 11.3942338400000001 15.1033401900000008
 -0.4152367600000000 13.1671323999999998 16.6401955100000016
 18.6919498100000006 15.0710028999999999 17.9182316999999998
 16.8374385800000006 16.7749483099999992 -0.0626510900000000
  8.4508725200000008  8.5074373500000000 12.1689763099999997
  6.6944185999999997  9.8927578399999998 13.5149921000000006
  5.2328576000000000 11.5568492200000001 15.2871108600000003
  3.2610457500000001 13.2013891900000004 16.4120348199999988
  1.7244813100000000 14.8897457000000006 17.9534319000000018
  0.0250697800000000 16.5641931199999988 -0.0240686100000000
 18.7265371300000005 18.6391593700000016  1.7373726000000000
 16.4737675999999986 20.5636359300000002  3.6683814799999999
 14.3795497099999992  2.3433020700000000  5.2827833899999996
 12.9778589400000008  3.2945834600000001  7.2574936000000001
 11.1049828000000002  5.6077779799999998  8.2581497299999995
  9.7078046699999998  7.0410728400000000  9.9223948699999998
 10.0438097400000004  6.3277780699999999 13.4794067999999996
  8.6502141600000009  8.2560999299999995 15.0649773499999995
  6.8102689700000001  9.4291384699999998 16.6195033499999987
  5.3509354900000003 11.8819074800000006 18.0442609199999993
  3.4750606700000000 13.3408185600000007  0.0773179500000000
  1.6944725599999999 15.1937664300000002  1.9102799699999999
  0.2000482700000000 17.3814778300000015  3.8125131200000002
 18.2416538199999998 18.6387339499999989  5.0928370599999999
 16.8019644100000001 20.2186365600000002  6.6597595099999998
 14.8872911899999991  1.4861365200000001  8.4148749899999995
 13.1070426799999993  3.4984315399999999  9.6844606399999993
 11.5339570200000008  5.5691863200000000 11.2565493100000005
 12.0047166199999999  5.1983051299999996 15.5994892800000002
 10.0302170600000000  6.9182697800000001 16.7791246700000016
  7.8681759600000003  8.1527309999999993 18.3798337499999995
  6.3368623399999997  9.9519682199999995  0.0156035100000000
  5.0202011000000004 11.8607277999999994  1.5167307000000001
  3.0019559500000002 13.0457871099999991  3.3161944800000001
  1.4343015100000001 14.9597995899999994  4.9777957099999997
  0.0356019600000000 16.9438879399999998  6.8734089400000000
 18.1341813599999995 18.0492297999999991  8.4009339700000005
 16.2726584699999997  0.2338870900000000  9.5645073099999998
 14.5576908500000002  1.8288312400000000 11.3299503200000000
 13.0225734699999993  3.9892379199999999 12.9389433999999994
 13.4684647700000006  3.4324559699999999 16.3828236700000005
 11.7556081500000005  5.4273376799999999 18.1581772999999984
  9.8532634500000000  6.9192658600000003 -0.1400473300000000
  8.4841800400000000  8.1279837500000003  1.9319027799999999
  6.2310243700000001 10.3692319699999995  3.0130568300000000
  5.1317188600000003 12.0573402099999996  5.4835418000000002
  3.2241984800000001 12.8808883499999993  6.9424998899999997
  1.8334258400000001 15.3203588699999997  8.3896546399999998
 -0.1302607900000000 16.4267298599999982  9.9360202100000006
 17.9243133800000010 18.5277622899999983 11.7689495900000001
 16.7103114300000009 20.3570310300000017 13.3645403799999993
 14.8953735100000006  2.1236630399999998 14.5548980399999994
 15.1619938399999992  1.9452706000000000 18.1121833499999987
 13.1455807500000006  3.0752708599999998  0.0745108000000000
 11.4434096299999997  5.1864635100000003  1.4115105600000000
  9.8434467100000003  6.4187448900000001  2.9734362299999999
  8.2274681899999997  8.2492733800000000  4.3264591100000001
  6.5240642299999996  9.7685597400000006  6.6586418199999997
  5.0893859399999997 11.3901588500000006  8.3019482000000000
  3.5539151499999999 13.0674530299999994 10.2056930900000005
  1.3558635000000001 14.9748808899999997 11.8522553500000001
 -0.2229607400000000 16.8816117500000011 13.1842393900000001
 18.0800638599999992 18.3117179000000014 14.8959261099999996
 16.6509299800000008 20.1890925800000005 16.9109436500000001
 16.8398206899999998  0.0889375800000000 -0.0799239700000000
 15.2009570200000006  1.7859672499999999  2.0194479099999998
 13.2324900999999997  3.4731627500000002  3.0916112400000002
 11.9332363499999996  4.7058458999999999  4.5054656800000004
 10.0534327599999997  6.6113162100000000  5.7881303300000004
  8.2757356699999995  8.2172904300000003  8.3551904100000005
  6.7098758099999998  9.6790066600000007  9.7052726899999993
  5.2550001399999999 11.3064454399999992 11.4016669499999992
  3.2812712300000002 12.9671629700000004 13.2303493900000007
  1.5537083800000000 14.8783702299999998 14.9584889200000006
  0.2652134100000000 16.5902686300000006 16.2893096200000009
 18.2306631000000010 18.0623177199999994 18.1073470599999986
