Li 
 1.0000000000000000
   -11.1791050000000016   19.3627778431472777   -0.0000000000000023
   -19.1641800000000018  -11.0644444817984429   -0.0000000000000019
     0.0000000000000000   -0.0000000000000001   23.4479499999999987
 Li 
 504
Cartesian
  0.1480922700000000 -0.0262024400000000  0.2074614100000000
 -11.2292698600000005 17.3062204800000004 15.6285599600000005
 -11.5078639900000006 15.7044283999999994  7.3611697200000004
 -11.2553733499999993 13.7289143300000003 -0.4828057900000000
 -11.4127533400000001 12.0684278099999993 15.3833000200000001
 -10.9730759399999993 10.0447108000000007  7.6635387200000000
 -11.3548680199999996  8.3935998400000003  0.0874688200000000
 -11.6809791000000001  6.2124744300000003 15.5658759999999994
 -10.7268222499999997  5.0956122199999996  7.5945640399999998
 -11.1987519500000001  2.8836114099999999  0.2167389000000000
 -11.2155386299999993  0.8668187700000000 15.4882876500000002
 -11.0282457899999997 -0.9178694200000000  7.7443768300000002
 -1.6722394700000001  0.9548725000000000 15.6099073900000000
 -1.7440485200000000 -1.0507286400000000  7.4052349000000000
 -12.5253746400000008 16.7426179700000013 -0.2985148800000000
 -12.9705023100000005 14.8016363799999997 16.0448549400000005
 -12.7179181900000007 12.6580493900000004  8.0535280900000004
 -13.0941001400000001 11.3112059100000000  0.2955987400000000
 -12.7749060900000000  8.9156866299999997 15.6428575599999995
 -12.3722059699999996  7.3882737699999996  7.5992375499999998
 -12.7054491499999997  5.5854719900000003 -0.1020793500000000
 -13.2024177900000002  3.4328749500000000 16.4813229899999989
 -12.7744694100000000  2.1722828600000001  7.9997902600000002
 -12.5220180200000009 -0.0920257900000000  0.2373874300000000
 -3.0942277699999998  1.9159704700000000  7.3144214999999999
 -3.0563750299999999 -0.0980695800000000 -0.5221347300000000
 -3.2092175900000002 -2.0926141999999999 15.3165831899999993
 -14.2015888100000005 15.7935372800000007  7.3455608500000000
 -14.6594433199999994 14.0197644900000000 -0.1677832400000000
 -14.3761575799999992 11.9837230100000003 15.8988385700000006
 -14.3507277400000000 10.0028238500000004  7.6543258300000003
 -14.4940757300000005  8.5821992599999994  0.2058150800000000
 -14.6200447199999992  5.9395221600000001 16.1377778099999993
 -14.0361688000000004  4.8905181600000001  8.0820747500000003
 -14.1573210899999999  2.7735964399999999  0.5925493600000000
 -14.7681695600000005  1.2771987700000000 15.0991497500000005
 -4.7281400600000003  2.8572862699999999  0.2835950900000000
 -4.8767245399999997  0.9034906600000000 15.4917948800000005
 -5.0683936400000000 -1.0098409200000000  7.3747194900000004
 -4.5820764000000000 -2.7550916399999998 -0.2852364400000000
 -15.8140633499999996 14.6370844899999994 15.5101657100000008
 -15.6619555300000002 12.6596805600000000  7.6156020699999996
 -16.2182407399999988 11.0056240800000005  0.2187100800000000
 -16.0159543100000015  9.0152220599999993 15.8382037199999992
 -15.9338703499999994  7.4858548499999999  8.0658322600000005
 -16.1014094599999993  5.4122716899999999  0.0334217600000000
 -16.0982114699999990  3.5000219499999998 16.2834689799999985
 -16.1147048300000009  1.8119797600000001  8.8433898400000004
 -6.2020607700000001  4.1203960000000004 15.6974083300000000
 -6.6599011700000004  2.0358577400000000  7.3738836799999996
 -6.2056543299999998 -0.2998335400000000 -0.2053950000000000
 -6.4092695099999997 -1.8998569900000000 16.0726981699999989
 -17.5851030699999988 15.8810925100000002  7.5358807499999996
 -17.5423912500000014 13.9022984500000000 -0.1816886400000000
 -17.3691951499999995 11.9463071000000003 15.2591178200000002
 -17.5901229100000016 10.4114316799999997  8.0109045999999999
 -17.8757798600000015  8.2676818999999995  0.4543304500000000
 -17.8860951300000011  6.2479331699999996 15.8901045399999994
 -17.7546343700000016  4.6364861399999997  8.2191147699999991
 -17.4669972300000005  2.4551519800000001  0.3540264300000000
 -8.1802240200000007  4.8461507299999997  7.8495015500000003
 -8.1720525100000003  2.8691741700000000  0.0373262200000000
 -7.9872053799999998  0.8980597200000000 15.2615239700000007
 -8.1684584099999995 -0.7628943900000000  7.7052376699999998
 -7.9932490700000001 -2.5366701699999998 -0.6200253100000001
 -18.7509946099999993 14.9105949599999992 15.2684688899999994
 -19.1088480499999989 13.0302828300000009  7.4253347600000001
 -19.2314846899999985 11.1045974500000000  0.1591478300000000
 -19.2460716199999986  8.9504932400000001 15.5351794900000009
 -19.1522380000000005  7.3376014200000004  7.9361018400000001
 -19.2711484700000000  5.4946622100000004  0.2728581800000000
 -19.4022332199999994  3.7239670100000000 15.4924524600000009
 -9.4221577500000002  5.5623960900000000  0.3662747900000000
 -9.5740277099999993  3.8629438299999999 16.1599745299999995
 -9.5976535100000007  2.0800137300000001  7.7694843599999999
 -9.3638736999999992  0.1654548400000000 -0.1669531800000000
 -9.5643470500000003 -1.7559438400000000 15.2056856200000006
 -9.5443187100000006 -3.6703012300000002  7.3311205499999996
 -20.6586664099999986 13.6131250399999999 -0.1872154500000000
 -20.6229337100000016 12.0783519100000003 15.8415526000000000
 -20.8665659999999988 10.1516632199999997  7.9932429899999997
 -21.1643169499999999  8.0894127499999993 -0.6050241300000000
 -21.1013967300000012  6.2777166199999996 15.8771080300000005
 -20.7093805400000015  4.4344935400000001  7.6468344300000002
 -10.8630612299999996 -2.7560592900000001  0.2517299200000000
 -11.1984151500000007 -4.7776741300000003 15.7916793599999998
 -22.3124553100000007 13.1181576999999994  7.9375402199999998
 -22.3581815900000009 10.9358654299999998  0.0412743300000000
 -22.6844769100000008  9.4444322799999991 15.5699187299999995
 -22.5880327700000016  7.1333665799999997  7.3988249899999996
 -22.7570081799999997  5.0927540300000000 -0.3841452600000000
 -12.5884008699999992 -1.7138223600000000 15.7855493399999993
 -12.6436195199999997 -3.7871119000000002  8.0147252699999996
 -12.1390165200000002 -5.6897484299999999  0.2408794800000000
 -24.0986807100000000 11.9854303899999994 15.7771529499999996
 -23.9105769899999991 10.1131075500000005  7.8055473299999996
 -23.9028742600000008  8.3984248699999995 -0.2169485400000000
 -24.4783060100000007  6.3667997700000001 15.1923528799999996
 -14.3405126200000002 -0.7634488000000000  7.8675423400000000
 -14.1634797799999994 -3.0502975800000001  0.0903874000000000
 -14.3220503400000005 -4.5946777900000004 16.3328431700000003
 -14.2293366500000005 -6.8140442200000004  7.2306029599999997
 -25.6273849300000016 11.2258682299999997  0.2544702400000000
 -25.7588218699999985  9.2786964500000000 15.2413864799999992
 -25.6623236000000006  7.2323993700000004  7.4430511600000004
 -15.7890047399999993 -0.1754254600000000  0.1484668200000000
 -16.0694828899999997 -1.4321153300000000 15.7343169199999995
 -15.9799649899999991 -3.6967744900000001  8.0865559000000005
 -15.8341867300000008 -5.2826183899999997  0.5893192700000000
 -15.8663220299999992 -7.2091082599999998 16.2391426999999986
 -27.1450655300000001 10.2131463300000007  7.6813080999999999
 -27.0332022000000016  8.2587002599999995 -0.1123140000000000
 -17.8941612200000009  0.9337610500000000 15.6081050700000006
 -17.2642255800000015 -0.8397162100000000  8.3560107800000001
 -17.4498468500000001 -2.8303391699999998  0.6167226700000000
 -17.6736518999999994 -4.2539424700000001 15.7130534700000002
 -17.6227204300000011 -6.5870792199999997  7.7032126600000002
 -17.3303027500000013 -8.3268173599999997  0.5361116800000000
 -28.6083663399999999  9.1130062100000000 15.5582402799999997
 -28.9375539900000014  7.4296876500000000  7.5213328700000002
 -9.6309290099999991 16.9076731699999989 -0.0115343700000000
 -9.8825140200000003 14.7456134199999997 15.6627721799999993
 -9.5563820100000001 12.6430007500000006  7.4116264400000000
 -9.8913065699999994 11.2056798000000004  0.6264859600000000
 -9.5451629800000006  9.1615836999999996 15.3795837199999994
 -9.4587071100000006  7.3011549000000002  7.9220104100000004
 -19.1313986100000015 -9.4068353699999996  7.2798753200000004
 -1.6079102599999999  2.7547457500000001  0.3181719200000000
 -3.1086889700000002  3.7640973500000001 15.4514146100000005
 -4.9084860099999998  4.6706035600000000  7.9856302699999997
 -6.6000570600000001  5.5283984899999998 -0.0322461500000000
 -7.6756459699999997  6.3751716600000004 15.3169382100000000
 -27.0717503300000004  6.3872957200000000 15.2195364699999995
 -27.2216662199999995  4.4841873000000003  7.2841127400000003
 -7.9756252900000000 13.9466085900000003 -0.0336469100000000
 -8.3221184299999997 11.9041577899999993 15.2791463600000004
 -7.6964033100000000 10.3014165200000001  7.0636577300000001
 -7.9963108099999998  8.6891921399999994  0.5003960900000000
 -19.0083679699999983 -7.2810810600000000 15.8189228300000000
 -20.8339745699999987 -6.0359971699999999  7.6262565899999997
 -3.1052326200000002  5.6470598900000004  0.3008382300000000
 -4.6438219099999998  6.6324797599999998 15.4276814800000004
 -6.2180408099999998  7.7866478900000002  7.8661176299999997
 -25.5045318300000012  5.4408609900000000 -0.6978768000000000
 -25.4266572099999983  4.1240479900000002 15.3536973499999991
 -25.4757422899999995  1.9598599699999999  7.6350692400000000
 -6.4126227199999999 11.5552767400000000  0.3292987900000000
 -6.3781723599999998  9.1599396100000003 15.6880821400000006
 -19.0164648400000011 -5.4511864699999997  0.0153696400000000
 -20.5140875399999985 -4.3742892800000002 15.8956112300000001
 -22.4726165900000012 -3.8914835900000000  8.2680113700000000
 -4.7100844899999998  8.3070993600000005  0.0950283300000000
 -23.9618193499999990  4.3277054499999998  7.3811615399999999
 -23.9223327099999992  2.6621233000000002 -0.4968042500000000
 -23.6937457299999998  0.8701392600000000 15.2651380799999998
 -23.9529404799999988 -0.8868138500000000  7.5183052400000001
 -19.1240055300000016 -3.7229204100000000  8.1037099399999999
 -20.5741297799999998 -2.8062695400000002  0.4157350700000000
 -22.5921687800000015 -1.7721336000000001 15.3291030999999993
 -22.6788915099999997  3.8040569299999998 15.8409935999999991
 -22.2377955000000007  1.8473489299999999  8.1121011400000000
 -22.4696253599999984  0.0670174200000000  0.1233415500000000
 -19.3445286500000009 -1.6876815800000000 15.6765117600000004
 -20.8058923000000000 -1.0291249899999999  7.8028168600000001
 -21.0389492300000001  2.4760157399999998 -0.0287128600000000
 -20.9361134500000006  0.9819711600000000 15.8364358200000002
 -18.7544563699999998 -0.1148289000000000 -0.4344928800000000
 -19.2263746500000003  1.7738466799999999  7.6686645899999997
  0.2388955600000000  0.1155199800000000 18.5880004499999991
 -11.4643434400000004 17.5810259799999997 10.2197435100000007
 -11.4104475500000007 15.3818985099999992  1.8178328900000000
 -11.1515594199999999 13.5881214799999999 18.6703566499999987
 -11.5412871199999998 12.3521224299999997 10.4721482399999992
 -11.3444138999999993 10.2047482200000008  2.6636694699999999
 -10.9996755700000008  8.0686262000000006 18.6550915000000010
 -11.1392168599999994  6.2089660899999997 10.6773362699999996
 -11.5704859500000001  4.5390808399999996  2.5317477700000000
 -11.0214123799999992  2.5615621700000002 18.8984608200000004
 -11.0366437299999998  0.9434890200000000 10.6402874900000004
 -11.0447615799999994 -0.9034610000000000  2.4387821399999998
 -1.9887893000000001  0.7616666900000000  9.8585826999999995
 -1.0344056500000001 -1.3141827800000001  1.9636574800000000
 -12.6414605000000009 16.7569345399999996 18.2305594699999993
 -13.4818855699999993 15.0457107000000008 10.3540978999999993
 -13.0031006300000005 12.8296910700000009  2.2996893699999998
 -12.6592351300000008 10.7305535299999999 18.4494163600000007
 -13.0399551900000006  8.7883894300000005 10.5266240100000008
 -12.2669091500000000  7.2708362900000001  2.3222403900000002
 -12.5384323200000001  5.6259283800000004 18.2781681300000010
 -12.9602819599999997  3.9342091500000000 10.8226663599999995
 -13.3727611399999997  1.8764831399999999  2.7986822899999999
 -12.8619756899999995 -0.1008379800000000 17.9799602599999986
 -3.1732708600000001  2.1527745800000000  2.7763206399999998
 -2.9791537500000000  0.2793253400000000 18.6995144199999999
 -3.3509493500000000 -1.8661630199999999 10.0463767599999994
 -14.5147486499999996 15.0579428499999999  2.1948160200000002
 -14.3410606400000002 14.1009318500000003 18.2927054099999999
 -14.6840340699999992 11.6637269700000008 10.1687957299999994
 -14.3207457900000001 10.1922641800000005  2.5235170500000002
 -14.0804155600000005  8.3094137499999992 18.3669821599999992
 -14.5335209499999998  6.2944627700000000 10.6667663400000006
 -14.4603874300000008  4.7142717300000001  2.7630124100000000
 -14.3878902499999999  2.7296512100000001 18.9060613500000017
 -14.0897425399999996  0.5386689500000000 10.3077740500000008
 -4.4363939700000001  2.7915676399999998 18.1733874200000010
 -4.5273506100000001  0.7279713000000000 10.1859527599999993
 -4.7447574699999997 -0.9061761000000000  2.0943060000000000
 -15.8899979099999999 16.6120405700000013 18.5462184000000008
 -16.0113306000000009 14.7969399500000005 10.6281466499999997
 -15.7081695099999994 13.1324722699999992  2.3082592000000002
 -15.4468310800000008 10.9983187099999995 18.3901295800000000
 -16.1047786899999998  8.8676571800000001 10.2156557800000005
 -15.6673889600000003  7.5988072300000002  2.8070469400000002
 -15.8997443199999999  5.6419874500000002 18.6889790399999995
 -16.1766474500000008  3.3034864300000000 10.8682780399999999
 -16.3502654800000009  2.0957351599999998  3.7817334300000001
 -6.5067286700000002  3.8344236899999999 10.9769834300000007
 -6.4163574499999996  1.9355867000000000  2.2280395899999998
 -6.2218621399999998  0.0111262300000000 17.8428659600000010
 -6.5364202799999997 -1.8009807000000000 10.3418451699999991
 -17.6365344300000011 16.0080535799999986  1.8434958100000001
 -17.3245004999999992 13.6415998900000002 17.7605326999999988
 -18.1775343800000009 11.7018354500000008 10.5415263899999996
 -17.3825177599999989 10.2443466700000005  2.9258477200000002
 -17.6379714800000009  8.1987677300000001 18.1886028000000017
 -17.6282767000000007  6.2460193799999999 10.7488570499999998
 -17.5651564600000007  4.6959755999999997  2.7209680900000000
 -17.8089270599999985  2.8154259399999999 18.5067100700000005
 -8.2193137899999993  4.7278545799999998  2.9338371200000002
 -8.1344313300000000  2.7570560000000000 17.8624450199999991
 -7.6183080500000004  1.0406693400000000 10.6065989999999992
 -8.3352664900000004 -0.9024755300000000  2.4571188700000000
 -7.9024156100000003 -2.7946456199999998 18.0914378800000009
 -19.0525313400000016 14.5597629400000006 10.1991849800000001
 -19.0985557300000011 12.7656867300000005  3.0475569400000002
 -18.5729147300000008 10.2598103999999992 18.3304045600000016
 -19.3340248899999985  9.1119273300000003 10.4912193899999995
 -18.5646393699999983  7.6115593800000001  2.5322990000000001
 -18.9470365500000000  5.7399610100000000 18.6200103000000006
 -19.6076405300000012  3.6156352200000001 10.4721197900000007
 -9.3284805399999993  5.4933170699999998 17.7901910799999996
 -9.7917529900000009  3.8064735000000001  9.8987012100000005
 -9.8645100699999997  2.5925623299999998  2.5495918700000000
 -9.6855495900000008 -0.3454161600000000 17.6696178400000008
 -9.3886102900000008 -1.5150440300000001 10.3343423500000000
 -9.4651605599999993 -3.8486273799999999  2.5749229800000002
 -20.5415626300000014 13.7766879400000004 17.9743555800000010
 -20.5645529099999997 12.2601294099999993 10.8405477799999996
 -20.3640192599999992  9.8709491400000005  2.4267297100000000
 -21.3061714199999983  8.4454856700000001 18.5807807199999999
 -21.2716829300000008  6.4228585599999999 10.4173735999999995
 -20.8671075799999990  4.8166559500000004  2.0436498599999999
 -11.2325896299999997 -3.0946268400000001 18.3741335399999990
 -11.0221016499999998 -4.4491423200000000 10.1713924999999996
 -21.9798673999999998 12.6546574799999991  3.0452642299999999
 -22.3121428100000010 11.2587281099999998 18.1187000100000013
 -22.1650786099999983  8.9242393700000004 10.6966693199999998
 -22.3066246399999990  7.7454983600000000  2.3409121000000002
 -22.4469183200000018  6.0248033599999999 18.3124743000000016
 -12.1538621700000000 -1.7682448600000000 10.1773129499999992
 -12.1580952100000008 -3.8134025299999998  3.1426436299999998
 -12.9018370400000002 -5.1117355399999997 18.4091353099999999
 -23.7320575299999987 11.8353664900000002 10.3434377200000007
 -23.8308356100000012  9.6880624500000003  2.6498937900000001
 -24.2376708000000001  8.3680943400000007 18.1141753899999998
 -24.5062182300000018  6.6041934700000002  9.8942332700000009
 -14.7233091900000002 -0.6591596000000000  2.7958742900000000
 -14.5825742900000002 -2.5573597900000000 18.6642028899999985
 -14.0134135600000000 -4.7221096600000001 10.5703836800000008
 -13.9548134800000003 -6.5044709100000002  2.0338785100000001
 -25.5177671100000012 11.8878330499999993 18.0294216899999995
 -25.5653550600000017  8.9979545299999995 10.2582772400000000
 -25.3692591199999988  6.8859344800000004  2.0802436900000001
 -15.9354183000000003  0.1076050300000000 17.9005560800000012
 -15.2588703700000003 -2.0604917899999999 11.1822368799999996
 -16.1874375700000002 -3.3831835099999998  2.9743861400000000
 -16.1074112300000003 -5.1804281699999999 18.3586545399999999
 -16.0575389199999989 -7.1847871999999997 10.0364224100000001
 -26.7346044999999997  9.6744372799999994  2.7697174900000001
 -27.0042888999999988  8.4700224199999994 17.7646397799999995
 -17.5156904100000013  0.5956315700000000 10.9249644600000000
 -18.0110525199999998 -1.0807776200000001  3.3300207999999998
 -17.6574169599999991 -2.7221961700000001 18.0609910199999995
 -17.0636091800000003 -3.9137628699999998 10.8389394899999996
 -18.1319454100000002 -6.5416415800000003  2.6563341800000000
 -17.3196925499999992 -8.1002189799999993 18.9682088399999991
 -29.0618191199999991  9.1543742399999992 10.2835627699999996
 -28.6266086000000008  6.9835194400000002  2.6424736499999999
 -9.9821567299999998 16.4899153600000012 18.2542103500000010
 -10.5138276699999995 14.8641639699999999 10.1814354300000005
 -9.4045235399999996 12.6353147700000008  2.8329524799999999
 -9.6001531100000008 10.7719391499999997 18.4863143500000007
 -9.9869490400000007  9.0084780799999997  9.8336964600000005
 -9.5262235499999992  7.6450374300000004  2.7675725299999998
 -19.0701493599999985 -9.5490307100000003  2.6451476299999999
 -1.6692112500000000  2.9994906700000001 18.5402667799999996
 -3.2820730600000001  3.5252248300000000 10.0990695800000001
 -5.1659835799999998  4.8121594999999999  2.1108199100000000
 -6.2123559400000001  5.7101789399999996 18.5919300400000012
 -7.8017946399999998  6.4695013399999999 10.8262081999999999
 -27.3110314800000005  6.5169132999999997  9.8668814800000000
 -27.1050725999999997  4.1215667600000003  1.9164330300000001
 -8.7202722000000001 14.0102795800000006 18.3913014299999986
 -8.6408029899999992 11.9643803900000005  9.9894427100000005
 -7.6791654400000002 10.1262454000000002  2.4648007999999999
 -7.8431706400000003  8.5008140599999997 18.5944112100000005
 -19.3999072099999985 -7.2388615400000003 10.5665942200000007
 -21.0797761199999982 -6.7717909399999998  2.3828397099999998
 -2.9709216899999999  5.7280131900000004 18.5063580099999996
 -4.8255393700000004  6.3724949600000000 10.8890759999999993
 -6.2024057099999998  7.1661781400000004  2.6050887800000000
 -25.5568419899999988  5.7609483600000004 17.8485314099999997
 -26.2009315799999989  3.8836135299999999 10.0109109699999994
 -25.6290932600000012  1.9339738799999999  2.4604767600000002
 -6.8110251200000000 11.7457112600000002 18.1923396000000004
 -6.6337679600000001  9.2480415600000008  9.6332142699999999
 -19.3750601799999984 -5.5190680600000004 18.5618018900000017
 -20.6976471099999983 -4.6978501399999999 10.6611822499999995
 -22.7257783000000018 -3.3876938499999998  2.6082060199999999
 -4.7405197599999997  8.5470379600000008 17.7755041499999997
 -24.0565567800000011  4.6087606900000004  2.1962620300000002
 -23.6701201700000006  3.1780563300000000 18.2900369699999992
 -24.3055385199999989  1.1795509700000000 10.4491995800000002
 -23.9192066399999987 -0.6765679400000000  2.9796426899999999
 -19.7014595200000002 -4.1702147500000004  2.9998746700000001
 -20.8387974400000004 -2.7785259000000000 18.4375637999999995
 -22.5914418599999998 -1.7537160100000000 10.8918029000000001
 -22.8459794199999990  3.5431749300000002  9.9696669300000007
 -22.0617576900000003  2.1826677900000000  2.3923380999999999
 -22.4298118299999985  0.3049603900000000 18.4216510999999983
 -19.0428114599999994 -1.8887210600000000 11.2273711600000006
 -21.1210886900000006 -1.0968888400000001  2.4041358300000000
 -21.0157577199999999  3.0514096099999999 18.6468760099999997
 -20.8110263700000004  0.8619714300000000 10.3784363000000006
 -19.2253026399999989  0.0509146100000000 18.4840853699999990
 -19.0834961999999990  2.3944002499999999  2.8460881800000002
  0.8459487400000000  0.3381448600000000  4.8604551999999996
 -11.3992325900000004 17.9232584300000006 20.6057872199999998
 -10.9475341600000000 15.6261454099999995 12.9413228500000006
 -11.4120515000000005 13.7132749100000009  5.0548460799999999
 -10.8292853299999994 11.9024534200000005 21.2185002500000017
 -11.2177792200000006 10.0387142300000001 13.0454662300000006
 -11.5298227600000001  7.7222736799999998  5.2148332399999999
 -11.5435124499999997  6.2000995699999999 21.1749590000000012
 -11.3536630600000006  4.7156189399999997 12.8385507600000004
 -11.4501232500000008  2.3629991499999998  5.4566690299999996
 -11.2224449800000006  1.3278210100000001 21.2425688900000011
 -11.2246329899999999 -0.8126926400000000 12.9857346899999992
 -1.4734726600000001  1.8025179600000001 21.4787403999999995
 -1.6036370200000001 -0.5456174100000000 12.6344285099999993
 -12.3423909599999995 16.6465996300000008  4.8682212900000001
 -12.6156921600000000 14.9767800900000001 20.8317291299999994
 -12.7405211600000001 12.9847413300000003 12.9137897499999994
 -12.7265815399999997 10.9261957499999998  5.0462429799999997
 -13.0247898400000004  9.1570023500000008 21.1111850700000012
 -12.8008767100000007  7.3834378599999999 12.9888223000000007
 -13.0158659500000002  5.3618425600000004  4.8990538900000002
 -12.8504633399999992  3.5829152999999998 21.0486147899999985
 -13.0686983500000000  1.9126722700000001 13.3189958900000001
 -13.1320488799999993 -0.6455146899999999  4.5937092399999999
 -3.4753002700000000  2.0281781799999998 12.3809764999999992
 -2.7915881300000001  0.0447148600000000  4.6331428800000003
 -3.1819577899999998 -1.5363076200000001 21.0383821299999987
 -13.8325429199999999 15.9813509699999994 13.0971961799999992
 -14.4704919000000007 13.4073316600000005  4.5597057699999999
 -13.9587701600000003 12.2029419899999994 21.0419368700000007
 -14.3781476500000007 10.3845404299999995 12.7554054099999998
 -14.5649096300000007  8.4381418299999993  4.6430483400000000
 -14.5111721100000004  6.6988505900000002 21.4700478799999992
 -14.1384602499999996  4.6639398099999996 13.5663360300000004
 -14.6478980700000001  2.5931562499999998  6.2097857500000000
 -14.3962338100000000  0.8043331500000001 21.2581744000000015
 -4.9362823100000002  2.8543303999999998  5.0740464200000002
 -4.6880403199999998  1.2241203500000000 20.4926833799999990
 -5.0897761499999996 -0.8725692700000000 12.9777166299999998
 -15.9047614100000008 16.3971572899999991  4.2782567199999999
 -15.8473114899999992 15.0998003199999999 20.9204616299999984
 -15.8847576900000007 13.4469563099999991 12.8053513100000007
 -15.7632536299999995 10.7507515300000005  5.1553310699999999
 -16.1894359799999989  9.6991666999999993 20.8311966800000015
 -15.6763692100000007  7.4610851599999997 13.2198199499999998
 -16.2681362900000011  5.1599127200000003  5.5582168000000003
 -15.6575168500000004  3.6565949199999999 21.2995921099999990
 -15.4889459200000008  2.2008234799999999 13.4256686500000004
 -6.4191730700000003  3.6876476899999999 21.4954386799999995
 -7.0198779199999999  1.8340375200000001 13.1024590900000000
 -5.8059484599999998 -0.5177598900000000  4.4687010400000000
 -6.5112730699999997 -1.3934001700000000 20.4872046700000006
 -17.4552106299999998 15.7260291999999993 13.3768768900000001
 -17.6026643500000013 13.6568716899999991  5.0513930199999999
 -17.4768333700000014 12.0913073499999992 20.8498688799999989
 -17.8992126399999982  9.9001090699999992 13.0547238599999993
 -17.7071374400000003  8.2854312900000000  5.3889904099999999
 -17.4609048599999994  6.0407959900000003 21.3276137400000003
 -16.9894834000000010  4.6872953500000003 13.2405172100000001
 -17.9782778400000005  2.7020246100000000  5.8830873900000000
 -8.6174936899999999  4.3814532300000000 13.0262798100000001
 -8.1808612400000005  2.2000715300000002  4.9713941500000001
 -8.1089669999999998  0.8759027300000000 20.2708994000000011
 -7.6085145699999996 -0.8532794200000000 12.5334199599999998
 -8.0386634499999996 -2.8185834700000001  4.5028610899999997
 -19.2060635499999997 14.8427450899999993 20.6455737900000003
 -18.8804813100000004 13.0622855500000004 13.0986494899999997
 -19.0651363399999987 11.1346032299999997  5.2740800300000004
 -19.1736006699999990  9.3803639200000006 21.3377499999999998
 -19.1037630599999986  7.3459667800000004 13.1795897800000006
 -19.2750519300000001  5.2683764200000001  4.9393514500000002
 -19.1470126299999990  3.3157881200000001 21.3709310399999985
 -10.0060614099999992  5.1758554400000003  4.9157952500000004
 -9.8595871899999992  3.7381786300000002 20.9047634500000008
 -10.0792933100000006  2.0190726500000000 13.1000113099999993
 -9.3068807200000006  0.0439139300000000  5.0613235999999997
 -9.7706957899999995 -2.0097650400000000 20.4193991799999992
 -9.4029626400000001 -3.6262657100000002 12.9595177899999996
 -20.5763967299999990 13.9282631099999996  5.6616285199999998
 -20.5076485400000017 11.9287735300000008 20.5233507000000017
 -20.5978689800000012 10.2541699099999999 13.1939978999999994
 -20.9998180300000001  8.0002084000000000  5.2622726799999997
 -20.5506225399999991  6.5578407299999997 21.0234314399999995
 -20.5934619199999993  4.7274740099999999 12.7137993900000001
 -11.1784731199999996 -2.6231710000000001  5.2212265799999997
 -11.0627049300000007 -4.3090381100000004 20.5624652800000014
 -22.2397643500000015 12.8614709099999995 13.1704224599999993
 -22.3926162499999997 11.2095808399999992  5.3891026000000002
 -22.5280455400000008  9.1451462200000009 20.4152245800000003
 -22.1134064300000013  7.4590187099999996 12.9407026500000004
 -22.4645115000000004  4.9813998399999999  4.7646591999999997
 -12.0690627700000004 -1.6515108700000001 20.8186280100000012
 -13.1132349399999999 -4.3331348700000003 13.0899778100000006
 -12.8406723399999994 -5.4986484400000002  5.4694982500000000
 -23.8213187399999988 12.3291204299999997 21.0755132299999985
 -23.3597505100000014 10.5540247800000007 13.1293706199999995
 -24.2080885799999983  8.3562975300000009  5.3723871299999999
 -23.8329156699999984  6.1839384900000001 20.4388637399999986
 -14.4535277099999995 -1.2286209500000000 12.9296476400000007
 -14.6582082400000004 -2.8658669699999999  5.0806785100000003
 -14.1868637399999997 -3.9724569999999999 21.0163104099999991
 -14.4009543499999992 -6.8247741399999997 13.0529587599999992
 -25.0791090700000012 11.2122980400000003  4.7649244199999998
 -25.6372793799999990  9.9016453200000001 20.5362524200000003
 -25.2250439399999991  7.3276949199999999 12.9785730499999996
 -16.2574083599999994 -0.4372431100000000  5.7984120299999997
 -16.1317811999999989 -1.3273922899999999 21.5923487700000010
 -15.8454667600000008 -4.1368644699999999 13.4662393300000005
 -16.1268868900000015 -5.4384708000000002  4.8940274600000002
 -15.8848108700000008 -6.6324817700000001 21.9931733700000009
 -26.8633914300000001 10.1145680299999992 13.0433843799999991
 -26.5885657900000005  8.1574182099999994  4.9597707599999996
 -16.9286988100000002  1.3444526100000000 20.9528870299999994
 -17.1924228700000015 -1.1950724600000000 13.3508307500000001
 -17.6609385600000017 -3.1070970700000000  6.2017322100000003
 -17.5043566199999994 -4.4005909599999997 21.1582281799999983
 -17.3414170900000002 -6.8465349700000004 13.1486870600000003
 -17.0238990100000009 -8.0377392200000006  5.0489549199999999
 -28.6961987900000004  9.8257878699999992 21.2801856500000000
 -28.6046337800000003  7.4447305400000001 12.9221440699999999
 -9.4685715600000009 16.4860181099999998  4.8007920999999998
 -9.7591677000000008 14.2823283100000005 20.8132724600000003
 -9.3041789500000007 12.4659767400000003 12.5198019899999995
 -9.2662451800000003 10.8829297100000009  4.7397182300000003
 -9.8560633099999997  8.6554400800000000 21.2542244300000007
 -10.0656894599999998  7.4032431499999998 13.2141204499999994
 -19.3182882199999995 -9.1531456099999993 12.8443657099999999
 -1.1446466200000001  2.5460305499999998  5.0492815699999998
 -2.9168404799999998  4.0170855300000001 20.6770370200000002
 -4.7846146500000000  4.4922915600000000 12.8870867800000006
 -6.8091639300000004  5.1472294500000002  5.2531093499999999
 -7.9365745399999996  6.2933041000000003 21.2320364700000006
 -27.1422736899999997  6.7114532499999999 20.1771076100000002
 -27.3480479900000013  4.5987805399999999 12.5548071199999995
 -7.9412075299999998 13.1684920299999995  5.1271007500000003
 -8.0190613899999992 11.8348817799999999 21.1600796299999985
 -8.1104591199999998 10.0404102500000008 12.3617662799999994
 -8.2068784000000008  7.8447237799999998  5.2320912499999999
 -19.0490706600000017 -7.2161283200000002 20.8386597800000004
 -20.7635667200000000 -6.5697383199999999 12.9449967899999994
 -3.1136494300000002  5.1420932199999996  5.0957159699999997
 -4.5734348999999996  6.7688796399999998 20.4117127700000012
 -6.2482174900000000  7.5417630700000000 13.0036296199999999
 -25.6240326200000013  5.6026234700000002  4.5721230200000003
 -25.3517239399999994  3.5297131099999999 20.8274102100000000