Li                                      
   1.00000000000000     
   -10.6364300000000007   18.4228371711498369    0.0000000000000014
   -18.2338799999999992  -10.5273355263713349    0.0000000000000078
    -0.0000000000000001    0.0000000000000000   22.3096999999999994
   Li
   504
Direct
  0.0006169212979898  0.9986153676451934  0.9997621102031857
  0.9305428410466448  0.0433598558949768  0.6649686719229777
  0.8502973179140909  0.0853493139594548  0.3211822897663339
  0.7907585873498277  0.1314675164449142  0.0214616337288263
  0.7199765159614060  0.1709011996532084  0.6789238591285383
  0.6517897838292512  0.2075658756986982  0.3167330488531874
  0.5762406291282574  0.2496090796430224  0.0141120068849006
  0.4979959088898340  0.2844696090358667  0.6727175735218296
  0.4328052090572783  0.3219131227268619  0.3048107719960385
  0.3570956164706800  0.3802588534147873  0.0023900065890601
  0.2862294889718129  0.4037896710198581  0.6724787630492557
  0.2226090636902640  0.4517399147462271  0.3297133345585124
  0.0636525293071912  0.0422598540574484  0.6577746316624626
  0.0047218889226812  0.0828375934801642  0.3436338597112467
  0.9293070206980758  0.1218115544160838  0.0118188088589264
  0.8598588865287269  0.1695311850006291  0.6601948641174005
  0.7908751544685586  0.2107797369926772  0.3195558573176669
  0.7175384419442636  0.2466477441965580  0.0164033877640648
  0.6375188862435053  0.2848141077375175  0.6754686145488265
  0.5625390566704311  0.3279192142022964  0.3304076406226883
  0.4921908050297077  0.3751582343230240  0.0167704455909288
  0.4300938622305921  0.4134893764220635  0.6531142686813354
  0.3541451196700152  0.4453373365837834  0.3702087800373803
  0.2836788229928757  0.4961961155143015  0.0135646019444451
  0.1446994978409109  0.0751186779873478  0.3400194247345354
  0.0724378658730629  0.1233397154248976  0.0028516640743703
  0.9997812003983952  0.1790088152739031  0.6735940366746291
  0.9213485297499915  0.2083173245470107  0.3235073438907747
  0.8570123768470950  0.2550612883561953  0.0104008955745698
  0.7878554285492001  0.2794931706316177  0.6680577412515660
  0.7156747311067093  0.3225506606281598  0.3278117621483005
  0.6411570118820222  0.3691731427489771  0.0149884709341706
  0.5670695165282780  0.4155663858878711  0.6551026674495830
  0.4959797146230329  0.4570268897235295  0.3327852091242818
  0.4279512866431503  0.4955231917842084  0.9943163027741306
  0.3475691748974441  0.5404422696126971  0.6699487406823010
  0.2134480077292622  0.1188856807847927  0.0134156259384923
  0.1480952019929873  0.1565372746045099  0.6671584709789897
  0.0778018132814609  0.2061521485914497  0.3204760220890464
  0.9927416581524398  0.2480156601325447  0.0125732228582152
  0.9305294305547278  0.2847641708163451  0.6648953464188239
  0.8509696375607305  0.3292669699460546  0.3316039350596398
  0.7908923173771001  0.3739140253572302  0.0088197434299886
  0.7216380476051398  0.4149654199386674  0.6776405760722923
  0.6427358642028835  0.4450463062121983  0.3282001165412325
  0.5829150024740102  0.4920656135850052  0.0071411220231568
  0.5013796012995329  0.5324228473232040  0.6788548922665925
  0.4228026634953395  0.5792361694778236  0.3425334060968979
  0.2775469074199748  0.1546824453989473  0.6532148383886849
  0.2133438608163445  0.1995994384353281  0.3254526461583964
  0.1482361507555794  0.2441009258050855  0.0316939748181255
  0.0755118005101423  0.2829687899503526  0.6565520302827892
  0.0137114446951969  0.3304083331852965  0.3307713299596173
  0.9417866213546731  0.3698326405035317  0.0391079682828561
  0.8574408109736567  0.4159166460970170  0.6549494874426784
  0.7887279368226956  0.4588754571677001  0.3390734178406731
  0.7131502224427990  0.5018955169992765  0.0088883472211663
  0.6471452058828930  0.5319776234016587  0.6667186923176942
  0.5657250749014509  0.5826257226419145  0.3424154022689692
  0.4887863343698342  0.6196347644888931  0.0040337830629724
  0.3581565621218985  0.2058141502494095  0.3221254064375572
  0.2882209788587460  0.2479570016824439  0.0006776137733837
  0.2097679228574805  0.2977617431002599  0.6636127747123481
  0.1441070374782285  0.3357911104688327  0.3269041143538445
  0.0641137862613093  0.3830430325524077  0.0258080906511537
  0.0113634034822425  0.4232196287514967  0.6469908228259484
  0.9328576724822000  0.4614607097710532  0.3195914794909811
  0.8525857907528263  0.5018886017492150  0.9884981039637495
  0.7838262715698505  0.5343072686826034  0.6461829625678490
  0.7134602694997696  0.5796334113027228  0.3589781310371691
  0.6327476493607804  0.6165576169147471  0.0079504462184588
  0.5598795785743818  0.6636266189129287  0.6482923504126035
  0.4246378217571305  0.2450070343518647  0.0244699220518427
  0.3615484294216387  0.2843813049579609  0.6662851862642682
  0.2821938473424765  0.3389622437084725  0.3275505201773186
  0.2093160515460255  0.3782828185692964  0.9987169975391836
  0.1461978927920669  0.4206280252568106  0.6788927027257188
  0.0766071344393353  0.4602990815468502  0.3344535148388346
  0.0044859375033752  0.5010578587640637  0.0191990277771552
  0.9278951342282156  0.5442559102857416  0.6793168666544176
  0.8465699822142199  0.5756671012465375  0.3411591791911164
  0.7782833292618179  0.6138771165621222  0.0074764492574957
  0.7033771703825735  0.6645583777905557  0.6546094550800774
  0.6392123587715446  0.6996159336790413  0.3444952751493773
  0.1470960556055019  0.5011932057947064  0.0073264709969223
  0.0701416891701925  0.5398170319789060  0.6442596148760416
  0.0025501411707154  0.5918298130703690  0.3241163579071014
  0.9303811172286629  0.6231511918075370  0.0081906596682160
  0.8482629528288754  0.6588572854840749  0.6543456805784018
  0.7784550811852640  0.7038745917395914  0.3399769880365966
  0.7051032878228014  0.7421693685766755  0.9882518160262137
  0.2103554273787438  0.5404044444498837  0.6649245050359269
  0.1429432568084792  0.5844718959971544  0.3427174224664640
  0.0784803307969213  0.6181289053729486  0.0112503919819602
  0.0003707257421368  0.6753464666650544  0.6745638300828816
  0.9343696383790459  0.7002985073531249  0.3271958358920131
  0.8498255671564579  0.7443834347231686  0.0086548106877302
  0.7739988136861697  0.7914621077984521  0.6831323245045908
  0.2823329110380186  0.5864924626600541  0.3431136469786651
  0.2173071759855603  0.6315391679736777  0.9892327055047829
  0.1479414133818153  0.6633438073774371  0.6536441740588188
  0.0745214067219351  0.7087097882568401  0.3506521226193087
  0.0083120340563880  0.7487074161726213  0.9987110906914936
  0.9239056312023450  0.7996864500101140  0.6539497702792971
  0.8479748045216482  0.8430789354729669  0.3543509518281311
  0.3608524431434219  0.6171315758454057  0.9910216372250602
  0.2928225187828701  0.6599648558914666  0.6629167613190674
  0.2164168842374181  0.6992861299948530  0.3337650860388095
  0.1434225332360199  0.7456563208056863  0.9981694953316236
  0.0700310456488467  0.7940766844538416  0.6557301967305733
  0.0108696266350776  0.8334288092918172  0.3330555453457436
  0.9313732278711626  0.8708936434743606  0.0068576206762074
  0.4228316427298680  0.6642328780445368  0.6552546322899886
  0.3532061877883663  0.7022227615856949  0.3178374975907303
  0.2822278518457253  0.7605987184182723  0.9905115765787968
  0.2130621362765694  0.7876057795622060  0.6651551993079252
  0.1435126889437868  0.8274950208040011  0.3554341730278736
  0.0734316151889303  0.8724186330751351  0.0048076737921150
  0.0072167711946207  0.9230391002004197  0.6596464519917333
  0.9205235076311240  0.9583608917974189  0.3252117948694959
  0.8587825008262513  0.9979293828157623  0.0035408858030337
  0.7809096787365704  0.0460696645911867  0.6736096402013487
  0.7048360645335947  0.0879764207131402  0.3285375020730896
  0.6449889070924399  0.1330582766221298  0.9783996772704242
  0.5688292628709704  0.1648941285958472  0.6667420373200912
  0.4994369682212962  0.2151327681273543  0.3278688359771778
  0.0708281119900533  0.9589934147195009  0.3407553615691796
  0.1384390133604327  0.9904790705611077  0.9804505542432196
  0.2185023641132560  0.0460586407980585  0.6682953500047049
  0.2845472777624636  0.0759685595380120  0.3429858971658035
  0.3582680651483656  0.1127945941189665  0.0165930048364586
  0.4355306953697209  0.1721087676264546  0.6536491911590048
  0.8544261446721606  0.9175960273965131  0.6736498751664044
  0.7869859918300932  0.9531489889655234  0.3117281514318861
  0.7175052636170918  0.0044676946928064  0.9752131315078216
  0.6397695637330898  0.0457705189034101  0.7050719373187420
  0.5675396976352047  0.0709295895268554  0.3293953912423717
  0.5030671761386856  0.1212820631540410  0.9883581253894036
  0.1420374832425182  0.9103180355533098  0.6613610456438224
  0.2193508427197557  0.9624776386578304  0.3345337897865051
  0.2922641241266319  0.0080923885764150  0.9962629959165739
  0.3524755913987434  0.0418328109748813  0.6574900133125965
  0.4280388358746379  0.0793731770165209  0.3291394043846410
  0.7853854711530630  0.8832194422176443  0.9915175824865443
  0.7102356324995185  0.9274660692849324  0.6839240303545111
  0.6401373729532054  0.9737226170293596  0.3416484322962674
  0.5669333066432074  0.9872048378743870  0.9829980896202102
  0.4940820638078449  0.0349548639155444  0.6574650963482256
  0.2215207701748483  0.8721305610483938  0.9915406522723273
  0.2871734712649712  0.9188840287987574  0.6641186999376956
  0.3626336325867641  0.9512933430155925  0.3265041690385786
  0.4235969173522989  0.9995187409572992  0.9987473708745540
  0.7121537054581495  0.8365031887153904  0.3349005275732111
  0.6493345390083576  0.8808005158120693  0.9662755424770353
  0.5733242560832181  0.9158868739329620  0.6785574803784868
  0.4966415875356134  0.9578066505367246  0.3346984755509936
  0.2902849640760010  0.8339234134234204  0.3188603737387794
  0.3653134480596876  0.8778271811405176  0.9996357136133582
  0.4303034103362293  0.9186143567467511  0.6506719669022871
  0.6462839901451432  0.7937838226806662  0.6653187608977262
  0.5622727350764194  0.8288084874119548  0.3142864843543407
  0.5101248062364334  0.8740993434860087  0.9750481682855465
  0.3432106051070747  0.7902721227473819  0.6543429311017164
  0.4417556292948461  0.8366313171908217  0.3225482597255933
  0.5590253906614819  0.7479399926952723  0.0057849119441329
  0.4992830037158598  0.7821917814961239  0.6709363908972321
  0.4337362340218434  0.7492972685113131  0.9773055428804511
  0.4960572722707539  0.7052555203555784  0.3429972787621551
  0.0050994918996494  0.9988791996752084  0.7560510343034679
  0.9335026545432612  0.0413831526880983  0.4456682900263118
  0.8391175994623126  0.0761376504370475  0.1070682895780735
  0.8015753248222595  0.1344543124009121  0.7807137469351915
  0.7302404122587731  0.1787868617013189  0.4180715903844501
  0.6060630482677070  0.2260243931359582  0.1240726177402678
  0.5806093316328145  0.2604850068521216  0.7891841961120036
  0.5082446821313056  0.3006818557343891  0.4416843745097410
  0.4245399765625137  0.3327878694546200  0.1128447930720711
  0.3584084038354831  0.3820226375950782  0.7802056939358195
  0.3029961677676312  0.3979076302614359  0.4624805174430833
  0.2113535706632135  0.4716547026957869  0.1169210406235877
  0.0614155799238318  0.0396406866355790  0.4389722950106929
  0.0014588730322274  0.0731192093571877  0.1163204359538668
  0.9492879387827173  0.1206151444066421  0.7867742372152051
  0.8638497016042592  0.1844626836616996  0.4294287910639767
  0.7588661153032774  0.2138353452586514  0.1194246740207205
  0.7131286605944140  0.2521421255703018  0.7831153067948051
  0.6443842178326520  0.2851011799967011  0.4358156707620466
  0.5640669221686423  0.3427291161857937  0.1289449333697874
  0.5142694501847487  0.3907246418190482  0.7755995405585878
  0.4345090784926384  0.4064688526111055  0.4333556757822805
  0.3582048901468298  0.4636908886257629  0.0998634069485433
  0.3064917292003315  0.4980868946588259  0.7811803973159641
  0.1302143514198448  0.0933036570454249  0.1207630196730562
  0.0869246194386619  0.1245164046304978  0.7606734859724682
  0.9932909676726425  0.1635385777858431  0.4409801019287585
  0.9095228450559532  0.2055055832966701  0.1207013397759695
  0.8589569101305941  0.2495697516041346  0.7761362689771687
  0.7835625300415785  0.3067722897479754  0.4428906569788040
  0.7033887323449051  0.3411932767806221  0.1183330631967294
  0.6568982137056452  0.3842171097317078  0.7963870316499069
  0.5814678880028836  0.4145804662534474  0.4355183655539960
  0.4926016816800072  0.4632886925288702  0.1126608986225719
  0.4275794324298943  0.5124423001313900  0.7798492669108086
  0.3554300046620966  0.5199198275688914  0.4513405989323047
  0.2300395134932458  0.1220022632316855  0.7820459557950130
  0.1431749202594403  0.1585280386239702  0.4286725141978636
  0.0685050378699188  0.2059657823814405  0.1286446415684637
  0.9980791697409899  0.2555888733825071  0.7936328839025180
  0.9192482723191588  0.2986653520181264  0.4480260384496404
  0.8481310994926545  0.3277475802968652  0.1168314831665143
  0.7868935123912024  0.3815264128093858  0.7930347342187503
  0.7240270090691538  0.4083251611794410  0.4325378171826628
  0.6333701065323538  0.4740136332901201  0.0989714850491055
  0.5722611434976699  0.5056654214828171  0.7783604665235302
  0.4968949386896568  0.5409828652636293  0.4390281832566103
  0.4215133682771466  0.6071781965361183  0.1131349256153129
  0.2988364634630685  0.1521407865428230  0.4513674087952779
  0.2092748301444445  0.2157587533978855  0.1238778284781930
  0.1395889492196432  0.2451950672512737  0.7836650560070311
  0.0858836899134019  0.2980266067394552  0.4342053716544854
  0.0082721390429654  0.3387704241839486  0.1356360829594294
  0.9431574022435285  0.3938953838708414  0.7551396473282921
  0.8675471472641192  0.4201537427264839  0.4339411081278541
  0.7764085670680458  0.4696119808280201  0.0784661232558008
  0.7200408771434255  0.5061457557648339  0.7760083080453768
  0.6596486603488430  0.5322186868404160  0.4618627986929482
  0.5728191656046562  0.6004447897204344  0.1268124748427795
  0.5060867613251077  0.6169966172443182  0.7808413398656171
  0.3376813007916155  0.2163083217516544  0.1210497268004502
  0.2926848738086960  0.2543666596289427  0.7764654101130901
  0.2214247946442143  0.2734910700027910  0.4242472404380138
  0.1261177524072181  0.3270856940356808  0.1288722430153726
  0.0716260559475899  0.3690874377662539  0.7938456030336596
  0.9899929829555987  0.4223995335222952  0.4468350730847988
  0.9354953961924508  0.4713724337922969  0.1295131969502066
  0.8727072384344012  0.5034017476203161  0.7885311850898944
  0.7912232199060938  0.5343671712819358  0.4521294051466427
  0.7009612374229519  0.6006234611304535  0.1113298206609699
  0.6508071603358374  0.6213761001821396  0.7735210522777081
  0.5812451817879207  0.6545201312652864  0.4609544171369393
  0.4371216125461004  0.2446362258974091  0.7738402528944803
  0.3741246269842335  0.2780017239230546  0.4220739333115162
  0.2791048508691674  0.3392476094539205  0.0932671582316189
  0.2128081334097658  0.3825022219931427  0.7823179746926243
  0.1502472999402542  0.4109312675906835  0.4392938260039330
  0.0654991313506770  0.4624014699190582  0.1152590774416495
  0.0216278176413169  0.5122465433361043  0.7832950102421847
  0.9358453893227008  0.5526195683884225  0.4277157613056204
  0.8597118660736598  0.5957947922404969  0.1049265386804805
  0.7723004263724462  0.6270709512138595  0.7582093008870601
  0.7125978237609374  0.6570724584901555  0.4358079862122750
  0.6389599654315745  0.7072590992638226  0.1095722730471493
  0.1462984778257379  0.5088990791592352  0.7690467868236652
  0.0792198863443190  0.5233021169543051  0.4652154820548873
  0.9912283350402546  0.5983206234947147  0.1121288157169289
  0.9254374909483190  0.6325007397302471  0.7792519168792040
  0.8446931645198248  0.6640811211934263  0.4547339587712997
  0.7778590462599837  0.7164676363225411  0.1163278018081826
  0.7183400597880407  0.7537798909430506  0.7827124089521575
  0.2232930389356795  0.5334750520390301  0.4451160938963739
  0.1301380734515334  0.5959940424856356  0.0996038001407484
  0.0648522304752603  0.6270159686367336  0.7952164748965700
  0.9951961414272290  0.6438313949329029  0.4581222835806855
  0.9247437908982050  0.7056208283797289  0.1082312092946083
  0.8585370657630094  0.7564679759659683  0.7606471682720937
  0.7762252690396210  0.7968257930637321  0.4589695872199115
  0.2834066355851803  0.5894452765435929  0.1028237506555456
  0.2283345099955625  0.6232034793388976  0.7742658453497810
  0.1375868218650709  0.6701247013970573  0.4540007216591917
  0.0572811929297785  0.7093011932230482  0.1205860101211584
  0.0129347405682196  0.7506186328624480  0.7692480414348921
  0.9201002607266133  0.7860354183420952  0.4637298632433442
  0.8541223880340354  0.8379162141158787  0.1133046535811744
  0.3691928992285654  0.6194539407333153  0.7835196152346313
  0.2934939664679348  0.6525925831606614  0.4470246520571735
  0.2032657074263966  0.7098273292112651  0.1095220312240883
  0.1464597341010361  0.7574798156188223  0.7842576888080046
  0.0943028235978431  0.7677392473790121  0.4688058463358971
  0.0037066128187462  0.8338718057931871  0.1138276193763232
  0.9326641141462559  0.8696285149606879  0.7853825654311777
  0.4410546835465894  0.6630382399294348  0.4572505762067607
  0.3464721125667936  0.7201978957704682  0.1132899944867063
  0.2828464357443892  0.7560326181512309  0.7553717535421782
  0.2169307599248853  0.7866658488051996  0.4455559465165351
  0.1449881800349218  0.8272266606027401  0.1130357306463097
  0.0808733574166851  0.8726943681198094  0.7794796115590970
  0.9974958876358784  0.9119813235511671  0.4616711650089442
  0.9354591666309489  0.9540453006311083  0.0955722219483022
  0.8641413826493505  0.0001915836534536  0.8049094196694710
  0.7860696322079050  0.0431393231662653  0.4324344379350720
  0.6802871111224178  0.0842399945949026  0.0953756608112144
  0.6425426003266779  0.1282489047645043  0.7992849854547543
  0.5897179690232974  0.1632198447473314  0.4372648543010413
  0.4797769167704899  0.2252500597324811  0.1041897766442403
  0.0679229631601359  0.9604268140930330  0.1108332586274159
  0.1268698549461149  0.0051769167481339  0.7702253781987238
  0.2177296454617519  0.0395497972522136  0.4498146720933036
  0.2598709257984808  0.0856992027319095  0.1205891284956735
  0.3568687683590284  0.1299810049294479  0.7692937610097843
  0.4542653325439545  0.1774807632259012  0.4380990268806855
  0.8468140731802904  0.9256514404834846  0.4486348543458689
  0.7711419475569699  0.9531152170984285  0.0964000847165138
  0.7057389324112719  0.9969512159306078  0.8008389691479465
  0.6494025642931049  0.0446969291821517  0.4285247650125257
  0.5446125773887616  0.0868856257409192  0.0921286745227405
  0.4973307923225363  0.1344971416186098  0.7722583100624405
  0.1298927586392935  0.9139310111301739  0.4698139679153002
  0.1904381119418872  0.9633760073554285  0.1154426809862983
  0.2900911477162111  0.0067456944817508  0.7745356324827313
  0.3602243528309685  0.0516660911894817  0.4371440386916916
  0.4066261093235255  0.0834220035454862  0.1272795532884814
  0.7900037237494999  0.8645539837159788  0.7898158648480234
  0.7022420781993475  0.9280490478262493  0.4527015459643096
  0.6210841994053098  0.9594814613740681  0.0870466554906599
  0.5587364075735763  0.9871047419634280  0.7726162355387984
  0.4951814362344109  0.0293508636775712  0.4375910913190211
  0.2222354061647636  0.8751851157738741  0.7802995136644597
  0.2849665779781176  0.9227386541425204  0.4364541495403316
  0.3505841495176938  0.9572142947384492  0.1020916847828488
  0.4239400860946247  0.0126180845799411  0.7627342353326156
  0.6909126274951944  0.8399080739552574  0.1032974885363771
  0.6477320478606998  0.8715197036600557  0.7694688816972004
  0.5651259705483582  0.9210489864516163  0.4606777137299005
  0.4795126562030916  0.9729371739959731  0.0955981568555373
  0.2789763012092550  0.8322834833029944  0.1083187716553766
  0.3676628511428177  0.8805446076325509  0.7887001689847892
  0.4157710538352219  0.9083842166261604  0.4540640156523850
  0.6418352554711149  0.7936855048760521  0.4513968959690189
  0.5510321480755707  0.8540883623915789  0.1106712932042981
  0.5045978152420076  0.8759803289275467  0.7706002909048522
  0.3598866156278078  0.7797616851124332  0.4329706768804584
  0.4197112024405101  0.8320272873916963  0.1059903391798187
  0.5804306688175132  0.7503901106769035  0.7629587314038275
  0.4919513345152637  0.7870984753119927  0.4235696535587650
  0.4373018997800813  0.7465440846447464  0.7500322725092659
  0.5031381262683041  0.7300084485373404  0.1257097150566793
  0.9994044109293156  0.0017547374151405  0.2216630371542436
  0.9367176352116928  0.0309660101583020  0.8833592240146686
  0.8546751373090231  0.0993542142030250  0.5402423120884663
  0.7572559589948682  0.1256317969663172  0.1879241760310535
  0.7195133867643193  0.1703675447912545  0.9009553629138907
  0.6713288972260969  0.1971615995979690  0.5519340533489938
  0.5540470610856048  0.2515518561083638  0.2317758387607185
  0.5128397661194413  0.2939788095816240  0.9119165614060236
  0.4345172999103681  0.3197115723978854  0.5365809589550707
  0.3543079906897475  0.3771506266679268  0.2081154865372454
  0.2885388765036225  0.4308472688089751  0.8951000762000376
  0.2199927096208540  0.4463160366091827  0.5531327848424681
  0.0809335132054656  0.0435351561014983  0.8929773623132533
  0.9926398686394791  0.0929577589633652  0.5518869321416275
  0.9081853699536637  0.1045894299767127  0.2211039390937586
  0.8626424259391143  0.1626351402701118  0.8985835210693125
  0.7871041040189795  0.2150819482682422  0.5488887430131300
  0.6926206790344196  0.2549405425997051  0.2125011430005799
  0.6528011016377988  0.3005992031595426  0.9031552808867858
  0.5909283708080082  0.3220262949458146  0.5535690842996530
  0.4844549232365836  0.3678794085975525  0.2289573669749032
  0.4390355692088903  0.4179642572288245  0.8832353066155108
  0.3567724449486462  0.4404693237739252  0.5494168639649999
  0.2799926166248028  0.5132818101662124  0.2308587318520665
  0.1451031128541018  0.0681313366845231  0.5464309408015353
  0.0549128402538557  0.1077986582416202  0.2250418145470334
  0.0082232571999583  0.1633413996593518  0.8942738593526585
  0.9300195082266782  0.2085505976847770  0.5641517339991111
  0.8439423730688063  0.2449021724843945  0.2092833081574383
  0.7941548303743318  0.2876582152323905  0.9125678054837110
  0.7225105514795374  0.3325090537464561  0.5664661237040391
  0.6272132120990861  0.3764428034204954  0.2248332913486095
  0.5894688571043503  0.4210909731899903  0.9059902795644916
  0.4979913733991879  0.4462228218149775  0.5394356916498211
  0.4376557203515077  0.5122994056329020  0.2260647942374874
  0.3608669445919830  0.5467266656648775  0.8924463659305175
  0.1966535469862407  0.1245577679149505  0.2183027472355050
  0.1497014348609156  0.1631867840088006  0.9071095308318817
  0.0850570296449433  0.2077180747144141  0.5551533324069808
  0.0073914893239717  0.2477157308927005  0.2181881683751925
  0.9352105915635534  0.2965428119289868  0.8990060180101054
  0.8513903772821934  0.3428642575998282  0.5562645517420677
  0.7758794430773790  0.3811122210559930  0.2157367490374114
  0.7203126623648473  0.4260018168729118  0.8991615763546790
  0.6618258249232767  0.4440180828771076  0.5450431507371221
  0.5733197513724733  0.5134059556665562  0.2110046352035226
  0.5055888766866303  0.5372577226758111  0.8862329300707756
  0.4367415741789742  0.5667977478274224  0.5537021152234232
  0.2860806755766205  0.1590084375830330  0.9057273589514878
  0.2105867945466429  0.2046138019379455  0.5452272280667145
  0.1420805193051322  0.2503663225845116  0.2283935167214253
  0.0782519532248998  0.2976724409264548  0.9228934167649072
  0.0033929626662399  0.3206621733886550  0.5483230034469315
  0.9280806714469563  0.3669774153280301  0.2382671936422298
  0.8586459239346453  0.4174643216519911  0.9035507070915330
  0.7818533276159130  0.4460650004577360  0.5514136478751368
  0.7076161610284899  0.5259190115516716  0.2203113188433719
  0.6534050758196983  0.5278797046705961  0.8858655611684583
  0.5767840814157239  0.5712984714667044  0.5470410503054737
  0.4961925990600093  0.6372588677549800  0.2353163901800528
  0.3715166341122753  0.1938885353764093  0.5700220020887770
  0.2637440515342675  0.2536556842503828  0.2174666306584143
  0.2125536335514013  0.3007538349207550  0.8841404971828410
  0.1575830218243581  0.3367740634015775  0.5429406554099785
  0.0696492874927586  0.3857702912947403  0.2218098477343915
  0.0064832867151523  0.4141016001358082  0.9099718109163248
  0.9144167578242488  0.4580194963757265  0.5467365531584889
  0.8492962332569576  0.5128198395349060  0.2078195471028295
  0.7800643904956104  0.5469817595048809  0.8973586368261337
  0.7184049233191843  0.5630358964444255  0.5546010694899550
  0.6475285966516111  0.6347194057829100  0.2328426823310039
  0.5752664633827322  0.6574510746413864  0.8852183763116486
  0.4121352238244782  0.2494757951273456  0.2089436056961773
  0.3611619652983791  0.2920530253265525  0.9047408548747882
  0.2913564415742584  0.3203275048506597  0.5545053407262301
  0.1990236035020487  0.3779442320012336  0.2196242056146005
  0.1471025849947196  0.4336095927956407  0.8925710910500797
  0.0641906933500778  0.4500575107179827  0.5485050646131526
  0.9841388709148760  0.5053134916559117  0.2097566762439627
  0.9363227236645244  0.5295280172038517  0.8936940214346194
  0.8596647473198686  0.5643790631321792  0.5475067481857678
  0.7915485116429011  0.6262473677739493  0.2327835398952018
  0.7101889139877358  0.6536862965859953  0.8910478581065604
  0.6484353907117040  0.6978082013906146  0.5476206972751783
  0.1273173700098766  0.5200311933667336  0.2085502207559955
  0.0659763825700566  0.5540228368915692  0.9125372649564980
  0.0075932494591697  0.5783543427759170  0.5669131938125531
  0.9326682642729196  0.6346175478745977  0.2161820199285529
  0.8585390198284486  0.6502311150082178  0.8962280478894797
  0.7775379281247794  0.6892282863085484  0.5597842373496746
  0.7145813070637033  0.7517121911578002  0.2273336844511604
  0.2218659955410516  0.5350836634357208  0.8925902096397493
  0.1551687710751608  0.5799074721492659  0.5366163964553508
  0.0747632122075785  0.6472098070613015  0.2408444909613294
  0.0057746411324615  0.6762431174176555  0.8852404478769316
  0.9304590369059369  0.6988117622844214  0.5687769275248016
  0.8615575947604270  0.7465339764417820  0.2322020547116281
  0.7914134278308964  0.7829121713983298  0.8790686468217856
  0.2901964654498954  0.5732052080519736  0.5521252531410070
  0.2174841428817800  0.6389950377060671  0.2178187304177115
  0.1507352280631409  0.6727188655498679  0.8843801041699351
  0.0693224080576513  0.6851916382724568  0.5523034644123399
  0.9834882618100806  0.7664184642783312  0.2299484914633538
  0.9441726508205619  0.7956916274338042  0.8830502346512930
  0.8441405617051103  0.8328548079324278  0.5550747226542683
  0.3421555789411954  0.6349247310765733  0.2130033559393425
  0.3075647027546893  0.6698257484791483  0.8697026324872112
  0.2305201217009838  0.6982644353223790  0.5606011452417548
  0.1437017048995344  0.7533812169958054  0.2320029484932533
  0.0787637578002816  0.8018483056606911  0.8961754752417121
  0.0079557182327221  0.8223917696024046  0.5476663895077039
  0.9273011095996395  0.8756602834295890  0.2336090803551798
  0.4311121060182685  0.6571997771282980  0.8840775783627777
  0.3789066194237094  0.7044443747552975  0.5697877152090811
  0.2828004300969837  0.7459071553231382  0.2305344979986259
  0.2345422403508550  0.7959931193177141  0.8806109351537685
  0.1479101487318673  0.8368862922605587  0.5501413954468219
  0.0668498408196214  0.8791860370700562  0.2262926816586486
  0.0032951272708033  0.9201490187191652  0.8699850374500784
  0.9246755067832098  0.9597119301753594  0.5557232826976630
  0.8496185045339004  0.9909573782332970  0.2133151709794419
  0.7923110139095968  0.0445905250183429  0.9038916699910828
  0.7348909676544295  0.0949859423727375  0.5613778567170300
  0.6028768510178750  0.1423238545788337  0.2178846739310671
  0.5703195943122594  0.1737089548395261  0.9146104609205850
  0.5151126670902002  0.2085768374247152  0.5467461956010169
  0.0744479421173025  0.9546283596812799  0.5387599223656068
  0.1497967713117774  0.0034683198373742  0.2241008664392652
  0.2126690058160534  0.0470992611812733  0.8831237744120273
  0.2863669109461213  0.0769633417245998  0.5519649318457880
  0.3352550557425786  0.1286113261383761  0.2181341080337234
  0.4203130327980844  0.1669080803732115  0.8996273921209195
  0.8610614002758723  0.9093943170769805  0.9008300272975447
  0.7959443524837724  0.9647102087384027  0.5608341810961122
  0.7187923743671263  0.9977272333431060  0.2068994562903157
  0.6410357138128759  0.0444757864222680  0.8711340098701470
  0.5779198501162028  0.0856762695942095  0.5571664804995109
  0.4873658688031810  0.1320161431404472  0.2110915574839609
  0.1511579106650132  0.9215356393847784  0.8819317341784085
  0.2186474797177809  0.9513457381152790  0.5642367548644742
  0.2835802427466945  0.0026516127473570  0.2201276879563565
  0.3551987936778005  0.0559721087865910  0.8862569281523278
  0.4357196630442388  0.0836949104856686  0.5474090485304615
  0.7750920242362085  0.8705162253263339  0.2214561562907633
  0.7251234107638922  0.8994268570402255  0.8575172552746082
  0.6590007517158369  0.9697684527060133  0.5781734837312911
  0.5611582099633097  0.0076502291777700  0.2188978112659541
  0.5048331315223891  0.0550406405483272  0.8898088387562382
  0.2149030273150032  0.8679844379350854  0.2254742062869539
  0.2946337773157026  0.9103365861761716  0.9023904176210351
  0.3551370051251723  0.9648746583051135  0.5434172203122429