Li                                      
   1.00000000000000     
    22.7325000000000017   -0.0000000000000006    0.0000000000000000
    -0.0000000000000006   22.7325000000000017    0.0000000000000000
     0.0000000000000006    0.0000000000000006   22.7325000000000017
   Li
   500
Direct
  0.9889764790498177  0.0055313709446807  0.0063769783349841
  0.9960703341031589  0.1119821805784653  0.1115871659518319
  0.0048435645001632  0.2131786473111177  0.2055080039590891
  0.0048271114043743  0.2890918486748077  0.3191647619047586
  0.0066533935994713  0.3820187388100749  0.3949004148245905
  0.9996321442868137  0.4919804821291081  0.4902460006598517
  0.0009784300010978  0.6016367020785225  0.6164097683932681
  0.0010557197844463  0.6969528490047310  0.7025440343121048
  0.0341644025074217  0.8114282353458719  0.8124759872429337
  0.0288643690751158  0.9070358715495459  0.9021832438139228
  0.1255618308588993  0.0298840057186851  0.1026719766853645
  0.1106179769053099  0.1325442327064792  0.2073555350269416
  0.1151869015726348  0.2136811103046270  0.3021253927196739
  0.1012364231826695  0.3076408494446312  0.4131751043659975
  0.0833937046079427  0.3942449985703291  0.5115094644231846
  0.0944303464203244  0.4830697578357004  0.6243523602771361
  0.1101655704388023  0.5872839107005419  0.7182466486308172
  0.1125127289123498  0.7006450913889779  0.8014218119432499
  0.1127112842846145  0.8082771507753250  0.9038221673814988
  0.1087369968107339  0.9297834435279881  0.0169263692950636
  0.2141702826349956  0.9742531481359293  0.2037581849774526
  0.2008674510062676  0.1002026305949641  0.2995566176179452
  0.1995368696799744  0.2103885731881689  0.4319860851204211
  0.1872778986033197  0.3193312090619145  0.5299543437809291
  0.1892895981524276  0.4263295018145854  0.6140309042120293
  0.2166013364126229  0.4822601781590237  0.7160990753326715
  0.2138144273617044  0.5853132664687095  0.7990912948421851
  0.2109122995710990  0.6898406739249978  0.8889012361156929
  0.2110533650060518  0.8248692545914409  0.0045007680633447
  0.2101266772242383  0.8975184775101752  0.0971592556911887
  0.2945752935224917  0.0344942153304757  0.3145299399538075
  0.2789949583195863  0.0992412915429455  0.4141770966677640
  0.3272167676234474  0.2089045648300925  0.5148044346200393
  0.3017476142087290  0.3033616694160344  0.6077683303640171
  0.3038638271197627  0.3968749411635315  0.6899641500055012
  0.3167426939403910  0.4972003022104943  0.7887568841966370
  0.3108003945892435  0.5818900424502331  0.9162422509622772
  0.2887538150225453  0.7005620969976931  0.9877429442428252
  0.2867091943253044  0.7672024387990746  0.0940573935994706
  0.3122837378203016  0.8984781568239271  0.2025261172330346
  0.4247858722093909  0.0089398829869154  0.4055730759925211
  0.4152898000659846  0.0936621590234239  0.4945341906961431
  0.4131980516881129  0.1838107423292641  0.5950584326404922
  0.3886559436929531  0.2822364126250960  0.6889822113713819
  0.4310280958979433  0.4074109363246450  0.7730629064115249
  0.4158513911800270  0.4971824251622152  0.8947810610359639
  0.4189146539096029  0.6183108492246774  0.0092057296821721
  0.4112791443967865  0.7007501519850408  0.1262968622016913
  0.3844890944682717  0.7776040343121053  0.2299929387440898
  0.3755870102276475  0.9001747731221812  0.3274546688661601
  0.5116329321456092  0.0100449449026740  0.5060939434730045
  0.4962589825140213  0.1051131811283383  0.6016077976465439
  0.5155845824260439  0.2028980371714511  0.6925839599692054
  0.5036197646541325  0.3065445841856373  0.8010271980644461
  0.5151082960519062  0.4018741629825158  0.9072120131969612
  0.4907978700098994  0.5037455361266936  0.9984117721324068
  0.5058152429341263  0.5984939883426819  0.1051153577477209
  0.4926765454745379  0.6939830735730794  0.1932139425932036
  0.4946803211261397  0.7950432772462364  0.3061547801605613
  0.5044470084680555  0.9103919458924423  0.3731513555482238
  0.6051993775431654  0.9967500406906424  0.5791025857252805
  0.6091115754976357  0.0949877479379708  0.7061608762784530
  0.6043365415154511  0.1972220648850751  0.7957686158583499
  0.5947698616518196  0.2918343754536465  0.9142368199714070
  0.6034241570438823  0.3917069477620174  0.0190700512482138
  0.5966235420653234  0.5038529039920832  0.0944201720004401
  0.6083715249092734  0.6006971512152219  0.1855776439019010
  0.5804340556472027  0.6767596058506555  0.3017023697349615
  0.6003727016386264  0.7917834048168899  0.3955975040140771
  0.5834193291542960  0.9090512834048141  0.4948464203233272
  0.7002861401077780  0.9898696808534027  0.7004762863741334
  0.7064232226987812  0.0953589860332116  0.8097545430550994
  0.6932334217529998  0.1826505263389393  0.9104013887605831
  0.6936452677884120  0.2811941616628175  0.9880018849664580
  0.7070215026943814  0.4081006180578441  0.0941575022544825
  0.7005607768613231  0.5091543327834600  0.1957483972286340
  0.7174968683602785  0.5899659179588710  0.3018097301220735
  0.6944883396018895  0.6953065958429576  0.3953597087869767
  0.6904419368745209  0.8010794809193911  0.4958077967667407
  0.6937684473771029  0.8930090205652732  0.6047359208182144
  0.7929279832838461  0.9900024841086577  0.7933003017705929
  0.8052889009127924  0.0663501568239298  0.9002129611789300
  0.7745969440228748  0.2059108540635677  0.9899602256680993
  0.7838256192675672  0.2957535902342485  0.1057123681953129
  0.7898242362256696  0.4077104748707825  0.2003434285714292
  0.8115410038491149  0.4955358860662074  0.2965024185637333
  0.8303769273067161  0.5934123752336973  0.3967897908281088
  0.7984484592543737  0.7098711980644481  0.4850671593533491
  0.7996326365335946  0.8016339839436952  0.6009005828659397
  0.7909867454085528  0.8823324434180151  0.7050650271637551
  0.9101812867040593  0.0092231589134499  0.9012060838007230
  0.8940426064005251  0.1059234844385770  0.0101619663477379
  0.8834956819531499  0.2278268047948941  0.1065512900033028
  0.9010329541405468  0.3190634593643438  0.1959468729792135
  0.8866368938744102  0.3839988962938534  0.2937268105135828
  0.9192967676234431  0.4912803294842192  0.3866201737600363
  0.9083259241174559  0.6087427995161079  0.4818226292752641
  0.9024251081051347  0.6948444640932578  0.6113918016056274
  0.8904336852523898  0.7940551910260609  0.7159967777411183
  0.8913640356318027  0.8828032693280576  0.8009159247772999
  0.1162629297261617  0.0980749569998878  0.0179559956010138
  0.1045435702188513  0.1980244337402368  0.1032201134938973
  0.1185856161882768  0.2831679546904198  0.1934884860881994
  0.0914408718794704  0.4076847517870874  0.3004838935444880
  0.0857528366875613  0.4997344555152310  0.3724716925107217
  0.0738299078411941  0.5885398931045884  0.4890720417903864
  0.1024983864511171  0.7014201882766997  0.6136450003299245
  0.1208476093698465  0.8187291560541041  0.7070372132409517
  0.1250201420873225  0.9023534657428769  0.8198533482898966
  0.1121146838227176  0.9989024907071382  0.8846740279335776
  0.2393333192565734  0.0931292497525575  0.1186811125041274
  0.2114964957659708  0.2098236876718360  0.2033236929506188
  0.1955396397228668  0.2921160998570329  0.3065816738150247
  0.1734339109204868  0.3876851001869568  0.3982647460684063
  0.1812677237435381  0.4939449466622676  0.5002719164192229
  0.1801080598262388  0.5840337301220728  0.6072873691850873
  0.2048299918618710  0.6858390634554041  0.6917741242714186
  0.1943582549213687  0.7977528859562284  0.8040947388100719
  0.2201404267018603  0.9118178876058494  0.9053466266358754
  0.2400903811723296  0.9988823820521304  0.9917071303200231
  0.3110743868910149  0.0885030031892668  0.2103752244583745
  0.2964637474980734  0.1964211213021017  0.3101493874408874
  0.2892740292532707  0.3042118306389554  0.4004072983613796
  0.2888860015396446  0.3898665918838660  0.4920945976025521
  0.3077138220609257  0.5062983002309451  0.5998490328824388
  0.3087639938414171  0.6214618845265605  0.6883581079951639
  0.3011891630924879  0.7131095471241622  0.8021871540745593
  0.2985195737380408  0.8030975576817312  0.8875591197624573
  0.3288617516771168  0.8816648270097858  0.9799117136258673
  0.3256339874628864  0.9775583261849761  0.1180373372924208
  0.4064566259760269  0.0943396911910241  0.3118575466842657
  0.4050986869020150  0.2176763981084378  0.4151339197184640
  0.4248395746178346  0.3036700217749910  0.5251235108325076
  0.3989202080721412  0.3841985624106456  0.5982984687121942
  0.4094812928626439  0.5075579716265253  0.6818039678873831
  0.3935331727702618  0.6063559661277935  0.7850714549653546
  0.3803414494666200  0.7196800321126133  0.8851029108105166
  0.4082690839107030  0.7987670599362175  0.9973142417244034
  0.4250326501704578  0.8893578286594064  0.1098942804354976
  0.3888738559331344  0.0150988210711560  0.2111503085890263
  0.5275624533157384  0.1158480325525133  0.4074850790718116
  0.5252446017815871  0.2082971309798722  0.4984654850984285
  0.5244165687891780  0.3058298361376899  0.5948056307049399
  0.5137193946992227  0.4007191461563835  0.6999878117233038
  0.5003914554052571  0.5006772022434873  0.8086384022874711
  0.4886410179258789  0.6251425179808621  0.9235997281425270
  0.5075632495326090  0.6999158953040805  0.0116088080941381
  0.5086352719674494  0.8043248032552484  0.0996742830748900
  0.4897451301000757  0.9115280189156465  0.2336192548113942
  0.5179584810293605  0.0371459953810600  0.3085932031232801
  0.6267281451666094  0.0881055062135729  0.5053625470141867
  0.6303316142087354  0.1934889893324510  0.6115886070603764
  0.5960353771032629  0.3035061832178627  0.7033994246123427
  0.6023027568459227  0.4105305034642015  0.8294984383591739
  0.6036173223358645  0.5242564632134616  0.9239890069284087
  0.5925317343011116  0.5864876335642819  0.0131127548663841
  0.6092642533817241  0.6940402164302242  0.1160154835587832
  0.5867141638623110  0.8080598482349046  0.2175698898053469
  0.6224657727922605  0.9178368960739007  0.3198223429011335
  0.5969006145386544  0.0171951927856568  0.4118659549103683
  0.7247568371274582  0.0939785566919582  0.6082585149015713
  0.6870625219399571  0.2186685230397032  0.7326284231826676
  0.6883649484218637  0.2935220248542834  0.8088759982404028
  0.6920023948091938  0.4049824660728021  0.9231454147146181
  0.6862075517431023  0.5143056293852410  0.0080343371824512
  0.6958546288353702  0.6054325331573764  0.1331980028593449
  0.6975485657098872  0.7056564508962921  0.2166193533487331
  0.6800631760695026  0.7824729440228779  0.2932170724733325
  0.6956059606290523  0.9047901902562430  0.3947636115693385
  0.7017104427581629  0.0000891666116800  0.4904840831408777
  0.8003201442868146  0.1341326462113699  0.7418043602771363
  0.8176601887165944  0.1954196186077226  0.8374341840976598
  0.7703060653249736  0.2994670964478203  0.9278569000329924
  0.7966025456944905  0.4076714268118309  0.0005593172770233
  0.7972359085010439  0.5140117756516034  0.0906265588914579
  0.7918855981524260  0.5917925547124128  0.2044311716705138
  0.7979049858132612  0.7126752864841066  0.3122499258770475
  0.7937994281315284  0.8009898374573865  0.3906947704827886
  0.7946834954360469  0.9001309244473745  0.5127449743758916
  0.8069203255251267  0.0109294089959278  0.6126500728032553
  0.9021707348509835  0.1073018480149557  0.8007350586165174
  0.8903311347190126  0.2012080255141342  0.9216446932805482
  0.8959515557021902  0.2931653293742471  0.0070843673155210
  0.8842278891454995  0.3892518917848875  0.0972896412625062
  0.9159228866160802  0.5020406888815572  0.1985634901572624
  0.9142317202243504  0.5952449022324870  0.2871787366105778
  0.9119901299901017  0.6970777785109448  0.4005942047729008
  0.8993492106015637  0.7917691652919814  0.5193784788298714
  0.8951139315957306  0.9083378066644698  0.6083911118442771
  0.8970204165841835  0.9952737063675343  0.7195347044979670
  0.0158219078411932  0.1036866002419430  0.8997518816672141
  0.0054888622016946  0.1926180952380960  0.9936736707357312
  0.0149853201363683  0.2957900706037577  0.0832769141097529
  0.0099477255031317  0.4004533487297905  0.1996931226217953
  0.9992668404266993  0.4997049427031754  0.2877847531067843
  0.0042162327064759  0.5833161570438818  0.4046315565819896
  0.9992835279885597  0.7085069847135159  0.4990317356208038
  0.9994232860442125  0.8219256456614943  0.6169229613988776
  0.0114663899703089  0.9017336610579534  0.7281876845925410
  0.0024960629055286  0.0162908967337501  0.7973422047729031
  0.2131136029913137  0.1994302338062255  0.9902051133839223
  0.2061204781700212  0.2884697780710468  0.0942632706477511
  0.2141304577147238  0.3995410236445593  0.2047009444627719
  0.1784204698119467  0.5129351268008335  0.2906933425712097
  0.1749947326514913  0.5914177538766054  0.3873996194875176
  0.1784114743209031  0.7024487513471911  0.4772999269767979
  0.2086163620367287  0.7949300318926618  0.5871474510062669
  0.1982640312328172  0.8976835015946349  0.6959196093698452
  0.2195559287363906  0.9918380244143847  0.7992083255251288
  0.2244555587814787  0.1008912059826272  0.8951554866380746
  0.3039509178488942  0.2078204245023656  0.0699819091608944
  0.2959494468272297  0.2899385065434927  0.1941494727812625
  0.2857139786649086  0.3991225122621813  0.3030525973826030
  0.2672487126360963  0.4840833093588444  0.4036272644891667
  0.2917607509072937  0.5845465351369157  0.4828652563510403
  0.3188122591004046  0.6914328485648298  0.5752513361926788
  0.2915250746728262  0.8130576570988666  0.6807530517980851
  0.3051234831188836  0.9062123365226000  0.7922834263719309
  0.3120085824260386  0.0029246035411887  0.8978679436929511
  0.3215476379632705  0.0917473810623548  0.9872135933135411
  0.3820293579676672  0.2202815031342809  0.1989919392939612
  0.4123749402837333  0.3051259500714849  0.2894290302430420
  0.3940815959529331  0.3970009202683400  0.4009361843176080
  0.3936352587704803  0.4861149653579702  0.4882084605740644
  0.4227703125481170  0.6094746204772932  0.5973836753546706
  0.3886999727262719  0.7081380371714516  0.7013395526228976
  0.3971031892664669  0.8068764051468165  0.7884386781040362
  0.4002953119982422  0.8864513278345996  0.8844644038271170
  0.3983105606510478  0.9869682151105224  0.0173216307049344
  0.3788159309358861  0.0980461867370508  0.1169613421313116
  0.5030866266358771  0.1904110119872442  0.2952466591883862
  0.5281194078961846  0.2884141137138485  0.3852107898383395
  0.5234307995161132  0.3895217943473028  0.5010585496535782
  0.5221827854393482  0.5133973425712099  0.6018750339821821
  0.5269406272957227  0.5925931652919800  0.7075386873419092
  0.5039330632354577  0.6936045340371706  0.7928413812823081
  0.4963830621357062  0.7713713080391500  0.8780648714395696
  0.5065277730122091  0.8971780257340782  0.9783632539315974
  0.4874676507203333  0.9902914386890984  0.1086568494446283
  0.5090844865280957  0.1063310801715573  0.2055152957219875
  0.6146932290773108  0.1975085745078644  0.4084179645881463
  0.6128327381502245  0.3105891446167348  0.5200316502804370
  0.6157645283184863  0.4063836313647826  0.5872908307489269
  0.6185789605190806  0.4885391087649822  0.7073188421862966
  0.5911871967447482  0.6213729048718761  0.8120945421753021
  0.6109225760475070  0.7011902896733773  0.9031998900252916
  0.5887108637413405  0.8065707920378316  0.9988712574507872
  0.5981682837347435  0.9097252845045674  0.0902363453205766
  0.5786373368525233  0.9893351958649532  0.2049133043000140
  0.6200349200483899  0.1014184379192784  0.3011692180798420
  0.7246622192895629  0.1979993661057975  0.5010479494116353
  0.6819684869679961  0.3130502188496678  0.6003748232706485
  0.7149729585395335  0.4010968050148449  0.7097006726053010
  0.7180633185967196  0.5130444750907301  0.8080125982624011
  0.6841937147256161  0.6057816729352226  0.9088878570328802
  0.6819048204113045  0.6939694067964339  0.0121343319036598
  0.6894234496865721  0.8089931292202763  0.1289204130649964
  0.6937697683932669  0.9088096069503990  0.2019519318156853
  0.6940924535356885  0.9917839903222259  0.2946292259980225
  0.7240400052787876  0.0909159652479943  0.4033875081931129
  0.7782063921697997  0.1995701537446379  0.6277471945452575
  0.8004032029033326  0.2911160303530167  0.7317508470251823
  0.7655217147256153  0.3948778972836280  0.8306392310568569
  0.7859259918618733  0.5091701079951605  0.9141377279225793
  0.7921325916639148  0.5900116806334523  0.9945922041130544
  0.7575156199274176  0.6866502562410659  0.0888625193005623
  0.7992445679093834  0.8233774793797437  0.2007715988122740
  0.7976398988232702  0.8891022676784317  0.2819902038931019
  0.8098325793467467  0.9892526717255024  0.3715666020015362
  0.8139114646431338  0.0730209356648004  0.4963112460134198
  0.9012668993731410  0.2032140908391042  0.6988654692620671
  0.8919550181458291  0.3051000963378456  0.8205932713076010
  0.8966025756076093  0.3787936993291510  0.8977537120862209
  0.9089563444407815  0.4914846853623658  0.9809713463103478
  0.8977017292422715  0.6186626649070703  0.0801638953040822
  0.8757405023644580  0.7125515447047164  0.1827985584515588
  0.9032907119762470  0.7925597123061721  0.2836641618827684
  0.9048388967337502  0.8858218290993065  0.4003519287363915
  0.8872773922797776  0.9979687394699255  0.4988447808204128
  0.8865207583855721  0.0799009391839860  0.6073167619047624
  0.9882854028373487  0.2187279142197269  0.8078164852083987
  0.9922755904541987  0.3130569431430743  0.8858535299681094
  0.0130149103706145  0.3741289959309384  0.0091664383591805
  0.9883085423952522  0.4965996489607392  0.0722492849444620
  0.0067334626635898  0.6063398328384437  0.1764826807434261
  0.0024653614868555  0.7108956150885319  0.2889851107445267
  0.0013437365006084  0.8018275187506845  0.3888572185197390
  0.9853983248652796  0.9151196779940634  0.4807558262399638
  0.9952173548883749  0.9746919093808444  0.6272953854613448
  0.0029018924447399  0.1060106235565854  0.7146736606180610
  0.1202701339491909  0.1999704480369502  0.9148154694820221
  0.0949342487627831  0.2733977881887171  0.9975937499175203
  0.1173586415924319  0.3997327812603118  0.0884779531507718
  0.0835573359727277  0.4957932897833501  0.1802027273727020
  0.0914587806004619  0.5990717430990884  0.2848749543604967
  0.0782286026613903  0.7053907322115904  0.3792696095897909
  0.0750816047509062  0.8079591558341548  0.4843062096117876
  0.1097674171340586  0.9022953080391503  0.5946127904981822
  0.1051370957879669  0.0147272117013060  0.7010434571648503
  0.1261312099417111  0.1101548179918623  0.8094514672825284
  0.2907806250962253  0.3060130592763670  0.9970226371934459
  0.2959192640492674  0.3941197954470468  0.0783130790718118
  0.2993121478060061  0.4922697010887518  0.1808099144396778
  0.2649830572968241  0.5692921539645894  0.2829657200043982
  0.2886711127240744  0.6958733509292898  0.3920520039590869
  0.3038031021665049  0.7885904066864597  0.4867686510502551
  0.3100757123061726  0.9335040105575700  0.5870418752886835
  0.3027606796436828  0.0163515117123083  0.6868118557131879
  0.3127201557241861  0.0908103556581992  0.7984025923237681
  0.2990757857692756  0.2033575378862835  0.8965625896843719
  0.4078566858022654  0.2844630960079186  0.1060217846695295
  0.3901893689651388  0.4023598310788543  0.1919232156603954
  0.3862655990322210  0.5067406255361249  0.2958455677994039
  0.3985426169580961  0.5969073911800251  0.3844625483338859
  0.4146459210381579  0.6898565855053320  0.4890771767293529
  0.3940321632024606  0.7833282221489029  0.5729776038711094
  0.4019278095238121  0.9058783301440698  0.7134993617068091
  0.4033595011547320  0.0053421475860560  0.7927919423732561
  0.3740634501264708  0.1120226459914235  0.9010304638733118
  0.3907522810953452  0.2138916595183105  0.0081119362146680
  0.4882755851754084  0.3160421585835280  0.2136840936984470
  0.5088168556032144  0.4114258405366797  0.2917539518310761
  0.5022809932915422  0.4823610324425402  0.3832556555592248
  0.5066523893104602  0.5873030480589492  0.4789671571538534
  0.5297990726932795  0.6951081680413509  0.5928001196524804
  0.4958529655779174  0.7859113032002654  0.6985289233476308
  0.5126802362256697  0.9012390775321677  0.8137610196854723
  0.4816995596612799  0.0112165160013191  0.8987468259100382
  0.4877752829649182  0.0911466706257542  0.0043458422962743
  0.5066688841966354  0.1853042744968647  0.1093822755966158
  0.5972105324975274  0.3172299918618720  0.2946890218849632
  0.6009849836137704  0.4117876753546668  0.3928212040030772
  0.6148550049488648  0.5140753920598229  0.4994878878258007
  0.6305047597052678  0.5974225509732776  0.6038292325965031
  0.6236365885846240  0.6713522340261733  0.7055158394369272
  0.5849436630374996  0.7823822082920913  0.7807907832398513
  0.5846292959419301  0.8902456689761351  0.8998402934125167
  0.6161364561750773  0.9950369510612589  0.9806680928186537
  0.5874156529198302  0.0682407623446579  0.0770564139447956
  0.5950807447487065  0.2096938735290905  0.2002895853953603
  0.6998651142637158  0.3160682824150456  0.3915898752886804
  0.7201846906411546  0.4226140556472018  0.4969447654239545
  0.7220580596062902  0.4973256570988696  0.6067976694160322
  0.7196719784449570  0.5911253267348542  0.6778564790498152
  0.6912604992851641  0.7150043171670504  0.8007581009567772
  0.6971133570878720  0.7998941233916170  0.8859513106785428
  0.6788894428681402  0.8940142223688525  0.0025465549323656
  0.6930268602221474  0.9977240127570681  0.0933674400087980
  0.7099358636313653  0.0805171155834188  0.1866103046299372
  0.6886603431210787  0.1854558192015858  0.2973037338612130
  0.7854232380952411  0.3190167218739717  0.5155454617837876
  0.8079486264159215  0.3846576478609904  0.6006345456944899
  0.8165843066094780  0.5023916172880263  0.7137226662267651
  0.8160167676234451  0.6179799806444493  0.7978474272517317
  0.7768283286044237  0.7105254710216684  0.8959997299021225
  0.7787427643242069  0.8000203264049262  0.0028145918838689
  0.8098545360167151  0.9044918640712609  0.1093891617727891
  0.8186503235455831  0.9848128428461465  0.1923794215330474
  0.7985733953590639  0.0991734226327949  0.2927416619377539
  0.7863780415704369  0.1869881319696489  0.3711286448916766
  0.8705239740459660  0.3086527007588273  0.6055700380512476
  0.8876429820741194  0.4049069451226188  0.7226029002529444
  0.8889846580886385  0.4903848652809870  0.8366862703178271
  0.8825329083910702  0.6167418673705072  0.9116408459254401
  0.8807140864401219  0.7046291318596758  0.0000141247113135
  0.8905943385021473  0.8103177688331655  0.1040759494116372
  0.9131109904322017  0.9093145465742865  0.1997935660398085
  0.8872449251072254  0.0052567751017278  0.2759879903222284
  0.8962377705927622  0.1209942065325009  0.4073016526998785
  0.8644099329154287  0.1885419487517837  0.5097996713955766
  0.9788589552402982  0.3172057160453079  0.7297374912570120
  0.9987008802375428  0.3980622404047054  0.8011992112614124
  0.9891485340371702  0.4952196146486330  0.9055842595403050
  0.9882987484878498  0.6261711290003333  0.9939215233696217
  0.0190590687341938  0.7403570060486118  0.0998337468382289
  0.9942534802595375  0.7986771226217968  0.2078811644121856
  0.9981222839546930  0.8981904603541153  0.2965916260859984
  0.9964359564500143  0.0038424968657225  0.3705086695260107
  0.9860319916419229  0.0905003690751158  0.5032680906191587
  0.9914508109534808  0.2156756529198276  0.6221135853953612
  0.0942532400747851  0.2821636709556827  0.8009670533377289
  0.0953171265808876  0.3917078332783461  0.9005500186956965
  0.0956414367095562  0.5114071650720362  0.9827933795227111
  0.1120109460024210  0.6014956155284281  0.0807960338722111
  0.1133335268888160  0.7072017147256133  0.1912262140107757
  0.0823425892444760  0.8106131608929914  0.2789058911250422
  0.0935522525019223  0.8967244966457741  0.3944802445837468
  0.0751923431210813  0.9863391496755725  0.5114582500824838
  0.0937414446277387  0.0963255845155615  0.5862002076322455
  0.1031844966457740  0.1874417441988356  0.6766536496205902
  0.2160610491586965  0.3073653680853425  0.8932503270647771
  0.1954064572748280  0.4111845547124133  0.9981011507753195
  0.2051638750687346  0.4836121328494443  0.0815059461123937
  0.1818281086550115  0.6074999058616513  0.1842660508083114
  0.1889203589574393  0.6930968503244230  0.3001009523809515
  0.1962881412075248  0.8027454477070251  0.4013043083690775
  0.2045511523149699  0.9000519850434401  0.5046859008028122
  0.1866495502034553  0.0069295484438570  0.6102448987132973
  0.2019547586055239  0.1008967799406122  0.7010971837677360
  0.2120199894424317  0.2192401469262037  0.8041117681733212
  0.3870062901132769  0.4037591866270773  0.0018008899153230
  0.3999704704717928  0.5002987775211736  0.0955218304190026
  0.3994380200153955  0.5981390665346993  0.2012142887935795
  0.3636755345870455  0.6768522419443528  0.2967908698999224
  0.4093145294182321  0.7751468817771894  0.3847915473441077
  0.4014923206862449  0.8899547638843046  0.4783799736060672
  0.4015863244253808  0.0082541251512183  0.5770671496755710
  0.3952826477510172  0.1014506332343572  0.7083977006488524
  0.4076675389860327  0.1899868316287225  0.7961352279775653
  0.3914063596172852  0.3223804887275961  0.8915197057076867
  0.4984185989222496  0.3892372743868933  0.0940856320246368
  0.4882219197184625  0.5020566378532934  0.2104394888375651
  0.5063583508193119  0.5997905333773232  0.3042674624436401
  0.4970368010557564  0.6685199639282970  0.3978039441328463
  0.4958687403497208  0.8034412101616653  0.4882859945012612
  0.5074770671945430  0.8903340798416366  0.6100115381062352
  0.4850611591334015  0.9811982689981278  0.6970926053007815
  0.4858983349829558  0.0976800083580756  0.8024224229627208
  0.4922065127020758  0.2185069974705840  0.8893010473991012
  0.4988553304739938  0.2770983701748619  0.9774282076322436
  0.6099288028153538  0.4240477576157460  0.1923706336742583
  0.5912609761354872  0.4965485423952458  0.2905334842186278
  0.5860425844055897  0.5947023442208277  0.3935176702958287
  0.6031023459804246  0.7051538911250432  0.4952614850984247
  0.5930069952710895  0.8020656003519164  0.5941162494226333
  0.5968326563290418  0.8807732453535664  0.7044510476190453
  0.5929909363246466  0.0138446290553205  0.7802188021555025
  0.5829998645111658  0.0961196291652939  0.8938497939073997
  0.5949065122621775  0.1833534023974508  0.9938780274936789
  0.5849803246453291  0.3074111219619482  0.1026484940063810
  0.7073670634554077  0.4038283642362259  0.2928520426701837
  0.7249991021664997  0.5014701181128345  0.4114494666226776
  0.7105594787198939  0.5913646132189569  0.4950833229957112
  0.7117564860881984  0.7175788197514592  0.6062330671945446
  0.6971388505443770  0.8105167038381182  0.6954327350709306
  0.6842038689101528  0.8563143965687914  0.8000692563510370
  0.6786106099197156  0.9776353577477153  0.9054344515561397
  0.7075115310678513  0.0975676344440757  0.9960697490377228
  0.6608441865171031  0.1984209457824733  0.1063784709116931
  0.6760806800835795  0.3115939399538092  0.1913615229297250
  0.8180757329814128  0.4055578862861537  0.4010389530408034
  0.8200480101176737  0.5012606541295526  0.5070845243593993
  0.8131366668866136  0.5886588962938504  0.6068922115913367
  0.7989208921148148  0.6918209924117420  0.7001447693830443
  0.7987460947981972  0.7998459078411955  0.8063937802705397
  0.7854069055317296  0.9217957910480621  0.9212997219839423
  0.8044835134719008  0.9887229394039352  0.0107852418343768
  0.7835054089959286  0.1000690685142445  0.1097398007258334
  0.7925634936764538  0.1984869613988778  0.1948108452655859
  0.7776500939183961  0.3002569836137710  0.2937268171120664
  0.8829666451116225  0.4144044856482978  0.4901941704607964
  0.9042043246453346  0.5002692867040608  0.5891165010447565
  0.9141937261629849  0.5825686629275282  0.7172479265368992
  0.8973696500604831  0.7041406057406761  0.8066617855493234
  0.8889022716375266  0.8128910819311557  0.8957201689211445
  0.9063792935224910  0.9133578590124287  0.0166374001979577
  0.9101273977785098  0.0024556414824559  0.1091766646871193
  0.9035302100516844  0.1238744885076457  0.2083929075112749
  0.8970242525019216  0.2218389064115271  0.2807336628175534
  0.8788923752336970  0.3018915059936234  0.3985381163532367
  0.9691894679423712  0.3870778326184947  0.6113221066754662
  0.9998073489497443  0.4926927363906302  0.7024304607940195
  0.9986696087099958  0.5994099483118873  0.8163801297701525
  0.9786559934015173  0.7106417226437927  0.8850160457494809
  0.0075389860332109  0.8053240013196969  0.0020249202683402
  0.9973692471131628  0.9019347410095691  0.1141778075442659
  0.0007023816122285  0.0150675609809738  0.1931150401407677
  0.9960776852523949  0.0956817648740795  0.2900192988012762
  0.0014073727042785  0.1999427225338195  0.4160880642252280
  0.9726480017595946  0.2894554571648555  0.4927049849334679
  0.1011721948751756  0.3859588672605270  0.7079774402287455
  0.1007841073353148  0.5044362674584875  0.7858599727262714
  0.0927087821401074  0.6056153071593542  0.8774855185307402
  0.1080617419993430  0.7034226671065653  0.9736657833498299
  0.0995928661607834  0.7859950885296385  0.0785829596392844
  0.0837487561860755  0.8892075587814787  0.1947510854503491
  0.1036558332783457  0.9888412220389284  0.2902386649070721
  0.1009892550313438  0.0942584612339132  0.3982321693610444
  0.0712696271857496  0.1969973377323200  0.5342199678873882
  0.0916775950731363  0.3017871184427605  0.6189091239414921
  0.1869975999120186  0.3748220675244696  0.8016144515561408
  0.2026835125921025  0.4775818449356635  0.8562613984383560
  0.2043564962058753  0.5892848956340018  0.9654475398658278
  0.1937090812713080  0.6970283453205752  0.0907725085230382
  0.1933060758825462  0.8104786327944566  0.1843443396018927
  0.2047160435499862  0.9030319841636398  0.3044605995820930
  0.1913782953920631  0.9939208067744403  0.4179869684372619