Li 
 1.0000000000000000
    22.7325000000000017   -0.0000000000000006    0.0000000000000000
    -0.0000000000000006   22.7325000000000017    0.0000000000000000
     0.0000000000000006    0.0000000000000006   22.7325000000000017
 Li 
 500
Cartesian
 -0.2505921900000000  0.1257418900000000  0.1449646600000000
 -0.0893311300000000  2.5456349199999999  2.5366552499999999
  0.1101063300000000  4.8460836000000000  4.6717107000000002
  0.1097323100000000  6.5717804500000003  7.2554129500000002
  0.1512482700000000  8.6842409800000002  8.9770736800000002
 -0.0083622800000000 11.1839463099999996 11.1445172100000001
  0.0222421600000000 13.6767063300000000 14.0125350599999994
  0.0239991500000000 15.8434806399999992 15.9705822600000005
  0.7766422800000000 18.4457923599999987 18.4696103799999989
  0.6561592700000000 20.6191929499999986 20.5088805900000004
  2.8543343200000000  0.6793381600000000  2.3339907100000001
  2.5146231600000002  3.0130617700000002  4.7137096999999999
  2.6184862400000002  4.8575058400000000  6.8680654900000002
  2.3013569899999999  6.9934456100000002  9.3925030599999992
  1.8957473899999999  8.9621744299999992 11.6278889000000003
  2.1466378499999998 10.9813832700000003 14.1930900300000005
  2.5043388300000000 13.3504314999999991 16.3275419399999997
  2.5576956100000001 15.9274145399999991 18.2183213399999993
  2.5622092699999999 18.3741603299999987 20.5461374200000009
  2.4718637800000001 21.1363021300000007 23.1172786899999991
  4.8686259500000002 -0.5852903100000000  4.6319329400000004
  4.5662193300000000  2.2778562999999998  6.8096708100000001
  4.5359718899999999  4.7826582399999999  9.8201236800000000
  4.2572948300000002  7.2591967100000003 12.0471871200000002
  4.3030257900000004  9.6915353999999994 13.9584575300000004
  4.9238898799999999 10.9629794999999994 16.2787222299999996
  4.8605364700000004 13.3056338299999997 18.1653428599999991
  4.7945638500000003 15.6818031199999997 20.2069473500000001
  4.7977706199999997 18.7513403300000014  0.1023137100000000
  4.7767046899999999 20.4028387900000006  2.2086727800000001
  6.6964328599999998  0.7841397500000000  7.1500518599999996
  6.3422528900000001  2.2560026600000000  9.4152808500000003
  7.4384551700000001  4.7489230200000003 11.7027918100000008
  6.8594776399999997  6.8961691500000004 13.8160935699999996
  6.9075844499999999  9.0219596000000006 15.6846100400000008
  7.2003532899999998 11.3026058700000007 17.9304158700000009
  7.0652699700000001 13.2278153900000000 20.8284769700000005
  6.5640961000000004 15.9255278699999998 -0.2786335200000000
  6.5176167600000001 17.4404294399999991  2.1381597000000001
  7.0989900700000002 20.4246547000000014  4.6039249599999996
  9.6564448400000007  0.2032258900000000  9.2196899499999994
  9.4405753800000003  2.1291750299999999 11.2419984900000003
  9.3930247100000006  4.1784777000000002 13.5271658200000005
  8.8351212399999994  6.4159392500000001 15.6622881199999995
  9.7983461900000002  9.2614691100000002 17.5736525199999996
  9.4533417499999999 11.3021994800000005 20.3406104700000014
  9.5229773699999996 14.0557513800000002  0.2092692500000000
  9.3494031500000006 15.9298028299999999  2.8710434199999999
  8.7403983400000005 17.6768837099999985  5.2283144799999999
  8.5380317100000003 20.4632230300000018  7.4438632599999996
 11.6306956300000000  0.2283467100000000 11.5047805699999994
 11.2812073200000000  2.3894853899999999 13.6760492599999992
 11.7205265199999999  4.6123796300000004 15.7441648700000005
 11.4485363000000007  6.9685247600000002 18.2093507800000012
 11.7096993400000002  9.1356044099999991 20.6231970900000015
 11.1570625799999998 11.4513953999999991 -0.0361043900000000
 11.4984450099999993 13.6052645900000009  2.3895348699999999
 11.1997695700000008 15.7759702199999996  4.3922359499999999
 11.2453204000000007 18.0733212999999999  6.9596635400000002
 11.4673416199999991 20.6954849100000011  8.4826631900000002
 13.7576948500000000 -0.0738797000000000 13.1644495300000006
 13.8466288899999999  2.1593089800000000 16.0528021199999991
 13.7380804300000001  4.4833505899999997 18.0898100600000014
 13.5206058799999997  6.6341249400000004 20.7828885099999994
 13.7173396499999996  8.9044781900000007  0.4335099400000000
 13.5627446700000007 11.4538361399999999  2.1464065600000000
 13.8298056900000006 13.6553479899999992  4.2186437899999998
 13.1947171700000006 15.3844377399999992  6.8584491200000004
 13.6479724400000002 17.9992162499999999  8.9929202600000000
 13.2625799000000004 20.6650083000000002 11.2490962499999991
 15.9192546799999999 -0.2302874800000000 15.9235771800000006
 16.0587659100000018  2.1677481500000000 18.4077451500000002
 15.7589287599999999  4.1521030899999998 20.6956995699999986
 15.7682910500000002  6.3922462800000002 -0.2727471500000000
 16.0723663099999996  9.2771472999999993  2.1404354200000002
 15.9254978600000001 11.5743508700000000  4.4498504399999996
 16.3104975600000017 13.4114002299999999  6.8608896899999996
 15.7874561799999995 15.8060571900000006  8.9875145799999991
 15.6954713300000002 18.2105393000000007 11.2709507400000000
 15.7710912299999997 20.3003275599999995 13.7471593199999997
 18.0252353800000016 -0.2272685300000000 18.0336991100000006
 18.3062299400000015  1.5083049399999999 20.4640911400000007
 17.6085250299999991  4.6808684899999999 -0.2282291700000000
 17.8183158900000009  6.7232184899999998  2.4031064099999999
 17.9546794500000004  9.2682783700000009  4.5543069899999997
 18.4483558700000003 11.2647695300000006  6.7402412299999996
 18.8765435000000004 13.4897468200000006  9.0200239199999999
 18.1507295999999982 16.1371470099999996 11.0267891999999996
 18.1776489099999985 18.2231445399999998 13.6599725000000003
 17.9811061899999984 20.0576222699999995 16.0278907299999993
 20.6906961000000003  0.2096654600000000 20.4866673000000006
 20.3238235500000002  2.4079056099999998 22.9635068999999987
 20.0840655900000016  5.1790728399999999  2.4221772000000001
 20.4827316300000000  7.2531100899999998  4.4543622899999997
 20.1554731899999986  8.7292549099999999  6.6771447200000003
 20.8979137699999988 11.1680300900000002  8.7888430999999994
 20.6485190699999990 13.8382456900000008 10.9530329200000001
 20.5143787700000004 15.7955517800000003 13.8984641300000007
 20.2417837499999997 18.0508596300000015 16.2763967500000000
 20.2629329399999989 20.0683253199999996 18.2068212600000017
  2.6429470500000001  2.2294889599999999  0.4081846700000000
  2.3765367099999999  4.5015904400000002  2.3464512300000000
  2.6957475199999998  6.4371155299999998  4.3984770099999997
  2.0786796200000000  9.2676936199999993  6.8307501100000003
  1.9493763600000000 11.3602135099999995  8.4672127499999998
  1.6783383800000000 13.3789831199999991 11.1178301899999994
  2.3300445700000001 15.9450344299999998 13.9496849699999999
  2.7471682799999999 18.6117605399999988 16.0727234500000016
  2.8420203800000001 20.5127501599999995 18.6373162400000005
  2.5486470500000000 22.7075508699999986 20.1108523400000010
  5.4406446800000001  2.1170606699999999  2.6979183899999999
  4.8078440899999997  4.7698169799999999  4.6220558499999997
  4.4451048599999998  6.6405292400000002  6.9693678999999999
  3.9425863799999998  8.8130515400000000  9.0535533400000006
  4.1206685299999997 11.2286035000000002 11.3724313400000003
  4.0943064700000003 13.2765467699999995 13.8051601200000000
  4.6562977900000000 15.5908365100000008 15.7257552799999996
  4.4182490300000001 18.1349174799999986 18.2790836500000005
  5.0043422499999997 20.7279001299999983 20.5807921900000004
  5.4578545900000002 22.7070937499999985 22.5439823399999995
  7.0714984999999997  2.0118945199999998  4.7823547900000003
  6.7393621399999999  4.4651431400000003  7.0504709500000002
  6.5759218700000002  6.9154954399999999  9.1022589099999998
  6.5671010299999999  8.8626422999999992 11.1865404399999999
  6.9951044600000003 11.5094261099999997 13.6360681400000008
  7.0189774900000002 14.1273822899999999 15.6481006899999997
  6.8467826499999997 16.2107627799999996 18.2357194800000002
  6.7860962100000002 18.2564152300000018 20.1764376900000002
  7.4758497699999999 20.0424456800000002 -0.4566569700000000
  7.4024746199999996 22.2223446500000001  2.6832837700000001
  9.2397752499999992  2.1445770300000002  7.0893016800000002
  9.2089058999999995  4.9483287200000001  9.4370318300000005
  9.6576656300000003  6.9031787700000002 11.9373702099999992
  9.0684536300000005  8.7337938200000007 13.6008199399999992
  9.3085334900000003 11.5380615899999999 15.4991087000000007
  8.9459928499999997 13.7839869999999998 17.8466368499999994
  8.6461120000000005 16.3601263299999999 20.1206019199999986
  9.2809769499999994 18.1579721899999988 -0.0610540000000000
  9.6620547200000004 20.2173268399999984  2.4981717300000001
  8.8400749300000001 23.0757339500000000  4.7999743900000000
 11.9928134699999998  2.6335153999999998  9.2631545600000003
 11.9401229099999995  4.7351145299999997 11.3313666400000006
 11.9212996499999999  6.9522767500000002 13.5214189999999999
 11.6781261399999998  9.1093479899999998 15.9124729299999998
 11.3751487600000001 11.3816445000000002 18.3823724800000008
 11.1080319400000000 14.2110522899999996 20.9957308199999986
 11.5381815700000008 15.9108380900000004  0.2638972300000000
 11.5625513200000007 18.2843135900000000  2.2658456400000002
 11.1331311700000004 20.7213106899999993  5.3107497099999996
 11.7744911699999992 23.5769213399999984  7.0150949899999997
 14.2470975600000003  2.0028584199999999 11.4881540999999991
 14.3290134200000008  4.3984884500000003 13.9029380099999997
 13.5493742099999999  6.8994543100000003 15.9900274200000005
 13.6918474200000002  9.3323846699999997 18.8565732500000003
 13.7217307799999997 11.9176600500000003 21.0045800999999983
 13.4697276499999994 13.3323301300000008  0.2980857000000000
 13.8500996399999998 15.7772692200000009  2.6373219799999998
 13.3374797300000001 18.3692205000000008  4.9459075199999996
 14.1502031800000001 20.8647272400000006  7.2703614099999996
 13.5690432199999993 23.1233897199999987  9.3627428199999994
 16.4755347999999984  2.1363675400000002 13.8272366899999994
 15.6186487799999991  4.9708822000000001 16.6544756300000003
 15.6482561899999997  6.6724894299999997 18.3877736300000016
 15.7309444400000000  9.2062639100000005 20.9854031399999990
 15.5992131700000005 11.6914527199999991  0.1826405700000000
 15.8185153500000002 13.7629950599999997  3.0279235999999998
 15.8570227700000004 16.0413352700000011  4.9242994500000004
 15.4595361499999999 17.7875662000000005  6.6655571000000000
 15.8128624999999996 20.5681429999999992  8.9739637999999999
 15.9516326399999997 22.7345269799999983 11.1499294199999994
 18.1932776800000013  3.0491703800000001 16.8630676199999989
 18.5874602399999986  4.4423764800000001 19.0369725900000013
 17.5109826300000009  6.8076357700000001 21.0925069799999996
 18.1087673699999989  9.2673907100000008  0.0127146800000000
 18.1231652899999993 11.6847726900000008  2.0601682499999998
 18.0015393599999989 13.4529242500000006  4.6472316100000004
 18.1383750900000003 16.2008909500000016  7.0982214399999997
 18.0450455000000005 18.2085014799999989  8.8814688700000008
 18.0651425600000017 20.4622262399999997 11.6559751299999999
 18.3433163000000015 22.9809527899999999 13.9270677799999998
 20.5085962299999984  2.4392392599999999 18.2027097200000014
 20.2394525200000004  4.5739614399999997 20.9512879900000009
 20.3672187399999984  6.6643808499999997  0.1610453800000000
 20.1007104900000009  8.8486686300000006  2.2116367700000001
 20.8212170199999989 11.4126399599999999  4.5138445400000000
 20.7827725799999996 13.5314047399999993  6.5282906299999999
 20.7318156299999998 15.8463206000000003  9.1065077599999995
 20.4444559300000002 17.9988925500000008 11.8067712700000005
 20.3481774500000014 20.6487891899999987 13.8302509499999999
 20.3915166200000009 22.6250595300000015 16.3568226699999997
 23.0921715200000008  2.3570556400000000 20.4536096500000006
 22.8572755600000015  4.3786908499999999 22.5886867199999983
 23.0731537899999992  6.7240477800000003  1.8930924499999999
 22.9586366700000006  9.1033057500000005  4.5395239099999998
 22.7158334500000016 11.3595426100000001  6.5420669000000000
 22.8283455099999983 13.2602345400000008  9.1982868599999996
 22.7162128000000010 16.1061350300000008 11.3442389299999995
 22.7193898499999989 18.6844247400000008 14.0242012200000001
 22.9931597100000005 20.4986604499999991 16.5535265400000000
 22.7892417499999986 23.1028328099999989 18.1255816699999990
  4.8446049799999997  4.5335477900000001 -0.2226622600000000
  4.6856337699999999  6.5576392300000004  2.1428398000000000
  4.8677206300000000  9.0825663199999997  4.6533642200000003
  4.0559433299999998 11.6602977699999997  6.6081864100000001
  3.9780677600000001 13.4444040900000008  8.8065618499999996
  4.0557388400000001 15.9684162399999998 10.8502205899999993
  4.7423714500000003 18.0707469500000002 13.3473294300000003
  4.5070370899999999 20.4065902000000001 15.8199925199999996
  4.9910551500000002 -0.1855421100000000 18.1680032599999990
  5.1024359900000000  2.2935093400000000 20.3491220999999989
  6.9095642399999999  4.7242778000000003  1.5908637500000000
  6.7276708000000003  6.5910270999999998  4.4135028900000002
  6.4949930199999999  9.0730525100000001  6.8891431699999996
  6.0752313600000001 11.0044238300000004  9.1754567900000001
  6.6324512699999998 13.2882041100000006 10.9767344399999995
  7.2473996800000000 15.7179972299999999 13.0769009999999994
  6.6270937600000002 18.4828331900000009 15.4752187499999998
  6.9362195800000004 20.6004719399999985 18.0105829899999996
  7.0927350999999996  0.0664835500000000 20.4107830300000010
  7.3095816800000000  2.0856473400000000 22.4418330099999999
  8.6844823800000004  5.0075492700000002  4.5235842599999998
  9.3743133299999997  6.9362756599999997  6.5794454299999998
  8.9584598799999995  9.0248234200000006  9.1142818099999996
  8.9483135199999992 11.0506084500000004 11.0981988299999994
  9.6106261300000000 13.8548818100000002 13.5800243999999992
  8.8361221299999997 16.0977479300000006 15.9432013799999996
  9.0271482499999998 18.3423178799999995 17.9231822500000000
  9.0997131800000002 20.1512548100000011 20.1060870600000001
  9.0545948200000002 -0.2962450500000000  0.3937639700000000
  8.6114331499999999  2.2288349400000000  2.6588237100000001
 11.4364167400000003  4.3285183299999996  6.7116946799999999
 12.0054744400000004  6.5563738400000000  8.7568042800000008
 11.8988906500000002  8.8548041899999994 11.3903134799999997
 11.8705201700000007 11.6708050900000000 13.6821242099999996
 11.9786778100000006 13.4711241299999998 16.0841232100000013
 11.4556583599999993 15.7673650700000003 18.0232667000000006
 11.2840279599999995 17.5351982600000014 19.9606096899999983
 11.5146426000000002 20.3950994700000017 -0.4918573300000000
 11.0813583700000002 -0.2206998700000000  2.4700418300000000
 11.5727630900000005  2.4171712799999998  4.6718764600000000
 13.9735138299999999  4.4898636700000001  9.2843613800000000
 13.9312202200000002  7.0604677300000001 11.8216194899999998
 13.9978671400000003  9.2381159000000004 13.3505888099999996
 14.0618462199999996 11.1057152899999991 16.0791255799999995
 13.4391629500000001 14.1253595599999997 18.4609391800000004
 13.8877974599999998 15.9398082599999995 20.5319915000000002
 13.3828697099999996 18.3353705299999987 -0.0256591400000000
 13.5978605100000003 20.6803300300000004  2.0512977200000000
 13.1538732599999992 -0.2424376600000000  4.6581916899999998
 14.0949438199999992  2.3054946400000000  6.8463292500000001
 16.4733839000000017  4.5010205900000004 11.3900725099999995
 15.5028486300000008  7.1164141000000001 13.6480206699999993
 16.2531227800000018  9.1179331200000000 16.1332705400000016
 16.3233743900000015 11.6627835300000005 18.3681463899999997
 15.5534336199999998 13.7709318799999991 20.6612932100000002
 15.5014013300000002 15.7756595399999995  0.2758437000000000
 15.6723185699999998 18.3904363099999983  2.9306832900000002
 15.7711212599999993 20.6595143899999982  4.5908722900000001
 15.7784566999999996 -0.1867704400000000  6.6976588799999996
 16.4592394199999994  2.0667471800000001  9.1700065300000002
 17.6905768099999996  4.5367285199999996 14.2702630999999993
 18.1951658099999989  6.6177951600000000 16.6345261300000011
 17.4022223800000013  8.9765618000000007 18.8825063200000010
 17.8660626100000002 11.5747094799999992 20.7806359000000000
 18.0071541400000008 13.4124405299999996 -0.1229327200000000
 17.2202238299999983 15.6092769499999999  2.0200672200000001
 18.1688271400000012 18.7174285500000011  4.5640403699999998
 18.1323490000000014 20.2115173000000006  6.4103423099999999
 18.4095191100000015 -0.2443136400000000  8.4466377799999997
 18.5022423700000012  1.6599484200000001 11.2823954000000004
 20.4880497900000016  4.6195643200000003 15.8869592799999992
 20.2763674499999986  6.9356879400000002 18.6541365399999997
 20.3820180499999992  8.6109277700000000 20.4081862600000008
 20.6628501000000000 11.1726756100000006 -0.4325688700000000
 20.4070045600000007 14.0637490300000003  1.8223257500000001
 19.9077709700000014 16.1980779900000016  4.1554682300000003
 20.5340561100000016 18.0168636599999985  6.4483955599999998
 20.5692502200000007 20.1369447299999997  9.1010002199999995
 20.1700333200000017 -0.0461756300000000 11.3399889799999993
 20.1528331399999985  1.8163480999999999 13.8058282899999991
 -0.2663020800000000  4.9722323099999999 18.3636882499999992
 -0.1755951400000000  7.1165669600000001 20.1376653700000006
  0.2958614500000000  8.5048873999999994  0.2083760600000000
 -0.2657760600000000 11.2889515199999995  1.6424068700000001
  0.1530684400000000 13.7836202500000002  4.0118925399999998
  0.0560438300000000 16.1604345699999996  6.5693540300000004
  0.0305464900000000 18.2275440700000004  8.8396967199999992
 -0.3319325800000000 20.8029580799999998 10.9287818199999993
 -0.1087214800000000 -0.5753161700000000 14.2599923499999992
  0.0659672700000000  2.4098864999999998 16.2463189899999989
  2.7340408200000001  4.5458282099999998 20.7960426600000012
  2.1580928099999999  6.2150152199999997 22.6777999199999982
  2.6678553200000001  9.0869254500000007  2.0113250699999998
  1.8994671400000001 11.2706209600000005  4.0964584999999998
  2.0790867300000002 13.6183984000000002  6.4759199000000001
  1.7783317100000000 16.0352948200000007  8.6217463999999993
  1.7067925799999999 18.3669315100000006 11.0094909100000002
  2.4952878100000002 20.5114280899999990 13.5170352600000001
  2.3900290300000000  0.3347863400000000 15.9364703900000002
  2.8672777300000001  2.5040944000000001 18.4008554800000006
  6.6101705600000003  6.9564418699999999 -0.0676829000000000
  6.7269846700000002  8.9593282500000004  1.7802520700000000
  6.8041134000000003 11.1905209800000005  4.1102613799999999
  6.0237273499999997 12.9414338900000008  6.4325182300000003
  6.5622160699999998 15.8189409500000000  8.9123221800000003
  6.9062040199999997 17.9266314199999997 11.0654683600000006
  7.0487961300000004 21.2208799200000016 13.3449294300000005
  6.8825071500000004  0.3717107400000000 15.6129505099999992
  7.1089109400000003  2.0643464100000002 18.1496869300000014
  6.7987403000000004  4.6228252300000001 20.3811090700000008
  9.2716021099999999  6.4665573299999997  2.4101402200000002
  8.8699798300000001  9.1466448600000003  4.3628945000000003
  8.7807827300000003 11.5194812700000000  6.7253093699999997
  9.0598700399999998 13.5691972700000001  8.7397948799999998
  9.4259383999999997 15.6821648299999996 11.1179469199999996
  8.9573361499999997 17.8070088099999992 13.0252133800000003
  9.1368239300000003 20.5928791400000009 16.2196242400000017
  9.1693698599999998  0.1214403700000000 18.0221428299999999
  8.5033973799999991  2.5465548000000000 20.4826750199999985
  8.8827762299999993  4.8622921500000000 22.9169045900000015
 11.0997247399999992  7.1844283700000000  4.8575736599999999
 11.5666791700000005  9.3527379199999991  6.6322967100000003
 11.4181026800000005 10.9652721700000004  8.7123591900000008
 11.5174754400000001 13.3508665400000002 10.8881209000000005
 12.0436574200000006 15.8015464300000001 13.4758287200000009
 11.2719775400000000 17.8657286999999982 15.8793087499999999
 11.6545034699999999 20.4874173299999995 18.4988223800000000
 10.9502352399999996  0.2549794500000000 20.4307622199999983
 11.0883516199999992  2.0719916899999999  0.0987918600000000
 11.5178504099999994  4.2124294200000003  2.4865325800000000
 13.5760884300000004  7.2114307899999996  6.6990181900000003
 13.6618911399999998  9.3609633300000006  8.9298080199999994
 13.9771914000000006 11.6862188499999995 11.3546084100000009
 14.3329494499999992 13.5809081400000000 13.7265480300000000
 14.1768187500000007 15.2615146599999996 16.0381388200000004
 13.2972318200000004 17.7855035500000014 17.7493264800000006
 13.2900854699999993 20.2375096700000014 20.4556194699999985
 14.0063219900000000 -0.1128225100000000 -0.4394625800000000
 13.3534263299999996  1.5512831300000001  1.7516849299999999
 13.5276730300000008  4.7668659800000004  4.5530830000000000
 15.9096837099999995  7.1850222300000004  8.9018168400000004
 16.3715984799999994  9.6070740200000007 11.2967968800000005
 16.4141848400000008 11.3054555000000008 13.7940280200000007
 16.3599432500000006 13.4377564899999999 15.4093724099999996
 15.7140792999999999 16.2538356399999984 18.2032335299999986
 15.8471293899999992 18.1835931600000009 20.1398881699999990
 15.4328542599999992 20.3231783099999994  0.0578895600000000
 15.7542331000000004 -0.0517388800000000  2.1224753299999999
 16.1386170200000016  1.8303553299999999  4.2421187500000004
 15.6549712499999991  4.2158744099999996  6.7584571300000000
 17.8546337599999987  7.2520476299999999 11.7196372100000001
 18.3666921499999987  8.7442299800000001 13.6539248099999995
 18.5630027499999990 11.4206174399999991 16.2247005100000017
 18.5501011700000014 14.0482299099999999 18.1370666400000005
 17.6592499799999985 16.1520202700000013 20.3683138600000007
 17.7027698899999990 18.1864620700000010  0.0639827100000000
 18.4100182399999994 20.5613613000000015  2.4866891199999999
 18.6099684799999991 -0.3452420500000000  4.3732651999999996
 18.1535697099999993  2.2544598300000001  6.6547498300000001
 17.8763388300000017  4.2507077100000004  8.4366819199999998
 19.7891862399999994  7.0164475199999998 13.7661208899999998
 20.1783440899999995  9.2045471299999999 16.4265704300000017
 20.2088437399999989 11.1476739499999997 19.0199706400000004
 20.0621793400000001 14.0200844999999994 20.7238755300000008
 20.0208329700000007 16.0179817399999997  0.0003210900000000
 20.2454357999999992 18.4205486799999996  2.3659065199999998
 20.7572955899999982 20.6709929300000006  4.5418072399999998
 20.1692952599999984  0.1194996400000000  6.2738969899999999
 20.3737251199999996  2.7505008000000002  9.2589848200000002
 19.6501987999999983  4.2860298500000003 11.5890210299999996
 -0.4805888000000000  7.2108789399999997 16.5887575200000015
 -0.0295322400000000  9.0489498800000003 18.2132610700000015
 -0.2466809500000000 11.2575798900000006 20.5861941799999997
 -0.2659987000000000 14.2344351899999992 -0.1381789700000000
  0.4332602800000000 16.8301656400000006  2.2694706500000001
 -0.1306327600000000 18.1559276899999986  4.7256585700000002
 -0.0426851800000000 20.4181146399999989  6.7422691400000003
 -0.0810196200000000  0.0873495600000000  8.4225883300000000
 -0.3175277500000000  2.0572996400000001 11.4405418700000006
 -0.1943444400000000  4.9028467800000000 14.1421970800000008
  2.1426117800000002  6.4142856500000001 18.2079835400000007
  2.1667965800000002  8.9044983200000001 20.4717532999999996
  2.1741689599999998 11.6255633799999991 -0.3911495000000000
  2.5462888299999999 13.6734990799999991  1.8366958400000000
  2.5763544000000000 16.0764629799999987  4.3470499100000000
  1.8718529100000001 18.4272636799999994  6.3402281699999996
  2.1266765799999998 20.3847896199999994  8.9675221599999997
  1.7093099400000000 -0.3105452800000000 11.6267246699999998
  2.1309773900000000  2.1897213500000001 13.3257962200000009
  2.3456415700000002  4.2610194500000000 15.3820290899999996
  4.9116077999999996  6.9871832300000003 20.3058130599999984
  4.4420772900000003  9.3472528900000000 22.6893344100000007
  4.6638877900000004 10.9937128099999999  1.8528339199999999
  4.1334074799999998 13.8099916100000009  4.1888280000000000
  4.2946320599999996 15.7558241500000005  6.8220448999999999
  4.4621201700000004 18.2484108899999988  9.1226501899999999
  4.6499590700000004 20.4604317500000015 11.4727722399999994
  4.2430108999999998  0.1575259600000000 13.8723921600000004
  4.5909365500000003  2.2936360499999999 15.9376917299999992
  4.8197444100000002  4.9838766400000001 18.2794707699999996
  8.7976204899999999  9.1784557099999997  0.0409387300000000
  9.0923287199999994 11.3730419600000001  2.1714500100000000
  9.0802247900000008 13.5971963299999992  4.5741038200000004
  8.2672540899999998 15.3865435900000005  6.7467984500000000
  9.3047425399999995 17.6210264899999984  8.7472738499999991
  9.1269241799999996 20.2308966699999999 10.8747727500000000
  9.1290611199999994  0.1876369000000000 13.1181789799999997
  8.9857627900000008  2.3062265200000001 16.1036507299999982
  9.2673023299999997  4.3188756499999998 18.0981440700000000
  8.8976450699999994  7.3285144600000001 20.2664717100000011
 11.3303007999999998  8.8483363399999995  2.1388016300000001
 11.0985047899999998 11.4130025199999992  4.7838156800000000
 11.5107912100000007 13.6347383000000004  6.9167600900000004
 11.2988890800000004 15.1971300800000009  9.0430781600000003
 11.2723361400000002 18.2642273099999990 11.0999613700000008
 11.5362224300000005 20.2395194700000012 13.8670872900000006
 11.0266528000000008 -0.4274103500000000 15.8466576499999992
 11.0456839000000002  2.2205107900000001 18.2410677300000010
 11.1890845500000005  4.9672103200000004 20.2160360600000004
 11.3402288000000002  6.2991387000000003 22.2193867300000001
 13.8652065100000002  9.6396656499999995  4.3730654299999996
 13.4408401400000006 11.2877897399999991  6.6045524300000000
 13.3222130500000002 13.5190710400000000  8.9456404400000000
 13.7100240800000002 16.0299108299999986 11.2585317099999997
 13.4805315199999995 18.2329562600000017 13.5057476399999992
 13.5674983600000001 20.0221778000000015 16.0139334399999989
 13.4801664599999995  0.3147230300000000 17.7363239200000002
 13.2530444200000002  2.1850394700000000 20.3194404400000010
 13.5237122900000006  4.1680812200000004 -0.1391677400000000
 13.2980652300000006  6.9882233300000003  2.3334568899999999
 16.0802217700000014  9.1800282899999992  6.6572590600000003
 16.4810420899999990 11.3996694600000001  9.3532750000000000
 16.1527933499999996 13.4431960700000008 11.2544816399999998
 16.1800043199999983 16.3123605199999986 13.7811932000000006
 15.8477089200000005 18.4250709700000002 15.8089246499999998
 15.5536644499999994 19.4661670200000003 18.1875743700000001
 15.4265156900000004 -0.5084042300000000 20.5827886699999993
 16.0835058800000006  2.2179562499999999 -0.0893444300000000
 15.0226404700000007  4.5106041499999998  2.4182485900000001
 15.3690040600000000  7.0833092400000002  4.3501258199999997
 18.5969066000000005  9.2193446500000000  9.1166180000000008
 18.6417413900000000 11.3949078200000002 11.5272989500000005
 18.4846292800000001 13.3816883600000001 13.7961772000000007
 18.1614691800000010 15.7268207100000001 15.9160409699999992
 18.1574956000000007 18.1824970999999991 18.3313466100000007
 17.8542624799999992 20.9547228200000006 20.9434459299999993
 18.2879214700000006 -0.2563557800000000  0.2451755100000000
 17.8110367099999998  2.2748200999999999  2.4946600200000000
 18.0169496199999983  4.5121048500000001  4.4285375399999998
 17.6779307599999989  6.8255918800000002  6.6771448700000002
 20.0720392600000004  9.4204499700000000 11.1433389799999993
 20.5548248099999995 11.3723715599999995 13.3920908599999997
 20.7819088799999996 13.2432421300000005 16.3048384900000016
 20.3994555700000006 16.0068763199999999 18.3374390399999996
 20.2069708900000009 18.4790465200000007 20.3619587399999986
 20.6042672899999992 20.7629075299999997  0.3782097000000000
 20.6894710699999997  0.0558228700000000  2.4818585299999998
 20.5395004999999991  2.8159768100000000  4.7372917699999997
 20.3916038200000003  5.0429529400000002  6.3817779899999998
 19.9794209199999990  6.8627486600000003  9.0597677300000008
 -0.7004004200000000  8.7992468299999995 13.8968797899999998
 -0.0043794400000000 11.2001376300000004 15.9680004499999999
 -0.0302431200000000 13.6260866499999995 18.5583613000000014
 -0.4852026300000000 16.1546629599999996 20.1186272600000002
  0.1713800000000000 18.3070278600000016  0.0460315000000000
 -0.0598035900000000 20.5032314999999983  2.5955470100000002
  0.0159668900000000  0.3425233300000000  4.3899876500000001
 -0.0891640200000000  2.1750857199999998  6.5928637099999996
  0.0319931000000000  4.5451979400000004  9.4587219200000003
 -0.6217793000000000  6.5800461800000001 11.2004160699999993
  2.2998969200000001  8.7738099500000004 16.0940971600000005
  2.2910747200000001 11.4670974500000007 17.8645618299999995
  2.1075023900000001 13.7671499700000002 19.9474395499999986
  2.4565135499999999 15.9905557799999993 -0.5986425800000000
  2.2639948300000001 17.8676333499999984  1.7863871300000000
  1.9038185999999999 20.2139108299999997  4.4271790500000003
  2.3563562299999998 -0.2536669200000000  6.5978504500000001
  2.2957382399999999  2.1427304700000001  9.0528127900000008
  1.6201368000000000  4.4782419800000000 12.1441554200000006
  2.0840609300000001  6.8603756699999998 14.0693516600000006
  4.2509229399999997  8.5206426499999992 18.2227005200000001
  4.6075029499999998 10.8566292900000008 19.4649622399999984
  4.6455340500000002 13.3959188900000008 -0.7854638000000000
  4.4034916900000001 15.8451968599999997  2.0634860499999998
  4.3943303699999996 18.4242055200000010  4.1906077000000002
  4.6537074599999997 20.5281745800000017  6.9211505799999999
  4.3505070999999997 -0.1381952600000000  9.5018887599999999