Li                                      
   1.00000000000000     
    20.2271999999999998    0.0000000000000000    0.0000000000000000
     0.0000000000000000   20.2271999999999998    0.0000000000000000
     0.0000000000000000    0.0000000000000000   20.2271999999999998
   Li
   432
Direct
  0.9822819975083021  0.0130520808614136  0.0165209297381779
  0.9032388209935149  0.0832659463494707  0.0999679604690726
  0.8290923162869817  0.1715294890049037  0.1641400292675215
  0.7449594664610046  0.2576905533143474  0.2413005893054887
  0.6721720287533586  0.3249934449651946  0.3271514431063096
  0.5978554856826435  0.4120661515187436  0.4209120842232252
  0.5062440095514944  0.4896576639376704  0.5084308085152642
  0.4180922619047607  0.5729820805647847  0.6107638630161389
  0.3420685092350908  0.6738792877906974  0.6684813597532013
  0.2643411737660202  0.7713590220099675  0.7507084974687572
  0.1506439700007931  0.8356174586695175  0.8442314892817606
  0.0739459069965207  0.9264307417734514  0.9255408534053160
  0.0821502941583603  0.9290456212426861  0.0903674809167825
  0.0116649669751610  0.0024824864538857  0.1783517031521882
  0.9258966248417977  0.0935530266176272  0.2460950349034974
  0.8284715259650355  0.1641535526419844  0.3446430613233673
  0.7688755319569722  0.2454603138348332  0.4276314255062488
  0.6641441845633622  0.3422660793387138  0.5072303101763964
  0.5955232904208216  0.4277743078626770  0.5855673014554625
  0.5036695588119002  0.4924645961873111  0.6823929738174357
  0.4172269419395676  0.5744851956771058  0.7475150114697016
  0.3406275673350763  0.6829866382890373  0.8230656378539791
  0.2527191168327789  0.7652601996321806  0.9123487472314480
  0.1626797470732484  0.8362140320953984  0.0013903600102836
  0.1652941400688164  0.8275565426752109  0.1863346820123368
  0.0830930593458348  0.9089224361256143  0.2566358813874388
  0.0126516922757460  0.9951617317275776  0.3333586947278917
  0.9295714325265010  0.0921721622369844  0.4085229591836708
  0.8377848911366854  0.1484441227653832  0.4929804105363047
  0.7531345455624106  0.2431785486869131  0.5720790223065961
  0.6776266062529643  0.3316039990705590  0.6668382272385713
  0.5866696581830411  0.4136886746559085  0.7564616585587700
  0.4844054802444262  0.5033124846741046  0.8303803230303757
  0.4117561615053020  0.5874051653219396  0.9198500533934535
  0.3297742460647015  0.6808850636766337  0.9813301089621902
  0.2361194292833417  0.7563755947437087  0.0853802810077511
  0.2486052098164819  0.7368119611216599  0.2734899091322589
  0.1655910635184341  0.8229721973382382  0.3505250262023409
  0.0881716663700374  0.9215909186639806  0.4131456336022765
  0.0007448999367199  0.9977003984733415  0.5061505838672673
  0.9183571240705604  0.0825922218596773  0.5794837145032403
  0.8279371227851584  0.1734314319332384  0.6601215783697185
  0.7403780785279253  0.2577808421333643  0.7425411317433941
  0.6689642530849582  0.3405721899224829  0.8462541666666681
  0.5810365216144575  0.4226759086774265  0.9117648745253888
  0.5075673266690401  0.5062195548568269  0.9905212659191562
  0.4120415905315582  0.5870348570242072  0.0691817077994017
  0.3145752644953319  0.6722901924141738  0.1689698495095726
  0.3404361750514155  0.6532335523453554  0.3456836522108873
  0.2589080614222468  0.7557103113629182  0.4222621954595809
  0.1564757297104862  0.8260187954833071  0.5068342049319696
  0.0806274303907628  0.9171532411801948  0.5970926939962027
  0.9996165129133061  0.0008302157490903  0.6726516744779332
  0.9045304055924674  0.0851559286505292  0.7399142303433024
  0.8233521451313095  0.1623488391868406  0.8205042279702610
  0.7544336457838980  0.2541920710726160  0.9125307664926439
  0.6617239632771685  0.3439790134076901  0.0085429036149378
  0.5929514317354858  0.4200377422480628  0.0820159918327761
  0.4976930108962208  0.5159888521396923  0.1659710538285069
  0.4121357948702737  0.5774529954714467  0.2480731307348520
  0.4333042408242349  0.5781425852317668  0.4050478153179853
  0.3466599128895780  0.6586752669672506  0.4965666078349926
  0.2504766373991458  0.7529210651993381  0.5731491076372421
  0.1782276167734551  0.8391881535753853  0.6585271115132088
  0.0617302617267868  0.9131777354255632  0.7580820543624398
  0.9939726482162641  0.9982967973817409  0.8238603919474770
  0.9170772005022911  0.0695358744660624  0.9054795834322107
  0.8217481945103629  0.1589518583887042  0.0067785491812984
  0.7472317344961255  0.2476550896812242  0.0765700541844652
  0.6626793619482712  0.3349793629370339  0.1678233858368898
  0.5951785699454177  0.4188990913225723  0.2455042729591810
  0.5070123679995220  0.4962032263486762  0.3456936634828338
  0.0601266809049221  0.0971045394320527  0.9265987828270852
  0.9785529732241756  0.1682487289392469  0.0053391784330046
  0.9170476101487139  0.2476447842509089  0.0867702682526499
  0.8207754493948727  0.3381728766215772  0.1643020937153921
  0.7544932575937366  0.4161894612205330  0.2371443798449633
  0.6781139589265948  0.4868847255181166  0.3259440194391701
  0.5823088939645658  0.5776207858724902  0.4090016458036700
  0.5001559518865690  0.6601729512735304  0.5023476778792926
  0.4150716619205852  0.7411012117346942  0.5854846612482234
  0.3450950596226861  0.8384718873595958  0.6655217148196471
  0.2436417704872653  0.9272017362759044  0.7577876384274660
  0.1550984713652923  0.0128191662711572  0.8425366768509761
  0.1666957151756066  0.0092458748615698  0.9962933352119947
  0.0801078112640425  0.0862921224885298  0.0713710483902830
  0.9976951367465574  0.1729919010045862  0.1624901241892118
  0.9054767886805877  0.2465863337486169  0.2545844076293307
  0.8263017323208359  0.3480747809879787  0.3304091129765894
  0.7473818882494854  0.4126340689764305  0.4193984782866664
  0.6627320983626035  0.5115766576688827  0.4935505453053324
  0.5764753312371482  0.5758791997903785  0.6005976566207849
  0.4956706029504829  0.6678088440317964  0.6653563854611591
  0.4319655310670782  0.7768705638941640  0.7492773196487903
  0.3267124995056179  0.8492021911090006  0.8473428344012035
  0.2333733838593588  0.9215634892619846  0.9263292190713486
  0.2415237027369059  0.9095220752254392  0.0866315184504032
  0.1500477985089361  0.0133444460923897  0.1651514534883702
  0.0856891383879130  0.0933533059444684  0.2536226398117378
  0.9979843339661443  0.1653580441188112  0.3497627976190500
  0.8993381951036241  0.2571002358210706  0.4127106697911742
  0.8338515790618573  0.3410272885026089  0.4964940070795762
  0.7515566282036090  0.4313347536979890  0.5790972151360521
  0.6651644132653090  0.4995640508819790  0.6694084687944937
  0.5986336304579964  0.5836587224133822  0.7518591441227684
  0.4945299843774720  0.6699578270843247  0.8301221775628846
  0.4291887651281456  0.7623839340096481  0.9062480793189351
  0.3252227747785170  0.8262018836022804  0.9839334589068187
  0.3228406329101432  0.8384608759492167  0.1810838905038779
  0.2377835419632959  0.9179495352792273  0.2512151301218140
  0.1865110104216114  0.0095263135777586  0.3327529445499096
  0.1053120926277487  0.0851224198109506  0.4241364227376963
  0.0075659774956520  0.1665135802286031  0.4843400401439624
  0.9127071952618238  0.2499723273611778  0.5800745481332044
  0.8377663354295208  0.3433053764238281  0.6474050170068040
  0.7473559677068522  0.4215900426158825  0.7575649916943519
  0.6684689551692742  0.4880947941385827  0.8268206746361315
  0.5734486636805869  0.5920613629172564  0.9069492806715687
  0.4865762562292346  0.6802889500276876  0.0117906477416554
  0.3976259526775792  0.7641059251898454  0.1015346577875320
  0.4114827539155215  0.7527942705861435  0.2578599697437127
  0.3214932457285258  0.8382364474568931  0.3438263432407851
  0.2579655730896988  0.9136272993790513  0.4273024956494211
  0.1785782940792586  0.9930239835469052  0.5111462169751633
  0.0803785017204532  0.0790314467647519  0.5987693017323181
  0.9985615532550227  0.1778041187114354  0.6553808371895258
  0.9122674922876115  0.2561955411525076  0.7310403530889076
  0.8254069020922330  0.3415597062371489  0.8329272311540876
  0.7466587145032406  0.4088429698623628  0.9174595519894027
  0.6515945894636914  0.4987245990547393  0.9915521970416066
  0.5843154223026445  0.5767204635342509  0.0864099143727231
  0.4847339251107385  0.6621382524521451  0.1597778629765827
  0.4913157708432223  0.6710156526854902  0.3303048197476670
  0.4087289476546445  0.7497887626562232  0.4134905458985898
  0.3332208471760794  0.8403743182447414  0.4984003262933072
  0.2568940456415092  0.9185388664768226  0.5953769048607782
  0.1537119482676772  0.0115240972551831  0.6745524941662708
  0.0745237358606232  0.0930307304026243  0.7570327252412596
  0.9861181552562854  0.1695632183396611  0.8163151068857744
  0.9156553606035445  0.2613296674774546  0.9137934909428864
  0.8425558614143327  0.3193337243909156  0.0036911376760003
  0.7455898562331882  0.4216087491101064  0.0891894701194431
  0.6666648779860793  0.5063627689447898  0.1725638422520177
  0.5885963133800018  0.5711229586892870  0.2593622473698787
  0.1507524852673612  0.1596130008107863  0.8371049794336329
  0.0587786366872365  0.2484290223065955  0.9112625479552321
  0.9943590506842241  0.3347234085785473  0.0075458778278730
  0.9260547905790233  0.4088104547342226  0.0817464211556711
  0.8331987595910491  0.5091452059602943  0.1610964211556691
  0.7468837520764140  0.5851425526024343  0.2374891280058549
  0.6675664219466881  0.6806579912197463  0.3267399294019953
  0.5783951856905531  0.7493857083531097  0.4113563053709868
  0.4968953023651324  0.8198353385540287  0.4986457131980728
  0.4126227213850626  0.9259531803709891  0.5734822402507547
  0.3326273967726650  0.0090822778239215  0.6765807783578524
  0.2383813019103016  0.0779119621104272  0.7552397316484729
  0.2560296145783880  0.0872553403338046  0.9106537939012824
  0.1625365468280364  0.1777988718161652  0.9886940935967417
  0.0860964206612849  0.2507132722274932  0.0848410452262272
  0.0023341465946842  0.3425867658400534  0.1533444658677396
  0.8952268020289509  0.4219882074632153  0.2260818328784993
  0.8321943521594690  0.5053996816168294  0.3130124495728523
  0.7450952079378297  0.5898979710488845  0.4068570909468434
  0.6662513249485826  0.6617559370550552  0.4820949103187786
  0.5867895482320833  0.7432228662395204  0.5840373314151250
  0.4946004449454193  0.8381669875217526  0.6486573356668259
  0.4143983858368898  0.9199690688775490  0.7494866150529944
  0.3330496687628539  0.9996669202855557  0.8357254726309122
  0.3287937346741003  0.9921836645704829  0.9973865888506595
  0.2413586719862337  0.0900858205782313  0.0856839760322714
  0.1656293837011518  0.1700174997033699  0.1666257460251543
  0.0705342919435239  0.2598092652467940  0.2456196581830383
  0.9877374559998415  0.3259163374070582  0.3235419687351708
  0.9054300377709197  0.4272448079813316  0.4058285991140664
  0.8241285654959682  0.5130718201234004  0.4839031343932945
  0.7446904366397717  0.5881222685295029  0.5638024590650232
  0.6738371237739287  0.6678839167062165  0.6697487432763793
  0.5795552750751440  0.7548445311264018  0.7458119279979414
  0.5103941311699103  0.8500389979829137  0.8422957740072761
  0.4056481826451517  0.9141380902942586  0.9176294440159793
  0.4037175140405012  0.9189373660219928  0.0855028308416408
  0.3230440713494716  0.0064752694391714  0.1673968725280801
  0.2572624461121649  0.0843600612047126  0.2417048770961898
  0.1892084272662586  0.1778137255774368  0.3320793515662075
  0.0912954991298847  0.2481162059009634  0.4148629162711615
  0.0001514524996011  0.3341910551139051  0.4923080100063260
  0.9148164417220386  0.4281520190634396  0.5739467014712858
  0.8148546926910285  0.5093252392817575  0.6598851126206284
  0.7401268445459550  0.5755667259927222  0.7483118058851446
  0.6664361963099168  0.6581809098639440  0.8298693981371628
  0.5863133948346757  0.7308777977179233  0.9052486355007119
  0.4995914486434074  0.8292072076214225  0.0005088494700232
  0.4890171941741812  0.8180490923113410  0.1599153189764309
  0.3974603459697832  0.9076786979908249  0.2533981356786867
  0.3307182922006007  0.0046260846780584  0.3218978079022321
  0.2520775866160392  0.0877296714325269  0.4204122908756531
  0.1658345687984522  0.1632935596622360  0.5053408993830075
  0.1002854354532516  0.2570236463771565  0.5770892427028969
  0.0061450245214374  0.3456541854532489  0.6584846399897160
  0.9087966105046661  0.4174254123160921  0.7384666874307868
  0.8410407802365114  0.4906609199493772  0.8409717958985894
  0.7490000504271492  0.5731158341243443  0.9190577029939888
  0.6680088469980987  0.6571087866832812  0.0079985796353412
  0.5850544400609081  0.7473325012853991  0.0845100137438664
  0.5716129222037623  0.7534179644241448  0.2437242861097957
  0.4854613728049344  0.8348733423311216  0.3279411391591509
  0.4101061382692635  0.9284733912751122  0.4290401667062156
  0.3519866699296017  0.0112858690278443  0.5054278654485032
  0.2514669267125456  0.0818254671926937  0.5776898191544078
  0.1708515642303468  0.1510127941583619  0.6654275772227507
  0.0945293743078608  0.2575640182526513  0.7525488085350389
  0.9862462234021550  0.3359264154208219  0.8229982009373487
  0.9191377007198227  0.4147983823762047  0.9180322773295373
  0.8266297198821420  0.4981868340650237  0.9975006080920750
  0.7361916508463864  0.5728564368770748  0.0836319747666536
  0.6564807773690902  0.6719699340492014  0.1765559049201073
  0.2458526261667444  0.2435651380319541  0.7708377585627275
  0.1538422446013286  0.3471617376601799  0.8398011311501321
  0.0665115967607974  0.4176031180786239  0.9190349074513549
  0.9937663210923873  0.5042234802642014  0.9964032688656843
  0.9469421328705891  0.5774846904168669  0.0947454669949366
  0.8353275544810970  0.6741383869245396  0.1517147954239846
  0.7673355595435822  0.7313523409072928  0.2513612882653078
  0.6559142066128771  0.8210635866555904  0.3317175264000980
  0.5808299828943220  0.9044238490745116  0.4140353509136219
  0.5044259798686923  0.0139177740863801  0.5056972991812998
  0.4144279826174682  0.0922303373675035  0.5844740621539302
  0.3229532189329234  0.1522619542002843  0.6779375880003187
  0.3527990315021370  0.1702249787414942  0.8398032985287145
  0.2520528817631700  0.2599614009848139  0.9135632934859998
  0.1649185705386813  0.3406236320400282  0.9941979349588692
  0.0767836779188400  0.4277652611335228  0.0681102624189194
  0.0196518603662383  0.4980033697199815  0.1678749466065526
  0.9337655602357202  0.5877022113787405  0.2404618933910783
  0.8362816390800489  0.6611984184662205  0.3323618543347564
  0.7511479577005247  0.7517519340294285  0.4156655701234016
  0.6620097279900321  0.8224697511271941  0.4905216965274448
  0.5868665989360835  0.9169721765741201  0.5694316450126564
  0.5013643430628036  0.0002822550822685  0.6644415653179863
  0.4280063073485181  0.0765646466144574  0.7549342583254202
  0.4211989608052491  0.0680615675921530  0.9032371796392979
  0.3294036619008054  0.1588223382376199  0.9896711250197754
  0.2646055262221196  0.2510037355639909  0.0757948188577728
  0.1768889544771426  0.3289569762497990  0.1672714399422546
  0.0871070845198574  0.4090383597334295  0.2413111335231761
  0.0080009427899057  0.4809213118968501  0.3135634002728978
  0.9201231035437445  0.5816273656264812  0.4042395136252210
  0.8473049186244239  0.6553452252412626  0.5038185502689458
  0.7584727994977030  0.7319569480699286  0.5740920799715212
  0.6662491971207061  0.8274333718952676  0.6675357607577936
  0.5900431438854596  0.9160630284962821  0.7355327717133378
  0.5070059301336798  0.9826666775431079  0.8245102762616696
  0.4855457013328603  0.9881284681023601  0.0139573425881991
  0.4054438627195083  0.0895891729947778  0.0653026835152701
  0.3400126285397889  0.1618318135975301  0.1525608566682521
  0.2663956514000958  0.2509119097057422  0.2391165163739899
  0.1738194302721112  0.3225672228484413  0.3302254014396482
  0.0833252862482183  0.4066587856945105  0.4088041775431108
  0.0069398839186832  0.5066094976071795  0.5058178378618905
  0.9030322041607377  0.5816700596226880  0.5680794642857165
  0.8206536085073566  0.6563914521040957  0.6542132697555800
  0.7461594550901722  0.7482985153654482  0.7533693877551002
  0.6689847215630422  0.8351922530058502  0.8310719486631868
  0.5919364133444063  0.9092272623002700  0.9260565466302779
  0.5955295868928943  0.9236345455624075  0.0954527838751744
  0.4926180880200945  0.9959443086536908  0.1662353993632308
  0.4262740967607996  0.0796057417734559  0.2444941934622662
  0.3440196176435677  0.1639184548528689  0.3192248062015537
  0.2668546121064708  0.2506859807585826  0.4088180815931040
  0.1879974054738156  0.3164824004311058  0.4923702133760486
  0.0941841273137172  0.4167340976506893  0.5783097349114072
  0.9939199078468590  0.5147663927780428  0.6481785882376201
  0.9098405196962531  0.5790309845158959  0.7409949261390594
  0.8312575897801011  0.6573595361691176  0.8345247799992066
  0.7533884507000508  0.7339274046828024  0.9171109753203623
  0.6752075161169131  0.8290520215353610  0.9992760149699436
  0.6823444159349776  0.8202936382692627  0.1640495372567656
  0.5753677711200780  0.9033986177028979  0.2507610618375224
  0.4966585142778044  0.9920186209658297  0.3335447896891282
  0.4122775871104238  0.0976415193402929  0.4174551139060299
  0.3412528239202643  0.1805353118572981  0.5069572298686893
  0.2608522889969933  0.2400391665677901  0.5810867055252302
  0.1690213385935735  0.3466299181300414  0.6674206350854277
  0.0909739123556434  0.4395168456336052  0.7489511098916282
  0.0017395630635946  0.5098703913542195  0.8130867717726602
  0.9306426356589128  0.6121204343656075  0.9198942735524440
  0.8390518925011889  0.6457420389376693  0.0130108833649771
  0.7592163364182909  0.7458765029267553  0.0742560997073269
  0.3173896080525225  0.3289019409508001  0.6698162212268599
  0.2582175545799714  0.4185101872725809  0.7760030992920406
  0.1718223248892556  0.5141333956256915  0.8520258898908395
  0.0730788047777224  0.5864712718517637  0.9114688103148225
  0.0058674937707650  0.6777114261983854  0.9960622424260421
  0.9247997478642631  0.7291439714839427  0.0892766299833880
  0.8256695795760152  0.8187860479947773  0.1605137730382822
  0.7483012300268967  0.9086906882811263  0.2540503455742780
  0.6573198846108212  0.9984726393173560  0.3138946710370192
  0.5819664026657208  0.0823148418960642  0.4186444975083035
  0.4892494804026271  0.1595524902111976  0.4974841535160550
  0.4129027645942074  0.2585256580248370  0.6061483630952367
  0.4290299636133525  0.2452510911050467  0.7376500459776949
  0.3489389678255037  0.3226568150806841  0.8272340699651934
  0.2467293169593390  0.4123607874545172  0.9201642422085143
  0.1674530795166902  0.5071868533459920  0.9928513274205031
  0.0898727144636950  0.5895286356984641  0.0619772197832589
  0.0225592444826788  0.6696725780137669  0.1603109461517178
  0.9187475434068944  0.7312809187628559  0.2583928546709373
  0.8321285303947192  0.8214860306913465  0.3322855704200265
  0.7550886533974079  0.9111687579101400  0.4083950660496782
  0.6561884155987983  0.9923076748141142  0.5049092380556885
  0.5939475572496420  0.0791935339542817  0.5879957324790368
  0.4957503697990830  0.1754075620946054  0.6618143311975970
  0.5109285076530625  0.1669027952460027  0.8207480417457660
  0.4351929125138412  0.2462271218952665  0.9322423390286332
  0.3297129741140665  0.3282903036505331  0.0060075457799371
  0.2539306705821858  0.4145510134867934  0.0886828305450109
  0.1666327969269119  0.4935986661525078  0.1491509254864738
  0.0867831889732642  0.5809997567631697  0.2441512280493612
  0.0141577435334597  0.6669188523374459  0.3201574058693240
  0.9304163299912958  0.7404913102159441  0.4251700274877379
  0.8298999737976587  0.8295780686402452  0.4789572659587122
  0.7486739197713987  0.9130652655829792  0.5690269478721746
  0.6711975883958203  0.0045548968715394  0.6574233576570165
  0.5900435171452330  0.0936279415836125  0.7516561372804915
  0.5781198114420221  0.0697820855086206  0.9030016037810498
  0.5076387695775963  0.1646642871974393  0.9973098594961272
  0.4263271441425402  0.2472810566959325  0.0695040163739904
  0.3438911712940964  0.3452254741140663  0.1610454917141269
  0.2489445123398184  0.4253095257870569  0.2531803502214842
  0.1584389070162970  0.5042978795878810  0.3465686071230820
  0.0585676089621927  0.5638476927108087  0.4154052815021387
  0.0061000158202802  0.6526856376562264  0.5181799626245862
  0.9133848565298237  0.7546229537454536  0.5822762938024013
  0.8317596978326236  0.8319280310670791  0.6523568304065819
  0.7524600908677428  0.9067859698821366  0.7378517199612418
  0.6814557551218172  0.9886413527329552  0.8348925338158537
  0.6552231376562219  0.0126605778357884  0.9917715195380481
  0.5699344303709850  0.0769783494502434  0.0915385307902241
  0.4826303586260110  0.1609429026261679  0.1832507885421606
  0.4235386479591838  0.2420383369917758  0.2448001418881489
  0.3491675155236535  0.3323312579101412  0.3199520067038435
  0.2493284854057904  0.4095355452064524  0.4113427221760801
  0.1640008785200138  0.4974339310433464  0.5055183431221337
  0.0979920186679308  0.5809324849707309  0.5945746608527145
  0.9918171709381411  0.6675866644913810  0.6529303017718746
  0.9017735746915037  0.7503432912118342  0.7474413675644698
  0.8385359496123996  0.8397855021950633  0.8381725819688342
  0.7567154232914106  0.9185990740191414  0.9399117846266449
  0.7491367114578367  0.9074468586853328  0.0849547688261367
  0.6716974015187489  0.0007370130319586  0.1910352337446639
  0.5730490957720278  0.0811876829220068  0.2585339374703395
  0.4970990670977713  0.1566490542437933  0.3363146288166448
  0.4169765380280026  0.2471366941544062  0.4099956078943237
  0.3477079462308197  0.3351683198860940  0.4928915895427934
  0.2573935215946861  0.4160227812055055  0.5875681943126096
  0.1801442597096994  0.5104278115606675  0.6824583451985475
  0.0842806285595614  0.5929975646654029  0.7495454640286354
  0.9967561857301064  0.6759054782668912  0.8185254800466666
  0.8986051504904253  0.7521820009689932  0.9176134734417047
  0.8269426974568930  0.8232754874624248  0.0191982790499949
  0.4130955006130392  0.4099407100340144  0.5985138971286190
  0.3307390103425121  0.4872956331078910  0.6777419998813485
  0.2641805954358460  0.5882644819846519  0.7488895205465909
  0.1717981416112977  0.6764400174023066  0.8321828186797973
  0.0666164970930225  0.7534719714048421  0.9142143188379990
  0.9818113535239661  0.8376453340056926  0.0150101170700836
  0.9097148512893511  0.9238348164847352  0.0993079892422060
  0.8290032654049995  0.9988363950522086  0.1791018900292656
  0.7516861814784050  0.0794737081751293  0.2574430899976292
  0.6663677859515929  0.1649187974608424  0.3263239884907421
  0.5943344061461815  0.2506712896495813  0.4278272143450437
  0.5018690743157705  0.3170850849351368  0.5257714448860966
  0.5159930074355330  0.3257765276459423  0.6846885510599563
  0.4373543476111408  0.4164360227812054  0.7483329818264508
  0.3330184073920250  0.5139537365527573  0.8303073064981774
  0.2685686471681663  0.5898726768905220  0.9177647558732787
  0.1796218394043692  0.6607450255102023  0.9858524303907643
  0.1088198974647980  0.7451343680786238  0.0824488495688982
  0.9934621114143312  0.8215093161683242  0.1601816890128163
  0.9204757499802270  0.9051768302088306  0.2531368924023099
  0.8337190174616325  0.0043761642738502  0.3378705584559398
  0.7367688686521134  0.0788118301099487  0.4009887280493558
  0.6692889579378232  0.1549165554303116  0.4959798301297269
  0.5930004894399588  0.2362409176752109  0.5978341812015486
  0.5910078246124044  0.2507826308139514  0.7611953063202037
  0.5070392085904132  0.3326592158084196  0.8509746302009162
  0.3940656235168518  0.4217867935255484  0.9291677523334911
  0.3264395892659380  0.5051413502610345  0.0051350963059633
  0.2445961655592441  0.6049174176356615  0.0775804001542468
  0.1657898201431749  0.6662030755616186  0.1688097166192080
  0.0943916172282897  0.7485319663621297  0.2564100211596241
  0.0081902809088774  0.8182686135500745  0.3424217074038935
  0.9288355990942918  0.8967531670226236  0.4046233378816666
  0.8347930336378724  0.9897837416943531  0.4909186026736307
  0.7569768949731071  0.0725549329615589  0.5783481272741682
  0.6829009309246956  0.1557734303314362  0.6741280528199667
  0.6697313968319918  0.1692837224133825  0.8385251695736429
  0.5952400604137011  0.2505493266492635  0.9206100157214081
  0.5005099153614907  0.3549129306082932  0.0133069376878652
  0.4118771738055713  0.4322606445775961  0.0819048558376849
  0.3229765330841659  0.5196571621381096  0.1684736641749751
  0.2442507588791329  0.5983615161762401  0.2660719817869008
  0.1512451456454684  0.6613258023849085  0.3558681280651825
  0.0902770803670307  0.7370104240824205  0.4334546753875941
  0.0127373591006190  0.8267343992248044  0.5036020170859032
  0.9152980288917902  0.9231989509175733  0.5855669291844663
  0.8360670117465574  0.9918989331197565  0.6625974420582210
  0.7486694594407552  0.0768257460251576  0.7422755720020575
  0.7642467484377491  0.0650723001700655  0.9114662676989411
  0.6721850888902097  0.1482997004034203  0.9885857207127060
  0.5855204734219299  0.2311754602713165  0.0874011271950650
  0.5012651424814081  0.3435054525589294  0.1583105368019275
  0.4275185774600558  0.4230078458709059  0.2539773221207113
  0.3308046659943074  0.5002605412513859  0.3475086403456729
  0.2554248081790860  0.5903949370155033  0.4310725102831796
  0.1409791335429489  0.6615658914728684  0.4911248116397715
  0.0854969323485193  0.7376619794138577  0.6091882435532341
  0.0015140400055387  0.8233073806557485  0.6695702222749560
  0.9172240300189856  0.9023336868177481  0.7346895932210060
  0.8363315110346434  0.9916606282629346  0.8202093141907909
  0.8402024541211830  0.0042694198900506  0.0141905543031200
  0.7495594303709865  0.0778387502966282  0.1018943056873880
  0.6578920834322091  0.1592090541449167  0.1796106742406280
  0.5768659913383942  0.2593578310393951  0.2490764811738657
  0.4941344476744192  0.3474392407253575  0.3402269671531428
  0.4078611542872963  0.4209950957127049  0.4209291355204883
  0.3315661020803660  0.5036974351368428  0.5101827756684045
  0.2482446042952091  0.5919016779386155  0.5903922658598333
  0.1790555598402150  0.6674760317789890  0.6803514950166090
  0.0819005314625869  0.7574147148394275  0.7524435131901583
  0.9854282584836227  0.8327014129489001  0.8392770917378556
  0.9093074958471732  0.9220181582225919  0.9351665727337419
 
  0.00000000E+00  0.00000000E+00  0.00000000E+00
  0.00000000E+00  0.00000000E+00  0.00000000E+00
  0.00000000E+00  0.00000000E+00  0.00000000E+00
  0.00000000E+00  0.00000000E+00  0.00000000E+00
  0.00000000E+00  0.00000000E+00  0.00000000E+00
  0.00000000E+00  0.00000000E+00  0.00000000E+00
  0.00000000E+00  0.00000000E+00  0.00000000E+00
  0.00000000E+00  0.00000000E+00  0.00000000E+00
  0.00000000E+00  0.00000000E+00  0.00000000E+00
  0.00000000E+00  0.00000000E+00  0.00000000E+00
  0.00000000E+00  0.00000000E+00  0.00000000E+00
  0.00000000E+00  0.00000000E+00  0.00000000E+00
  0.00000000E+00  0.00000000E+00  0.00000000E+00
  0.00000000E+00  0.00000000E+00  0.00000000E+00
  0.00000000E+00  0.00000000E+00  0.00000000E+00
  0.00000000E+00  0.00000000E+00  0.00000000E+00
  0.00000000E+00  0.00000000E+00  0.00000000E+00
  0.00000000E+00  0.00000000E+00  0.00000000E+00
  0.00000000E+00  0.00000000E+00  0.00000000E+00
  0.00000000E+00  0.00000000E+00  0.00000000E+00
  0.00000000E+00  0.00000000E+00  0.00000000E+00
  0.00000000E+00  0.00000000E+00  0.00000000E+00
  0.00000000E+00  0.00000000E+00  0.00000000E+00
  0.00000000E+00  0.00000000E+00  0.00000000E+00
  0.00000000E+00  0.00000000E+00  0.00000000E+00
  0.00000000E+00  0.00000000E+00  0.00000000E+00
  0.00000000E+00  0.00000000E+00  0.00000000E+00
  0.00000000E+00  0.00000000E+00  0.00000000E+00
  0.00000000E+00  0.00000000E+00  0.00000000E+00
  0.00000000E+00  0.00000000E+00  0.00000000E+00
  0.00000000E+00  0.00000000E+00  0.00000000E+00
  0.00000000E+00  0.00000000E+00  0.00000000E+00
  0.00000000E+00  0.00000000E+00  0.00000000E+00
  0.00000000E+00  0.00000000E+00  0.00000000E+00
  0.00000000E+00  0.00000000E+00  0.00000000E+00
  0.00000000E+00  0.00000000E+00  0.00000000E+00
  0.00000000E+00  0.00000000E+00  0.00000000E+00
  0.00000000E+00  0.00000000E+00  0.00000000E+00
  0.00000000E+00  0.00000000E+00  0.00000000E+00
  0.00000000E+00  0.00000000E+00  0.00000000E+00
  0.00000000E+00  0.00000000E+00  0.00000000E+00
  0.00000000E+00  0.00000000E+00  0.00000000E+00
  0.00000000E+00  0.00000000E+00  0.00000000E+00
  0.00000000E+00  0.00000000E+00  0.00000000E+00
  0.00000000E+00  0.00000000E+00  0.00000000E+00
  0.00000000E+00  0.00000000E+00  0.00000000E+00
  0.00000000E+00  0.00000000E+00  0.00000000E+00
  0.00000000E+00  0.00000000E+00  0.00000000E+00
  0.00000000E+00  0.00000000E+00  0.00000000E+00
  0.00000000E+00  0.00000000E+00  0.00000000E+00
  0.00000000E+00  0.00000000E+00  0.00000000E+00
  0.00000000E+00  0.00000000E+00  0.00000000E+00
  0.00000000E+00  0.00000000E+00  0.00000000E+00
  0.00000000E+00  0.00000000E+00  0.00000000E+00
  0.00000000E+00  0.00000000E+00  0.00000000E+00
  0.00000000E+00  0.00000000E+00  0.00000000E+00
  0.00000000E+00  0.00000000E+00  0.00000000E+00
  0.00000000E+00  0.00000000E+00  0.00000000E+00
  0.00000000E+00  0.00000000E+00  0.00000000E+00
  0.00000000E+00  0.00000000E+00  0.00000000E+00
  0.00000000E+00  0.00000000E+00  0.00000000E+00
  0.00000000E+00  0.00000000E+00  0.00000000E+00
  0.00000000E+00  0.00000000E+00  0.00000000E+00
  0.00000000E+00  0.00000000E+00  0.00000000E+00
  0.00000000E+00  0.00000000E+00  0.00000000E+00
  0.00000000E+00  0.00000000E+00  0.00000000E+00
  0.00000000E+00  0.00000000E+00  0.00000000E+00
  0.00000000E+00  0.00000000E+00  0.00000000E+00