Li 
 1.0000000000000000
    20.2271999999999998    0.0000000000000000    0.0000000000000000
     0.0000000000000000   20.2271999999999998    0.0000000000000000
     0.0000000000000000    0.0000000000000000   20.2271999999999998
 Li 
 432
Cartesian
 -0.3583855800000000  0.2640070500000000  0.3341721500000000
 18.2699922800000003  1.6842369500000001  2.0220719300000001
 16.7702160999999990  3.4695612800000002  3.3200932000000001
 15.0684441200000006  5.2123583599999996  4.8808352800000003
 13.5961580600000005  6.5737074099999999  6.6173576699999996
 12.0929424799999996  8.3349444600000009  8.5138729099999999
 10.2398988299999996  9.9044035000000008 10.2841316500000008
  8.4568358000000003 11.5898231400000000 12.3540428099999993
  6.9190881500000003 13.6306911300000007 13.5215061599999995
  5.3468817900000003 15.6024332099999992 15.1847309199999998
  3.0471057099999999 16.9022014600000006 17.0764391800000013
  1.4957186499999999 18.7390998999999994 18.7210999499999993
  1.6616704300000000 18.7919915899999985  1.8278811100000001
  0.2359496200000000  0.0502137500000000  3.6075555700000002
 18.7282962099999999  1.8923157799999999  4.9778134900000000
 16.7576592499999997  3.3203667399999999  6.9711641300000000
 15.5521991600000007  4.9649748599999999  8.6497863699999993
 13.4337772500000003  6.9230844400000002 10.2598489300000004
 12.0457687000000000  8.6526764800000002 11.8443869199999998
 10.1878249000000007  9.9611798799999995 13.8028991600000008
  8.4393328000000007 11.6202269499999993 15.1201356400000009
  6.8899419300000000 13.8149073300000005 16.6483132699999992
  5.1118001199999998 15.4790711099999996 18.4542605799999997
  3.2905557800000000 16.9142684699999997  0.0281230900000000
  3.3434376299999999 16.7391517000000007  3.7690288800000000
  1.6807399300000001 18.3849559000000013  5.1910252999999997
  0.2559083100000000 -0.0978646200000000  6.7429129899999998
 18.8026272799999994  1.8643847600000001  8.2632756000000001
 16.9460425500000014  3.0026089599999999  9.9716133599999992
 15.2338030799999995  4.9188211400000004 11.5715567999999998
 13.7064888899999993  6.7074204100000001 13.4882701899999997
 11.8666845100000007  8.3677635600000002 15.3011012599999994
  9.7981665299999996 10.1806022899999995 16.7962688699999987
  8.3286742300000007 11.8815617600000003 18.6059909999999995
  6.6704096300000000 13.7723983600000004 19.8495603799999998
  4.7760349199999999 15.2993604300000001  1.7270040200000001
  5.0285872999999999 14.9036428999999995  5.5319350900000002
  3.3494435600000001 16.6464232299999999  7.0901398100000002
  1.7834659300000000 18.6412038299999985  8.3567793600000009
  0.0150672400000000 -0.0465145000000000 10.2380090900000003
 18.5757932200000013  1.6706093900000001 11.7213329900000005
 16.7468497700000007  3.5080322599999998 13.3524111899999998
 14.9757754700000003  5.2141846500000000 15.0195279799999994
 13.5312737399999996  6.8888217999999997 17.1173522799999986
 11.7527419299999991  8.5495501399999991 18.4424504700000007
 10.2666658300000009 10.2394041799999993 -0.1917282500000000
  8.3344476600000004 11.8740714599999997  1.3993522400000000
  6.3629767900000003 13.5985481799999999  3.4177869400000001
  6.8860706000000000 13.2130857099999997  6.9922123699999998
  5.2369851399999998 15.2859036100000001  8.5411818799999999
  3.1650658800000002 16.7080473800000000 10.2518368300000002
  1.6308671600000000 18.5514420400000013 12.0775133399999994
 -0.0077568700000000  0.0167929400000000 13.6058599499999993
 18.2961174200000016  1.7224660000000001 14.9663931199999993
 16.6541085100000004  3.2838624400000000 16.5965031200000013
 15.2600802400000006  5.1415938600000004 18.4579423200000008
 13.3848229500000002  6.9577323000000000  0.1727990200000000
 11.9937471999999996  8.4961874200000000  1.6589538699999999
 10.0669360700000006 10.4370097099999999  3.3571297000000002
  8.3363531500000008 11.6802572300000005  5.0178248300000003
  8.7645315400000001 11.6942056999999995  8.1929831699999998
  7.0119593900000003 13.3231563600000005 10.0441520900000008
  5.0664410400000000 15.2294849699999997 11.5932016299999994
  3.6050456500000001 16.9744266199999991 13.3201595899999994
  1.2486303500000000 18.4710286900000007 15.3338773300000000
 -0.1219164500000000 -0.0344510200000000 16.6643889200000004
 18.5499039500000009  1.4065160400000001 18.3153166300000017
 16.6216650799999996  3.2151510299999999 20.3643110699999994
 15.1144057400000005  5.0093690300000002  1.5487978000000000
 13.4041479900000002  6.7756945699999998  3.3945971899999998
 12.0387959700000007  8.4731556999999995  4.9658640299999997
 10.2554405699999993 10.0368019000000004  6.9924148700000002
  1.2161944000000000  1.9641529400000000 18.7424989000000011
 -0.4338133000000000  3.4032006899999998  0.1079966300000000
 18.5493054199999996  5.0091605799999996  1.7551195700000000
 16.6019891699999995  6.8402904099999997  3.3233713100000002
 15.2612860200000000  8.4183474700000005  4.7967668000000003
 13.7163466700000001  9.8483147199999994  6.5929348699999997
 11.7784784600000005 11.6836511600000001  8.2729580899999995
 10.1167544700000001 13.3534503200000003 10.1610869499999996
  8.3957375200000008 14.9904024299999996 11.8427153399999998
  6.9803067900000002 16.9599385600000012 13.4616408300000003
  4.9281908200000002 18.7546949599999984 15.3279221200000002
  3.1372078000000001  0.2592958400000000 17.0421578700000005
  3.3717875700000000  0.1870181600000000 -0.0749754500000000
  1.6203567200000000  1.7454480200000000  1.4436364699999999
 -0.0466209300000000  3.4991417800000000  3.2867202400000002
 18.3152600999999997  4.9877510899999997  5.1495297300000002
 16.7137704000000014  7.0405782099999996  6.6832512099999999
 15.1174429299999993  8.3464318399999993  8.4832569000000007
 13.4052147000000001 10.3477633699999991  9.9831455899999995
 11.6604818199999993 11.6484237499999992 12.1484089199999996
 10.0260284199999994 13.5079030499999995 13.4582966800000001
  8.7374531900000001 15.7139162700000004 15.1557822000000009
  6.6084790699999996 17.1769825599999990 17.1393729800000010
  4.7204901100000001 18.6406490100000006 18.7370463799999989
  4.8853482399999999 18.3970849200000011  1.7523130499999999
  3.0350468300000002  0.2699207800000000  3.3405514799999998
  1.7332513400000000  1.8882759899999999  5.1300758599999998
 -0.0407712800000000  3.3447302300000001  7.0747220600000000
 18.1910935400000007  5.2004178899999998  8.3479812599999992
 16.8664826599999991  6.8980271699999998 10.0426835800000003
 15.2018862299999995  8.7246943300000002 11.7135151900000007
 13.4544136200000004 10.1047819699999994 13.5402589800000008
 12.1086821699999998 11.8057817099999998 15.2080052800000001
 10.0029568999999992 13.5513709599999999 16.7910473099999997
  8.6812869900000003 15.4208923099999993 18.3308611500000005
  6.5783461100000000 16.7117507399999994 19.9022188600000014
  6.5301620500000004 16.9597158300000004  3.6628200700000000
  4.8096952599999998 18.5675488400000006  5.0813786800000003
  3.7725955099999999  0.1926906500000000  6.7306603599999999
  2.1301687600000001  1.7217882099999999  8.5790922500000004
  0.1530385400000000  3.3681034900000002  9.7968428599999999
 18.4615109799999999  5.0562402600000000 11.7332839000000000
 16.9456672200000007  6.9441065100000001 13.0951907599999995
 15.1169186300000007  8.5275861099999997 15.3234186000000001
 13.5212552499999994  9.8727910199999993 16.7242671499999993
 11.5992608100000005 11.9757435999999995 18.3450444899999994
  9.8420752500000006 13.7603406499999998 20.4656917900000010
  8.0428596700000003 15.4557233699999994  2.0537618300000000
  8.3231439599999995 15.2269202700000008  5.2157851800000001
  6.5029081800000004 16.9551762699999991  6.9546442099999997
  5.2179212399999999 18.4801221099999999  8.6431330400000004
  3.6121388699999999 -0.1411052800000000 10.3390567600000001
  1.6258320300000000  1.5985848800000000 12.1114264200000008
 -0.0290957500000000  3.5964794699999998 13.2565192700000001
 18.4526170200000017  5.1821184499999999 14.7868994300000001
 16.6956704900000013  6.9087964900000003 16.8477856899999985
 15.1028151499999996  8.2697485200000003 18.5576378499999990
 13.1799340800000007 10.0878022099999995 20.0563245999999999
 11.8190649099999998 11.6654401599999993  1.7478306200000000
  9.8048100500000004 13.3932028600000006  3.2318587900000000
  9.9379423599999992 13.5727678100000002  6.6811416499999998
  8.2674421700000007 15.1661272599999997  8.3637559699999997
  6.7401247199999998 16.9984194100000003 10.0812430800000001
  5.1962472399999999 18.5794693600000009 12.0428077299999998
  3.1091623199999998  0.2331002200000000 13.6443082100000002
  1.5074065100000000  1.8817511899999999 15.3126523399999996
 -0.2807908500000000  3.4297891300000001 16.5117689299999988
 18.5211441100000016  5.2859674500000002 18.4834837000000007
 17.0425459199999985  6.4592271099999996 20.3018613799999983
 15.0811951400000002  8.5279644900000005  1.8040532499999999
 13.4847638199999995 10.2423009999999994  3.4904833499999999
 11.9056553500000000 11.5522183100000007  5.2461720500000002
  3.0493006700000000  3.2285240900000001 16.9322898399999993
  1.1889272399999999  5.0250235200000004 18.4322898100000003
 -0.1141006100000000  6.7705173299999997  0.1526319800000000
 18.7314954600000014  8.2690908299999997  1.6535012099999999
 16.8532779499999990 10.2985819099999993  3.2585295300000001
 15.1073670300000007 11.8357954400000001  4.8037400899999998
 13.5029995300000003 13.7678053200000008  6.6090339000000000
 11.6993150999999997 15.1579745999999993  8.3205862600000007
 10.0508006600000002 16.5829733600000004 10.0862065699999999
  8.3462023100000007 18.7294401700000002 11.5999399699999994
  6.7281208799999996 20.4109090500000008 13.6853347200000002
  4.8217862699999996  1.5759408399999999 15.2763851000000006
  5.1787622200000003  1.7649312200000000 18.4199764200000011
  3.2876592400000000  3.5963733400000000 -0.2286868300000000
  1.7414895200000000  5.0712275000000000  1.7160967899999999
  0.0472132500000000  6.9295710300000000  3.1017291800000000
 18.1079315700000016  8.5356398700000007  4.5730024499999997
 16.8329616000000009 10.2228204399999996  6.3313654200000000
 15.0711897900000000 11.9319842400000002  8.2295797499999992
 13.4763988000000001 13.3854696900000008  9.7514301700000008
 11.8691095499999992 15.0333175600000004 11.8134399099999996
 10.0043821200000007 16.9537712899999988 13.1205216599999996
  8.3821190300000001 18.6083983500000016 15.1600156599999991
  6.7366622600000001 20.2204627300000013 16.9043862800000007
  6.6505766299999998 -0.1581025800000000 -0.0528619900000000
  4.8820101300000003  1.8221839099999999  1.7331469200000000
  3.3502186699999998  3.4389779699999998  3.3703722900000002
  1.4267112300000000  5.2552139699999998  4.9681979500000004
 -0.2480369300000000  6.5923749400000000  6.5443481099999996
 18.3143144599999985  8.6419661800000007  8.2087762400000006
 16.6698133199999994 10.3780063200000008  9.7880054800000007
 15.0630024000000002 11.8960667499999992 11.4041450999999991
 13.6298382700000005 13.5094215599999998 13.5471417800000005
 11.7227804599999992 15.2683912999999993 15.0856870300000008
 10.3238441699999992 17.1939088200000008 17.0372850800000002
  8.2051269199999997 18.4904539800000016 18.5610742900000005
  8.1660748999999999 18.5875298899999990  1.7294828600000001
  6.5342770400000001  0.1309765700000000  3.3859700199999998
  5.2036989499999997  1.7063678300000000  4.8890128900000001
  3.8271567000000002  3.5966737900000001  6.7170354600000000
  1.8466523200000000  5.0186961200000004  8.3915151800000007
  0.0030634600000000  6.7597493100000001  9.9580125800000001
 18.5041751300000001  8.6603165200000003 11.6093347199999997
 16.4822288400000012 10.3022234800000003 13.3476281500000002
 14.9706937100000008 11.6421032800000006 15.1362525600000009
 13.4801382299999997 13.3131568999999992 16.7859342900000001
 11.8594782999999993 14.7836113900000008 18.3106451999999997
 10.1053361499999994 16.7725400299999983 20.2374925999999995
  9.8914485899999995 16.5468426000000015  3.2346391400000001
  8.0395099099999996 18.3597985600000015  5.1255347699999998
  6.6895050400000002  0.0935727400000000  6.5110913400000001
  5.0988237600000001  1.7745256100000000  8.5037634900000008
  3.3543689900000002  3.3029714900000000 10.2216314399999995
  2.0284935599999998  5.1988687000000002 11.6728995300000005
  0.1242966400000000  6.9916163400000002 13.3193005099999997
 18.3824107999999988  8.4433472999999992 14.9371133799999996
 17.0119000699999994  9.9246965599999992 17.0105047099999993
 15.1501738199999991 11.5925285999999996 18.5899639699999994
 13.5119485499999996 13.2914708499999996 20.3889888699999986
 11.8340131700000004 15.1164439700000006  1.7094009500000000
 11.5621288999999994 15.2395358499999993  4.9298598800000004
  9.8195242799999995 16.8871500700000006  6.6333310100000000
  8.2952988800000007 18.7804169799999983  8.6782812600000003
  7.1197047700000002  0.2282815300000000 10.2233905200000006
  5.0864718199999999  1.6551000899999999 11.6850475100000004
  3.4558487599999999  3.0545659900000000 13.4597366899999997
  1.9120645599999999  5.2097989099999999 15.2219552599999997
 -0.2782003900000000  6.7948507899999999 16.6469492099999989
 18.5915821000000001  8.3902098400000007 18.5692224800000005
 16.7204046700000006 10.0769247300000000 20.1766442999999995
 14.8910957600000007 11.5872817200000000  1.6916406799999999
 13.2787679799999996 13.5920702500000008  3.5712316000000000
  4.9729102400000000  4.9266407599999997 15.5918895099999997
  3.1117978499999999  7.0221099000000002 16.9868254400000005
  1.3453433699999999  8.4469417900000003 18.5895028800000013
 -0.1260898700000000 10.1990291800000001 -0.0727518000000000
 19.1539879100000014 11.6808983299999998  1.9164355099999999
 16.8963375099999986 13.6359319800000005  3.0687655100000000
 15.5210498300000008 14.7932100700000007  5.0843350500000000
 13.2673078400000009 16.6078173800000002  6.7097167500000001
 11.7485642299999995 18.2939620800000000  8.3747758500000007
 10.2031251800000007  0.2815176000000000 10.2288404100000001
  8.3827176899999998  1.8655614800000000 11.8222737500000008
  6.5324393499999998  3.0798329999999998 13.7127791800000001
  7.1361365699999997  3.4431746900000002 16.9868692800000005
  5.0983240500000004  5.2582912500000001 18.4788274500000007
  3.3358409099999999  6.8898623299999997 -0.1173595300000000
  1.5531188100000000  8.6524934899999995  1.3776799000000000
  0.3975021100000000 10.0732137599999998  3.3956401199999999
 18.8874627400000001 11.8875701700000000  4.8638708099999999
 16.9156359700000003 13.3741926499999995  6.7227496999999996
 15.1936199700000003 15.2058367200000006  8.4077506199999998
 13.3906031700000003 16.6362601499999982  9.9218804600000006
 11.8706680700000007 18.5477796099999992 11.5180077700000005
 10.1411968399999992 20.2329092300000006 13.4397924300000007
  8.6573691799999999  1.5486884200000000 15.2702062299999994
  8.5196756199999992  1.3766949399999999 18.2699590799999996
  6.6629137500000004  3.2125311999999999 -0.2089242200000000
  5.3522289000000001  5.0771027599999998  1.5331169600000001
  3.5779682600000000  6.6538785499999999  3.3834328700000000
  1.7619324199999999  8.2737007100000000  4.8810485600000000
  0.1618366700000000  9.7276915600000002  6.3425096099999996
 18.6115140399999994 11.7646930500000000  8.1766334900000004
 17.1386060499999999 13.2557989400000000 10.1908385799999994
 15.3417810100000001 14.8054395799999998 11.6122753200000002
 13.4763557600000006 16.7366603000000005 13.5023793399999992
 11.9349206799999994 18.5293900899999997 14.8777684800000003
 10.2553103500000002 -0.3506045800000000 16.6775342600000016
  9.8212300100000007 -0.2401278500000000  0.2823179600000000
  8.2009941000000008  1.8121381200000000  1.3208904400000001
  6.8775034399999999  3.2734044600000001  3.0858789600000001
  5.3884381200000000  5.0752453800000001  4.8366575999999997
  3.5158803800000000  6.5246317300000003  6.6795352399999999
  1.6854372300000000  8.2255685900000000  8.2689638599999995
  0.1403744200000000 10.2472916299999994 10.2312785700000006
 18.2658130000000014 11.7655566300000007 11.4906569399999992
 16.5995246700000010 13.2769611800000007 13.2329026499999998
 15.0927165300000006 15.1359837299999995 15.2385532799999996
 13.5316877600000005 16.8936007400000001 16.8102585200000014
 11.9732162199999994 18.3911216800000012 18.7315309799999987
 12.0458960600000005 18.6825406799999989  1.9307425499999999
  9.9642845900000001 -0.0820352800000000  3.3624766699999999
  8.6223314099999993  1.6102012600000000  4.9454329499999998
  6.9585536100000001  3.3156113700000001  6.4570239999999997
  5.3977216099999996  5.0706754700000003  8.2692450999999991
  3.8026611199999998  6.4015528100000001  9.9592707800000007
  1.9050811800000000  8.4293639400000000 11.6975866699999997
 -0.1229832400000000 10.4122827800000000 13.1108379399999997
 18.4035261599999984 11.7121755299999997 14.9882525700000002
 16.8140135199999996 13.2965428100000000 16.8800996300000001
 15.2389388700000001 14.8452964000000005 18.5505871199999994
 13.6575574700000004 16.7694010499999990 -0.0146441900000000
 13.8019169700000006 16.5922434800000005  3.3182627999999998
 11.6380789799999995 18.2732245199999994  5.0721941499999996
 10.0460110999999994 -0.1614409500000000  6.7466771699999999
  8.3392212099999998  1.9750145400000001  8.4439480800000002
  6.9025891200000000  3.6517238600000002 10.2543252799999998
  5.2763114199999999  4.8553202300000002 11.7537570099999993
  3.4188284200000001  7.0113526799999999 13.5000506700000003
  1.8401475199999999  8.8901951399999994 15.1491838899999998
  0.0351864900000000 10.3132503799999995 16.4464687500000011
 18.8242947200000010 12.3814824500000000 18.6068854500000000
 16.9716704400000005 13.0615533700000004  0.2631737400000000
 15.3568206800000002 15.0869932000000002  1.5019929800000000
  6.4199030800000001  6.6527653400000002 13.5485066700000001
  5.2230181199999999  8.4652892600000005 15.6963698899999997
  3.4754845300000001 10.3994790199999994 17.2340980799999990
  1.4781796000000000 11.8626717100000008 18.4364619199999993
  0.1186829700000000 13.7082045600000004 -0.0796498100000000
 18.7061094600000004 14.7485409399999998  1.8058162499999999
 16.7009837200000000 16.5617491500000007  3.2467441899999998
 15.1360386400000007 18.3802682900000001  5.1387271500000002
 13.2957407700000001 -0.0308942300000000  6.3492102900000003
 11.7715508199999999  1.6649987700000000  8.4680059799999992
  9.8961470899999995  3.2273001300000002 10.0627114700000000
  8.3518667999999998  5.2292501900000001 12.2606841699999993
  8.6780748800000005  4.9607428699999998 14.9205950099999995
  7.0580582900000000  6.5264439300000001 16.7326289800000012
  4.9906432399999998  8.3409041199999994 18.6123461600000013
  3.3871069299999998 10.2589699200000002 -0.1445976300000000
  1.8178733700000000 11.9245136200000008  1.2536256200000000
  0.4563103500000000 13.5456011699999994  3.2426415700000000
 18.5836903100000015 14.7917653999999992  5.2265639500000001
 16.8316302100000001 16.6163622400000008  6.7212066899999998
 15.2733292100000000 18.4303926999999987  8.2606886799999995
 13.2728543200000004 -0.1555942000000000 10.2129001400000003
 12.0138960299999997  1.6018634500000000 11.8935072799999997
 10.0276418799999991  3.5480038399999998 13.3866508399999997
 10.3346531099999996  3.3759762200000001 16.6014347899999990
  8.8027340800000005  4.9804852400000001 18.8566522399999990
  6.6691702700000004  6.6403936300000002  0.1215158300000000
  5.1363064600000001  8.3852062600000004  1.7938053500000000
  3.3705149099999998  9.9841189400000001  3.0169055999999999
  1.7553809199999999 11.7519982800000005  4.9384957199999997
  0.2863715100000000 13.4899010100000005  6.4758878800000002
 18.8197171899999987 14.9780658300000002  8.5999991799999993
 16.7865527499999985 16.7800415100000002  9.6879644099999993
 15.1435771100000007 18.4687537400000004 11.5098218800000005
 13.5764478600000000  0.0921328100000000 13.2978337399999997
 11.9349282300000006  1.8938311000000001 15.2038990199999997
 11.6937450500000004  1.4114962000000000 18.2651940400000008
 10.2681109199999998  3.3306974700000000 -0.0544140100000000
  8.6234044099999991  5.0018033900000001  1.4058716400000000
  6.9559555000000000  6.9829447099999999  3.2574993700000001
  5.0354504400000000  8.6028208399999997  5.1211295799999998
  3.2047754600000000 10.2005340699999998  7.0101125299999998
  1.1846587399999999 11.4050600499999994  8.4024857100000006
  0.1233862400000000 13.2020029300000008 10.4813297399999996
 18.4752181700000015 15.2639094100000001 11.7778190499999997
 16.8241697600000002 16.8275746700000006 13.1953520799999993
 15.2201607499999998 18.3417411699999988 14.9246743100000003
 13.7839418499999997 -0.2297536300000000 16.8875382599999995
 13.2533294500000007  0.2560880400000000 -0.1664391200000000
 11.5281777099999996  1.5570564700000000  1.8515681700000000
  9.7622607899999991  3.2554242800000002  3.7066503499999999
  8.5670009399999998  4.8957578499999999  4.9516214300000003
  7.0626811700000003  6.7221308200000003  6.4717332299999999
  5.0432171400000003  8.2837573800000008  8.3203115099999998
  3.3172785700000000 10.0616956099999992 10.2252206300000008
  1.9821041600000000 11.7506375599999995 12.0265805799999992
 -0.1655157200000000 13.5034089799999997 13.2069518000000006
 18.2403544500000017 15.1773438200000008 15.1186460300000007
 16.9612343599999988 16.9865093099999989 16.9538844500000003
 15.3062342099999995 18.5806871899999990 19.0117836500000017
 15.1529380899999992 18.3551091000000000  1.7183971000000000
 13.5865576800000003  0.0149077100000000  3.8641078800000002
 11.5911786699999997  1.6421995000000000  5.2294176600000002
 10.0549222500000006  3.1685717499999999  6.8027032600000004
  8.4342678299999996  4.9988833399999999  8.2930631600000009
  7.0331581700000001  6.7795166399999998  9.9698167600000005
  5.2063502399999999  8.4149759999999993 11.8848593800000000
  3.6438139700000001 10.3245254299999996 13.8042214399999992
  1.7047611300000001 11.9946803400000004 15.1612060100000008
 -0.0656132800000000 13.6716752899999996 16.5564785900000011
 18.1762660999999994 15.2145357699999995 18.5607512499999991
 16.7267353300000003 16.6525579400000012  0.3883274300000000
  8.3557653100000007  8.2919527300000002 12.1062603000000006
  6.6899241099999998  9.8566262299999998 13.7088229800000008
  5.3436337399999996 11.8989433299999998 15.1479381100000001
  3.4749953699999998 13.6824875200000005 16.8327283100000002
  1.3474652100000000 15.2406282599999994 18.4919958700000002
 -0.3679053900000000 16.9432197000000002  0.3036126400000000
 18.4009842399999997 18.6865915999999999  2.0087225599999998
 16.7684148499999992 20.2036635300000000  3.6227297500000000
 15.2045067300000003  1.6075305900000001  5.2073528700000002
 13.4787544799999992  3.3358455000000000  6.6006205800000002
 12.0217209000000000  5.0703783099999997  8.6537466300000006
 10.1514061400000006  6.4137434300000002 10.6348841699999994
 10.4370937599999998  6.5895469799999997 13.8493322600000006
  8.8464538600000004  8.4233347199999997 15.1366808899999992
  6.7360299299999999 10.3958450199999994 16.7947919500000005
  5.4323917399999999 11.9314726100000001 18.5638112699999986
  3.6332468699999998 13.3650217799999993 -0.2861657200000000
  2.2011218299999999 15.0719818900000000  1.6677093700000001
 -0.1322431800000000 16.6168332399999983  3.2400270600000001
 18.6186470899999996 18.3091927800000001  5.1202505499999997
 16.8638013099999995 20.3157175499999987  6.8341753599999997
 14.9027712599999997  1.5941426500000000  8.1108791999999994
 13.5378416099999992  3.1335281500000001 10.0322832200000001
 11.9947394999999997  4.7784922900000000 12.0925115499999993
 11.9544334699999997  5.0726304300000002 15.3968497000000006
 10.2559834799999994  6.7287644899999997 17.2128340400000006
  7.9708441800000003  8.5315658299999999 18.7944619599999996
  6.6029588600000002 10.2175951200000004  0.1038686200000000
  4.9474955600000001 12.2357855900000008  1.5692342699999999
  3.3534638499999998 13.4754228499999993  3.4145479000000001
  1.9092781200000000 15.1407057900000002  5.1864567800000003
  0.1656664500000000 16.5512829000000004  6.9262323600000002
 18.7877434299999990 18.1388056599999992  8.1843971799999995
 16.8855256500000017 -0.2066463000000000  9.9299087600000000
 15.3115230499999999  1.4675831399999999 11.6983632400000008
 13.8131737099999992  3.1508603300000000 13.6357229499999999
 13.5467909100000004  3.4241357099999998 16.9610163100000015
 12.0400397500000000  5.0679113400000002 18.6213629099999984
 10.1239141600000000  7.1788948299999999  0.2691620900000000
  8.3311219699999999  8.7434225100000003  1.6567059000000000
  6.5329109299999999 10.5112093499999997  3.4077505000000001
  4.9405089499999999 12.1031780599999994  5.3818911900000002
  3.0592658099999999 13.3767692700000005  7.1982157999999998
  1.8260525599999999 14.9076572499999997  8.7675744099999999
  0.2576411100000000 16.7225220400000012 10.1864587199999992
 18.5139162900000009 18.6737298199999984 11.8443793900000003
 16.9112946599999994 20.0633380999999993 13.4024909799999996
 15.1434868900000001  1.5539697299999999 15.0141564499999998
 15.4585718300000003  1.3162304300000001 18.4364104900000001
 13.5964222299999999  2.9996877000000000 -0.2308789100000000
 11.8434397199999992  4.6760322700000003  1.7678800800000001
 10.1391902900000002  6.9481534900000002  3.2021788899999999
  8.6475037700000001  8.5562643000000005  5.1372500900000002
  6.6912521399999996 10.1188700199999992  7.0291267700000004
  5.1665286799999999 11.9420364699999997  8.7193898799999996
  2.8516131300000001 13.3816255999999996  9.9340797900000002
  1.7293635500000000 14.9208363899999998 12.3221724399999992
  0.0306247900000000 16.6532030499999983 13.5435307999999992
 18.5528739000000016 18.2516839500000003 14.8607133400000002
 16.9166447399999988 20.0585178599999985 16.5905378399999996
 16.9949430799999988  0.0863584100000000  0.2870351800000000
 15.1614885099999999  1.5744599699999999  2.0610365000000002
 13.3073147499999997  3.2203533800000002  3.6330210300000001
 11.6683837799999992  5.2460827200000004  5.0381197999999996
  9.9949563000000001  7.0277230099999999  6.8818389099999999
  8.2498891400000005  8.5155519999999996  8.5142178099999999
  6.7066538600000003 10.1883887600000005 10.3195690399999993
  5.0212932600000002 11.9725136200000009 11.9419824400000003
  3.6217926199999999 13.5011711900000009 13.7616057600000001
  1.6566184300000000 15.3203789199999996 15.2198254300000002
 -0.2947455300000000 16.8432180199999983 16.9762255899999985
 18.3927445799999987 18.6498456899999994 18.9158012999999983
