Li                                      
   1.00000000000000     
    21.0527999999999977    0.0000000000000000    0.0000000000000000
     0.0000000000000000   21.0527999999999977    0.0000000000000000
     0.0000000000000000    0.0000000000000000   21.0527999999999977
   Li
   432
Direct
  0.9846981589147319  0.0084858607881131  0.0082225195698413
  0.9182570712684281  0.0819501082991323  0.0776725119699009
  0.8276294963140316  0.1438604646412855  0.1831480501406020
  0.7380537002203980  0.2482420419136631  0.2204072508169901
  0.6772542037163731  0.3034965073529392  0.3334648089565277
  0.6102378396222861  0.4077280138508925  0.4136856166400662
  0.5095782427990585  0.4917277027283760  0.4864351421188644
  0.4057084326075397  0.5652867518809828  0.5782571543927659
  0.3143272619319077  0.6737076488638110  0.6782263024395832
  0.2229845706984364  0.7330640917122651  0.7525388717890280
  0.1555151894284847  0.8328786066461475  0.8134300316347449
  0.0730904207516332  0.9102644018847883  0.8960958000836001
  0.0776485769113862  0.9328527464280256  0.0886397918566644
  0.9970289410434745  0.0030465510525914  0.1481985265617851
  0.9245561393258868  0.0787305850053173  0.2614745378286969
  0.8189652597279249  0.1676446182930533  0.3418910486966098
  0.7373586059811501  0.2484123945508401  0.4314519612593131
  0.6734039761931925  0.3220598309963520  0.4987117200562423
  0.5838804743312025  0.4225479052667609  0.5882443176204575
  0.4987930850053175  0.4961830155608737  0.6638507804187554
  0.4005940573225431  0.5942586525307831  0.7411654981760165
  0.3162003761969885  0.6703332117343095  0.8479579400364798
  0.2239816147970828  0.7462173326113373  0.9292618264553880
  0.1358104304415590  0.8314390138128900  0.9992122515769850
  0.1564458209834356  0.8533622050273593  0.1682019199346385
  0.0672602675178595  0.9103307322541454  0.2625750204248334
  0.0056326365139086  0.0019230268657822  0.3431063250493978
  0.9255049603853180  0.0977562186502539  0.4252004298715590
  0.8209507614189064  0.1707946914424667  0.5104431847545214
  0.7325883369433015  0.2347174950600390  0.5929960442316471
  0.6725292474160227  0.3516214280285723  0.6731920518885843
  0.5674637050653573  0.4398010041419695  0.7426996998024009
  0.4786677800577621  0.4918773892308863  0.8417014905380782
  0.3951618934298509  0.5861001595987219  0.9426149087057283
  0.3263897296321616  0.6998973656710774  0.0251618369053048
  0.2093619010297942  0.7734426185590522  0.0868144641092883
  0.2723373214014302  0.7587865509575948  0.2230431724046227
  0.1734813074745389  0.8324453502621978  0.3055452666628682
  0.0776642327861410  0.8912474677952602  0.4165479527663791
  0.0328784137976896  0.0030087332801330  0.5159121271279830
  0.9131823239664101  0.1055758758929954  0.5803892389610894
  0.8275858707630306  0.1510372173772581  0.6604928023825778
  0.7674931681296542  0.2365984453374352  0.7476527260031887
  0.6776683657280742  0.3361955093859237  0.8010345198738378
  0.5914588444292477  0.4092561816005471  0.9089165645424870
  0.4986563782489739  0.4986734187376527  0.9938103753419938
  0.4401323329913396  0.5927501182740542  0.0855122268771851
  0.3468127797727618  0.6789605054909558  0.1604832981836140
  0.3300032028993769  0.6629559374525016  0.3150355909902700
  0.2623800340097304  0.7461096628476938  0.4089209430574527
  0.1833035073719387  0.8208487056353562  0.4774236339109308
  0.1059970906482732  0.9081977865177109  0.5779879094467262
  0.0101146940074486  0.0149546858375160  0.6893143724350210
  0.9300839764781870  0.1084458884328896  0.7668290165678684
  0.8473966764515879  0.1825051480088149  0.8461716318019441
  0.7400089893030852  0.2629815430726552  0.9132512112403077
  0.6282850024699798  0.3158028851269208  0.0167734011627942
  0.5817240048829575  0.4479104636912936  0.0950931239550101
  0.4909791087171271  0.5058274315055513  0.1734195323187393
  0.4232367115063056  0.5872327609629124  0.2527026913284729
  0.4125539961430320  0.6031874886000921  0.4251382647438788
  0.3454000432246573  0.6911253267973834  0.4925114246086011
  0.2470910282717753  0.7470118407052766  0.5945712945546404
  0.1868748617761042  0.8141951379388956  0.6636036417958664
  0.0930894104347146  0.9159787092453229  0.7272121865025056
  0.9920323700410378  0.9845779872511002  0.8287890019379844
  0.9361288849939200  0.0869658639230906  0.9194954224616225
  0.8229451260639919  0.1313096129730980  0.9826929178066592
  0.7392892517859835  0.2354696776675809  0.0701920879882962
  0.6370460613315103  0.3442170955882347  0.1631041609667108
  0.5806407893486849  0.4161687775497782  0.2666482173392595
  0.4972825562395471  0.4911525949042428  0.3398045072389451
  0.0839483641130840  0.0958889672632637  0.8969926171340603
  0.0128837964546307  0.1700808662030724  0.0005296074631431
  0.9033770700334429  0.2184028566271436  0.0743639933880544
  0.8456980610655123  0.3417934426774565  0.1612002783477706
  0.7496177563079485  0.4033353705920319  0.2281391767365832
  0.6663502237232137  0.5244462575049411  0.3206822650668784
  0.5847933272533794  0.5771847184222523  0.4273752370231065
  0.5021251519987828  0.6730466560267487  0.5085784071477448
  0.4163237279601759  0.7398159517973824  0.5929326046891603
  0.3459256407698774  0.8278889002887979  0.6633939414234717
  0.2300868060305490  0.9203893843099280  0.7157323956908357
  0.1683886851155165  0.9871993359553102  0.8237407394740828
  0.1653467291761643  0.9910457236092114  0.9810573230164152
  0.0893779126766958  0.0780666885164933  0.0783001947484436
  0.9922146161080718  0.1751390670124664  0.1582945318437439
  0.8976640361377122  0.2520649671302664  0.2589427477580202
  0.8087900322047403  0.3271732453640368  0.3297874620003043
  0.7422046430878524  0.4154558918528650  0.4057745919782647
  0.6825652222032232  0.4998604100167228  0.4969665488676114
  0.5911981726896158  0.5716573719410221  0.6118632191442472
  0.4724637558899545  0.6438372088273283  0.6711699498404045
  0.4117508388432896  0.7429750607995160  0.7779063739740053
  0.3097554363315069  0.8374539790431683  0.8371238899338778
  0.2477923221614233  0.9088698600661189  0.9212511680156581
  0.2750983531881772  0.9179236671606645  0.0845775212798330
  0.1779043048905606  0.0112726155190757  0.1654590026029794
  0.0747906715496285  0.0922189309735515  0.2377261727656190
  0.9928731446648413  0.1710963814789466  0.3334131982444148
  0.9018565288227691  0.2615934236776098  0.4141556244300020
  0.8215748627260950  0.3341899946800453  0.5134391197370434
  0.7510884656672729  0.4177662838197307  0.5745428836069308
  0.7078966712266279  0.5027679553313575  0.6685808533781739
  0.5665304135316944  0.5860460679814565  0.7476886908154725
  0.4735622121523022  0.6553458238334073  0.8536212632048930
  0.4105140969372272  0.7688497962266325  0.9142322797917615
  0.3318906249999998  0.8366305536555672  0.0102546231380174
  0.3498634276675787  0.8247733365633110  0.1817331803845548
  0.2639560448016383  0.9194151471538206  0.2545570627184972
  0.1806279677762603  0.9979005923202635  0.3351374235256088
  0.0876544283895697  0.0908949959150291  0.4314601022191837
  0.0150263589641284  0.1773985721614224  0.5133666462418276
  0.8961220621484998  0.2431377982976102  0.5883727247681989
  0.8291080146108811  0.3272251500987977  0.6777497781767750
  0.7641493687300525  0.4107174532603750  0.7573370587285311
  0.6758836264059909  0.4751717234762154  0.8164821890674858
  0.5887263209644331  0.5725087204552395  0.8956142513109882
  0.5034138404392792  0.6821430702804392  0.9938768368103084
  0.4176978596671219  0.7419616720816222  0.1023453312623488
  0.4405247568019490  0.7477918158154750  0.2665089479784157
  0.3580116469068244  0.8323861320109458  0.3284574161156684
  0.2529278442772451  0.8925119138546904  0.3982774856551146
  0.1764162049703586  0.0031884276675811  0.4816503191974491
  0.1104941019721863  0.0703957036593721  0.5935704376614979
  0.0129036812205499  0.1501264349635179  0.6525116459568352
  0.9128147324821398  0.2330450377146960  0.7402180113809109
  0.8599407351991175  0.3299514435134512  0.8469948486662133
  0.7531577519379837  0.4111038374943021  0.9229390556125523
  0.6663350124449039  0.4850307645538834  0.9872899281805729
  0.5734899994300022  0.5753205084359294  0.0738020690834489
  0.5060762226402176  0.6825168542901636  0.1738089893030832
  0.5283309379274996  0.6501193845949231  0.3585559849521189
  0.4311662553199582  0.7477233926128619  0.4161172162372679
  0.3356563226744171  0.8276098984458145  0.5169215985522086
  0.2404571268429834  0.9188832307341528  0.5710820403936765
  0.1748475670694631  0.0094440330977363  0.6457303950068365
  0.0726577547879614  0.0978899476554176  0.7640056106551114
  0.9988005880452988  0.1839855377906972  0.8424353572921390
  0.9334804501064013  0.2395898241564041  0.9374599392954863
  0.8509564209986351  0.3189117438060478  0.0187334611073098
  0.7590119338045298  0.4131682859287125  0.0842359614873089
  0.6822329899110784  0.4980466213520316  0.1781572284921751
  0.5856538479442150  0.5824888499392031  0.2499603473172201
  0.1786506792445692  0.1625389021887855  0.8520234629122996
  0.0931713301793593  0.2530578184374548  0.9278259875171031
  0.0093616507067935  0.3188133298183615  0.0101795590135296
  0.9002944012197887  0.4403343683500509  0.0845300634594892
  0.8275963833789319  0.5109035301717597  0.1693307194292473
  0.7654604237916089  0.5951644109097103  0.2537843146754852
  0.6711468598001247  0.6577205706604374  0.3443177971576219
  0.6035810638014922  0.7608188340743283  0.4248395966332268
  0.5098148004065948  0.8138597369471015  0.5150389306885543
  0.4356014416134641  0.9045093289253714  0.5821892812357490
  0.3452970440986505  0.0082146488828059  0.6505013475642230
  0.2594807740538059  0.0728042797157613  0.7390077633378951
  0.2438742585309299  0.0577387563649481  0.9086882661688733
  0.1674360009119908  0.1619155974502178  0.9721681125551029
  0.0935833741830052  0.2370269246845993  0.0797740490576047
  0.9984017095113273  0.3079454139116891  0.1677856000152005
  0.9049056700296418  0.4134652046283662  0.2646800458846315
  0.8250802525079806  0.5106890062129494  0.3351219699992427
  0.7583660377717010  0.6001616649566799  0.4218233332383363
  0.6443781311749532  0.6622477038683670  0.5104804686312505
  0.5992813335993290  0.7493740913322711  0.6040917483660166
  0.4877448125664969  0.8031535334967330  0.6872225209948297
  0.4315013561141541  0.9108397894816846  0.7479958903328807
  0.3294373133264941  0.9858558581281329  0.8111802610579133
  0.3250475599445224  0.9888188335993320  0.9786292564409464
  0.2427641624867007  0.0835404012767924  0.0472500432246576
  0.1785880125208976  0.1668062765997860  0.1461068171454656
  0.0799376144740833  0.2457808552781557  0.2363944829191382
  0.9882314252735966  0.3312732121143043  0.3326939471234240
  0.9082082981836166  0.4030593598001246  0.4279086549057638
  0.8327392760107912  0.4928894047347612  0.4921101777435766
  0.7751727765427887  0.5905851197940422  0.5742170357387124
  0.6787899486054130  0.6466273688060511  0.6444155086259329
  0.5775158373233040  0.6960300943342475  0.7424299746352006
  0.5033889587133302  0.8247758806429530  0.8283146294079629
  0.4200301385088920  0.9102639748631987  0.9078939138736857
  0.4017688478492190  0.9305456756345976  0.0805008473932176
  0.3236028419022645  0.0237511969904247  0.1714770595835233
  0.2293279920010605  0.0948967087513282  0.2662581628096987
  0.1465391919364620  0.1703235180118554  0.3362508934678488
  0.0718807018543828  0.2713265670124656  0.4053260407166732
  0.9925471842225235  0.3131936222260236  0.5104299076607361
  0.9149401623537017  0.4211231593897224  0.6005558928028591
  0.8338796278879741  0.4922944035947694  0.6800732681638522
  0.7685235080369353  0.5771554083067372  0.7618879925710615
  0.6791956129350964  0.6496477808177517  0.8277258535681682
  0.5999321472678218  0.7387932864037055  0.9271184388774856
  0.4889768045105640  0.8220936008511899  0.9999765385126906
  0.5023514059887546  0.8230604560913548  0.1664355838653293
  0.4292428655570788  0.9134374525003821  0.2374002488980054
  0.3426948885658945  0.9834230743654047  0.3104041229670145
  0.2627319339945302  0.0852380072959420  0.4193089209036316
  0.1543655817753447  0.1657797186122494  0.5060980909902710
  0.1024145187338519  0.2736350195698449  0.5832719096747212
  0.0046693560951496  0.3277089945280451  0.6591885150668801
  0.9317848666210651  0.4157638399642778  0.7635294597393241
  0.8368930479556198  0.4907404796511656  0.8441172124373040
  0.7535852176432556  0.5714651623537037  0.9246950970892200
  0.6662506507447929  0.6559507058443543  0.0025993179054566
  0.5759115077329398  0.7665270230088126  0.0666637934146550
  0.6158272035073722  0.7410342890256914  0.2544696809925497
  0.5202057484040097  0.8377799922100593  0.3187452191632474
  0.4342950001899979  0.9012617157812741  0.4445050753343978
  0.3278205089109321  0.9807114721082257  0.5023326441138494
  0.2402296036631739  0.0763125465496302  0.5749092847507242
  0.1776869038797670  0.1737529715762278  0.6506786280209766
  0.1061839907280770  0.2465745934032526  0.7463195793433641
  0.0103634518923883  0.3175877180232547  0.8306324488904124
  0.9185246157280744  0.3870217790507695  0.9417261380908926
  0.8284913479442153  0.4817167022913793  0.0025115709074299
  0.7522827752127981  0.5671918295903637  0.0722708993578038
  0.6733716593517229  0.6544377460480320  0.1466687276751770
  0.2159323899908827  0.2571993326303357  0.7385066342719284
  0.1692605069159470  0.3477288180194549  0.8472685315017472
  0.0632930237308074  0.4005705692354482  0.9019940231228176
  0.0113345597735233  0.5188288503191956  0.0065665056429580
  0.9162774258055961  0.5764360256117982  0.0877832487840067
  0.8366051252089974  0.6737770600585193  0.1637061925254599
  0.7527262183652539  0.7429967063763456  0.2528333855829175
  0.6759699517403845  0.8438458010335950  0.3241847640218865
  0.6117504621713010  0.9151836634556929  0.4139086620307069
  0.5303910415716686  0.9986174831851358  0.5214655466256275
  0.4164828849369187  0.0836896588577289  0.5900688445242466
  0.3474004298715627  0.1789213021545848  0.6850203222374205
  0.3401799000607966  0.1656799736852079  0.8254159342225265
  0.2631982767137870  0.2653043694900461  0.9129828735370111
  0.1640257595189212  0.3626600637444923  0.9921204253115974
  0.0812912401200805  0.4162867780057766  0.1097842068513444
  0.9887438886988917  0.5143501681486526  0.1898471789975673
  0.8995638067145464  0.5775376519987816  0.2707897676318609
  0.8180047594619211  0.6781050748594026  0.3527812424000629
  0.7281651219790248  0.7539992903556794  0.4575704205616375
  0.6448980449156423  0.8436701892384875  0.5131980871903039
  0.5976138603891172  0.9241340971272223  0.6117158776979750
  0.5023966679016567  0.9913725836943286  0.6580813910738712
  0.4209941722716195  0.0796875132998949  0.7505726672936603
  0.4051177344581234  0.0833912762197926  0.8962424147856822
  0.3176440221728214  0.1608017945356437  0.9737528927268571
  0.2335191147970832  0.2536895567335478  0.0565615495326028
  0.1483549280855740  0.3343901329039340  0.1750581395348831
  0.0822335632314974  0.4060725765693860  0.2512307726288157
  0.9963069202196380  0.4917275649794774  0.3497103045675658
  0.9389550363847121  0.5814049304605575  0.4316447151922773
  0.8626505096709209  0.6783412097203225  0.5059480073909413
  0.7489824241906078  0.7601385079419387  0.5850334311825520
  0.6793248275763801  0.8369078018125862  0.7154046658876752
  0.5657890442126430  0.9116664134936912  0.7467389686882484
  0.4985280205008351  0.0072193651200791  0.8471431467548243
  0.4968113324593375  0.0008184692772488  0.9999747639268861
  0.3967905627755002  0.0771955245858038  0.0563524490804070
  0.3097099943950425  0.1482621043281682  0.1578539994680028
  0.2437305593555266  0.2471402359781152  0.2455034688972475
  0.1594302867077033  0.3442380818703441  0.3502274481304184
  0.0616167830407335  0.4279930864303054  0.4219362726098197
  0.0035458741830041  0.5166336720056250  0.5130469851991180
  0.9349822398920793  0.5881500104499153  0.5873552506079918
  0.8494307598039228  0.6737557669288634  0.6795811592757275
  0.7497422442620447  0.7460377194482462  0.7356942178712558
  0.6689725822693404  0.8357205469106219  0.8048401685286493
  0.5775373575011429  0.9060997539519704  0.9029598043965663
  0.5813165749923996  0.9039808695280414  0.0843497672518652
  0.4889099649452788  0.0062351606437119  0.1411891491868076
  0.4233965700524394  0.0856627161232737  0.2534890280627735
  0.3426193104955146  0.1734976843935243  0.3359627260981881
  0.2449323401162786  0.2364417554909579  0.4161143961848310
  0.1737802501329995  0.3538256963444297  0.4933977746428013
  0.0854275265047875  0.4110261390408851  0.5695605221158218
  0.0031696406178767  0.4992344604993164  0.6571795561635483
  0.9222873033515739  0.5743393377602999  0.7346791433918511
  0.8440193223704213  0.6521731223400238  0.8406267304111594
  0.7475710052819551  0.7322707848837240  0.9100558073035430
  0.6740166571667459  0.8306615338577288  0.0030959202576355
  0.6694021583827308  0.8297888713140296  0.1797730582155310
  0.5859121603777169  0.9267834663322674  0.2466280034009714
  0.5028157109743105  0.9827512449650371  0.3160816841465248
  0.4235331832345324  0.0655668338653257  0.4348248252013960
  0.3162602727428165  0.1711506668946683  0.4993042540659687
  0.2378983508131967  0.2682067055213579  0.5633934612023097
  0.1741945769683824  0.3372810994262068  0.6609223286213677
  0.0833705977352182  0.4158573111415080  0.7459532195242460
  0.9847550169098653  0.5034153005775934  0.8372320118939029
  0.9001746855525141  0.5652405399756830  0.9318266373119002
  0.8394311787505728  0.6729192382960960  0.0163999634252932
  0.7562451688136491  0.7489245245288032  0.0863720037239730
  0.3343488519341875  0.3354685932512567  0.6704599407204768
  0.2534317477960144  0.4279869760791897  0.7408425800843617
  0.1588390902872803  0.5024304634062915  0.8551384571173415
  0.0998015161878740  0.5791623114265079  0.9096751557987517
  0.0044858816879483  0.6626075476896176  0.9935196695926436
  0.9137484800121598  0.7625457226592189  0.1005870007789937
  0.8238653523521791  0.8430575362897130  0.1871048430612561
  0.7373596257979926  0.9261844044497636  0.2390683700030394
  0.6617207302591552  0.0230449864151083  0.3130542901656810
  0.5629686331509376  0.0870727010183927  0.4183025350547211
  0.4935471628476975  0.1696071710176312  0.5266542977656172
  0.4180744969790240  0.2539182346291255  0.5939895752583979
  0.4328573481912130  0.2659056420048671  0.7631463482292133
  0.3384568499201990  0.3426506350699228  0.8197286118711062
  0.2513526148540777  0.4248674931600576  0.9266654031767771
  0.1656379075467385  0.4837001101991163  0.0133086720056212
  0.0817626021241864  0.5724835656064755  0.0869733873878999
  0.9897715045029614  0.6496326260639904  0.1772344828241401
  0.8934727390180868  0.7464744532793759  0.2397141591617284
  0.8143334269075879  0.8506710152568786  0.3461961710556309
  0.7490036750455999  0.9298173354613155  0.4275485669364656
  0.6601498746010037  0.0082132020443808  0.5176633364683099
  0.6081376287239735  0.0991183581281376  0.6253138746390050
  0.4923090966522281  0.1874797556619541  0.6666421402378759
  0.5031143558101547  0.1834409802971564  0.8330631892194873
  0.4205134338425296  0.2606519351345185  0.9192599065207503
  0.3319710342567248  0.3349480833903300  0.0007822617419038
  0.2328514686882528  0.4217945921682613  0.0958935125019025
  0.1765004094467244  0.5145804087817325  0.1773330549855601
  0.0754233797879635  0.5876956903594746  0.2464616934564532
  0.0033371223780208  0.6633320859933107  0.3280063530741728
  0.9166234700372371  0.7738725404696751  0.4068022044573638
  0.8429393672100645  0.8449967097013200  0.5041112189352503
  0.7411770301337555  0.9216319829191377  0.5822136167160679
  0.6592613899338815  0.0101752854727195  0.6938418314903458
  0.5554528381022976  0.0970839327785384  0.7399272961316328
  0.5663874700752416  0.0858436692506430  0.9105569434944556
  0.4903022096823193  0.1700477646678848  0.9864057393790873
  0.4049763755889941  0.2254605297157610  0.0598067102713173
  0.3381389981380138  0.3340438525991800  0.1380923311863498
  0.2608574389154867  0.4104247259271929  0.2472882775687779
  0.1698516002621986  0.4879154079267352  0.3402593137254897
  0.0955939048487622  0.5870670689884463  0.4114013931638567
  0.0176750498746046  0.6719051399338838  0.4980026447788433
  0.9032006265199897  0.7628632348191218  0.5901159821971405
  0.8350158045485614  0.8300865671074646  0.6728506778195751
  0.7662550905342727  0.9339726915184698  0.7497532323491427
  0.6401200752393947  0.0078639074137428  0.8174922081623350
  0.6468387155152726  0.9940389544383663  0.0019279934260510
  0.5687503738220130  0.1026768106855158  0.0675004745212036
  0.4916425463596283  0.1554857814637458  0.1522024714052321
  0.4030080440606483  0.2395322707668370  0.2323304605563123
  0.3381261855905180  0.3093850689694477  0.3574773398312843
  0.2349263228644176  0.4401424789101682  0.4169503296473636
  0.1540071705426342  0.5107720393486872  0.4946280627754973
  0.0858082359591137  0.5896519018847854  0.5718091911764702
  0.0021911593707244  0.6790363053845567  0.6321275236548090
  0.9351143933348567  0.7360350870193031  0.7625683975528190
  0.8414581808595543  0.8179847051223561  0.8164646227580192
  0.7454244827291348  0.9274976748936012  0.9074124050007626
  0.7506837741298042  0.9315503419972657  0.0745411907204740
  0.6486578554871585  0.0036547414120705  0.1692943247454011
  0.5774488799589577  0.0879185690264492  0.2415239545333634
  0.4847940516225862  0.1861190682474572  0.3441076564637484
  0.4126233023635777  0.2420868578051341  0.4259043998898022
  0.3396726050691612  0.3422470811483507  0.5028893201854387
  0.2571168528651739  0.4209267194862463  0.5794253985218134
  0.1657551793585625  0.5179892185362505  0.6478833243084026
  0.0684941323719386  0.5810726720436250  0.7604961682056555
  0.0213499301755604  0.6469703041875690  0.8287055023559802
  0.9341462627298966  0.7587149581053367  0.8968660914462703
  0.8477723656710765  0.8248707582839359  0.9775610954362364
  0.3979798777359775  0.4416578364873089  0.5632193727200203
  0.3248689699232372  0.5110076550387603  0.6709755300957596
  0.2251103107425152  0.5766626762235916  0.7612538142194865
  0.1500208423582592  0.6729011965154257  0.8242827229632184
  0.0841184697522408  0.7649001006991938  0.9144758450182380
  0.9885454044117665  0.8371570342187269  0.0049707316841463
  0.9113134347925183  0.9091258331433352  0.0839616735066144
  0.8424729969410265  0.0215910425216634  0.1699143467852267
  0.7627310918262680  0.0770048896108833  0.2379846110731094
  0.6664519280095789  0.1546634162676668  0.3248800059849515
  0.5618949080407347  0.2320896655076794  0.4176626234990124
  0.5142293894398833  0.3330799138356895  0.4947130215458273
  0.4782384286175727  0.3406243141054901  0.6603884556923560
  0.4137833057835536  0.4244415540925672  0.7514158582231332
  0.3200505557455529  0.5137764311635493  0.8355386879654958
  0.2434034118977024  0.5940435813763472  0.9236703877868990
  0.1596509105677129  0.6818619969790234  0.0259934255775960
  0.0944694748442032  0.7469083889078902  0.0944502374981013
  0.0072737189352452  0.8430016016871846  0.1732691342719264
  0.9273602713178306  0.9217573092415279  0.2569499292255628
  0.8303189490234075  0.0071460171568631  0.3364458998328033
  0.7395440107729172  0.0875657252241950  0.4300597103473152
  0.6629471580977366  0.1776377479480189  0.5208128771469802
  0.5898186089261301  0.2676378415222658  0.6057871841275286
  0.5765727632428934  0.2595023987308096  0.7566826042141628
  0.5198862160852684  0.3613193855449168  0.8381494798791636
  0.4038523878058982  0.4061611220360248  0.9471774984800092
  0.3204655941252454  0.5166572484420158  0.0081273265313868
  0.2536117300311602  0.5907691271469844  0.1062072379920949
  0.1949461088311324  0.6624995962532267  0.1808468712000320
  0.0744134191176471  0.7306697503419954  0.2393272054073563
  0.9921147324821433  0.8221911156710746  0.3224545571135451
  0.9248304216066288  0.9492947745668019  0.4262216807265560
  0.8317375693494427  0.0143465971272221  0.4998741336069301
  0.7644050050349591  0.1006007908686755  0.6067920808633502
  0.6807401571287457  0.1693988020595825  0.6940417369661063
  0.6637957117343092  0.1577182621789035  0.8521464152036771
  0.5799183158534760  0.2485836663056702  0.9200829633112946
  0.5161571653176793  0.3233462522799826  0.0049274690302497
  0.4128686488258069  0.4197735845113257  0.0658213358793134
  0.3396630647704839  0.4803696073681394  0.1705625888242892
  0.2596518520101867  0.5559723020215870  0.2538916362669070
  0.1708517427610587  0.6848585014819903  0.3320161750456023
  0.0757489450334390  0.7655453284123723  0.3963219946990435
  0.0032697199422387  0.8549583993578054  0.5152567031463775
  0.9171165612175116  0.9345125978492206  0.5892562367001091
  0.8689504707212308  0.0181789894930873  0.6562973447712395
  0.7656622572769436  0.1146123480012164  0.7514668998897989
  0.7372446387178897  0.0765507196192416  0.9071954210366329
  0.6632928194824430  0.1731982558139507  0.9873428522571785
  0.5726005391206854  0.2070642726858196  0.0741926537087707
  0.4994968602751158  0.3219421492628030  0.1449107558139531
  0.4300894413094696  0.3826339665032705  0.2426202410130713
  0.3527854480164194  0.4911759571173420  0.3208550164348694
  0.2643293034655727  0.5725840168528649  0.4140755400706766
  0.1755442929206552  0.6776546839375257  0.4731685476516176
  0.0984363433842503  0.7370859291875647  0.5580733037885679
  0.0073101772685789  0.8299132618939069  0.6353059916020669
  0.9058594243996083  0.9211214484534125  0.7334758578431391
  0.8521526861035085  0.0241680389306893  0.8379976772685822
  0.8361144840591308  0.9904995088539295  0.9869662595949222
  0.7299934203526348  0.0639409555973529  0.0768426993084077
  0.6461855553655553  0.1647087294801608  0.1773981703146390
  0.5518931852295168  0.2342478055175548  0.2414460309317548
  0.4918497135772881  0.3229699317905457  0.3282935129768987
  0.4096755262957927  0.4078089218536221  0.4041682925786603
  0.3363432531539772  0.5099374287505682  0.4921702718878223
  0.2625968460252324  0.5974419773141832  0.5612771104081133
  0.1486832867837080  0.6449176128590963  0.6557610251367976
  0.0877000873992984  0.7356636760905886  0.7294175321097427
  0.0005030181258547  0.8273051456338365  0.8056163978188167
  0.9223559555023542  0.9157824859401131  0.8775436402758743
 
  0.00000000E+00  0.00000000E+00  0.00000000E+00
  0.00000000E+00  0.00000000E+00  0.00000000E+00
  0.00000000E+00  0.00000000E+00  0.00000000E+00
  0.00000000E+00  0.00000000E+00  0.00000000E+00
  0.00000000E+00  0.00000000E+00  0.00000000E+00
  0.00000000E+00  0.00000000E+00  0.00000000E+00
  0.00000000E+00  0.00000000E+00  0.00000000E+00
  0.00000000E+00  0.00000000E+00  0.00000000E+00
  0.00000000E+00  0.00000000E+00  0.00000000E+00
  0.00000000E+00  0.00000000E+00  0.00000000E+00
  0.00000000E+00  0.00000000E+00  0.00000000E+00
  0.00000000E+00  0.00000000E+00  0.00000000E+00
  0.00000000E+00  0.00000000E+00  0.00000000E+00
  0.00000000E+00  0.00000000E+00  0.00000000E+00
  0.00000000E+00  0.00000000E+00  0.00000000E+00
  0.00000000E+00  0.00000000E+00  0.00000000E+00
  0.00000000E+00  0.00000000E+00  0.00000000E+00
  0.00000000E+00  0.00000000E+00  0.00000000E+00
  0.00000000E+00  0.00000000E+00  0.00000000E+00
  0.00000000E+00  0.00000000E+00  0.00000000E+00
  0.00000000E+00  0.00000000E+00  0.00000000E+00
  0.00000000E+00  0.00000000E+00  0.00000000E+00
  0.00000000E+00  0.00000000E+00  0.00000000E+00
  0.00000000E+00  0.00000000E+00  0.00000000E+00
  0.00000000E+00  0.00000000E+00  0.00000000E+00
  0.00000000E+00  0.00000000E+00  0.00000000E+00
  0.00000000E+00  0.00000000E+00  0.00000000E+00
  0.00000000E+00  0.00000000E+00  0.00000000E+00
  0.00000000E+00  0.00000000E+00  0.00000000E+00
  0.00000000E+00  0.00000000E+00  0.00000000E+00
  0.00000000E+00  0.00000000E+00  0.00000000E+00
  0.00000000E+00  0.00000000E+00  0.00000000E+00
  0.00000000E+00  0.00000000E+00  0.00000000E+00
  0.00000000E+00  0.00000000E+00  0.00000000E+00
  0.00000000E+00  0.00000000E+00  0.00000000E+00
  0.00000000E+00  0.00000000E+00  0.00000000E+00
  0.00000000E+00  0.00000000E+00  0.00000000E+00
  0.00000000E+00  0.00000000E+00  0.00000000E+00
  0.00000000E+00  0.00000000E+00  0.00000000E+00
  0.00000000E+00  0.00000000E+00  0.00000000E+00
  0.00000000E+00  0.00000000E+00  0.00000000E+00
  0.00000000E+00  0.00000000E+00  0.00000000E+00
  0.00000000E+00  0.00000000E+00  0.00000000E+00
  0.00000000E+00  0.00000000E+00  0.00000000E+00
  0.00000000E+00  0.00000000E+00  0.00000000E+00
  0.00000000E+00  0.00000000E+00  0.00000000E+00
  0.00000000E+00  0.00000000E+00  0.00000000E+00
  0.00000000E+00  0.00000000E+00  0.00000000E+00
  0.00000000E+00  0.00000000E+00  0.00000000E+00
  0.00000000E+00  0.00000000E+00  0.00000000E+00
  0.00000000E+00  0.00000000E+00  0.00000000E+00
  0.00000000E+00  0.00000000E+00  0.00000000E+00
  0.00000000E+00  0.00000000E+00  0.00000000E+00
  0.00000000E+00  0.00000000E+00  0.00000000E+00
  0.00000000E+00  0.00000000E+00  0.00000000E+00
  0.00000000E+00  0.00000000E+00  0.00000000E+00
  0.00000000E+00  0.00000000E+00  0.00000000E+00
  0.00000000E+00  0.00000000E+00  0.00000000E+00
  0.00000000E+00  0.00000000E+00  0.00000000E+00
  0.00000000E+00  0.00000000E+00  0.00000000E+00
  0.00000000E+00  0.00000000E+00  0.00000000E+00
  0.00000000E+00  0.00000000E+00  0.00000000E+00
  0.00000000E+00  0.00000000E+00  0.00000000E+00
  0.00000000E+00  0.00000000E+00  0.00000000E+00
  0.00000000E+00  0.00000000E+00  0.00000000E+00
  0.00000000E+00  0.00000000E+00  0.00000000E+00
  0.00000000E+00  0.00000000E+00  0.00000000E+00
  0.00000000E+00  0.00000000E+00  0.00000000E+00