Li 
 1.0000000000000000
    21.0527999999999977    0.0000000000000000    0.0000000000000000
     0.0000000000000000   21.0527999999999977    0.0000000000000000
     0.0000000000000000    0.0000000000000000   21.0527999999999977
 Li 
 432
Cartesian
 -0.3221466000000000  0.1786511300000000  0.1731070600000000
 19.3318824700000000  1.7252792400000001  1.6352238600000000
 17.4239182600000007  3.0286655900000001  3.8557792700000002
 15.5380969400000009  5.2261900600000004  4.6401897700000001
 14.2580972999999993  6.3894512700000003  7.0203679299999999
 12.8472151900000000  8.5838163299999994  8.7092405500000005
 10.7280488300000005 10.3522449800000000 10.2408217599999993
  8.5412984900000009 11.9008689299999997 12.1739322199999993
  6.6174689799999999 14.1834323900000001 14.2785627000000002
  4.6944495699999997 15.4330517100000009 15.8430503599999994
  3.2740301800000000 17.5344267299999998 17.1249797699999995
  1.5387580100000000 19.1636144000000002 18.8653256599999999
  1.6347199600000000 19.6391622999999989  1.8661158099999999
 -0.0625491100000000  0.0641384300000000  3.1199939400000001
 19.4644954900000009  1.6574992600000000  5.5047711499999998
 17.2415118199999995  3.5293886200000002  7.1977638700000002
 15.5234632599999998  5.2297764600000001  9.0832718499999991
 14.1770392300000001  6.7802612099999999 10.4992780999999997
 12.2923188499999991  8.8958165400000002 12.3841899699999995
 10.5009910600000005 10.4460417900000007 13.9759177099999992
  8.4336265699999995 12.5108085599999992 15.6036090000000005
  6.6569032799999999 14.1123910400000003 17.8518889200000004
  4.7154401400000001 15.7099642599999996 19.5635633800000015
  2.8591898300000000 17.5041192700000003 -0.0165843100000000
  3.2936225800000001 17.9656638300000004  3.5411213799999999
  1.4160169600000001 19.1650108400000008  5.5279393900000002
  0.1185827700000000  0.0404851000000000  7.2233488399999999
 19.4844708299999994  2.0580421200000001  8.9516596100000001
 17.2833121900000002  3.5957064800000000 10.7462582799999993
 15.4230357399999995  4.9414604799999999 12.4842271199999999
 14.1586237399999995  7.4026155999999999 14.1725776299999993
 11.9466998899999997  9.2590425799999991 15.6359082399999991
 10.0772970399999995 10.3553963000000007 17.7201731400000000
  8.3192643099999994 12.3390494400000001 19.8446831500000016
  6.8714177000000003 14.7347992600000008 21.5825271200000017
  4.4076542300000003 16.2831327600000009  1.8276875500000000
  5.7334631600000003 15.9745814999999993  4.6956832999999998
  3.6522672699999998 17.5253054699999993  6.4325833899999996
  1.6350495599999999 18.7632546900000001  8.7695007399999998
  0.6921826700000000  0.0633422600000000 10.8613948300000001
 19.2250448300000016  2.2226678000000000 12.2188185699999998
 17.4229998200000011  3.1797563300000000 13.9052228699999993
 16.1578801699999985  4.9810597500000000 15.7401833100000008
 14.2668165699999996  7.0778568200000000 16.8640195400000010
 12.4518647599999994  8.6159885400000000 19.1352386500000016
 10.4981130000000000 10.4984717500000002 -0.1303089300000000
  9.2660179800000009 12.4790496900000001  1.8002718099999999
  7.3013800900000003 14.2940197300000005  3.3786227800000002
  6.9474914300000004 13.9570787599999999  6.6323812899999997
  5.5238343800000003 15.7076975099999991  8.6089308300000003
  3.8590520800000001 17.2811636300000018 10.0511042800000006
  2.2315355499999998 19.1201063600000012 12.1682638599999997
  0.2129426300000000  0.3148380100000000 14.5119976200000007
 19.5808719400000015  2.2830895999999998 16.1438979200000006
 17.8400727500000009  3.8422443799999999 17.8142821299999987
 15.5792612500000001  5.5364978300000001 19.2264951000000011
 13.2271584999999998  6.6485349800000000  0.3531270600000000
 12.2469191300000002  9.4297694100000005  2.0019765199999999
 10.3364849799999998 10.6490837500000008  3.6509667299999999
  8.9103178399999994 12.3628938700000006  5.3200992200000004
  8.6854167699999998 12.6987855599999993  8.9503508600000004
  7.2716380300000001 14.5501232799999993 10.3687445199999999
  5.2019580000000003 15.7266908799999996 12.5173905500000000
  3.9342390900000002 17.1410874000000000 13.9707147500000008
  1.9597927399999999 19.2839165699999988 15.3098527200000003
 -0.1677409200000000 -0.3246765500000000 17.4483290999999987
 19.7081341899999991  1.8308749400000000 19.3579532299999997
 17.3252991499999993  2.7644350200000001 20.6884374599999994
 15.5641087599999999  4.9572960300000002  1.4777399899999999
 13.4116033199999993  7.2467336700000002  3.4337992800000001
 12.2241144100000003  8.7615180400000003  5.6136915900000002
 10.4691901999999999 10.3401373499999991  7.1538363299999999
  1.7673481200000001  2.0187312500000001 18.8842061699999988
  0.2712399900000000  3.5806784600000001  0.0111497200000000
 19.0186167799999986  4.5979916599999999  1.5655702800000000
 17.8043121400000004  7.1957089900000000  3.3937172200000001
 15.7815527000000007  8.4913388899999998  4.8029684599999998
 14.0285379900000002 11.0410621700000000  6.7512595900000001
 12.3115369599999998 12.1513544400000004  8.9974453899999993
 10.5711404000000009 14.1695166399999994 10.7069994899999994
  8.7647801800000007 15.5751972700000003 12.4828915400000007
  7.2827033300000004 17.4293794400000017 13.9662999699999997
  4.8439715100000003 19.3767736299999989 15.0681709799999997
  3.5450533100000001 -0.2694898200000000 17.3420490399999991
  3.4810116199999999 -0.1885125900000000 -0.3987963900000000
  1.8816553199999999  1.6435223800000001  1.6484383400000000
 -0.1639041300000000  3.6871677500000000  3.3325431200000000
 18.8983414200000013  5.3066733399999997  5.4514698800000003
 17.0272947899999991  6.8879128999999999  6.9429494800000002
 15.6254859100000001  8.7465098000000001  8.5426913300000002
 14.3699091100000000 10.5234612399999996 10.4625373600000007
 12.4463768899999998 12.0349883200000001 12.8814339800000006
  9.9466849600000007 13.5545759900000000 14.1300067200000008
  8.6685080600000006 15.6417053599999996 16.3771073099999995
  6.5212192499999997 17.6307511300000002 17.6238018300000014
  5.2167222000000004 19.1342553899999999 19.3949165900000011
  5.7915906100000001 19.3248633800000000  1.7805936400000000
  3.7453837499999998  0.2373201200000000  3.4833752900000001
  1.5745530500000000  1.9414667100000000  5.0048015699999997
 -0.1500402600000000  3.6020579000000001  7.0192813799999998
 18.9866051300000009  5.5072740299999996  8.7191355300000009
 17.2964512699999986  7.0356351200000002 10.8093310999999996
 15.8125152500000006  8.7951500199999995 12.0957364199999997
 14.9032070399999999 10.5846732100000001 14.0754989899999998
 11.9270514900000002 12.3379106600000004 15.7409404700000000
  9.9698105399999992 13.7968645599999995 17.9711177299999996
  8.6424711799999994 16.1864409900000012 19.2471493400000000
  6.9872269500000002 17.6134157199999990 21.2686885299999986
  7.3656047700000000 17.3637881000000007  3.8259922999999998
  5.5570138199999999 19.3562632100000016  5.3591389300000003
  3.8027244800000002 -0.0441984100000000  7.0555811500000001
  1.8453711500000001  1.9135941700000001  9.0834432399999994
  0.3163469300000000  3.7347366599999998 10.8078053300000008
 18.8658785500000015  5.1187314400000004 12.3868933000000006
 17.4550452100000015  6.8890056399999997 14.2685305299999996
 16.0874838300000000  8.6467524000000004 15.9440656300000008
 14.2292428100000006 10.0036952600000006 17.1892362299999988
 12.3943374899999998 12.0529115900000008 18.8551877099999992
 10.5982708999999993 14.3610216299999998 20.9238902700000011
  8.7937095000000003 15.6203706899999997  2.1546557900000001
  9.2742795999999998 15.7431115399999992  5.6107595799999999
  7.5371475999999999 17.5240587599999991  6.9149482899999999
  5.3248393199999997 18.7898748200000014  8.3848562500000003
  3.7140550800000001  0.0671253300000000 10.1400878399999996
  2.3262102300000000  1.4820266700000000 12.4963197099999999
  0.2716586200000000  3.1605818100000000 13.7371971800000008
 19.2173060000000007  4.9062505700000001 15.5836617499999992
 18.1041603100000010  6.9464017499999997 17.8316131499999990
 15.8560795199999998  8.6548868700000003 19.4304513499999985
 14.0282177499999996 10.2112556800000007 20.7852174000000005
 12.0735702600000003 12.1121075999999999  1.5537402000000000
 10.6543215000000000 14.3688908299999998  3.6591658900000001
 11.1228455700000008 13.6868333799999995  7.5486074399999996
  9.0772569399999998 15.7416710399999999  8.7604325299999992
  7.0665054300000003 17.4235056700000008 10.8826470299999993
  5.0622958000000002 19.3450648799999989 12.0228759800000002
  3.6810308599999999  0.1988233400000000 13.5944328599999995
  1.5296491800000001  2.0608574900000001 16.0844573199999985
 -0.0252509800000000  3.8734107299999998 17.7356230900000007
 19.6523772200000018  5.0440366499999998 19.7361566099999983
 17.9150153400000001  6.7139851600000000 21.4471918099999996
 15.9793264399999995  8.6983492899999995  1.7734028500000001
 14.3629146900000002 10.4852759100000004  3.7507085000000000
 12.3296533299999993 12.2630212600000004  5.2623651999999996
  3.7610970199999998  3.4218989999999998 17.9374795599999999
  1.9615173800000001  5.3275756400000001 19.5333349500000004
  0.1970889600000000  6.7119132700000002  0.2143082200000000
 18.9537179699999996  9.2702713899999996  1.7795945200000001
 17.4232211399999990 10.7559498399999995  3.5648857700000001
 16.1150852100000002 12.5298773099999998  5.3428704199999997
 14.1295206100000001 13.8468596300000009  7.2488537199999996
 12.7070714200000001 16.0173667500000008  8.9440630599999995
 10.7330290300000009 17.1340262699999997 10.8430116000000005
  9.1706300299999999 19.0424539999999993 12.2567144999999993
  7.2694696099999998 21.2257413600000007 13.6948747700000002
  5.4627968400000002  1.5327339400000000 15.5581826400000001
  5.1342359899999996  1.2155624899999999 19.1304323300000014
  3.5249966399999999  3.4087766899999998 -0.5859391600000000
  1.9701920600000000  4.9900804399999998  1.6794671000000001
 -0.0336484900000000  6.4831132100000000  3.5323566799999999
 19.0507980900000007  8.7046002599999994  5.5722560699999999
 17.3702495399999997 10.7514335100000000  7.0552558100000002
 15.9657285200000008 12.6350835000000004  8.8805622700000004
 13.5659639199999997 13.9421684599999995 10.7470432099999993
 12.6165500599999998 15.7764228699999993 12.7178227600000007
 10.2683939899999999 16.9086307100000006 14.4679582900000003
  9.0843117499999995 19.1757279199999999 15.7474078800000008
  6.9355778700000004 20.7550262100000005 17.0776158000000002
  6.8431612700000004 -0.2353948600000000 -0.4499139900000000
  5.1108653600000000  1.7587593600000000  0.9947457100000000
  3.7597777099999998  3.5117391800000002  3.0759576000000002
  1.6829106100000000  5.1743751900000001  4.9767657700000001
 -0.2477614500000000  6.9742286800000004  7.0041391300000004
 19.1203276600000009  8.4855280900000007  9.0086753300000009
 17.5314934300000012 10.3767020599999995 10.3602971499999992
 16.3195574299999997 12.4334704100000000 12.0888764099999992
 14.2904290300000003 13.6133166699999997 13.5667508199999993
 12.1583254200000006 14.6533823699999992 15.6302297699999997
 10.5977470700000005 17.3638416599999985 17.4383422299999999
  8.8428105000000006 19.1636054099999988 19.1137089899999992
  8.4583592000000003 19.5905920000000009  1.6947682399999999
  6.8127459100000003  0.5000292000000000  3.6100722400000000
  4.8279963500000003  1.9978414300000000  5.6054798500000000
  3.0850602999999999  3.5857869600000001  7.0790228099999997
  1.5132900400000000  5.7121839500000000  8.5332480700000009
 -0.1569026400000000  6.5936026900000000 10.7459787599999999
 19.2620522500000000  8.8658216500000009 12.6433830999999994
 17.5555010299999985 10.3641756199999993 14.3174465000000009
 16.1795717100000012 12.1507373800000007 16.0398755299999998
 14.2989694000000007 13.6769048000000009 17.4259468499999990
 12.6302515100000008 15.5536673000000008 19.5184390699999994
 10.2943308699999996 17.3073721599999999 21.0523060700000002
 10.5759036799999997 17.3277271699999993  3.5039350599999999
  9.0367642000000004 19.2304160000000017  4.9979399600000001
  7.2146869499999999 -0.3489907000000000  6.5348759200000002
  5.5312428599999999  1.7944987200000000  8.8276268499999997
  3.2498277199999999  3.4901272600000000 10.6547818900000006
  2.1561123800000002  5.7607833399999997 12.2795068599999997
  0.0983030200000000  6.8991919199999998 13.8777639700000002
 19.6166804399999997  8.7529929699999993 16.0744330099999999
 17.6189419600000008 10.3314611700000007 17.7710308499999989
 15.8650788699999996 12.0309417700000001 19.4674209400000002
 14.0264416999999995 13.8095990200000003 21.1075229200000010
 12.1245497899999997 16.1375401099999998  1.4034595100000000
 12.9648869500000004 15.6008466800000001  5.3572993000000002
 10.9517875799999995 17.6376146200000008  6.7104793500000000
  9.1431257800000001 18.9740826499999997  9.3580764500000004
  6.9015396100000004 -0.4060775200000000 10.5755086899999995
  5.0575058000000004  1.6065927799999999 12.1034501900000002
  3.7408068499999998  3.6579865599999999 13.6986070200000007
  2.2354703200000001  5.1910856000000001 15.7121168400000002
  0.2181796800000000  6.6861107100000003 17.4871388199999984
 19.3375150299999987  8.1478921100000008 19.8259720399999999
 17.4420626500000004 10.1414853899999997 21.1056756000000014
 15.8376588100000006 11.9409761499999991  1.5215047900000001
 14.1763588699999996 13.7777469799999999  3.0877873899999999
  4.5459814200000004  5.4147661100000004 15.5476324699999999
  3.5634076000000001  7.3206652600000002 17.8373749400000001
  1.3324953700000000  8.4331320800000000 18.9894997699999983
  0.2386242200000000 10.9228000200000004  0.1382433300000000
 19.2902053900000006 12.1355923600000004  1.8480831799999999
 17.6128803800000000 14.1848936900000009  3.4464737300000001
 15.8469945299999999 15.6421610599999994  5.3228507000000000
 14.2310601999999999 17.7653168800000003  6.8249969999999998
 12.8790601299999992 19.2671786300000001  8.7139362800000004
 11.1662165200000008 -0.0291058500000000 10.9783098599999995
  8.7681308799999993  1.7619016500000000 12.4226013700000006
  7.3137517699999997  3.7667943899999998 14.4215958400000002
  7.1617394000000001  3.4880273499999999 17.3773165799999987
  5.5410606800000002  5.5853998300000001 19.2208458399999991
  3.4532015100000000  7.6350097899999998 -0.1658871100000000
  1.7114082200000000  8.7640022799999997  2.3112649500000000
 -0.2369726600000000 10.8285112199999993  3.9968146899999999
 18.9383369100000003 12.1587846800000001  5.7008828200000004
 17.2212905999999997 14.2760105199999998  7.4270329400000001
 15.3299146799999999 15.8737962600000007  9.6331385500000000
 13.5769095600000007 17.7616197599999985 10.8042566900000008
 12.5814450799999999 19.4556103200000017 12.8783320299999993
 10.5768565700000003 20.8711687300000008 13.8544559100000004
  8.8631061100000004  1.6776452799999999 15.8016562500000006
  8.5288626399999998  1.7556198599999999 18.8684123100000001
  6.6872960700000004  3.3853280200000002 -0.5525751000000000
  4.9162312200000002  5.3408755000000001  1.1907789900000001
  3.1232866300000000  7.0398485900000001  3.6854640000000001
  1.7312467600000001  8.5489647400000006  5.2891112099999997
 -0.0777496700000000 10.3522420799999999  7.3623811000000003
 19.7676325900000016 12.2402017200000000  9.0873298600000005
 18.1612086499999990 14.2809818199999992 10.6516222099999993
 15.7681771800000003 16.0030439800000011 12.3165918199999993
 14.3016897299999997 17.6192525700000004 15.0612713500000002
 11.9114435899999993 19.1931306699999986 15.7209461600000004
 10.4954107099999998  0.1519878500000000 17.8347352400000005
 10.4592696200000006  0.0172310700000000 -0.0005312900000000
  8.3535523600000001  1.6251819400000000  1.1863768400000001
  6.5202625699999999  3.1213324299999998  3.3232686800000000
  5.1312107200000003  5.2029939599999997  5.1685354300000004
  3.3564539400000002  7.2471754900000001  7.3732684199999996
  1.2972058099999999  9.0104528500000001  8.8829399599999999
  0.0746505800000000 10.8765853700000008 10.8010755700000001
 19.6839940999999996 12.3822045400000000 12.3654726200000002
 17.8828959000000012 14.1844454100000004 14.3070862299999995
 15.7841735199999995 15.7061828999999999 15.4884232300000004
 14.0837459799999998 17.5942575300000001 16.9441391000000010
 12.1587784800000005 19.0759368999999985 19.0098321699999993
 12.2383415899999992 19.0313284500000002  1.7757987799999999
 10.2929237100000002  0.1312675900000000  2.9724269200000002
  8.9136833099999997  1.8034400300000000  5.3366538099999996
  7.2130958200000004  3.6526120500000001  7.0729560800000000
  5.1565115700000002  4.9777609900000002  8.7603731600000003
  3.6585608500000002  7.4490216199999999 10.3874046700000005
  1.7984886300000000  8.6532511000000003 11.9908437600000006
  0.0667298100000000 10.5102832500000005 13.8354697600000005
 19.4167301399999985 12.0914512100000007 15.4670530700000004
 17.7689699899999987 13.7300703100000003 17.6975464299999992
 15.7384628600000003 15.4163503800000008 19.1592228999999996
 14.1899378800000004 17.4877511400000003  0.0651777900000000
 14.0927897600000005 17.4693791500000017  3.7847262399999999
 12.3350915299999997 19.5113869599999994  5.1922100300000000
 10.5856785999999996 -0.3631345900000000  6.6544044800000002
  8.9165594000000006  1.3803654400000001  9.1542800799999995
  6.6581642700000003  3.6032007600000000 10.5117525999999994
  5.0084264000000003  5.6465021300000000 11.8610098599999993
  3.6672835899999998  7.1007115299999999 13.9142656000000002
  1.7551845200000000  8.7549607999999992 15.7044039400000006
 -0.3209495800000000 10.5983016400000007 17.6260781000000009
 18.9511976199999985 11.8998960399999998 19.6175598300000011
 17.6723767199999990 14.1668341400000006  0.3452651500000000
 15.9210782900000005 15.7669582300000002  1.8183725200000000
  7.0389795099999999  7.0625532000000000 14.1150590400000002
  5.3354479000000001  9.0103242100000003 15.5968106700000000
  3.3440075999999999 10.5775680600000008 18.0030589100000000
  2.1011013599999999 12.1929883100000005 19.1512091200000008
  0.0944403700000000 13.9497441799999997 -0.1364291000000000
 19.2369640000000004 16.0537225899999996  2.1176380099999998
 17.3446724900000007 17.7487217000000008  3.9390808399999999
 15.5234847299999998 19.4987750300000009  5.0330585799999996
 13.9310741900000004  0.4851614900000000  6.5906693599999997
 11.8520660400000004  1.8331241599999999  8.8064396100000000
 10.3905497100000002  3.5707058500000000 11.0875476000000006
  8.8016387700000003  5.3456898099999997 12.5051437300000003
  9.1128591799999992  5.5980582999999999 16.0663674400000005
  7.1254643700000004  7.2137552899999999 17.2575825199999997
  5.2916763299999996  8.9446503600000007 19.5089013999999992
  3.4871417400000002 10.1832416800000001  0.2801848100000000
  1.7213317100000001 12.0523820100000005  1.8310333299999999
 -0.2153384700000000 13.6765857499999992  3.7312821199999999
 18.8101028799999987 15.7153773700000006  5.0466542499999996
 17.1439987699999996 17.9090067499999996  7.2883987499999998
 15.7686245700000001 19.5752583999999992  9.0010944700000000
 13.8980032799999993  0.1729109000000000 10.8982626899999993
 12.8029998700000007  2.0867189700000002 13.1646079399999998
 10.3644849499999996  3.9469737999999999 14.0346836499999998
 10.5919659100000008  3.8619462699999998 17.5383127099999996
  8.8529852200000008  5.4874530600000000 19.3529949600000002
  6.9889197899999997  7.0515950099999998  0.0164688000000000
  4.9021754000000000  8.8799571900000007  2.0188269399999998
  3.7158278199999999 10.8333584300000005  3.7333573400000000
  1.5878733300000001 12.3726398300000007  5.1887087400000000
  0.0702557700000000 13.9649977399999994  6.9054521500000003
 19.2974905899999989 16.2921838200000018  8.5643254500000001
 17.7462339100000008 17.7895467300000014 10.6129526700000003
 15.6038517799999994 19.4029338100000004 12.2572268300000005
 13.8792981900000001  0.2142182500000000 14.6073133100000003
 11.6938375099999998  2.0438886200000002 15.5775413799999995
 11.9240421300000001  1.8072496000000000 19.1697732199999997
 10.3222343599999995  3.5799815800000001 -0.2861972500000000
  8.5258866399999995  4.7465754400000000  1.2590987100000000
  7.1187727000000001  7.0325584200000000  2.9072302300000001
  5.4917794899999999  8.6405896700000007  5.2061106500000003
  3.5758517699999999 10.2719854999999995  7.1634112800000000
  2.0125193600000002 12.3594055899999997  8.6611512499999996
  0.3721092900000000 14.1454845299999992 10.4843500800000005
 19.0149021500000011 16.0604071099999999 12.4235937500000002
 17.5794207299999989 17.4756464800000018 14.1653907500000003
 16.1318151699999994 19.6627402800000013 15.7844048499999996
 13.4763199199999999  0.1655572700000000 17.2104999599999999
 13.6177661099999998 -0.1254967000000000  0.0405896600000000
 11.9737878700000007  2.1616343599999999  1.4210739900000000
 10.3504521999999994  3.2734110599999999  3.2042881900000002
  8.4844477499999993  5.0428249899999997  4.8912067199999996
  7.1185029599999998  6.5134219800000004  7.5258989400000003
  4.9458568900000000  9.2662315799999995  8.7779719000000007
  3.2422821599999998 10.7531815900000005 10.4133056800000006
  1.8065036299999999 12.4138235600000009 12.0381845399999996
  0.0461300400000000 14.2956155299999992 13.3080543299999992
 19.6867762999999982 15.4955994799999992 16.0541999599999983
 17.7150507899999994 17.2208684000000005 17.1888664099999993
 15.6932725499999997 19.5264230499999982 19.1035718800000005
 15.8039953600000000 19.6117430400000003  1.5693007800000001
 13.6560641000000000  0.0769425400000000  3.5641195600000000
 12.1569157800000003  1.8509320499999999  5.0847555099999999
 10.2062722099999998  3.9183275200000001  7.2444296699999997
  8.6868758600000007  5.0966062000000001  8.9664801500000006
  7.1510594200000002  7.2052593500000004 10.5872282799999997
  5.4130296800000002  8.8616860400000004 12.1985270299999993
  3.4896106400000000 10.9051234200000007 13.6397580499999993
  1.4419932700000000 12.2332067500000008 16.0105737300000008
  0.4494758100000000 13.6205364200000005 17.4465712000000011
 19.6663944400000013 15.9730742699999997 18.8815424500000013
 17.8479820599999996 17.3658390999999988 -0.4724017700000000
  8.3785907700000006  9.2981341000000004 11.8573448100000007
  6.8394014500000004 10.7581419599999997 14.1259136400000003
  4.7392023500000002 12.1403639900000009 16.0265242999999984
  3.1583587899999999 14.1664543100000007 17.3534593100000016
  1.7709293200000000 16.1032888400000012 19.2522770700000017
 -0.2411513100000000 17.6244996100000009  0.1046478200000000
 19.1856994800000002 19.1396443400000003  1.7676283200000000
 17.7364155100000005 21.5073518999999997  3.5771727599999998
 16.0576251300000017  1.6211685400000000  5.0102424200000000
 14.0306791499999992  3.2560979699999999  6.8396337899999997
 11.8294611199999995  4.8861373099999996  8.7929676800000003
 10.8259684899999993  7.0122648099999996 10.4150942999999998
 10.0682579899999993  7.1710955600000004 13.9030260800000001
  8.7112971800000008  8.9356831499999991 15.8194077800000006
  6.7379603399999999 10.8164324500000006 17.5904288899999983
  5.1243233500000001 12.5062807100000004 19.4458479400000002
  3.3610986899999999 14.3551042500000001  0.5472343900000000
  1.9888469600000001 15.7245129299999995  1.9884419600000001
  0.1531321500000000 17.7475441200000006  3.6478004300000002
 19.5235303199999990 19.4055722800000012  5.4095154699999997
 17.4805387699999990 21.2032436699999991  7.0831282399999997
 15.5694721499999993  1.8435037000000001  9.0539610699999997
 13.9568939299999997  3.7397719800000000 10.9645693400000006
 12.4173332100000007  5.6345259499999996 12.7535164299999995
 12.1384710699999996  5.4632521000000001 15.9302875299999993
 10.9450605299999992  7.6067847600000000 17.6453933700000007
  8.5022235500000001  8.5508288700000001 19.9407384400000005
  6.7466980599999999 10.8770817199999996  0.1711029800000000
  5.3392370299999996 12.4373442799999996  2.2359597400000002
  4.1041614400000004 13.9474715000000007  3.8073330099999998
  1.5666108299999999 15.3826441200000001  5.0385077899999997
 -0.1660069600000000 17.3094251200000002  6.7885713000000001
 19.4702699000000017 19.9853130300000004  8.9731597999999995
 17.5104046999999987  0.3020360400000000 10.5237501600000005
 16.0928656900000000  2.1179283299999998 12.7746723200000005
 14.3314863799999994  3.5663190999999999 14.6115218799999997
 13.9747583599999992  3.3204110299999998 17.9400680500000007
 12.2089043200000003  5.2333822100000003 19.3703226099999988
 10.8665535700000007  6.8073439799999997  0.1037370200000000
  8.6920410900000000  8.8374093200000008  1.3857234199999999
  7.1508585699999996 10.1131252699999994  3.5908200699999999
  5.4663985100000003 11.7047736800000006  5.3451298400000002
  3.5969075699999999 14.4181890599999996  6.9898701299999999
  1.5947273900000001 16.1168726900000010  8.3436876899999994
  0.0688367600000000 17.9992681899999987 10.8475963199999992
 19.3078715400000007 19.6741068199999987 12.4054936999999992
 18.2938404699999992 21.4355186300000007 13.8168967400000007
 16.1193343700000007  2.4129108399999999 15.8204823500000007
 15.5210639300000004  1.6116069900000001 19.0990037599999987
 13.9641710700000008  3.6463082400000002 -0.2664684000000000
 12.0548446299999998  4.3592827200000004  1.5619631000000000
 10.5158074999999993  6.7777836799999998  3.0507771600000000
  9.0545869900000007  8.0555163699999994  5.1078354099999999
  7.4271214800000003 10.3406291899999996  6.7548964900000001
  5.5648719599999996 12.0544967900000000  8.7174495299999997
  3.6956988900000001 14.2665285300000004  9.9615227999999991
  2.0723606499999998 15.5177226499999996 11.7490056500000009
  0.1538997000000000 17.4719979199999997 13.3749699799999995
 19.0708772899999985 19.3921856300000002 15.4417205400000004
 17.9402000699999995 21.5616048900000017 17.6421975000000018
 17.6025510099999991 -0.2000119400000000 -0.2743967300000000
 15.3684054799999998  1.3461361500000000  1.6177539800000000
 13.6040152600000006  3.4675799399999998  3.7347282000000002
 11.6188968500000005  4.9315721999999997  5.0831150000000003
 10.3548136500000005  6.7994213800000001  6.9114976700000001
  8.6248169200000007  8.5855196700000000  8.5088742300000000
  7.0809672399999997 10.7356107000000005 10.3615622999999992
  5.5283988800000001 12.5778264600000007 11.8164547500000001
  3.1301994999999998 13.5773215199999999 13.8056057100000000
  1.8463324000000001 15.4877802399999993 15.3562814200000002
  0.0105899400000000 17.4170897700000005 16.9604809000000003
 19.4181754600000005 19.2797855200000008 18.4747507499999983
