Li                                      
   1.00000000000000     
    21.6720000000000006    0.0000000000000000    0.0000000000000000
     0.0000000000000000   21.6720000000000006    0.0000000000000000
     0.0000000000000000    0.0000000000000000   21.6720000000000006
   Li
   432
Direct
  0.9813810239018110  0.0042254766519036  0.0158793715393131
  0.9157855518641540  0.1049266800479884  0.0898247226836446
  0.8301365928386844  0.1721953146917699  0.1719987707641195
  0.7402014673311186  0.2653809288482805  0.2296625595238098
  0.6605717063492094  0.3483339262643028  0.3285196599298601
  0.6067351282761138  0.4205282918050912  0.4145099395533407
  0.5075070731819835  0.5063504886489483  0.5030666177556284
  0.4068178843669230  0.5701297194536750  0.5658660672757492
  0.3192769292174233  0.6586991758951655  0.6433159219269129
  0.2456294153746796  0.7328682964193405  0.7364301010520506
  0.1574023814138030  0.8265602477851601  0.8310670048911035
  0.0559280140273160  0.9218684057770403  0.9224969241417469
  0.0511743803063851  0.9004907585824995  0.0589104540420848
  0.9980396082502736  0.0074851370431901  0.1667009786821723
  0.9148234837578428  0.0845256349206380  0.2523784385382086
  0.8277595173495769  0.1736415291620546  0.3187051721114784
  0.7571302191768154  0.2701586115725334  0.4014988644333712
  0.6732829069767448  0.3432845127353232  0.4832573938722788
  0.5911713219822801  0.4190385215946861  0.5856820621077858
  0.5060174856958284  0.4743847582133611  0.6620868041712811
  0.4207200083056506  0.5828497093023230  0.7456121479328175
  0.3222168752307155  0.6852512029346656  0.8235988256736775
  0.2463616685123640  0.7280081699889251  0.9115201084348499
  0.1753749940014799  0.8564855749353981  0.9918726596530050
  0.1600725918235497  0.8429177787006239  0.1507652805463238
  0.0932368830749368  0.9102849377076438  0.2373034251568811
  0.0060811028054601  0.9926983997785186  0.3005003982096710
  0.9300565868401591  0.0896439474898472  0.4095052791620546
  0.8218448874123325  0.1779699755444781  0.4901027302510172
  0.7510453959025440  0.2555280813953473  0.5697180103359187
  0.6594547849760062  0.3260070819490579  0.6381648841823520
  0.5769932401255105  0.4329234819121481  0.7587567695644140
  0.5122818807678087  0.5056411171096329  0.8338529554263587
  0.4171356810631224  0.5809621525470661  0.9110393392395721
  0.3427960063676636  0.6636481819859696  0.0016716426725694
  0.2417159196197858  0.7542979789590234  0.0898871876153535
  0.2279934916020636  0.7592082336655608  0.2488814031930602
  0.1794414645625722  0.8433686138796617  0.3260766528239216
  0.0823878174603152  0.9269683384090044  0.4107052053340681
  0.0062565536175683  0.0105214936323392  0.4980321299372434
  0.9141270538021402  0.0680230043373911  0.5704544435215979
  0.8463874880029536  0.1670035469730493  0.6566983771686949
  0.7598184851421195  0.2395803188445953  0.7637334237726066
  0.6381480195644116  0.3232406270764088  0.8396558527131788
  0.5682933859357675  0.4083455311000392  0.9038634246954587
  0.5077985391288280  0.4927126287375430  0.0009296147102233
  0.4217771899224800  0.5962198334256215  0.0919445787190867
  0.3099433241048359  0.6778495888704299  0.1893358088778143
  0.3143373878737563  0.6613733679402003  0.3340038002953136
  0.2383443632336650  0.7535249280177183  0.4030053945182743
  0.1593554780361757  0.8398510995754904  0.5130346797711312
  0.0697220431893655  0.9025119795127381  0.5826136913990396
  0.0133540116279036  0.0298083402547036  0.6663066532853463
  0.9111825710594346  0.0882003811369501  0.7401607124400158
  0.8524447480620125  0.1704110363602780  0.8377772046880736
  0.7177966892764829  0.2539746926910311  0.9002692252676283
  0.6524847789774810  0.3284288575119945  0.9925915296234749
  0.5851412038575106  0.4014346880767832  0.0937023823366587
  0.5242507082871910  0.5251936157253567  0.1740274700073812
  0.4368244984311573  0.5788016925064596  0.2422531293835348
  0.4155780334071579  0.5742628631413780  0.4257994070690287
  0.3207728133074923  0.6769325346068626  0.4858672785160607
  0.2215659809892969  0.7332582636581790  0.5912223638796590
  0.1547498015873003  0.8444710797342196  0.6599673228128466
  0.0695826384274625  0.9166247323735703  0.7527917524916958
  0.9862804217423431  0.0031172083794786  0.8206626984126970
  0.9413730883167233  0.1082276993355507  0.9231797812846096
  0.8317687112403078  0.1930252620893285  0.9917389567183434
  0.7466972000738252  0.2506488367478781  0.0647395690291646
  0.6414326568844615  0.3319720085825040  0.1563407124400129
  0.5871733840900717  0.4241685502030279  0.2650000664451824
  0.5101126365817663  0.5133489987080111  0.3368330666297510
  0.0299649787744585  0.0746816800479877  0.9421631026208956
  0.9806525987449248  0.1757166662052398  0.0257534459210049
  0.9175828972868203  0.2774856515319328  0.0868961650978193
  0.8347741675895151  0.3506850627537830  0.1620146783868606
  0.7416803349944630  0.4240469578257660  0.2382970413436709
  0.6733881639904027  0.5239323122000741  0.3088080823182011
  0.5881169089147278  0.6019260852713160  0.4290640988372090
  0.5068073929494261  0.6727990019379817  0.4940771608527115
  0.3976302653193073  0.7638571054817263  0.5917502413252151
  0.3094177002584004  0.8227594342930971  0.6784247323735713
  0.2402724150978202  0.9131142811000359  0.7574908047249878
  0.1576561581764508  0.0137005043373932  0.8361832922665187
  0.1629177648578803  0.9980796350129211  0.0077747623661892
  0.0539431547619031  0.1004629138981201  0.0840582124400129
  0.9992491339055007  0.1902990951458108  0.1651682507382830
  0.9072436088039879  0.2782213925802850  0.2701669564414928
  0.8220338745847187  0.3674002957733506  0.3427799986157254
  0.7466878156146208  0.4283288399778513  0.4182228889811768
  0.6933966348283533  0.5006503922111492  0.5086276222775936
  0.5740896996124008  0.5888010529715757  0.5964948052787022
  0.4843822309892971  0.6922327519379863  0.6677664299557051
  0.4192536272609786  0.7731401425802886  0.7490321756183107
  0.3326065526947204  0.8098244522886660  0.8477999584717608
  0.2429271100959767  0.9388488782761186  0.8985369629014386
  0.2496613662790708  0.9168689936323347  0.0802603303802130
  0.1460483753229980  0.0073021382428919  0.1474566694352148
  0.0876918978405286  0.0943686835548192  0.2432693701550406
  0.9976648491140665  0.1562044555186404  0.3360574640088601
  0.9264154046696191  0.2618457064414912  0.4123139968623093
  0.8303112269287567  0.3241107987264655  0.5137989820967164
  0.7577044287560000  0.4370438612033993  0.5885831381506108
  0.6805919121447062  0.4897224589331870  0.6919649072535989
  0.5742912619970468  0.5975434846806920  0.7528254282022857
  0.4905063076781104  0.7010854392764827  0.8319519052233275
  0.4231659385382045  0.7504191408268710  0.9243267275747513
  0.3061215374677033  0.8279484800664463  0.0037352214839430
  0.3102937236987842  0.8390308933185651  0.1361878760612782
  0.2316700193798482  0.9276524270948698  0.2292357050572136
  0.1570894836655583  0.9922931196936133  0.3326785852713172
  0.0815351887227749  0.0969330218715427  0.4090914936323387
  0.0131481095422643  0.1577782032115138  0.5036472605204878
  0.9526321133259472  0.2499371299372442  0.5886343166297507
  0.8125718687707604  0.3327271100959734  0.6525914285714265
  0.7467176951827241  0.3868930200258376  0.7563601753414559
  0.6648533545588791  0.5027489253414572  0.8177838944259861
  0.5805498694167568  0.5999771465485395  0.9057762195459560
  0.5112854881875251  0.6856324976928789  0.9977976984126968
  0.4260857848837176  0.7540605274086403  0.0752287832225917
  0.3900982715024028  0.7576595141196023  0.2434763773532680
  0.3283110538944243  0.8564998754152811  0.3282088229051325
  0.2462313575119950  0.9290567326504231  0.4370903926725731
  0.1500975382982617  0.0009236577150205  0.5029184399224818
  0.1113704346622342  0.0784333374861603  0.6168454951088975
  0.9956565056293840  0.1748227177925443  0.6725046714654823
  0.9458360751199706  0.2775145694905845  0.7409597651347326
  0.8493313155223348  0.3245625110741983  0.8421846317829420
  0.7572454355850837  0.3885770390365479  0.9114337292358812
  0.6475483098006620  0.4944852542451059  0.9930577274824657
  0.5676264082687368  0.5982642732558148  0.0943750502953122
  0.4931376241232925  0.6978522291435922  0.1545703142303410
  0.4774864493355508  0.6390316274455543  0.3532017898671072
  0.4187393950719809  0.7374684306939798  0.4070682239756351
  0.3088730061830915  0.8307391209856050  0.5039116689737924
  0.2581351753414509  0.9207007941122214  0.5882369813584347
  0.1591583250276827  0.9987149732373553  0.6640871004060571
  0.0744499040236235  0.0669051555001872  0.7741048398855668
  0.9930423509597617  0.1798582475083066  0.8224694541343638
  0.9358759606866016  0.2707482839608701  0.9203851121262474
  0.8576377523994125  0.3399125258397930  0.9882995694905858
  0.7515234496124066  0.3881292017349551  0.0883851195090415
  0.6656547702104092  0.5068662698412680  0.1543742312661465
  0.5932498223514244  0.6151281773717230  0.2498190716131390
  0.1487939760981902  0.1685801010520507  0.8637700738279790
  0.0712999381690693  0.2348554088224404  0.9120735105204858
  0.0002720888704317  0.3463579198966400  0.9802838016795832
  0.9500200378368433  0.4146014359542249  0.0764449469361352
  0.8435383370247322  0.4994927962347759  0.1606657327427072
  0.7629937296973068  0.5826689234957527  0.2383220182724273
  0.6743242741786659  0.6784478409929875  0.3470020173495740
  0.5811529148209686  0.7607166703580646  0.4164551315060905
  0.5046127639350289  0.8186248523440369  0.5233437126245875
  0.3898247462163127  0.9047795828719103  0.5601143207825743
  0.3071440263935017  0.9842100041528212  0.6645367252676238
  0.2378308361018853  0.0814915780730914  0.7428966380583262
  0.2427922153008524  0.0981299220191971  0.9240550576781104
  0.1635130324843104  0.1664505638612042  0.0158378110003667
  0.0749796590070133  0.2594427597822104  0.0717912758397929
  0.0168143660022153  0.3420709436138765  0.1737348495754887
  0.9347052390180863  0.4058803225359924  0.2613822046880756
  0.8643304106681455  0.5044155467884792  0.3464980684754551
  0.7894156958287155  0.5896609565337769  0.4261010262089329
  0.6852350544481354  0.6680180241786644  0.4898315245478031
  0.5992730200258407  0.7415669172203749  0.5894580015688433
  0.5118080015688449  0.8472870953303797  0.6812261692506425
  0.4200124040236233  0.8779396031746032  0.7668846723883362
  0.3146803474529349  0.0071072517534176  0.8339942266519031
  0.3105255777039488  0.0095384417681785  0.9829741952750126
  0.2304119832041351  0.0949222619047632  0.0921201531930578
  0.1448675479881842  0.1719841205241792  0.1613973791066812
  0.0471408024178643  0.2564859353082340  0.2487657401255063
  0.0029976771871532  0.3477236111111139  0.3267452934662245
  0.9175979651162791  0.3917379074381699  0.4463900913621259
  0.8378145865633044  0.4873736023440358  0.5011873661867838
  0.7493185169804377  0.5828541006829084  0.5817493120155035
  0.6769244605943143  0.6523342428017713  0.6841710308231796
  0.5947083647102218  0.7530081533776283  0.7608266168327802
  0.5022437213916575  0.8521722383720913  0.8225796400885912
  0.4062026181247660  0.9226916016057558  0.9324064968623134
  0.4042850641380582  0.9390913981173838  0.0761964811738665
  0.3246081404577339  0.9996670025839762  0.1773925645994865
  0.2551970210409777  0.0831505057216688  0.2356371668512338
  0.1455518692321860  0.1759676924141758  0.2998525968992283
  0.0970918230896984  0.2287815019379877  0.3874564364156541
  0.0034003100775166  0.3272147203765243  0.5037289585640465
  0.9417313026024345  0.4152577653193035  0.5820846977667031
  0.8441375272240705  0.4877927842377261  0.6922477680878529
  0.7481176711886306  0.5906567146548554  0.7554433028792928
  0.6676492474160227  0.6714998684939104  0.8300169043004786
  0.5805181852159436  0.7855078326873368  0.9153312126245865
  0.4793891597452955  0.8536117234219276  0.0304057341269868
  0.5246988930417160  0.8286658333333321  0.1499090762273880
  0.4219308665559254  0.9076782147471363  0.2286643516980433
  0.3400378017718708  0.9959414193429339  0.3218457613510495
  0.2231147282207431  0.0882038132152090  0.4063482936507938
  0.1739579526578083  0.1488851490402396  0.5102322056109259
  0.0870197286821721  0.2520431469176785  0.5784848241971190
  0.0146031464562597  0.3338022180694011  0.6629748029715756
  0.9421377127168711  0.3825441888150607  0.7528444296788450
  0.8566006030823203  0.4756529097452926  0.8184368544665901
  0.7531030989294933  0.5639630430970826  0.9041740291620499
  0.6673051181247658  0.6621235188261352  0.9868748874123270
  0.5709843180140268  0.7491435949612395  0.0655747951273540
  0.5820460308231787  0.7393778086932414  0.2601252713178326
  0.4951405057216718  0.8324184569951996  0.3316841149870768
  0.4236484736064980  0.8996168715393154  0.4341909634551513
  0.3323539474898496  0.0046541431339975  0.4781935677371720
  0.2529400862864506  0.0854497526762614  0.5767076439645606
  0.1559166546696176  0.1604980311000404  0.6665430467884832
  0.1023524686231099  0.2584850373754151  0.7539919425987449
  0.0245538787375423  0.3331885202104132  0.8294564608711710
  0.9671200678294554  0.4178350876707242  0.9346331621446993
  0.8380510843484714  0.4779681552233299  0.0063188944259878
  0.7574357562753775  0.5716903502214805  0.0873493839977826
  0.6739387444629017  0.6778991154485041  0.1652314294942769
  0.2487441302140994  0.2410985598929472  0.7528330071059415
  0.1951299972314473  0.2999644167589537  0.8465130795496520
  0.0940920122739044  0.4230258610188287  0.9314281870616483
  0.0110865554632724  0.5131078696013276  0.0434614516426706
  0.9133772009966776  0.5705034417681816  0.0817183374861585
  0.8251417834071617  0.6750414908637907  0.1628321968438513
  0.7730106801402741  0.7574175516795876  0.2528152680878577
  0.6619169679771133  0.8347719010705035  0.3229262250830587
  0.5834546913067555  0.9047116255998517  0.4167338233665561
  0.5003388639719475  0.9873362559985210  0.5073510806570667
  0.3948687121631593  0.0645697291435923  0.5834334311554059
  0.3314486950904367  0.1740808038021413  0.6550033577888499
  0.3357715268549271  0.1658976107419718  0.8225667783314847
  0.2690040697674405  0.2387241491325227  0.9391460082133634
  0.1641581141565140  0.3423199981543021  0.0045003857512000
  0.1054614811738617  0.4130966662052415  0.0958222014581054
  0.0219457867294182  0.5074243696936165  0.1741672402177912
  0.9036705846253241  0.6021645127353281  0.2540721248615725
  0.8427935239018112  0.6710165743816887  0.3397586734034732
  0.7524529895718004  0.7523160875784427  0.4408843839977834
  0.6680742151162775  0.8517998634182362  0.4957155246400902
  0.5808638999630844  0.9348871996124046  0.5832215937615359
  0.4811841957364322  0.9827375119970441  0.6683530827796247
  0.4083291196013263  0.0863661392580255  0.7324023749538568
  0.4113736304909565  0.0947383227205592  0.9160662721483916
  0.3363106450719826  0.1490624621631582  0.9941337952196392
  0.2662736507936501  0.2343362573828003  0.0668917977113352
  0.2066527990033222  0.3290104406607597  0.1732650221483922
  0.0902490734588426  0.4083834339239587  0.2267652044112225
  0.0182895777962315  0.4991520422665161  0.3508484819121449
  0.9297176485788086  0.5715410949612405  0.4333689867109669
  0.8445561323366562  0.6500570810262118  0.5174500678294578
  0.7520765656146153  0.7557566569767431  0.5957667008121064
  0.6610846876153573  0.8604386346437778  0.6735850802879284
  0.5899981510705032  0.9278866772794387  0.7658629757290498
  0.4809494033776289  0.0031932719638235  0.8412759473052773
  0.4906783259505332  0.0149571327057956  0.9716297097637536
  0.4023818595422668  0.0754757525839764  0.0701950396825382
  0.3316740596160912  0.1682254042081937  0.1575103626799574
  0.2623950844407545  0.2373067769472144  0.2501034357696597
  0.1551618493909217  0.3111189055001873  0.3343686023440355
  0.0643733877814725  0.3985538685861911  0.4130915070136609
  0.0202311964747111  0.4872450350682911  0.4959253848283467
  0.9179334473052805  0.5567163838132174  0.6125269675156915
  0.8422859353082330  0.6418754129752671  0.6514998292727938
  0.7392005057216693  0.7239722831303084  0.7534967488002948
  0.6934370574935400  0.8193496045588802  0.8357846723883355
  0.5819356030823215  0.9028160026762677  0.9152645847176046
  0.5892301790328531  0.9369705075673664  0.0742210289774832
  0.5137140610003712  0.0029839710225161  0.1413801259689933
  0.4173973740310046  0.0729092852528623  0.2157524344776647
  0.3560525332225879  0.1558635829641943  0.3368561830933956
  0.2618554923403451  0.2274228160760430  0.4058186295681097
  0.1571501439645644  0.3273190960686634  0.4906448851052048
  0.0800276204318919  0.4170829632705804  0.5982049829272782
  0.9967615277777782  0.4874540047065352  0.6779025050756715
  0.9182778839055032  0.6002722425249161  0.7744441334440779
  0.8208673551125898  0.6705299303248395  0.8462588791989631
  0.7539784542266545  0.7632889285714270  0.9150042732558106
  0.6749229295865646  0.8435083767072697  0.9934717995570352
  0.6528808983942440  0.8361163648947922  0.1767930532484314
  0.5855268369324449  0.9202527242524923  0.2527529868032516
  0.4942089082687318  0.9966387656884450  0.3286978696013279
  0.4259655006459937  0.0840098911037259  0.4321702823920290
  0.3626924446290118  0.1461142727943923  0.5071680938538208
  0.2400024127906946  0.2442973195828699  0.5810535414359563
  0.1761184911406417  0.3147108720930234  0.6685655311000360
  0.0930211175710625  0.4034630684754532  0.7768882290513091
  0.0111136849390903  0.4933520967146521  0.8532444785898861
  0.9191461710963438  0.5672694527500894  0.9309007415097810
  0.7992417197305244  0.6551628534514577  0.0019597858988547
  0.7551924229420450  0.7616902307124391  0.0709507013658168
  0.3382767026578080  0.3225197351421158  0.6610643406238452
  0.2593542344961222  0.3934784606866017  0.7382828123846465
  0.1665295538021425  0.5118050299926153  0.8551169476744178
  0.0999930532484328  0.6012201471945389  0.9381770178110003
  0.9966085788113688  0.6620113482834995  0.0101258370247308
  0.8918088533591728  0.7471035414359548  0.0588612112403126
  0.8247389142672574  0.8390047965116310  0.1711913662790678
  0.7671983301033620  0.9057029724990784  0.2574486401808755
  0.6750648620339632  0.9869808988556628  0.3546553852897745
  0.5780874760059049  0.0649568867663319  0.4145518498523444
  0.5233762938353621  0.1463217672572910  0.4992926739571786
  0.4300011835548148  0.2410918807678115  0.5883471825396853
  0.3864788828903656  0.2470951896456270  0.7353032396640842
  0.3361311835548193  0.3207085017534155  0.8545619006090774
  0.2609074686231097  0.4087429641934293  0.9061108554817281
  0.1856870768733856  0.4844913122923558  0.0113912287744569
  0.1067955744739777  0.6000148578811348  0.0882627583979314
  0.9978949940014772  0.6715925263012181  0.1509667303432991
  0.9094614470284270  0.7702878229974175  0.2438647785160555
  0.8385625023071270  0.8132013395164250  0.3440424289405684
  0.7656917963270544  0.9124563002953110  0.4473702537836814
  0.6676422526762664  0.9900332830380236  0.4959395062753771
  0.5802763058324132  0.0712767289590275  0.6058001444259844
  0.5083716809708392  0.1750089719453669  0.6674109749907728
  0.4753508840900693  0.1737981243078650  0.8035740693060163
  0.4048776979512709  0.2421249455518648  0.8970210086747841
  0.3490059159283874  0.3400901245847194  0.0204382392026545
  0.2473643696936136  0.4161632290513069  0.0862844938169047
  0.1794224935400521  0.4927301504245136  0.1647115803802137
  0.0823162859911406  0.5615009099298618  0.2501256902916182
  0.0129401227390176  0.6782832175156912  0.3189631215393121
  0.9016289973237335  0.7336815937615384  0.4150203839054996
  0.8374465757659664  0.8186858803986681  0.5157973145071963
  0.7626602025655203  0.9190148878737574  0.5935899557032087
  0.6678161618678473  0.9922403516057585  0.6606529014396472
  0.5587179572720586  0.0657475784422275  0.7503913741232893
  0.5710339433370279  0.0809423380398684  0.8905199289405701
  0.4919373786452539  0.1469530873938751  0.9690689899409364
  0.4168711351052039  0.2631453848283485  0.0839045907161307
  0.3615747882059779  0.3448782350498334  0.1841735797342210
  0.2497372817460288  0.4079484809892975  0.2807424736987798
  0.1270252990033214  0.5015983647102260  0.3285331224621615
  0.0711764341085299  0.5915471359357696  0.4129907802694746
  0.9969536106496832  0.6583123763381309  0.5011868387781462
  0.9256102648578803  0.7515940780730901  0.5944977865448493
  0.8370466874307851  0.8310620307308980  0.6931624603174598
  0.7595553336101872  0.9170056718346231  0.7478654512735332
  0.6660430717054240  0.9996476568844557  0.8403196151716514
  0.6617874921557743  0.0235331875230713  0.9701655961609461
  0.5937632364341070  0.0785717935585097  0.0786967654115927
  0.5154773278885187  0.1688608993170888  0.1595532355112610
  0.4252875830564804  0.2337452897748236  0.2711492100406048
  0.3472269739756371  0.3225437938353650  0.3344533222591366
  0.2306481561461808  0.3941275936692534  0.4109797180693988
  0.1208857844222990  0.4921585354374329  0.5034599630860086
  0.0634812047803592  0.5822821839239580  0.5829781173864887
  0.0041078875969021  0.6702979784976009  0.6644086226467323
  0.9049246576227361  0.7066620127353289  0.7580513099852340
  0.8414041122185338  0.8414562610741996  0.8203718516980416
  0.7438577943890721  0.9269208480989306  0.9210115120893292
  0.7530278197674392  0.9280202487080089  0.0648856875230734
  0.6608789936323376  0.0120795814876331  0.1557144785898856
  0.6128985566629765  0.0633584094684352  0.2520511300295283
  0.4981679374307859  0.1360540356220028  0.3420533065706906
  0.4381198698781859  0.2523822729789558  0.4428464055001839
  0.3389819342930949  0.3340810626614967  0.4982968180140261
  0.2272811489479523  0.3875555394056818  0.5605095044296817
  0.1544374506275403  0.5173294043004830  0.6747164631782923
  0.0709764747139161  0.5888962246216281  0.7625430943152480
  0.0036888768918431  0.6429241625138431  0.8454832830380212
  0.9027554231266137  0.7389474552417852  0.9084180352528577
  0.8480454614248814  0.8568042271133223  0.9969723989479533
  0.4148339982465856  0.3997448864894793  0.5843560700442936
  0.3179781459948288  0.4819808337947578  0.6488795247323722
  0.2600351979512752  0.5881493655407866  0.7498277320967119
  0.1616717852528637  0.6426379051310462  0.8366353926725694
  0.0867884186969334  0.7618344472129905  0.9520345205795522
  0.9701492123477280  0.8202077971576216  0.0011474792358825
  0.9067024363233642  0.9173804794204514  0.0890532078257635
  0.8278869952011831  0.0121444084533024  0.1472153585271343
  0.7415354895717954  0.0959866735880368  0.2348370136581792
  0.6568012075489094  0.1722446068660020  0.3242665383905532
  0.5767980883167212  0.2656033439461041  0.4145010072905109
  0.5161543184754507  0.3428819412144719  0.5048898025101494
  0.5006358591731299  0.3214459173126585  0.6702296068660019
  0.4068982193613877  0.3936637532299727  0.7445491671280919
  0.3276638196751591  0.5011874497046875  0.8252964807124386
  0.2654585377445571  0.6081294495201206  0.9218940190107077
  0.1983416131413804  0.6614607415097851  0.0275102316352900
  0.0842804761904787  0.7644436614064247  0.0549564996308618
  0.9861192654115882  0.8345461969361381  0.1539035285160608
  0.9009949317091213  0.9210922794389091  0.2403322577519376
  0.8196843761535604  0.9934807825765972  0.3220268074012580
  0.7610853631413832  0.0856587481543016  0.4101988750461416
  0.6770374003322246  0.1339917224990756  0.4718939945551881
  0.5935442469545933  0.2354420302694749  0.5644940457733512
  0.5859915863787393  0.2456290406976720  0.7476240083979349
  0.4869628068475436  0.3434207941122196  0.8219227810077498
  0.4095094075304573  0.4252573938722790  0.9132230283314868
  0.3402904245108900  0.4986827971576204  0.9910054351236610
  0.2616369135289744  0.5790915610003680  0.0970377274824656
  0.1667127030269455  0.6671875392211177  0.1703188404392790
  0.0960772360649713  0.7439402307124396  0.2222662453857538
  0.0171118489294955  0.8356898897194540  0.3117724940014739
  0.9216139124215559  0.9160655066445216  0.3861625586009581
  0.8562967861757116  0.0088680823182017  0.4922912859911435
  0.7553474035621974  0.0827990905315588  0.5778677976190494
  0.6868481722960524  0.1438541422111470  0.6835369043004818
  0.6466729258951673  0.1616773241971217  0.8125711724806166
  0.5929661927833152  0.2327641611295661  0.9248473297342201
  0.4851913828903633  0.3180917294204519  0.0067710728128461
  0.4537355550941271  0.4278781256921391  0.1011472222222238
  0.3497084902177932  0.4886035299003311  0.1841702560908089
  0.2488300733665554  0.5805736803248465  0.2550953894426016
  0.1450160995754857  0.6500698062015502  0.3172676582687330
  0.0944016283684022  0.7621564687153963  0.4225005887781492
  0.0013601601144302  0.8396439133444105  0.4867304646548547
  0.9223921040974545  0.9086425876707267  0.5995428982096698
  0.8433474483204151  0.0151120445736410  0.6744564142672544
  0.7659979448135843  0.0763826601144331  0.7618319513658207
  0.7693350968992263  0.1091455421742324  0.9115490997600588
  0.6534827141011448  0.1663980864710197  0.0037730643226297
  0.5690588270579582  0.2380698417312672  0.0697863127537843
  0.4961545348837220  0.3105880574012545  0.1865157968807694
  0.4569791606681406  0.4183430454042067  0.2586720777962341
  0.3188422651347338  0.4927477394795119  0.3410313122923583
  0.2088670616463659  0.5683139225729050  0.4236912864525664
  0.1437217760243641  0.6817624750830547  0.5015816094499783
  0.0590320690291648  0.7719828935954212  0.5831456395348837
  0.0061722083794749  0.8522824257105910  0.6873736604835727
  0.9303550429125167  0.9398922799003344  0.7438537218530854
  0.8467241680509403  0.0132964271871572  0.8506178875968970
  0.8483843595422655  0.0340687703026958  0.0064986997046859
  0.7512673984865259  0.1054487772240691  0.0766155615540782
  0.6500405643226301  0.1705936383351769  0.1712226850313741
  0.5735251467331111  0.2331153566814308  0.2550485751199716
  0.5071289627168696  0.3236746654669602  0.3465578972868215
  0.4338934140826893  0.4210026647286824  0.4081359191583616
  0.3206005523255797  0.4741649630860110  0.5031967967884796
  0.2352218613879629  0.5736836766334434  0.5839736697120728
  0.1568574095607218  0.6511142049649337  0.6804523034330003
  0.0962132775009223  0.7523524557032104  0.7594639820967117
  0.0019709519195246  0.8307375645994810  0.8272969075304530
  0.9277738026024380  0.9378335977297922  0.9107589318014035
 
  0.00000000E+00  0.00000000E+00  0.00000000E+00
  0.00000000E+00  0.00000000E+00  0.00000000E+00
  0.00000000E+00  0.00000000E+00  0.00000000E+00
  0.00000000E+00  0.00000000E+00  0.00000000E+00
  0.00000000E+00  0.00000000E+00  0.00000000E+00
  0.00000000E+00  0.00000000E+00  0.00000000E+00
  0.00000000E+00  0.00000000E+00  0.00000000E+00
  0.00000000E+00  0.00000000E+00  0.00000000E+00
  0.00000000E+00  0.00000000E+00  0.00000000E+00
  0.00000000E+00  0.00000000E+00  0.00000000E+00
  0.00000000E+00  0.00000000E+00  0.00000000E+00
  0.00000000E+00  0.00000000E+00  0.00000000E+00
  0.00000000E+00  0.00000000E+00  0.00000000E+00
  0.00000000E+00  0.00000000E+00  0.00000000E+00
  0.00000000E+00  0.00000000E+00  0.00000000E+00
  0.00000000E+00  0.00000000E+00  0.00000000E+00
  0.00000000E+00  0.00000000E+00  0.00000000E+00
  0.00000000E+00  0.00000000E+00  0.00000000E+00
  0.00000000E+00  0.00000000E+00  0.00000000E+00
  0.00000000E+00  0.00000000E+00  0.00000000E+00
  0.00000000E+00  0.00000000E+00  0.00000000E+00
  0.00000000E+00  0.00000000E+00  0.00000000E+00
  0.00000000E+00  0.00000000E+00  0.00000000E+00
  0.00000000E+00  0.00000000E+00  0.00000000E+00
  0.00000000E+00  0.00000000E+00  0.00000000E+00
  0.00000000E+00  0.00000000E+00  0.00000000E+00
  0.00000000E+00  0.00000000E+00  0.00000000E+00
  0.00000000E+00  0.00000000E+00  0.00000000E+00
  0.00000000E+00  0.00000000E+00  0.00000000E+00
  0.00000000E+00  0.00000000E+00  0.00000000E+00
  0.00000000E+00  0.00000000E+00  0.00000000E+00
  0.00000000E+00  0.00000000E+00  0.00000000E+00
  0.00000000E+00  0.00000000E+00  0.00000000E+00
  0.00000000E+00  0.00000000E+00  0.00000000E+00
  0.00000000E+00  0.00000000E+00  0.00000000E+00
  0.00000000E+00  0.00000000E+00  0.00000000E+00
  0.00000000E+00  0.00000000E+00  0.00000000E+00
  0.00000000E+00  0.00000000E+00  0.00000000E+00
  0.00000000E+00  0.00000000E+00  0.00000000E+00
  0.00000000E+00  0.00000000E+00  0.00000000E+00
  0.00000000E+00  0.00000000E+00  0.00000000E+00
  0.00000000E+00  0.00000000E+00  0.00000000E+00
  0.00000000E+00  0.00000000E+00  0.00000000E+00
  0.00000000E+00  0.00000000E+00  0.00000000E+00
  0.00000000E+00  0.00000000E+00  0.00000000E+00
  0.00000000E+00  0.00000000E+00  0.00000000E+00
  0.00000000E+00  0.00000000E+00  0.00000000E+00
  0.00000000E+00  0.00000000E+00  0.00000000E+00
  0.00000000E+00  0.00000000E+00  0.00000000E+00
  0.00000000E+00  0.00000000E+00  0.00000000E+00
  0.00000000E+00  0.00000000E+00  0.00000000E+00
  0.00000000E+00  0.00000000E+00  0.00000000E+00
  0.00000000E+00  0.00000000E+00  0.00000000E+00
  0.00000000E+00  0.00000000E+00  0.00000000E+00
  0.00000000E+00  0.00000000E+00  0.00000000E+00
  0.00000000E+00  0.00000000E+00  0.00000000E+00
  0.00000000E+00  0.00000000E+00  0.00000000E+00
  0.00000000E+00  0.00000000E+00  0.00000000E+00
  0.00000000E+00  0.00000000E+00  0.00000000E+00
  0.00000000E+00  0.00000000E+00  0.00000000E+00
  0.00000000E+00  0.00000000E+00  0.00000000E+00
  0.00000000E+00  0.00000000E+00  0.00000000E+00
  0.00000000E+00  0.00000000E+00  0.00000000E+00
  0.00000000E+00  0.00000000E+00  0.00000000E+00
  0.00000000E+00  0.00000000E+00  0.00000000E+00
  0.00000000E+00  0.00000000E+00  0.00000000E+00
  0.00000000E+00  0.00000000E+00  0.00000000E+00
  0.00000000E+00  0.00000000E+00  0.00000000E+00