Li 
 1.0000000000000000
    21.6720000000000006    0.0000000000000000    0.0000000000000000
     0.0000000000000000   21.6720000000000006    0.0000000000000000
     0.0000000000000000    0.0000000000000000   21.6720000000000006
 Li 
 432
Cartesian
 -0.4035104500000000  0.0915745300000000  0.3441377400000000
 19.8469044799999992  2.2739710099999999  1.9466813900000000
 17.9907202400000017  3.7318168599999999  3.7275573600000000
 16.0416461999999989  5.7513354899999998  4.9772469900000003
 14.3159100200000005  7.5490928500000001  7.1196780700000000
 13.1491637000000008  9.1136891400000000  8.9832594100000005
 10.9986932900000003 10.9736277900000001 10.9024597399999994
  8.8165571899999993 12.3558512799999995 12.2634494099999998
  6.9193696100000004 14.2753285400000003 13.9419426600000005
  5.3232806899999998 15.8827217199999993 15.9599131500000002
  3.4112244100000000 17.9132136899999992 18.0108841300000009
  1.2120719200000001 19.9787320900000012 19.9923533400000011
  1.1090511700000001 19.5154357199999993  1.2767073600000001
 -0.0424856100000000  0.1622178900000000  3.6127436099999999
 19.8260545400000012  1.8318395599999999  5.4695455199999996
 17.9392042600000003  3.7631592199999999  6.9069784900000002
 16.4085261100000004  5.8548774300000002  8.7012833900000004
 14.5913871600000000  7.4396619599999996 10.4731542399999995
 12.8118648900000007  9.0814028400000009 12.6929016499999996
 10.9664109500000002 10.2808664800000003 14.3487452199999996
  9.1178440199999997 12.6315188999999997 16.1589064700000016
  6.9830841200000000 14.8507640700000003 17.8490337500000003
  5.3391500799999996 15.7773930599999996 19.7544637899999991
  3.8007268700000001 18.5617553800000010 -0.1761357200000000
  3.4690932100000000 18.2677140999999992  3.2673851599999999
  2.0206297300000000 19.7276951700000005  5.1428398299999998
  0.1317896600000000 -0.1582402800000000  6.5124446300000001
 20.1561863499999987  1.9427636300000000  8.8747984100000004
 17.8110223999999988  3.8569653100000001 10.6215063700000005
 16.2766558199999984  5.5378045800000004 12.3469287199999993
 14.2917041000000005  7.0652254799999996 13.8303093700000002
 12.5045974999999991  9.3823176999999998 16.4437767100000016
 11.1021729199999992 10.9582542899999993 18.0712612499999992
  9.0401644799999996 12.5906117700000006 19.7440445599999990
  7.4290750499999998 14.3825833999999997 21.7082278399999993
  5.2384674100000002 16.3471457999999998  1.9480351300000001
  4.9410749500000000 16.4535608400000015  5.3937577699999997
  3.8888554200000001 18.2774846000000011  7.0667332199999997
  1.7855087800000000 20.0892578300000011  8.9008032099999994
  0.1355920300000000  0.2280218100000000 10.7933523200000003
 19.8109615099999985  1.4741945500000000 12.3628886999999992
 18.3429096399999985  3.6193008700000000 14.2319672300000004
 16.4667862099999986  5.1921846699999996 16.5516307599999983
 13.8299438800000001  7.0052708700000004 18.1970216399999991
 12.3160542599999996  8.8496643499999994 19.5885281400000011
 11.0050099400000008 10.6780680900000000  0.0201466100000000
  9.1407552600000006 12.9212762300000001  1.9926229099999999
  6.7170917200000000 14.6903562900000004  4.1032856500000001
  6.8123198699999996 14.3332836300000004  7.2385303600000004
  5.1653990399999996 16.3303922399999983  8.7339329100000000
  3.4535519200000002 18.2012530300000002 11.1184875800000000
  1.5110161200000001 19.5592396199999996 12.6264039199999996
  0.2894081400000000  0.6460063500000000 14.4401977899999991
 19.7471486799999987  1.9114786600000000 16.0407629599999986
 18.4741825800000008  3.6931479800000000 18.1563075800000000
 15.5560898499999993  5.5041395399999997 19.5106346500000001
 14.1406501299999992  7.1177102000000003 -0.1605563700000000
 12.6811801699999993  8.6998925600000003  2.0307180300000001
 11.3615613500000006 11.3819960400000006  3.7715233300000000
  9.4668605299999999 12.5437902799999996  5.2501098199999996
  9.0064071400000003 12.4454247700000007  9.2279247499999997
  6.9517884099999998 14.6704818899999996 10.5297156600000008
  4.8017779400000000 15.8911730900000006 12.8129710699999997
  3.3537376999999999 18.3013772400000008 14.3028118200000005
  1.5079949399999999 19.8650911999999984 16.3145028600000010
 -0.2973307000000000  0.0675561400000000 17.7854020000000013
 20.4014375699999988  2.3455107000000002 20.0071522199999983
 18.0260915100000005  4.1832434799999998 21.4929666700000013
 16.1824217200000007  5.4320615900000000  1.4030359400000001
 13.9011285400000002  7.1944973699999997  3.3882159199999999
 12.7252215799999995  9.1925808199999999  5.7430814400000001
 11.0551610599999997 11.1252995000000006  7.2998462200000001
  0.6494010200000000  1.6185013699999999 20.4185587599999998
 -0.4192968800000000  3.8081315899999999  0.5581286800000000
 19.8858565499999997  6.0136690399999999  1.8832136900000001
 18.0912257600000004  7.6000466800000002  3.5111821100000000
 16.0736962199999986  9.1899456700000002  5.1643734800000001
 14.5936682900000001 11.3546610700000006  6.6924887599999998
 12.7456696500000000 13.0449421200000000  9.2986771499999996
 10.9835298199999993 14.5808999700000008 10.7076402300000009
  8.6174431100000000 16.5543111900000000 12.8244112300000008
  6.7057003999999996 17.8308424599999995 14.7028207999999996
  5.2071837800000003 19.7890127000000007 16.4163407200000009
  3.4167242600000001  0.2969173300000000 18.1217643099999997
  3.5307537999999998 -0.0416181500000000  0.1684946500000000
  1.1690560500000000  2.1772322700000002  1.8217095800000001
 -0.0162727700000000  4.1241619900000002  3.5795263300000002
 19.6617834900000013  6.0296140200000004  5.8550582799999997
 17.8151181299999983  7.9622992100000003  7.4287281299999997
 16.1822183399999986  9.2827426200000005  9.0637264500000008
 15.0272918700000009 10.8500952999999996 11.0229778300000003
 12.4416719699999998 12.7604964200000008 12.9272354200000006
 10.4975317100000005 15.0020682000000001 14.4718340699999999
  9.0860646099999993 16.7554931700000012 16.2330253099999986
  7.2082492100000000 17.5505155299999984 18.3735207000000003
  5.2647163299999997 20.3467328899999984 19.4730930600000001
  5.4106611300000003 19.8703848299999990  1.7394018800000000
  3.1651603900000000  0.1582519400000000  3.1956809399999999
  1.9004588099999999  2.0451581100000000  5.2721337899999998
 -0.0506073900000000  3.3852629599999999  7.2830373599999998
 20.0772746499999997  5.6747201499999997  8.9356689399999993
 17.9945049099999999  7.0241292299999998 11.1350515399999992
 16.4209703800000000  9.4716145600000008 12.7557737699999993
 14.7497879199999993 10.6132651300000003 14.9962634700000006
 12.4460402299999995 12.9499624000000004 16.3152326800000012
 10.6302526999999998 15.1939236399999995 18.0300616900000001
  9.1708522200000004 16.2630836199999997 20.0320088399999996
  6.6342659599999996 17.9432994599999986 21.7529497200000002
  6.7246855800000001 18.1834775200000003  2.9514636500000000
  5.0207526600000003 20.1040834000000004  4.9679962000000000
  3.4044432900000001 -0.1670235100000000  7.2098103000000000
  1.7670306099999999  2.1007324500000002  8.8658308500000000
  0.2849458300000000  3.4193692200000001 10.9150434300000008
 20.6454431599999992  5.4166374800000003 12.7568829099999999
 17.6100575399999997  7.2108619300000001 14.1429614400000006
 16.1828658899999986  8.3847455300000000 16.3918377200000016
 14.4087019000000005 10.8955747100000000 17.7230125600000008
 12.5816767699999996 13.0027047200000005 19.6299822299999995
 11.0805790999999996 14.8590274900000008 21.6242717199999994
  9.2341311299999997 16.3419997499999994  1.6303581899999999
  8.4542097399999996 16.4199969900000013  5.2766200500000000
  7.1151571599999999 18.5620653000000004  7.1129416100000000
  5.3363259799999998 20.1345175099999985  9.4726229899999996
  3.2529138500000001  0.0200175100000000 10.8992484300000001
  2.4136200600000000  1.6998072900000001 13.3682755699999998
 -0.0941322100000000  3.7887579400000000 14.5745212399999993
 20.4981594200000004  6.0142957499999996 16.0580800299999993
 18.4067082699999993  7.0339187399999998 18.2518253399999999
 16.4110230799999997  8.4212415899999993 19.7525917799999995
 14.0336669700000005 10.7164844299999995 21.5215470700000004
 12.3015995199999999 12.9655833299999994  2.0452960899999999
 10.6872785900000000 15.1238535100000000  3.3498478500000002
 10.3480863299999992 13.8490934299999999  7.6545891900000003
  9.0749201700000004 15.9824158300000008  8.8219825499999995
  6.6938957900000000 18.0037782300000018 10.9207736900000008
  5.5943055199999998 19.9534276099999985 12.7482718599999991
  3.4492792200000002 -0.0278491000000000 14.3920956400000009
  1.6134783200000000  1.4499685300000000 16.7764000899999992
 -0.1507861700000000  3.8978879399999999 17.8245580100000005
 20.2823038199999992  5.8676568099999997 19.9465861500000017
 18.5867253699999999  7.3665842599999998 21.4184282699999997
 16.2870162000000001  8.4115360599999995  1.9154823100000000
 14.4260701800000000 10.9848058000000002  3.3455983400000000
 12.8569101499999991 13.3310578599999996  5.4140789199999997
  3.2246630500000002  3.6534679500000000 18.7196250400000004
  1.5452122600000000  5.0897864200000003 19.7664571199999983
  0.0058967100000000  7.5062688399999997 -0.4272894500000000
 20.5888342599999987  8.9852423199999993  1.6567148899999999
 18.2811628400000004 10.8250078799999994  3.4819477600000002
 16.5356001100000007 12.6276009100000000  5.1649147800000001
 14.6139556699999993 14.7033216099999997  7.5202277200000003
 12.5947459700000000 16.4862516799999987  9.0254156099999996
 10.9359678200000001 17.7412378000000004 11.3419049399999992
  8.4482818999999996 19.6083831199999992 12.1387975600000004
  6.6564253400000002 21.3297992100000009 14.4018399099999996
  5.1542698800000002  1.7660854800000001 16.1000559400000007
  5.2617928899999997  2.1266716699999999 20.0261212099999995
  3.5436544400000001  3.6073166200000002  0.3432370400000000
  1.6249591699999999  5.6226434899999997  1.5558605299999999
  0.3644009400000000  7.4133614899999998  3.7651816600000001
 20.2569319400000012  8.7962383499999994  5.6646751399999999
 18.7317686600000002 10.9316937299999992  7.5093061399999996
 17.1082169600000000 12.7791322500000000  9.2344614400000005
 14.8504141000000001 14.4772866199999992 10.6156287999999996
 12.9874448900000008 16.0712382299999987 12.7747338100000007
 11.0919030099999993 18.3624059300000013 14.7635335399999992
  9.1025088200000006 19.0267070800000013 16.6199246199999990
  6.8197524899999999 21.8260283599999987 18.0743228800000004
  6.7297103199999997  0.2067171100000000 -0.3689832400000000
  4.9934884999999998  2.0571552600000000  1.9964279599999999
  3.1395694999999999  3.7272398600000001  3.4978039999999999
  1.0216354700000001  5.5585631900000001  5.3912511199999997
  0.0649656600000000  7.5358660999999998  7.0812239999999997
 19.8861831000000002  8.4897439299999995  9.6741660599999992
 18.1571177199999987 10.5623607100000001 10.8617325999999998
 16.2392308999999990 12.6316140699999995 12.6076710900000002
 14.6703069100000008 14.1373877100000005 14.8273545799999997
 12.8885196799999999 16.3191926999999986 16.4886344399999984
 10.8846259300000003 18.4682767500000011 17.8269459599999998
  8.8032231400000001 19.9965723900000008 20.2071135999999996
  8.7616659099999996 20.3519887799999992  1.6513301400000000
  7.0349076200000003 -0.0072167200000000  3.8444516599999998
  5.5306298399999996  1.8020377599999999  5.1067286799999998
  3.1544001100000001  3.8135718299999999  6.4984054799999997
  2.1041739900000000  4.9581527100000002  8.3969558899999992
  0.0736915200000000  7.0913974199999998 10.9168139899999996
 20.4092007899999999  8.9994662900000009 12.6149395700000007
 18.2941484900000013 10.5714452199999993 15.0023936300000003
 16.2132061699999994 12.8007123200000006 16.3719672600000017
 14.4692944899999993 14.5527451499999998 17.9881263500000017
 12.5809901100000001 17.0235257500000010 19.8370580399999987
 10.3893218699999998 18.4994732699999993 22.3309530699999996
 11.3712744099999998 17.9588459399999998  3.2488294999999998
  9.1440857399999995 19.6712022699999984  4.9556138299999999
  7.3692992400000001 -0.0879575600000000  6.9750413399999998
  4.8353423900000001  1.9115530400000000  8.8063802199999994
  3.7700167499999999  3.2266389499999999 11.0577523600000003
  1.8858915599999999  5.4622790800000001 12.5369231100000000
  0.3164793900000000  7.2341616699999998 14.3679899300000002
 20.4180085099999999  8.2904976599999998 16.3156444799999996
 18.5642482700000002 10.3083498599999999 17.7371635099999985
 16.3212503600000005 12.2222070699999996 19.5952595599999988
 14.4618365200000003 14.3495408999999992 21.3875525599999996
 12.3743721400000002 16.2354399899999997  1.4211369599999999
 12.6141015799999998 16.0237958700000007  5.6374348799999998
 10.7306850399999991 18.0401728000000006  7.1882581400000003
  9.1813097199999998 19.4964968399999989  9.4097865600000006
  7.2027747499999997  0.1008645900000000 10.3634109999999993
  5.4817175499999999  1.8518670399999999 12.4984080599999992
  3.3790257399999999  3.4783133300000002 14.4453209099999995
  2.2181826999999998  5.6018877299999996 16.3405133800000009
  0.5321316600000000  7.2208616100000000 17.9759804199999991
 20.9594261099999990  9.0553220200000002 20.2553698900000008
 18.1622431000000013 10.3585258600000003 21.8089430799999988
 16.4151477099999994 12.3896732699999994  1.8930358500000000
 14.6056004700000006 14.6914296300000000  3.5808955400000002
  5.3907827900000003  5.2250879899999996 16.3153969299999986
  4.2288572999999996  6.5008288399999996 18.3456314599999999
  2.0391620900000000  9.1678164599999992 20.1859116699999994
  0.2402678300000000 11.1200737499999995  0.9418965800000000
 19.7947106999999995 12.3639505900000000  1.7709998100000000
 17.8824727299999999 14.6294991900000007  3.5288993700000000
 16.7526874600000006 16.4147531800000017  5.4790124899999997
 14.3450645300000001 18.0911766400000005  6.9984571500000001
 12.6446300699999998 19.6069103499999997  9.0314554200000003
 10.8433438599999992 -0.2744486600000000 10.9953126200000000
  8.5575947299999999  1.3993551700000000 12.6441693199999996
  7.1831561199999996  3.7726791799999999 14.1952327700000005
  7.2768405300000003  3.5953330200000000 17.8266672200000009
  5.8298562000000000  5.1736297599999999 20.3531722899999998
  3.5576346499999998  7.4187589999999997  0.0975323600000000
  2.2855612199999999  8.9526309499999996  2.0766587500000000
  0.4756090900000000 10.9969009399999997  3.7745524300000000
 19.5843489099999992 13.0501093200000007  5.5062510900000001
 18.2650212500000002 14.5422712000000001  7.3632499700000000
 16.3071611899999986 16.3041942499999983  9.5548463699999999
 14.4785043899999994 18.4602066399999991 10.7431468500000005
 12.5884824399999999 20.2608753899999989 12.6395783799999997
 10.4282238899999999 21.2978873600000007 14.4845480099999993
  8.8493086800000000  1.8717269700000001 15.8726242699999993
  8.9152893199999994  2.0531689300000000 19.8529882499999992
  7.2885242999999997  3.2304816800000000 -0.1271323900000000
  5.7706825600000000  5.0785353700000000  1.4496790399999999
  4.4785794599999997  7.1303142700000004  3.7549995599999999
  1.9558779200000000  8.8504857799999996  4.9144555099999998
  0.3963717300000000 10.8176230600000007  7.6035883000000002
 20.1488408800000016 12.3864386100000008  9.3919726800000003
 18.3032204999999983 14.0880370599999996 11.2141778700000003
 16.2990033300000015 16.3787582699999987 12.9114559399999997
 14.3270273499999998 18.6474260899999997 14.5979358599999998
 12.7864399300000002 20.1091600700000015 16.5977824100000007
 10.4231354700000001  0.0692045900000000 18.2321323299999989
 10.6339806800000005  0.3241509800000000 -0.6148409300000000
  8.7204196599999992  1.6357105100000000  1.5212669000000001
  7.1880402200000004  3.6457809600000002  3.4135645800000001
  5.6866262699999996  5.1429124699999997  5.4202416600000003
  3.3626676000000000  6.7425689200000001  7.2464363499999997
  1.3951000600000001  8.6374594400000007  8.9525191399999997
  0.4384504900000000 10.5595744000000007 10.7476949400000006
 19.8934536699999995 12.0651574700000008 13.2746844399999997
 18.2540207899999984 13.9107239499999995 14.1193042999999996
 16.0199533599999988 15.6899273200000007 16.3297815399999990
 15.0281679100000005 17.7569446299999996 18.1131254199999994
 12.6117083900000004 19.5658284100000017 19.8356140799999991
 12.7697964400000004 20.3060248399999992  1.6085181399999999
 11.1332111299999994  0.0646686200000000  3.0639900899999999
  9.0458358899999993  1.5800900300000000  4.6757867600000003
  7.7163705000000000  3.3778755700000000  7.3003472000000000
  5.6749322299999996  4.9287072700000003  8.7949013399999991
  3.4057579200000001  7.0936594499999996 10.6332559500000006
  1.7343585900000000  9.0390219799999993 12.9642983899999997
 -0.0701841700000000 10.5641031900000009 14.6915030899999994
 19.9009183000000007 13.0091000399999999 16.7837532600000010
 17.7898373200000002 14.5317246499999992 18.3401224300000010
 16.3402210600000011 16.5419976599999998 19.8299726099999987
 14.6269297300000005 18.2805135400000012 -0.1414791600000000
 14.1492348299999993 18.1203138599999996  3.8314590499999999
 12.6895376100000004 19.9437170399999992  5.4776627299999996
 10.7104954600000006 -0.0728446700000000  7.1235402299999997
  9.2315243299999992  1.8206623600000000  9.3659943600000002
  7.8602706600000003  3.1665885199999999 10.9913469300000006
  5.2013322899999999  5.2944115099999998 12.5925923500000003
  3.8168399399999999  6.8204140200000003 14.4891521900000004
  2.0159536600000001  8.7438516199999992 16.8367216999999982
  0.2408557800000000 10.6919266400000001 18.4915143399999984
 19.9197358199999996 12.2938635800000000 20.1744808700000000
 17.3211665500000009 14.1986893599999995  0.0424724800000000
 16.3665301899999989 16.5073506799999983  1.5376436000000000
  7.3311327000000004  6.9896476999999999 14.3265863899999992
  5.6207249700000004  8.5274652000000000 16.0000651100000013
  3.6090284900000000 11.0918386099999999 18.5320944899999986
  2.1670494499999999 13.0296430300000008 20.3321723299999988
 -0.0734988800000000 14.3471099399999993  0.2194471400000000
 19.3272814699999991 16.1912279499999983  1.2756401700000000
 17.8737417500000006 18.1829119500000012  3.7100592899999998
 16.6267222100000005 19.6283948200000005  5.5794269300000003
 14.6300056900000008 -0.2821499600000000  7.6860915099999998
 12.5283117799999992  1.4077456500000001  8.9841676899999996
 11.3426110399999995  3.1710853399999999 10.8206708299999992
  9.3189856500000001  5.2249432400000000 12.7506601400000008
  8.3757703499999998  5.3550469500000002 15.9354918100000003
  7.2846350099999997  6.9503946499999998 18.5200655099999985
  5.6543866600000001  8.8582775199999997 19.6372344599999984
  4.0242103299999998 10.4998957199999996  0.2468707100000000
  2.3144736899999998 13.0035220000000002  1.9128305000000001
 -0.0456196900000000 14.5547532299999993  3.2717509800000002
 19.7098484800000016 16.6936776999999985  5.2850374799999997
 18.1733265499999987 17.6236994299999985  7.4560875199999996
 16.5940726100000013 19.7747529399999991  9.6954081399999996
 14.4691428999999996 -0.2159986900000000 10.7480009800000005
 12.5757481000000002  1.5447092700000000 13.1289007299999998
 11.0174310700000007  3.7927944400000002 14.4641306499999995
 10.3018043600000002  3.7665529499999999 17.4150572299999986
  8.7745094699999999  5.2473318200000003 19.4402392999999982
  7.5636562100000004  7.3704331800000000  0.4429375200000000
  5.3608806199999997  9.0190894999999998  1.8699575500000001
  3.8884442799999999 10.6784478200000006  3.5696293699999999
  1.7839585499999999 12.1688477200000005  5.4207239600000001
  0.2804383400000000 14.6997538900000002  6.9125687700000000
 19.5401036300000008 15.9003475000000005  8.9943217600000001
 18.1491421899999992 17.7425603999999986 11.1783593999999997
 16.5283719100000006 19.9168906499999991 12.8642815200000005
 14.4729118600000000 -0.1681671000000000 14.3176696799999998
 12.1085355700000008  1.4248815200000000 16.2624818600000012
 12.3754476199999992  1.7541823500000000 19.2993479000000008
 10.6612668700000004  3.1847673099999998 -0.6703368500000000
  9.0344312400000000  5.7028867800000000  1.8183802899999999
  7.8360488100000003  7.4742011100000001  3.9914098199999999
  5.4123063699999996  8.8410594800000002  6.0842508899999999
  2.7528922800000002 10.8706397599999995  7.1199698299999996
  1.5425356800000001 12.8200095300000001  8.9503361899999998
 -0.0660213500000000 14.2669458200000001 10.8617211699999991
 20.0598256600000013 16.2885468600000003 12.8839560300000002
 18.1404758100000016 18.0107763299999988 15.0222168400000005
 16.4610831900000001 19.8733469199999995 16.2077400599999990
 14.4344854500000004 -0.0076359800000000 18.2114067000000013
 14.3422585300000005  0.5100112400000000 -0.6465712000000000
 12.8680368600000001  1.7028079100000000  1.7055163000000000
 11.1714246500000005  3.6595534100000000  3.4578377200000001
  9.2168325000000006  5.0657279199999996  5.8763456800000000
  7.5251029799999998  6.9901691000000001  7.2482724000000003
  4.9986068399999999  8.5415332100000008  8.9067524500000008
  2.6198367199999999 10.6660597799999994 10.9109843200000007
  1.3757646699999999 12.6192194900000008 12.6343017599999996
  0.0890261400000000 14.5266977900000001 14.3990636700000003
 19.6115271799999995 15.3147791400000006 16.4284879900000007
 18.2349099199999998 18.2360400899999995 17.7790987700000009
 16.1208861200000015 20.0882286199999989 19.9601614900000008
 16.3196189099999991 20.1120548300000017  1.4062026200000000
 14.3225695500000008  0.2617886900000000  3.3746441800000002
 13.2827375199999995  1.3731034499999999  5.4624520900000002
 10.7962955399999991  2.9485630600000001  7.4129792600000002
  9.4949338200000000  5.4696286199999999  9.5973673000000002
  7.3464164800000002  7.2402047899999999 10.7990886400000008
  4.9256370599999997  8.3991036500000007 12.1473619799999994
  3.3469684300000000 11.2115628500000000 14.6224551900000002
  1.5382021600000000 12.7625589799999997 16.5258339399999983
  0.0799453400000000 13.9334524500000008 18.3233137100000008
 19.5645155300000013 16.0144692500000012 19.6872356599999989
 18.3788412399999999 18.5686612099999984 -0.0656141700000000
  8.9902824100000007  8.6632711800000006 12.6641647499999994
  6.8912223800000003 10.4454886299999998 14.0625170599999993
  5.6354828100000001 12.7463730500000008 16.2502666100000006
  3.5037509299999998 13.9272486799999999 18.1315622300000001
  1.8808786099999999 16.5104761400000015 20.6324921299999993
 -0.6469262700000000 17.7755433799999985  0.0248681700000000
 19.6500552000000006 19.8814697500000008  1.9299611200000000
 17.9419669599999985 21.9351936199999997  3.1904512500000002
 16.0705571300000010  2.0802231899999999  5.0893877600000001
 14.2341957699999995  3.7328851200000002  7.0275044199999996
 12.5003681699999998  5.7561556700000001  8.9830658299999993
 11.1860963899999994  7.4309374300000002 10.9419717999999992
 10.8497803400000006  6.9663759199999999 14.5252160400000001
  8.8182982100000000  8.5314808600000003 16.1358695499999989
  7.1011303000000003 10.8617344100000004 17.8858253299999994
  5.7530174299999999 13.1793814299999994 19.9792871800000000
  4.2984594400000002 14.3351771899999996  0.5962017400000000
  1.8265264800000001 16.5670230300000014  1.1910172600000000
 -0.3008232800000000 18.0862851800000008  3.3353972700000001
 19.5263621600000015 19.9619118799999988  5.2084806900000000
 17.7641998000000001 21.5307155200000011  6.9789649699999998
 16.4942419899999990  1.8563963900000000  8.8898300199999998
 14.6727545399999997  2.9038686100000000 10.2268866500000009
 12.8632909200000007  5.1024996800000002 12.2337149600000004
 12.6996096600000001  5.3232725700000003 16.2025075100000002
 10.5534579500000003  7.4426154499999999 17.8127105099999987
  8.8748878799999993  9.2161782399999996 19.7913694699999994
  7.3747740799999999 10.8074535800000007 -0.1949302100000000
  5.6701951900000003 12.5500723099999991  2.1030016300000001
  3.6129977000000002 14.4592883499999996  3.6911499100000000
  2.0821858600000001 16.1226726800000009  4.8169540700000004
  0.3708479900000000 18.1110712900000017  6.7567334900000002
 19.9732167099999991 19.8529716600000015  8.3689149700000005
 18.5576639499999985  0.1921890800000000 10.6689367500000003
 16.3698889299999983  1.7944218900000000 12.5235509100000009
 14.8853735900000004  3.1176069700000002 14.8136117899999995
 14.0146956500000002  3.5038709699999999 17.6100424500000017
 12.8507633299999995  5.0444649000000004 20.0432913299999989
 10.5150676500000007  6.8936839599999997  0.1467426900000000
  9.8333569500000007  9.2729747400000004  2.1920625999999999
  7.5788824000000004 10.5890156999999991  3.9913377900000002
  5.3926453499999996 12.5821927999999996  5.5284272799999998
  3.1427889100000002 14.0883128400000004  6.8758246900000000
  2.0458720900000000 16.5174549900000009  9.1564327599999995
  0.0294773900000000 18.1967628899999987 10.5484226299999992
 19.9900816799999994 19.6921021600000010 12.9932936899999998
 18.2770259000000017 21.9995082300000000 14.6168194099999997
 16.6007074599999989  1.6553650099999999 16.5104220499999990
 16.6730302200000011  2.3654021900000002 19.7550920900000015
 14.1622773800000008  3.6061793299999998  0.0817698500000000
 12.3326428999999997  5.1594496100000002  1.5124089700000001
 10.7526610799999993  6.7310643800000003  4.0421703500000001
  9.9036523699999996  9.0663304799999995  5.6059412699999998
  6.9099495700000002 10.6788290099999994  7.3908306000000001
  4.5265669600000003 12.3164993299999992  9.1822375600000008
  3.1147383300000002 14.7751563600000004 10.8702766400000002
  1.2793429999999999 16.7304132699999997 12.6379322999999992
  0.1337641000000000 18.4706647299999993 14.8967619700000000
 20.1626544900000013 20.3693454900000006 16.1207978599999997
 18.3502061699999999 21.9601601700000018 18.4345908600000001
 18.3861858399999996  0.7383383900000000  0.1408398200000000
 16.2814670600000007  2.2852858999999999  1.6604124499999999
 14.0876791099999998  3.6971053299999999  3.7107380299999999
 12.4294369800000002  5.0520760100000004  5.5274127200000001
 10.9904988800000005  7.0146773500000004  7.5106027500000003
  9.4033380700000002  9.1239697500000005  8.8451216400000003
  6.9480551699999999 10.2761030800000004 10.9052809800000006
  5.0977281799999998 12.4328726399999994 12.6558773700000007
  3.3994137800000002 14.1109470500000000 14.7467623200000002
  2.0851341500000000 16.3049824200000018 16.4591034200000017
  0.0427144700000000 18.0037444999999998 17.9291785799999985
 20.1067138499999984 20.3247297300000014 19.7379675699999986
