Li                                      
   1.00000000000000     
   -11.1791050000000016   19.3627778431472777   -0.0000000000000023
   -19.1641800000000018  -11.0644444817984429   -0.0000000000000019
     0.0000000000000000   -0.0000000000000001   23.4479499999999987
   Li
   504
Direct
  0.9982597672995581  0.0001273169049085  0.9938572928550258
  0.9261910693406890  0.0473496312275401  0.6702086515025840
  0.8562973232136102  0.0830294253433266  0.3391184457489871
  0.7800605342651323  0.1270876338614002  0.9874894798905629
  0.7150174783191403  0.1745390109587319  0.6588843749666822
  0.6430173752778359  0.2093854156527755  0.3136004682712112
  0.5656538455016573  0.2448674202331205  0.9878869056783230
  0.4935286384060831  0.2947604265223660  0.6672414424288675
  0.4366866301778103  0.3358610667999429  0.3277149618623412
  0.3514553801096554  0.3727044456344757  0.0020660667563703
  0.2923719835718828  0.4142481064460668  0.6707965190986869
  0.2095545191742545  0.4585318024004437  0.3240837258694285
  0.0681700586714058  0.0405560877771052  0.6736820899055118
  0.9971558550915063  0.0838184072873034  0.3422571683238829
  0.9196273707577802  0.1166762841626863  0.9993608434852490
  0.8542893046611653  0.1674079085468776  0.6597726556052876
  0.7866716325078045  0.2152010803318376  0.3241605449516882
  0.7037568461726664  0.2477211162787469  0.9906517725430177
  0.6422015604351472  0.2877408360144642  0.6662771645282390
  0.5706491258740556  0.3362182662496238  0.3322922481496278
  0.4974493265876916  0.3742913370620045  0.9999816209945891
  0.4346496429996094  0.4124880878125126  0.6601877784625074
  0.3591104888607433  0.4558499846288484  0.3216868796632539
  0.2910641348454348  0.4977366599994753  0.0059242769623751
  0.1428935349285325  0.0848258928486771  0.3459768291044654
  0.0605066919126998  0.1261205075252505  0.9959439392356231
  0.9979795392725350  0.1722930645934611  0.6691081194731296
  0.9264746518989497  0.2176978298358279  0.3355788407941844
  0.8541633226600922  0.2523159497997796  0.9952733044893023
  0.7808249788595134  0.2904822854255542  0.6650340933855645
  0.7214805858927917  0.3325362903522588  0.3386216168151179
  0.6386645665055966  0.3762244380534128  0.0060348371606054
  0.5699955824364693  0.4123906222132376  0.6659649338215061
  0.5027581727881554  0.4629227546805055  0.3312133666269332
  0.4354020019944116  0.5072636404215700  0.0002187474811208
  0.3672000120382606  0.5365220176090517  0.6733820001322073
  0.2081587529148976  0.1323446442527327  0.9988416343433002
  0.1389478825489121  0.1733210605127908  0.6655659381736996
  0.0735850185635982  0.2077431109001537  0.3302935344027915
  0.9999944415175008  0.2449256722103144  0.0165511279237620
  0.9217032597049339  0.2903120540986492  0.6800852304785678
  0.8635128898782582  0.3470593067481929  0.3388926737731879
  0.7813092697007349  0.3696888662359754  0.9997617352476453
  0.7217460247104484  0.4174766056481047  0.6630781492625175
  0.6440579078704687  0.4520321627033184  0.3373897965493811
  0.5701017210219632  0.4879094717339711  0.0078506146592758
  0.5060298488757056  0.5471132496294828  0.6617357133566060
  0.4308668077117019  0.5778109726362430  0.3315686373435653
  0.2749256110257008  0.1679963727722509  0.6561170716416598
  0.2162163439536684  0.2150112667604773  0.3323603675374613
  0.1327284050816928  0.2501796493828223  0.0010860992112285
  0.0761718687949511  0.2917246571830887  0.6793240172381800
  0.9960841209119167  0.3345769218141896  0.3404419072882732
  0.9302469490853440  0.3724257463792000  0.0022123234653790
  0.8542797851679822  0.4161412688792154  0.6632914472267331
  0.7782657044713375  0.4581829758338714  0.3308208875402769
  0.7167454491976315  0.4939629044993055  0.0066929957629540
  0.6430597879004694  0.5382274738487567  0.6632048878473356
  0.5639109302075269  0.5809683717520073  0.3334321840502028
  0.5008314912405538  0.6176485428604437  0.9969708580067760
  0.3574782189665200  0.2128851964947245  0.3235329425386837
  0.2764318681709597  0.2493045499661690  0.0096483266127763
  0.2164756465523325  0.2954103450942682  0.6609057538079028
  0.1478699889963693  0.3322413594873765  0.3351971890932930
  0.0704197121892989  0.3678376514604906  0.0020181470021896
  0.0079027575759554  0.4190752134069271  0.6670358658219584
  0.9264528694975596  0.4569013521233600  0.3387162216739625
  0.8597604201075342  0.5000838109834973  0.9941775344966217
  0.7824325946566830  0.5418954966458500  0.6552829257994830
  0.7082173321698164  0.5816579520153624  0.3275926718540418
  0.6451872556969178  0.6127964454467829  0.0026420642316296
  0.5677674585684898  0.6649756224936141  0.6649259696476690
  0.4250060482767566  0.2532910070078174  0.9959129203192632
  0.3659308021443266  0.2889220008419002  0.6716706739821632
  0.2863216220297744  0.3342524331100449  0.3258030471747020
  0.2104004727857927  0.3749249778846746  0.0043899573310213
  0.1483577464558081  0.4168729215028861  0.6665549052262563
  0.0717434119701394  0.4586459876982758  0.3366528071750423
  0.0090578656852287  0.5014770414611505  0.0026793480880016
  0.9261245944910002  0.5463963381215748  0.6729562328476462
  0.8525154330142968  0.5842718039703598  0.3330091440829577
  0.7943560291568801  0.6160041041501501  0.0022201356621778
  0.7148717960391195  0.6613044617896549  0.6540977287993215
  0.6423196097975961  0.7013094386774483  0.3423352702475029
  0.1503922380881733  0.5067890778122148  0.9924841220661094
  0.0737748940168927  0.5422129871156116  0.6587173424542456
  0.0074812781027944  0.5782039594991630  0.3326660351971071
  0.9411839784544753  0.6253391280263330  0.9890302341995749
  0.8557931154580274  0.6680555862039270  0.6641782735804185
  0.7794591207918771  0.7080133590615389  0.3291289012472305
  0.7257801503239349  0.7447502273832214  0.0130160414876386
  0.2198089954883500  0.5429958203007530  0.6578389475412578
  0.1497162871896975  0.5749568953796214  0.3172058687433221
  0.0806596777157438  0.6288099878810129  0.0020690661656957
  0.9940529260370070  0.6709638593602776  0.6716084621470131
  0.9315371997530804  0.7081186167398954  0.3208666139257375
  0.8703856873971176  0.7462049067630545  0.0057910610522427
  0.7864105666693462  0.7896480560135544  0.6585571258894731
  0.2835882116134911  0.5793984253753948  0.3173564286003696
  0.2293195868370361  0.6261323970131869  0.9958121703603098
  0.1437485064265829  0.6604016891442299  0.6655319411718281
  0.0739268938690074  0.7034390895469826  0.3295904763529407
  0.0096441599577233  0.7474333142976022  0.9967113760477986
  0.9279670148176038  0.7959238837674008  0.6590468394891644
  0.8580841135661430  0.8223550533136361  0.3226335995257585
  0.3640503148289369  0.6214901047289416  0.0123289601009873
  0.2927829150399361  0.6637886025158650  0.6766450316552195
  0.2171187825882726  0.7008031949174693  0.3214397198902219
  0.1539074984469622  0.7476975933524983  0.0112750300132873
  0.0738263711740856  0.7959988997638305  0.6688795574879691
  0.0024397312049942  0.8323114189434406  0.3251341801735350
  0.9283018097167641  0.8821755054213796  0.9904887996605254
  0.4328842381610727  0.6633530528701144  0.6637786582622383
  0.3546071833701063  0.7031587176363061  0.3335889747291318
  0.2896230993275921  0.7594254365274935  0.9997666085947827
  0.2199753404800973  0.7916983706770750  0.6683746668685302
  0.1420863838402369  0.8379568093171557  0.3233364370872494
  0.0823870544226679  0.8732945316714975  0.0036648824310888
  0.0034613881977563  0.9208811432522310  0.6705972833445983
  0.9311990801028571  0.9520949572393249  0.3285212225375815
  0.8554042930119152  0.9937660296954576  0.9930587381839331
  0.7787724782592207  0.0462681264958889  0.6600239040086677
  0.7159281071713650  0.0890981804324511  0.3235249333097343
  0.6415800883401914  0.1242470664821411  0.9972213997385708
  0.5727178544658855  0.1701745339248077  0.6641166229883666
  0.5020123779159391  0.2284483430012685  0.3246322463157796
  0.0712244663464361  0.9673231608210884  0.3405793896694576
  0.1444509281312492  0.9957849569912938  0.0046304056431339
  0.2116144678850560  0.0347304431493427  0.6617399712981324
  0.2831670933059698  0.0960367248370488  0.3278487616188173
  0.3552882831492639  0.1205829040117905  0.0153917365910488
  0.4235771832005710  0.1629940166183275  0.6589454916101403
  0.8580512004491254  0.9154408925820547  0.6695506302256717
  0.7896869822162529  0.9528988951612547  0.3186482549647209
  0.7133358048029379  0.9993193409709420  0.9903336875931572
  0.6411139872334246  0.0443734294787959  0.6579712507916469
  0.5702868575460300  0.1029118417470940  0.3222311101823436
  0.4904879613353756  0.1302384166187096  0.9971273825643578
  0.1436034184313115  0.9094933645476857  0.6670017212592114
  0.2169158661621964  0.9563892588154985  0.3298634720732494
  0.2856854237123443  0.9977912413341059  0.0128136527926728
  0.3511318961805330  0.0474240934779786  0.6486785096351682
  0.4373267418449913  0.0932010575775735  0.3399024686593037
  0.7744087365268584  0.8719419850705279  0.9961651125151647
  0.7173865117838503  0.9191464507839413  0.6567486185359499
  0.6412369125755504  0.9590500472465848  0.3210634955294580
  0.5742861365199090  0.9977563699464085  0.9987481677502714
  0.4986457038069716  0.0437594120563958  0.6706073951027705
  0.2191001892372384  0.8784348184475945  0.0125329212148628
  0.2915413040427097  0.9085012246946960  0.6672121392275230
  0.3621579521585474  0.9560199338680064  0.3365823131659695
  0.4217522022512341  0.9957537946863511  0.9961209525779466
  0.7096926834149357  0.8329170814703630  0.3161586846611328
  0.6414820530601588  0.8721798314994373  0.0113194445569889
  0.5776353692685063  0.9142275842344176  0.6720957729780253
  0.5107642454336272  0.9622171363476895  0.3365300744841235
  0.2933839364491959  0.8388093400876571  0.3436666369554686
  0.3678135111607261  0.8751697222795585  0.0021009759915032
  0.4237656491361363  0.9248511453615009  0.6780406982273490
  0.6478239359477698  0.7930389481066555  0.6724821560093730
  0.5705357789608811  0.8330744227376030  0.3394224565473749
  0.4955848898218633  0.8685126261738318  0.9982614356478905
  0.3567015841198469  0.7902830633743747  0.6653359811838584
  0.4303595231042578  0.8333436752038210  0.3328461741858035
  0.5766876999368549  0.7489765385316431  0.0150903298582605
  0.5013646190566021  0.7831277513716373  0.6607667318464934
  0.4346754074798085  0.7519515663527159  0.0096364586243141
  0.4999967652738775  0.7092788165913149  0.3373976970268160
  0.9955461159038066  0.0037043958034815  0.7692606087099279
  0.9236374829499994  0.0382432087449729  0.4496709507654160
  0.8553377512268270  0.0860718068068351  0.0944366253766304
  0.7838819120797638  0.1263911045116188  0.7695127991999300
  0.7065899957439612  0.1611311355679561  0.4428861137114311
  0.6551061011331853  0.2054089180591916  0.1064439172720881
  0.5521351623514263  0.2699428139310598  0.7706020807789145
  0.5016062999083957  0.2927536077548112  0.4403015240138259
  0.4395327961170139  0.3185632493153534  0.1034523030797985
  0.3429967778164098  0.3760681122870224  0.7692424020010264
  0.2927556956363730  0.4255184202576316  0.4519449964709068
  0.2309499112771149  0.4606646030298407  0.1136485573365675
  0.0619666262210572  0.0454354060011468  0.4511335148701718
  0.0148330284389644  0.0859513241689882  0.1084857375591497
  0.9223508426959555  0.1244205900102884  0.7677819387195868
  0.8503796869300757  0.1536105588625034  0.4452309818129123
  0.7887636748560354  0.2195007278473966  0.1050437782407414
  0.7038652483796497  0.2517132839762937  0.7673549726095459
  0.6354157006654120  0.2780416346336168  0.4503626589957790
  0.5737098484637926  0.3383130493707114  0.1038376762147664
  0.4828411466845921  0.3825601415188444  0.7725689751129607
  0.4340183282112520  0.4260726724024693  0.4459524892368023
  0.3584619722167730  0.4439406425989318  0.1058922144579810
  0.2900617315836342  0.5189827405161509  0.7854816783556799
  0.1394696548168284  0.0775076854052159  0.1168599468183800
  0.0705325176418157  0.1266413819619601  0.7747128542154016
  0.0073664283149242  0.1658800582332489  0.4600422535872042
  0.9299070576361572  0.2089333147801966  0.1255612447996555
  0.8490473291136666  0.2499422186531746  0.7885864973270600
  0.7752809804062437  0.2744708751188796  0.4365349265074343
  0.7270730544054587  0.3400647944305817  0.1097224315984988
  0.6321271591692934  0.3884241128133183  0.7727034870852236
  0.5785503024169216  0.4041569465273014  0.4558697937346352
  0.5025826791744876  0.4555053489545102  0.1060167460268389
  0.4188417023274340  0.5166910596384966  0.7790471486846400
  0.3595904529521334  0.5535635236911034  0.4439318123759222
  0.2096424369154235  0.1269564346226488  0.7873377322964288
  0.1353924462854934  0.1721991087939898  0.4542436174590989
  0.0651146738897879  0.2031196024847048  0.1271425271718840
  0.9956283079360801  0.2405181810341048  0.7831682483969828
  0.9175716907051950  0.2825621166456926  0.4585133890169502
  0.8689948999616703  0.3455685037848681  0.1168386421840708
  0.7741736242079682  0.3677794926132307  0.7689855782701684
  0.7183400677275671  0.4168447738002072  0.4613429233685693
  0.6527848446929383  0.4591278274765216  0.1092055139148655
  0.5719623526516671  0.5051969123468893  0.7778633347478134
  0.5094034182062259  0.5440972142045055  0.4421027253981720
  0.4414714424559634  0.5777394811718182  0.1235503969430169
  0.2786003718145622  0.1626567053975663  0.4271002415989429
  0.2087033264253293  0.1994418597634748  0.1206356768928600
  0.1476294535663811  0.2553172965130130  0.7820083632044614
  0.0591411932825920  0.2891685942455453  0.4580135922330086
  0.0020777347967496  0.3395705746108106  0.1195813783294497
  0.9176276907777563  0.3688662658088120  0.7826241547768547
  0.8702377740780562  0.4077195423240170  0.4423286867295460
  0.7942863615004825  0.4666936537184583  0.1182397160519386
  0.7176913557716702  0.5065864021437960  0.7675597802792993
  0.6456730935119168  0.5477707714055811  0.4498426045773698
  0.5700530455077910  0.5703917787611417  0.1064001863702373
  0.4899777229259570  0.6322767291765032  0.7726618966690069
  0.3540007251568369  0.2118942059297879  0.1140200367196300
  0.2879508264253801  0.2443018306316205  0.7865862828093739
  0.2153098457621496  0.2878852007594972  0.4476289918734935
  0.1516948481375735  0.3272626204048947  0.1178878929714529
  0.0729196984258351  0.3750813118395442  0.7859607594693756
  0.0169615184380874  0.4174855487905660  0.4431075219795346
  0.9393368564626385  0.4704630097000901  0.1202752304572456
  0.8523294049497991  0.5002032932000589  0.7798027025816765
  0.7909332649362426  0.5363516593605837  0.4404877019099729
  0.7175655205756257  0.5999305653101459  0.1207257406297799
  0.6309909026580129  0.6352931456050470  0.7736546401711024
  0.5812574087759259  0.6625455383567669  0.4471782505506852
  0.4181029155465552  0.2630219903120761  0.7650846444998365
  0.3555690997600323  0.3024746088289234  0.4419315253572265
  0.2886553213225085  0.3176979789444161  0.1158360944133676
  0.2118607572997817  0.3749272287552188  0.7803632599011863
  0.1464837806105237  0.4121607929876490  0.4456076680477423
  0.0733050554705770  0.4551129053193819  0.1059515735917245
  0.0002543499314314  0.4966473611398854  0.7749975550101382
  0.9345856400944257  0.5318464107460983  0.4407603133749447
  0.8548161625091453  0.5914289499270637  0.1123966163353316
  0.7860569340036250  0.6199097800581796  0.7621271066340540
  0.7234590246569681  0.6697065817667180  0.4494158815589415
  0.6317593064314551  0.7062005203810244  0.1273147895658227
  0.1386771309696329  0.5033305104518817  0.7852758531129567
  0.0690171291845729  0.5373637591614724  0.4418709123825337
  0.9988968923969637  0.5897855429097731  0.1088735117568902
  0.9324491862316648  0.6259081713880619  0.7741589115466354
  0.8684991752464342  0.6581400538664681  0.4405238658390189
  0.7761315931384942  0.7145259988419781  0.0956359152932365
  0.7147328945134390  0.7464528252855231  0.7780902223861759
  0.2079854403418793  0.5445317897216029  0.4398746487432774
  0.1432312428129094  0.5957661557819875  0.0964244818843412
  0.0691867042759355  0.6208895589738432  0.7766438622566127
  0.9910831846916537  0.6714308650094907  0.4243565386313080
  0.9259253962723619  0.7034572996551205  0.1132843864815456
  0.8493840977804794  0.7423068399264565  0.7731498915683446
  0.7858046986598097  0.7942373404021765  0.4432869278550982
  0.2853298704726654  0.5773751456284444  0.1051646719649284
  0.2172326461838097  0.6207836588303479  0.7728199637921449
  0.1389454297607244  0.6651036679594284  0.4375489345550463
  0.0665162737159477  0.7085917321753783  0.1069587320000238
  0.0009755841180663  0.7391652292301458  0.7687174004550528
  0.9216920350732423  0.8009705258587942  0.4392123648336010
  0.8605919238255453  0.8267351831073526  0.1237665970799142
  0.3515821332348210  0.6387429645538703  0.7720876294089649
  0.2943360891382767  0.6747913912431329  0.4332450180079732
  0.2142145153047537  0.7022969660525007  0.1210227034772728
  0.1392929825840667  0.7412461927371510  0.7835238905746564
  0.0609470386080275  0.7928969387660629  0.4429291255738761
  0.9948448374478431  0.8312774537424872  0.1082452858352241
  0.9171295882802539  0.8663314915643809  0.7793273620934897
  0.4263284738449329  0.6629152750807847  0.4459884416334887
  0.3617295478355231  0.6991014566312899  0.1094213285169943
  0.2760290514333263  0.7409645730198946  0.7790261886433569
  0.2090511829612893  0.7793258900355511  0.4415532436737521
  0.1397170178173965  0.8285783820404760  0.1079669071283433
  0.0713035869016565  0.8715505372601271  0.7745240040174082
  0.9940767676996245  0.9234319833055906  0.4399938395467444
  0.9314682326948684  0.9596507709977473  0.1028305519245833
  0.8586462666661063  0.9990435983737171  0.7785944029222165
  0.7712803577614409  0.0402051700697470  0.4407985410238453
  0.7216598526177549  0.0910569162521782  0.0944008538059862
  0.6282068344010909  0.1333701069658417  0.7719708000059740
  0.5625035680858517  0.1602922566733156  0.4448933318264494
  0.5205169833673864  0.2062355644046718  0.0988796530187059
  0.0881932378094135  0.9503497720350467  0.1078864254657645
  0.1456897480209065  0.9949522196854090  0.7784248870370334
  0.2143022346293861  0.0467038097817607  0.4397882100567401
  0.2852758540951825  0.0765326861418174  0.1188976238860988
  0.3487390081517034  0.1220842431179534  0.7646612838222566
  0.4193715597007284  0.1709460775306724  0.4377776466599457
  0.8425894489485728  0.9178445948802292  0.4412940777338719
  0.7870303081434997  0.9646116070231798  0.1021333587797670
  0.7190643841292612  0.0104589900563781  0.7712726511272834
  0.6302211407077110  0.0323497569323976  0.4453899513603545
  0.5780542290147679  0.0814626562759173  0.1135103431216820
  0.4910872053642592  0.1279436921943073  0.7700650082416587
  0.1346193802883704  0.9199016525998687  0.4445986885847191
  0.2164550839405877  0.9616531278063718  0.1194197684659031
  0.2904987068422074  0.0015576890765345  0.7822826566928001
  0.3540103056852502  0.0422190832930269  0.4338570216159638
  0.4473044029286513  0.0859910955072607  0.1255946519844997
  0.7731345467229787  0.8690392280314896  0.7798514595092527
  0.7051776642642764  0.9128184627536839  0.4358599988485139
  0.6466992502527944  0.9654737227474754  0.1002371456779798
  0.5667902609265170  0.0033311808866898  0.7900067212698758
  0.4831521571201023  0.0269309709352470  0.4522869521642647
  0.2174997917565236  0.8689835928526932  0.7866138830899914
  0.2813716423948378  0.9097540377749382  0.4474045415484085
  0.3628451361150766  0.9454116218189483  0.1210621598050139
  0.4239824427488657  0.0124698622301551  0.7807372772459829
  0.7125696276943998  0.8321419086124990  0.1195637145251496
  0.6422803907368433  0.8908239518994137  0.7780551493840591
  0.5538424682571872  0.9071329951969602  0.4439173236892771
  0.5063591774392506  0.9461098475224574  0.1072422958083763
  0.2757750695911554  0.8235532133729748  0.1116867743235517
  0.3516064935230290  0.8800596774933354  0.7866294831744369
  0.4216398195124000  0.9045135787437744  0.4497174145287772
  0.6493127014431010  0.7880160864035872  0.4414676144396452
  0.5735890662630396  0.8399438244367090  0.1282340004136842
  0.4915039821375515  0.8802177706411740  0.7697178375934755
  0.3515424061153496  0.7978353062893291  0.4405779639584679
  0.4302367470615067  0.8291304600426912  0.1253321778662979
  0.5672263691366695  0.7545858435191306  0.7782758727308803
  0.4970901221649342  0.7819988692370572  0.4580428728311006
  0.4400357996618212  0.7558906184257026  0.7705405790271627
  0.4995776082409904  0.7060899809866683  0.1289613377715355
  0.0003176761850128  0.9992680503194862  0.2161780104444091
  0.9298124724407728  0.0481363063942695  0.8808110807128102
  0.8595303249071762  0.0712509445840439  0.5590368288059295
  0.7785113681989984  0.1260100552807231  0.2176449838898478
  0.7271344104919777  0.1700797464852144  0.8919671109841190
  0.6369097212574033  0.1915842681785875  0.5652282574809320
  0.5781001892421926  0.2665824796021354  0.2170085073535191
  0.5062706737231366  0.2862807607749644  0.8860116739416455
  0.4187347810058100  0.3348478268302699  0.5562584161941686
  0.3565187153701501  0.3799010704560288  0.2067272337240595
  0.2813011999187225  0.4175927140886060  0.9015657449798411
  0.2148843391615785  0.4562519961541369  0.5620271993926949
  0.0745013632602394  0.0467959775722520  0.8914527453359469
  0.9947366014383832  0.0840578362954858  0.5628041018511212
  0.9369945885551942  0.1275137193508797  0.2215447043344909
  0.8592225403875204  0.1712509923534995  0.8954326689540011
  0.7901858240374651  0.2050923396447786  0.5522061924390016
  0.7093848880685059  0.2504368301106012  0.2240988568296984
  0.6435213552624930  0.2933288223017243  0.8697041830948962
  0.5684230414610596  0.3270496606214053  0.5599542740410115
  0.5131084164045632  0.3797831118591901  0.2247278320706059
  0.4287337939306042  0.4086657394473150  0.8863606289675658
  0.3541525426222094  0.4646502094015688  0.5617579208416927
  0.2902626458872888  0.5025577151773888  0.2109174524851838
  0.1364408922935425  0.0928998991220524  0.5593509445388634
  0.0696997790533160  0.1233551245858777  0.2314498150158144
  0.0049627495921101  0.1669667176587311  0.8928750837493240
  0.9239103342422510  0.2030261358910579  0.5538551698549341
  0.8515900831150773  0.2446285050494126  0.2194054153987892
  0.7809301113077112  0.2954241698851376  0.8826620203471975
  0.7123603552741997  0.3206947993888818  0.5607076900112773
  0.6448413879011525  0.3842951614056673  0.2299597517053726
  0.5728638218309499  0.4258963741235249  0.8882903558733304
  0.5048345067820748  0.4541671206939171  0.5533177484598895
  0.4374497356716702  0.4974366267016990  0.2158559187476925
  0.3623186513834327  0.5440908728015614  0.8907883379996946
  0.2115157733555080  0.1236201575283999  0.2317635882881035
  0.1369167765135373  0.1624128540377754  0.8790368633505281
  0.0617591940475322  0.2078231390556411  0.5765166396209480
  0.0021301175853381  0.2480106110384668  0.2203390245202641
  0.9318514644970932  0.2894314201799020  0.8910138873547595
  0.8589885193600253  0.3419313546564311  0.5658447855782711
  0.7883838471776485  0.3881375332572077  0.2257867992724343
  0.7048574230572342  0.4103577871640596  0.8843987517032375
  0.6504848317572325  0.4493977104618381  0.5531085438172667
  0.5754349624801947  0.5083408011072166  0.2220015988604516
  0.5008541564290709  0.5505778914408523  0.8869811045315288
  0.4313437357350338  0.5772010885477883  0.5557202535829333
  0.2915957830776890  0.1647485294657685  0.9090387675681697
  0.2059180607534188  0.2051061802509224  0.5502257242104349
  0.1375811230492303  0.2521093712026641  0.2324253032781129
  0.0653802505409757  0.2980137712271613  0.8990316211012086
  0.9880253900133198  0.3341319671582710  0.5592812744824158
  0.9395212149309131  0.3871853368398632  0.2321067590130497
  0.8331022133143691  0.4034382218089334  0.8802564377696100
  0.7846570278769107  0.4623693988668478  0.5591430850031642
  0.7161155145179166  0.5162543720146218  0.2217340398627599
  0.6443860477830441  0.5543049674600411  0.8969620751494247
  0.5691584738597868  0.5726175505073385  0.5620059753624531
  0.5003332338820385  0.6291790795871819  0.2307718244025594
  0.3557625265330699  0.2068675033746032  0.5564956109169472
  0.2776738758507378  0.2511851702555319  0.2283204139381070
  0.2065564842789271  0.2861186345471083  0.8953885077373513
  0.1339021124160951  0.3386202381515275  0.5628605861066731
  0.0650302965686578  0.3780796760663847  0.2271832838265198
  0.9850130164715694  0.4144709965413398  0.9032095850596775
  0.9234553299747219  0.4637852646657947  0.5522566117720302
  0.8627382608726393  0.5094634982653758  0.2183198595186369
  0.7766827773875988  0.5331609293949668  0.8861103584748378
  0.7109749942221626  0.5848232033520873  0.5527944195548002
  0.6434018655729687  0.6307288267780748  0.2284863508323767
  0.5580934192874025  0.6707034569690506  0.8905431118711888
  0.4206306991012525  0.2555476278412954  0.2271797078209374
  0.3549823216603372  0.2874320186418302  0.8835947027352091
  0.2851927648798451  0.3226893645419651  0.5444883642280018
  0.2206398528802538  0.3658538005522303  0.2236123686718869
  0.1366668289114443  0.4139240306437273  0.8916509494433384
  0.0751010025803822  0.4507203092722278  0.5538112662300989
  0.0053558101176847  0.5077301453197762  0.2231457351282344
  0.9053251176351651  0.5377010647373979  0.8877444518603994
  0.8669345010724214  0.5755045686478013  0.5534863666120060
  0.7982819639347269  0.6224072564319201  0.2160393718853868
  0.7047431102464685  0.6573053651410135  0.8945138973769531
  0.6604110479390926  0.7002445725269126  0.5561768423252360
  0.1503339094905840  0.5059634119875867  0.2106921884429127
  0.0562229619219394  0.5236345747777165  0.8857663603854462
  0.0108342972699162  0.5888628114126675  0.5496022522224777
  0.9368455118125354  0.6252186623517915  0.2208549527783887
  0.8593770036941848  0.6570300305631278  0.8915903663220064
  0.7964109546350358  0.6980647251791936  0.5558095355884021
  0.7201923350386394  0.7608841800905566  0.2259757902076700
  0.2119799032072862  0.5412380714518363  0.8864781526743286
  0.1405395376876513  0.5739784249333013  0.5431369198586680
  0.0833062495584542  0.6239788761653173  0.2125099234687866
  0.9886678012800942  0.6717994038550401  0.8866116248968439
  0.9411753326613876  0.7168708560850732  0.5648216513597148
  0.8685426142359489  0.7501344726715047  0.2222393360613637
  0.7686239360925242  0.7820137607196500  0.8937453862704388
  0.2840274403268097  0.5915065649407083  0.5471273569757713
  0.2235039105493541  0.6337058311943480  0.2192368006584786
  0.1348008195119093  0.6613828885238178  0.9012958975091649
  0.0846029408371223  0.7057749280727421  0.5454768105527350
  0.0116391248355399  0.7524464219891200  0.2104183274017544
  0.9131929487153698  0.8052154582690889  0.8845607334543075
  0.8573757633260541  0.8440005613244566  0.5611089097341164
  0.3683533755123349  0.6251467345872967  0.2317588262513368
  0.2751006869138592  0.6578565211461083  0.9021628696751733
  0.2242738878313872  0.6961624018963875  0.5531749662550425
  0.1470977791157324  0.7421070268594008  0.2172034092532584
  0.0530590338345505  0.8027559295292050  0.8937271126047293
  0.0120646208263153  0.8324398736078180  0.5528653362020961
  0.9275955225290318  0.8747339242335457  0.2276821274354504
  0.4273887469464555  0.6716015035377012  0.9027250309728601
  0.3656497588155929  0.7050327028328809  0.5534084497791909
  0.2946490262028476  0.7501871386060159  0.2253724862941127
  0.2034903426786840  0.7825882684627814  0.9021543056002770
  0.1564240009327023  0.8333377002852842  0.5618890576788189
  0.0796076120537563  0.8729286312303373  0.2181329766568112
  0.9846403919810172  0.9228306465918692  0.8891099439396655
  0.9482025658689466  0.9491994614369972  0.5533576884119924
  0.8505937216741017  0.9969869393349668  0.2094267746220879
  0.7942192025273158  0.0412911500482096  0.8760410969828953
  0.7212291154401029  0.0665869721239289  0.5506668834588950
  0.6341428135973999  0.1365334520860912  0.2071359675366082
  0.5778480003662523  0.1599378496687933  0.8803448847340576
  0.5037075066507413  0.2152699851422426  0.5657653905778517
  0.0774280662878368  0.9556059803770012  0.5585477510827204
  0.1383427224982725  0.0065383600658109  0.2314419605978344
  0.2209659912792077  0.0405145663451592  0.8877399896366214
  0.2897916382737336  0.0876873551394297  0.5383809718973325
  0.3576462765746271  0.1305227706749363  0.2256663115538871
  0.4331872074926153  0.1659048998069963  0.8846457711654949
  0.8564597298840795  0.9152079933163932  0.8814585411517868
  0.7896655802998893  0.9517739195176418  0.5558788683019174
  0.7145670343157846  0.0100993809203018  0.2103901812311975
  0.6511448957351433  0.0481677024721492  0.8864771709253887
  0.5742548322078562  0.0610296831897301  0.5589320136728375
  0.4828322269644758  0.1337400904907113  0.2259489767762233
  0.1395300921020777  0.9217942150267433  0.8897770798726512
  0.2323118614762265  0.9563032072236766  0.5537704166035837
  0.2900867493120245  0.0012043860124535  0.2316035657701434
  0.3631972097490106  0.0471407603408451  0.8896140391804011
  0.4395285185164042  0.0907757394791062  0.5511553777622353
  0.7897226209111352  0.8813117931452936  0.2166797314903874
  0.7290622168716112  0.9133391356196583  0.8968085862516801
  0.6487641817705168  0.9444772795782725  0.5474595809015312
  0.5657561638689330  0.0014210902690337  0.2225911740685191
  0.5020117796607977  0.0379386091100713  0.9002029951445678
  0.2049932377802648  0.8764220624396373  0.2241664998432711
  0.2855001927252019  0.9278436357832547  0.9021038564138877
  0.3583097415740255  0.9746385056089579  0.5592001415902033