Li                                      
   1.00000000000000     
    21.6720000000000006    0.0000000000000000    0.0000000000000000
     0.0000000000000000   21.6720000000000006    0.0000000000000000
     0.0000000000000000    0.0000000000000000   21.6720000000000006
   Li
   432
Direct
  0.0189445879475798  0.0160765457733447  0.0160361544850502
  0.9215169347545213  0.0753941749723168  0.0771842155777023
  0.8430811286452595  0.1602434186969361  0.1699905435585052
  0.7697427500922842  0.2440346571613148  0.2463242917128099
  0.6845344102990012  0.3274050023071240  0.3330442944813612
  0.6123403257659632  0.4270867377260998  0.4172250996677747
  0.5070115960686579  0.5404876573458850  0.4882295076596534
  0.3899226688815034  0.6229503026947185  0.5861379415836083
  0.2982925456810648  0.6786707747323746  0.6812183808600949
  0.2875414013473616  0.7567231256921403  0.7736234606866006
  0.1628602685492808  0.8399961000369132  0.8388585538944255
  0.0966683850129186  0.9046751125876682  0.9128151845699506
  0.0952218170911792  0.9353218124769285  0.0749594149132520
  0.0052172139165734  0.0165724598560359  0.1903330841638962
  0.9007286018826122  0.0862374358619391  0.2544287246216328
  0.8289214174972344  0.1696208693244756  0.3376313030638585
  0.7688335262089296  0.2390406589147318  0.4088356256921344
  0.6581638247508295  0.3395505541712822  0.4608227200996708
  0.5745707631967534  0.4273687564599484  0.5791087666112986
  0.4928707627353290  0.5163494541343638  0.6603095602620925
  0.4452737818383170  0.6015422272978981  0.7599090056293818
  0.3451974640088622  0.6529825549095634  0.8597567741786634
  0.2693000982835017  0.7486273601882587  0.9093621294758236
  0.1675715933001101  0.8222505366371351  0.0044113155223329
  0.1622016906607584  0.8389285746585458  0.1525474275562928
  0.0712615356219999  0.9190855426356563  0.2429894564414923
  0.9833245090439249  0.0214140605389446  0.3374869430601706
  0.8871855869324463  0.0702630084902154  0.4269039557954954
  0.8247309311554076  0.1779325567552590  0.5139139613325980
  0.7491323749538594  0.2507692063492044  0.5570443337024713
  0.6717094633628662  0.3379335695828729  0.6714261295681041
  0.6001256746031771  0.4214596276301208  0.7341483333333301
  0.5234589221114803  0.4915571271686971  0.8365810345145803
  0.4559500867478761  0.5888432350498363  0.9166768692321909
  0.3589123205057234  0.6797203409929864  0.0185105980066425
  0.2573767109634559  0.7359704305094112  0.0705668087855287
  0.2407164198043574  0.7549349174049453  0.2388299007936538
  0.1496960483573275  0.8290763519748978  0.3020384653008463
  0.0947528469915113  0.9272470095053507  0.4130544624400159
  0.0004306699889227  0.9990326315060898  0.5112497388335200
  0.8807718507751972  0.0949654891103719  0.5634938002953120
  0.7987333536360310  0.1482671013289050  0.6654694993540033
  0.7445384842192695  0.2421965794573637  0.7586324418604633
  0.6521293180140262  0.2942546779254371  0.8584483194905843
  0.5893676794942806  0.4256057290513127  0.9187265840716137
  0.5008226808785494  0.5082947508305651  0.9975066020671832
  0.4256491629752688  0.5786442857142831  0.0843783305647818
  0.3205681727574756  0.6528686558693266  0.1687317598744897
  0.3222565568475417  0.6440994227574777  0.3085743941491330
  0.2559032179771137  0.7595496788482805  0.4066779701919501
  0.1619164336471002  0.8288383116463649  0.4894998523440393
  0.0968080550941295  0.9055152934662232  0.5803720519564450
  0.9740877025655195  0.0141057724252462  0.6295184256183077
  0.9106961300295282  0.0611265679217396  0.7315477173311180
  0.8267048334256160  0.1610842040420835  0.8393214271871514
  0.7358800286083422  0.2246135400516778  0.9641402297895922
  0.6581776333517908  0.3427391366740480  0.0082134214654843
  0.5897431570690301  0.4158699529346634  0.0807916020671868
  0.5000670930232545  0.4768839410299037  0.1561208333333326
  0.4255521862310800  0.5544843918420099  0.2512803248431155
  0.4396313625876687  0.5914113828903638  0.4184958582502745
  0.3090319296788451  0.6626763169066052  0.4688093461609455
  0.2461388528977508  0.7721220242709492  0.5898540037836852
  0.1519480061830905  0.8391451402731605  0.6554383337947556
  0.0853282452011825  0.9445591454411186  0.7441769153746804
  0.0310940083979361  0.9980775544481375  0.8428221299372467
  0.9447689737910636  0.0665981722960467  0.9325091643595442
  0.8379775489110344  0.1496915688445952  0.0162806866002185
  0.7575706644518263  0.2457160160575853  0.0658794767441861
  0.6710865056293827  0.3083539696382402  0.1804205024916925
  0.6071601088962737  0.3913917857142835  0.2583857964193399
  0.4908741329826469  0.4895287532299761  0.3340444725913585
  0.0877016232927303  0.1292562033960891  0.9389341814322592
  0.9823216814322606  0.1604442146548521  0.0026292917128075
  0.8978838145994814  0.2511196391657435  0.0804835086747886
  0.7991285635843468  0.3276627325581387  0.1500614950166081
  0.7545294186046476  0.4137869361387985  0.2468988925802904
  0.6671109629937249  0.4988443475452229  0.3269987024732401
  0.5605904337393852  0.6053179817275733  0.4194123841823583
  0.4922556104651150  0.6814925350682941  0.4970071479328197
  0.4000083937799914  0.7462194421373169  0.5819857055186404
  0.3293680477113341  0.8707139461055746  0.6701518309339249
  0.2259340485418946  0.9407770394979664  0.7459885192875575
  0.1820636397194519  0.0186448057401236  0.8662062827611692
  0.1713988773532691  0.0269426462716851  0.9971757502768526
  0.0790015379291233  0.1115615300848987  0.0715061046511636
  0.9936080523255839  0.1667443807678097  0.1806339354927999
  0.8974670427279463  0.2647860668143238  0.2541126638058344
  0.8534962329272773  0.3403767589516420  0.3364544642857155
  0.7494969818198598  0.4456157516611299  0.4061406076965639
  0.6519650502953098  0.4983948966408249  0.4829186752491665
  0.5959425987449265  0.5716123694167621  0.5944462209302301
  0.5399443747692843  0.6828677450166083  0.6540184606866006
  0.4339548606496848  0.7617491122185314  0.7605815591546730
  0.3180191717423426  0.8620406229235869  0.8706786461793996
  0.2608097023809535  0.9416865088593553  0.9467654222037680
  0.2440291948135851  0.9067689258028793  0.0772562643041681
  0.1474210372831308  0.0170739834809908  0.1606058554817267
  0.0838164031930617  0.1093557733480992  0.2473903123846455
  0.0087441440568483  0.1892989765596127  0.3254625018456991
  0.9124126596530076  0.2129238399778544  0.4115785940383887
  0.8536268337024708  0.3385071105574013  0.4837849141749757
  0.7404088395164266  0.4214437956810642  0.5645782368955352
  0.6550456330749341  0.4875196100959798  0.6482858522517532
  0.6228921820782602  0.5782779078995972  0.7439152966962013
  0.5352275295311912  0.6762013039867085  0.8238703502214832
  0.4329409929863388  0.7438098578811392  0.9234556173864874
  0.3446551162790712  0.8091749903100762  0.9934293355481714
  0.3262436360280532  0.8003266366740505  0.1554082645810269
  0.2542243973791045  0.9010973223514185  0.2347388755075670
  0.1776805850867476  0.9784100203026966  0.3505542381875202
  0.0878116219084504  0.0931825581395316  0.4094368217054267
  0.0000789521040971  0.1526803617571062  0.5080663395164251
  0.8989621239387233  0.2452488833517918  0.5997507964193431
  0.8116801462716836  0.3538633254891081  0.6437320348837190
  0.7132694573643406  0.4211317414174971  0.7491209689922513
  0.6666512167774101  0.5132055703211549  0.8527657576596539
  0.5795630057216670  0.5808060626615017  0.9189361055740122
  0.5359398006644511  0.6663848071244018  0.0034159237726072
  0.4477921580841624  0.7235709865263900  0.0915151125876719
  0.4254916828165349  0.7616441860465102  0.2351218106312274
  0.3300241302140989  0.8285694522886686  0.3222491052971606
  0.2768480541712819  0.8973588990402348  0.4112880200258431
  0.1661391343669223  0.0566640162421592  0.4877225198412702
  0.0816732585825051  0.0779840951458084  0.5834497452934642
  0.9883337966039107  0.1512087213916544  0.6724776088962727
  0.8972641846622338  0.2280051416574409  0.7463892732558151
  0.8046342012735295  0.3049967165005540  0.8533158213362881
  0.7320948223514208  0.3785692248061991  0.9115236415651538
  0.6961420113510499  0.5100437024732400  0.9679484473052753
  0.6035722231450720  0.5518276495016607  0.0859055924695440
  0.5218198052787031  0.6478685885012894  0.1666923763381334
  0.4779148094315246  0.6767331612218541  0.2895569619785903
  0.3861428229974138  0.7148852833148780  0.4021195187338478
  0.3591837070874888  0.8340010908084139  0.5020110202104107
  0.2353856053894461  0.9159459939091903  0.5939794232188973
  0.1790264045773355  0.0131220727205630  0.6374815600775179
  0.0960006118493908  0.0685871580841635  0.7355072600590589
  0.9834108444075298  0.1440696350129187  0.8433327966961954
  0.9070573832595059  0.2454952966961983  0.9274411761720174
  0.8137641662052388  0.3404906192321917  0.0128453460686586
  0.7098545565706900  0.4226881016980428  0.0813858670173531
  0.6469246682355134  0.4680845136581766  0.1671502763934996
  0.5953137836840128  0.5608449054078974  0.2336525424510896
  0.1851046751568859  0.1804298038944268  0.8239401185861936
  0.0668642271133280  0.2679261618678481  0.9050851291989659
  0.0014701601144367  0.3208584182355096  0.9971288579734221
  0.9383503502214836  0.4091113261351040  0.0855104526578074
  0.8309626961055727  0.4673349621631573  0.1476534643780028
  0.7687850719822791  0.5624417852528580  0.2423511960132885
  0.6842850484496097  0.6535884593023269  0.2925735658914732
  0.5739022379106657  0.7308916943521595  0.4090494573643397
  0.5064476315060915  0.8241358697858985  0.4911935783499430
  0.4211162906053900  0.9275511069582905  0.5819382410483556
  0.3227201416574417  0.0137831630675507  0.6423991772794366
  0.2705449086378735  0.0840988376707301  0.7414294735142093
  0.2769689382613478  0.1404241638981176  0.9173494052233266
  0.1624997046880736  0.1930279346622399  0.9694083748615725
  0.0631473832595049  0.2411303188445899  0.0942098541897352
  0.9984057719638244  0.3173636088039871  0.1768201638058358
  0.9213638953488399  0.3998462975267643  0.2585331676818043
  0.8176238210594349  0.4956098158914699  0.3541493433923932
  0.7186880901624235  0.5774924880029531  0.4211818987633791
  0.6644336655592440  0.6600155052602403  0.5129570011997018
  0.5717172600590601  0.7601722540605422  0.5784399672388361
  0.4829198675710558  0.8216136946290149  0.6412626135105199
  0.4116777777777756  0.9045122434477690  0.7434564341085235
  0.3301334759136196  0.9951965093207846  0.8193104831118490
  0.3671671986895504  0.0049417100406046  0.0025994868955337
  0.2494733088778176  0.0956891366740464  0.0727255218715399
  0.1777679669619801  0.1585702053340725  0.1804063672019183
  0.0841341809708354  0.2902902731635280  0.2741286254152797
  0.9818904660391254  0.3616686217238865  0.3605088699704666
  0.9072367031192314  0.4173541708194932  0.4352601250461419
  0.8509442506459948  0.5257599058693216  0.5061154466592868
  0.7510327583979333  0.5699515203949801  0.5925628672942054
  0.6414179794204529  0.6757862458471777  0.6862186314138086
  0.5973536923218887  0.7868917478774478  0.7413064530269438
  0.5214704157438135  0.8188290000922862  0.8423203815983769
  0.4268760640457714  0.9373515766888119  0.9134145621077892
  0.4118897623661866  0.9267579152823942  0.1035193540051651
  0.3328976411960127  0.0157035123661871  0.1526400738279818
  0.2713340028608329  0.0732151767257321  0.2888238861203405
  0.1552681127722408  0.1727334851421176  0.3096561134182352
  0.0799915019379824  0.2464883324104861  0.4163362504614270
  0.9994080204872660  0.3333024363233648  0.4913773541897370
  0.9148528580657072  0.4121789207272073  0.5571520487264650
  0.8056359643779984  0.5179345634920622  0.6664315411590991
  0.7390312200073836  0.5942540799187910  0.7717419352159496
  0.6506038861203365  0.6797866735880405  0.8135992455703231
  0.5959150166112934  0.7471421313215174  0.9092302357881152
  0.5035252657807305  0.8395769859726840  0.0236181884459228
  0.4929153386858616  0.8369932761166510  0.1574046040974508
  0.4042638016795834  0.9436097771317833  0.2215413547434508
  0.3189226767257267  0.0052848694167622  0.3426146553156144
  0.2750160317460342  0.0939763335179009  0.3944467921742358
  0.1550527570136566  0.1499389844038390  0.4730827348652653
  0.0462813302879326  0.2639584892949429  0.5886782784237710
  0.9952083448689564  0.3700650119970490  0.6840468097083772
  0.8728195750276839  0.3896034689922487  0.7529997203765220
  0.8210304046696209  0.4564866735880386  0.8386156847545223
  0.7502946257844201  0.5993038635105208  0.8970559062384638
  0.6775706889073447  0.6812740517718723  0.0046018881506100
  0.5958090586932414  0.7592963921188627  0.0951815868401624
  0.5762487227759294  0.7479010511258792  0.2584997452934630
  0.4814617894056852  0.8382808587116983  0.3476261650978216
  0.3942645035068324  0.9044171668512391  0.4363948385012932
  0.3122512416943550  0.0124631709117722  0.4847990153193038
  0.2430248241971213  0.1034596059431507  0.5629587901439663
  0.1237757516611282  0.1717416269841294  0.6524214996308615
  0.0557544896640820  0.2443147069951976  0.7315288893503151
  0.9645433707087463  0.3264579457364363  0.8093266855850842
  0.9268184334625289  0.4102782996493204  0.9114547365263945
  0.8320483624030999  0.4783678086932426  0.0007539041159106
  0.7343444112218549  0.5817585215946863  0.0984170565706890
  0.6616246262458461  0.6653767741786609  0.1768247337578472
  0.2623491182170525  0.2394377293281664  0.7137678363787359
  0.1535953068475422  0.3263661563307494  0.8214319421373233
  0.0584249492432605  0.4093506972129930  0.8771391809708362
  0.9939916371354727  0.5120487564599472  0.0079578026947189
  0.9275741952750067  0.5896539211886278  0.0790999953857536
  0.8279205135658927  0.6609176356589117  0.2028468876891836
  0.7283426116648215  0.7658403742155784  0.2315482544296756
  0.6426946147102228  0.7934827593207814  0.3286181298449620
  0.5865477934662238  0.9131236429494294  0.4272162846068639
  0.4963673283499475  0.9697197572905125  0.4630198980251023
  0.4230872116094488  0.0886263330564816  0.5596468350867454
  0.3347294744370615  0.1847804595791800  0.6376281409191549
  0.3321304872646706  0.1702400729051305  0.8232709436138776
  0.2432417248062038  0.2759993655407911  0.9103361821705391
  0.1452173260428182  0.3500788612033929  0.0027543890734592
  0.0497471493170920  0.3839253871354771  0.0748364170358045
  0.0141902657807336  0.4868825632152110  0.1708250539867109
  0.9415532175156898  0.5370915526947186  0.2266402357881105
  0.8498990291620530  0.6308812486157223  0.3154053174603177
  0.7392079568106311  0.7412772969730526  0.4337399677002551
  0.6644403594499835  0.8478594296788486  0.4973416417497205
  0.5837277616279053  0.9151102551679600  0.5928450364525659
  0.5147217294204509  0.0028310931155389  0.6868225433739354
  0.4416103451458113  0.0865450419896661  0.7433952025655230
  0.4045435169804321  0.0730912329272826  0.9242704549649332
  0.3537675821336279  0.1902049820044311  0.0250640886858591
  0.2338785354374338  0.2578639784053181  0.0786811941675865
  0.1488176130490970  0.3381854997231457  0.1769883005721695
  0.0559834108527113  0.4176481921373210  0.2594026384274670
  0.0070121566998864  0.4816488099852378  0.3305367870985592
  0.9381452911591026  0.5667563916574352  0.4089275729051280
  0.8391791214470317  0.6502324824658530  0.4726512707641177
  0.7524555158730166  0.7251967700258390  0.5603188732004440
  0.6618460986526387  0.8489787846068637  0.6602402980804740
  0.5832461041897403  0.9271821082502782  0.7521513708933156
  0.5086604872646703  0.0095867898671074  0.8444208273348082
  0.4863198837209310  0.0128271400885964  0.0390216205241813
  0.4089733559431536  0.0979944518272404  0.0809411535622004
  0.3165932765780752  0.1506747166851241  0.1715824995385731
  0.2422932613510511  0.2401780703211500  0.2859010363602792
  0.1719930227943891  0.3773687292358829  0.3401622632890380
  0.0783643304724961  0.4256431229235886  0.4365036314138067
  0.0049802943890711  0.5090071977667066  0.5103134486895513
  0.9207669342930984  0.5802603709856058  0.6062554129752655
  0.8389900992063488  0.6661968212440001  0.7010247845145798
  0.7595004826504237  0.7529410635843448  0.7660270399593969
  0.6876729895717943  0.8370279078995964  0.8470514184200795
  0.5793197720561096  0.9292069352159444  0.9265883670173523
  0.5935107175156915  0.9233038851974911  0.1037114770210437
  0.5072613925802898  0.0316919822812878  0.1414076905684780
  0.4011970616463643  0.0886725299926141  0.2446983744001443
  0.3340605412513824  0.1855886360280579  0.3319570588778120
  0.2571098855666278  0.2822326564230337  0.4249791569767467
  0.1484301255075664  0.3390665660760419  0.5114656266149851
  0.0725729655777059  0.4314649783130307  0.5961196059431515
  0.9660164945551841  0.4924972775932090  0.6735417414174947
  0.8760406118493904  0.5687752953119229  0.7790994619785891
  0.8593045773348109  0.6824199529346657  0.8420177523994070
  0.7654054955703202  0.7536765250092259  0.9293770067368001
  0.6901984648394262  0.8568661471022523  0.0165994250645980
  0.6786883167220381  0.8340411318752317  0.1713356220007398
  0.5569824543189341  0.9254669398301942  0.2305205906238470
  0.4713508365633103  0.0122360211332619  0.3602069375230741
  0.4005127727021005  0.1203169389073437  0.4148641643595425
  0.3087050253783659  0.1880800650609089  0.5050385174418608
  0.2551154162052427  0.2623253917497266  0.5869604821889993
  0.1577866629752691  0.3402224778516043  0.6562054231266146
  0.0914578516057603  0.4158695593392423  0.7421825244555151
  0.9806701338132129  0.4802516491325193  0.8196427320967175
  0.9337943327796268  0.5680561567921742  0.9113330232558141
  0.8505171465485404  0.6436707124400129  0.9903241994278318
  0.7567664664082656  0.7417532101328916  0.1094593807678095
  0.3673077690107078  0.3432403599114053  0.6554465577703965
  0.2465893553894460  0.4136603340716150  0.7397554974160201
  0.1525396114802504  0.5039585580472519  0.8196176015134711
  0.0494211678663703  0.5777297314507166  0.9176420874861577
  0.0033488695090469  0.6716642654115930  0.9891354997231474
  0.9197667224990766  0.7423569942783317  0.0998293138611999
  0.8436413953488398  0.8508664013473606  0.1810389096530116
  0.7272707673495731  0.9101463648947927  0.2643406529162036
  0.6584534357696583  0.9669356787560019  0.3321192704872615
  0.5941005107973396  0.0924751338132168  0.4229739461055715
  0.4916570030454039  0.1749524852344067  0.4813807479697303
  0.4327773468069367  0.2753685774270949  0.5795330583241025
  0.4520412892211141  0.2292904600406018  0.7308168170911742
  0.3382839834809914  0.3138077671650024  0.7989339488741223
  0.2688229941860456  0.4229779863418202  0.9270689313399743
  0.1477548315799169  0.4788455020302678  0.9849130527870074
  0.0996608974713951  0.5765426342746380  0.0724161457179804
  0.0304180910852736  0.6690817746400910  0.1632922411406454
  0.9204757687338514  0.7579730209486897  0.2607944725913640
  0.8041839055001816  0.8201062795311955  0.3298268060169818
  0.7348396036360256  0.8918485229789610  0.4116914345699527
  0.6671485714285694  0.9804851684200813  0.4623337043189366
  0.5860931233850124  0.0555365153193037  0.5460043775378338
  0.5279413505906234  0.1571919472129935  0.6470907396640797
  0.5121055883167216  0.1645131229235872  0.8479726559616125
  0.4470817751015161  0.2554928331487645  0.9054924381690626
  0.3211643378553006  0.3084449040236237  0.9898833342561844
  0.2653517141934287  0.4050688985788113  0.1001556044665932
  0.1621492377260978  0.4875386844776699  0.1711249077150256
  0.1232081196936150  0.5741853525286089  0.2577246405500162
  0.9821289834809903  0.6783056506090830  0.3227965102436343
  0.8940629485049811  0.7500429683462499  0.4287051578073076
  0.8249856215393123  0.8441553142303420  0.4991864844038361
  0.7270131709117749  0.9132947189922476  0.5958858693244764
  0.6561896363971940  0.9995698315799189  0.6916805735511247
  0.5878101979512707  0.0953554415836066  0.7836137389258013
  0.5928842783314892  0.0897731695275041  0.9480844942783335
  0.5000436194167577  0.1786959593023241  0.0142857101328886
  0.4288347568290902  0.2304229706533789  0.0980143143226258
  0.3238596493170931  0.3033435538944289  0.2102508319490610
  0.2579406349206366  0.4337767114248834  0.2514178289959403
  0.1606586964747123  0.4869031243078652  0.3551969873569547
  0.0712285825027692  0.5747082419712086  0.3964449469361355
  0.0037897595976375  0.6835740097822054  0.5167931478405308
  0.8842545805647859  0.7600734330011107  0.6231871377814713
  0.8343116103728292  0.8411634920634938  0.6726882179771110
  0.7668113999630890  0.9346943170911786  0.7687287929125119
  0.6849896626984133  0.9717225964378002  0.8472514258028809
  0.6813693567737147  0.9838785548172737  0.0117802990033198
  0.5919121696197891  0.0815621677740879  0.0829395311923236
  0.5025091842008109  0.1434769061461765  0.1823890411590980
  0.4102782535068314  0.2584455394056846  0.2376064991694378
  0.3538565065522334  0.3548841145256532  0.3177943355481716
  0.2874136369509017  0.4058785077519360  0.4489497725175369
  0.1798985128276129  0.5236255260243610  0.5255005910852688
  0.0634398057401242  0.5777757913436687  0.6248511655592495
  0.9793198509597616  0.6640256778331519  0.7031773329641950
  0.9066403386858610  0.7442938935031407  0.7501328396087104
  0.8402002616279063  0.8424462153931316  0.8342873947951261
  0.7619642238833535  0.9365045505721667  0.9526263468992227
  0.7568711097268377  0.9109446156330776  0.1167821396271691
  0.6573396345514979  0.0008992128091521  0.1651820782576578
  0.5781192284975987  0.0724184814507183  0.2366283471760795
  0.5003338196751557  0.1504715157807297  0.3297053040789990
  0.4329981367663365  0.2630241588224465  0.4265957807308993
  0.3403642672572929  0.3524246608527122  0.4966314345699487
  0.2592419121447023  0.4269333693244732  0.5775833287190864
  0.1773786397194570  0.5020441228313004  0.6604103451458130
  0.0780303663713582  0.5714036148025130  0.7681396566998870
  0.9801852657807331  0.6753062721483971  0.8096690300849048
  0.9271953428386865  0.7683531146179376  0.9112606113879664
  0.8515894172203744  0.8162392169619750  0.0147618849206381
  0.4002721530084870  0.4358556704503513  0.5668526112033945
  0.3478553133074911  0.5086377440937611  0.6560708790143934
  0.2746411650978189  0.5613760825027683  0.7375421202473262
  0.1849258148763369  0.6554814313399788  0.8316819296788509
  0.0637371137873757  0.7362470630306390  0.8825179392764824
  0.0150618678479120  0.8270061327980827  0.0164767146548570
  0.9146554854189759  0.9402614267257263  0.0686914267257279
  0.8296708213362862  0.9758081095422639  0.1886645985603579
  0.7511831607604265  0.0789422595976390  0.2492643756921353
  0.6599699294019956  0.1658176001292020  0.3138024197120686
  0.5900469555186447  0.2503451065891440  0.4177099003322269
  0.5143143046327054  0.3548135432816508  0.4849170667220406
  0.5313335354374331  0.3269223237356940  0.6496328589885536
  0.4342800572166823  0.4225079014396442  0.7230239096530084
  0.3547170930232539  0.4731442118863072  0.8193464539497981
  0.2896291934293131  0.5801481704503502  0.9140880514027288
  0.1745297429863442  0.6481268286268005  0.9833782913436693
  0.0834899727759293  0.7373615886858644  0.0603103737541559
  0.9727178373015875  0.8445407918050947  0.1438129697305257
  0.9215606764488768  0.9276923786452542  0.2643505380214108
  0.8324243074012543  0.9613951924141730  0.3575822960502038
  0.7583017843300084  0.0616802076411958  0.3964206985972680
  0.6877966652823915  0.1488598615725394  0.4857712536913965
  0.5875884625323025  0.2301718373938755  0.5521068240125473
  0.5883247439091903  0.2274293364710260  0.7356488049095589
  0.5323389530269438  0.3076092266518984  0.8204621054817238
  0.4154984800664465  0.4053485068290854  0.9089578359173132
  0.3453436526393503  0.5012949884643803  0.9874686235695833
  0.2588971502399389  0.5557105837024707  0.0965637906053871
  0.1670897840531538  0.6600181902916233  0.1607589751753409
  0.0861853497600578  0.7419256469176787  0.2329433577888551
  0.0060583421004026  0.8461265346991524  0.3422915771502417
  0.9113191408268762  0.9390616445182758  0.4113526181247664
  0.8000686895533420  0.9745028640642275  0.5011133633259490
  0.7150835649686229  0.0733718106312296  0.5615122632890390
  0.6652443470837923  0.1496773528054618  0.6558162979881885
  0.6643678732927256  0.1698319712070884  0.8318300461424855
  0.6014040476190488  0.2319725802879304  0.9569432950350674
  0.5175201425802882  0.3240568530823182  0.9927475152270233
  0.4500729881875216  0.3876588145994830  0.0669193969176831
  0.3577344287559967  0.4604609579180519  0.1695590914544098
  0.2254213496677764  0.5665726527316366  0.2452820980989330
  0.1737010986526428  0.6747210889627198  0.3437699783130341
  0.0927457798080482  0.7674971590070143  0.4052625415282378
  0.9665656829088221  0.8359383393318538  0.4997086129568089
  0.8999020076596551  0.9412298255813951  0.5636639987080088
  0.8160284186969378  0.0059634602251748  0.6753538658176481
  0.7404712666112943  0.0700645704134359  0.7518551098191182
  0.7524495902547059  0.0829931782945721  0.9530765656146158
  0.6797148546511593  0.1689778045404182  0.0212991818936885
  0.5850733485603570  0.2129587822997436  0.0804486738648933
  0.5323686872462190  0.3260250950535237  0.1557415250092262
  0.4357452966961972  0.4047707142857178  0.2558112361572569
  0.3593766731266115  0.5111766371354776  0.3371410423588017
  0.2374586411037285  0.5759605011074171  0.3954578862126255
  0.1932730504798812  0.6796189465669968  0.4973667469545973
  0.0708507165928367  0.7415585585086717  0.6179908960871145
  0.9884812703026924  0.8526637504614243  0.6621403183831660
  0.9140406238464394  0.9457977214839417  0.7352979784975986
  0.8388128552971565  0.0070346926910290  0.8216603949796948
  0.8388090268549249  0.0070316200627545  0.0257237200073845
  0.7415733444075272  0.0668136992432622  0.0989137329272793
  0.6753425129198973  0.1645723223514182  0.1866867312661498
  0.5723525027685525  0.2282605490956087  0.2902559094684420
  0.4865643964562594  0.3566523458840933  0.3484872111480257
  0.3967905195644121  0.4510181875230685  0.4170426827242508
  0.3375235912698429  0.5572092469545993  0.5132581081579914
  0.2577284639165711  0.6164357045957942  0.5950454097452962
  0.1733329148209677  0.6575048717238801  0.6859684468438516
  0.0861109066998864  0.7559167935585052  0.7497593923034316
  0.9905537536914011  0.8492910206718349  0.8150879452750104
  0.8996553276116614  0.9123375724437039  0.9252011531007724
 
  0.00000000E+00  0.00000000E+00  0.00000000E+00
  0.00000000E+00  0.00000000E+00  0.00000000E+00
  0.00000000E+00  0.00000000E+00  0.00000000E+00
  0.00000000E+00  0.00000000E+00  0.00000000E+00
  0.00000000E+00  0.00000000E+00  0.00000000E+00
  0.00000000E+00  0.00000000E+00  0.00000000E+00
  0.00000000E+00  0.00000000E+00  0.00000000E+00
  0.00000000E+00  0.00000000E+00  0.00000000E+00
  0.00000000E+00  0.00000000E+00  0.00000000E+00
  0.00000000E+00  0.00000000E+00  0.00000000E+00
  0.00000000E+00  0.00000000E+00  0.00000000E+00
  0.00000000E+00  0.00000000E+00  0.00000000E+00
  0.00000000E+00  0.00000000E+00  0.00000000E+00
  0.00000000E+00  0.00000000E+00  0.00000000E+00
  0.00000000E+00  0.00000000E+00  0.00000000E+00
  0.00000000E+00  0.00000000E+00  0.00000000E+00
  0.00000000E+00  0.00000000E+00  0.00000000E+00
  0.00000000E+00  0.00000000E+00  0.00000000E+00
  0.00000000E+00  0.00000000E+00  0.00000000E+00
  0.00000000E+00  0.00000000E+00  0.00000000E+00
  0.00000000E+00  0.00000000E+00  0.00000000E+00
  0.00000000E+00  0.00000000E+00  0.00000000E+00
  0.00000000E+00  0.00000000E+00  0.00000000E+00
  0.00000000E+00  0.00000000E+00  0.00000000E+00
  0.00000000E+00  0.00000000E+00  0.00000000E+00
  0.00000000E+00  0.00000000E+00  0.00000000E+00
  0.00000000E+00  0.00000000E+00  0.00000000E+00
  0.00000000E+00  0.00000000E+00  0.00000000E+00
  0.00000000E+00  0.00000000E+00  0.00000000E+00
  0.00000000E+00  0.00000000E+00  0.00000000E+00
  0.00000000E+00  0.00000000E+00  0.00000000E+00
  0.00000000E+00  0.00000000E+00  0.00000000E+00
  0.00000000E+00  0.00000000E+00  0.00000000E+00
  0.00000000E+00  0.00000000E+00  0.00000000E+00
  0.00000000E+00  0.00000000E+00  0.00000000E+00
  0.00000000E+00  0.00000000E+00  0.00000000E+00
  0.00000000E+00  0.00000000E+00  0.00000000E+00
  0.00000000E+00  0.00000000E+00  0.00000000E+00
  0.00000000E+00  0.00000000E+00  0.00000000E+00
  0.00000000E+00  0.00000000E+00  0.00000000E+00
  0.00000000E+00  0.00000000E+00  0.00000000E+00
  0.00000000E+00  0.00000000E+00  0.00000000E+00
  0.00000000E+00  0.00000000E+00  0.00000000E+00
  0.00000000E+00  0.00000000E+00  0.00000000E+00
  0.00000000E+00  0.00000000E+00  0.00000000E+00
  0.00000000E+00  0.00000000E+00  0.00000000E+00
  0.00000000E+00  0.00000000E+00  0.00000000E+00
  0.00000000E+00  0.00000000E+00  0.00000000E+00
  0.00000000E+00  0.00000000E+00  0.00000000E+00
  0.00000000E+00  0.00000000E+00  0.00000000E+00
  0.00000000E+00  0.00000000E+00  0.00000000E+00
  0.00000000E+00  0.00000000E+00  0.00000000E+00
  0.00000000E+00  0.00000000E+00  0.00000000E+00
  0.00000000E+00  0.00000000E+00  0.00000000E+00
  0.00000000E+00  0.00000000E+00  0.00000000E+00
  0.00000000E+00  0.00000000E+00  0.00000000E+00
  0.00000000E+00  0.00000000E+00  0.00000000E+00
  0.00000000E+00  0.00000000E+00  0.00000000E+00
  0.00000000E+00  0.00000000E+00  0.00000000E+00
  0.00000000E+00  0.00000000E+00  0.00000000E+00
  0.00000000E+00  0.00000000E+00  0.00000000E+00
  0.00000000E+00  0.00000000E+00  0.00000000E+00
  0.00000000E+00  0.00000000E+00  0.00000000E+00
  0.00000000E+00  0.00000000E+00  0.00000000E+00
  0.00000000E+00  0.00000000E+00  0.00000000E+00
  0.00000000E+00  0.00000000E+00  0.00000000E+00
  0.00000000E+00  0.00000000E+00  0.00000000E+00
  0.00000000E+00  0.00000000E+00  0.00000000E+00