Li 
 1.0000000000000000
    21.6720000000000006    0.0000000000000000    0.0000000000000000
     0.0000000000000000   21.6720000000000006    0.0000000000000000
     0.0000000000000000    0.0000000000000000   21.6720000000000006
 Li 
 432
Cartesian
  0.4105671100000000  0.3484109000000000  0.3475355400000000
 19.9711150099999983  1.6339425599999999  1.6727363200000001
 18.2712542199999994  3.4727953700000000  3.6840350599999998
 16.6818648799999991  5.2887190899999998  5.3383400500000002
 14.8352297400000008  7.0955212100000002  7.2177359499999998
 13.2706395399999995  9.2558237800000001  9.0421023599999995
 10.9879553100000003 11.7134485099999992 10.5809098899999992
  8.4504040800000002 13.5005789600000004 12.7027814699999997
  6.4645960499999999 14.7081530300000001 14.7633647499999991
  6.2315972500000001 16.3997035800000006 16.7659676399999995
  3.5295077400000001 18.2043954799999987 18.1797425799999992
  2.0949972400000001 19.6061190399999994 19.7825306800000007
  2.0636472200000000 20.2702943200000014  1.6245204400000000
  0.1130674600000000  0.3591583500000000  4.1248985999999999
 19.5205902599999988  1.8689377100000000  5.5139793199999998
 17.9643849600000003  3.6760234800000000  7.3171455999999999
 16.6621601800000008  5.1804891599999996  8.8602856800000005
 14.2637264100000003  7.3587396099999998  9.9869499899999994
 12.4520975800000002  9.2619356899999996 12.5504451899999996
 10.6814951699999998 11.1903253700000000 14.3102287900000000
  9.6499734000000004 13.0366231500000005 16.4687479699999990
  7.4811194399999996 14.1514379300000002 18.6326488099999992
  5.8362717300000000 16.2242521500000016 19.7076960700000008
  3.6316115700000000 17.8198136299999987  0.0956020300000000
  3.5152350399999999 18.1812600700000004  3.3060078499999999
  1.5443800000000001 19.9184218800000004  5.2660675000000001
 -0.3613912400000000  0.4640855200000000  7.3140170299999996
 19.2270860399999997  1.5227399200000000  9.2518625300000004
 17.8735687399999996  3.8561543700000001 11.1375433699999995
 16.2351968299999996  5.4346702400000000 12.0722647999999992
 14.5572874900000002  7.3236963199999998 14.5511470799999998
 13.0059236200000008  9.1338730500000000 15.9104626800000002
 11.3444017600000002 10.6530260600000002 18.1303841800000001
  9.8813502799999995 12.7614105900000006 19.8662211100000015
  7.7783478099999996 14.7308992300000003 22.0731616799999983
  5.5778680800000000 15.9499511700000003  1.5293238800000000
  5.2168062500000003 16.3609495299999992  5.1759216099999996
  3.2442127599999999 17.9677426999999987  6.5457776200000000
  2.0534837000000001 20.0952971900000001  8.9517163100000001
  0.0093334800000000 -0.0209648100000000 11.0798043400000008
 19.0880875500000009  2.0580920800000002 12.2120376400000001
 17.3101492400000012  3.2132446200000002 14.4220549899999995
 16.1356380299999991  5.2488842699999996 16.4410822799999998
 14.1329465800000005  6.3770873799999999 18.6042919799999993
 12.7727763499999991  9.2237273599999998 19.9106425300000005
 10.8538291400000002 11.0157638400000000 -0.0540369200000000
  9.2246686600000007 12.5403789600000000  1.8286471799999999
  6.9473534399999997 14.1489695100000006  3.6567547000000000
  6.9839441000000004 13.9589226899999996  6.6874242700000002
  5.5459345400000002 16.4609606399999997  8.8135249699999996
  3.5090529500000001 17.9625838900000012 10.6084408000000003
  2.0980241700000000 19.6243274399999983 12.5778231100000006
 -0.5615713100000000  0.3057003000000000 13.6429233199999995
 19.7366065299999995  1.3247349799999999 15.8541021299999993
 17.9163471500000000  3.4910168700000002 18.1897739700000010
 15.9479919799999994  4.8678246400000003 20.8948470600000000
 14.2640256700000005  7.4278425700000001  0.1780012700000000
 12.7809136999999993  9.0127336200000006  1.7509155999999999
 10.8374540400000008 10.3350287699999992  3.3834507000000000
  9.2225669799999999 12.0167857399999995  5.4457471999999996
  9.5276908900000006 12.8170674899999995  9.0696422400000003
  6.6973399799999997 14.3615211400000007 10.1600361499999998
  5.3343212199999996 16.7334285099999995 12.7833159700000003
  3.2930171900000000 18.1859534799999985 14.2046595700000005
  1.8492337299999999 20.4704857999999987 16.1278021100000011
  0.6738693500000000 -0.0416632400000000 18.2656412000000010
 20.4750331999999986  1.4433155900000001 20.2093386099999996
 18.1606494400000003  3.2441156800000002 22.0248350399999993
 16.4180714399999985  5.3251575000000004  1.4277400200000001
 14.5437867500000007  6.6826472299999997  3.9100731299999998
 13.1583738799999992  8.4822427800000000  5.5997369800000003
 10.6382242100000006 10.6090671400000005  7.2394118100000000
  1.9006695800000000  2.8012404399999999 20.3485815800000012
 -0.3831245200000000  3.4771470199999999  0.0569820100000000
 19.4589380299999988  5.4422648200000001  1.7442386000000001
 17.3187142300000012  7.1011067399999996  3.2521327200000001
 16.3521615599999990  8.9675904800000001  5.3507927999999998
 14.4576287899999993 10.8109546999999999  7.0867158799999999
 12.1491158800000001 13.1184513000000003  9.0895051900000006
 10.6681635900000007 14.7693062200000007 10.7711389099999995
  8.6689819099999994 16.1720677500000001 12.6127942100000006
  7.1380643299999997 18.8701126399999985 14.5235304799999998
  4.8964426999999997 20.3885199999999998 16.1670631900000004
  3.9456831999999999  0.4040702300000000 18.7724225599999990
  3.7145564700000002  0.5839010300000000 -0.0612071400000000
  1.7121213300000000  2.4177614799999998  1.5496802999999999
 -0.1385262900000000  3.6136842200000001  3.9146986500000001
 19.4499057499999992  5.7384436399999998  5.5071296500000004
 18.4969703599999988  7.3766451200000001  7.2916411500000002
 16.2430985899999989  9.6573845699999996  8.8018792500000007
 14.1293865699999994 10.8012142000000004 10.4658135300000001
 12.9152679999999993 12.3879832699999994 12.8828385000000001
 11.7016744900000003 14.7991097699999994 14.1738880799999993
  9.4046697399999992 16.5086267599999985 16.4833235500000015
  6.8921114899999996 18.6821443800000004 18.8693476199999992
  5.6522678700000002 20.4082300200000013 20.5183002300000012
  5.2886007099999999 19.6514961600000007  1.6742977600000000
  3.1949087199999999  0.3700273700000000  3.4806501000000001
  1.8164690900000000  2.3699583199999998  5.3614428500000004
  0.1895030900000000  4.1024874200000001  7.0534233400000002
 19.7738071600000005  4.6144854600000000  8.9197312899999996
 18.4998007400000013  7.3361261000000004 10.4845866599999997
 16.0461403699999998  9.1335299400000007 12.2355395500000004
 14.1961489600000004 10.5655249900000001 14.0496509900000000
 13.4993193700000003 12.5324388199999994 16.1221323100000014
 11.5994510200000001 14.6546346599999993 17.8549182299999991
  9.3826972000000008 16.1198472399999986 20.0131301400000012
  7.4693656800000001 17.5364403899999992 21.5296005599999987
  7.0703520800000002 17.3446788699999992  3.3680079100000002
  5.5095511400000001 19.5285811699999989  5.0872609100000004
  3.8506936399999998 -0.4678980400000000  7.5972114499999996
  1.9030534699999999  2.0194524000000000  8.8733147999999993
  0.0017110500000000  3.3088888000000001 11.0108137100000008
 19.4823071500000005  5.3150338000000001 12.9977992600000007
 17.5907321299999992  7.6689259900000000 13.9509606599999998
 15.4579756800000006  9.1267671000000004 16.2349496400000000
 14.4476651700000005 11.1221911200000001 18.4811395000000012
 12.5602894599999999 12.5872289899999998 19.9151832800000008
 11.6148873600000009 14.4418915400000003 21.7460298999999999
  9.7045516500000009 15.6812304200000003  1.9833155200000001
  9.2212557499999992 16.5063527999999984  5.0955598799999997
  7.1522829500000000 17.9567571699999995  6.9837826099999996
  5.9998510300000003 19.4475620599999992  8.9134339699999998
  3.6005673200000001  1.2280225600000001 10.5699224500000000
  1.7700228600000001  1.6900713100000000 12.6445228800000002
 -0.2528299600000000  3.2769954100000001 14.5739347400000003
 19.4455094099999997  4.9413274300000003 16.1757483300000011
 17.4380324100000017  6.6098888400000000 18.4930604800000005
 15.8659589899999993  8.2043522400000004 19.7545403600000000
 15.0867896699999999 11.0536671200000001 20.9773787499999997
 13.0806172200000006 11.9592088200000006  1.8617459999999999
 11.3088788200000003 14.0406080499999995  3.6125571800000000
 10.3573697500000002 14.6661610699999994  6.2752784799999999
  8.3684872600000002 15.4929938600000003  8.7147342099999996
  7.7842292999999998 18.0744716399999987 10.8795828300000004
  5.1012768399999997 19.8503815800000005 12.8727220599999992
  3.8798602400000002  0.2843815600000000 13.8155003700000005
  2.0805252599999999  1.4864208900000000 15.9399133400000004
 -0.3595201800000000  3.1222771300000001 18.2767083700000015
 19.6577476100000013  5.3203740699999997 20.0995051700000005
 17.6358970100000008  7.3791127000000003 21.9503843399999994
 15.3839679500000006  9.1604965400000005  1.7637945100000001
 14.0201514100000004 10.1443275800000006  3.6224807900000000
 12.9016403200000003 12.1546307900000006  5.0637179000000003
  4.0115885200000001  3.9102747099999999 17.8564302499999989
  1.4490815300000000  5.8064957799999997 19.6150049200000005
  0.0318613100000000  6.9536436400000001 -0.0622233900000000
 20.3359287900000005  8.8662606600000000  1.8531825300000000
 18.0086235499999994 10.1280833000000001  3.1999458800000000
 16.6611100800000003 12.1892383700000000  5.2522351199999999
 14.8298255700000006 14.1645690900000005  6.3406543199999996
 12.4376093000000001 15.8398848000000001  8.8649198400000007
 10.9757330700000004 17.8606725699999984 10.6451472299999992
  9.1264322500000006 20.1018875900000005 12.6117655600000003
  6.9939909099999999 21.9707087100000003 13.9220749700000006
  5.8632492599999999  1.8225900100000001 16.0682595500000005
  6.0024708300000000  3.0432724800000002 19.8807963100000009
  3.5216935999999999  4.1833014000000004 -0.6629817000000000
  1.3685300899999999  5.2257762699999999  2.0417159599999999
 -0.0345501100000000  6.8779041300000001  3.8320465900000000
 19.9677983400000016  8.6654689600000001  5.6029308100000002
 17.7195434499999998 10.7408559300000004  7.6751245700000004
 15.5754082900000004 12.5154171999999999  9.1278541099999995
 14.3996063999999997 14.3038560300000004 11.1168041300000002
 12.3902564599999998 16.4744530900000008 12.5359509700000000
 10.4658393699999994 17.8060119899999982 13.8974433600000005
  8.9218808000000003 19.6025893400000015 16.1121878400000007
  7.1546526899999998 21.5678987500000012 17.7560967900000009
  7.9572475300000001  0.1070967400000000  0.0563360800000000
  5.4065855500000000  2.0737749700000001  1.5761075099999999
  3.8525873800000001  3.4365334900000000  3.9097667899999999
  1.8233559699999999  6.2911707999999997  5.9409155699999996
 -0.3924698200000000  7.8380823700000004  7.8129482299999999
 19.6616338299999995  9.0448995900000000  9.4329574300000001
 18.4416638000000006 11.3942686799999997 10.9685339600000002
 16.2763819400000003 12.3519893500000002 12.8420224600000008
 13.9008104499999998 14.6456395199999996 14.8717301800000001
 12.9458492199999995 17.0535179600000006 16.0655934500000015
 11.3013068499999996 17.7456620899999997 18.2547673099999983
  9.2512580599999996 20.3142833699999983 19.7955203900000001
  8.9264749299999995 20.0846975400000005  2.2434714400000000
  7.2145576800000004  0.3403265200000000  3.3080156800000000
  5.8803505100000004  1.5867193100000001  6.2593912600000001
  3.3649705399999998  3.7434800899999998  6.7108672900000004
  1.7335758299999999  5.3418951400000001  9.0228392199999998
 -0.0128293800000000  7.2233304000000000 10.6491300199999994
 19.8266911400000012  8.9327415699999992 12.0745991999999998
 17.4597426200000001 11.2246778599999999 14.4429043600000000
 16.0162845999999988 12.8786744199999994 16.7251912199999992
 14.0998874199999999 14.7323367899999997 17.6323228500000013
 12.9146702399999995 16.1920642699999995 19.7048376699999999
 10.9123995600000008 18.1953124399999986 22.1838533799999986
 10.6824612200000004 18.1393182800000012  3.4112725799999999
  8.7612051100000006 20.4499110900000005  4.8012442399999999
  6.9116922499999998  0.1145336900000000  7.4251448099999999
  5.9601474400000001  2.0366550999999999  8.5484508800000008
  3.3603033500000001  3.2494776700000001 10.2526490300000006
  1.0030089900000001  5.7205083800000001 12.7578356500000005
 -0.1038447500000000  8.0200489400000006 14.8246624600000008
 18.9157458299999988  8.4434863799999995 16.3190099400000008
 17.7933709299999983  9.8929791900000001 18.1744791200000009
 16.2603851299999995 12.9881133299999991 19.4409956000000008
 14.6843119699999995 14.7645712499999995 21.7717321199999994
 12.9123739200000003 16.4554714100000012  2.0627753499999999
 12.4884623200000000 16.2085115799999997  5.6022064800000004
 10.4342398999999997 18.1672227699999986  7.5337542500000003
  8.5445003199999991 19.6005288399999991  9.4575489400000006
  6.7671089100000001  0.2701018400000000 10.5065642599999993
  5.2668339900000003  2.2421765800000002 12.2004429000000005
  2.6824680900000000  3.7219845399999998 14.1392787400000000
  1.2083113000000001  5.2947883300000003 15.8536940899999994
 -0.7684160700000000  7.0749966000000004 17.5397279300000015
 20.0860090900000010  8.8915513100000005 19.7530470499999993
 18.0321521099999984 10.3671871499999995 21.6883386099999989
 15.9147120799999993 12.6078706799999996  2.1328944500000002
 14.3387288999999996 14.4200454499999999  3.8321456299999999
  5.6856300900000001  5.1890944699999997 15.4687765499999994
  3.3287174899999998  7.0730073400000002 17.8020730500000006
  1.2661855000000000  8.8714483099999999 19.0093603299999998
 -0.1302132400000000 11.0971206500000008  0.1724615000000000
 20.1023879600000015 12.7789797800000002  1.7142550999999999
 17.9426933700000006 14.3234069999999996  4.3960977500000000
 15.7846410800000001 16.5972925899999986  5.0181137700000003
 13.9284776899999994 17.1963583600000014  7.1218121099999996
 12.7116637800000003 19.7892155900000013  9.2586313199999992
 10.7572727399999994 -0.6562334200000000 10.0345672300000004
  9.1691460500000002  1.9207098899999999 12.1286662100000004
  7.2542571699999998  4.0045621200000001 13.8186770699999997
  7.1979319200000003  3.6894428600000002 17.8419278900000009
  5.2715346600000004  5.9814582500000002 19.7288057399999985
  3.1471498900000001  7.5869090799999999  0.0596931200000000
  1.0781202200000000  8.3204309900000002  1.6218548300000000
  0.3075314400000000 10.5517189100000000  3.7021205699999999
 20.4053413299999988 11.6398481300000007  4.9117471899999998
 18.4190117600000001 13.6724584199999999  6.8354640399999997
 16.0201148400000015 16.0649615799999985  9.4000125800000003
 14.3997514700000000 18.3748095599999992 10.7783880599999993
 12.6505480499999994 19.8322694499999983 12.8481376300000001
 11.1550493199999998 21.7333554500000012 14.8848181600000000
  9.5705793999999997  1.8756041500000000 16.1108608300000000
  8.7672670999999998  1.5840331999999999 20.0307892999999986
  7.6668510400000001  4.1221223699999996  0.5431889300000000
  5.0686156200000001  5.5884281400000004  1.7051788400000001
  3.2251753100000000  7.3291561500000002  3.8356904500000000
  1.2132724800000001  9.0512716199999996  5.6217739800000004
  0.1519674600000000 10.4382930100000006  7.1633932500000004
 20.3314847500000013 12.2827445199999996  8.8622783599999995
 18.1866899199999992 14.0918383600000006 10.2432983400000008
 16.3072159399999990 15.7164643999999996 12.1432306200000006
 14.3435286499999997 18.3990682200000002 14.3087277400000001
 12.6401095699999999 20.0938906499999987 16.3006245099999987
 11.0236900799999997  0.2077649100000000 18.3002881700000017
 10.5395245200000005  0.2779897800000000  0.8456765600000000
  8.8632705699999992  2.1237357600000002  1.7541566799999999
  6.8612094900000002  3.2654224599999999  3.7185359299999998
  5.2509795600000002  5.2051391400000000  6.1960472600000003
  3.7274327899999999  8.1783351000000000  7.3719965700000003
  1.6983117700000001  9.2245377600000005  9.4599066999999994
  0.1079329400000000 11.0312039899999998 11.0595130600000005
 19.9548610000000011 12.5754027599999993 13.1387673100000004
 18.1825934300000007 14.4378175100000004 15.1926091299999992
 16.4598944600000010 16.3177387299999985 16.6013380099999992
 14.9032490299999996 18.1400688199999998 18.3572983399999998
 12.5550180999999998 20.1377726999999993 20.0810230899999986
 12.8625642700000000 20.0098418000000002  2.2476351299999999
 10.9933689000000001  0.6868286400000000  3.0645874700000002
  8.6947427200000007  1.9217110700000000  5.3031031700000000
  7.2397600500000001  4.0220769199999999  7.1941733799999996
  5.5720854400000004  6.1165461299999997  9.2101482899999993
  3.2167776799999999  7.3482506200000000 11.0844830600000002
  1.5728013100000000  9.3507090099999992 12.9191041000000002
 -0.7364905300000000 10.6734010000000001 14.5969966200000005
 18.9855521399999994 12.3264981999999996 16.8846435399999990
 18.6228487999999999 14.7894052200000008 18.2482087300000018
 16.5878678999999991 16.3336776499999985 20.1414584900000015
 14.9579811300000003 18.5700031400000007  0.3597427400000000
 14.7085331999999998 18.0753394100000015  3.7131856000000001
 12.0709237500000004 20.0567195200000015  4.9958422400000000
 10.2151153299999997  0.2651790500000000  7.8064047499999996
  8.6799128099999994  2.6075086999999999  8.9909361699999994
  6.6902553100000004  4.0760711699999996 10.9451947500000006
  5.5288613000000000  5.6851158899999996 12.7206075700000003
  3.4195525600000001  7.3733015399999999 14.2212839300000002
  1.9820745600000000  9.0127250900000000 16.0845796700000001
 -0.4189168600000000 10.4080137399999995 17.7632972900000006
 20.2371907799999988 12.3109130300000000 19.7504092799999995
 18.4324076000000012 13.9496316799999995 -0.2096939500000000
 16.4006428600000014 16.0752755699999987  2.3722037000000000
  7.9602939700000004  7.4387050800000001 14.2048378000000000
  5.3440845100000001  8.9648467600000004 16.0319811399999992
  3.3058384599999999 10.9217898699999996 17.7627526600000003
  1.0710555500000001 12.5205587400000002 19.8871393199999993
  0.0725767000000000 14.5563079599999998 -0.2354554500000000
 19.9331844099999991 16.0883607799999986  2.1635008899999999
 18.2833963200000014 18.4399766499999984  3.9234752500000001
 15.7614120700000004 19.7246920199999991  5.7287906299999998
 14.2700028600000000 -0.7165699700000000  7.1976888299999997
 12.8753462699999996  2.0041210999999999  9.1666913599999997
 10.6551905700000002  3.7915702599999999 10.4324835700000005
  9.3791506600000005  5.9677878099999999 12.5596404400000008
  9.7966388200000001  4.9691828500000002 15.8382620599999999
  7.3312904899999998  6.8008419299999998 17.3144965400000004
  5.8259319300000003  9.1667789200000005 20.0914378800000009
  3.2021427099999999 10.3775397199999997 -0.3269643200000000
  2.1598509699999999 12.4948319699999999  1.5694027100000001
  0.6592208700000000 14.5003402200000000  3.5388694500000000
 19.9485508600000010 16.4267913099999987  5.6519378099999997
 17.4282736000000007 17.7733432899999997  7.1480065399999999
 15.9254438900000004 19.3281411900000002  8.9221767700000001
 14.4584438399999993 -0.4229254300000000 10.0196960399999995
 12.7018101699999999  1.2035873600000000 11.8330068700000002
 11.4415449500000008  3.4066638800000000 14.0237505099999993
 11.0983523099999992  3.5653283999999998 18.3772634000000004
  9.6891562300000000  5.5370406799999996 19.6238321199999994
  6.9602735300000003  6.6846179599999997 -0.2192483800000000
  5.7507023500000001  8.7786531700000001  2.1705722600000001
  3.5140982799999998 10.5659383699999996  3.7086190000000001
  2.6701663700000000 12.4437449600000001  5.5854084100000003
 -0.3873006700000000 14.7002400600000005  6.9956459700000000
 19.3761322199999988 16.2549312099999987  9.2908981799999992
 17.8790883899999997 18.2945339699999998 10.8183694900000003
 15.7558294399999994 19.7929231500000000 12.9140385599999998
 14.2209418000000003 -0.0093226100000000 14.9901013899999995
 12.7390226099999992  2.0665431299999999 16.9824769499999988
 12.8489880799999998  1.9455641299999999 20.5468871600000007
 10.8369453199999999  3.8726988300000000  0.3095999100000000
  9.2937068499999995  4.9937266200000003  2.1241662200000002
  7.0186863199999996  6.5740615000000000  4.5565560300000003
  5.5900894399999999  9.4008088900000004  5.4487271899999996
  3.4817952700000001 10.5521645100000008  7.6978291099999998
  1.5436658400000001 12.4550770199999992  8.5917548900000007
  0.0821316700000000 14.8144159399999999 11.1999411000000002
 19.1635652699999994 16.4723114399999986 13.5057116500000003
 18.0812012200000005 18.2296951999999983 14.5784990600000004
 16.6183366600000006 20.2566952399999991 16.6598903999999983
 14.8450959699999991 -0.6128278900000000 18.3616329000000000
 14.7666366999999994 -0.3493839600000000  0.2553026400000000
 12.8279205399999991  1.7676152999999999  1.7974655200000000
 10.8903790399999991  3.1094315099999998  3.9527353000000001
  8.8915503099999995  5.6010317299999999  5.1494080499999999
  7.6687782100000002  7.6910485299999998  6.8872388400000002
  6.2288283399999997  8.7961990199999995  9.7296394700000004
  3.8987605699999999 11.3480124000000000 11.3886488099999994
  1.3748674700000001 12.5215569500000008 13.5417744599999992
 -0.4481801900000000 14.3907644900000005 15.2392591599999996
 19.6487094199999994 16.1303372600000010 16.2568789000000002
 18.2088200700000016 18.2574943800000007 18.0806764199999996
 16.5132886600000006 20.2959266199999995 20.6453181900000011
 16.4029106899999988 19.7419917100000006  2.5309025300000001
 14.2458645599999993  0.0194877400000000  3.5798260000000002
 12.5289999200000004  1.5694533300000000  5.1282095400000003
 10.8432345399999992  3.2610186900000002  7.1453733499999998
  9.3839356200000008  5.7002595700000001  9.2451837599999998
  7.3763744000000004  7.6377472500000003 10.7629964499999993
  5.6182907200000001  9.2524999799999996 12.5173859000000007
  3.8441498799999998 10.8803002299999996 14.3124129999999994
  1.6910741000000000 12.3834591399999994 16.6471226399999992
 -0.4294249200000000 14.6352375299999995 17.5471472199999994
 20.0941774700000018 16.6517486999999988 19.7488399699999988
 18.4556458499999998 17.6895363100000012  0.3199195700000000
  8.6746981000000005  9.4458640900000006 12.2848297899999999
  7.5387203500000002 11.0231971899999994 14.2183680900000002
  5.9520233300000003 12.1661424599999997 15.9840128299999993
  4.0077122599999999 14.2055935800000004 18.0242107800000007
  1.3813107300000000 15.9559463499999996 19.1259287799999989
  0.3264208000000000 17.9228769099999994  0.3570833600000000
 19.8224136800000004 20.3773456400000015  1.4886805999999999
 17.9806260400000006 21.1477133500000001  4.0887391800000001
 16.2796414600000006  1.7108366500000001  5.4020575500000003
 14.3028683099999991  3.5935990300000000  6.8007260399999998
 12.7874976199999999  5.4254791500000001  9.0526089600000006
 11.1462196099999993  7.6895191100000000 10.5091226700000000
 11.5150603799999995  7.0850606000000003 14.0788433200000007
  9.4117174000000006  9.1565912399999991 15.6693741699999993
  7.6874288399999999 10.2539813599999992 17.7568763499999989
  6.2768438800000004 12.5729711500000008 19.8101162500000001
  3.7824085900000002 14.0462046300000001 -0.3602256700000000
  1.8093946900000000 15.9801003500000007  1.3070464200000000
 -0.5912590300000000 18.3028880399999991  3.1167146799999998
 19.9720629800000005 20.1049492299999990  5.7290048599999999
 18.0402995900000001 20.8353566100000016  7.7495235200000003
 16.4339162700000010  1.3367334600000000  8.5912293799999997
 14.9059293299999993  3.2260909199999999 10.5276346099999998
 12.7342171600000000  4.9882840599999998 11.9652590900000000
 12.7501738499999995  4.9288485800000004 15.9429809000000002
 11.5368497899999998  6.6665071600000001 17.7810547499999991
  9.0046830599999996  8.7847128399999992 19.6989342200000017
  7.4842876399999998 10.8640649899999993 -0.2715799900000000
  5.6108190400000000 12.0433597700000004  2.0927304699999998
  3.6211698000000001 14.3039142199999993  3.4839685100000000
  1.8678089000000000 16.0790126200000003  5.0483484499999998
  0.1312963900000000 18.3372542600000017  7.4181430600000002
 19.7501084200000001 20.3513439600000012  8.9148339399999994
 17.3390886399999999 -0.5525739300000000 10.8601288100000009
 15.4972910200000005  1.5901138800000001 12.1690937699999999
 14.4171754900000000  3.2438075899999999 14.2128508100000008
 14.3981805499999993  3.6805984800000000 18.0274207599999983
 13.0336285200000006  5.0273097599999996 20.7388750900000005
 11.2156965300000007  7.0229601199999996 -0.1571758500000000
  9.7539818000000000  8.4013418299999998  1.4502771699999999
  7.7528205400000001  9.9791098799999993  3.6746846299999998
  4.8853314900000004 12.2787625299999998  5.3157536299999997
  3.7644502100000001 14.6225554399999993  7.4501829700000002
  2.0099865399999999 16.6331984300000002  8.7828497999999993
 -0.7245885200000000 18.1164556899999987 10.8296850599999992
 19.5026763099999982 20.3983327800000005 12.2157261800000008
 17.6849678899999994 21.8012401099999984 14.6362689800000005
 16.0474932899999985  1.5184393700000001 16.2942039399999992
 16.3070875199999996  1.7986281600000000 20.6550753299999990
 14.7307803300000000  3.6620869800000002  0.4615958700000000
 12.6797096099999997  4.6152427300000003  1.7434836600000001
 11.5374941900000003  7.0656158600000003  3.3752303299999999
  9.4434720700000003  8.7721909199999999  5.5439411099999996
  7.7884112600000002 11.0782200799999995  7.3065206700000003
  5.1462036700000002 12.4822159799999994  8.5703633099999994
  4.1886135500000004 14.7287018100000004 10.7789321400000002
  1.5354767300000001 16.0710570799999992 13.3930986999999995
 -0.2496339100000000 18.4789287999999985 14.3499049799999998
 19.8090884000000003 20.4973282200000000 15.9353777900000004
 18.1787522000000017 21.8244558600000005 17.8070240800000015
 18.1786692300000006  0.1523892700000000  0.5574844600000000
 16.0713775199999986  1.4479864899999999  2.1436584200000000
 14.6360229400000001  3.5666113699999999  4.0458748399999998
 12.4040234399999996  4.9468626200000001  6.2904260699999996
 10.5448236000000009  7.7293696399999998  7.5524148400000000
  8.5992441399999997  9.7744661599999993  9.0381490200000005
  7.3148112699999999 12.0758387999999997 11.1233297199999992
  5.5854912700000003 13.3593945900000008 12.8958241200000003
  3.7564709299999999 14.2494455799999997 14.8663081800000008
  1.8661955699999999 16.3822287499999995 16.2487855500000009
 -0.2047190500000000 18.4058349999999997 17.6645859499999993
 19.4973302599999982 19.7721798699999987 20.0509593899999992
