Li 
 1.0000000000000000
   -11.1791050000000016   19.3627778431472777   -0.0000000000000023
   -19.1641800000000018  -11.0644444817984429   -0.0000000000000019
     0.0000000000000000   -0.0000000000000001   23.4479499999999987
 Li 
 504
Cartesian
 -0.0321355000000000 -0.0443860000000000 -0.0855044000000000
 -11.0402635999999994 17.4273803200000010 15.5929388000000007
 -11.2635095500000002 15.7209479200000004  7.8528582699999996
 -11.3463692500000004 13.9771017900000007  0.0405004300000000
 -11.0767156500000006 11.8166755400000003 15.6131413099999996
 -11.1369383800000001 10.1224870599999992  7.9945617599999999
 -11.0164712399999996  8.3414890899999996  0.1509577700000000
 -11.2021799200000007  6.4852289699999996 15.7850183800000003
 -11.2277690999999997  4.4217883599999999  8.0404687300000006
 -11.3127593199999996  2.6792059899999998 -0.0947263800000000
 -11.1908306199999998  1.0061111400000000 15.6482826100000008
 -10.8957534400000000 -0.9531506600000000  8.0182940200000008
 -1.6792407199999999  0.9839636800000000 15.5699065700000006
 -1.6018854600000001 -0.9518557900000000  7.7035686600000002
 -12.8773278799999993 16.6401762499999997 -0.1642678700000000
 -12.7185167700000008 14.8453053199999996 16.0618462199999996
 -12.6716300099999994 12.8496573099999996  7.9775789899999996
 -12.7975516099999993 10.9287057900000004 -0.0495783200000000
 -12.7142373499999994  9.2806911099999994 15.5506876599999995
 -12.6697525399999993  7.1321440000000003  8.1195188300000005
 -12.9418897499999996  5.5074225400000003 -0.0860636400000000
 -12.7293140000000005  3.6809981500000002 15.2550538600000003
 -12.7118035999999996  1.8118021499999999  7.7615261599999998
 -12.7864352799999992  0.0853743800000000 -0.1875483500000000
 -3.2585302899999999  1.7116584600000000  7.8841666100000003
 -3.3547960400000001  0.0176397400000000  0.1283994200000000
 -3.2603909099999999 -1.8466154600000000 15.7326554499999993
 -14.3346562300000002 15.6637172299999996  7.6199914099999999
 -14.6253172500000002 13.7443752900000007  0.0965207000000000
 -14.3024585900000005 12.0027160399999993 15.6436751399999991
 -14.4046485000000004 10.1867151000000007  8.1275269199999993
 -14.2866580600000006  8.2886211200000002 -0.0660139200000000
 -14.2834802199999995  6.4406714699999998 15.4822957999999993
 -14.3090511399999993  4.4293789200000004  7.7975794199999999
 -14.1134590000000006  2.7328890800000001  0.1748942700000000
 -14.4142213399999992  0.9932618300000000 15.6233655299999992
 -4.7603580100000000  2.8201839500000001  0.1281433200000000
 -4.6333689900000001  0.7697039600000000 15.8874082699999999
 -4.7675822500000002 -0.9149541500000000  7.8584230499999999
 -5.1001704700000001 -2.7102556600000001 -0.0252264300000000
 -15.8248781800000007 14.7723490500000008 15.6190613900000006
 -15.8972960699999994 12.6861516900000009  7.5919863100000002
 -16.0473451300000001 11.1324682100000008 -0.0127950500000000
 -16.1805194899999982  9.1013816500000004 15.5963926300000004
 -15.8853906400000007  7.3706444400000004  7.3149499899999997
 -15.9825027899999998  5.4627691599999997 -0.3263083100000000
 -16.1526033399999989  3.6735630700000002 15.4201703099999996
 -15.9096708499999995  1.6484512400000000  7.9893998000000002
 -6.1950182900000001  3.6262970299999999 15.9497634000000001
 -6.3164567199999997  1.7185592599999999  7.8457954200000000
 -6.4698187899999997  0.1094767400000000 -0.2018949200000000
 -6.1746922800000004 -1.9381556700000000 15.4115785499999998
 -17.7288603699999996 15.5442386999999993  7.4913752000000002
 -17.9565068100000005 13.7007902500000007 -0.0511432500000000
 -17.5770208699999984 12.0753434500000001 15.6032440399999999
 -17.4380679900000004 10.2199680300000004  8.0321504000000008
 -17.5592978899999999  8.3405265100000001 -0.3308515700000000
 -17.6707359500000010  6.4243549299999998 15.4769589199999995
 -17.5204446099999984  4.4241669500000000  8.1130038399999993
 -17.3273075699999985  2.6002540999999999  0.1954086400000000
 -8.0875509000000001  4.5105786400000003  8.2865923400000003
 -7.8539172199999996  2.6354321199999999  0.1867801900000000
 -7.7216078300000000  0.6614159600000000 15.7618571099999993
 -8.0261069200000001 -1.0828772300000000  7.7270257600000001
 -7.9958926699999999 -2.6638371300000001  0.2361653000000000
 -19.0854236099999994 14.7059100100000002 15.6063490500000004
 -19.0372204200000006 12.8553654399999999  7.9805114599999998
 -19.4447585899999993 11.1455887600000008  0.0191527000000000
 -19.2634955400000010  9.1963060999999993 15.2436043699999999
 -19.2524009400000011  7.4242369600000000  7.5987708100000004
 -19.2804508299999995  5.6153381900000001 -0.1119488000000000
 -19.2711387000000016  3.5714812999999999 15.7907529300000000
 -9.5326961699999995  5.4636305500000004 -0.0502576100000000
 -9.6601414900000009  3.5984157600000000 15.5694161599999994
 -9.5225714999999997  1.7291040400000000  7.9616978800000000
 -9.7119675200000000  0.0064244000000000  0.0763081000000000
 -9.5020986700000005 -1.9109729099999999 15.7133164200000000
 -9.7089139200000005 -3.7478213399999998  7.6923104499999999
 -21.0620773099999994 14.0386512000000003 -0.1720012000000000
 -20.7230741999999992 12.0335520700000007 15.6537780899999994
 -20.8270453300000007 10.2073492600000009  7.4715021799999999
 -20.8619158300000009  8.3565001900000002 -0.3499886800000000
 -20.9515927099999999  6.2820989200000001 15.5791517099999997
 -20.9012330800000008  4.6384013499999996  7.9447404900000000
 -11.2968723700000009 -2.7790380099999998 -0.1649605200000000
 -11.2391762199999992 -4.7966794200000002 15.6717534700000005
 -22.3677926199999995 13.0520336500000003  7.8972193900000001
 -22.3866621499999994 11.1321331699999995 -0.3436034800000000
 -22.4130861999999986  9.1747669399999996 15.2493022400000005
 -22.5185802799999983  7.3266747600000004  7.9329185400000002
 -22.4420053400000015  5.4542843899999998 -0.0029168600000000
 -12.8293781500000001 -1.8514348700000001 15.4121682199999999
 -12.9007384100000007 -3.6242823600000000  8.0422678399999992
 -12.9211822499999993 -5.4616167000000004 -0.2440344700000000
 -23.9357459599999984 11.7551652200000003 15.9168297800000005
 -24.1181673500000002 10.1680705699999994  7.7383486100000001
 -23.9838406199999987  8.2694328299999995 -0.3006968200000000
 -24.0455748999999983  6.3302499599999997 15.7811026900000009
 -14.6664818199999996 -1.0350927599999999  7.8253785400000000
 -14.3906865699999997 -2.7253754200000002 -0.0533721200000000
 -14.3781903399999997 -4.6624291099999997 15.7583980500000003
 -14.5410328599999996 -6.3531265899999996  7.9841553599999999
 -25.6597553100000013 11.0059903499999994 -0.0965737000000000
 -25.6018441000000010  9.2200728000000005 15.6124312100000004
 -25.4694516799999988  7.5140831600000002  7.4987130500000001
 -15.8109607699999994  0.1151773200000000  0.0143825000000000
 -15.9347155100000002 -1.7944367299999999 15.9366999899999993
 -16.1085382599999996 -3.7851252999999998  8.2395456899999999
 -15.9604293800000008 -5.6477261800000003  0.0320283400000000
 -15.9833765299999992 -7.4280242000000003 15.8043040599999998
 -27.3832550499999989 10.2098220699999995  7.7844368499999996
 -27.1497156299999993  8.0517300400000007 -0.2037343600000000
 -17.6843996600000004  0.9142825000000000 15.8230282199999994
 -17.9111322000000008 -0.9870027000000000  7.7856469300000004
 -17.3046773400000014 -2.7978029599999998 -0.0342001900000000
 -17.5359129299999985 -4.4113439799999998 15.6910030500000008
 -17.5587208900000000 -6.5077345500000003  7.8181098899999997
 -17.4821054999999994 -8.2586280999999993 -0.0109602000000000
 -28.6947137199999993  9.2649780199999991 15.5663551099999999
 -28.7982946300000009  7.3141546799999997  7.6283098899999997
 -9.7037336199999995 16.6177972999999994 -0.0263533600000000
 -9.6171335899999999 14.8649844600000005 15.9037922300000005
 -9.4927084599999993 12.9821066300000005  7.5168464999999998
 -9.6652674699999999 10.9200047700000002 -0.0328642200000000
 -9.7520624700000003  9.2762992000000004 15.7547241600000003
 -9.5629575800000008  7.3486845499999998  8.0512356900000004
 -19.1959616900000007 -9.2666968799999996  7.5104359699999996
 -1.4858662000000000  2.8054771199999999  0.0642574100000000
 -2.8311922699999998  3.7850036000000000 15.4832235100000002
 -4.8545056400000002  4.2991925200000001  7.7577038800000002
 -6.2310681700000004  5.6033723000000002 -0.2900162600000000
 -7.8936201300000004  6.3077332100000003 15.8424090700000004
 -27.2170283700000013  6.4979162800000001 15.5152202100000007
 -27.0666910899999991  4.8013464800000003  7.4564197400000003
 -8.0786194299999998 13.7945789199999993  0.1557173900000000
 -8.0342198600000003 12.0461596800000006 15.7524047199999995
 -7.8303920800000002 10.0208681899999998  8.0317423899999998
 -7.8094776200000000  8.3181271500000005  0.0482369900000000
 -19.0357066999999986 -7.3684552900000000 15.5558404699999997
 -20.7279337699999999 -6.6402186900000002  7.6784185699999998
 -2.8783626199999999  5.7345735299999996  0.0075651000000000
 -4.7412615300000001  6.4667017400000004 15.6159172599999998
 -6.4351800600000004  7.2239847499999996  7.7930329299999999
 -25.6757180600000012  5.5197740099999999 -0.0005956300000000
 -25.4708268599999990  3.8146542399999999 15.4959729599999996
 -25.3852617100000018  1.8504195699999999  7.6900285000000004
 -6.4321688200000002 11.0306252300000001 -0.0538069500000000
 -6.4818314900000003  9.2258616399999998 15.6094009099999997
 -18.8759014600000015 -5.3543769799999996  0.1320878100000000
 -20.7827228499999990 -4.2812288000000001 15.6111342299999993
 -22.3312781899999990 -3.9191297600000001  7.9321306700000003
 -4.8167298699999996  8.2725871400000006 -0.2154121600000000
 -24.0087052599999993  4.7306022900000002  7.9436451699999999
 -23.8979216100000009  2.7405353500000000  0.3992795000000000
 -23.9413753599999986  0.8921052700000000 15.5458277400000000
 -24.0990590100000013 -1.1350671100000000  7.7389539599999999
 -19.4394713299999999 -3.7592356699999998  7.8226999599999996
 -20.4489232399999992 -2.9695354200000001  0.3396220900000000
 -22.3114725500000013 -1.6305802000000000 15.5825755600000004
 -22.4528276300000016  3.5337378600000000 15.4790438500000000
 -22.4198466200000013  1.6400026900000000  7.6926393700000002
 -22.3305089899999984 -0.2982261500000000 -0.3430208000000000
 -19.0872898000000006 -1.8996600600000000 15.7950027399999993
 -20.8719003399999998 -1.0714627299999999  7.5712749800000001
 -20.6537346600000014  2.7167085000000002  0.0804996900000000
 -20.6114278300000002  0.8273381900000000 15.2197459800000008
 -19.0683916199999999 -0.0305184400000000  0.2089853700000000
 -19.3080122600000017  1.7562660699999999  7.7847905199999996
 -0.0785712300000000 -0.0724041600000000 18.1828817100000002
 -11.3203140599999994 17.3072170400000012 10.4364097099999995
 -11.0279528899999999 15.9383387200000008  2.6486728300000002
 -11.4420850699999992 13.8654576400000007 18.5244360099999987
 -11.0843676099999993 12.2115338799999993 10.3889882199999999
 -11.3332989400000006  9.9033507200000006  3.0659829500000000
 -10.9215857300000003  8.2900508599999991 18.0876764100000003
 -11.1035490499999998  6.4676354600000003 10.5518905899999993
 -11.2088671099999999  4.9046298400000001  2.4412618899999998
 -11.2747133799999997  3.0840843599999999 18.1239587200000010
 -11.3935934400000001  0.7792377800000000 10.3271656499999995
 -11.1253209799999997 -0.9374735500000000  2.1474582700000000
 -1.6655272200000000  1.1412114099999999 10.4896386600000007
 -1.7076942399999999 -0.7794640800000000  2.9471606100000001
 -12.4592727599999993 16.5399797500000005 18.7406480900000005
 -12.7757004599999995 15.0213961000000005 10.6538331399999997
 -13.0708656399999992 13.0623071599999996  2.2277357900000001
 -12.8917120599999997 11.1431596099999997 18.1713985499999993
 -12.9481803499999995  9.3482623300000007 10.4492864500000007
 -13.0530447100000000  7.6215875700000000  2.9788360100000002
 -12.5944643000000003  5.3897951900000001 17.9585618499999988
 -12.8546836800000008  3.7937417099999999 10.3268292400000004
 -12.8598019699999995  1.9789263800000001  2.3716392300000000
 -12.6233523600000002  0.2723041000000000 18.1123130600000017
 -2.9348698999999998  1.7280427000000000  3.1785700700000001
 -3.2700267699999999  0.2113993900000000 18.3960066399999995
 -3.0822613600000000 -1.8259322099999999 10.6651590899999995
 -14.3613703099999999 15.6414554300000006  2.5849282599999999
 -14.2015258800000002 13.8507965300000002 18.4145464499999996
 -14.4680564500000006 11.9443052200000004 10.4286624499999991
 -14.2818713499999994 10.0873042700000006  2.7171224199999999
 -14.3534597799999997  8.2005950199999997 18.2419630800000014
 -14.6685142699999993  6.5039039900000004 10.3824442799999996
 -14.3691800900000004  4.6490210799999998  2.4738769500000002
 -14.0897788199999994  3.0048194900000000 18.0389939599999991
 -14.4304929200000007  0.6850391900000000 10.5273604200000008
 -4.8890991699999997  2.7459325400000001 18.4724387000000014
 -4.9690957899999999  0.8982383700000000 10.7032812300000000
 -4.6808560899999998 -0.8663468100000000  2.8237299000000000
 -15.8106576099999998 16.8952276099999992 18.1705564099999997
 -16.0636744200000017 14.7837649199999994 10.3618732300000005
 -15.7389394800000009 13.1934597500000006  2.4782586300000000
 -15.7006896099999995 10.9217789500000002 18.3131936599999996
 -15.8618849500000003  9.3165026199999996 10.3048377799999997
 -16.3183457800000014  7.4602526100000004  2.3491689899999999
 -15.6536715500000003  5.5148145099999999 18.0854976699999987
 -15.8545618200000007  3.6319425299999999 10.4514400500000004
 -16.1995198000000009  2.0286355700000001  2.7501313199999999
 -6.3683947800000000  3.7637178800000002 10.5122580100000000
 -6.7339339599999999  1.6469226200000000  2.7151888600000000
 -6.3592940400000000 -0.0180114200000000 18.5526160599999983
 -6.5061609000000002 -1.9929409499999999 10.5367008500000008
 -17.7011635399999996 15.5708659300000001  2.3745462399999999
 -17.5389610299999994 14.0264755300000008 17.9648062000000017
 -17.2815743600000005 11.9045288199999995 10.3195427800000008
 -17.2183715200000016 10.2426793899999993  2.5458116199999998
 -17.2802144800000015  8.1417539699999999 18.3321389699999990
 -17.6989278100000007  6.3542129400000000 10.5804553899999991
 -17.7134593199999983  4.6474010100000003  2.4824281500000001
 -17.5702523200000016  2.9912798600000001 18.2312392900000013
 -8.0849447800000007  4.5458571499999998  2.6449153000000001
 -8.1485046899999993  2.8206220300000000 18.2929093499999986
 -8.1072670400000000  0.7130220100000000 10.5011220699999992
 -7.9851842599999996 -0.9896691300000000  2.6247163699999998
 -7.8635708400000004 -2.7519190199999999 18.2870863499999992
 -19.1407073300000015 14.6560768800000005 10.3431938700000003
 -18.9761056600000018 12.7091428299999993  2.5650930600000001
 -18.9231544700000001 11.3110649199999997 17.7944931000000004
 -19.1737279299999983  8.9261236999999998 10.1725146399999993
 -19.1920466800000007  7.3537765600000000  2.5604311599999998
 -19.0320234100000008  5.6031012100000002 17.9604960600000005
 -19.3044106100000015  3.5706890499999999 10.5768331100000008
 -9.4180418499999998  5.5247291100000000 18.1177231100000000
 -9.4764859099999992  3.7817437500000000 10.5577191100000007
 -9.6511386500000000  1.8124855700000000  2.9844619200000002
 -9.7072499200000006  0.2070782000000000 17.9944803499999999
 -9.7897294800000001 -1.9433661600000001 10.3403126299999997
 -9.5506837299999994 -3.6826011400000001  2.5134449000000001
 -20.6273217799999991 14.3234031599999998 18.1715899400000005
 -21.0562996200000008 12.1344575900000002 10.5586758399999994
 -20.6295995499999982 10.1487211399999993  2.3023677299999998
 -20.8849919899999996  8.4163901600000006 18.0836287099999993
 -21.0764645699999988  6.1489361999999996 10.3057274400000001
 -20.5854044599999995  4.5528534900000004  2.6082780400000001
 -11.3719891799999999 -2.5247031799999999 18.1732235099999997
 -11.2844589600000003 -4.5154915300000003 10.4502006600000001
 -22.2409512900000017 12.9970959900000000  2.7061053500000001
 -22.2668379099999996 11.2334153899999993 18.0446261099999994
 -22.3027122400000017  9.3311620400000006 10.2800591400000005
 -22.0950098299999986  7.2560923900000001  2.4479676200000000
 -22.1457869400000007  5.7729088900000001 18.3663418599999986
 -13.0094817599999999 -1.8115198699999999 10.6075495400000008
 -12.8351255099999992 -3.6035819400000002  2.7075103899999999
 -12.5924768300000007 -5.4900985400000000 18.1871020500000000
 -24.1571333999999993 12.3821539000000005 10.4699912899999994
 -23.6998706299999995 10.1527345499999999  2.7041711199999998
 -24.1429678800000005  8.3978079200000000 18.3235231899999995
 -24.0577884200000014  6.6741745899999998 10.4771119400000003
 -14.4538878600000000 -0.6272789500000000  2.4754836899999999
 -14.7369035499999992 -2.6487020000000001 18.7144956299999983
 -14.5257200700000002 -4.4082445100000003 10.7517019600000001
 -14.3614010200000006 -6.4623642700000001  2.7677553800000001
 -25.4561335299999989 10.8964755199999992 18.4648547200000017
 -25.6524248800000017  9.1396425400000005 10.2403727599999996
 -25.2390646799999985  7.3017277600000003  2.4684289399999999
 -16.1087233699999999  0.3104616800000000 18.6925522700000002
 -15.9230398300000004 -1.8476564600000001 10.5371400000000008
 -16.0955043000000018 -3.8825206099999998  2.6332769100000002
 -15.7599681000000000 -5.6204596599999999 18.2534394999999989
 -16.0812687700000012 -7.5506073799999998 10.4346766700000000
 -26.9263665699999990 10.0654573900000006  2.4224984300000001
 -27.3194643600000013  7.9732710600000001 18.0392799699999991
 -17.4617127500000002  0.8846401900000000 10.5097125899999995
 -17.5443374100000007 -0.9092528700000000  2.7163614300000001
 -17.4186875599999986 -2.7649787600000000 18.6144552700000006
 -17.4656713400000001 -4.5207264399999998 10.6914704100000009
 -17.3388079700000013 -6.4028329399999997  2.7217340299999999
 -17.6995560500000018 -8.7177048999999993 18.3194825799999990
 -28.9093281399999995  9.0320943400000004 10.1915416200000006
 -28.6392086699999986  7.3130125200000000  2.4040752400000001
 -9.4866844700000001 16.3721620600000008 18.3696477800000011
 -9.7066578000000003 14.7805674000000007  9.9758455099999992
 -9.6399490900000000 13.0766534799999992  2.4805914599999999
 -9.5332894899999996 11.2074014599999998 18.1548082499999985
 -9.5867343900000002  9.4662627799999992 10.4071166399999999
 -9.8268870400000008  7.1469414200000001  2.7839712200000002
 -19.2670728400000009 -9.0980338799999991  2.5151140200000000
 -1.7000191499999999  2.8632993400000002 18.3352728300000010
 -3.4169421299999998  3.8129632600000001 10.7971481600000008
 -5.1666030300000001  4.6025830200000000  2.9116280799999998
 -6.5673518599999996  5.2987823000000001 18.4058125500000003
 -7.8197379199999997  6.3250245700000001 10.4432495099999993
 -27.1754837400000007  6.3858187800000001 10.0124100299999998
 -26.9444275600000012  4.7466416499999999  2.8211970900000001
 -7.8716003099999998 13.6322754400000008 18.2077675499999998
 -7.9252934000000002 11.8308241499999998 10.6545983999999994
 -8.1883245799999997 10.3285012300000005  2.5540619000000002
 -7.6668126599999997  8.2735638799999993 18.0844906099999996
 -19.1006732200000009 -7.3744025600000001 10.2007639099999992
 -20.8228272600000004 -6.3480871800000003  2.6088241399999998
 -3.1544693800000001  5.3555142499999997 18.2250558500000004
 -4.6779042700000000  6.6456358000000000 10.4137966300000002
 -6.5739803300000004  7.6333881999999997  2.5695034799999998
 -25.6835596499999994  5.5491599400000000 18.2991640099999984
 -25.9338980899999996  3.5766542100000001 10.5166534299999999
 -25.3536209100000001  1.9441053500000001  2.5231902800000001
 -6.3549825000000002 10.8845111499999998 18.2261224800000008
 -6.4339944800000000  9.2543523699999994 10.6723367000000007
 -19.0334468600000015 -5.6040870600000003 18.2793535899999995
 -20.6991306100000010 -4.4388058299999997 10.6481812799999993
 -22.5428592099999996 -3.6606747199999998  2.7625750800000000
 -4.6778983500000004  8.2498786099999997 18.2740631700000016
 -23.7322282599999994  4.7780080900000002  2.8568918499999998
 -23.7901114699999994  2.6810258700000000 18.0739796499999983
 -23.8854259300000002  0.7378201200000000 10.2051287800000008
 -23.8713758799999987 -1.0139072300000000  2.3482204599999998
 -19.2420831999999997 -3.9122967599999998  2.7629727599999998
 -20.5124503199999992 -3.1029805000000001 18.4755700500000017
 -22.4417412200000008 -1.8530724999999999 10.5299421399999993
 -22.6227728200000016  3.4836483899999999 10.3922368600000006
 -22.2341040499999991  1.7423838199999999  2.4444661800000000
 -22.3150140700000001  0.0623062700000000 18.2761436099999983
 -19.0857484299999989 -1.9792845600000000 10.2652237599999996
 -20.7932319300000010 -1.0390185000000001  2.4722930600000002
 -20.6133586000000015  2.7458902599999999 18.0944919900000016
 -20.5128604900000013  0.6459217500000000 10.1063056499999995
 -19.2458575600000010  0.0019291900000000 18.3143234300000017
 -18.9299142099999997  2.0763973600000001  2.3810719200000001
 -0.1486769800000000 -0.0314147300000000  5.0523348199999996
 -11.1385240999999997 17.6699392099999990 21.1245232300000012
 -10.8454717899999995 15.7575708700000003 12.9072890000000005
 -11.1867006799999995 13.7873546200000003  4.9734345400000004
 -10.8201590000000003 12.2038028199999999 21.0273188699999984
 -11.1100167100000000 10.2562169500000007 13.1194280899999995
 -11.1795554599999996  8.4085932499999991  5.3741816800000004
 -11.0754494599999997  6.5336376400000002 20.4049346199999988
 -11.4352687399999997  4.4583039500000003 12.9470231800000004
 -11.1234953200000000  2.8147793499999998  5.0668516500000003
 -10.9006921200000004  0.6401329800000000 20.7935104899999992
 -11.2850537899999992 -1.2289957499999999 13.0721988600000003
 -1.6115781100000000  1.3125612900000001 20.9437809600000016
 -1.4083287700000000 -0.9566984500000000 13.0038939300000003
 -12.6238048000000003 16.0978798800000007  5.2470364600000003
 -12.5354631100000002 14.8294966099999996 21.2754030599999986
 -12.8202130000000007 13.0334035299999993 12.9763092699999998
 -12.7542763499999996 11.0672922200000006  5.3152699300000004
 -12.5550583699999994  9.1972483599999997 20.6785852299999995
 -12.9700328700000007  7.4492707400000002 13.0155339899999998
 -12.7955465799999999  5.5482275100000003  5.2362400600000001
 -12.5770214800000009  3.3775725500000000 20.9126450699999999
 -12.8051436600000006  1.8468536200000001 13.1304771400000000
 -12.6935807599999997 -0.0022529400000000  5.1459904400000003
 -3.4471117400000000  1.6941118799999999 13.0937668800000004
 -3.3437168100000001  0.0122331400000000  5.2355680800000002
 -3.1580160199999998 -1.7535752000000000 20.9428181100000010
 -14.3754926300000001 16.0600680400000009 13.0284476900000001
 -14.6337691799999998 13.6513414999999991  5.0800205700000003
 -14.0288627699999999 11.9942982600000008 20.9256588599999986
 -14.2321156400000000 10.4063629300000002 12.9569028999999993
 -14.2993188000000000  8.4429499200000002  5.3706946400000000
 -14.3754370399999996  6.0548996800000001 20.7635493900000014
 -14.4305390300000003  4.3474175900000001 12.8040267700000001
 -14.1921482300000008  2.8229651200000001  5.1261819800000001
 -14.4851243899999993  0.8688991100000000 20.7772815400000006
 -5.0776849000000004  2.8472225500000001  4.9618194400000002
 -4.6642527999999999  0.7360680800000000 21.1620647599999998
 -4.9925773199999997 -1.0289552500000001 13.3498685800000008
 -16.1829806100000013 16.6804109400000016  5.1738680099999996
 -15.8374573099999996 14.5473026799999996 20.8686006100000014
 -15.6904573400000000 12.9766808299999994 13.0648506999999992
 -16.0041106999999982 11.1413318599999993  5.3461439700000000
 -15.8740796100000008  8.9937606199999998 20.9143563800000010
 -15.8973953100000003  7.3428990499999998 13.0171958100000005
 -15.8403469000000001  5.3636617800000002  5.0579048200000001
 -15.8282594200000002  3.4468449799999998 20.7571250599999999
 -16.3234266599999991  1.7209390300000000 13.1998752199999991
 -6.3759986399999997  3.7019581700000002 20.9447929600000009
 -6.7187694599999999  1.6900472300000000 13.1967528800000000
 -6.5366018199999996  0.0776426800000000  5.1036623600000004
 -6.2810505000000001 -1.7649898700000000 20.6635684899999994
 -17.7640528099999990 15.6513829599999994 13.0100536099999999
 -17.6336163500000005 13.8708112700000008  4.9802613100000004
 -17.4375982200000017 12.0700164500000007 20.4170307099999988
 -17.4200257699999987 10.1317137400000004 12.6161809399999996
 -17.4719602700000003  8.4989966799999994  5.0849767999999997
 -17.6787470499999984  6.7156394199999996 20.7420122199999994
 -17.7291149300000015  4.4224576100000004 13.0294371800000004
 -17.4000746200000016  2.8119161500000001  5.4157215900000004
 -8.1613428799999994  4.4835834200000004 13.2587132200000006
 -7.9941338799999997  2.9000555399999999  5.4529826799999999
 -7.7422986500000004  0.8785779100000000 21.0015526500000007
 -8.3173530400000004 -1.0188020099999999 13.2164249100000006
 -7.9326599800000004 -2.9659335200000001  5.1740129100000001
 -19.0794284099999985 14.6628155800000002 21.1168357499999999
 -18.9813373100000007 13.2214882800000009 13.1073074199999997
 -18.9915974100000007 11.0617898300000004  5.4135774899999998
 -19.1536803099999986  9.4921883600000001 20.8312776399999997
 -19.0370722699999995  7.2460168800000000 12.7088818000000003
 -19.2206063799999995  5.6939003799999997  5.2275926300000002
 -19.2054362500000018  4.1876298199999997 20.6775737799999995
 -9.5243587499999993  5.4136189600000000  5.2447263299999998
 -9.4257492700000007  3.8486584900000000 20.7838717499999994
 -9.6266026300000007  1.7291973500000000 13.2570281800000007
 -9.7296515600000006 -0.3159967900000000  5.1932996400000002
 -9.2161885699999999 -1.9776746999999999 20.8166344800000012
 -9.6826804499999994 -4.0150047200000003 13.2078822299999992
 -20.8221358400000014 13.5899742700000008  5.3280622900000001
 -20.7817572199999994 12.1520468099999999 20.7054731600000004
 -20.5204591799999996  9.9419502099999999 12.6518141400000008
 -20.5781082399999988  8.1933187800000002  5.0559958600000003
 -20.7510612300000012  6.8326270700000000 20.7464875199999987
 -20.6930800300000008  4.4378201099999997 12.8949309700000008
 -11.1879596600000006 -2.7665255399999999  5.5147009699999998
 -11.3141291699999993 -4.5376886900000004 20.3534870499999982
 -22.2074047999999991 12.5309802799999996 13.4331484000000003
 -22.1020703099999984 10.9113807699999992  5.3282476299999999
 -22.7555326200000003  9.3166325699999994 20.6113947400000015
 -22.0604054900000008  7.3266295599999998 12.6575407299999991
 -22.3861853900000014  5.6384155299999996  5.3190270499999999
 -12.7115010799999997 -1.9442298499999999 20.9995496599999996
 -12.9695426699999992 -3.9545048000000000 13.1894836299999998
 -12.7398876899999998 -5.6221441900000002  5.2131825699999998
 -23.8456465199999990 12.0059900899999992 20.4509192999999989
 -23.9698659099999993  9.9987992400000003 12.7757573299999994
 -23.9527970699999990  8.4508303500000004  5.2234995599999996
 -23.9944155799999983  6.4649717400000002 20.6704383800000002
 -14.6593073599999997 -0.9010021600000000 13.2346190099999994
 -14.4588196599999996 -2.6251488799999998  5.5558736099999999
 -14.7204314800000002 -4.4600890199999998 20.7209490400000007
 -14.3770602400000005 -6.4226350200000004 13.1080356200000008
 -25.5623569300000000 11.0639135000000000  5.0769513699999997
 -25.6199848699999997  9.0871222500000002 20.7721168200000008
 -25.3283159299999987  7.6516366700000003 12.9164153000000006
 -15.9059866099999994  0.3176773100000000  5.4145272599999998
 -16.1134472899999999 -1.5931491700000000 21.2657149200000006
 -16.0891792400000000 -3.5988584900000000 13.2793335599999995
 -15.9701506500000008 -5.7905869399999998  5.1781257800000002
 -15.7744110400000004 -7.2871219500000004 20.6955144799999999
 -27.3474865200000004  9.9811157000000001 12.9936995799999995
 -27.3159290400000003  8.1933384599999997  4.9527400500000001
 -17.9381346899999983  1.2502933800000000 20.8316972299999996
 -17.5389781300000003 -1.2351680300000001 13.1727553400000001
 -17.4899401599999997 -2.6775040500000000  5.2982369599999997
 -17.3595718300000001 -4.5324974999999998 20.9485192799999993
 -17.7826936899999986 -6.3940031399999997 13.1784326099999998
 -17.7299545000000016 -8.3908599699999993  5.3422901100000004
 -28.8661679699999993  9.2110742299999995 20.5534336199999998
 -28.7282296899999992  7.2396179099999998 13.0002089299999994
 -9.6024556099999998 16.5742389199999991  5.5449642299999997
 -9.4373181099999996 15.0072772099999998 21.0579462900000003
 -9.4565638799999991 12.6894778600000002 13.1722084699999993
 -9.6123723499999993 11.1818150900000006  5.0948548000000002
 -9.3638541300000000  9.2665730899999996 20.7460676299999989
 -9.5478884500000003  7.4327167699999999 13.3016807900000007
 -18.9924050400000013 -9.1211852100000002 12.9860587400000007
 -1.7095085500000000  2.7433945700000000  5.0007035200000001
 -3.2114861299999999  3.9444609700000002 20.8914340000000003
 -5.0922988699999996  4.4977884499999998 13.0661213400000005
 -6.5062321399999998  5.6930760200000003  5.0989360799999996
 -7.8707885900000001  6.3330411700000004 20.7870979600000005
 -27.2612222799999984  6.3238350299999997 20.9975042000000016
 -26.7250763999999990  4.6417438300000002 12.5542156100000000
 -7.7876732899999999 13.6773334900000005  4.8927260700000001
 -7.9751591599999996 12.0869131200000002 20.9859810600000003
 -7.9670366100000001  9.9754096499999996 13.2741188599999997
 -7.9839278199999999  8.3035119700000006  5.3279432699999996
 -19.1522100500000008 -7.0352775400000001 20.8280925799999999
 -21.0033862700000000 -6.5464173299999997 13.0359860899999997
 -2.9924634999999999  5.4350180899999998  5.2884966699999998
 -4.9607738000000001  6.6332700700000000 20.5982556099999989
 -6.2493588400000002  7.5462848400000002 13.1510159499999997
 -25.2393061500000009  5.7548576300000001  5.0846204000000004
 -25.4517845999999999  3.6581515599999999 20.8235537199999996
 -25.6601858400000005  1.8135323299999999 12.9180200099999993