Li                                      
   1.00000000000000     
   -10.6364300000000007   18.4228371711498369    0.0000000000000014
   -18.2338799999999992  -10.5273355263713349    0.0000000000000078
    -0.0000000000000001    0.0000000000000000   22.3096999999999994
   Li
   504
Direct
  0.9974553910617132  0.0099560096287519  0.9782268636512370
  0.9381927890231054  0.0433864044871939  0.6821774542015362
  0.8537944288981407  0.1001353608028026  0.3449527833184689
  0.7850617220682281  0.1441446015626866  0.0025931769589036
  0.7196065908117362  0.1673011015369354  0.6593050054460647
  0.6397204946820807  0.2154861125963663  0.3414237528967234
  0.5879355580398311  0.2552336986093096  0.9924639345217585
  0.5137485639084218  0.2924682054717636  0.6936482010067380
  0.4349920323019987  0.3344534239482826  0.3397458159455269
  0.3625677839007153  0.3812552564942280  0.0161449947780525
  0.2981098359552234  0.4160261374732528  0.6320271437984388
  0.2122001415083830  0.4597737749100048  0.3080107554113241
  0.0669971224368311  0.0584795417650668  0.6717695025033947
  0.9950445372543015  0.0864300177807564  0.3444919420700430
  0.9280986383159799  0.1460677897659082  0.0000009417428259
  0.8532794911009489  0.1750421425647843  0.6842275369009911
  0.7852089601571706  0.2160822178228372  0.3431402766509635
  0.7156391669247171  0.2603835100234804  0.9838001425388967
  0.6516073076899431  0.2807042666874793  0.7099041685903416
  0.5827129509158127  0.3297342517056450  0.3501143022989979
  0.5054249931891306  0.3749562424285600  0.0034131646772479
  0.4442972331063544  0.4169169425745167  0.6628998623916971
  0.3571200266259211  0.4581792989311779  0.3244263047015394
  0.2837816872645647  0.5164373248112071  0.9998495255427002
  0.1361719060455471  0.0984913969698127  0.3158918730417710
  0.0668096028003760  0.1434569146273859  0.9909899187348969
  0.0060291501131573  0.1664085272504749  0.6716674034164498
  0.9344611074023064  0.2166122176625507  0.3358180204126455
  0.8570703948925456  0.2615930443577028  0.9919669403891547
  0.7872582696757320  0.2950655895877858  0.6694821328838998
  0.7124149602986094  0.3331234615907874  0.3355033268040373
  0.6329035982490367  0.3771804152750775  0.0109785904785795
  0.5740984391433983  0.4064426533980665  0.6753735554489779
  0.5041610408963066  0.4561172646622325  0.3404705782686435
  0.4363584241814920  0.4874187247192197  0.0141561849778356
  0.3630252701475882  0.5435971425634065  0.6834720673070436
  0.2082341335118798  0.1373905715783081  0.0142251953186303
  0.1390478570833338  0.1739065175093373  0.6762249138267222
  0.0648929085938903  0.2082506027375786  0.3353991160795502
  0.0052313325299949  0.2378017458565012  0.0048310488262970
  0.9385312566460087  0.2925733034259679  0.6657457016454700
  0.8706698581008752  0.3231483661842702  0.3338062649878779
  0.7883827941513672  0.3720180310940151  0.9793323271940011
  0.7086560652334839  0.4208181499531989  0.6713043035092383
  0.6391525507468501  0.4563317031076082  0.3349632738225949
  0.5668308341746879  0.4985093672032122  0.9999974898810819
  0.5027431240555202  0.5471582385648119  0.6709115447540768
  0.4227316076809302  0.5790806068765519  0.3395881065186899
  0.2872259938280877  0.1609889673765039  0.6973382734864231
  0.2307292102397156  0.2163208596486328  0.3345038306207613
  0.1450207151651739  0.2493206714421561  0.9948024280918162
  0.0634792656268957  0.2934597170052697  0.6775626297081558
  0.0004417437584365  0.3301089687677816  0.3379899245619598
  0.9285678915553461  0.3753225304336780  0.0175201499796032
  0.8559591288902340  0.4148587537429265  0.6479254808446555
  0.7813184448828707  0.4527918376831792  0.3504993496102600
  0.7209402979569148  0.4982904815981115  0.9986302061435168
  0.6487920980928266  0.5346980864238731  0.6844710372618152
  0.5768634644501489  0.5902527975844123  0.3219916569922532
  0.5005536679982470  0.6320109570257912  0.9892409225583521
  0.3650185951887437  0.2160425824660805  0.3365917367781748
  0.2835626026015561  0.2482140403913320  0.9923797177909179
  0.2256167817923043  0.2924560660507183  0.6781365020596439
  0.1491796205353424  0.3388190192514884  0.3199437746809650
  0.0832348276098642  0.3822074337752355  0.0049434541925706
  0.0014143946057672  0.4221121955822511  0.6456024823283144
  0.9305862555258528  0.4532338944940477  0.3386873324159438
  0.8566824228085821  0.4973209364965712  0.9757210554153559
  0.7823682791549942  0.5513099112502360  0.6624558268376504
  0.7173869606241468  0.5769395065892979  0.3310531692492518
  0.6511578715424022  0.6227804779010455  0.9936935817155756
  0.5757320770696666  0.6620571257183769  0.6833380148545274
  0.4329689426325913  0.2576054969932073  0.0102216551544814
  0.3562237063277607  0.2906074068330113  0.6635760265713984
  0.2830742857642576  0.3404323947875341  0.3188391739915843
  0.2224637826847271  0.3780392279612812  0.0008088961303798
  0.1595319465430691  0.4193938897168792  0.6688523005688083
  0.0766261116499365  0.4655885970108002  0.3470192512673833
  0.0070642262239033  0.4966703604644351  0.0162742941411125
  0.9323212025491969  0.5415086943409548  0.6514634746321093
  0.8531352446272820  0.5752611353145411  0.3257330784367340
  0.7800716605305524  0.6296739129457336  0.0172435702855722
  0.7138614869921796  0.6633002396589092  0.6850029171167691
  0.6460492264714333  0.7088244907876131  0.3356552844726721
  0.1461546394512609  0.5047715778705069  0.0016145707920785
  0.0727810588571884  0.5440919947997713  0.6503851692313205
  0.9956277174828685  0.5871596926673703  0.3344026705872309
  0.9209062352589612  0.6287982657615672  0.9888748468155129
  0.8430241914726508  0.6612057992645859  0.6926219922275934
  0.7808302616783678  0.6985122370979937  0.3158077724039288
  0.7116333534881818  0.7392230139694718  0.9899129804524520
  0.2150428501573387  0.5523435696242913  0.6692858281375393
  0.1492365133070308  0.5928191011877715  0.3377155582549278
  0.0745075915212610  0.6244032975052747  0.0019064371103141
  0.9918864013369628  0.6719860097920716  0.6723208200917057
  0.9161689883180628  0.7081216443008387  0.3236457047831180
  0.8562502710550604  0.7488428046823756  0.9868745563588917
  0.7828536551019880  0.7901970917469896  0.6830282554225278
  0.2901771824439123  0.5957243280825608  0.3187742815905210
  0.2088696281298610  0.6203814405530039  0.9938219361981524
  0.1309303457807687  0.6606544033539237  0.6560208196434729
  0.0698463163012804  0.7038780120250649  0.3230168801014770
  0.9899932858410310  0.7484066586311826  0.0119413882750550
  0.9236535648721826  0.7852202456628277  0.6687207766128651
  0.8501899229155896  0.8339925845844647  0.3425591321263823
  0.3565199799150918  0.6295234716928988  0.9579005643285186
  0.2834681687109892  0.6716653162287685  0.6609985123063069
  0.2061360647079482  0.7070649849213879  0.3414499666064543
  0.1343955740600933  0.7522071294864290  0.9947094591141976
  0.0647657860871789  0.7911945022062596  0.6655421139683639
  0.9946010025798984  0.8361094066720369  0.3057312845981812
  0.9160576678850134  0.8748822702341954  0.0105395523023617
  0.4230540964691727  0.6575675285069522  0.6679606310259629
  0.3521718021060281  0.7023124424930600  0.3396849773865185
  0.2892399495131599  0.7645944107233191  0.9645439710081263
  0.2206612890545046  0.7899922147816056  0.6715341053443140
  0.1380431453672131  0.8413417504843608  0.3151326091341460
  0.0562330944883769  0.8764476396022687  0.0069547192476804
  0.9921656259372469  0.9229093353313900  0.6596169805062360
  0.9257300674638103  0.9710728001130775  0.3190457303325474
  0.8542269104578679  0.0084309698648184  0.9961796787944266
  0.7860772177434683  0.0465550200438329  0.6693990349489241
  0.7006365828099348  0.0815726818155511  0.3437482140055650
  0.6439090633982545  0.1297835672275411  0.0166484829468772
  0.5732762003298433  0.1671930079898303  0.6734560908483758
  0.5029566014746933  0.2183849776008486  0.3419407127841225
  0.0713491270874371  0.9727590295742559  0.3382846022133847
  0.1398443624037711  0.0102254143603915  0.0252441780929402
  0.2069034432522017  0.0470585870417608  0.6703114564516781
  0.2879976069742725  0.0886264455645573  0.3449600384586091
  0.3656535511078616  0.1322085364930459  0.9882559133471105
  0.4442003654645248  0.1691985839965042  0.6839393595610872
  0.8566679719046277  0.9103138483742583  0.6610976687270522
  0.7863793176440268  0.9530830900736191  0.3325250352985449
  0.7163137122724450  0.0083544819519474  0.0038290658323490
  0.6361200666177709  0.0453772416964853  0.6726912979555948
  0.5704998406505268  0.0923603259377330  0.3248127738158715
  0.5062497744923888  0.1315523761863062  0.0156950030704124
  0.1369384858316138  0.9198239338608190  0.6403137124210545
  0.1989794730884284  0.9756033934114967  0.3445899711784577
  0.2831833917867996  0.0004246740735994  0.0119320954562383
  0.3629544745905449  0.0414212119324517  0.6658604606964715
  0.4375251920395229  0.0883295558397350  0.3402772816308612
  0.7795237945391378  0.8766527840509042  0.0058693487586083
  0.7074193152649144  0.9342963983824006  0.6552213817308186
  0.6354947205424608  0.9634652723161778  0.3347392071610074
  0.5716992347184515  0.0057772075314517  0.0009751946462728
  0.4929817755992971  0.0517938284425696  0.6483212804295917
  0.2193361810289645  0.8823547179217002  0.0055942451041489
  0.2810269747109686  0.9382430484008353  0.6442962800934140
  0.3591831171395441  0.9681322596925810  0.3203033877640635
  0.4459404802180842  0.9980880371042247  0.0070670694809891
  0.7108799774248595  0.8332928774193391  0.3296526152301453
  0.6378581427619565  0.8764374545945444  0.9905685482099713
  0.5606253616578272  0.9303938434662200  0.6562041013550157
  0.5032497587812301  0.9549263331889080  0.3490071771471577
  0.2848257557629594  0.8387326392753565  0.3323267426276431
  0.3588640459521457  0.8814546693141168  0.9856475851311330
  0.4257705747484408  0.9251257563189199  0.6499577968327657
  0.6344294507604431  0.7905109974974067  0.6704056047369562
  0.5678145165053365  0.8373287902633564  0.3285839199989269
  0.4980681610407203  0.8802795938034933  0.9695015567219656
  0.3609882927398402  0.7880581052114621  0.6510637180239982
  0.4229256562633381  0.8300689969414563  0.3400469714967045
  0.5773962310514591  0.7512139750923765  0.9549021416693151
  0.5004997674640492  0.7903975729988559  0.6886475040004996
  0.4367274775354488  0.7493359337737004  0.9704295342384697
  0.4893889328107619  0.7120778228980171  0.3375351981425112
  0.0222430541603913  0.9806667950779939  0.7866920460606792
  0.9465228380640696  0.0559581076287756  0.4374614692263918
  0.8576504287177045  0.0663743191506256  0.1146766038987508
  0.7990201004707487  0.1344586057794572  0.7790039180266888
  0.7126970987934413  0.1816544897454904  0.4654037642819020
  0.6682936696177322  0.2031790981221704  0.1160391726468788
  0.5715085426026931  0.2397419162682013  0.7884385173265471
  0.5258580980377374  0.2885834452287952  0.4474841001896053
  0.4186168418597660  0.3203775918640233  0.1175010972805524
  0.3546907407357907  0.3724344239687625  0.7850524749324279
  0.2670374355803915  0.4239167159743076  0.4165352039695733
  0.2078715790604377  0.4534610691928549  0.1012385482547984
  0.0690374451529436  0.0547304927558940  0.4332480997055086
  0.0082505511744060  0.0816301198632488  0.0856692429750296
  0.9279047023621629  0.1305837938307164  0.7626867645015381
  0.8449969574376510  0.1631013263222840  0.4606649183987201
  0.7809822030046618  0.2004442590658186  0.1159081735747236
  0.7156736356446416  0.2324455624156911  0.7797430319547090
  0.6295434261008310  0.3016442587270660  0.4654971837362254
  0.5818437649059049  0.3256587634470520  0.1160801256852366
  0.4739961686990952  0.3660471480213729  0.7827145277614704
  0.4394304741920863  0.4251275845507934  0.4640439024280951
  0.3541391073442810  0.4670953260891295  0.1307379763062713
  0.2938521857840755  0.4820479862520060  0.7680422632307895
  0.1422351334613339  0.0853153897797867  0.1075325611729454
  0.0573966381648248  0.1116463844187052  0.7896223095783483
  0.0076848462183534  0.1770674256459799  0.4590787047786407
  0.9385592627508714  0.2007384364106173  0.0946415935669265
  0.8638382465223913  0.2282296115550722  0.7849287776169120
  0.7928906347001643  0.3071189048275045  0.4624843848191560
  0.7242097216975623  0.3269346875072330  0.1189376020296109
  0.6246348834985014  0.3658393389728403  0.7876202073537542
  0.5681530971234992  0.4288301570023876  0.4477601487245479
  0.4972257437935710  0.4507726891885753  0.1086691824632311
  0.4317116539716110  0.4877419184697231  0.7637536914436325
  0.3501319919591666  0.5191254114190613  0.4144085738490446
  0.2055670028122236  0.1162062629718932  0.7897597659314144
  0.1365515614889432  0.1700875115352432  0.4362182794927776
  0.0550488567914797  0.2067756707929078  0.1140456241007257
  0.0150049778355452  0.2320927785858373  0.7861649641187469
  0.9493551890244447  0.2823739717934259  0.4702119504072186
  0.8637414727715154  0.3167204866308708  0.1242534982541201
  0.7775609153614553  0.3550000467822514  0.7802289183628659
  0.7250879483328632  0.4140429965379724  0.4438104385088124
  0.6460525825860444  0.4624020257347468  0.1086142503036811
  0.5686644121202065  0.4813253930042478  0.7798770714084000
  0.4935215414275618  0.5559534208360262  0.4458989170629835
  0.4260284098500762  0.5815691586551139  0.1064821552956801
  0.2933281649573161  0.1609109205721992  0.4506788607645973
  0.2166856938309749  0.2015276400615420  0.1190864601496244
  0.1379609591942170  0.2409852721855046  0.7865789158975716
  0.0970731659830051  0.2895668132697651  0.4618549052654259
  0.9937700096900670  0.3144120091737079  0.1156617650618372
  0.9387274381598800  0.3747495500098239  0.7664755648888146
  0.8659268492852519  0.4091003583689741  0.4516521925440529
  0.7793973040370332  0.4662912388049847  0.1120128710829817
  0.7107644138768237  0.4586500659929840  0.7975543530392599
  0.6324597329180648  0.5517162744845479  0.4427622814291539
  0.5549847356429467  0.5881819869531526  0.1013911935167187
  0.4956838631818670  0.6300274778125399  0.7663164610012672
  0.3645941393391041  0.1950616286006834  0.1119598694738144
  0.2837832661214605  0.2571109837691026  0.7764591016463669
  0.2205051730170808  0.2992452781616350  0.4260014630407412
  0.1532740194262345  0.3131281675405475  0.1305437173068213
  0.0931992175069354  0.3647680991063140  0.7816237537931912
  0.0072760759500738  0.4014084165017167  0.4534554198397984
  0.9245991684024375  0.4581929801681994  0.1259779598112019
  0.8648125998559237  0.4842655330908414  0.7780885422036121
  0.7775013590795368  0.5382271035701507  0.4431716298291803
  0.7280733042052603  0.5904442151068281  0.1190107666172082
  0.6451912051627957  0.5999563252401714  0.7892996777186596
  0.5828592435064053  0.6618520592759864  0.4278524121794547
  0.4139053969479320  0.2404559582897932  0.8050642083936594
  0.3625074646380142  0.3019813927644748  0.4538759073407519
  0.2832287131051601  0.3273835392723257  0.1140849451135608
  0.2083533038272449  0.3475661805700625  0.7787798168509639
  0.1395054084651903  0.4317940245432439  0.4271228595633261
  0.0683838155061665  0.4375011973993352  0.1129095648977767
  0.0069040787395807  0.4768037987401428  0.7594339027418542
  0.9494339256748390  0.5428639861584230  0.4520534969094143
  0.8404249530538763  0.5950490310668428  0.1346310470333520
  0.7838546262518520  0.6117367542013028  0.7998260559308292
  0.7229464980861451  0.6646221116603570  0.4385116415729513
  0.6500659006081193  0.7109892383187102  0.0977261204767430
  0.1564782271830154  0.5017666689724720  0.7509783847384739
  0.0781304682302491  0.5464578857490423  0.4447268596171199
  0.0025129402216137  0.5870143166039625  0.1088109387396514
  0.9090758847917115  0.6146669407018592  0.7973455277300872
  0.8408841775419802  0.6640128364049289  0.4300469396719819
  0.7903445808774094  0.7100120314281995  0.1029597381408109
  0.7035290058197461  0.7322748667112364  0.7739351645248504
  0.2128418654025310  0.5477270639916796  0.4369451606251999
  0.1348751767593726  0.5811657104061965  0.0971210764824235
  0.0501273302706409  0.6058636582279533  0.7846049494166181
  0.0026456511335766  0.6719601558699111  0.4302673796599663
  0.9037725711633300  0.6957732951462461  0.1238080113134643
  0.8485607899601035  0.7459436733621487  0.7779035513700308
  0.8013638806755097  0.7833388532043983  0.4306386271442477
  0.2610289991909411  0.5787724171781079  0.1157778262370144
  0.2076185776789288  0.6249272015510954  0.7848459427961814
  0.1570646857477129  0.6699616567934186  0.4306715352514843
  0.0522530176168061  0.7067460713698921  0.1091664890159905
  0.0040943452243241  0.7318363043754630  0.7854697042093761
  0.9495510217373919  0.8022843841169163  0.4524656203355519
  0.8467322710911276  0.8358682447070080  0.1056057060381832
  0.3628116624622280  0.6076535629847797  0.7887414048597705
  0.2888452320617958  0.6619386805408922  0.4321220182252574
  0.2004476368861106  0.6990348001410283  0.1053038171736986
  0.1506407728203882  0.7436672032913449  0.7585089759163068
  0.0845891419196860  0.7976788995655966  0.4300427155004343
  0.9984713678678503  0.8163009024228174  0.1182588085003360
  0.9245949988973194  0.8758989538089850  0.7553047423318091
  0.4326855865180264  0.6597195757015015  0.4439063160867249
  0.3512638194720381  0.6899999189779180  0.0844460378221115
  0.2902602222953945  0.7535725552526671  0.7755560527483567
  0.2122033606354705  0.7881547338710178  0.4402528837232254
  0.1422269330301020  0.8281294185719474  0.1269759871266771
  0.0792432755612325  0.8474976075592409  0.8045079543875531
  0.0178043539373576  0.9270870031858323  0.4552587085438162
  0.9251139372294830  0.9519721049296237  0.1055034160029038
  0.8815709846675688  0.9912925521914318  0.7979218331039846
  0.7944098317582160  0.0563905440417471  0.4518666432090086
  0.7241135873876985  0.0690810302416054  0.1261097545014067
  0.6359201034492230  0.1149752495941385  0.7700290505923419
  0.5769013536228940  0.1639098285874923  0.4649701945790383
  0.5176022022192655  0.2191896216410854  0.1305151517053105
  0.0679049953900730  0.9462000150205654  0.1062843619591476
  0.1233082659617040  0.9783557526251627  0.7795639242123400
  0.2054637196236300  0.0542140097819868  0.4543420861777605
  0.2834465407055049  0.0870390740228473  0.1018113618739847
  0.3388688890838552  0.1017673250060795  0.7898933898707767
  0.4263989385055140  0.1651810612174600  0.4320305732484044
  0.8651499306605714  0.9201881992765095  0.4678479383407179
  0.7847515193697276  0.9485291910898965  0.1230349560953314
  0.7370865938483178  0.9996504024702375  0.7803167873167283
  0.6495392494037802  0.0279214600219007  0.4472093712600369
  0.5784342558181237  0.0907675666609862  0.1008937058768140
  0.5016303270211537  0.1232323707714613  0.7857689220383932
  0.1407040134113018  0.9361938501641802  0.4508406334464397
  0.2065077433173457  0.9704700257842589  0.1224085850549343
  0.2734568426635633  0.9873354768698661  0.7535000067235345
  0.3493334777764474  0.0419477975600486  0.4295331591191243
  0.4582217486665456  0.0749068215777839  0.1244807110808281
  0.8062360214578419  0.8576791935827757  0.7945837321882436
  0.7335912448924518  0.9265488565839277  0.4486314159311888
  0.6346733136916214  0.9594103474439351  0.0994065639609687
  0.5792598076560722  0.9831578009755830  0.7616977408929770
  0.4987668458126606  0.0534869944407248  0.4583771812261048
  0.2027447735337091  0.8627149250978334  0.7765064527985572
  0.2899218555953738  0.9043784919879769  0.4523421928578131
  0.3649665578478150  0.9488749649065795  0.1158837429458899
  0.4457023368703119  0.9951997799175203  0.7579472220603591
  0.7050431043767418  0.8171450400745286  0.0910685293840814
  0.6569806477626585  0.8563916620443806  0.7573648928492958
  0.5780834862051023  0.9223473635245725  0.4293110050785103
  0.4981959594985383  0.9512232213062148  0.1222760539137653
  0.2831945080366509  0.8378796711881265  0.1135421318977876
  0.3606915407601221  0.8737248586210313  0.7581738790750236
  0.4359229644801204  0.9125743688625079  0.4544695742210791
  0.6782637765497981  0.7963480306546060  0.4714570236264919
  0.5600843404449947  0.8405363421696705  0.1051269555395180
  0.4995463307221684  0.8641749507793648  0.7774093994988718
  0.3570298560828249  0.7908238569007224  0.4408723918295649
  0.4282142767235797  0.8260402010229839  0.0882352541719484
  0.5635616480160621  0.7295650212786597  0.7919081937453214
  0.5098102693390985  0.7803267141658026  0.4523461480880542
  0.4210873252706833  0.7410279551511323  0.7760377140884884
  0.4954274647679568  0.7003057331142983  0.0884097101260863
  0.9873785369511339  0.0077531813424727  0.2212976902423591
  0.9357025348556220  0.0454809984043791  0.8879209473905973
  0.8706142924911262  0.0896214761158163  0.5834210056612150
  0.7711969690272227  0.1083014466876904  0.2246892535533860
  0.7216259900626198  0.1412890564442861  0.8859860791494256
  0.6286691067193431  0.2203415851819344  0.5809357328874896
  0.5911467816127711  0.2581848859184390  0.2346426097168504
  0.4824378964490137  0.2883971916604011  0.8806249819585190
  0.4462908317227772  0.3540734390452727  0.5584030618968399
  0.3536933766353201  0.3733942198783140  0.2228258748436787
  0.2961790817166019  0.3977387977686107  0.8706977440306218
  0.1994509945813832  0.4728804476998150  0.5365074398131782
  0.0740686600229665  0.0350641121073494  0.9042584584283944
  0.9973616262754916  0.0883762351970390  0.5650076881356512
  0.9344664617290661  0.1199065559535910  0.2045492597390393
  0.8669295104392063  0.1617088517243204  0.8909246076818604
  0.7976384190098855  0.2115634188055751  0.5600040381538065
  0.7362024688414692  0.2447354482063346  0.2388909783636706
  0.6466216225634653  0.2704518371908335  0.8817059512230117
  0.5610688622182280  0.3564369959567628  0.5755497832781273
  0.5077268725986954  0.3961990240412376  0.2313929653917342
  0.4131403644098910  0.4223040589155858  0.8891768235341573
  0.3399650950384796  0.4437551636941706  0.5661584750131112
  0.2698720333254343  0.4963927704128963  0.2139868967310150
  0.1376346231295216  0.0917971844449141  0.5482528236596664
  0.0722344030898441  0.1346485179206596  0.2170993971232278
  0.9898526022940146  0.1638870150172025  0.9016892746204590
  0.9234089997183830  0.2090480025713362  0.5620556080987171
  0.8612883519257437  0.2431557290563759  0.2376358037086987
  0.7730921594234843  0.2687145151083215  0.8726040645997060
  0.7086796653170424  0.3312054832779339  0.5663024482624124
  0.6637050261435462  0.3775127947960613  0.2288643123842959
  0.5583468315342515  0.4033289821291035  0.9007188868519052
  0.5065452770507690  0.4824774907380629  0.5673870890240593
  0.4102775788497866  0.4880385865210641  0.2252942002805938
  0.3641955875339065  0.5380291378953217  0.8813456124466015
  0.2048776297447645  0.1380758644157964  0.2223741363622125
  0.1383366842293796  0.1631806703653922  0.8929968740054761
  0.0819078440914538  0.2140305957848980  0.5672830974867438
  0.9800357404729141  0.2558100804086507  0.2079822373227813
  0.9279004980441883  0.2853650668748458  0.8959666871360881
  0.8627140511286129  0.3481062563291033  0.5654810266386363
  0.7982755224726006  0.3834165670996370  0.2252557483964353
  0.7043337145664808  0.3949662084193619  0.8868184798540568
  0.6486837177736504  0.4577870208513417  0.5453044751834426
  0.5652702035743005  0.5077652654616713  0.2010966279241728
  0.5017107801995451  0.5265434189630582  0.8998013787724588
  0.4199566384129767  0.5743766780567299  0.5414289300169912
  0.2855292310019593  0.1755900631952088  0.8687267829688423
  0.2166655159965742  0.2244678765950283  0.5543784277690875
  0.1514816367576017  0.2475041041370432  0.2138306879966976
  0.0751558015772886  0.2854294619372979  0.8907457814313986
  0.0186728045335869  0.3295229310313985  0.5569713599913939
  0.9335142577473476  0.3561580998376854  0.2434494493426627
  0.8618522263628137  0.4086939720974243  0.8921868106697985
  0.7967511439331858  0.4631436737619623  0.5395983150826780
  0.7108865310563814  0.5197463285091288  0.2349770700636924
  0.6476518813819965  0.5035413586857089  0.8778216650156665
  0.5674401341375415  0.5831869203951854  0.5496055392945678
  0.4903597885517783  0.6017357909701175  0.2117668718091252
  0.3572406867442908  0.2364769743078483  0.5699578954445812
  0.2881976304331673  0.2342230094599600  0.2349143735684507
  0.2079166191783770  0.2962664021191586  0.8833815627283172
  0.1587199302434712  0.3644345220194722  0.5684181073703343
  0.0692649591415346  0.3591137125306361  0.2129667593020059
  0.0126021185837217  0.4087006801532382  0.8823157303773712
  0.9405109025717735  0.4619614805273784  0.5446630972177999
  0.8401106421384199  0.5015534978095531  0.2434145134179317
  0.7778095023948808  0.5350722591375003  0.8851017162938106
  0.6944633585074342  0.5920939443316939  0.5480787787374979
  0.6174006670666330  0.6486115172849907  0.2168447365943962
  0.5626028665573131  0.6481725157818232  0.8795939954369629
  0.4292783758324532  0.2511697392406020  0.2434386898972178
  0.3517122642880182  0.2814832564851244  0.8948703926991399
  0.2853600680774804  0.3409336351395638  0.5552383084487928
  0.2208261065756858  0.3721844207176517  0.2273638408405319
  0.1488105623467177  0.4107764513278838  0.8871423869437933
  0.0657634488862584  0.4672916948758470  0.5390466613177196
  0.0039028966918337  0.5143001814501389  0.2273125846604813
  0.9328082990554307  0.5388762048273819  0.8667688489760081
  0.8462760327441146  0.5769307150776228  0.5501100203050697
  0.7783317525246503  0.6401761181654280  0.2219395410964751
  0.7014623021119135  0.6538362737907590  0.8989958004814014
  0.6415345802554597  0.7115916143208949  0.5651748391955067
  0.1294581837962738  0.5027475287828906  0.1982748970178889
  0.0743903386117992  0.5288560131293636  0.8796186098423533
  0.0028916419567793  0.6088006964366173  0.5607612460051001
  0.9257850155629228  0.6376282517443386  0.2392223696419009
  0.8510188747081884  0.6623410919940014  0.8902376997449508
  0.7872167172076843  0.7039801705720663  0.5561333119674430
  0.7096702373701547  0.7596460033261678  0.2104908775106793
  0.2333886541828960  0.5507773993790366  0.8803969618596383
  0.1488062267896808  0.5916462708533459  0.5661118396930505
  0.0698574148324624  0.6356527501087825  0.2291798029556631
  0.9911005472002898  0.6736249266059886  0.8863411919478992
  0.9285625434923404  0.7298911156331940  0.5501140701129970
  0.8467476317431348  0.7453538148380048  0.2286533561634627
  0.7716974716607581  0.7942874315013242  0.8772571666136244
  0.2996442165873958  0.5896181342294327  0.5571700108024729
  0.2022917207126440  0.6202880886054132  0.2027652021318076
  0.1291751366811766  0.6648601910811180  0.8912692546291510
  0.0717874793418289  0.7215133225130472  0.5582769956565983
  0.9784510526412191  0.7544986585496574  0.1966607677377965
  0.9152390443515301  0.7869304427520660  0.8725411605714086
  0.8637633264645075  0.8243627977969084  0.5453240886251294
  0.3494769209831148  0.6309539962612192  0.2086013684630430
  0.2977721941109763  0.6729254898788497  0.8536732663370614
  0.2250522600913882  0.7084790148446771  0.5639523678041414
  0.1266932643836540  0.7383300960580925  0.2276946978220238
  0.0767777933751219  0.7883134250752448  0.8696700619013242
  0.0048380587761159  0.8487877723497093  0.5651361443676990
  0.9140044939639580  0.8807781240343218  0.2085595624324839
  0.4259991728449393  0.6423890394132741  0.8719452538581862
  0.3698831393771655  0.7091046096516251  0.5406050870249288
  0.2949547057603752  0.7404861246761101  0.2270904570657635
  0.2219026835154949  0.7908799520439587  0.8804193301568404
  0.1556582023701125  0.8596667251602241  0.5339836622635019
  0.0743175413386723  0.8729033438730056  0.2137342205408430
  0.9985767545151987  0.9111141710361110  0.8938750462803142
  0.9374681905821802  0.9888002906482853  0.5616320380820881
  0.8394949982353737  0.9956510855571779  0.2298845036015749
  0.7976587492623750  0.0405623032280147  0.8875472928815711
  0.7161926755983288  0.0906147166420794  0.5798568837770119
  0.6407251847116697  0.1455615455173174  0.2200483834385949
  0.5767271001386831  0.1728680028755250  0.8958920998489432
  0.5048912589167784  0.1951223742242334  0.5602209119799895
  0.0687513974338501  0.9776217433586680  0.5466369861540059
  0.1428555435536936  0.0015907859917448  0.2168966552665452
  0.2163591904811284  0.0355717442250807  0.8899784613867538
  0.2840384922790378  0.1007267366884363  0.5382511844623608
  0.3785108697440265  0.1418019571110776  0.2307643280725458
  0.4232517394294106  0.1489942667814432  0.8648547170065015
  0.8569974864268133  0.9174035095901303  0.8992672927022767
  0.7811425175922366  0.9739163146629437  0.5709270317395578
  0.7091581497834341  0.9994440152561594  0.2345069960600128
  0.6420909683235863  0.0433359872826813  0.8890937793874443
  0.5722328018032528  0.0805142525845213  0.5833058445429558
  0.5033391452072777  0.1297444211403658  0.2216252634504272
  0.1334849558559270  0.9000362326057498  0.9181801839558545
  0.2140449087948184  0.9772866872408699  0.5576028471920296
  0.2991713193059198  0.0220420401030950  0.2185504215655101
  0.3578513056893442  0.0320612956006414  0.8953854516196955
  0.4191399990235141  0.0921706970862104  0.5468547797594780
  0.7635438004091171  0.8828732878034984  0.2267900254149566
  0.7155708004665584  0.9201689893096514  0.8870929295328907
  0.6460819013116321  0.9619713232966305  0.5555641120230206
  0.5553906486770046  0.0179632345223553  0.2133676145353789
  0.5084686891822017  0.0206459228821174  0.8989169500262193
  0.2108057817007634  0.8943613459858497  0.2226522521593708
  0.2744302880671725  0.9217959480425293  0.8887132919761385
  0.3659813823874956  0.9628828633802655  0.5394280954024495