Li 
 1.0000000000000000
   -10.6364300000000007   18.4228371711498369    0.0000000000000014
   -18.2338799999999992  -10.5273355263713349    0.0000000000000078
    -0.0000000000000001    0.0000000000000000   22.3096999999999994
 Li 
 504
Cartesian
 -0.1544711300000000 -0.1516891700000000 -0.4857521400000000
 -10.7701244200000001 16.8274297500000003 15.2191743499999994
 -10.9071808299999997 14.6751571999999992  7.6957931100000003
 -10.9785694199999995 12.9456056900000007  0.0578530000000000
 -10.7045933400000006 11.4959602200000006 14.7088968799999993
 -10.7334901800000004  9.5169718999999997  7.6170615000000002
 -10.9074360400000003  8.1445102699999996 -0.1681273600000000
 -10.7972807999999993  6.3857952100000004 15.4750832700000007
 -10.7251458999999993  4.4928839700000003  7.5796272299999998
 -10.8081894500000004  2.6659252400000000  0.3601899900000000
 -10.7565950699999995  1.1123822299999999 14.1003359699999997
 -10.6405117899999997 -0.9308641400000000  6.8716275500000004
 -1.7789191499999999  0.6186433200000000 14.9869760700000008
 -1.5232461399999999 -1.0011714800000000  7.6855118800000000
 -12.5350387500000000 15.5605054599999999  0.0000210100000000
 -12.2675450000000001 13.8771017600000004 15.2649110799999992
 -12.2918373699999997 12.1910068099999993  7.6553566300000000
 -12.3596475800000007 10.4429592699999993 -0.3614139600000000
 -12.0491034300000006  9.0493873300000001 15.8377490299999995
 -12.2103202900000003  7.2640027099999998  7.8109450499999999
 -12.2128246899999997  5.3640721800000000  0.0761466800000000
 -12.3277499200000005  3.7961910400000001 14.7890970599999996
 -12.1528685200000002  1.7557568900000000  7.2378535299999998
 -12.4350802599999994 -0.2086451800000000 -0.0033570400000000
 -3.2442632599999999  1.4718208699999999  7.0474529199999996
 -3.3263918299999999 -0.2793966400000000 -0.2010122100000000
 -3.0984017499999998 -1.6407643500000000 14.9846982700000009
 -13.8890113399999997 14.9350753300000001  7.4919992899999999
 -13.8860254399999992 13.0357905800000005 -0.1792151500000000
 -13.7538080300000001 11.3972764499999997 14.9359455400000005
 -13.6516850800000000  9.6178023600000007  7.4849785700000000
 -13.6092972499999991  7.6891751499999996  0.2449290600000000
 -13.5173844299999999  6.2977638799999998 15.0673814099999994
 -13.6792610900000007  4.4863772800000001  7.5957964599999999
 -13.5288303699999997  2.9077397399999998  0.3158202400000000
 -13.7731779400000001  0.9653259300000000 15.2480567800000006
 -4.7200309799999998  2.3899068899999998  0.3173598400000000
 -4.6499633700000000  0.7308837700000000 15.0863749600000006
 -4.4874453799999996 -0.9968124800000000  7.4826536600000004
 -4.3916912000000004 -2.4070427799999998  0.1077792500000000
 -15.3173685200000005 14.2103911899999993 14.8525868800000005
 -15.1530675299999995 12.6383177500000006  7.4471176300000002
 -15.1689105400000006 10.6078892099999997 -0.4610895800000000
 -15.2107182800000000  8.6253614400000007 14.9765976199999997
 -15.1189988799999995  6.9710464200000004  7.4729301499999998
 -15.1188164700000005  5.1946567899999998 -0.0000560000000000
 -15.3242097099999999  3.5018363500000000 14.9678352900000000
 -15.0552414500000005  1.6917397300000001  7.5761087800000002
 -5.9905126900000001  3.5967328400000000 15.5574076800000007
 -6.3985036900000001  1.9734043999999999  7.4626801100000000
 -6.0885858900000001  0.0470106600000000 -0.1159562700000000
 -6.0261020299999997 -1.9198807300000000 15.1162189999999992
 -16.6602959000000013 14.9558074699999999  7.5404538199999998
 -16.7202333600000017 13.1557088600000007  0.3908692900000000
 -16.6688340900000007 11.4018383599999993 14.4550231000000000
 -16.5665909800000009  9.6274108900000002  7.8195353399999998
 -16.7539998600000004  8.0360946299999991 -0.0305596900000000
 -16.6504524799999984  6.3236450199999998 15.2703434999999992
 -16.8983665400000014  4.4136724300000001  7.1835372700000004
 -16.8481160000000010  2.5682273200000001 -0.2400317900000000
 -7.8217892600000001  4.4503253899999997  7.5092606699999997
 -7.5419988000000000  2.6109951699999998 -0.1700062100000000
 -7.7323659200000003  1.0777181000000000 15.1290219199999996
 -7.7647239299999997 -0.8185496400000000  7.1378496299999998
 -7.8544459000000000 -2.4902042199999999  0.1102869800000000
 -18.3482172299999995 14.0051776199999995 14.4031976999999998
 -18.1623280099999995 12.3726937800000005  7.5560127799999997
 -18.1801329000000003 10.5470564200000005 -0.5416559700000000
 -18.3741242000000007  8.6096190000000004 14.7791907600000005
 -18.1502819200000012  7.1426673999999997  7.3856968900000002
 -18.2816996200000013  5.4399563899999999 -0.1406943000000000
 -18.1956041199999987  3.6369208099999999 15.2450661099999998
 -9.3023915699999993  5.2646168299999996  0.2280420600000000
 -9.0878490999999997  3.5033296599999999 14.8041820800000004
 -9.2183032600000008  1.6311854299999999  7.1132063199999997
 -9.2593423700000006  0.1186682500000000  0.0180462300000000
 -9.3440282400000001 -1.4760691200000000 14.9218941699999998
 -9.3045148799999993 -3.4897369999999999  7.7418953899999998
 -19.7677958999999994 13.3243647299999992  0.3630746200000000
 -19.7903737600000014 11.4753579899999991 14.5339546800000008
 -19.5635558200000013  9.6612047099999998  7.2670072599999997
 -19.7785761800000017  7.7423446299999998  0.3846988800000000
 -19.6874747100000000  6.1685697599999996 15.2822095800000000
 -19.7962780800000004  4.4400264600000003  7.4883686999999997
 -10.7585079700000001 -2.6213166399999999  0.0360205900000000
 -10.6950387800000009 -4.3870053899999997 14.5098980100000006
 -21.2961239000000013 12.1610602300000004  7.4604232599999998
 -21.2605868300000012 10.3461353000000003 -0.2481988300000000
 -21.0231150000000007  8.5701621100000001 15.4521888599999997
 -21.0418347300000015  7.0316360800000002  7.0455766600000000
 -21.0481420800000016  5.3282566999999998 -0.2250383800000000
 -12.3586545900000004 -1.8530066700000001 14.9315660399999999
 -12.3967360800000002 -3.4914456000000000  7.5343327899999997
 -12.1777895800000007 -5.2006617899999998  0.0425320400000000
 -22.8030425399999999 11.1991394700000004 14.9992757999999995
 -22.6565724000000017  9.4237979500000009  7.2204385799999997
 -22.7617559100000015  7.8912398599999998 -0.2928247100000000
 -22.7351270499999991  6.1037154999999998 15.2381554700000006
 -13.9488152000000003 -0.9255029000000000  7.1117585900000000
 -13.5335879200000004 -2.6829924300000001 -0.1378307500000000
 -13.4389245699999993 -4.5428221300000002 14.6356276800000007
 -13.5773426599999993 -6.1231926899999998  7.2064096900000001
 -24.1763514899999983 10.3597570999999995  0.2664087900000000
 -24.1419882200000018  8.7500422400000009 14.9189599099999999
 -24.2499063100000001  6.8831907499999998  7.6423914699999997
 -15.2707552500000006 -0.0590952700000000 -0.9392257800000000
 -15.2621541100000009 -1.8485582300000001 14.7466785100000006
 -15.0850899100000007 -3.6458991799999998  7.6176463200000004
 -15.1451436499999996 -5.4427890600000000 -0.1180303800000000
 -15.1154223600000002 -7.1360004600000000 14.8480448999999997
 -25.8245225299999994  9.5213680600000004  6.8207732400000003
 -25.6960815899999986  7.6662020499999999  0.2351342500000000
 -16.4897926900000016  0.8714227300000000 14.9020012899999994
 -16.5517315200000006 -0.9054749600000001  7.5782699400000002
 -17.0180032099999998 -2.7205214099999999 -0.7910133700000000
 -16.7516716000000017 -4.2513061099999998 14.9817244299999999
 -16.8092107700000000 -6.3139405100000001  7.0305139700000003
 -16.5791604600000007 -8.1906852299999997  0.1551577000000000
 -27.3813183000000002  8.5627295399999994 14.7158569499999992
 -27.5528879700000005  6.8317651100000001  7.1178145300000004
 -9.2396540300000005 15.6485276300000002 -0.0852302200000000
 -9.2099339499999999 13.9916722700000005 14.9340916499999992
 -8.9396584600000004 12.0489706900000009  7.6689195300000002
 -9.2153516700000004 10.4963566700000008  0.3714226600000000
 -9.1461894200000007  8.8012771999999995 15.0246033499999996
 -9.3316681599999995  6.9668756399999996  7.6285947199999997
 -18.4960714099999990 -8.9261073399999997  7.5470279900000001
 -1.6738937500000000  2.4686835500000002  0.5631900399999999
 -3.0587746199999999  3.3163469100000000 14.9544475000000006
 -4.6792703600000003  4.3727326900000003  7.6959549699999998
 -6.2999229899999998  5.3445722099999999 -0.2620070500000000
 -7.8098527700000000  6.4022207399999997 15.2584819300000003
 -25.7104423900000008  6.1990752400000000 14.7488906600000007
 -25.7426712600000016  4.4539126500000004  7.4185337799999997
 -7.7713552799999999 13.1085804499999998  0.0854253100000000
 -7.5934497399999996 11.2414349599999994 15.0075410500000004
 -7.7521687200000002  9.5379175299999996  7.2464755399999996
 -7.7834005299999998  7.9416611599999998  0.3501508100000000
 -18.2284958500000016 -7.1604997499999996 14.2852068299999999
 -19.9054664400000014 -6.6047378300000004  7.6876988800000001
 -3.0198037800000002  5.2125708299999998  0.2662014700000000
 -4.6158092699999997  6.2505961900000004 14.8551471199999998
 -6.2642965999999998  7.1305804999999998  7.5914840699999999
 -24.2761319399999991  5.1322219400000000  0.1309434100000000
 -24.5602644400000010  3.1970191899999998 14.6177924600000004
 -24.3271052700000006  1.5648935700000000  7.4679312900000001
 -6.1861797999999997 10.4715033099999992  0.0217563000000000
 -6.1879685999999996  8.5368719700000000 14.4638532699999995
 -18.4217039800000002 -5.2480494200000001  0.1248059300000000
 -20.0969349000000008 -4.6998851799999999 14.3740567200000005
 -21.4732335300000017 -3.5746810500000001  7.1458724900000004
 -4.7083522000000002  8.2356167300000003  0.1576642000000000
 -22.7553874500000006  4.3240723599999997  7.3544509500000004
 -22.7653888600000016  2.5246055500000000 -0.2104128600000000
 -22.9277421100000005  0.5337415900000000 14.6397166399999996
 -22.7647930000000009 -0.7815415500000000  7.7862454200000002
 -18.3228795099999999 -3.5823213900000002  7.4141099300000004
 -19.8893709700000016 -2.6680751699999998 -0.3201980700000000
 -21.3973109400000006 -1.8952072700000000 14.5003634600000009
 -21.1621471099999994  3.3660159599999999 14.9565479200000002
 -21.3072720400000009  1.6459132599999999  7.3306086800000001
 -21.3485796100000016 -0.0911700100000000 -0.6804111200000000
 -18.2089836299999988 -1.6457235500000000 14.5250362299999995
 -19.6337976199999993 -0.9469243400000000  7.5863459200000003
 -19.8389800700000016  2.7289951800000001 -1.0061196900000000
 -19.7355452400000004  0.8998452700000000 15.3635192200000006
 -18.3085227400000008  0.1572484100000000 -0.6597082200000000
 -18.1892926999999993  1.5196504600000000  7.5303090099999999
  0.1159326500000000  0.6133073000000000 17.5508635400000017
 -11.0879573300000001 16.8485463499999994  9.7596341399999993
 -10.3326001200000004 15.1016094699999996  2.5584006300000000
 -10.9504234500000006 13.3047263499999993 17.3793437100000006
 -10.8928189700000004 11.2175648399999996 10.3830183599999994
 -10.8130021299999992 10.1729309200000007  2.5887991299999999
 -10.4502359400000007  8.0049652299999998 17.5898267900000000
 -10.8552487600000003  6.6497833599999998  9.9832360300000005
 -10.2943152999999992  4.3393875099999999  2.6214142300000001
 -10.5635678300000002  2.6136676200000002 17.5142851999999998
 -10.5699715199999993  0.4568736900000000  9.2927754399999998
 -10.4793662199999993 -0.9441525700000000  2.2586016400000002
 -1.7322611900000000  0.6956993500000000  9.6656351300000001
 -1.5761902200000000 -0.7073491000000000  1.9112551099999999
 -12.2506426400000006 15.7199378299999992 17.0153129099999987
 -11.9617210000000007 13.8502189700000002 10.2772961299999999
 -11.9617391000000008 12.2777639900000004  2.5858765799999999
 -11.8505970200000004 10.7377064299999994 17.3958331199999989
 -12.1962398000000007  8.4224657100000009 10.3851025200000002
 -12.1267632899999995  7.2908938699999997  2.5897127800000002
 -11.7160868399999991  4.8788530899999998 17.4621263000000013
 -12.4256968400000005  3.6200953500000002 10.3526802500000006
 -12.2837359500000005  1.6069778900000000  2.9167250299999998
 -11.9151433400000002  0.3389100800000000 17.1347924800000015
 -3.0685046200000001  1.7222309700000000  2.3990191799999998
 -2.6462420999999998 -0.1179300300000000 17.6162368399999991
 -3.3103655200000000 -1.7224715300000000 10.2419081799999994
 -13.6431604600000007 15.1776835999999999  2.1114255599999998
 -13.3496663899999994 13.5117016599999999 17.5115255500000018
 -14.0334949899999994 11.3741512999999994 10.3178878800000007
 -13.6642938699999998  9.9002466299999998  2.6534622200000002
 -13.3145558200000007  7.6562332800000004 17.5715705399999997
 -13.8623582699999996  5.9525530499999997  9.9893945899999999
 -13.5080419400000000  4.4148735700000001  2.4243768600000002
 -13.4852983999999996  2.8187306799999998 17.0391157299999989
 -13.1898248799999998  0.9854172900000000  9.2453309600000004
 -4.3053900900000004  2.5637851000000000 17.6193034500000003
 -4.5537764000000003  0.7250988800000000  9.7318989499999997
 -4.3558460800000001 -1.1626407400000001  2.5443236599999999
 -4.3915512699999999 -2.1668842900000000 17.5391045000000005
 -15.2465231299999999 14.5171705200000005 10.4902875499999997
 -14.9621690600000008 12.5783456800000000  2.7720582700000000
 -14.7435004999999997 10.5876735300000000 17.4066730999999990
 -15.2619575199999993  8.9994076599999993  9.9012777399999994
 -15.3030761200000001  7.0342602599999999  2.4231513400000000
 -14.8249886699999998  5.4093379600000002 17.3988234999999989
 -15.3864952899999992  3.2393588000000002  9.9478710699999997
 -15.1356836099999992  1.7262783600000000  2.3755849400000000
 -6.0539949100000001  3.7099737699999999 10.0545101799999994
 -5.9793930199999998  1.8704161699999999  2.6567832000000000
 -5.8615086200000004  0.0046994700000000 17.5483396399999982
 -6.3124384600000001 -1.2600038700000000 10.3038443799999992
 -16.3031159899999984 14.9981423599999992  2.5803792799999998
 -16.8178470100000013 13.3489084899999995 17.0998399100000000
 -16.6698571599999994 11.6460926100000002 10.0762249199999996
 -16.7923033599999982  9.4499052999999993  2.4989735500000001
 -15.9229661999999994  8.2659339299999992 17.7931983500000008
 -16.7870420200000012  5.8436003400000001  9.8778936700000006
 -16.6278960600000012  4.0324042899999997  2.2620071099999999
 -16.7601521399999989  2.4993924500000002 17.0962903500000003
 -7.4347103700000003  4.6633792500000002  2.4977911000000002
 -7.7065716699999998  2.5213993100000001 17.3225696199999994
 -7.8017903300000002  0.9120754500000000  9.5039648400000001
 -7.3398298100000003 -0.4726629800000000  2.9123911699999998
 -7.6424447000000004 -2.1230421599999998 17.4377914599999997
 -18.0330543699999986 14.3311220499999994 10.1164543800000004
 -18.1890701499999992 12.2101886900000007  2.8105304900000001
 -18.0285583000000003 10.8342759599999994 17.3589219499999992
 -18.0838071999999990  8.6576836299999993  9.8870261100000008
 -18.5101897000000015  7.1973715699999996  2.6550945000000001
 -17.8020627299999994  5.5703109800000004 17.6090390200000009
 -18.2676725699999984  3.7703822400000000  9.5452589600000000
 -8.7869208699999994  5.0939511800000004 17.9607409699999998
 -9.3620777499999992  3.4993565499999999 10.1258353299999992
 -8.9820145500000006  1.7714000999999999  2.5452009000000002
 -8.5536153600000002  0.1795131900000000 17.3743440800000002
 -9.3571199400000005 -1.9755551499999999  9.5289828599999993
 -8.7047039999999996 -3.3458980000000000  2.5189785200000001
 -19.4038480000000000 13.5305563200000005 16.9427425400000011
 -19.9971042700000012 11.7763552899999997 10.0851778999999997
 -19.7891738100000012  9.2187312600000002  3.0035782700000002
 -19.4917494299999987  8.0008680800000000 17.8438793599999990
 -19.8082096499999984  6.3220256499999996  9.7830631700000001
 -19.8784728999999984  4.4912359700000000  2.1802404300000000
 -10.8135229400000004 -2.3994931799999999 16.7541024699999994
 -10.7950767699999997 -4.3133606200000001  9.9217228199999994
 -21.3667073199999997 12.2894359899999994  2.4275394000000001
 -20.8770852500000004 10.2769518800000004 17.7885395200000005
 -21.0515360700000009  8.5011863600000002  9.5942182099999993
 -21.3527189899999996  7.0858546400000000  2.2970008700000002
 -20.8352490699999997  5.2520971000000003 17.2662613399999998
 -12.2510671599999998 -1.8449555500000001  9.7481154500000002
 -12.0314961999999994 -3.6333430099999999  2.1667420800000001
 -11.5804210800000007 -5.4546423700000002 17.5043010400000014
 -22.9170111299999988 11.3976275499999993  9.5991361600000005
 -22.2995604599999986  9.3254159899999998  2.7621195900000002
 -22.6271048700000001  7.7800979300000002 17.3547948599999984
 -22.8069574700000004  6.5169253500000002  9.6074185799999992
 -13.3296834799999999 -1.2840366800000000  2.5829685699999998
 -13.6031680700000006 -2.7538950799999999 17.5096775300000012
 -13.8866079899999999 -4.1593340200000002  9.6081527500000004
 -13.4425086199999999 -6.4775041900000003  2.4354716199999999
 -24.0241945699999988 10.7939802999999994 17.5235934600000007
 -24.7285901599999995  9.0475069599999998 10.0943722499999993
 -24.2473297999999993  6.7997452899999997  2.3560316200000000
 -14.9389029999999998  0.2870472400000000 17.5965841199999993
 -15.1419925600000003 -1.6471019099999999  9.6405125900000002
 -14.8781639200000004 -3.6661597100000001  2.3492965699999999
 -15.1622185799999993 -5.0536037399999998 16.9221077000000015
 -15.4445078200000001 -6.8390614300000001  9.5941239700000001
 -25.5045035099999993  9.8012019400000003  2.6383185400000002
 -25.8054264000000018  7.8127809399999997 16.8506222100000009
 -16.6314775300000015  1.0262067800000001  9.9034167400000008
 -16.3175687499999995 -0.7925845100000000  1.8839657700000001
 -16.8278840800000005 -2.5856943200000000 17.3024228700000009
 -16.6282050300000002 -4.3877813699999999  9.8219097600000005
 -16.6127992599999992 -6.0977726199999998  2.8327961799999999
 -16.2960352300000011 -7.4620057099999997 17.9483311100000016
 -27.7301979299999992  8.9910879399999999 10.1566852099999991
 -27.1980547600000016  7.0214936699999999  2.3537495599999998
 -9.2179975100000000 16.3327049299999985 17.8013967199999996
 -9.4779029799999996 14.0416407999999997 10.0810092499999993
 -8.9615986999999997 12.6129875299999998  2.8134707900000002
 -8.8603645699999998 10.5050694900000003 17.1791171100000000
 -9.1248830099999996  8.9026259400000001 10.3733455499999998
 -9.5021168500000002  7.2282184000000003  2.9117538800000000
 -17.9751642599999997 -8.7099623600000005  2.3711722300000000
 -0.9169011300000000  2.4995443599999998 17.3918372800000007
 -3.1739322200000002  3.2144955799999999 10.1362356400000007
 -4.6019193200000004  4.3055999299999996  2.2713809399999998
 -5.4599684100000001  5.1715875899999997 17.6222845600000007
 -7.5472541099999999  6.1165617599999997  9.6384724800000008
 -25.9807078800000006  6.2513863799999996 10.4375471500000003
 -25.6423220500000006  4.4718644100000002  2.7448729599999999
 -7.8335954399999999 13.5829066300000001 17.4086334299999983
 -7.4178953099999996 11.6724172500000005  9.9771069099999998
 -7.8075203899999996  9.7008594800000001  2.2509083099999998
 -7.5825601200000001  7.9441453199999996 17.5302689200000010
 -18.5670347100000015 -7.2634596499999997 10.0581192799999997
 -19.8919391499999989 -6.4120050500000003  2.7308988099999998
 -2.6776811700000001  5.1711745699999998 16.8103590999999994
 -4.4805321899999999  5.9941152400000002  9.5827559200000003
 -6.2396855499999999  7.6531754200000002  2.7771273200000000
 -24.2142924999999991  5.8240783000000000 17.7269246900000006
 -24.6973725900000005  3.7607413599999999 10.0088322999999999
 -24.2444314200000015  1.5924484800000001  2.2177306200000002
 -24.0880377599999989  0.3215770700000000 16.9932480900000016
 -6.2803740799999996  8.6256248499999995 10.2262573999999997
 -17.8871210100000013 -5.3469555299999998 17.3236260100000017
 -19.5740624200000006 -4.1795126900000001 10.0916186200000002
 -21.1836134899999990 -3.2654056599999999  2.5853315399999999
 -22.8870350699999996 -2.2657004199999999 16.9095751400000012
 -22.3988662299999994  4.3865343000000001  2.0317115700000001
 -22.6032714699999993  3.0879251299999999 16.8965835499999990
 -22.9667156800000001  0.9400777700000000  9.5777997300000006
 -22.6435165199999986 -0.8356629700000000  2.7279420800000000
 -18.2899759400000015 -3.6033941199999999  2.5330908999999999
 -19.7678645499999988 -2.5530332200000001 16.9146317900000014
 -21.2764356300000017 -1.5760387800000000 10.1390798600000007
 -21.7348196099999988  4.1121201999999997 10.5180647599999997
 -21.2835366800000010  1.4697345100000001  2.3453508400000000
 -21.0706519300000004  0.1056010500000000 17.3437704799999999
 -18.2173103800000007 -1.7477651800000000  9.8357308000000003
 -19.6165890800000007 -0.8070804600000000  1.9685020499999999
 -19.2970850700000014  2.7020287100000000 17.6672342299999983
 -19.6509449099999998  1.1773904399999999 10.0917068600000004
 -17.9906806699999997 -0.0434266900000000 17.3131685900000001
 -18.0388702499999987  1.7548260899999999  1.9723941100000000
 -0.0071232700000000 -0.3141435000000000  4.9370850800000001
 -10.7818295800000001 16.7595017099999986 19.8092499599999989
 -10.8943752200000006 15.0957100000000004 13.0159476099999996
 -10.1775381599999992 13.0675105200000008  5.0127498399999997
 -10.2517720299999997 11.8070008099999999 19.7660836300000007
 -10.7044769700000000  9.2622587900000006 12.9605019200000005
 -10.9954035900000004  8.1726019799999996  5.2348062300000002
 -10.3900167000000003  5.8518208100000004 19.6464791599999984
 -11.2030737899999995  4.4944934300000003 12.4578047900000008
 -10.5704602399999992  2.5851892500000000  4.9711784200000002
 -10.4026095800000000  1.2693292199999999 19.4250054600000013
 -10.7438918799999996 -1.3037179400000001 11.9693200300000004
 -1.4271809300000000  0.9954231900000000 20.1737349299999984
 -1.5833787900000000 -0.9789726100000000 12.6051520200000002
 -12.1257488599999999 15.9532269200000005  4.5634326200000004
 -12.1696148500000003 14.2689378700000002 19.8762607200000012
 -12.3416472000000006 12.4675636200000000 12.4935220900000008
 -12.2930428200000001 10.9865260300000003  5.3295860599999996
 -11.8091319699999993  9.0654676300000006 19.6705952599999989
 -12.4669990899999998  6.5841484399999999 12.8403430000000007
 -12.6246468000000007  5.1828494400000000  5.1623076399999999
 -12.0945800999999999  3.1654811399999998 19.8372681799999988
 -11.7073933399999994  1.5915620900000000 12.6308257299999998
 -11.9216411999999998 -0.2538847200000000  4.7739834700000001
 -3.1377598799999999  1.5692404900000001 12.2313560199999998
 -3.2234810899999999 -0.0867274800000000  4.8434224199999996
 -13.5167940800000004 16.5105997199999983 20.1164172100000016
 -13.6335313800000009 14.8110951800000006 12.5392919999999997
 -13.5947056499999999 13.3075931199999999  5.3015834899999996
 -13.1226488600000000 11.4137031100000002 19.4675349000000004
 -13.5769826899999995  9.5691788300000002 12.6340377299999993
 -13.9429750499999994  8.2531257700000005  5.1058941500000001
 -13.2930692500000003  6.0403532400000000 20.0947681500000002
 -14.1852700499999997  4.2527987300000003 12.6582357400000003
 -13.2627257699999994  2.4207310799999999  5.0262460200000003
 -13.6840996100000005  1.0455027500000000 19.6625562100000018
 -4.6968253100000004  2.3208562599999998  4.9611002700000002
 -4.4468252200000000  0.8306965400000000 19.9224923599999997
 -4.7738152500000002 -0.7441970200000000 12.6559157199999994
 -4.4520618599999997 -3.0607968500000000  4.6400213199999998
 -15.0728610799999991 14.0904259799999991 19.9887480000000011
 -15.5235253199999992 12.2290091299999997 12.6157120599999999
 -15.4819733900000003 10.6701451200000008  5.0253881700000003
 -14.6933626999999998  8.8178835400000004 19.7846542399999983
 -15.2469125600000002  7.1313169399999996 12.1655792500000004
 -15.2709878700000008  5.0684655999999997  4.4864054400000004
 -14.9373411100000002  3.6998367700000001 20.0742988199999992
 -14.9399548099999997  1.6901367599999999 12.0791170000000001
 -6.2386998199999999  3.4117630200000000 19.3810339099999993
 -6.3974679200000004  1.6285448700000000 12.3680164099999992
 -6.1241839599999999  0.1851627800000000  4.7704985000000004
 -6.0038759800000001 -1.6202286200000000 19.8722711600000004
 -16.8435235600000013 15.2978447499999994 12.4258639500000001
 -16.4234031099999989 13.4485853500000001  5.4312841799999996
 -16.6191077199999988 11.5753046600000005 19.9044200899999986
 -16.9194939399999988  9.8027477399999992 12.0382765299999992
 -17.0382870100000012  7.6250028199999997  5.2422679399999996
 -16.0702166099999992  6.6306363199999998 19.5839379999999998
 -16.6692975899999993  4.3144528099999997 12.2615347000000003
 -16.1876557699999992  2.6991439700000002  4.7244553800000002
 -8.1116583299999991  4.0919145500000003 12.7155896599999991
 -7.3361881699999998  2.8436738099999999  5.2408691999999997
 -7.6135765900000001  0.7115182000000000 19.7079776500000001
 -8.3332687700000001 -0.9124530600000000 12.6812374499999994
 -7.2847682300000001 -2.5044534800000000  4.7512245100000001
 -18.2226707099999992 14.3524747599999998 19.6841992499999989
 -18.4270285800000018 12.4636557099999994 12.1512703000000002
 -18.0810443300000010 10.1971996100000002  5.4305047699999998
 -18.0295596899999993  8.6965726100000005 19.7463537600000016
 -18.1827808299999987  6.5608137600000003 12.2274731299999999
 -18.3936435500000002  4.5461208900000001  4.8377410200000002
 -17.8027858799999983  3.5412114500000000 19.6234781600000012
 -9.1457882799999997  5.2643775000000002  5.4310441400000000
 -8.8734947999999996  3.5162690900000002 19.9642899999999983
 -9.2517553800000005  1.6680193000000001 12.3872000900000003
 -9.1351674900000006  0.1501331300000000  5.0724190800000004
 -9.0728616500000001 -1.5828687699999999 19.7918805099999986
 -9.2200290099999993 -3.7077871500000001 12.0259692999999999
 -20.0556306800000002 13.0805290299999992  5.0712755700000001
 -19.7475542299999987 11.5120447899999991 19.3373529899999994
 -19.5210412099999999  9.5172623400000003 12.2727895199999999
 -19.9515657200000014  7.5997303499999997  4.9514045800000002
 -19.3830268299999986  6.0397719399999996 20.0563266099999993
 -19.7987137599999983  4.3277234299999998 12.6088811100000004
 -10.5440110199999992 -2.9076048800000001  4.4234534700000001
 -10.4343447099999995 -4.1969636000000001 19.6240273000000016
 -21.7679855899999986 12.0670602200000001 12.5104151699999999
 -21.4734845400000012 10.3430600500000001  5.3369793000000003
 -21.1288506799999993  8.7054952500000002 19.8609360099999996
 -21.2094654600000005  7.0917299399999996 12.4071673499999999
 -21.3996518699999996  5.0770908700000001  4.6959883299999996
 -12.5252310900000001 -1.4985373099999999 19.6413921000000009
 -12.3707741200000001 -3.4870259199999998 12.6297853100000008
 -12.3334494699999997 -5.4047580000000002  5.1129326500000003
 -22.8245676700000004 11.1674083799999995 19.7740060900000003
 -23.1853375100000001  9.4229478699999998 12.2728798700000006
 -22.5970639300000009  7.7529040499999997  5.1011877800000001
 -22.6910478500000004  5.8551265700000004 19.5713442099999995
 -13.9381710400000003 -0.6868113200000000 12.4302957900000006
 -13.4619202999999992 -2.8031934000000001  4.5236308300000001
 -13.4969432400000002 -4.6194338000000004 19.8839496900000015
 -13.9195498400000002 -6.2730837900000003 12.4549922899999999
 -24.1646641299999985 10.0829838899999995  4.3874427300000001
 -24.0836712900000016  8.5770190799999995 19.4661315299999984
 -24.2186904900000002  7.2346273500000002 12.1660168199999994
 -15.2219262600000000 -0.2039080100000000  4.6538339500000001
 -15.4372757299999996 -1.5983037700000000 19.0451944699999984
 -15.3120739500000003 -3.3122951600000001 12.5816081400000002
 -14.8101864100000000 -5.4385992700000001  5.0798003999999999
 -15.1906540200000002 -6.8843751400000004 19.4020781800000002
 -26.1645840599999993  9.5764942699999995 12.6080178400000005
 -25.7817474400000002  7.5663091299999996  4.6529012700000001
 -16.2443550399999985  1.0854684400000001 19.4528370300000013
 -16.8639644799999999 -0.6506853000000000 12.0607373100000004
 -16.6392002199999993 -2.3614433699999999  5.0663199700000003
 -16.7810625000000009 -4.2377816099999999 19.6418911300000012
 -17.3307074800000009 -6.1823343399999997 11.9130153100000005
 -16.7068881500000010 -7.8202064199999999  4.7683463399999999
 -27.2344382100000004  8.8050123700000000 19.9420841200000005
 -28.0009806300000008  6.8613913999999996 12.5298422800000004
 -8.8499321999999996 15.5116621400000003  5.1286543099999999
 -9.2238496199999993 14.2681242800000003 19.8009138399999998
 -9.2699911299999993 12.2403695199999998 12.9364331200000002
 -9.4691803300000004 10.2716005199999998  4.9092134200000004
 -9.2863718500000001  8.8051099900000001 19.9870839800000013
 -8.9280784900000008  7.2474107500000002 12.4983604800000005
 -18.5571069800000004 -9.0251563099999998 12.1953071699999995
 -1.5484791899999999  2.6150576800000001  4.8388993100000004
 -2.9499002999999999  3.6114744499999998 19.8551524800000010
 -4.8577947699999999  4.1724107400000001 12.0082224499999999
 -6.6116042400000001  5.4804473399999996  5.1482829299999997
 -7.2186310799999998  6.2289852400000001 19.2946492800000016
 -25.8432192799999996  6.1305105900000001 20.0623835200000009
 -26.0668409200000006  4.1381175900000002 12.7372107999999997
 -7.5327732599999999 13.0705581599999991  5.2317807299999997
 -7.6197388300000002 11.3729248799999993 19.8354154899999990
 -7.5546013600000004  9.6945511799999995 13.0133784000000006
 -7.7194757899999997  7.9070720600000000  4.9443931399999999
 -17.8309560500000011 -7.0158117999999998 20.4843244499999990
 -20.0964018700000011 -6.3449103600000001 12.4399522400000002
 -3.5840267099999998  5.2795405500000001  4.8757943399999997
 -4.3908621800000001  6.2551163200000000 19.9757808099999998
 -6.1387826900000002  6.7514361000000003 12.2001660800000007
 -24.2195857699999983  4.7723397800000003  5.0596174300000003
 -24.3893696599999998  3.4959166499999998 19.7907771299999986
 -24.4124745899999986  1.7756667799999999 12.3944686700000002