Li                                      
   1.00000000000000     
    20.2271999999999998    0.0000000000000000    0.0000000000000000
     0.0000000000000000   20.2271999999999998    0.0000000000000000
     0.0000000000000000    0.0000000000000000   20.2271999999999998
   Li
   432
Direct
  0.0031342667299512  0.9853410239677274  0.9982780463929757
  0.9098145091757601  0.0791739889851257  0.0769142431972796
  0.8319807368296139  0.1692783405513367  0.1717303877946534
  0.7384783904840972  0.2473879696646080  0.2461927093221021
  0.6566857128025632  0.3301021426593920  0.3243788908005030
  0.5770991956375582  0.4223078147247250  0.4140571537335873
  0.4992406927305808  0.5053122730778341  0.4854770887715532
  0.4131734456573355  0.5867041434306302  0.5851738653891800
  0.3365403456731499  0.6721925095910422  0.6698021782550256
  0.2350518232874563  0.7495894597373862  0.7578792694984955
  0.1485315283380828  0.8288657130003187  0.8500446922955263
  0.0762835686600241  0.9240192913502625  0.9114707107261495
  0.0745491659745312  0.9129717212466417  0.0803646871539314
  0.9827746969427338  0.0141121643134028  0.1584335760757796
  0.9037847527092211  0.0957566000237335  0.2474224257435509
  0.8255033454951715  0.1694619126720482  0.3518065782708462
  0.7397623966737825  0.2526708753559532  0.4058897751542503
  0.6516909127313681  0.3377084416033824  0.4940764287691835
  0.5910504360465083  0.4268824824988116  0.5816180074355302
  0.4899813740903340  0.4993784824394893  0.6622480946448377
  0.4170320775984777  0.5890771302997919  0.7569547569609227
  0.3165054599746853  0.6572967380556847  0.8153757855758599
  0.2482381520922345  0.7464131244067360  0.9151691529228003
  0.1633100369799081  0.8396705727930680  0.0018279841006148
  0.1585145976704609  0.8512468171570973  0.1680948005655765
  0.0701509536663494  0.9403855358131636  0.2475589260995079
  0.9851682447397536  0.0050374490784719  0.3269429224015212
  0.9219387893529500  0.0755984604888482  0.4182818126087611
  0.8391501641354182  0.1717059751226060  0.4960854344644829
  0.7420762567236210  0.2336253628777101  0.5804386326332889
  0.6629987536584423  0.3343784666192064  0.6590645976704650
  0.5902850186877089  0.4169136415321972  0.7393773824355350
  0.4980855808020905  0.4937154929995273  0.8271362600854317
  0.4058152754706512  0.5700535511588356  0.9260945874861548
  0.3385746529425688  0.6642857864657472  0.0082948940041163
  0.2295018573999386  0.7494114850300591  0.0758279747073232
  0.2455494126720481  0.7476016922757509  0.2444533321468114
  0.1568733754548362  0.8478692715749077  0.3268867302444249
  0.0775954571072646  0.9419603637675991  0.4143194747666499
  0.0072636840491995  0.9952603247112819  0.5043507801376350
  0.9180518163660807  0.0847282209104563  0.5692884007672845
  0.8341441568778691  0.1851097655632046  0.6691765404999188
  0.7524103682170562  0.2534462051099524  0.7407675095910449
  0.6698841451115314  0.3391549937707623  0.8251014411287798
  0.5800287953844361  0.4285748946962471  0.9060149976269543
  0.5111321744977033  0.5101418248694856  0.0056238466025960
  0.4335528417180825  0.5894419756565412  0.0966235539273868
  0.3309475270922348  0.6906934686956205  0.1529818200245217
  0.3316603479473201  0.6813556142224328  0.3322255166310697
  0.2478612684899559  0.7556306972789102  0.4234097195855071
  0.1621305202895087  0.8416239558614151  0.4999259507000460
  0.0742984753203615  0.9075462565258690  0.5915683762458457
  0.9910129073722516  0.0027077168367313  0.6605014391512398
  0.9205445019577567  0.0940872755497537  0.7308055197951262
  0.8329242955030836  0.1705484708709051  0.8158937846068639
  0.7458833081197582  0.2380980283974026  0.9112845930232538
  0.6589301361533018  0.3331202529267543  0.9797723357657020
  0.5865620713692437  0.4183858017916435  0.0804136385658936
  0.5131849994067395  0.4845748818422706  0.1749099870471440
  0.4152947377788294  0.5936918797460820  0.2467192760243648
  0.4099639065219094  0.5881141710172457  0.4150691138664797
  0.3175607909152021  0.6796818546313901  0.5038788542161043
  0.2461672188933690  0.7563267738490751  0.5921961403456706
  0.1549810552127795  0.8152769147484591  0.6806503574394895
  0.0886700007910122  0.9266000212585013  0.7455433001107394
  0.9945893603662412  0.0070878554619540  0.8321936145388378
  0.9039006768114248  0.0695153076055988  0.9015508884076908
  0.8376491209856027  0.1734395012656194  0.9911590907293117
  0.7581401167734541  0.2592156497191880  0.0795629577993964
  0.6650730748694826  0.3337260401835138  0.1592290682842901
  0.5863994917734558  0.4048427587604806  0.2386238431419088
  0.4930492238174367  0.5076353494304726  0.3362948534646435
  0.0730664817671283  0.0845869606272771  0.9321429970534751
  0.9894325042517025  0.1446840981450705  0.0078875355956356
  0.9168573767006833  0.2432893168604622  0.0898477470930246
  0.8373848852040808  0.3326329076688808  0.1719245392342970
  0.7509119077282094  0.4104503198663210  0.2562733660615422
  0.6716515449493770  0.4915550704002527  0.3047284740349596
  0.5874434123358654  0.5911598026419895  0.3973674735010277
  0.4888034898552434  0.6647513318699581  0.4872323188577781
  0.4256084257831034  0.7482743083570611  0.5836630828785019
  0.3341198692849261  0.8054301757040037  0.6868778832463249
  0.2275359609832321  0.9050050066247408  0.7601725191820918
  0.1622708714008851  0.0096557724252477  0.8443683381782918
  0.1606001522702130  0.0021108260164553  0.0055131209460555
  0.0855046986236374  0.0790930618177512  0.0966172485563987
  0.9921788631150150  0.1710028199651958  0.1566171106233156
  0.9178841950442944  0.2542979962624585  0.2674851027329552
  0.8394030300783086  0.3238239128500240  0.3350642481411157
  0.7575468705505486  0.4286837995372537  0.4137782184385372
  0.6579169440159802  0.5219791968240770  0.4881734436797984
  0.5822957433554805  0.5894182610544192  0.5736023285477003
  0.4974593379212138  0.6597891695340934  0.6806599573841154
  0.4277890325897786  0.7469990853899731  0.7516135416666643
  0.3285246598639446  0.8326232385105214  0.8255612684899560
  0.2260404465274490  0.9194210587723433  0.9200605382850782
  0.2488139935334601  0.9237730808020856  0.0905865769854444
  0.1613218537414980  0.0023311278872029  0.1687593171570967
  0.0882698163858535  0.1050677775470632  0.2521317780018961
  0.0092987398156907  0.1577321581830375  0.3268738747824713
  0.9266143025233333  0.2466084776933997  0.4100945924299921
  0.8320753871025133  0.2997021382099376  0.5084788828903655
  0.7364869991892107  0.4152883711042534  0.5741912741259299
  0.6620749995056130  0.4969519023888651  0.6752994724924832
  0.5758803521990217  0.5905248012577147  0.7516267006802693
  0.4972028417180852  0.6631374728088915  0.8406380507435500
  0.4054298899501632  0.7483559172797030  0.9091225972947328
  0.3218244813913955  0.8310412449572837  0.0045668233863339
  0.3224458417378600  0.8314489212545482  0.1571103430034810
  0.2533259442730582  0.9109084327044741  0.2537192404287296
  0.1719955189052342  0.0095648216263271  0.3243000622923589
  0.0939301425802910  0.0857660249564915  0.4066563355283961
  0.0102446631268762  0.1652069095079867  0.5068538996994150
  0.9183688206968839  0.2523882628342022  0.5959915559246980
  0.8420518307032125  0.3518205520289541  0.6535551267600042
  0.7688902200996708  0.4060649412672035  0.7490709940080649
  0.6529870822456871  0.4952291177226726  0.8361483858368928
  0.5803307847848416  0.6005179001542444  0.9240539921491830
  0.5000814596187340  0.6543495066049658  0.0050731361730740
  0.3980736676356571  0.7579842237185588  0.0768642308376855
  0.4099948193521570  0.7640246939764310  0.2629968433594385
  0.3267355511390591  0.8319941044731820  0.3394654124149667
  0.2388514688142678  0.9272609891631092  0.4140562124268286
  0.1677767085904094  0.9903487155908905  0.5008913463059628
  0.1015548286465773  0.0816870090768873  0.5811930227614326
  0.0091678680193041  0.1711837659191602  0.6729168278357847
  0.9327681809642456  0.2704786426198353  0.7340313117979775
  0.8373616219743738  0.3324272390642307  0.8349729151835135
  0.7435964829536488  0.4208337461438063  0.9160970297421329
  0.6556540707562064  0.4980885248576143  0.0051723856984651
  0.5836578903654512  0.6034366605363104  0.0874294148473354
  0.4934326436679299  0.6841576847017876  0.1589172401518724
  0.4976812588989077  0.6858957735128968  0.3281331800743530
  0.4150859140167711  0.7447497033697204  0.4265346197199804
  0.3306776929085586  0.8545928813676653  0.5015506990586900
  0.2476996361335253  0.9070626601803511  0.5979275544810960
  0.1670083056478404  0.0013632890365471  0.6723262295325085
  0.0833440219110884  0.0867236033657619  0.7481980061501332
  0.9850644404564122  0.1610615804461304  0.8300169019933534
  0.9256258127669668  0.2482081123437752  0.9116284794731868
  0.8431916147563712  0.3213392827479851  0.9984688627195055
  0.7454130141591548  0.4092377951471278  0.0769490146930849
  0.6694792339028623  0.4905235336576510  0.1812178531877890
  0.5772481668248730  0.5795246559088767  0.2528504553274828
  0.1522968300110747  0.1736590180548987  0.8443483650727757
  0.0872695499129890  0.2493094496519532  0.9302010624307897
  0.0054356772069326  0.3184757124070572  0.0132569673508911
  0.9180909779900333  0.4186384042279698  0.0832398250870128
  0.8375761919593430  0.4882973362600822  0.1738675313439302
  0.7644316796195199  0.5829435517520949  0.2401685255497554
  0.6824827578705879  0.6803790252728987  0.3213189358883071
  0.5846593087525704  0.7542158247310553  0.4206510550150284
  0.4980875271911103  0.8433413922836550  0.5042066944510353
  0.4140625316405604  0.9121595821468134  0.6042286683277993
  0.3326443427661729  0.9972635031047332  0.6818347932486972
  0.2538392530849549  0.0909786213613373  0.7534962184583165
  0.2612585508622018  0.0955024279188450  0.9145397306597047
  0.1806690500909696  0.1694756224292036  0.0110283791132701
  0.0910699211952206  0.2347496949651955  0.1005074904089511
  0.0049816519340311  0.3368675659507971  0.1770236147365907
  0.9236885461161179  0.4198684652349343  0.2755011548805584
  0.8389970440792567  0.4902992312331875  0.3432721256525895
  0.7526972339226390  0.5823670433871229  0.4114339241219724
  0.6681311669435246  0.6718310853701936  0.4859645413107074
  0.5799052533222593  0.7411356801732296  0.5746833021871538
  0.5041732790499935  0.8373080693323871  0.6693975221483939
  0.4098561051455434  0.9076753450798947  0.7606600879014422
  0.3238698119364045  0.0071820395309317  0.8226140182526507
  0.3325669697239348  0.0082335305924701  0.9944551430746742
  0.2664376102475856  0.0846546195222260  0.0806133755537104
  0.1996908944391720  0.1639121222907747  0.1765550382653061
  0.0956032075620925  0.2310585073564297  0.2589661475636760
  0.0075218695617778  0.3320937529663013  0.3489247275945289
  0.9088524313795290  0.3969794089147314  0.4398040668011376
  0.8236295043308033  0.5084699933752574  0.5158280691346278
  0.7319014618928961  0.5765880794178102  0.5844943437549404
  0.6580273082779655  0.6754119779307075  0.6682704017362795
  0.5785380537098561  0.7595284987541504  0.7734183930548966
  0.4948972616081306  0.8325611928492336  0.8331908662592937
  0.4117102500593290  0.9278069895981673  0.9168555222670491
  0.4206219491575709  0.9129097240349608  0.0711547940397068
  0.3481098901479172  0.9956492149185223  0.1625811837525717
  0.2726709470416040  0.0851185359318123  0.2596753065179556
  0.1815878426079749  0.1652968023255781  0.3398437124268341
  0.0979823653298553  0.2457766220732509  0.4118223649343449
  0.9990824780493597  0.3158781141235565  0.5140031610900166
  0.8976651993355489  0.4247817636647682  0.5698274729077681
  0.8282414407332723  0.5115681043347564  0.6554939843379231
  0.7382431908519251  0.5917615399066634  0.7554915618572977
  0.6591211576491034  0.6783777804144933  0.8372202801178616
  0.5747019938498639  0.7459086887952822  0.9200074548133230
  0.5021344239439998  0.8354143168604651  0.0075522756486350
  0.5069025376720475  0.8496884813518406  0.1538653412236997
  0.4157883320479385  0.9129319965195393  0.2595581607933894
  0.3396927696369261  0.0024934311224456  0.3500383177108048
  0.2548381847215637  0.0827507287217202  0.4341832903219398
  0.1704586319411519  0.1552813508542954  0.4971951095554488
  0.0941213153575404  0.2509174220851165  0.5849739756367640
  0.0045974504627466  0.3453782881466552  0.6585905300783139
  0.9341542610939726  0.4384252382929930  0.7393449167457646
  0.8253105318580936  0.5116362338830882  0.8276413161485507
  0.7451024570874836  0.5788911480580623  0.9182225399462141
  0.6610793886449926  0.6642977011153306  0.9942895986592291
  0.5796059499090305  0.7491059642461622  0.0763479537454543
  0.5945813824948587  0.7517524279188450  0.2386346202143628
  0.5274971286188901  0.8303411337209283  0.3329812915282417
  0.4274698272622999  0.9120834158954310  0.4059058104928042
  0.3396100602159464  0.9842539214523001  0.5043308881110562
  0.2742481880833694  0.0798363698386311  0.5858222794059458
  0.1796133631941146  0.1599159923271642  0.6650888259373531
  0.0722857938815054  0.2499295686006988  0.7544357014317384
  0.9996505413502632  0.3498762418921046  0.8355272568620506
  0.9173228395427913  0.4273491882217968  0.9113190767876915
  0.8332359125336168  0.4935696107221972  0.9960572694193957
  0.7662545819490560  0.5697585686600206  0.0889792131387424
  0.6773256016650819  0.6685104280374929  0.1566021906146204
  0.2487928630754652  0.2456206652428392  0.7586144374901096
  0.1647324399818046  0.3291405632020243  0.8380174448267681
  0.0866272929520662  0.4155939482479027  0.9305192340017427
  0.0008414624861572  0.4903300308495488  0.0102719516294911
  0.9231612526696722  0.5671516092192661  0.0849550990745129
  0.8501199404761905  0.6623134294415465  0.1628805909863971
  0.7703042774086413  0.7424019093102388  0.2378872740666012
  0.6595829768826107  0.8384549853662406  0.3120073242959975
  0.5943204917141287  0.9120487872765395  0.4216892491298836
  0.4918814615962646  0.9941517545681080  0.4955840150885962
  0.4136655454042071  0.0806950126562285  0.5960539946211014
  0.3331286663502624  0.1776095544613199  0.6739307971444362
  0.3325560764712847  0.1769011464760339  0.8379292096780588
  0.2377761929481110  0.2383505146535327  0.9241442340017372
  0.1681275277843710  0.3326687366516339  0.0041081073999365
  0.0924711749525358  0.4042915341718114  0.0925904855837700
  0.0044441726981503  0.4978442982716373  0.1552364632771699
  0.9164930286940347  0.5704521762774846  0.2503012626562224
  0.8462885475992721  0.6635539852278143  0.3313659221246610
  0.7433754088553997  0.7573838395823458  0.3906770190634390
  0.6783470519893982  0.8354050298607802  0.5044223248892550
  0.5873178546709354  0.9139885120036411  0.5887040386212590
  0.5108978148236005  0.9946356312292366  0.6800017357815236
  0.4137341757633308  0.0842708140523669  0.7482093809326074
  0.4197780285951609  0.0755254884511913  0.9037757529465296
  0.3429817686086096  0.1629021925921563  0.9944992119522240
  0.2723941914847359  0.2507527240547347  0.0863969244383824
  0.1756323312173720  0.3242979923073861  0.1921415653179892
  0.0733573228128463  0.4072007999129852  0.2600361869166292
  0.9962361928492314  0.4952142778041448  0.3376196309919308
  0.9160457290183501  0.5748581202539143  0.4123593201234002
  0.8218776325937327  0.6659828552641969  0.4856231826451491
  0.7447940505853481  0.7394068833056480  0.5641942443837991
  0.6535699167457665  0.8187846291132743  0.6627555736829649
  0.5933997706059202  0.9184828844328408  0.7590228464641697
  0.4985318877550995  0.0031224203053313  0.8383392253994657
  0.5112337323010578  0.9928391245451635  0.9983341876285365
  0.4195397672441104  0.0711259037335878  0.0739641982083512
  0.3568009408123700  0.1646054866714124  0.1720003752373032
  0.2746855827796253  0.2375888027013104  0.2711417106668250
  0.1743103257000485  0.3428397835587731  0.3370413542161046
  0.0941858823762090  0.4226323168802395  0.4252068388111070
  0.9858168916112930  0.4930576797579462  0.5087669108922626
  0.9187095821468105  0.5840130907886376  0.5812664718794522
  0.8293111157253605  0.6645782767758277  0.6464544949375082
  0.7470454753994602  0.7404570069016003  0.7508489084005703
  0.6725126458432200  0.8217460375138401  0.8361470692928350
  0.5836823312173678  0.9264711769300717  0.9090008780256298
  0.5853041019023877  0.9298555524244563  0.0693029252689428
  0.4893628495293498  0.0059738668723313  0.1640263476902390
  0.4147947798014542  0.0779137058020893  0.2557223624624285
  0.3573151058970083  0.1630889885896210  0.3657944821824088
  0.2536328893766822  0.2517781037414935  0.4294480758582537
  0.1648665534527751  0.3362117584242981  0.5068098955861444
  0.0911552271199199  0.4271997997745629  0.5780888239598170
  0.0042421022187966  0.5052412301257689  0.6530160491813035
  0.9230250677305776  0.5820561501344699  0.7433511380715103
  0.8442914906660306  0.6591544969150434  0.8251092034488181
  0.7382705975122619  0.7448070533736768  0.9244350493395004
  0.6483848293387098  0.8241023695815528  0.9866031027527313
  0.6640051025351994  0.8368091179204242  0.1496376616635047
  0.5996116145586114  0.9220091065495950  0.2390368637280460
  0.5044520131308303  0.9931663987106489  0.3339336967054294
  0.4276783069332382  0.0753926717489293  0.4264880477772479
  0.3553037751146988  0.1668912291370006  0.5067685176396139
  0.2526844738767622  0.2322965081672237  0.5697239845356776
  0.1729573356668226  0.3235464201669060  0.6713585656937227
  0.0918130413502638  0.4176534191583627  0.7453117351882597
  0.0227790173627582  0.4819016838712216  0.8227558989875021
  0.9372895828389503  0.5683455312648320  0.9119138061619978
  0.8359077914886868  0.6685374164491407  0.9879215037177644
  0.7550460009294397  0.7464191351249809  0.0904952410615394
  0.3281941420463568  0.3285153990666032  0.6743859382415778
  0.2409744443126058  0.4296639846345514  0.7383970366634998
  0.1774981000830564  0.5017199538245549  0.8516613510520514
  0.0709008434187623  0.5741407100340155  0.9373935641116944
  0.9889645348837206  0.6687975152270198  0.0053878109674130
  0.9204980793189392  0.7526702287019447  0.0809559504034141
  0.8319515820281609  0.8329037202380931  0.1547668807348543
  0.7357388160496754  0.9151926366476815  0.2403424121974354
  0.6682043520605916  0.0120453943205163  0.3141722675407408
  0.5796556033459908  0.0703258498457515  0.4043478701945915
  0.5154577390840061  0.1587815219110880  0.5105669202855552
  0.4285072679362472  0.2586491610306894  0.6042418125098905
  0.4404682773690851  0.2542652052681547  0.7463138096226842
  0.3374117381545645  0.3231117233230520  0.8311538062608790
  0.2791694015978479  0.4158308846503687  0.9075784315179547
  0.1745277255378923  0.4889326337802586  0.0117316153496247
  0.0918028674260398  0.5773694248338899  0.0800539491377918
  0.9895177009175740  0.6455113871420650  0.1612862546472087
  0.9205881679125127  0.7351879311026721  0.2392751018430630
  0.8318748635500697  0.8456974336536973  0.3094207626364494
  0.7475837594921657  0.9241018509729457  0.4033347334282524
  0.6537836354018367  0.9928080159389339  0.5027922421294093
  0.5808866155473851  0.0697477698346773  0.5798346439447855
  0.4985215052009195  0.1544021283222605  0.6653340318976433
  0.4957554604690699  0.1711997691227651  0.8308604918130058
  0.4280351556320170  0.2667773285476969  0.9271029415836125
  0.3346901222116756  0.3398140019379809  0.0098591233586447
  0.2515769236473631  0.4057340284369531  0.0868827776459398
  0.1738904667971823  0.4880602490705570  0.1656993187391222
  0.0833745684029452  0.5843989954121156  0.2537253584282553
  0.9918231035437444  0.6565013017125452  0.3420424245570288
  0.9061846943719374  0.7556651558297744  0.4327755260243649
  0.8119262992406249  0.8426374792358828  0.4924428695024545
  0.7315562776854918  0.9344735119047627  0.5906378203607048
  0.6601796808258200  0.0014106361730768  0.6805911396535365
  0.5937392941188122  0.0924070108566681  0.7603494616160447
  0.5907639075106772  0.0970177859515928  0.9198494453013737
  0.4811238021080513  0.1620058589424147  0.9982332191306753
  0.4160033000118659  0.2525496598639450  0.0775622834598977
  0.3424319554856794  0.3259231717687072  0.1728826555331437
  0.2609684138190147  0.4203560191227638  0.2586936862244897
  0.1826566682486970  0.5036885639139399  0.3303974722156298
  0.0894073860939741  0.5741866130754616  0.4234657921017231
  0.0007910135856690  0.6641599499683579  0.4919321927899034
  0.9124382025193825  0.7565543006446731  0.5706339552681570
  0.8208983141512434  0.8190514337130210  0.6522748487185552
  0.7419796032075610  0.8912450477574723  0.7503148443679777
  0.6720260891275132  0.0049945612838158  0.8279871470099636
  0.6768787726427803  0.0156008186995749  0.9977770156027503
  0.5751513392857177  0.0804305361097946  0.0788421788482836
  0.4862141285002366  0.1649649654920111  0.1679842345950036
  0.4092332008384716  0.2480188612363534  0.2801043792517035
  0.3322056839305461  0.3292218305054604  0.3386288379014388
  0.2599118889416232  0.4131016848599884  0.4104957285239692
  0.1875524140760945  0.5109579244779283  0.5019957216025972
  0.0870509457562108  0.5974841139653506  0.5662086042556567
  0.0105293995214382  0.6642717523928141  0.6567697956217344
  0.9011725063281091  0.7448810646060764  0.7344444371934813
  0.8264824755774427  0.8073728489360832  0.8519936422243291
  0.7454805830762510  0.9137610737027373  0.9133791552958428
  0.7544003381585185  0.8946205653773163  0.0611691311699119
  0.6640855125771239  0.0053124184266764  0.1480926183554843
  0.5776585622330330  0.0836987348718523  0.2532114993671897
  0.5054935146733115  0.1742123541567793  0.3358989192770139
  0.4288481307348491  0.2594313602475893  0.4351360840847960
  0.3250039778120524  0.3310105447120719  0.4994326060947643
  0.2518236033657644  0.4158234481292524  0.5892736691188105
  0.1600117584242966  0.5088208135579819  0.6605880621143783
  0.0930284834282560  0.5715268806359788  0.7441507133958254
  0.9996521406818530  0.6692370639534886  0.8230551262656221
  0.9220143420740357  0.7484373042240122  0.9156526380319576
  0.8319193422717959  0.8326368716381936  0.9976783257198250
  0.4141079363431430  0.4164852787335889  0.5796450373754141
  0.3298879276419839  0.5130545908479647  0.6726632910140822
  0.2243846849786451  0.5860004207206160  0.7481212407055864
  0.1543040564190790  0.6681602782391991  0.8473151622567627
  0.0645230892066095  0.7448113495688986  0.9315766650846413
  0.9856349000355991  0.8324456484337901  0.9928633819806976
  0.9047896095356762  0.9223955105007136  0.0889801277487763
  0.8202463084361682  0.9977223120352789  0.1592508182051873
  0.7461866882217976  0.0902915064863166  0.2668820187668075
  0.6577817033499471  0.1621211047500424  0.3488764628816625
  0.5798493948742305  0.2577579299161528  0.4123028160101256
  0.5174052167378562  0.3458400263012180  0.5000053655473806
  0.5063377462031298  0.3543379760915997  0.6677934192572366
  0.4128115305133662  0.4125286441029914  0.7511466540104408
  0.3230096305964238  0.5156611102871409  0.8196315896416735
  0.2518189685176395  0.5850557135935759  0.9229398186600193
  0.1616308455940541  0.6726795957918057  0.0008352683515298
  0.0673166394755569  0.7466447194866319  0.0834419568699545
  0.9928497740666060  0.8355475794969180  0.1638736621974388
  0.9170234377471900  0.9192291750711945  0.2439307239756374
  0.8242362709618760  0.9978006565416848  0.3280950858250264
  0.7503203364776141  0.0795373823366532  0.4360185418644207
  0.6601483195894673  0.1564477851605730  0.5062325052404688
  0.5695345653377615  0.2491896451313096  0.5887935769656707
  0.5830063533262120  0.2618916063518455  0.7461863530295858
  0.5042819525193778  0.3356735870510974  0.8172434543584899
  0.4329101932051884  0.4183394547935464  0.9295540228009784
  0.3332176312094575  0.5102212693798478  0.0077389104769807
  0.2394194342271803  0.5841297633879137  0.0945139930390795
  0.1506510475992755  0.6794560809207439  0.1743128628777058
  0.0669945563399779  0.7707574839819671  0.2484852975201690
  0.0006109224212949  0.8347959346820133  0.3393102648908410
  0.9093231925328240  0.9212415915203280  0.4245477732953660
  0.8444033054500863  0.9934594778318271  0.5118592083926572
  0.7437060265385256  0.0873094620115467  0.5954194159349768
  0.6596338025035564  0.1564659448663193  0.6764356554540427
  0.6739291384867911  0.1709663586655594  0.8311482048924219
  0.5720856722630927  0.2436594669553855  0.9047595549557030
  0.5099790786663476  0.3251469872251249  0.9996004573050143
  0.4317310527408651  0.4148494270091732  0.0799144023888658
  0.3377507929916135  0.4878303072100962  0.1584882094407547
  0.2607406981688030  0.5883929041093197  0.2320231529821228
  0.1646898755141564  0.6671008730817931  0.3240713825937362
  0.0924768173548500  0.7286718097413356  0.4183005551930066
  0.0092712980541023  0.8345876863826902  0.4892379924062666
  0.9057408316524302  0.9043260273295388  0.5696845376522717
  0.8417879261588368  0.9959138442295554  0.6815899783459898
  0.7490934123358670  0.0808525589305518  0.7440813424497676
  0.7673275584361647  0.0964453943205186  0.9031458155355168
  0.6718993360425571  0.1643839557625384  0.9962193180469896
  0.5788493582898298  0.2489303403338070  0.0783092993592760
  0.4948566909903462  0.3235090398077816  0.1737213657846866
  0.4147796145783929  0.4218682046946682  0.2581499822021840
  0.3339755195973737  0.5089493034132246  0.3300464844367994
  0.2510780300783111  0.5885816232597705  0.3933503955070421
  0.1805822461833557  0.6562255171254563  0.4981639880952358
  0.0970042413186221  0.7403212550427156  0.5623894389732627
  0.9915648008622071  0.8105737991417499  0.6739204912197465
  0.9161611384670181  0.9161611532985319  0.7443556107617439
  0.8287705050624936  0.9847808179085575  0.8073752674616372
  0.8361043036109805  0.0092689680232567  0.9929404638308839
  0.7581785027092209  0.0935926608724884  0.0751801317038456
  0.6596488307823094  0.1631376547421297  0.1648263086339199
  0.5813809543584867  0.2460167309365602  0.2408685804263584
  0.4932089666389814  0.3520999550110773  0.3282573247903784
  0.4132246331672178  0.4151793149818062  0.4272567181814608
  0.3209811264040496  0.5116426544455024  0.4959681038403758
  0.2424515686797974  0.5973804070756188  0.5988325685215941
  0.1657797213652898  0.6592199909033383  0.6746376661129574
  0.0785016423429852  0.7421722789115677  0.7486548345791775
  0.9886804505813984  0.8310291582621403  0.8273669746677754
  0.9120306241101090  0.9084534774956481  0.9172334549517487
 
  0.00000000E+00  0.00000000E+00  0.00000000E+00
  0.00000000E+00  0.00000000E+00  0.00000000E+00
  0.00000000E+00  0.00000000E+00  0.00000000E+00
  0.00000000E+00  0.00000000E+00  0.00000000E+00
  0.00000000E+00  0.00000000E+00  0.00000000E+00
  0.00000000E+00  0.00000000E+00  0.00000000E+00
  0.00000000E+00  0.00000000E+00  0.00000000E+00
  0.00000000E+00  0.00000000E+00  0.00000000E+00
  0.00000000E+00  0.00000000E+00  0.00000000E+00
  0.00000000E+00  0.00000000E+00  0.00000000E+00
  0.00000000E+00  0.00000000E+00  0.00000000E+00
  0.00000000E+00  0.00000000E+00  0.00000000E+00
  0.00000000E+00  0.00000000E+00  0.00000000E+00
  0.00000000E+00  0.00000000E+00  0.00000000E+00
  0.00000000E+00  0.00000000E+00  0.00000000E+00
  0.00000000E+00  0.00000000E+00  0.00000000E+00
  0.00000000E+00  0.00000000E+00  0.00000000E+00
  0.00000000E+00  0.00000000E+00  0.00000000E+00
  0.00000000E+00  0.00000000E+00  0.00000000E+00
  0.00000000E+00  0.00000000E+00  0.00000000E+00
  0.00000000E+00  0.00000000E+00  0.00000000E+00
  0.00000000E+00  0.00000000E+00  0.00000000E+00
  0.00000000E+00  0.00000000E+00  0.00000000E+00
  0.00000000E+00  0.00000000E+00  0.00000000E+00
  0.00000000E+00  0.00000000E+00  0.00000000E+00
  0.00000000E+00  0.00000000E+00  0.00000000E+00
  0.00000000E+00  0.00000000E+00  0.00000000E+00
  0.00000000E+00  0.00000000E+00  0.00000000E+00
  0.00000000E+00  0.00000000E+00  0.00000000E+00
  0.00000000E+00  0.00000000E+00  0.00000000E+00
  0.00000000E+00  0.00000000E+00  0.00000000E+00
  0.00000000E+00  0.00000000E+00  0.00000000E+00
  0.00000000E+00  0.00000000E+00  0.00000000E+00
  0.00000000E+00  0.00000000E+00  0.00000000E+00
  0.00000000E+00  0.00000000E+00  0.00000000E+00
  0.00000000E+00  0.00000000E+00  0.00000000E+00
  0.00000000E+00  0.00000000E+00  0.00000000E+00
  0.00000000E+00  0.00000000E+00  0.00000000E+00
  0.00000000E+00  0.00000000E+00  0.00000000E+00
  0.00000000E+00  0.00000000E+00  0.00000000E+00
  0.00000000E+00  0.00000000E+00  0.00000000E+00
  0.00000000E+00  0.00000000E+00  0.00000000E+00
  0.00000000E+00  0.00000000E+00  0.00000000E+00
  0.00000000E+00  0.00000000E+00  0.00000000E+00
  0.00000000E+00  0.00000000E+00  0.00000000E+00
  0.00000000E+00  0.00000000E+00  0.00000000E+00
  0.00000000E+00  0.00000000E+00  0.00000000E+00
  0.00000000E+00  0.00000000E+00  0.00000000E+00
  0.00000000E+00  0.00000000E+00  0.00000000E+00
  0.00000000E+00  0.00000000E+00  0.00000000E+00
  0.00000000E+00  0.00000000E+00  0.00000000E+00
  0.00000000E+00  0.00000000E+00  0.00000000E+00
  0.00000000E+00  0.00000000E+00  0.00000000E+00
  0.00000000E+00  0.00000000E+00  0.00000000E+00
  0.00000000E+00  0.00000000E+00  0.00000000E+00
  0.00000000E+00  0.00000000E+00  0.00000000E+00
  0.00000000E+00  0.00000000E+00  0.00000000E+00
  0.00000000E+00  0.00000000E+00  0.00000000E+00
  0.00000000E+00  0.00000000E+00  0.00000000E+00
  0.00000000E+00  0.00000000E+00  0.00000000E+00
  0.00000000E+00  0.00000000E+00  0.00000000E+00
  0.00000000E+00  0.00000000E+00  0.00000000E+00
  0.00000000E+00  0.00000000E+00  0.00000000E+00
  0.00000000E+00  0.00000000E+00  0.00000000E+00
  0.00000000E+00  0.00000000E+00  0.00000000E+00
  0.00000000E+00  0.00000000E+00  0.00000000E+00
  0.00000000E+00  0.00000000E+00  0.00000000E+00
  0.00000000E+00  0.00000000E+00  0.00000000E+00