Li 
 1.0000000000000000
    20.2271999999999998    0.0000000000000000    0.0000000000000000
     0.0000000000000000   20.2271999999999998    0.0000000000000000
     0.0000000000000000    0.0000000000000000   20.2271999999999998
 Li 
 432
Cartesian
  0.0633974400000000 -0.2965100400000000 -0.0348303000000000
 18.4030000399999984  1.6014681099999999  1.5557597800000000
 16.8286407599999990  3.4240268500000002  3.4736248999999999
 14.9373500999999997  5.0039659399999996  4.9797891700000001
 13.2829132500000000  6.6770420599999998  6.5612766999999996
 11.6731008500000009  8.5421046300000008  8.3752168600000001
 10.0982413399999995 10.2210524100000004  9.8198421699999994
  8.3573419199999996 11.8673820499999998 11.8364288099999992
  6.8072688799999996 13.5965723300000008 13.5482226200000007
  4.7544402400000001 15.1620959200000005 15.3297755599999999
  3.0043769299999998 16.7656325499999994 17.1940239999999989
  1.5430029999999999 18.6903230100000002 18.4365003600000001
  1.5079208900000001 18.4668616000000014  1.6255526000000000
 -0.3484196500000000  0.2854495700000000  3.2046676299999999
 18.2810349499999987  1.9368879000000001  5.0046628899999996
 16.6976212699999991  3.4277400000000000  7.1160620200000002
 14.9633219499999992  5.1108243299999998  8.2100136599999995
 13.1818824299999999  6.8308961899999998  9.9937827400000003
 11.9552953800000008  8.6346373500000002 11.7645037600000002
  9.9109512500000001 10.1010284400000003 13.3954246599999998
  8.4353912399999995 11.9153809299999995 15.3110752600000009
  6.4020192400000004 13.2952725800000007 16.4927690899999995
  5.0211627500000002 15.0978475499999991 18.5113094899999986
  3.3033047799999999 16.9841846099999998  0.0369750000000000
  3.2063064699999999 17.2183396199999983  3.4000871500000001
  1.4189573700000000 19.0213663100000012  5.0074239100000000
 -0.3000048800000000  0.1018934900000000  6.6131398800000003
 18.6482402799999996  1.5291451800000000  8.4606698799999993
 16.9736581999999991  3.4731310999999998 10.0344192999999997
 15.0101248599999995  4.7255869400000003 11.7406483099999992
 13.4106083900000002  6.7635401200000000 13.3310314299999995
 11.9398131299999992  8.4329956100000008 14.9555341899999998
 10.0748766599999993  9.9864820200000004 16.7306505600000008
  8.2085067400000007 11.5305871900000003 18.7323004399999995
  6.8484172200000000 13.4366414600000006 20.3949824799999995
  4.6421799699999999 15.1584959900000005  1.5337876100000001
  4.9667770800000000 15.1218889500000007  4.9446064400000003
  3.1731091400000002 17.1500213300000013  6.6120032699999998
  1.5695388299999999 19.0532206700000017  8.3805228799999991
  0.1469239900000000 -0.0958703600000000 10.2016041000000008
 18.5696176999999985  1.7138146700000001 11.5151103399999997
 16.8724006899999992  3.7442522500000002 13.5355677199999995
 15.2191550000000007  5.1265070799999997 14.9836525700000003
 13.5498805800000000  6.8601558899999997 16.6894918700000012
 11.7323584499999996  8.6688701100000003 18.3261465600000015
 10.3387727199999997 10.3187407199999992  0.1137546700000000
  8.7695600400000000 11.9227607300000003  1.9544239500000000
  6.6941418199999996 13.9707949300000003  3.0943938700000002
  6.7085601900000000 13.7819162800000008  6.7199919699999997
  5.0135394499999997 15.2842932400000002  8.5643930800000003
  3.2794464600000000 17.0236960800000006 10.1121021899999999
  1.5028501200000000 18.3571196400000005 11.9657718600000003
 -0.1817837200000000  0.0547695300000000 13.3600947100000003
 18.6200377500000016  1.9031221400000000 14.7821494100000006
 16.8477263099999988  3.4497180300000001 16.5032467599999997
 15.0871308499999994  4.8160564399999997 18.4327357200000002
 13.3283116499999998  6.7380899799999998 -0.4091490100000000
 11.8645083299999996  8.4627732899999994  1.6265427500000000
 10.3802956200000001  9.8015930499999993  3.5379392900000002
  8.4002497199999997 12.0087243899999994  4.9904401399999996
  8.2924219299999997 11.8959029600000008  8.3956859799999997
  6.4233656300000002 13.7480608100000001 10.1920583600000008
  4.9792735700000001 15.2983729200000003 11.9784697700000002
  3.1348327999999999 16.4907692099999998 13.7676509100000004
  1.7935458399999999 18.7425239499999989 15.0802534399999999
 -0.1094420900000000  0.1433674700000000 16.8329466799999992
 18.2833797699999998  1.4061000299999999 18.2358501299999993
 16.9432963000000001  3.5081954799999999 20.0483731600000006
 15.3350517699999997  5.2432067900000003  1.6093358600000001
 13.4525661000000003  6.7503433599999996  3.2207582100000001
 11.8612198000000006  8.1888354499999991  4.8266922000000001
  9.9730052600000008 10.2680417399999993  6.8023032600000004
  1.4779303399999999  1.7109573700000000 18.8546428299999995
 -0.2137508500000000  2.9265541900000001  0.1595427600000000
 18.5454575300000002  4.9210616700000003  1.8173683500000000
 16.9379515500000011  6.7282323499999999  3.4775520400000000
 15.1888453400000003  8.3022607100000005  5.1836926300000004
 13.5856301300000002  9.9427827200000003  6.1638037900000002
 11.8823353899999997 11.9575075599999998  8.0376313600000007
  9.8871259499999997 13.4460581399999999  9.8553455599999999
  8.6088667500000007 15.1354940899999999 11.8058699100000002
  6.7583094199999998 16.2915972499999988 13.8936163199999996
  4.6024153900000000 18.3057172699999988 15.3761615799999998
  3.2822853699999999  0.1953092400000000 17.0792072499999996
  3.2484913999999998  0.0426961000000000  0.1115150000000000
  1.7295206400000001  1.5998311800000000  1.9542964100000000
 -0.1581997000000000  3.4589082400000000  3.1679256200000001
 18.5662271899999993  5.1437364299999997  5.4104746700000002
 16.9787729700000014  6.5500510500000004  6.7774115600000000
 15.3230520600000002  8.6710729499999992  8.3695747800000007
 13.3078176100000007 10.5581776099999995  9.8743818799999996
 11.7782124600000007 11.9222810500000005 11.6023690199999994
 10.0622095199999997 13.3456874899999995 13.7678450899999998
  8.6529743200000002 15.1096999000000007 15.2030374300000002
  6.6451339999999997 16.8416367700000009 16.6987928900000000
  4.5721653199999999 18.5973136399999994 18.6102485199999990
  5.0328104099999997 18.6853428599999987  1.8323128099999999
  3.2630894000000001  0.0471521900000000  3.4135284600000002
  1.7854512300000001  2.1252269500000001  5.0999198999999997
  0.1880874700000000  3.1904799100000001  6.6117432400000000
 18.7428128200000010  4.9881989999999998  8.2950653400000007
 16.8305552700000014  6.0621350899999999 10.2851040600000001
 14.8970698299999995  8.4001209400000008 11.6142817399999991
 13.3919234300000003 10.0519455200000003 13.6594174899999992
 11.6484470600000005 11.9446632600000004 15.2033035999999999
 10.0570213200000005 13.4134142900000004 17.0037539799999990
  8.2007114699999999 15.1371448100000006 18.3890045999999998
  6.5096081500000000 16.8096374699999984 20.3195740499999999
  6.5221765300000003 16.8178836199999999  3.1779023300000002
  5.1240745399999996 18.4251270500000004  5.1320298199999996
  3.4789877599999999  0.1934695600000000  6.5596822200000000
  1.8999437800000001  1.7348065399999999  8.2255190299999992
  0.2072208500000000  3.3416731999999998 10.2522351999999994
 18.5760298100000014  5.1051078700000003 12.0552404000000006
 17.0323507899999989  7.1163446700000001 13.2195902600000004
 15.5524962599999999  8.2135567799999993 15.1516088100000008
 13.2081003100000007 10.0170984099999991 16.9129406300000014
 11.7384668500000000 12.1467956699999995 18.6910249099999994
 10.1152476999999994 13.2356583400000005 20.3298153399999997
  8.0519156899999995 15.3318984900000004  1.5547481700000001
  8.2930472099999992 15.4540802900000003  5.3196897500000002
  6.6089453400000000 16.8289111499999997  6.8664347899999996
  4.8312964300000001 18.7558934800000010  8.3751978200000003
  3.3936530399999998 -0.1952184600000000 10.1316294399999993
  2.0541698300000002  1.6522994700000000 11.7559075100000001
  0.1854403000000000  3.4625682699999998 13.6112232599999992
 18.8672885500000014  5.4710255999999999 14.8473981500000001
 16.9374809999999982  6.7240722499999999 16.8891641499999992
 15.0408747799999993  8.5122883500000004 18.5300778400000006
 13.2620460199999997 10.0749362100000006 20.3318228800000007
 11.8057648799999999 12.2058340199999993  1.7684522600000001
  9.9807607699999998 13.8385943200000003  3.2144507999999998
 10.0666983600000002 13.8737509899999996  6.6372154600000002
  8.3960258000000003 15.0642011999999994  8.6276010599999999
  6.6886838300000004 17.2860211300000017 10.1449663000000001
  5.0102700799999997 18.3473378400000016 12.0944002299999998
  3.3781104000000002  0.0275755200000000 13.5992771099999992
  1.6858162000000001  1.7541756700000000 15.1339507100000006
 -0.3021045500000000  3.2578247999999999 16.7889178799999996
 18.7228184400000011  5.0205551300000000 18.4396915800000016
 17.0554054300000004  6.4997939400000000 20.1962293799999983
 15.0776181200000003  8.2777347300000006  1.5564631099999999
 13.5416903600000005  9.9219176200000003  3.6655297600000001
 11.6761141199999994 11.7221611200000009  5.1144567299999997
  3.0805384400000002  3.5126356900000002 17.0788032500000000
  1.7652186400000001  5.0428321000000000 18.8153629299999992
  0.1099485300000000  6.4418719299999996  0.2681513300000000
 18.5704098299999991  8.4678827299999995  1.6837085899999999
 16.9418211499999991  9.8768878800000000  3.5168533300000000
 15.4623124700000005 11.7913158100000004  4.8579368000000001
 13.8047152400000002 13.7621626199999998  6.4993823800000001
 11.8260207699999995 15.2556743299999997  8.5085930199999993
 10.0749160300000007 17.0584350100000002 10.1986896500000004
  8.3753256399999998 18.4504343000000013 12.2218541199999997
  6.7284636500000001 20.1718483299999995 13.7916087300000001
  5.1344573400000000  1.8402427699999999 15.2411187100000003
  5.2845289600000003  1.9317467100000001 18.4985780400000017
  3.6544290099999999  3.4280173100000000  0.2230732300000000
  1.8420895100000001  4.7483290299999998  2.0329851099999998
  0.1007648700000000  6.8138876300000000  3.5806920600000001
 18.6836329600000006  8.4927634199999993  5.5726169600000004
 16.9705610100000008  9.9173806100000004  6.9434339400000002
 15.2249574899999995 11.7796546600000003  8.3221562700000007
 13.5144227400000005 13.5892617300000005  9.8297019700000003
 11.7298595399999996 14.9910996300000008 11.6242340899999999
 10.1980137499999994 16.9363977800000001 13.5400375600000000
  8.2902414100000001 18.3597307399999998 15.3860237299999998
  6.5509794599999998 20.3724725500000012 16.6391782699999986
  6.7268986100000001  0.1665412700000000 -0.1121569300000000
  5.3892868299999996  1.7123259200000001  1.6305828700000000
  4.0391876599999996  3.3154832800000000  3.5712140699999999
  1.9337852000000000  4.6736666400000004  5.2381600600000002
  0.1521463600000000  6.7173267599999997  7.0577702499999999
 18.3835398999999988  8.0297818999999997  8.8960048199999999
 16.6597187099999999 10.2849242499999995 10.4337575200000003
 14.8043172500000004 11.6627624000000001 11.8226839899999998
 13.3100499699999997 13.6616931600000004 13.5172390700000005
 11.7022049199999998 15.3631348499999998 15.6440885200000004
 10.0103858900000002 16.8403817599999996 16.8531182900000012
  8.3277455699999994 18.7669375400000007 18.5454200200000017
  8.5080042900000006 18.4656075699999995  1.4392622500000001
  7.0412883700000002 -0.0880042000000000  3.2885621199999999
  5.5153697800000003  1.7217096500000000  5.2525043599999997
  3.6730136099999999  3.3434914800000000  6.8740867400000001
  1.9819089000000001  4.9713728899999996  8.3300133400000007
 -0.0185589000000000  6.3893297899999997 10.3968447400000006
 18.1572535200000011  8.5921456900000006 11.5260142600000002
 16.7530052699999992 10.3475903599999999 13.2588079200000006
 14.9325926700000000 11.9696790199999992 15.2814789199999996
 13.3321754800000001 13.7216830400000003 16.9346220500000015
 11.6246121700000007 15.0876442300000004 18.6091747900000009
 10.1567734200000004 16.8980924700000017 20.3799613899999983
 10.2532190100000005 17.1868188500000016  3.1122650300000001
  8.4102337499999997 18.4660580799999998  5.2501348300000004
  6.8710335899999997  0.0504351300000000  7.0802950600000001
  5.1546629299999998  1.6738155400000001  8.7823122500000004
  3.4479008400000000  3.1409069399999998 10.0568649200000007
  1.9038106699999999  5.0753568800000002 11.8323856000000003
  0.0929935500000000  6.9860357100000003 13.3214423699999998
 18.8953250699999984  8.8681149799999996 14.9548775000000003
 16.6937211900000015 10.3489684299999993 16.7408664300000005
 15.0713364199999997 11.7093470300000000 18.5730709599999990
 13.3717850100000000 13.4368824599999996 20.1116945700000009
 11.7238054700000003 15.1523161599999998  1.5443053300000000
 12.0267165400000007 15.2058467099999994  4.8269101900000004
 10.6697899199999995 16.7954761800000014  6.7352791800000000
  8.6465176899999996 18.4488936700000004  8.2103380099999992
  6.8693606100000002 -0.3184990800000000 10.2012017400000001
  5.5472729500000000  1.6148662199999999 11.8495444100000000
  3.6330754199999999  3.2346527599999999 13.4528847000000003
  1.4621392099999999  5.0553753700000001 15.2601218200000002
 -0.0070685700000000  7.0770167199999996 16.9003769300000002
 18.5548725400000016  8.6440774999999999 18.4334332299999986
 16.8540294499999987  9.9835312300000005 20.1474496000000016
 15.4991846800000008 11.5246205199999991  1.7998003400000000
 13.7004004100000003 13.5220941299999993  3.1676238300000001
  5.0323830000000003  4.9682183200000001 15.3446459500000003
  3.3320760100000002  6.6575920000000002 16.9507464600000013
  1.7522275800000000  8.4063019099999998 18.8217986500000016
  0.0170204300000000  9.9180036000000005  0.2077728200000000
 18.6729672899999990 11.4718890299999998  1.7184037800000000
 17.1955460600000016 13.3967462000000008  3.2946182899999998
 15.5810986800000002 15.0167119000000007  4.8117934699999996
 13.3415167900000000 16.9595966800000006  6.3110345499999996
 12.0214394500000008 18.4481932300000011  8.5295927799999998
  9.9493846999999995 -0.1182936300000000 10.0242769900000006
  8.3672957199999995  1.6322341600000001 12.0565033600000007
  6.7382601600000003  3.5925439799999999 13.6317330200000004
  6.7266782699999998  3.5782148700000000 16.9489617099999990
  4.8095466099999999  4.8211635299999998 18.6928502499999993
  3.4007491299999999  6.7289570699999999  0.0830955100000000
  1.8704329500000001  8.1776857199999995  1.8728462699999999
  0.0898931700000000 10.0699961899999995  3.1399989900000000
 18.5380877899999987 11.5386502600000007  5.0628937000000001
 17.1180477099999990 13.4218391700000002  6.7026047799999997
 15.0364030700000004 15.3197544000000008  7.9023022000000003
 13.7210614900000003 16.8979046199999985 10.2030512499999997
 11.8797957099999998 18.4874284300000014 11.9078343300000000
 10.3340322800000006 20.1186938399999988 13.7545311100000003
  8.3686839200000005  1.7045626100000000 15.1341807900000003
  8.4909341400000002  1.5276691600000001 18.2808529100000001
  6.9375608299999998  3.2950552300000000 -0.1112655400000000
  5.5097717900000003  5.0720254999999996  1.7475678699999999
  3.5525502900000001  6.5596403499999996  3.8864858700000000
  1.4838132399999999  8.2365320200000003  5.2598039600000002
 -0.0761312800000000 10.0167982400000000  6.8290997999999998
 18.5290401699999983 11.6277701699999998  8.3408744400000003
 16.6242832500000013 13.4709684099999993  9.8227972399999999
 15.0650982199999994 14.9561309100000006 11.4120698199999993
 13.2198894199999994 16.5617204499999993 13.4056895399999991
 12.0028158400000002 18.5783370000000012 15.3529069200000006
 10.0839041999999992  0.0631578200000000 16.9572551800000006
 10.3408269500000003 -0.1448444600000000 -0.0336947200000000
  8.4861147799999994  1.4386778800000000  1.4960886300000000
  7.2170839899999999  3.3295081000000000  3.4790859900000002
  5.5561202200000004  4.8057562300000001  5.4844376099999996
  3.5258098200000001  6.9346888699999996  6.8174028800000004
  1.9051166799999999  8.5486684000000004  8.6007437699999993
 -0.2868845700000000  9.9731763000000004 10.2909300600000009
 18.5829224599999989 11.8129495900000006 11.7573931799999993
 16.7746418000000013 13.4425577199999999 13.0759643600000004
 15.1106382400000001 14.9773719700000001 15.1875710399999999
 13.6030477899999998 16.6216214499999992 16.9129140000000007
 11.8062592500000001 18.7399177899999998 18.3865425599999988
 11.8390631299999995 18.8083742299999983  1.4018041299999999
  9.8984402300000003  0.1208346000000000  3.3177937399999999
  8.3901369700000004  1.5759761100000000  5.1725473700000002
  7.2274841099999998  3.2988335900000001  7.3989981499999997
  5.1302831800000002  5.0927660599999998  8.6865321200000007
  3.3347887500000000  6.8006224800000004 10.2513451199999999
  1.8438150099999999  8.6410557899999993 11.6931182600000003
  0.0858058500000000 10.2196154099999994 13.2086862299999996
 18.6702126499999999 11.7733661600000001 15.0359121400000006
 17.0776528399999989 13.3328498399999997 16.6896488800000000
 14.9331470300000007 15.0653612300000006 18.6987326299999985
 13.1150096200000004 16.6692834499999982 -0.2709817200000000
 13.4309640100000003 16.9263053899999996  3.0267509100000001
 12.1284640499999998 18.6496625999999992  4.8350464500000001
 10.2036517599999996 -0.1382246200000000  6.7545436700000003
  8.6507346500000004  1.5249826500000001  8.6266590399999998
  7.1868005200000002  3.3757422699999999 10.2505081600000008
  5.1110993899999997  4.6987079300000003 11.5239209799999998
  3.4984426200000001  6.5444381500000004 13.5797039799999997
  1.8571207500000000  8.4479592399999994 15.0755695299999992
  0.4607557400000000  9.7475217399999998 16.6420481199999983
 18.9587438500000012 11.4960387300000004 18.4454629399999988
 16.9080740799999987 13.5226400299999998 -0.2443141600000000
 15.2724664699999995 15.0979691299999992  1.8304653399999999
  6.6384485499999997  6.6449466800000003 13.6409392500000006
  4.8742382800000001  8.6908993500000005 14.9357045399999997
  3.5902895699999999 10.1483898499999992 17.2267244800000014
  1.4341255399999999 11.6132589700000004 18.9608470999999987
 -0.2232165600000000 13.5279010999999993  0.1089803300000000
 18.6190987499999991 15.2244112499999993  1.6375122000000000
 16.8280510399999983 16.8473101300000003  3.1305006500000001
 14.8819361800000003 18.5117845000000010  4.8614540399999999
 13.5159030700000002  0.2436446000000000  6.3548252900000000
 11.7248098200000008  1.4224950300000001  8.1788252400000001
 10.4262667800000006  3.2117056000000002 10.3273392099999999
  8.6675022100000003  5.2317483100000004 12.2221199899999995
  8.9094399400000004  5.1430731600000001 15.0958386900000008
  6.8248947099999997  6.5356454499999996 16.8119142699999990
  5.6468153200000000  8.4110944700000001 18.3577704500000003
  3.5302072099999999  9.8897381699999993  0.2372977300000000
  1.8569149599999999 11.6785668299999994  1.6192672400000001
 -0.2120275600000000 13.0568879300000003  3.2623693299999998
 18.6209209899999983 14.8707933200000006  4.8398653400000002
 16.8264992400000004 17.1060911299999994  6.2587156500000001
 15.1215262199999998 18.6919929600000003  8.1583323199999995
 13.2242123500000002 -0.1454737000000000 10.1700792399999997
 11.7497097499999992  1.4108020900000000 11.7284313099999995
 10.0836941899999992  3.1231227300000000 13.4578445299999991
 10.0277448499999995  3.4628919699999998 16.8059813399999989
  8.6579526999999992  5.3961583800000001 18.7526966199999983
  6.7698440399999997  6.8734857800000002  0.1994224600000000
  5.0886967500000004  8.2068633400000000  1.7573953200000001
  3.5173172500000001  9.8720922699999996  3.3516332599999998
  1.6864340700000000 11.8207553599999997  5.1321535699999998
 -0.1653957200000000 13.2791831299999998  6.9185605299999997
 18.3295790499999995 15.2849902400000008  8.7538371200000000
 16.4229956399999999 17.0441968199999998  9.9607404099999997
 14.7973351399999995 18.9017826199999988 11.9469493199999999
 13.3535864400000008  0.0285332200000000 13.7664530999999997
 12.0096834500000007  1.8691350900000001 15.3797406300000006
 11.9494997099999996  1.9623981600000000 18.6059787000000014
  9.7317873699999993  3.2769249100000000 -0.0357370300000000
  8.4145819500000005  5.1083724799999999  1.5688678199999999
  6.9264396499999998  6.5925131800000001  3.4969320499999998
  5.2786603000000003  8.5026252699999993  5.2326489299999999
  3.6946329599999999 10.1882093200000003  6.6830157500000000
  1.8084610800000001 11.6141874600000001  8.5655272700000005
  0.0159999900000000 13.4340961399999994  9.9504108500000008
 18.4560700100000012 15.3029751500000000 11.5423271399999994
 16.6044743799999992 16.5671171599999987 13.1936938200000000
 15.0081698299999999 18.0273918299999991 15.1767684200000001
 13.5932061100000006  0.1010259900000000 16.7478616199999983
 13.6913623100000006  0.3155608800000000 -0.0449647500000000
 11.6337011700000001  1.6268845400000000  1.5947565200000000
  9.8347504200000007  3.3367793500000000  3.3978507100000002
  8.2776417999999996  5.0167271099999997  5.6657273000000004
  6.7195908099999997  6.6592358100000002  6.8495132300000003
  5.2572897599999999  8.3558903999999998  8.3031792000000006
  3.7936601900000002 10.3352481300000001 10.1539678599999998
  1.7607968899999999 12.0854306699999992 11.4528146799999995
  0.2129802700000000 13.4363575900000001 13.2846140100000003
 18.2281965200000009 15.0668582700000009 14.8557545199999996
 16.7174263299999986 16.3308920899999990 17.2334457999999984
 15.0789848499999994 18.4828279900000005 18.4751028499999990
 15.2594065200000006 18.0956690999999985  1.2372802500000000
 13.4325904800000000  0.1074553500000000  2.9954990100000001
 11.6844152700000006  1.6929910500000001  5.1217596399999996
 10.2247184200000003  3.5238281300000001  6.7942946199999996
  8.6743969100000005  5.2475700099999996  8.8015846000000000
  6.5739204600000001  6.6954164900000004 10.1021232100000002
  5.0936863900000002  8.4109440499999995 11.9193563600000001
  3.2365898400000002 10.2920203600000004 13.3618468499999992
  1.8817057399999999 11.5603885200000001 15.0520853100000007
 -0.0070362200000000 13.5367919400000005 16.6481006499999999
 18.6497685000000004 15.1387910399999992 18.5210890399999997
 16.8273989200000003 16.8419125299999983 -0.0469609700000000
  8.3762440500000004  8.4243310299999994 11.7245960999999994
  6.6727090899999997 10.3776578199999996 13.6060949200000003
  4.5386739000000000 11.8531477100000000 15.1323979600000005
  3.1211390099999998 13.5150115799999995 17.1388132499999983
  1.3051214300000000 15.0654481300000000 18.8431875200000007
 -0.2905657500000000 16.8380446200000016 -0.1443538000000000
 18.3013603899999993 18.6574784700000009  1.7998188399999999
 16.5912861300000003 20.1811287499999992  3.2211981500000002
 15.0932673800000003  1.8263443600000000  5.3982759700000003
 13.3050820699999992  3.2792560100000001  7.0567939900000001
 11.7287296800000007  5.2137212000000002  8.3397315200000008
 10.4656587999999999  6.9953753799999996 10.1137085300000003
 10.2417948600000006  7.1672651099999998 13.5075910500000003
  8.3500213900000002  8.3442993899999998 15.1935935999999998
  6.5335804000000000 10.4303804099999997 16.5788520900000016
  5.0935926399999998 11.8340389300000002 18.6684882999999999
  3.2693394400000000 13.6064247199999997  0.0168951400000000
  1.3616271300000000 15.1025320700000005  1.6877971500000000
 -0.1446290500000000 16.9007879999999986  3.3147053400000002
 18.5488164799999993 18.5934323699999986  4.9340355400000000
 16.6719918999999983 20.1827134400000006  6.6364449199999997
 15.1768795099999991  1.6088185399999999  8.8194342500000005
 13.3529520900000005  3.1645006400000000 10.2396661299999998
 11.5200895600000006  5.0404087899999999 11.9096454400000002
 11.7925861100000002  5.2973338999999999 15.0932606000000007
 10.2002119100000002  6.7897367800000001 16.5305467999999998
  8.7565610599999992  8.4618358199999992 18.8022751300000017
  6.7400596699999999 10.3203476599999995  0.1565364900000000
  4.8427847799999997 11.8153095500000003  1.9117534400000000
  3.0472488700000002 13.7434940399999999  3.5258611399999999
  1.3551122900000001 15.5902657799999993  5.0261618099999996
  0.0123572500000000 16.8855843300000004  6.8632965900000000
 18.3930620800000000 18.6341379200000006  8.5874127199999997
 17.0799145400000008 -0.1322964500000000 10.3534785800000009
 15.0430905399999997  1.7660259500000000 12.0436676100000000
 13.3425448499999995  3.1648679600000000 13.6823992899999993
 13.6316994699999992  3.4581707300000000 16.8118009700000002
 11.5716913100000003  4.9285487699999999 18.3007524699999991
 10.3154488200000003  6.5768131399999996 -0.0080816300000000
  8.7327103499999996  8.3912423300000007  1.6164445999999999
  6.8317528400000000  9.8674411899999992  3.2057727100000002
  5.2740542499999998 11.9015409499999993  4.6931787199999997
  3.3312150500000000 13.4935827800000006  6.5550566699999999
  1.8705470799999999 14.7389904299999994  8.4610489900000001
  0.1875324000000000 16.8813720499999995  9.8959147200000004
 18.3206009499999993 18.2919834200000011 11.5231230799999995
 17.0270127400000000 20.1445485099999999 13.7866568100000002
 15.1520622700000001  1.6354208800000001 15.0506821300000002
 15.5208879900000003  1.9508202800000001 18.2681110400000009
 13.5906422500000001  3.3250271499999999 -0.0764726100000000
 11.7085017400000009  5.0351637800000004  1.5839778600000001
 10.0095652600000005  6.5436820500000001  3.5138968099999999
  8.3898302200000003  8.5332125500000000  5.2216513200000003
  6.7553896299999998 10.2946193499999996  6.6759162500000002
  5.0786055299999999 11.9053582099999993  7.9563771200000000
  3.6526732100000001 13.2736047799999994 10.0764626199999991
  1.9621241899999999 14.9746260899999992 11.3755636599999992
 -0.1706204600000000 16.3956383499999987 13.6315245600000008
 18.5313745800000014 18.5313748800000013 15.0562298099999996
 16.7637067600000016 19.9193585599999992 16.3309410100000001
 16.9120489700000007  0.1874852700000000 -0.1427946500000000
 15.3358282100000007  1.8931174700000000  1.5206835599999999
 13.3428488299999994  3.2998179699999999  3.3339747100000001
 11.7597088400000001  4.9762296199999998  4.8720969500000004
  9.9762364100000003  7.1219962099999998  6.6397265599999997
  8.3583773000000008  8.3979150400000009  8.6422070899999994
  6.4925494400000003 10.3490982999999996 10.0320460300000001
  4.9041163699999997 12.0833329700000007 12.1127061299999994
  3.3532595800000000 13.3341746000000008 13.6460310000000007
  1.5878684199999999 15.0120671199999993 15.1431910700000003
 -0.2289627900000000 16.8093929899999992 16.7353172699999995
 18.4478258400000001 18.3754701800000007 18.5530645400000012
