Li                                      
   1.00000000000000     
   -10.6364300000000007   18.4228371711498369    0.0000000000000014
   -18.2338799999999992  -10.5273355263713349    0.0000000000000078
    -0.0000000000000001    0.0000000000000000   22.3096999999999994
   Li
   504
Direct
  0.0067913870584988  0.0100569586368522  0.9955453811570720
  0.9284328810758851  0.0433687613792557  0.6696268954759574
  0.8544045434057566  0.0770424063546926  0.3497384249900293
  0.7847415905193387  0.1273557084039396  0.0110636772345671
  0.7188311386692305  0.1680902491254983  0.6811899944867008
  0.6428367622472848  0.2077351456152030  0.3170955431942133
  0.5631519064681640  0.2554210397065688  0.9972771928802260
  0.5036719114931287  0.2884745770202031  0.6731458827326264
  0.4375339300668557  0.3315601770012222  0.3319323935328597
  0.3616660650608594  0.3690929596775163  0.9959038449642961
  0.2785354769434321  0.4173750154643230  0.6611229438316073
  0.2138285023674129  0.4543486088843522  0.3416029691120883
  0.0813760864729076  0.0423247297095841  0.6754932038530299
  0.9939758904564329  0.0785528768135180  0.3176190957296612
  0.9280929222473731  0.1242904373079341  0.9834645763950220
  0.8527387129818962  0.1578104929437956  0.6788030784815575
  0.7882199257779803  0.2033877482388462  0.3365802435711842
  0.7104308618673727  0.2533344646289208  0.9978603073999182
  0.6467435779765722  0.2820148594211815  0.6934042940962897
  0.5692933503449069  0.3326419450819529  0.3268612563145155
  0.4981918243763275  0.3766566887271878  0.9971967498442353
  0.4252908109861266  0.4241115845504524  0.6826948972868294
  0.3564269896331069  0.4588247473744858  0.3611431583571303
  0.2835031810459867  0.4968249961076339  0.9928908174471189
  0.1471393377507226  0.0827314868677504  0.3350300967740480
  0.0791850797426648  0.1327371087378424  0.9974147447074557
  0.0021769684401534  0.1688989555472631  0.6842348919976544
  0.9280557617503291  0.2064711862777386  0.3416935723026313
  0.8529647424251792  0.2508868636146886  0.9893779602594392
  0.7780973357153442  0.2897498955503295  0.6989144269084733
  0.7067437867105113  0.3278292636958611  0.3456169455438669
  0.6406748472025541  0.3753957789000140  0.0047945543866561
  0.5701908579039738  0.4152748034573222  0.6840752910169101
  0.4969903398659810  0.4526629625367349  0.3316354339143928
  0.4323907884035734  0.5062321862653789  0.9903324495622954
  0.3620408220316449  0.5415872885703976  0.6668914203238927
  0.2087811163987325  0.1242476691797378  0.9902765971752174
  0.1468049063514556  0.1761615064888105  0.6571535583176811
  0.0690702555518783  0.2171839812338519  0.3180656750202857
  0.9913951875484059  0.2563726039276588  0.9837940555005247
  0.9327858283869119  0.2880002869038663  0.6663144775590908
  0.8511088444670207  0.3357410180085409  0.3143398279672098
  0.7808420540177110  0.3719093665958297  0.9963412789055894
  0.7053209646318521  0.4202696212852572  0.6777016611608389
  0.6482230255613004  0.4527841739788272  0.3202025782507150
  0.5725407866534127  0.4981045833698587  0.9812961353133360
  0.5012268125908790  0.5454579888511901  0.6733194233898274
  0.4334363695836032  0.5834203085393739  0.3210919259335654
  0.2813129326162525  0.1789830795273701  0.6705436402103118
  0.2186406237243688  0.2053835212581987  0.3360369973598907
  0.1443252029034312  0.2526062122862456  0.0197993263020138
  0.0669912615650716  0.2948560797675199  0.6529417190728708
  0.9925592828786378  0.3409256969340149  0.3134667171678700
  0.9247248658040874  0.3790252330066579  0.0065848644311686
  0.8519398875672906  0.4169567092512736  0.6660571105841839
  0.7788149408158986  0.4691927400562861  0.3288307323720190
  0.7142715022130872  0.5013644542859552  0.9975715321138310
  0.6484469420579941  0.5495218873923804  0.6436669735585880
  0.5730991680925612  0.5772422158929018  0.3191483888174176
  0.5056554668994053  0.6245626165252318  0.9929943656795004
  0.3469785626616826  0.2209173969966045  0.3265840795707717
  0.2862865766962130  0.2521808752186061  0.9924724245507548
  0.2165638678740720  0.2949176899720811  0.6593351044612845
  0.1449222718333587  0.3411842652361159  0.3317216349838858
  0.0690530037670740  0.3744272759907261  0.0021368440633438
  0.9937398458628124  0.4220446208524677  0.6718369749481141
  0.9321795961499575  0.4635720284504856  0.3404721959506389
  0.8604646631072939  0.5133628083208635  0.0100940048499112
  0.7807650348058104  0.5525789788481887  0.6741753439087006
  0.7085346913446529  0.5838263465011835  0.3253273011291071
  0.6415931763247258  0.6230075892538736  0.0362233862400672
  0.5708888939618006  0.6657437562163295  0.6519831754797210
  0.4329688127259459  0.2586453229514163  0.9988861396612236
  0.3702697102687083  0.2908398078525565  0.6742618681560018
  0.2861057681938064  0.3307593865930016  0.3345071049812418
  0.2141665501798826  0.3651226173842446  0.9983732977135489
  0.1437832723337991  0.4180269958259331  0.6783724572719478
  0.0682943467731860  0.4706709269311489  0.3463149190710766
  0.9977544093401889  0.5047611275198562  0.0010907000094136
  0.9305488656839316  0.5444202769006594  0.6673443502153802
  0.8548294523441555  0.5827721197135816  0.3380371672411542
  0.7730845905573673  0.6222755040867796  0.9984705513745169
  0.7143492143636436  0.6635152828616881  0.6846331559814800
  0.6366889096164172  0.7036013454672627  0.3263158052327029
  0.1397198523342951  0.4966236495488587  0.9758536641012654
  0.0729669829608781  0.5469348100034352  0.6738249532714491
  0.0026225358953482  0.5837235174590703  0.3626579062022373
  0.9248578077687952  0.6369170976069682  0.9884019605821663
  0.8522070793823460  0.6653003499334886  0.6654808693079701
  0.7803233510339638  0.7142707761245433  0.3663658198003574
  0.7231879301472901  0.7466950826781513  0.0199802390888237
  0.2094521747524922  0.5341385725307717  0.6717889111014514
  0.1381308535989518  0.5779509942400907  0.3572036553606708
  0.0762916201845272  0.6287454997137587  0.9879015213113576
  0.0073840490884649  0.6700389274665568  0.6711491687472275
  0.9265646661583204  0.7152029309139749  0.3566954293423947
  0.8625522780976098  0.7556195972921955  0.0021761005302636
  0.7844753139673557  0.7990093592947929  0.6549119943343058
  0.2897244507432220  0.5868869511251162  0.3644425890980187
  0.2134634659924117  0.6289165068769975  0.9930626978399530
  0.1392137770998474  0.6688318045770743  0.6610800154193015
  0.0686997099774445  0.7102435380623646  0.3484665185995297
  0.9993825183820206  0.7467118890771403  0.9891497640039972
  0.9302690912258953  0.7945696203996135  0.6531035370264959
  0.8530474875541429  0.8347186370621316  0.3323311434039908
  0.3595654733309388  0.6315635044487848  0.0117127083734871
  0.2876950362558617  0.6714117014874006  0.6679799948004685
  0.2163008931752088  0.7098633226062887  0.3364594732336172
  0.1403746118434839  0.7480208555364811  0.0182895816617901
  0.0730834017591064  0.7762126570443257  0.6553197586699966
  0.0052687490789367  0.8363010806934312  0.3291367620362422
  0.9289177301349909  0.8741085467086691  0.0015486716540352
  0.4243298260037989  0.6627668866307346  0.6683601626198481
  0.3581542955572843  0.7134074572227931  0.3218681739333107
  0.2833116955197283  0.7509436709259418  0.0012779087123533
  0.2174814116180670  0.7846520169609121  0.6721690605431689
  0.1450659913826442  0.8440445197225159  0.3250968793843043
  0.0690079942342479  0.8800672599516375  0.0048870926099411
  0.9849315438880240  0.9216964029950319  0.6619429149652376
  0.9201699530042617  0.9535189990702406  0.3299074348825854
  0.8499535991343805  0.9964424093807267  0.0026572706042671
  0.7950531601465798  0.0444839285890950  0.6602892876192854
  0.7114388710581210  0.0948506159254805  0.3271821844309883
  0.6512400404073944  0.1231223029333108  0.0172158312303594
  0.5804785562373596  0.1743582940153274  0.6627521544440285
  0.4945181942680108  0.2070457890992969  0.3056227403326801
  0.0713364285438089  0.9530116563969813  0.3245754568640535
  0.1469038376968257  0.0045998089055246  0.9978912298238001
  0.2159084642020730  0.0386198529389858  0.6681960098073958
  0.2725223135593069  0.0859099888991466  0.3389932285059842
  0.3530618075182090  0.1303160308535070  0.9900046369964599
  0.4207509458309815  0.1799403970649678  0.6621941684558763
  0.8617556240252071  0.9226929747234038  0.6637223481265977
  0.7944572578045452  0.9518329576244895  0.3179094792847934
  0.7164291372943836  0.0013950416043045  0.0025828401995511
  0.6400519050800568  0.0385277354709643  0.6662653137424499
  0.5698574861813483  0.0719372244555814  0.3178944199160014
  0.4951484061141116  0.1216168116032179  0.0164064052855935
  0.1475633324110106  0.9196643700761200  0.6557862759248181
  0.2163788058106064  0.9597919712377134  0.3329888434178869
  0.2892239338188745  0.9946247432587541  0.0069328915225242
  0.3545401373039070  0.0441101700448101  0.6619986046428252
  0.4270324423429059  0.0857224907310297  0.3166881405845885
  0.7900198141961852  0.8806361881118718  0.0036769889330657
  0.7189080184085057  0.9244760756218184  0.6612895108405752
  0.6378090592720582  0.9595069369594924  0.3345783488796314
  0.5676114754820603  0.9952558821182507  0.9954338753994918
  0.5000358437451524  0.0431359804119467  0.6711847084452032
  0.2192619900901391  0.8884568282091081  0.9823711780077744
  0.2838146460334414  0.9185123174272576  0.6639119575789891
  0.3517118854287276  0.9553783254287822  0.3203830728337920
  0.4374037318028243  0.0055676024488704  0.9994267018382104
  0.7208223305797858  0.8316621327085230  0.3316424555238271
  0.6498559086022837  0.8708078740271077  0.9820108952608066
  0.5679145198095554  0.9131308944701857  0.6649453793641342
  0.4983422823297516  0.9557812675063886  0.3237188469589469
  0.2789854271836631  0.8386053200273835  0.3488693778939194
  0.3475991459627252  0.8750423451238944  0.9959128804959292
  0.4347567629547413  0.9209365293511453  0.6630988677570713
  0.6470296375657369  0.7935930565577181  0.6643456832678183
  0.5756652624613636  0.8337464046268863  0.3244870616816868
  0.5066191616900824  0.8761918522017709  0.9915383989923683
  0.3580809155620415  0.7925986979890425  0.6581178420149101
  0.4325339006016549  0.8309577299852506  0.3498926700045288
  0.5705928694404108  0.7547679016039339  0.0078973863386764
  0.4998153480018317  0.7852894221116316  0.6637782650595909
  0.4326895017502039  0.7469027767485059  0.0043829482243112
  0.4997052613507478  0.7023839883234402  0.3402870114793117
  0.0032854011749919  0.0090562118638644  0.7723461158150968
  0.9365946702972892  0.0354149561700439  0.4530060242854006
  0.8731851229282341  0.0640821115929455  0.0902963567416890
  0.7914408085660085  0.1279789024905469  0.7818485210468964
  0.7155410563622553  0.1638224103633945  0.4382309941415627
  0.6531500274313942  0.2227729569201884  0.1204979896636900
  0.5707192788044537  0.2506853939669398  0.7923982653285364
  0.5019423122177002  0.2903454411270872  0.4470620900325883
  0.4326320893567654  0.3303476866033463  0.1102040170867369
  0.3658789600073149  0.3989210312566129  0.7805479343066040
  0.2891574916894371  0.4209284025489737  0.4520849500441528
  0.2242385750372407  0.4719610962294709  0.1185621711632123
  0.0796397939666988  0.0564571866360239  0.4580801687158527
  0.0082548529683848  0.0857338297850774  0.1101123529227195
  0.9317744552957947  0.1309805664213073  0.7765341304454978
  0.8501593257179820  0.1742005175614523  0.4551538743237273
  0.7930175102076831  0.1952957573430183  0.1115175408006408
  0.7227107645307527  0.2553787917229968  0.8011994652550243
  0.6475176844529500  0.2945235542602092  0.4418162158164378
  0.5753106375160826  0.3345951621818699  0.1083282280801612
  0.5015451117773964  0.3741215921535925  0.7868973612374859
  0.4298000563927999  0.4209680411509709  0.4483791942518280
  0.3616418666400705  0.4647113812536645  0.0944047616059365
  0.2773364949587815  0.4921847047872205  0.7732716629986029
  0.1456273600071043  0.0896600805313881  0.1255717481633525
  0.0927373965636846  0.1181459575837991  0.7636460104797465
  0.0044354335565941  0.1683902955079049  0.4438381506698903
  0.9253314026732653  0.1879364912275392  0.0937119284436818
  0.8542281481847951  0.2385865601727559  0.7957977807859393
  0.7812834759499410  0.2887050549801700  0.4346440046257882
  0.7175839733015650  0.3132307846084359  0.1103686405464899
  0.6529631500766016  0.3835040502422302  0.7943546264629262
  0.5724212920042220  0.4154363803582939  0.4421677714178145
  0.4871394231104702  0.4523077581866843  0.1064849845582856
  0.4379389826819420  0.5098542091114098  0.7989579519222545
  0.3740792926460657  0.5430843572141839  0.4612789504117032
  0.2235060160948734  0.1377220396990637  0.7827999336611455
  0.1562065689333565  0.1624974258907130  0.4357835560316801
  0.0699597294584677  0.2169968467926751  0.1137377190190847
  0.0175971144848859  0.2447771079758994  0.7704105649112236
  0.9016713894444095  0.2886637793586360  0.4472765640057901
  0.8543724620829281  0.3290639662610104  0.1141397082883202
  0.7990652701932603  0.3832476016162403  0.7869134721668161
  0.7055916577507588  0.4182001978597043  0.4391860172929256
  0.6439942227401332  0.4609437195714889  0.1070105644629891
  0.5691857342394187  0.4951152804978349  0.7779892208321968
  0.5093062290381596  0.5439878745649125  0.4480577560433332
  0.4170433834395268  0.5856271580750914  0.1118455774842317
  0.2938541029320518  0.1553639063079544  0.4465143955319917
  0.2149162243048508  0.2013376661641502  0.1043542557721509
  0.1525901892632149  0.2434245165162352  0.7674280873342099
  0.0576898783201685  0.2955859673058612  0.4532423371896499
  0.9966114836335436  0.3417537834589055  0.1074838693483073
  0.9325667932263002  0.3649146047645360  0.7794648614728104
  0.8527670556392764  0.4009955130990619  0.4508747087589668
  0.7868632624459906  0.4449531344629634  0.0989311747804749
  0.7248044634371809  0.4812816175692092  0.7845025446330496
  0.6532060139100864  0.5444712709234878  0.4272441471646857
  0.5505907145648052  0.5781433570848051  0.1104115348928971
  0.5008254337804274  0.6251823304406301  0.7814844749144996
  0.3383067016784906  0.1935242591848692  0.1128599156420762
  0.3056287716091433  0.2524993876669939  0.7833914633545049
  0.2073540922562884  0.2798416931833714  0.4396919837559423
  0.1387987316410957  0.3323893442761872  0.1276809334056495
  0.0852424014864965  0.3971158022075940  0.7777725984661359
  0.9941075947668878  0.4201021557558562  0.4273443726271537
  0.9472367890969551  0.4618776266677997  0.1190568138522679
  0.8678781919051133  0.4999580217306843  0.7798765832799148
  0.7957668611041839  0.5600313995455508  0.4535710341241668
  0.7075822007981927  0.5756601920142117  0.1215816443071844
  0.6324312806404819  0.6176254370247634  0.7793041242150238
  0.5704160790992461  0.6624707826193017  0.4426275064209761
  0.4274091144632450  0.2606572255959634  0.7720746088024484
  0.3592084188064888  0.2910290968216387  0.4425008910922159
  0.2734529485092807  0.3241127069437439  0.1002952975611535
  0.2194477541342437  0.3738154580645414  0.7541365016114057
  0.1317932930562407  0.4027692095120585  0.4553580030211037
  0.0796337292447902  0.4519369592894549  0.1115091968964137
  0.9922071504550374  0.4988546123307529  0.7901914463215576
  0.9219763494230477  0.5263321765694542  0.4548967839101365
  0.8511314780570771  0.5784165220375144  0.1000271469360854
  0.7855144243976824  0.6280988270682784  0.7996540146214457
  0.7224778382390440  0.6757621903302606  0.4536745285682926
  0.6475015529247727  0.7053840431890706  0.1213264019686520
  0.1516499228039621  0.5071039050158390  0.7677998834587640
  0.0642675290824144  0.5348149804453044  0.4551630084671672
  0.9992259852110763  0.5822363871058371  0.1156975866999588
  0.9282684768116383  0.6516394193219668  0.7613742484210917
  0.8571494540116689  0.6739107777865527  0.4722076693097605
  0.7858442838720663  0.7030582083294732  0.1250189334684038
  0.7125673794733416  0.7509314456357288  0.7868881365504663
  0.2104632504093047  0.5279869895737477  0.4629694271998304
  0.1449053308111345  0.5724815865959698  0.1014605772377024
  0.0780831882915578  0.6133452607760930  0.7936237197272931
  0.9982515040871149  0.6506172391384979  0.4548872230464767
  0.9334076706456926  0.7005479365726899  0.1150970053384839
  0.8733809200374552  0.7677124945807492  0.7846834690739897
  0.7805648089763011  0.8006646056056184  0.4463627722470491
  0.2902245636190131  0.5862035937927530  0.1055305781789997
  0.2182053860420723  0.6313865631308602  0.7804907071811797
  0.1536561666084566  0.6618041963532022  0.4600828774031029
  0.0769007211262718  0.6959779181825709  0.1163121005661196
  0.0092758723765414  0.7466031169876075  0.7664567753040146
  0.9108269314362900  0.7889429683459142  0.4458539236296346
  0.8495008207311372  0.8369649380905599  0.1156624459315907
  0.3486398799972434  0.6248968168706241  0.7974853373196424
  0.2906914232861766  0.6537327960157810  0.4533749019484787
  0.2051043220897100  0.7137788921170554  0.1065041349726812
  0.1460054159968251  0.7482340299008712  0.7670109929761466
  0.0726792371228839  0.7794276178130488  0.4411557219505440
  0.0117699884803528  0.8299647579905098  0.0966328287695504
  0.9410232674288750  0.8918079771075327  0.7650416097034025
  0.4354007149625545  0.6689243986113098  0.4403139463999963
  0.3712262776637871  0.7152439521083025  0.1097462247363268
  0.2741264292399634  0.7661861427320531  0.7719281989448561
  0.2072262639760467  0.7977732226524097  0.4382914073250674
  0.1472316974202741  0.8373548431056932  0.1109677942778262
  0.0830919204826017  0.8677228524165557  0.7597405366275680
  0.0051603591735798  0.9261546517184129  0.4375256942047656
  0.9341639809545867  0.9540309708112176  0.1098607036401233
  0.8759156979982947  0.0128892167953296  0.7798281057118643
  0.7930737680788198  0.0449432853015068  0.4455834802798790
  0.7157810930721524  0.0858046849170080  0.0999513341730278
  0.6540350185507009  0.1204529786110697  0.7749933073954409
  0.5780446797661938  0.1751660083753137  0.4461891791462875
  0.4966762591501919  0.1987260065815448  0.1301475793040723
  0.0704782734284777  0.9530761274154003  0.0970348157976133
  0.1461269318541980  0.9899171069579324  0.7701871683617441
  0.2057598218412764  0.0283017524615090  0.4374260169343387
  0.2709455997455379  0.0713431992805980  0.1213012434053340
  0.3604317134309341  0.1237641884399707  0.7863758773089700
  0.4324513482847152  0.1736211626688373  0.4386738799714891
  0.8585828427952151  0.9154417076018717  0.4357906901482309
  0.7757341290946300  0.9695251645439100  0.1057384653312212
  0.7203134945606422  0.9963633810823751  0.7719328632836806
  0.6341204177733815  0.0441958691612925  0.4362878501279681
  0.5890161985387223  0.0721943577218198  0.1103248815537654
  0.5061032849992699  0.1285402709864982  0.7666115299623044
  0.1447026240199492  0.9112748070512424  0.4537123645768446
  0.2009127440437197  0.9624736414778994  0.0915905803305250
  0.2895317885919440  0.0018036735937201  0.7659068459011138
  0.3460241838113802  0.0318061455150058  0.4251350641200915
  0.4279890383118072  0.0920426751316299  0.1198518093026806
  0.7967326310735814  0.8723190961479403  0.7776329565166691
  0.7104900243215013  0.9145461931638295  0.4456605557223980
  0.6298036653682146  0.9623866686392333  0.1177261612661766
  0.5570463112534654  0.9888618200621195  0.7733765541446118
  0.4871035378093040  0.0553686164074207  0.4381059691524314
  0.2177729162751305  0.8876110696211512  0.7724956946978239
  0.2962822099877087  0.9123110968823127  0.4264765747634414
  0.3414642697526347  0.9724505907286343  0.1162741403963281
  0.4332568904296465  0.9967354815830447  0.7776853494220006
  0.7216191364224684  0.8296701447405539  0.1206974136810430
  0.6499881905627305  0.8815280604157110  0.7814740462668723
  0.5620728673169566  0.9063102747130003  0.4384603360869903
  0.4968364770161600  0.9699776274040914  0.1119309981756800
  0.2858059556512202  0.8284469229331677  0.0967183373151599
  0.3637593436382005  0.8657847690423708  0.7791744779176781
  0.4282308392266785  0.9005028707397500  0.4355447957614871
  0.6337614754357972  0.7972085924570322  0.4478760642231876
  0.5724627164799827  0.8230813600040605  0.1139538716343083
  0.4996246673223581  0.8730142608020017  0.7683272953020435
  0.3506223783426279  0.7873785160550142  0.4407992411372632
  0.4208977520157262  0.8295030028456551  0.1073853104255065
  0.5731980453003018  0.7682139212842571  0.7804326678529989
  0.5058356016802819  0.7854450923895442  0.4428209926623836
  0.4285410842902735  0.7414677443759885  0.7798803004970907
  0.5040628859023641  0.7273141310846327  0.1051825470535235
  0.0036573611262369  0.0009807010025327  0.2150604476976383
  0.9342039136308742  0.0589792653532442  0.8926069445129272
  0.8454970758381464  0.0782757502869842  0.5632939434416429
  0.7974126949084450  0.1246631802718312  0.2106447540755809
  0.7112394763043994  0.1644321601903513  0.8901642514242667
  0.6362401597297520  0.1966411870564926  0.5647253078257464
  0.5677510580293941  0.2433336801516930  0.2067555587928140
  0.5091766730008089  0.2934141702146746  0.8856178451525594
  0.4322048274610708  0.3340646673691055  0.5750866233073495
  0.3605431628362297  0.3620262822018034  0.2186190423896335
  0.2913919385701575  0.4106776255429025  0.8745410955772570
  0.1979089453498446  0.4275810050528221  0.5545544426863671
  0.0777838648812121  0.0283783970313252  0.8949506282020820
  0.9834873112132954  0.0791891472572814  0.5721904875457753
  0.9231331242724892  0.1267092534882508  0.2142913060238385
  0.8659713010106529  0.1732302403433224  0.8778326167541479
  0.7816646502877305  0.2085442787678815  0.5591185914646957
  0.7249095986519052  0.2322715471205754  0.2022220845641129
  0.6415753574479126  0.2920616594372873  0.8952694227174760
  0.5763602560713394  0.3419487191708583  0.5650418333729306
  0.4981262924994354  0.3658646233643239  0.2236691125384951
  0.4445694703303147  0.4261274993964221  0.9008132238443380
  0.3584313196370204  0.4476702226225697  0.5553140028776724
  0.2912719220773496  0.5033119396342869  0.2442982451579354
  0.1468021389556853  0.0776461480029269  0.5516964289076043
  0.0681784994110899  0.1356753463063782  0.2233445779190220
  0.0047549374031064  0.1575595880392697  0.8777517066567455
  0.9287821487363601  0.2249721002724669  0.5438184480293344
  0.8687091754617882  0.2449465662186512  0.2287897519912860
  0.7870316808450255  0.3005805445088754  0.8860215067885235
  0.7134841465045412  0.3339671720771875  0.5751399714025709
  0.6493928233118709  0.3662024929604115  0.2262345867492641
  0.5574695999319843  0.4141657037994904  0.8927451292487092
  0.5000205237929123  0.4655874290119968  0.5752596310125213
  0.4159564920764822  0.5098440408175833  0.2204395702317825
  0.3426959223832924  0.5485521101534445  0.8860597412784585
  0.2155765236674370  0.1135925116523708  0.2415919030735481
  0.1371768282001895  0.1655785136913650  0.8827377055720120
  0.0616735094339802  0.1987445718657312  0.5353858025881095
  0.9889011083046952  0.2576737350796847  0.2144399359919689
  0.9487728441455516  0.2774085525047241  0.8817541181638475
  0.8625809327035299  0.3359004841517148  0.5662719530069893
  0.7874866379685983  0.3729953344714190  0.2117182037409719
  0.7322440717009187  0.4246309649091842  0.9044213534919763
  0.6378486332474651  0.4644245723821641  0.5633385585642117
  0.5646549537203427  0.5012901960855487  0.2214305925225375
  0.4956719971305716  0.5434661903862761  0.8979956077401283
  0.4364327421103980  0.5897269872805282  0.5513085478513844
  0.3005807115942929  0.1815576877645952  0.8754028171602499
  0.2181570548070368  0.1998324118365815  0.5484880469033655
  0.1336346100021046  0.2465469447608157  0.2178510186152209
  0.0883212164362277  0.2860318787806690  0.8880549052654203
  0.9922074667796466  0.3266742873223336  0.5493587175085253
  0.9433157742760869  0.3819859223059794  0.2191620541737436
  0.8662877048581166  0.4251696669834359  0.8751956561495646
  0.7881757801445914  0.4673032380818896  0.5559467621707128
  0.7155042757825711  0.4879669689576716  0.2145923952361528
  0.6257103547798550  0.5220884447582677  0.8966529478209040
  0.5860839810590406  0.5819233581302612  0.5642511409835151
  0.4933585024087606  0.6241654899683624  0.2229246789513084
  0.3595832426896663  0.2089353582429183  0.5467186282200132
  0.2613636282915479  0.2428712042160441  0.2287394178317044
  0.2364716633136013  0.2908274473771542  0.8897511867035419
  0.1352818256962820  0.3141602999860353  0.5633787200186475
  0.0736461694332817  0.3663086141871474  0.2290540343438039
  0.0109991691724005  0.4101699696959500  0.8844006127379558
  0.9265886228763947  0.4537028407546231  0.5616329488966656
  0.8498632089835709  0.4913766350371347  0.2150875202266249
  0.7852404507922159  0.5276025059932508  0.8848230186869372
  0.7086813712537747  0.5866695740212862  0.5554721027176512
  0.6387770567379718  0.6220445884474657  0.2101805416478015
  0.5754168880690997  0.6640226605217947  0.8985782027548552
  0.4328563353169486  0.2368673809054798  0.2234081475770608
  0.3888585784034220  0.3022276723830899  0.8776077831615865
  0.2860865648557365  0.3254311029233179  0.5496958300649482
  0.2186696973608449  0.3776314043363342  0.2198833449127520
  0.1528092782966510  0.4292982266005438  0.8705233207976804
  0.0694139290416231  0.4547082706875187  0.5546988691017773
  0.0138207730130304  0.4937357367329938  0.2303560939860247
  0.9324714031071721  0.5545994436646922  0.8808071565283271
  0.8649357891469336  0.5928436308807505  0.5664176040018489
  0.7868957815717863  0.5975779473165588  0.2293839249295146
  0.6993165811297786  0.6564924550876583  0.9000680439450122
  0.6303364267463536  0.7096436666503365  0.5594103183816870
  0.1504148318351852  0.5035885406848877  0.2404816205507032
  0.0688848478441955  0.5491239811737572  0.8651597385890426
  0.9978818697114207  0.5790441576090970  0.5610601352774793
  0.9208248261207004  0.6137221093209462  0.2398056222181353
  0.8572831125242502  0.6712183300237626  0.8864395572329542
  0.7778107048594478  0.7202126384791256  0.5661437356844772
  0.7120773060880978  0.7343295085415349  0.2349777926193539
  0.2079919962751120  0.5393971623735325  0.8545231679493668
  0.1308307370898589  0.5786863362649797  0.5581390448997539
  0.0838400472498009  0.6177210218686753  0.2330924351291159
  0.0120577699530742  0.6890198802415100  0.8939476362299814
  0.9278129212196689  0.7044531120283466  0.5654197147429159
  0.8597644517075196  0.7359849726401961  0.2397799508733840
  0.7897281691502087  0.7902922329096000  0.8986802485017691
  0.2932025092130601  0.5767792847671984  0.5724634199473755
  0.2115210906336173  0.6208570444662271  0.2347181759503698
  0.1420782531896947  0.6729280287807953  0.8934549465030912
  0.0673028529515278  0.7117169080733632  0.5586514179930688
  0.0106140654759344  0.7597741756307386  0.2312496851145482
  0.9457752690894452  0.8049911634056457  0.8881400861508695
  0.8407368598475884  0.8259406989522446  0.5581652953647946
  0.3583223524265193  0.6205018285181225  0.2214717732645468
  0.2884250547324640  0.6849697505463439  0.8992141382448011
  0.2195660924886553  0.7076855840265992  0.5597116913270881
  0.1434188748956586  0.7445911246807313  0.2090924257161646
  0.0685490525571808  0.7882431468732491  0.8811056979699430
  0.9737067345088875  0.8384871699203700  0.5397881042775126
  0.9205384573041684  0.8611907140211628  0.2270811696257695
  0.4237917675089236  0.6554363969881933  0.8915202893808498
  0.3530058283513213  0.7094729342931529  0.5466555336916201
  0.2909952809923624  0.7456635517725445  0.2198027862319947
  0.2213033163508911  0.8025953273173840  0.8844982146779188
  0.1284581124698434  0.8260368692117268  0.5641821257121364
  0.0668206421629804  0.8784269331090471  0.2310774564427120
  0.9871519384598813  0.9106775956190987  0.8781749221190793
  0.9171468171111385  0.9487982793609788  0.5530445931590293
  0.8468711921819505  0.9936489949116805  0.2098015311725376
  0.7875122247763855  0.0405137089320391  0.9188849460100315
  0.7063137830581496  0.0825251892886669  0.5559913387450308
  0.6377198741202434  0.1295967681761212  0.2186794062672277
  0.5693054900072312  0.1555811866109877  0.9081641635701061
  0.5143544774059947  0.2169266506023177  0.5643679856743944
  0.0721719481004897  0.9625686055883591  0.5638137545551913
  0.1421111429059678  0.0025184763890422  0.2028401542826685
  0.2142731011038919  0.0370234634222442  0.8636594584418447
  0.2822505951670990  0.0743331875633046  0.5426922822808038
  0.3436022266233181  0.1167145494363737  0.2194116993953301
  0.4234665436370619  0.1751279273123671  0.8664303338906407
  0.8664643871365953  0.9225786491261729  0.8804927381363257
  0.8022483680725898  0.9542700401879145  0.5562807949008715
  0.7059653091329778  0.0098702029945770  0.2157320501844495
  0.6375827465792057  0.0409452128018017  0.8939856483950948
  0.5490752122630269  0.0922702233440802  0.5586779387441325
  0.4898023127963853  0.1250651773568308  0.1923578196927807
  0.1487146158240265  0.9252031777554137  0.8892230236175322
  0.2237440321905666  0.9610112205239503  0.5510795107061028
  0.2676047666233075  0.0118803026094767  0.2253523525641299
  0.3643781193568785  0.0488749931407284  0.8977715832126805
  0.4175521998212375  0.0790521510098472  0.5530307718167435
  0.7849784535755404  0.8801784544504798  0.2079503583643003
  0.7159633788311197  0.9104759200180794  0.8891597766890627
  0.6311543088810367  0.9577532897215733  0.5429729090933506
  0.5634130372261055  0.0023715302753473  0.2259733277453293
  0.4959726220078551  0.0280328204472653  0.8856493870379225
  0.2000947728396980  0.8703559733487651  0.2033908326871270
  0.2861150438860705  0.9340603888891934  0.8830643056607670
  0.3559826846666709  0.9570957532533342  0.5489829890137443