Li 
 1.0000000000000000
   -10.6364300000000007   18.4228371711498369    0.0000000000000014
   -18.2338799999999992  -10.5273355263713349    0.0000000000000078
    -0.0000000000000001    0.0000000000000000   22.3096999999999994
 Li 
 504
Cartesian
 -0.2556134900000000  0.0192436400000000 -0.0993812100000000
 -10.6659921400000002 16.6478102899999989 14.9391751500000005
 -10.4925961099999991 14.9295045200000001  7.8025593400000002
 -10.6690377000000005 13.1164502699999996  0.2468273200000000
 -10.7107345200000008 11.4733665699999996 15.1971444200000008
 -10.6253059400000005  9.6559794199999995  7.0743064400000000
 -10.6472424199999995  7.6859528900000003 -0.0607450100000000
 -10.6172818499999995  6.2421969500000003 15.0176826999999999
 -10.6994275000000005  4.5701711200000004  7.4053121199999996
 -10.5768325200000000  2.7773496000000000 -0.0913839900000000
 -10.5729890500000003  0.7375669100000000 14.7494545400000003
 -10.5589099100000006 -0.8437525700000000  7.6210597599999996
 -1.6372950900000001  1.0536117599999999 15.0700507300000002
 -1.3682487100000000 -0.9379336800000000  7.0859867400000001
 -12.1378923200000006 15.7896576500000005 -0.3689003400000000
 -11.9475932199999999 14.0485424499999993 15.1438930400000000
 -12.0923938599999996 12.3801162799999993  7.5090042600000002
 -12.1757183599999994 10.4212151800000008 -0.0477359000000000
 -12.0212678999999998  8.9459865799999996 15.4696417799999999
 -12.1206021800000006  6.9861653300000004  7.2921765699999996
 -12.1668953299999991  5.2129155200000001 -0.0625396700000000
 -12.2567756800000005  3.3702984100000002 15.2307183500000001
 -12.1572661100000001  1.7361943300000000  8.0569955199999992
 -12.0745091000000002 -0.0073104900000000 -0.1586037300000000
 -3.0735532700000001  1.8397819399999999  7.4744209499999998
 -3.2625590700000000  0.0614457500000000 -0.0576762700000000
 -3.1028384600000001 -1.7379500400000001 15.2650751699999994
 -13.6359709799999997 14.9238287300000003  7.6230810900000003
 -13.6471407399999993 13.0728603700000008 -0.2369745200000000
 -13.5594426699999993 11.2844661500000001 15.5925711899999992
 -13.4948302699999996  9.5690570499999996  7.7106103700000004
 -13.6594147499999998  7.8511310700000001  0.1069650700000000
 -13.6368660800000008  6.1327961400000000 15.2615145200000004
 -13.5400051000000001  4.3906372200000003  7.3986870400000004
 -13.8296712900000003  2.6365890099999998 -0.2156801500000000
 -13.7260594900000008  0.9683480100000000 14.8781475200000006
 -4.4862028199999999  2.5383436100000001 -0.2169262000000000
 -4.7735878800000000  0.8500516000000000 14.6608987400000004
 -4.6947675899999997 -1.0138985700000001  7.0959497899999997
 -4.5831428100000000 -2.8574454800000000 -0.3615497600000000
 -15.1728738399999994 14.1526857800000005 14.8652761000000009
 -15.1746210799999997 12.1453813099999994  7.0128272599999999
 -15.0867226100000007 10.4701113299999999 -0.0816249700000000
 -15.1652429099999999  8.5696939699999994 15.1193207500000000
 -15.1507911300000000  7.1754963299999996  7.1436234599999997
 -15.1721692000000008  5.3041116099999996 -0.4172776100000000
 -15.2770794199999997  3.4918006899999998 15.0215543399999998
 -15.2482314999999993  1.8432663199999999  7.1634645399999997
 -6.2557213100000002  3.2983674199999999 14.9596274499999993
 -6.0704941699999999  1.8658393700000000  7.4968845999999996
 -6.1410962800000002 -0.0003906400000000  0.4417170300000000
 -6.0889182399999999 -1.8698797800000000 14.5669338699999997
 -16.7736855799999987 14.6967188499999999  6.9933484200000002
 -16.7468719200000002 13.0459298300000004  0.1469063500000000
 -16.6643375800000015 11.3057066499999994 14.8595343199999999
 -16.8390147200000015  9.4086314400000006  7.3361149899999996
 -16.7391181300000014  7.8808757500000004 -0.0541783900000000
 -16.9170766599999993  6.1612311399999999 14.3600170800000004
 -16.6210944800000000  4.4812901700000003  7.1201048100000000
 -16.7665687800000001  2.7406281099999998 -0.1562936000000000
 -7.7187944999999996  4.0666580000000003  7.2859928399999996
 -7.6433029499999998  2.6194183000000000 -0.1679379500000000
 -7.6809601900000004  0.8850234000000000 14.7095683800000003
 -7.7625685500000001 -0.9218818200000000  7.4006101600000003
 -7.5617394600000001 -2.6695693199999999  0.0476723500000000
 -18.2653552800000014 13.8645020399999996 14.9884813599999998
 -18.3677797600000012 12.2932146299999996  7.5958325499999999
 -18.5128680000000010 10.4478578500000001  0.2251942200000000
 -18.3802114299999992  8.5667227900000000 15.0406496700000005
 -18.1816991899999998  6.9070834100000003  7.2579544900000004
 -18.1841065300000011  5.2613566900000004  0.8081328800000001
 -18.2113115199999989  3.5088852400000001 14.5455490500000000
 -9.3213502500000001  5.2536678400000003 -0.0248498900000000
 -9.2414860099999991  3.7596503399999999 15.0425799999999992
 -9.0741709400000001  1.7888649400000001  7.4627531600000001
 -8.9355695100000005  0.1017871800000000 -0.0362912400000000
 -9.1515947900000008 -1.7518146299999999 15.1342860100000003
 -9.3085652400000001 -3.6967351399999999  7.7261819500000000
 -19.8162987599999987 13.0676772700000008  0.0243331900000000
 -19.8246118699999982 11.4120553099999995 14.8882522500000007
 -19.7185305299999989  9.6133461699999998  7.5415077899999998
 -19.5693570000000001  7.6915085100000002 -0.0341215400000000
 -19.6965834599999994  6.1752912499999999 15.2739603200000005
 -19.6014795200000016  4.3225686699999999  7.2800077200000004
 -10.5414964599999994 -2.6540876999999998 -0.5386975100000000
 -10.7488519000000000 -4.4135074100000002 15.0328325599999992
 -21.3078689899999993 12.3260983999999993  8.0907890899999995
 -21.4506552600000013 10.3334648100000006 -0.2587487800000000
 -21.1954476900000017  8.6962322499999996 14.8466785500000000
 -21.3237823199999994  6.8564019199999997  8.1735115300000007
 -21.3072863300000002  5.4624638100000000  0.4457531400000000
 -11.9672420299999995 -1.7643526599999999 14.9874090700000000
 -12.0075082299999991 -3.5395218100000001  7.9691063900000003
 -12.2759404700000001 -5.2135067399999997 -0.2699134300000000
 -22.9323793199999990 11.5051477000000002 14.9731366099999992
 -22.8962646300000010  9.5407687499999998  7.9577680199999996
 -22.9523539899999989  7.9359991399999998  0.0485481500000000
 -22.9130575400000005  6.0408213599999998 14.6108901200000005
 -13.7828600800000007 -0.8408094699999999  8.1306048299999993
 -13.7380773299999994 -2.6882124100000002 -0.1547691300000000
 -13.6761364600000004 -4.4763040700000003 14.7484968199999997
 -13.6812150999999993 -6.2113284599999998  7.7741834900000004
 -24.2453171800000007 10.5505748100000005 -0.2420655100000000
 -24.3828291800000017  8.7734950000000005 14.5705439800000001
 -24.2935393499999996  6.9281917999999996  7.4142081099999997
 -15.3403461399999994 -0.0244647500000000  0.2613070100000000
 -15.3024885099999999 -1.7680174500000001 14.9024332899999994
 -15.2442319499999996 -3.4880932400000000  7.5063099099999997
 -15.1324072500000000 -5.2885679100000003  0.4080350800000000
 -14.9307149300000006 -6.8250474700000003 14.6199872200000005
 -25.9414842300000004  9.7158803999999996  7.3429424200000000
 -25.8187587600000015  7.9112661299999996  0.0345504000000000
 -16.5981663700000013  0.8401899000000000 14.9109147199999992
 -16.8176690600000001 -0.9120614000000000  7.1807824000000000
 -16.7060418000000013 -2.6860307500000000  0.0285097600000000
 -16.6204765300000012 -4.2536704199999997 14.9958900899999996
 -16.9331907500000014 -6.2130127200000000  7.2528138499999999
 -16.7810395099999994 -7.9934402899999997  0.1090295700000000
 -27.2822570300000002  8.4422261699999996 14.7677478499999992
 -27.1736742999999983  6.9141267800000001  7.3601359000000004
 -8.9756032799999996 15.6960087099999992  0.0592829100000000
 -9.2676418999999992 14.1788376700000001 14.7308559199999998
 -9.2966645000000003 12.1081982200000002  7.2993363799999997
 -9.1718664000000008 10.7015394300000004  0.3840800300000000
 -9.3534477400000000  8.8585336600000009 14.7858017400000001
 -9.0351562300000001  6.9307876799999999  6.8183516500000003
 -18.1358651100000010 -8.7184540599999991  7.2411810699999997
 -1.6464047500000001  2.6579617500000001 -0.0470460300000000
 -3.0006850300000001  3.5710823299999999 14.9072525200000001
 -4.4651369399999998  4.1162309300000004  7.5628372300000004
 -6.1314840700000000  5.1325196100000001 -0.2229935500000000
 -7.7562995900000002  5.8571332299999996 14.7733532400000005
 -25.9902763499999985  6.1624850100000002 14.8074464700000004
 -25.8057969400000005  4.6158917900000001  7.0924651100000000
 -7.6456853899999997 13.1839712700000007  0.0576223900000000
 -7.5103773900000004 11.3859776299999993 14.8641792699999993
 -7.3729439799999996  9.7410843800000002  7.0921291399999999
 -7.4841577099999999  7.8417374799999999  0.3660219800000000
 -18.3385968199999994 -6.9630801499999997 14.6303950799999996
 -19.8022296500000010 -6.1177406100000002  7.4288812000000002
 -2.9782983399999998  5.3849125700000000  0.1546707300000000
 -4.5753408999999996  6.0672726600000004 14.7689902699999998
 -6.1051542899999998  6.9647197299999997  7.0652174099999998
 -24.4604050300000004  5.2836537699999999  0.0820325200000000
 -24.5034006399999988  3.5120555300000000 14.7531706000000007
 -24.2795457600000013  1.6492009800000000  7.4643425900000002
 -5.9508560499999996 10.5069567100000008 -0.1018688700000000
 -6.1051325399999996  8.7579719899999997 14.9739294899999997
 -18.5321800000000003 -5.3136551900000004 -0.3932937300000000
 -19.7668179899999998 -4.4408163399999996 14.8116766000000002
 -21.1612125900000017 -3.5780573900000001  7.1476502399999999
 -4.7539331699999998  7.9996057100000000 -0.0127901100000000
 -22.8314037899999995  4.5244061100000001  7.3988436899999996
 -22.7903531599999987  2.8049029200000000 -0.4013315300000000
 -22.6905021900000001  0.8497614200000000 14.8347319300000002
 -22.7281837399999986 -0.8809513700000000  7.2220703600000000
 -18.2584377400000015 -3.6885764800000000  7.7831711600000002
 -19.6526311000000007 -2.8081019000000000 -0.0911824100000000
 -21.4165060400000016 -1.6855547900000001 14.7935368100000009
 -21.3523660100000008  3.5657012799999999 14.8213528900000000
 -21.3254551600000006  1.8282592499999999  7.2392089999999998
 -21.3649963400000011  0.1093967100000000 -0.1887757800000000
 -18.2608521400000008 -1.7470860300000000 14.6824116199999999
 -19.7522000899999988 -0.7792692100000000  7.8060004999999997
 -19.8314184599999983  2.5662445800000002  0.1761883200000000
 -19.6351240500000017  0.9410115400000000 14.8086939599999994
 -18.2212071999999985  0.1084721000000000  0.0977822600000000
 -18.1222653899999990  1.8117567500000000  7.5917011399999996
 -0.2000748200000000 -0.0348113700000000 17.2308101399999991
 -10.6077757100000003 16.8819059799999991 10.1064284999999998
 -10.4560379700000006 15.4119334499999994  2.0144846300000001
 -10.7516567100000007 13.2333082999999991 17.4428059500000003
 -10.5979205299999997 11.4576828899999992  9.7768020100000008
 -11.0091999099999995  9.6876709400000003  2.6882739999999998
 -10.6413830500000000  7.8752190899999999 17.6781675800000002
 -10.6329981999999994  6.1906376099999996  9.9738211099999994
 -10.6251810100000004  4.4926295999999999  2.4586185600000001
 -11.1655241600000004  2.5409529599999998 17.4137902500000017
 -10.7507614000000000  0.8958468600000000 10.0858796099999992
 -10.9907798999999997 -0.8373820600000000  2.6450864699999999
 -1.8765166600000001  0.8728472100000000 10.2196311400000006
 -1.6510625299999999 -0.7504709800000000  2.4565735599999998
 -12.2990376999999995 15.7870527000000003 17.3242434900000006
 -12.2190114899999998 13.8284795299999992 10.1543463900000006
 -11.9958746400000003 12.5536884999999998  2.4879228800000002
 -12.3436087000000008 10.6259245100000008 17.8745197100000013
 -12.2575836700000007  8.8285645899999992  9.8567872300000001
 -12.2202193599999998  7.0764586600000001  2.4167702700000002
 -12.1563376900000009  5.3013804000000002 17.5554440599999992
 -12.2474189599999992  3.4864646399999999 10.0032053100000002
 -12.3200699599999997  1.7702965900000001  2.1061419099999998
 -11.9243070600000003 -0.0720684400000000 17.2514588199999999
 -3.1838063700000001  1.7389873899999999  2.8014680300000001
 -3.1406540399999998  0.4647238200000000 17.0367134000000000
 -3.1175856199999998 -1.6909878700000001  9.9018959899999999
 -13.2690341200000006 15.0687592600000002  2.0906850100000001
 -13.4362966099999994 13.2256253099999999 17.7540097500000016
 -13.5742803300000006 11.3541632799999999  9.6967773499999996
 -13.3439442400000008  9.9224471300000001  2.4622912600000002
 -13.9379636700000002  7.9921579800000000 17.7218134099999993
 -13.6635361100000008  6.1721860900000003  9.8646303300000007
 -13.4287497600000005  4.2128947400000003  2.3756480600000001
 -13.9547278000000006  2.7006722399999998 17.8245122199999990
 -13.8814032100000002  1.1743706500000000 10.2909950000000006
 -4.8885132400000000  2.6677688200000000 17.4640316800000015
 -4.6244388000000001  1.1671032600000000  9.7222004000000002
 -4.7008162300000000 -0.9955419100000000  2.5374543900000002
 -4.6504068900000002 -2.2526619700000001 17.1876285799999984
 -14.8540253300000007 13.5724847299999993  9.9786059599999994
 -15.0875857599999996 12.2757979699999993  2.5464226499999998
 -15.4872925899999991 10.6864732700000005 17.5558034899999988
 -15.1303885000000005  8.5964664200000005  9.7981082900000001
 -15.2545919399999992  7.0116915100000003  2.3873735900000002
 -15.0819768300000003  5.2737714200000001 17.3567061199999984
 -15.3362096799999996  3.6561228500000000  9.9960341199999991
 -15.1141080799999994  1.5180287600000000  2.4952412800000001
 -5.9584454200000003  3.7780583200000000  9.9616022100000006
 -5.9571082200000003  1.8398174400000000  2.3281121400000000
 -6.0615882900000004  0.2485326500000000 17.1210903999999999
 -6.0032934100000004 -2.0489214200000001 10.1117005700000000
 -16.8318857599999987 14.7626543399999992  2.3979328799999999
 -16.5729905299999984 13.3389477000000003 17.3896272200000013
 -16.3821011600000013 11.4889743000000006 10.0588794900000007
 -16.4826380700000001  9.8120828200000005  2.2071248300000001
 -16.4849631999999993  8.2863415400000004 17.5020164200000004
 -16.8756038599999982  6.3020762799999996  9.5316887500000007
 -16.3981161899999996  4.0571339799999997  2.4632482200000001
 -16.7264942599999991  2.6451212599999998 17.4346841899999987
 -7.1270736699999997  4.1952744700000002  2.5178708599999999
 -7.8548425699999997  2.9724033200000002 17.4772285300000014
 -7.3081071399999997  0.8740632800000000  9.8093962500000007
 -7.5370704100000001 -0.9421077200000000  2.8485233200000000
 -8.1476367199999995 -2.6101644099999999 17.3518733400000009
 -18.2338481399999992 13.8917260000000002  9.5339247500000006
 -18.4970390199999990 12.5884483800000009  2.6561218000000002
 -18.3473002100000002 10.7255527700000002 17.3988126100000002
 -18.6756638499999994  8.7646448600000006 10.1190336999999992
 -18.0226674100000004  6.9755036800000001  2.7124500100000000
 -17.9885191499999983  5.1492282999999999 17.3860412199999992
 -18.1466034500000006  3.5346303400000001  9.8748868800000000
 -9.2988996999999998  5.1300624499999996 17.2247528999999986
 -9.1272848300000007  3.5538772600000001  9.8720621299999998
 -8.8183953499999994  1.6257359300000001  2.2375579999999999
 -9.1502468799999992  0.1075694900000000 16.8245591099999992
 -8.7458555699999998 -1.8120802300000001 10.1589004400000000
 -9.0875828700000003 -3.2906127800000000  2.4877367300000000
 -19.6495970399999997 13.0276608899999999 17.6289341099999994
 -19.4036146500000015 11.4445447399999995 10.1486107800000003
 -19.5997778400000016  9.5910718300000006  2.2315756400000000
 -19.8077478300000003  7.8591972400000003 17.8400411699999992
 -20.0063516399999983  6.1961162600000002 10.1213426299999991
 -19.7489929400000008  4.5030011800000000  2.7067556300000000
 -10.8594855399999997 -2.5446311200000000 17.1293850600000006
 -10.4353292500000006 -4.4461865200000004 10.1545501700000003
 -21.2446256600000005 12.2791798199999995  2.5811784499999999
 -21.7553776499999998 10.2413121900000004 16.9860310699999992
 -21.4050184200000011  8.6966399499999998 10.5348114400000004
 -21.1780567200000007  7.0761516300000000  2.7891349000000001
 -21.2715669200000015  5.2222055200000002 17.5552382599999994
 -11.8658290399999995 -1.6809660000000000 10.3287090300000006
 -11.9798359600000008 -3.3571384300000000  2.2635550400000000
 -12.0141902500000004 -5.0183774899999998 17.7055070999999984
 -22.4811089099999997 11.5413589400000003 10.1483974799999999
 -22.7018323600000009  9.8211143500000002  2.5677796599999998
 -23.2880325200000016  8.0081874600000003 17.5060527899999983
 -22.9016452900000012  5.9513534300000002  9.9582195400000000
 -13.7757192400000008 -0.8244020399999999  2.3543555399999998
 -13.8335531399999994 -2.6268558999999998 17.4125135299999982
 -13.7016113599999994 -4.1362522899999998 10.2643109700000004
 -13.5083269799999997 -5.9100636000000000  2.5948880700000001
 -24.3485638100000017 10.7339835400000005 17.0994207200000012
 -24.0734383100000002  8.4745489099999993  9.9468672799999993
 -24.2967742599999994  6.8392045699999997  2.5803944699999999
 -15.1025772499999995 -0.1555627200000000 17.7916586300000006
 -15.0120043299999999 -1.5267037299999999 10.1146580499999992
 -15.1965364300000001 -3.7355863600000001  2.3760753000000001
 -15.1961858999999997 -5.1870766799999997 17.1117851499999993
 -14.9850372699999994 -6.8663382999999998  9.8420518099999992
 -25.8950984599999998  9.9023562700000003  2.1558494200000000
 -26.2702477499999993  7.9479566300000002 17.0678488000000002
 -16.8281964399999993  0.9793248900000000  9.8232720499999999
 -16.9901947100000008 -0.6905718000000000  2.4484053499999998
 -16.8862727600000007 -3.0157120300000000 17.2214865400000008
 -16.7506488599999983 -4.5807306700000003  9.7781498100000004
 -16.8342473699999999 -6.1026898000000003  2.4756581999999998
 -16.7057557599999988 -7.6040206899999996 16.9495834499999987
 -27.5787105799999992  8.7679648599999993  9.7610669800000007
 -27.3318560300000009  7.1665467800000000  2.4509593399999998
 -9.5516364399999993 16.0011631700000017 17.3977310900000006
 -9.2549640899999996 14.1375358500000008  9.9408337699999993
 -9.1779078199999997 12.2834238199999994  2.2298842799999998
 -9.1529228499999995 10.7811317300000002 17.2898681900000000
 -9.3422877500000006  8.8051916699999992  9.9543467299999993
 -8.9064084200000000  7.0581304999999999  2.9035534500000000
 -18.1279129599999997 -8.7349424199999994  2.1648176299999999
 -1.3704186199999999  2.7982186699999998 17.1826446699999984
 -2.7046006999999999  3.4927376500000000  9.7588432100000002
 -4.1827572399999999  4.2405328700000000  2.7061943500000001
 -6.0904080499999997  5.3372676300000004 17.5438099100000002
 -7.7655259399999998  6.1392125399999999  9.7866826600000003
 -25.8243105499999999  6.1803698999999996  9.7223595599999992
 -25.9292472700000012  4.0847068399999999  2.3589934399999999
 -7.5952543900000000 13.3085021300000008 17.2215905999999990
 -7.5506396100000002 11.2170324600000004  9.7334510499999993
 -7.5814128199999997 10.0913352900000000  2.4613150099999999
 -7.7269200400000004  7.9706718499999996 17.1028732499999983
 -18.1551948100000011 -6.9274627700000000 10.1221867400000001
 -19.6866232200000013 -6.4309001900000000  2.0433583700000000
 -3.1124725700000000  5.3150091200000000 17.0871519599999999
 -4.2604114500000003  6.0399132299999998  9.4846357399999999
 -6.2305705400000004  6.9158082399999996  2.6738579100000002
 -24.3801525800000007  5.4948797200000001 17.3487579700000012
 -24.2328029500000000  3.4615073999999999  9.9425533000000001
 -24.2469056300000005  1.4714030100000000  2.6264353400000000
 -23.9557718599999987 -0.1477066800000000 17.2537989100000004
 -6.1906273900000004  8.3909451599999993  9.7740127399999999
 -18.5009201099999991 -5.3321845699999999 17.2341471999999989
 -19.7863560499999984 -4.1458461099999999  9.5145644399999991
 -21.3635081800000002 -3.9465730099999998  2.5940411900000000
 -22.7826617499999990 -2.5111477000000000 17.3499268399999984
 -22.8035572900000005  4.5600558600000003  2.6927230899999999
 -22.9872307599999992  2.6944849299999998 17.4344515300000005
 -22.5040015000000011  0.8139445600000000  9.7819185599999994
 -22.9710220700000001 -1.0581424200000000  2.4971469900000001
 -18.1457568199999990 -3.4559821400000001  2.1577570900000000
 -19.6557163800000012 -2.4129276000000002 17.3831488500000013
 -20.9745086299999990 -1.5906688400000000  9.7168737299999997
 -21.2771653799999996  3.2832021299999998  9.9919806300000005
 -21.0969263600000012  1.8815337700000001  2.5422766900000000
 -21.2326600700000014  0.0139898500000000 17.1411514599999997
 -18.0863357600000008 -1.8295388400000001  9.8340988300000003
 -19.6019076900000009 -0.9783256800000000  2.3957340600000001
 -20.1043013399999992  2.4726885500000000 17.4112186899999983
 -19.7019965299999988  1.0502829000000000  9.8792034999999991
 -18.0779811200000005  0.0892628900000000 17.3988955400000016
 -18.6231881900000005  1.6295885800000001  2.3465910700000001
 -0.0567832500000000  0.0570548000000000  4.7979340700000002
 -11.0120153799999994 16.5897920700000014 19.9137931500000001
 -10.4203410999999999 14.7524198700000007 12.5669188900000002
 -10.7547177800000000 13.3782331100000000  4.6994212700000002
 -10.5632851799999994 11.3720165400000006 19.8592973999999991
 -10.3528557299999999  9.6512411100000008 12.5988521999999996
 -10.4757615099999999  7.8979299999999997  4.6126544899999997
 -10.7659008099999998  6.2916095199999997 19.7578684399999993
 -10.6884114500000003  4.4456283200000000 12.8300100399999994
 -10.4360359000000003  2.8310558399999999  4.8773252500000002
 -10.5876164999999993  1.0449250800000001 19.5107494800000012
 -9.9015053799999997 -0.8552444300000001 12.3719432499999993
 -1.3447909199999999  1.1342505700000001 19.9660800300000005
 -1.2682893500000001 -1.1378613000000000 12.7653981200000004
 -12.1292421800000003 15.6728204099999999  4.7807747500000000
 -12.3695025399999992 14.1299954099999994 19.5841823300000009
 -12.1166926900000007 12.2050649799999995 12.4737680399999995
 -11.9456617200000004 10.9096909899999996  4.5115140399999998
 -12.1494886300000005  8.7450072599999995 19.9731922399999995
 -12.3654674300000007  7.0183822500000002 12.6059137900000007
 -11.9694170799999995  5.3253199300000000  4.9899908000000002
 -12.4985897399999999  3.7042438000000000 20.0968727800000018
 -11.9751947600000008  1.8905472000000001 12.3888888099999992
 -12.2754229200000005  0.0675215300000000  5.4502205600000000
 -2.9772412199999998  1.8871048500000001 12.3081818199999997
 -3.1990638200000001 -0.1722585000000000  4.9827505299999997
 -13.5599281800000000 16.8517539599999999 19.5823772500000004
 -13.9810405899999992 14.7424455099999996 12.1324264300000007
 -13.7062906299999998 13.4254529999999992  5.1042307300000003
 -13.8519569600000008 11.3350442600000001 19.7668740099999987
 -13.6784415199999998  9.6286177800000008 12.8312002199999995
 -13.5845136199999992  8.1085217299999996  5.0472257599999999
 -13.4813341199999996  5.9101103400000001 19.9168760099999993
 -13.8078986100000005  4.3104016100000004 12.8338697899999996
 -13.7207271700000000  2.2957994400000001  4.9179406800000001
 -13.6472945400000008  0.5386390599999999 19.7677270100000015
 -4.3641968300000000  2.7757047099999999  5.3898428799999998
 -4.4782104800000004  0.7840858000000001 19.6936133899999994
 -4.2798706400000004 -0.9560497700000000 11.9442966399999992
 -4.5803393799999998 -2.9170909400000000  4.7840906399999996
 -15.1497902000000000 14.5587147100000003 19.6716698500000007
 -15.2995508299999994 12.3550509700000006 12.6333573900000005
 -15.1771986699999992 10.5810910699999994  4.7233696099999998
 -15.5311328700000004  9.0197806600000003 20.1773690700000010
 -15.2526942600000002  6.8618282099999997 12.5679142400000003
 -15.1463781700000002  5.1252961800000003  4.9400500899999997
 -15.1816777999999992  3.4104335600000000 20.0340126100000013
 -15.3950974299999999  1.8320754800000001 12.2995283099999995
 -6.5076067899999996  3.6262308100000000 19.5299742300000005
 -5.9641324600000001  1.9153690500000000 12.2366037799999994
 -5.9169025800000004 -0.1335537500000000  4.8601908700000003
 -6.1548933899999998 -1.3840261700000001 19.8122385200000011
 -16.5100850199999982 14.8402667699999995 12.2560281799999995
 -16.9985976699999988 13.3572589399999995  4.8894396799999997
 -16.9667012200000009 11.4835735900000007 19.5253525299999993
 -16.9041276799999984  9.6009760800000006 12.4030054799999991
 -16.5079422999999998  8.0446267599999999  4.7874919599999997
 -16.1750224399999993  6.0311597499999996 20.0040582700000016
 -16.8445619200000003  4.6712273099999999 12.5882736800000004
 -16.6285318199999992  2.5182638200000000  4.9733827100000001
 -7.6343842400000002  4.4250109100000001 12.1971285799999993
 -7.2084603300000003  2.2582729100000001  5.1031077900000001
 -7.8181270700000001  1.2948408300000001 19.8500820500000010
 -7.1672768800000002 -0.8149958400000000 12.5688102300000004
 -7.4625596400000003 -2.4994822999999999  5.1101267899999998
 -18.2324118999999989 14.3074761800000001 19.7307123500000010
 -18.1283581799999993 12.2941092899999997 12.5298625999999995
 -17.9992131300000011 10.4840048100000001  4.7985380500000003
 -17.9723958699999997  8.9121083599999995 19.7401361000000009
 -18.2351024099999997  6.8798540600000004 12.3924159700000001
 -18.1365938299999989  5.2196136099999997  4.6890648300000004
 -18.2280909599999994  3.6104222899999998 20.0470101300000003
 -8.9230575099999996  5.4808593900000000  4.9841687500000003
 -9.6468501599999996  3.9822261600000002 19.5791663599999985
 -8.9768114000000008  1.8446037900000001 12.2635490600000008
 -9.2115506400000005  0.0530637300000000  4.9055314599999997
 -9.4531175399999992 -1.7041860200000001 19.4211141299999994
 -9.0294124399999998 -3.5080650200000001 12.3751653600000004
 -19.7861518600000004 13.4797332599999997  5.1391753500000004
 -20.0306665099999996 11.3403144000000005 19.6505434200000018
 -20.0096686000000012  9.6935073900000006 12.6366068200000008
 -19.2659264800000010  8.2059493000000003  5.1174865499999997
 -19.4086365100000009  5.9722791600000003 20.0802480400000007
 -19.6440867399999988  4.1419283699999996 12.4802763799999994
 -10.7822498499999995 -2.5303775800000001  5.3650728100000000
 -10.7453496400000006 -4.5117580600000000 19.3014542200000001
 -21.1721223400000014 12.2880230699999995 12.5170832999999995
 -20.9848241000000009 10.5033472700000008  5.3499914899999998
 -21.3573462999999997  8.7274466200000003 19.7762005899999984
 -21.4053999399999988  6.7475598699999999 12.6304969000000007
 -20.9636365600000012  5.3879511400000002  5.2422840600000002
 -12.0475954400000003 -1.8466122300000001 19.0641555199999999
 -11.9432691900000005 -3.6817518599999999 12.4519146500000009
 -12.1552097799999999 -4.9583849200000003  5.2002223000000001
 -23.3281874400000007 11.3914320399999998 19.9437035800000011
 -22.7135306999999997  9.6769321000000001 12.6143442100000005
 -22.5646860800000013  8.0913397499999995  5.3494187699999998
 -22.8099821300000016  6.2293619700000002 20.0492867399999994
 -13.6355522300000001 -0.6703269700000000 12.7714871599999995
 -13.5704621200000002 -2.6391518100000000  5.2364920899999996
 -13.7812943200000007 -4.4666546199999999 19.9327118200000015
 -13.6932227799999993 -6.2525731899999997 12.4633455400000006
 -24.6029569099999996 10.6199806999999993  5.1591110999999996
 -24.7377847200000005  8.9494517099999999 19.8141388800000016
 -24.0025423499999988  6.7938034099999998 12.4525002899999997
 -15.1254264999999997  0.0690834100000000  4.9409688200000002
 -15.5574691400000003 -1.8972985700000000 20.0611976600000013
 -15.2392533900000000 -3.4050132199999998 12.4869999200000006
 -15.1022500399999995 -5.1963780200000000  4.6647892899999999
 -15.1018481500000004 -7.0352320500000003 19.6572037900000005
 -25.6456379599999984  9.1114048499999996 12.0425106700000004
 -25.4940910000000009  7.8928865100000003  5.0661127700000002
 -16.4587800800000004  0.9074478600000000 19.8895501999999986
 -16.6911661299999992 -0.9654907300000000 12.1957209599999992
 -16.6914906599999995 -2.4888917199999998  4.9037342199999996
 -16.9883041199999987 -4.3721553399999999 19.7328898200000005
 -16.4281928700000002 -6.3294043899999997 12.5867339699999992
 -16.7278643699999989 -8.0164692500000001  5.1552687300000004
 -27.1049584900000013  8.5991308199999992 19.5918190599999988
 -27.0554418900000009  6.9081286400000002 12.3382589599999992
 -8.8918826899999992 15.6686292399999996  4.6806092200000000
 -9.1150407599999994 14.0817080800000003 20.5000474799999992
 -9.0174115100000005 12.1435334600000004 12.4039999699999992
 -9.1461147199999999 10.3843007400000005  4.8786719500000002
 -8.8922266800000003  8.8503669899999995 20.2608700400000004
 -9.4263099100000005  7.1922091500000001 12.5908804500000002
 -18.3190123199999988 -8.8036706299999992 12.5785157200000004
 -1.5574768200000000  2.5915775999999999  4.5253029900000001
 -2.9541822299999998  3.5577600299999999 19.2679834200000002
 -4.3575211200000004  4.4173263499999997 12.1073020099999997
 -5.7828601199999996  5.1014346499999998  4.8950091899999997
 -7.6974338600000003  5.9578247299999996 19.3298008199999991
 -26.0382761800000004  6.2504373299999996 19.6435288399999983
 -25.9331040100000010  4.7337701599999997 12.4104576499999997
 -7.6889226900000001 12.9019770000000005  4.8129173200000004
 -7.5281943499999997 11.3150391300000006 19.9445516199999986
 -7.5226442400000000  9.1441636299999995 12.4639372099999992
 -7.4901714500000001  7.7069451700000000  4.2914452499999998
 -18.4518363200000017 -7.0001791300000002 19.8382988900000008
 -19.9028010100000010 -5.9948876899999997 12.2944185600000004
 -3.0629833799999999  4.8049711100000003  5.0275433800000000
 -4.7668631200000000  6.1983553100000002 20.0290146900000003
 -5.8826921800000003  6.8602876699999999 12.3379506100000000
 -24.3984366900000005  5.1955963199999999  4.6393101100000003
 -24.2168030300000012  3.6051912499999998 19.8368878700000018
 -24.1767871800000016  1.5450628300000000 12.1135627100000001