Li                                      
   1.00000000000000     
    20.6400000000000006    0.0000000000000000    0.0000000000000000
     0.0000000000000000   20.6400000000000006    0.0000000000000000
     0.0000000000000000    0.0000000000000000   20.6400000000000006
   Li
   432
Direct
  0.0090289786821671  0.9981282107558158  0.0014114607558113
  0.9219387514534887  0.0834449612403105  0.0924962020348872
  0.8343071477713195  0.1637947083333344  0.1551643052325602
  0.7487467073643401  0.2457040789728708  0.2516812853682140
  0.6636668575581410  0.3370889612403118  0.3326561366279037
  0.5842877684108529  0.4100352180232534  0.4189714694767446
  0.5087783594961266  0.5091553129844968  0.5034419481589154
  0.4218835237403127  0.5785355043604667  0.5864675019379817
  0.3461940862403097  0.6779421119186040  0.6563782281976742
  0.2354719626938007  0.7296994520348861  0.7463643905038779
  0.1690289811046526  0.8382301531007741  0.8278306826550406
  0.0871175562015480  0.9210982848837190  0.9233258667635624
  0.0898815571705427  0.9244294646317854  0.0892921531007786
  0.0056832708333303  0.9898921928294584  0.1705335421511620
  0.9300575251937957  0.0868683808139536  0.2280525726744216
  0.8405486438953460  0.1715876463178319  0.3293546758720964
  0.7513460920542627  0.2461909840116263  0.4163609757751914
  0.6721558226744193  0.3316485784883696  0.4999259457364360
  0.5829330227713143  0.4076937814922488  0.5849734481589124
  0.5026173502906985  0.5034644990310042  0.6690805562015498
  0.4422485300387606  0.5966002994186042  0.7534392742248031
  0.3329800906007776  0.6820758459302354  0.8353728459302303
  0.2377453071705418  0.7533351865310109  0.9091433522286820
  0.1646674835271327  0.8398703187984466  0.0125938866279043
  0.1659691497093050  0.8429966443798449  0.1701462417635682
  0.0855414791666647  0.9351392514534851  0.2560201782945768
  0.9847778880813962  0.0100441250000003  0.3206722877906998
  0.9084229980620151  0.0854666424418582  0.4097899326550376
  0.8340979859496116  0.1583661996124022  0.4930531085271284
  0.7463606593992225  0.2350019307170541  0.5790935678294602
  0.6633259878875961  0.3369766952519413  0.6519784249030991
  0.5912848144379836  0.4105000150193803  0.7596201501937969
  0.4977474704457379  0.5067890799418606  0.8329711322674385
  0.4119950687984471  0.5917286826550381  0.9237937398255838
  0.3320039331395321  0.6729726841085295  0.9887545116279099
  0.2585592718023264  0.7541084379844989  0.0789424781976749
  0.2417014859496120  0.7515780678294561  0.2585703696705437
  0.1659348343023268  0.8309194907945709  0.3436536371124035
  0.0590677969961249  0.9142185256782938  0.4304538638565916
  0.9803030436046498  0.9915191366279075  0.5083011908914727
  0.9017633759689900  0.0950739205426387  0.5723944074612390
  0.8197122829457371  0.1723757466085303  0.6700608725775226
  0.7483158900193772  0.2682409060077546  0.7443755426356589
  0.6793463667635677  0.3402248047480612  0.8409385048449636
  0.5784739665697671  0.4375050484496157  0.9214022625968994
  0.4895752829457365  0.5036054825581431  0.0039224384689902
  0.4131511724806174  0.5903225692829466  0.0919743318798467
  0.3180416022286821  0.6594889457364346  0.1659138134689897
  0.3283523008720906  0.6550121366279100  0.3278887407945703
  0.2551636981589169  0.7493047519379843  0.4249067499999981
  0.1484123938953488  0.8289581671511641  0.4985406346899239
  0.0803287432170521  0.9142547122092992  0.5873859026162762
  0.9999975038759672  0.0137832543604617  0.6700376157945769
  0.9139898343023276  0.0835695009689914  0.7443694258720939
  0.8195593943798443  0.1593667713178277  0.8334412015503858
  0.7545412824612399  0.2571977160852725  0.9170368875969004
  0.6718438435077516  0.3398066104651178  0.9841377354651186
  0.5661105571705392  0.4341822374030997  0.0769188192829446
  0.4684676700581392  0.4980723221899197  0.1843551259689917
  0.4072491778100797  0.5722534500969019  0.2407533643410886
  0.4116085833333329  0.5875916346899217  0.4138004229651173
  0.3412250310077525  0.6671245048449634  0.5006833938953505
  0.2346789878875981  0.7390312722868231  0.5844263120155020
  0.1598389467054275  0.8290541472868185  0.6737995663759691
  0.0793289505813988  0.9114739694767451  0.7535287451550374
  0.0041026453488371  0.9976517756782926  0.8387837209302305
  0.9122017243217044  0.0863379515503908  0.9289597378875953
  0.8365131114341082  0.1689543517441834  0.0010841065891469
  0.7501438357558143  0.2455170731589149  0.0765838735465110
  0.6601432054263583  0.3234356414728694  0.1606316211240326
  0.5767705741279059  0.4106613275193780  0.2370149278100797
  0.5032927383720960  0.4984210062984502  0.3355942102713172
  0.0749007015503906  0.0936617936046531  0.9217696472868226
  0.0038998003876003  0.1703640741279102  0.9931250557170515
  0.9264027645348847  0.2450989694767429  0.0892687262596894
  0.8323964728682185  0.3267281036821714  0.1746436540697687
  0.7446613963178308  0.4198999554263594  0.2573779806201557
  0.6653972587209296  0.4938816337209317  0.3268848522286802
  0.5835088091085296  0.5842234815891487  0.4135602543604620
  0.4845003788759712  0.6776000978682148  0.4974700218023287
  0.4216072873062018  0.7549990377906965  0.5692221589147266
  0.3218972369186019  0.8187273633720906  0.6713839903100762
  0.2676220213178269  0.9193663386627904  0.7552214001937969
  0.1545695402131813  0.0049879752906961  0.8381728817829455
  0.1525138066860450  0.0062958749999993  0.0062472223837204
  0.0803173512596871  0.0889546506782963  0.0873922669573659
  0.0138575581395344  0.1663112950581365  0.1680831540697696
  0.9442122335271321  0.2596331438953499  0.2377512504844930
  0.8269802989341102  0.3104355159883738  0.3269013953488340
  0.7361832950581402  0.4135930624999986  0.4225956642441844
  0.6533406627906970  0.4864652572674402  0.4843805663759682
  0.5925801686046483  0.5916574583333301  0.5843156351744199
  0.5050646705426374  0.6747200566860485  0.6593074767441891
  0.4162308488372091  0.7552364384689909  0.7553862979651171
  0.3422026201550352  0.8285700096899191  0.8316923987403086
  0.2558752810077536  0.9151831133720947  0.9120346366279080
  0.2547391845930207  0.9367331986434095  0.0885361070736437
  0.1965905082364330  0.0237871172480624  0.1653085387596889
  0.0913466652131802  0.0775718885658918  0.2459763459302309
  0.0071661414728652  0.1685321729651150  0.3487771080426327
  0.9302772407945739  0.2579639840116243  0.4219050901162760
  0.8162835106589128  0.3283980775193811  0.4916236322674408
  0.7415346807170522  0.4139518522286849  0.5652345092054247
  0.6790039418604650  0.4965959539728715  0.6509384869186050
  0.5860034239341090  0.5878727015503884  0.7475908633720962
  0.4959430489341088  0.6780714946705402  0.8415812955426389
  0.4220993735465086  0.7527989912790716  0.9246849147286795
  0.3336014452519365  0.8276000043604625  0.9966987713178312
  0.3346322412790670  0.8354465445736423  0.1678913594961244
  0.2494493323643425  0.9266420620155031  0.2495846952519400
  0.1575439278100745  0.9999505629844947  0.3468535775193828
  0.0894347252907011  0.0646531182170520  0.4176073047480600
  0.0068861589147318  0.1644463493217074  0.5036807621124026
  0.9052096342054270  0.2446301908914705  0.5758145935077508
  0.8275243769379870  0.3280263468992217  0.6602832039728668
  0.7470918468992238  0.4193924588178319  0.7523775450581383
  0.6715571976744172  0.5141554496124030  0.8312430300387561
  0.5866677456395379  0.6033529055232592  0.9043145629844958
  0.5156191492248041  0.6697355906007729  0.0071667776162769
  0.4075883386627908  0.7522594152131816  0.0837681550387614
  0.4168371613372059  0.7480981579457335  0.2666794404069748
  0.3461192814922498  0.8428734811046539  0.3402565125969019
  0.2450302800387618  0.9150220833333336  0.4170658105620149
  0.1581530494186012  0.9758456661821739  0.5033206535852699
  0.0885365406976746  0.0818340663759685  0.5771401593992280
  0.9986555581395322  0.1616634941860440  0.6542489394379842
  0.9036898546511622  0.2295532979651185  0.7528470901162763
  0.8365474515503877  0.3300528100775182  0.8299770876937984
  0.7605702252906994  0.4240702572674451  0.9295521967054299
  0.6735668042635652  0.5028223812984507  0.9960175426356557
  0.5735619035852721  0.5700025823643387  0.0889127146317819
  0.4939781463178292  0.6639371996124055  0.1688734210271292
  0.5131423183139532  0.6613342543604617  0.3221045460271341
  0.4073380159883726  0.7516141002906949  0.4002438812984508
  0.3264823527131782  0.8327149907945710  0.4916734830426321
  0.2559364733527119  0.9026195106589157  0.5811250125968996
  0.1773830145348825  0.9855035004844979  0.6798603464147277
  0.0735660004844974  0.0898614781976761  0.7524333701550390
  0.9857133575581400  0.1693684738372099  0.8287183842054233
  0.8988486390503851  0.2307253701550422  0.9123800319767454
  0.8498469394379811  0.3297376991279037  0.0143053672480633
  0.7385367291666682  0.4094623677325586  0.0868382461240316
  0.6768206463178288  0.4979551482558122  0.1602875125969021
  0.5862421094961263  0.5751892301356563  0.2399469932170533
  0.1592694864341055  0.1599120595930259  0.8307486627906968
  0.0776063711240340  0.2447621046511657  0.9124439253875991
  0.9993032984496111  0.3156436051356621  0.0036530959302326
  0.9242304287790688  0.4030559244186023  0.0803042407945753
  0.8183435673449608  0.5067928895348857  0.1650335169573651
  0.7502070460271284  0.5847883192829428  0.2454672601744221
  0.6650943720930229  0.6635370935077489  0.3211437524224792
  0.5938734166666677  0.7532348687015471  0.4035697175387583
  0.4986306613372093  0.8285337790697653  0.4815676409883736
  0.4082755867248054  0.9105069806201556  0.5733341860465089
  0.3426616986434112  0.0036679723837238  0.6712041114341076
  0.2499958745155055  0.0813444820736464  0.7570332485465130
  0.2459399195736438  0.0892057325581419  0.9346900130813935
  0.1764428711240313  0.1680732020348827  0.9933279835271307
  0.1058108759689915  0.2522753561046542  0.0848673071705406
  0.0225726036821712  0.3313571487403095  0.1775792126938001
  0.8928107592054246  0.4135104181201541  0.2567599781976710
  0.8142739297480617  0.5092847781007777  0.3225559893410832
  0.7265741564922479  0.5746851298449585  0.4143870717054270
  0.6502628071705416  0.6724781618217079  0.4972634006782926
  0.5849231855620189  0.7547149467054268  0.5848826429263596
  0.5076015755813970  0.8177041477713161  0.6522368105620160
  0.4141637330426349  0.8943391632751911  0.7409860348837185
  0.3333818381782976  0.0007346652131801  0.8377051056201523
  0.3324769433139565  0.0003016342054281  0.9986613624030980
  0.2544915552325548  0.0762451996124014  0.0655200988372115
  0.1974061603682173  0.1629683328488341  0.1707080717054268
  0.1030488614341110  0.2400252902131754  0.2588088464147305
  0.0083546749031029  0.3441622349806224  0.3321549350775186
  0.9035953580426366  0.4076439263565916  0.4143220116279096
  0.8376621356589169  0.5032906623061990  0.4932691434108492
  0.7403733396317804  0.5875584554263540  0.5621961196705456
  0.6850186085271304  0.6543274525193823  0.6633938357558122
  0.5897968822674429  0.7366891841085277  0.7402254481589168
  0.5131251351744197  0.8229815310077484  0.8252547562984489
  0.4311361797480586  0.9182574195736422  0.9083120881782918
  0.4190079118217085  0.9213404108527143  0.0820496627906948
  0.3302015809108525  0.0236228982558160  0.1687204384689949
  0.2678372926356616  0.0931302039728692  0.2556931569767471
  0.1717714467054279  0.1748058221899242  0.3424876065891453
  0.0840087722868219  0.2417453570736399  0.4033263178294604
  0.0198603439922493  0.3355108812984469  0.5087995343992233
  0.9031335319767422  0.4128562078488400  0.5751716472868225
  0.8348535794573664  0.5048822718023231  0.6546500392441885
  0.7725768134689943  0.5715500736434080  0.7581780818798478
  0.6722059680232562  0.6771812005813942  0.8232510818798460
  0.6009220038759722  0.7589096681201539  0.9163143081395333
  0.5046179370155031  0.8464116308139538  0.9968568003875973
  0.4833660319767432  0.8388217577519370  0.1661453071705452
  0.4134767267441859  0.9216043798449647  0.2362682136627896
  0.3235119491279050  0.9978846031976758  0.3347676065891463
  0.2452595392441879  0.0631225508720945  0.4183911395348829
  0.1768977567829424  0.1657773478682145  0.4971724588178290
  0.0897462558139566  0.2503680281007732  0.5848964442829470
  0.9776668788759721  0.3242385285852691  0.6564840537790673
  0.9107788003875967  0.4092645838178299  0.7525532679263591
  0.8383852747093030  0.4938911138565913  0.8459302965116251
  0.7574958013565904  0.5970652742248035  0.9138433536821680
  0.6615084951550401  0.6727266632751920  0.0033174781976726
  0.5775943570736430  0.7539385673449601  0.0867138032945718
  0.5757870562015484  0.7609163827519367  0.2460974946705434
  0.4917055184108534  0.8386416094961220  0.3392322407945727
  0.4245182073643434  0.9389671395348813  0.4239052000968968
  0.3375027437015490  0.9972537664728662  0.4949557868217056
  0.2485116637596931  0.0587305397286855  0.5969686812015524
  0.1599622044573650  0.1564931681201571  0.6630983585271295
  0.0971018100775183  0.2531193168604631  0.7386072877906997
  0.0053990944767435  0.3121944641472894  0.8313342679263585
  0.9338059820736433  0.4196828018410841  0.9211744355620155
  0.8472636463178276  0.5101645450581387  0.0108145121124039
  0.7452178512596888  0.5827218972868238  0.0836559428294592
  0.6719809961240344  0.6684442403100803  0.1605531889534859
  0.2575504278100809  0.2495667742248031  0.7413583473837235
  0.1622161409883702  0.3498500499031039  0.8141196443798435
  0.0860314530038764  0.4035787218992226  0.9223736041666655
  0.9956436191860476  0.4936518691860456  0.0070577470930218
  0.9303013352713165  0.5734538982558135  0.0964203255813985
  0.8274950862403117  0.6522090518410835  0.1763193599806172
  0.7551655562015469  0.7510254927325590  0.2383375106589156
  0.6683898280038747  0.8275476056201541  0.3335496240310079
  0.5921628129844976  0.9268418779069734  0.4122282659883751
  0.4950750591085296  0.0061857611434135  0.5215430673449646
  0.4164163042635636  0.0819538909883732  0.5769911419573646
  0.3423217567829440  0.1440792630813945  0.6710102083333354
  0.3428726526162791  0.1792038037790675  0.8368878396317854
  0.2387178420542639  0.2464069651162788  0.9136233183139524
  0.1603940537790720  0.3195799903100749  0.0052539597868204
  0.1018522974806189  0.4036839074612431  0.0770059665697644
  0.0015962427325604  0.4939639239341105  0.1672596075581367
  0.9145768706395359  0.5782696845930246  0.2444735566860459
  0.8230707533914696  0.6650687228682202  0.3349808241279035
  0.7284132829457377  0.7328695552325613  0.4129704413759683
  0.6667237538759707  0.8310466787790673  0.5043091099806176
  0.5769548817829460  0.9106736070736403  0.5728222810077526
  0.5029149312015520  0.9966913396317807  0.6711100624999986
  0.4166047189922466  0.0704276996124023  0.7627083347868222
  0.4247012698643431  0.0781356472868211  0.9258708381782910
  0.3419629190891484  0.1821707950581413  0.9912866036821697
  0.2510159612403129  0.2453210746124057  0.0716731070736429
  0.1915597703488388  0.3266797684108553  0.1654313691860452
  0.0902953343023256  0.4052168672480647  0.2452450687984467
  0.9851648851744201  0.4922699544573632  0.3370357170542633
  0.9129792170542643  0.5777174840116288  0.3995889031007778
  0.8271331487403089  0.6589991317829487  0.4932251962209335
  0.7420330489341112  0.7461789137596924  0.5609445925387604
  0.6791214835271333  0.8329381332364321  0.6615434525193820
  0.5992443924418609  0.9041988783914761  0.7445469927325590
  0.5020482490310059  0.9990999442829462  0.8367406332364311
  0.5104420019379816  0.0003198125000026  0.0175962650193782
  0.4167626022286797  0.0949840595930240  0.0842327621123999
  0.3398291477713187  0.1805613139534898  0.1618340678294601
  0.2803051918604638  0.2584294544573638  0.2618816400193822
  0.1826022538759702  0.3291057073643415  0.3414750348837217
  0.0877975581395347  0.4130739869186044  0.4131470828488375
  0.9948035111434095  0.4944179379844940  0.4929028362403116
  0.9254683013565881  0.5717260721899251  0.5793894224806166
  0.8376820852713180  0.6637159975775191  0.6608784854651191
  0.7601440314922456  0.7515771312984469  0.7480124273255839
  0.6808027291666647  0.8437640271317832  0.8393452359496152
  0.5803857417635641  0.9206614273255838  0.9315611884689901
  0.6023387781007727  0.9159380373062049  0.1002571967054280
  0.5036530106589154  0.0131511647286828  0.1609668842054290
  0.3977550440891449  0.0738020033914708  0.2515345067829458
  0.3472448444767409  0.1584705605620158  0.3499683062015535
  0.2500316632751947  0.2595815629844935  0.4325763439922454
  0.1748839437984486  0.3335038347868249  0.4855245581395380
  0.0596354471899190  0.4070447039728649  0.5888962664728652
  0.9884735130813951  0.4951754888565887  0.6647414084302312
  0.9210161652131816  0.5853387674418613  0.7519771821705419
  0.8469435721899217  0.6663149181201575  0.8370169040697704
  0.7653860406976776  0.7554750760658919  0.9302557732558157
  0.6684888265503872  0.8464248987403096  0.0027648643410885
  0.6764993066860470  0.8319594360465103  0.1743226555232553
  0.5870433934108519  0.9202713008720949  0.2489478323643439
  0.4925691860465093  0.9997448464147283  0.3326224147286823
  0.4134782708333304  0.0723239738372072  0.4222525993217019
  0.3274056206395315  0.1495701555232571  0.5082335169573611
  0.2619941569767477  0.2346318672480621  0.5918059718992268
  0.1668036419573653  0.3204412621124035  0.6694130964147291
  0.0699464384689890  0.4090163309108519  0.7352798599806221
  0.0173626729651133  0.4877817214147271  0.8485812592054245
  0.9223688565891450  0.5797353430232590  0.9215710121124019
  0.8438112514534879  0.6722466666666662  0.0150124258720936
  0.7620853473837244  0.7606151143410855  0.0733847887596895
  0.3413104723837179  0.3473246206395331  0.6674252722868204
  0.2534855939922451  0.4166927388565895  0.7518597669573666
  0.1694353701550355  0.4961418439922483  0.8309501167635673
  0.0719139617248032  0.5742641826550354  0.9320464757751949
  0.0179309874030977  0.6670298037790729  0.0061271375968985
  0.9192547044573658  0.7457381400193768  0.1026309811046531
  0.8257915523255832  0.8355237165697673  0.1626940377907005
  0.7570654830426378  0.9162678275193770  0.2603273294573611
  0.6719392616279052  0.0108847737403082  0.3217539714147293
  0.5733101763565855  0.0847735547480610  0.4301493502906979
  0.4898727475775217  0.1631929103682168  0.4883026332364366
  0.4043640978682177  0.2315536632751929  0.5848040469961262
  0.4256847068798422  0.2530661627906952  0.7494532209302349
  0.3290831792635629  0.3406309985465086  0.8233318401162819
  0.2428649234496092  0.4301567383720908  0.9070996942829481
  0.1695631792635623  0.5034315910852740  0.0035031763565883
  0.0882088333333328  0.5854506933139518  0.0878718071705435
  0.0044310562015539  0.6731155101744193  0.1638838968023251
  0.8928806647286791  0.7599981031976739  0.2494516201550354
  0.8113964447674391  0.8185841695736400  0.3518946724806185
  0.7544090523255846  0.9205335392441896  0.4171802286821702
  0.6685357882751930  0.0102275629844968  0.5093968531976714
  0.5864109147286811  0.0837692233527108  0.5780986642441874
  0.4907176550387575  0.1472179069767421  0.6609765116279078
  0.5028445939922506  0.1594480397286802  0.8211534467054236
  0.4241325382751953  0.2555007485465097  0.9190298352713171
  0.3403329069767409  0.3358932097868248  0.9878147664728658
  0.2552371317829483  0.4104299462209298  0.0676566715116280
  0.1700002243217043  0.4950417906976767  0.1678069593023253
  0.0886638720930222  0.5886517795542616  0.2511250348837208
  0.9884333827519356  0.6682831046511595  0.3322813730620169
  0.9040779757751949  0.7322487422480606  0.4253251608527151
  0.8218691569767458  0.8190686913759677  0.4914681850775224
  0.7704923938953456  0.9118151031976751  0.5668974021317865
  0.6817751303294557  0.9912844593023280  0.6602299491279098
  0.5893823706395338  0.0835681632751957  0.7287319268410855
  0.5752016666666648  0.0840835377906970  0.9209755164728648
  0.5030487577519409  0.1736361603682184  0.0100812136627937
  0.4106461424418626  0.2628578638565884  0.0837014665697708
  0.3405416288759682  0.3454276656976774  0.1627367451550370
  0.2478709113372091  0.4189765712209308  0.2571076138565900
  0.1578299190891457  0.4959576395348861  0.3427120222868183
  0.0670843546511648  0.5846991099806189  0.4192083769379877
  0.0076778880813961  0.6733552718023219  0.4907724854651150
  0.9117613842054269  0.7406946744186058  0.5852309089147312
  0.8221059583333314  0.8201569907945725  0.6618009781976752
  0.7540794316860442  0.9294433720930257  0.7459846409883752
  0.6541364040697673  0.0003886981589147  0.8367382645348869
  0.6651660285852685  0.0092706031976775  0.0194794626938020
  0.5930461952519366  0.0870778105620147  0.0933018231589173
  0.4876095140503907  0.1670193260658905  0.1712863522286838
  0.4142845513565874  0.2464673023255841  0.2498751468023244
  0.3315045426356562  0.3341479404069787  0.3291889820736458
  0.2596768323643417  0.4207630382751972  0.4169561647286812
  0.1605305062984499  0.4856896187015494  0.5084068352713160
  0.0595032504844966  0.5700964253875966  0.5829402843992213
  0.9835750784883714  0.6678874893410836  0.6850214651162787
  0.9278487722868221  0.7573391443798414  0.7537991690891488
  0.8293566855620185  0.8376157940891460  0.8343915300387579
  0.7563050096899246  0.9341921860465092  0.9187423231589165
  0.7522934636627880  0.9272263178294580  0.0911043037790691
  0.6846503352713142  0.0216722097868214  0.1883631627907008
  0.5634387025193774  0.0841076046511660  0.2520145513565879
  0.4973082538759712  0.1598870406976758  0.3374395411821709
  0.4151281201550390  0.2504474515503858  0.4122835949612380
  0.3280654593023229  0.3323284447674411  0.5121953716085272
  0.2385886492248090  0.4185605193798452  0.5881031661821723
  0.1594492073643394  0.5024323124999981  0.6813485455426331
  0.0678776555232545  0.5747435329457389  0.7449250591085246
  0.9987196753875978  0.6748694195736462  0.8404090731589164
  0.9245525387596913  0.7601049069767427  0.9192874268410876
  0.8448567873061990  0.8533025872092992  0.9982536889534899
  0.4172426283914703  0.4256323139534857  0.5742744970930218
  0.3393227093023228  0.4953715343992258  0.6627035828488346
  0.2552998890503844  0.5841887252906943  0.7559733798449599
  0.1345389055232573  0.6609431288759708  0.8368899045542619
  0.0866511700581398  0.7740008081395331  0.9211702054263569
  0.9934925581395362  0.8532575833333311  0.0270951879844930
  0.9126705557170567  0.9197530227713173  0.0984771332364360
  0.8363427882751964  0.9953630615310090  0.1796148662790671
  0.7604466477713174  0.0992207088178318  0.2431880910852726
  0.6755803982558106  0.1540761472868226  0.3260001293604660
  0.5939602742248056  0.2435252868217077  0.4054060581395333
  0.4938925397286837  0.3345781937984498  0.5020563706395365
  0.4904495290697639  0.3359176623062012  0.6512077994186072
  0.4318544268410847  0.4165466991279061  0.7518772771317828
  0.3439822214147270  0.5070945600775190  0.8168515314922473
  0.2567979263565903  0.5839218648255837  0.9117759752906949
  0.1653169796511662  0.6715206700581362  0.9884139069767457
  0.0888569350775228  0.7559125009689893  0.0941222955426326
  0.0003068667635659  0.8284091681201531  0.1777917194767440
  0.9058048415697684  0.8956168783914720  0.2586865993217060
  0.8412350784883742  0.9889863779069756  0.3309900910852690
  0.7471539244186047  0.0842087577519379  0.4012392432170557
  0.6642927756782910  0.1680494830426369  0.5114907892441849
  0.5810302480620138  0.2453734326550361  0.5928813367248082
  0.5782593725775200  0.2489565416666650  0.7289342223837210
  0.5003041666666661  0.3368350077519366  0.8230687989341092
  0.4205690823643380  0.4226517645348835  0.9173790353682136
  0.3378191070736420  0.5133191434108539  0.9973962335271338
  0.2549534152131798  0.5914741448643426  0.0805052446705403
  0.1746056167635643  0.6711609820736442  0.1716987659883742
  0.0821085600775220  0.7642005523255833  0.2603511967054288
  0.9985318037790663  0.8283106264534865  0.3316565203488366
  0.9100325954457347  0.9006823512596895  0.4113134331395329
  0.8429470872093034  0.9900630828488346  0.4960976366279084
  0.7694696564922481  0.0851745092054230  0.5782519457364330
  0.6710696632751905  0.1618229302325602  0.6586118846899254
  0.6686732572674430  0.1801999229651159  0.8339362611434140
  0.5804984287790731  0.2686980474806191  0.9172007490310108
  0.5063237286821689  0.3297897659883731  0.9960303439922455
  0.4209550179263530  0.4217351661821738  0.0585850281007723
  0.3260578643410881  0.4884478716085283  0.1582753779069748
  0.2400278531976738  0.5762134786821704  0.2599139573643399
  0.1591881899224816  0.6786680901162825  0.3148818972868241
  0.0781274970930212  0.7590851283914759  0.4199043226744195
  0.9881222243217067  0.8284149583333331  0.5104785179263587
  0.9043805305232553  0.9022785770348847  0.5791688672480646
  0.8346935339147308  0.9998621259689955  0.6572994995155028
  0.7527176913759703  0.0871858134689916  0.7568654113372091
  0.7501400314922506  0.0918300746124032  0.9174819496124016
  0.6553028561046546  0.1748244331395341  0.0081073367248052
  0.5787405678294562  0.2613381855620176  0.1036182441860447
  0.4883840135658915  0.3321312073643412  0.1750385712209308
  0.4189444152131756  0.4061258682170532  0.2556529723837215
  0.3308612277131786  0.4886777911821696  0.3289381487403134
  0.2337493042635685  0.5744918124999998  0.4178098900193774
  0.1609089370155061  0.6775746007751948  0.4907036579457369
  0.0751938657945743  0.7367538512596923  0.6019833745155054
  0.9963061182170563  0.8398951826550416  0.6666962553294553
  0.9147087175387583  0.9167623498061985  0.7287905029069748
  0.8259690876937995  0.0054972383720937  0.8352706855620156
  0.8338361477713150  0.0126729578488352  0.0037904118217043
  0.7547912059108555  0.0903325121124041  0.0813506487403117
  0.6658978745155011  0.1812512766472878  0.1758001652131753
  0.5781032558139501  0.2536176647286794  0.2535514825581373
  0.5010230833333367  0.3354107524224830  0.3326987916666653
  0.4094296560077524  0.4100733633720921  0.4162374554263550
  0.3156596380813923  0.5025388556201520  0.4902180547480626
  0.2447134442829437  0.5947977015503909  0.5820701923449576
  0.1444221492248090  0.6548808866279074  0.6661708323643438
  0.0727607267441854  0.7580481753876001  0.7536460169573616
  0.9923793459302317  0.8443757999030979  0.8372512185077525
  0.9169765285852733  0.9277229360465142  0.9120658217054256
 
  0.00000000E+00  0.00000000E+00  0.00000000E+00
  0.00000000E+00  0.00000000E+00  0.00000000E+00
  0.00000000E+00  0.00000000E+00  0.00000000E+00
  0.00000000E+00  0.00000000E+00  0.00000000E+00
  0.00000000E+00  0.00000000E+00  0.00000000E+00
  0.00000000E+00  0.00000000E+00  0.00000000E+00
  0.00000000E+00  0.00000000E+00  0.00000000E+00
  0.00000000E+00  0.00000000E+00  0.00000000E+00
  0.00000000E+00  0.00000000E+00  0.00000000E+00
  0.00000000E+00  0.00000000E+00  0.00000000E+00
  0.00000000E+00  0.00000000E+00  0.00000000E+00
  0.00000000E+00  0.00000000E+00  0.00000000E+00
  0.00000000E+00  0.00000000E+00  0.00000000E+00
  0.00000000E+00  0.00000000E+00  0.00000000E+00
  0.00000000E+00  0.00000000E+00  0.00000000E+00
  0.00000000E+00  0.00000000E+00  0.00000000E+00
  0.00000000E+00  0.00000000E+00  0.00000000E+00
  0.00000000E+00  0.00000000E+00  0.00000000E+00
  0.00000000E+00  0.00000000E+00  0.00000000E+00
  0.00000000E+00  0.00000000E+00  0.00000000E+00
  0.00000000E+00  0.00000000E+00  0.00000000E+00
  0.00000000E+00  0.00000000E+00  0.00000000E+00
  0.00000000E+00  0.00000000E+00  0.00000000E+00
  0.00000000E+00  0.00000000E+00  0.00000000E+00
  0.00000000E+00  0.00000000E+00  0.00000000E+00
  0.00000000E+00  0.00000000E+00  0.00000000E+00
  0.00000000E+00  0.00000000E+00  0.00000000E+00
  0.00000000E+00  0.00000000E+00  0.00000000E+00
  0.00000000E+00  0.00000000E+00  0.00000000E+00
  0.00000000E+00  0.00000000E+00  0.00000000E+00
  0.00000000E+00  0.00000000E+00  0.00000000E+00
  0.00000000E+00  0.00000000E+00  0.00000000E+00
  0.00000000E+00  0.00000000E+00  0.00000000E+00
  0.00000000E+00  0.00000000E+00  0.00000000E+00
  0.00000000E+00  0.00000000E+00  0.00000000E+00
  0.00000000E+00  0.00000000E+00  0.00000000E+00
  0.00000000E+00  0.00000000E+00  0.00000000E+00
  0.00000000E+00  0.00000000E+00  0.00000000E+00
  0.00000000E+00  0.00000000E+00  0.00000000E+00
  0.00000000E+00  0.00000000E+00  0.00000000E+00
  0.00000000E+00  0.00000000E+00  0.00000000E+00
  0.00000000E+00  0.00000000E+00  0.00000000E+00
  0.00000000E+00  0.00000000E+00  0.00000000E+00
  0.00000000E+00  0.00000000E+00  0.00000000E+00
  0.00000000E+00  0.00000000E+00  0.00000000E+00
  0.00000000E+00  0.00000000E+00  0.00000000E+00
  0.00000000E+00  0.00000000E+00  0.00000000E+00
  0.00000000E+00  0.00000000E+00  0.00000000E+00
  0.00000000E+00  0.00000000E+00  0.00000000E+00
  0.00000000E+00  0.00000000E+00  0.00000000E+00
  0.00000000E+00  0.00000000E+00  0.00000000E+00
  0.00000000E+00  0.00000000E+00  0.00000000E+00
  0.00000000E+00  0.00000000E+00  0.00000000E+00
  0.00000000E+00  0.00000000E+00  0.00000000E+00
  0.00000000E+00  0.00000000E+00  0.00000000E+00
  0.00000000E+00  0.00000000E+00  0.00000000E+00
  0.00000000E+00  0.00000000E+00  0.00000000E+00
  0.00000000E+00  0.00000000E+00  0.00000000E+00
  0.00000000E+00  0.00000000E+00  0.00000000E+00
  0.00000000E+00  0.00000000E+00  0.00000000E+00
  0.00000000E+00  0.00000000E+00  0.00000000E+00
  0.00000000E+00  0.00000000E+00  0.00000000E+00
  0.00000000E+00  0.00000000E+00  0.00000000E+00
  0.00000000E+00  0.00000000E+00  0.00000000E+00
  0.00000000E+00  0.00000000E+00  0.00000000E+00
  0.00000000E+00  0.00000000E+00  0.00000000E+00
  0.00000000E+00  0.00000000E+00  0.00000000E+00
  0.00000000E+00  0.00000000E+00  0.00000000E+00