Li 
 1.0000000000000000
    20.6400000000000006    0.0000000000000000    0.0000000000000000
     0.0000000000000000   20.6400000000000006    0.0000000000000000
     0.0000000000000000    0.0000000000000000   20.6400000000000006
 Li 
 432
Cartesian
  0.1863581200000000 -0.0386337300000000  0.0291325500000000
 19.0288158299999992  1.7223040000000001  1.9091216099999999
 17.2200995299999988  3.3807227800000001  3.2025912600000002
 15.4541320399999993  5.0713321899999997  5.1947017300000002
 13.6980839400000001  6.9575161599999999  6.8660226599999996
 12.0596995400000004  8.4631269000000007  8.6475711299999993
 10.5011853399999993 10.5089656599999994 10.3910418100000008
  8.7076759300000006 11.9409728099999999 12.1046892400000008
  7.1454459400000001 13.9927251899999998 13.5476466299999991
  4.8601413100000004 15.0609966899999996 15.4049610200000000
  3.4887581700000001 17.3010703600000006 17.0864252900000011
  1.7981063600000000 19.0114686000000006 19.0574458900000003
  1.8551553400000000 19.0802241499999994  1.8429900400000001
  0.1173027100000000 -0.2086251400000000  3.5198123099999998
 19.1963873199999995  1.7929633800000000  4.7070050999999999
 17.3489240100000011  3.5415690199999998  6.7978805099999997
 15.5077833399999996  5.0813819100000002  8.5936905400000008
 13.8732961800000005  6.8452266599999998 10.3184715199999992
 12.0317375900000005  8.4147996500000009 12.0738519699999998
 10.3740221100000003 10.3915072599999991 13.8098226799999999
  9.1280096600000000 12.3138301800000001 15.5509866199999998
  6.8727090700000000 14.0780454600000002 17.2420955400000011
  4.9070631400000000 15.5488382499999993 18.7647187899999999
  3.3987368600000001 17.3349233799999993  0.2599378200000000
  3.4256032500000000 17.3994507399999989  3.5118184299999999
  1.7655761299999999 19.3012741500000011  5.2842564799999998
 -0.3141843900000000  0.2073107400000000  6.6186760199999997
 18.7498506800000015  1.7640315000000000  8.4580642099999999
 17.2157824300000009  3.2686783600000000 10.1766161600000000
 15.4048840100000000  4.8504398499999999 11.9524912400000005
 13.6910483900000006  6.9551989900000004 13.4568346900000009
 12.2041185700000003  8.4727203099999997 15.6785598999999998
 10.2735077900000000 10.4601266099999997 17.1925241699999987
  8.5035782199999996 12.2132800100000001 19.0671027899999999
  6.8525611800000004 13.8901561999999998 20.4078931200000007
  5.3366633700000001 15.5647981600000005  1.6293727499999999
  4.9887186699999999 15.5125713199999993  5.3368924299999998
  3.4248949799999999 17.1501782899999995  7.0930110700000002
  1.2191593300000001 18.8694703699999984  8.8845677500000004
 -0.4065451800000000 -0.1750450200000000 10.4913365800000005
 18.6123960799999999  1.9623257199999999 11.8142205699999998
 16.9188615200000001  3.5578354100000000 13.8300564099999992
 15.4452399699999994  5.5364922999999999 15.3639112000000004
 14.0217090100000004  7.0222399700000002 17.3569707400000013
 11.9397026700000009  9.0301042000000002 19.0177426999999994
 10.1048338399999995 10.3944171599999997  0.0809591300000000
  8.5274401999999991 12.1842578300000000  1.8983502100000000
  6.5643786700000000 13.6118518399999999  3.4244611100000002
  6.7771914899999999 13.5194504999999996  6.7676236100000002
  5.2665787300000000 15.4656500799999996  8.7700753200000001
  3.0632318100000000 17.1096965700000005 10.2898786999999992
  1.6579852600000000 18.8702172600000004 12.1236450300000005
 -0.0000515200000000  0.2844863700000000 13.8295763899999997
 18.8647501800000015  1.7248745000000001 15.3637849499999994
 16.9157058999999990  3.2893301600000000 17.2022264000000007
 15.5737320700000001  5.3085608600000000 18.9276413599999991
 13.8668569300000009  7.0136084399999996 -0.3273971400000000
 11.6845219000000000  8.9615213800000006  1.5876044300000001
  9.6691727099999998 10.2802127300000006  3.8050898000000002
  8.4056230299999992 11.8113112099999995  4.9691494399999998
  8.4956011599999997 12.1278913399999997  8.5408407299999993
  7.0428846399999996 13.7694497800000004 10.3341052500000004
  4.8437743099999997 15.2536054599999993 12.0625590799999998
  3.2990758599999999 17.1116776000000002 13.9072230500000007
  1.6373495400000000 18.8128227300000006 15.5528332999999996
  0.0846786000000000 -0.0484673500000000 17.3124959999999994
 18.8278435900000005  1.7820153200000000 19.1737289900000007
 17.2656306199999996  3.4872178200000001 20.6623759599999985
 15.4829687699999994  5.0674723899999998  1.5806911500000000
 13.6253557599999997  6.6757116400000003  3.3154366600000000
 11.9045446500000001  8.4760498000000002  4.8919881099999998
 10.3879621199999992 10.2874095699999994  6.9266645000000002
  1.5459504799999999  1.9331794200000001 19.0253255199999991
  0.0804918800000000  3.5163144900000001 -0.1418988500000000
 19.1209530600000015  5.0588427300000003  1.8425065100000000
 17.1806632000000015  6.7436680600000001  3.6046450200000000
 15.3698112200000008  8.6667350800000005  5.3122815200000000
 13.7337994200000004 10.1937169200000000  6.7469033500000002
 12.0436218200000003 12.0583726599999999  8.5358836500000006
 10.0000878199999992 13.9856660200000000 10.2677812500000005
  8.7019744100000000 15.5831801399999996 11.7487453599999991
  6.6439589699999999 16.8985327800000000 13.8573655599999999
  5.5237185200000001 18.9757212300000013 15.5877697000000008
  3.1903153099999999  0.1029518100000000 17.2998882800000011
  3.1478849699999998  0.1299468600000000  0.1289426700000000
  1.6577501299999999  1.8360239899999999  1.8037763899999999
  0.2860200000000000  3.4326651300000002  3.4692362999999999
 19.4885404999999992  5.3588280900000003  4.9071858099999996
 17.0688733699999986  6.4073890499999999  6.7472447999999998
 15.1948232099999991  8.5365608099999992  8.7223745099999999
 13.4849512800000007 10.0406429100000008  9.9976148899999995
 12.2308546800000002 12.2118099400000002 12.0602747099999998
 10.4245348000000000 13.9262219700000003 13.6081063199999992
  8.5910047200000008 15.5880800900000001 15.5911731899999992
  7.0630620799999999 17.1016849999999998 17.1661311099999985
  5.2812657999999999 18.8893794600000007 18.8243949000000015
  5.2578167699999998 19.3341732200000003  1.8273852500000001
  4.0576280899999997  0.4909661000000000  3.4119682400000002
  1.8853951700000000  1.6010837800000000  5.0769517799999999
  0.1479091600000000  3.4785040500000002  7.1987595100000004
 19.2009222500000014  5.3243766299999997  8.7081210599999999
 16.8480916600000015  6.7781363199999998 10.1471117700000004
 15.3052758099999995  8.5439662300000006 11.6664402700000007
 14.0146413600000006 10.2497404900000006 13.4353703699999993
 12.0951106700000004 12.1336925600000001 15.4302754199999992
 10.2362645299999997 13.9953956500000007 17.3702379399999991
  8.7121310699999999 15.5377711800000000 19.0854966399999988
  6.8855338300000000 17.0816640900000003 20.5718626399999991
  6.9068094599999998 17.2436166799999988  3.4652776599999999
  5.1486342199999999 19.1258921599999994  5.1514281100000003
  3.2517066699999999 -0.0010203800000000  7.1590578400000000
  1.8459327299999999  1.3344403600000001  8.6194147700000006
  0.1421303200000000  3.3941726499999998 10.3959709300000007
 18.6835268499999998  5.0491671399999998 11.8848132100000008
 17.0801031399999985  6.7704637999999999 13.6282453300000004
 15.4199757200000001  8.6562603500000002 15.5290725300000005
 13.8609405599999995 10.6121684799999993 17.1568561399999986
 12.1088222699999992 12.4532039700000006 18.6650525800000011
 10.6423792400000004 13.8233425899999993 20.7879222900000009
  8.4126233100000007 15.5266343300000003  1.7289747200000001
  8.6035190099999994 15.4407459800000009  5.5042636500000004
  7.1439019699999999 17.3969086500000003  7.0228944200000001
  5.0574249800000004 18.8860558000000012  8.6082383300000007
  3.2642789400000001 -0.4985454500000000 10.3885382899999996
  1.8273942000000001  1.6890551300000001 11.9121728900000008
 -0.0277492800000000  3.3367345199999998 13.5036981100000002
 18.6521585999999999  4.7379800699999999 15.5387639400000008
 17.2663393999999997  6.8122900000000000 17.1307270900000006
 15.6981694500000000  8.7528101100000004 19.1859573400000016
 13.9024188399999993 10.3782539499999995 20.5578020799999983
 11.8383176900000002 11.7648533000000004  1.8351584299999999
 10.1957089399999994 13.7036637999999993  3.4855474100000001
 10.5912574500000005 13.6499390100000006  6.6482378300000002
  8.4074566500000003 15.5133150299999993  8.2610337099999995
  6.7385957599999999 17.1872374100000016 10.1481406900000000
  5.2825288099999996 18.6300667000000004 11.9944202600000001
  3.6611854199999998 -0.2992077500000000 14.0323175500000001
  1.5184022500000001  1.8547409100000001 15.5302247599999994
 -0.2948763000000000  3.4957653000000000 17.1047474500000014
 18.5522359100000003  4.7621716400000000 18.8315238600000008
 17.5408408300000005  6.8057861099999997 20.9352627799999986
 15.2433980899999995  8.4513032700000004  1.7923414000000000
 13.9695781399999994 10.2777942600000003  3.3083342600000001
 12.1000371399999995 11.8719057100000001  4.9525059400000000
  3.2873222000000002  3.3005849100000000 17.1466524000000007
  1.6017954999999999  5.0518898400000003 18.8328426200000010
 -0.0143799200000000  6.5148840100000003  0.0753999000000000
 19.0761160499999995  8.3190742800000006  1.6574795300000000
 16.8906112300000011 10.4602052400000005  3.4062917900000000
 15.4842734300000000 12.0700309099999998  5.0664442500000000
 13.7275478399999997 13.6954056099999999  6.6284070499999999
 12.2575473200000005 15.5467676899999994  8.3296789699999998
 10.2917368499999995 17.1009372000000006  9.9395561099999998
  8.4268081099999996 18.7928640800000011 11.8336176000000002
  7.0725374600000004 20.7157069500000013 13.8536528600000004
  5.1599148499999998  1.6789501099999999 15.6251662499999995
  5.0761999400000004  1.8412063200000000 19.2920018700000000
  3.6417808599999999  3.4690308900000000 -0.1377104200000000
  2.1839364799999998  5.2069633499999997  1.7516612199999999
  0.4658985400000000  6.8392115499999999  3.6652349499999999
 18.4276140700000006  8.5348550299999992  5.2995259499999996
 16.8066139099999994 10.5116378200000007  6.6575556200000001
 14.9964905900000005 11.8615010800000000  8.5529491600000007
 13.4214243399999997 13.8799492600000001 10.2635165900000001
 12.0728145500000004 15.5773165000000002 12.0719777500000003
 10.4768965200000004 16.8774136100000014 13.4621677700000006
  8.5483394500000003 18.4591603299999996 15.2939517600000006
  6.8810011400000004 20.6551634899999996 17.2902333800000001
  6.8623241100000003  0.0062257300000000 -0.0276294800000000
  5.2527056999999999  1.5737009200000001  1.3523348399999999
  4.0744631499999997  3.3636663900000001  3.5234146000000002
  2.1269285000000000  4.9541219900000000  5.3418145900000003
  0.1724404900000000  7.1035085300000000  6.8556778600000001
 18.6502081900000007  8.4137706399999992  8.5516063199999994
 17.2893464799999990 10.3879192699999994 10.1810751199999991
 15.2813057299999997 12.1272065199999997 11.6037279099999999
 14.1387840800000006 13.5053186200000006 13.6924487700000004
 12.1734076499999997 15.2052647600000004 15.2782532500000006
 10.5909027899999995 16.9863387999999986 17.0332581699999999
  8.8986507499999998 18.9528331399999992 18.7475614999999998
  8.6483232999999995 19.0164660800000007  1.6935050400000000
  6.8153606299999998  0.4875766200000000  3.4823898500000001
  5.5281617199999999  1.9222074099999999  5.2775067599999996
  3.5453626599999999  3.6079921700000002  7.0689441999999998
  1.7339410600000000  4.9896241699999999  8.3246552000000005
  0.4099175000000000  6.9249445900000000 10.5016223899999996
 18.6406761000000003  8.5213521300000004 11.8715428000000003
 17.2313778800000001 10.4207700899999995 13.5119768100000002
 15.9459854300000003 11.7967935199999996 15.6487956100000005
 13.8743311800000004 13.9770199799999997 16.9919023299999985
 12.4030301600000001 15.6638955499999994 18.9127273199999983
 10.4153142200000008 17.4699360599999984 20.5751243600000002
  9.9766749000000008 17.3132810799999994  3.4292391400000000
  8.5341596400000004 19.0219144000000000  4.8765759299999996
  6.6772866300000002 -0.0436617900000000  6.9096034000000000
  5.0621568899999998  1.3028494500000001  8.6355931199999993
  3.6511697000000001  3.4216444600000000 10.2616395499999999
  1.8523627199999999  5.1675960999999999 12.0722626099999992
 -0.4609556200000000  6.6922832300000001 13.5498308699999992
 18.7984744399999997  8.4472210099999998 15.5326994500000009
 17.3042720699999997 10.1939125900000001 17.4600013199999999
 15.6347133399999993 12.3234272600000008 18.8617268200000012
 13.6535353399999995 13.8850783300000007 20.7084727499999985
 11.9215475299999998 15.5612920300000006  1.7897729000000000
 11.8842448399999991 15.7053141400000005  5.0794522899999999
 10.1488019000000005 17.3095628200000000  7.0017534499999998
  8.7620558000000006 19.3802817599999990  8.7494033299999998
  6.9660566299999997 -0.0566822600000000 10.2158874399999995
  5.1292807399999996  1.2121983400000000 12.3214335800000008
  3.3016198999999999  3.2300189900000000 13.6863501200000002
  2.0041813600000000  5.2243826999999996 15.2448544199999994
  0.1114373100000000  6.4436937399999996 17.1587392899999998
 19.2737554700000011  8.6622530300000005 19.0130403500000007
 17.4875216599999987 10.5297962100000007 20.8632115300000009
 15.3812964500000007 12.0273799599999993  1.7266586600000000
 13.8696877599999997 13.7966891199999999  3.3138178200000001
  5.3158408300000000  5.1510582200000004 15.3016362899999994
  3.3481411500000000  7.2209050299999999 16.8034294600000003
  1.7756891900000000  8.3298648199999992 19.0377911900000001
 -0.0899157000000000 10.1889745800000000  0.1456719000000000
 19.2014195600000015 11.8360884599999991  1.9901155200000000
 17.0794985799999992 13.4615948299999992  3.6392315900000001
 15.5866170799999999 15.5011661699999994  4.9192862200000000
 13.7955660499999997 17.0805825800000015  6.8844642399999998
 12.2222404600000001 19.1300163599999991  8.5083914099999998
 10.2183492200000003  0.1276741100000000 10.7646489100000000
  8.5948325200000006  1.6915283100000000 11.9090971700000008
  7.0655210600000000  2.9737959900000002 13.8496506999999998
  7.0768915500000000  3.6987665100000000 17.2733650099999991
  4.9271362600000002  5.0858397599999998 18.8571852900000003
  3.3105332700000001  6.5961309999999997  0.1084417300000000
  2.1022314199999999  8.3320358500000005  1.5894031500000001
  0.0329464500000000 10.1954153900000009  3.4522382999999999
 18.8768666100000004 11.9354862900000001  5.0459342100000004
 16.9881803500000004 13.7270184400000002  6.9140042099999999
 15.0344501600000005 15.1264276199999994  8.5237099099999991
 13.7611782799999993 17.1528034500000004 10.4089400300000001
 11.9083487600000009 18.7963032500000011 11.8230518799999995
 10.3801641799999995 20.5717092500000014 13.8517116900000001
  8.5987214000000005  1.4536277200000001 15.7423000300000009
  8.7658342099999995  1.6127197600000001 19.1099740999999987
  7.0581146500000003  3.7600052100000001 -0.1798445000000000
  5.1809694400000001  5.0634269800000000  1.4793329300000000
  3.9537936600000001  6.7426704199999996  3.4145034600000002
  1.8636957000000001  8.3636761400000008  5.0618582200000004
 -0.3061967700000000 10.1604518600000002  6.9564171999999997
 18.8438910399999990 11.9240888700000003  8.2475149600000002
 17.0720281900000010 13.6017420799999993 10.1801680500000007
 15.3155621300000000 15.4011327799999993 11.5778963899999994
 14.0170674200000001 17.1918430700000009 13.6542568600000003
 12.3684042600000001 18.6626648499999988 15.3674499299999994
 10.3622758600000004 -0.0185771500000000 17.2703266699999993
 10.5355229200000000  0.0066009300000000  0.3631869100000000
  8.6019801099999995  1.9604709899999999  1.7385642100000001
  7.0140736099999996  3.7267855200000000  3.3402551599999999
  5.7854991599999996  5.3339839400000004  5.4052370500000002
  3.7689105199999999  6.7927417999999999  7.0480447200000000
  1.8121415999999999  8.5258470899999992  8.5273557899999997
 -0.1072555300000000 10.2047862400000007 10.1735145399999993
 19.1016657400000014 11.8004261300000000 11.9585976800000005
 17.2897582400000012 13.6990981900000008 13.6405319400000007
 15.6893728100000001 15.5125519900000004 15.4389765000000008
 14.0517683299999998 17.4152895200000017 17.3240856699999988
 11.9791617099999996 19.0024518600000007 19.2274229299999995
 12.4322723800000006 18.9049610900000005  2.0693085400000002
 10.3953981399999993  0.2714400400000000  3.3223564900000002
  8.2096641100000003  1.5232733500000000  5.1916722200000001
  7.1671335899999997  3.2708323699999999  7.2233458400000004
  5.1606535300000003  5.3577634600000001  8.9283757399999999
  3.6096045999999999  6.8835191499999997 10.0212268800000004
  1.2308756300000001  8.4014026899999994 12.1548189400000002
 -0.2379066900000000 10.2204220899999996 13.7202626700000003
 19.0097736499999996 12.0813921600000000 15.5208090399999996
 17.4809153299999984 13.7527399100000007 17.2760289000000000
 15.7975678800000008 15.5930055700000008 19.2004791600000004
 13.7976093800000008 17.4702099100000012  0.0570668000000000
 13.9629456899999997 17.1716427600000010  3.5980196100000001
 12.1165756400000006 18.9943996499999983  5.1382832599999997
 10.1666279999999993 -0.0052663700000000  6.8653266400000001
  8.5341915099999994  1.4927668199999999  8.7152936499999996
  6.7576520100000002  3.0871280099999998 10.4899397899999993
  5.4075594000000002  4.8428017399999996 12.2148752599999995
  3.4428271700000002  6.6139076499999998 13.8166863099999997
  1.4436944899999999  8.4420970700000009 15.1761763100000007
  0.3583655700000000 10.0678147300000003 17.5147171899999989
 19.0376931999999996 11.9657374799999996 19.0212256900000014
 17.4162642299999995 13.8751712000000005  0.3098564700000000
 15.7294415700000005 15.6990959599999993  1.5146620399999999
  7.0446481500000004  7.1687801699999998 13.7756576200000005
  5.2319426599999996  8.6005381300000003 15.5183855899999994
  3.4971460400000001 10.2403676600000004 17.1508104099999983
  1.4843041699999999 11.8528127300000001 19.2374392599999986
  0.3700955800000000 13.7674951500000002  0.1264641200000000
 18.9734170999999989 15.3920352099999995  2.1183034500000000
 17.0443376399999984 17.2452095099999987  3.3580049399999998
 15.6258315700000008 18.9117679599999988  5.3731560800000002
 13.8688263599999999  0.2246617300000000  6.6410019699999996
 11.8331220399999992  1.7497261700000000  8.8782825899999995
 10.1109735100000009  3.3683016700000001 10.0785663499999991
  8.3460749799999991  4.7792676099999998 12.0703555300000005
  8.7861323500000008  5.2232855999999996 15.4687144799999992
  6.7922768199999997  7.0306238099999998 16.9935691800000015
  5.0127320199999996  8.8784350799999991 18.7225376899999993
  3.4997840199999999 10.3908280400000006  0.0723055600000000
  1.8206303200000000 12.0837023099999996  1.8136741000000001
  0.0914570000000000 13.8931041299999993  3.3825636299999999
 18.4290569200000007 15.6863608499999998  5.1486814399999998
 16.7472226199999987 16.8955772599999996  7.2631060400000003
 15.5710028400000002 18.9998122500000015  8.6105999200000003
 13.7985786699999995  0.2110969000000000 10.5139510499999993
 12.1035212800000007  1.7289967700000000 11.9319564299999996
 10.1284124000000002  3.0385776000000000 13.6425552000000003
 10.3787124199999994  3.2910075399999998 16.9486071400000000
  8.7540955900000004  5.2735354499999998 18.9687757999999995
  7.0244711999999998  6.9328358500000000 -0.2515032200000000
  5.2680943999999998  8.4712740899999996  1.3964337000000000
  3.5088046300000002 10.2176625600000008  3.4635356399999999
  1.8300223200000001 12.1497727300000005  5.1832207199999996
 -0.2387349800000000 13.7933632799999994  6.8582875400000001
 18.6601694199999990 15.1136140399999999  8.7787113199999993
 16.9633794000000009 16.9055777899999988 10.1439033399999996
 15.9029630100000006 18.8198637300000016 11.7007623800000005
 14.0718386899999999 -0.1798887600000000 13.6271461499999997
 12.1648521299999999  1.7248468900000000 15.0410269700000008
 11.8721624000000006  1.7354842200000000 19.0089346600000013
 10.3829263600000008  3.5838503500000001  0.2080762500000000
  8.4757363800000007  5.4253863100000004  1.7275982700000001
  7.0287792199999997  7.1296270200000000  3.3588864200000002
  5.1160556100000001  8.6476764300000006  5.3067011500000003
  3.2576095299999999 10.2365656800000000  7.0735761400000001
  1.3846210800000001 12.0681896299999991  8.6524608999999995
  0.1584716100000000 13.8980528099999994 10.1295441000000004
 18.8187549700000005 15.2879380800000000 12.0791659599999992
 16.9682669799999992 16.9280402899999984 13.6595721900000004
 15.5641994700000001 19.1837112000000012 15.3971229899999997
 13.5013753800000007  0.0080227300000000 17.2702777800000007
 13.7290268300000005  0.1913452500000000  0.4020561100000000
 12.2404734699999995  1.7972860100000001  1.9257496300000001
 10.0642603699999995  3.4472788900000002  3.5353503100000001
  8.5508331399999999  5.0870851200000002  5.1574230300000004
  6.8422537600000002  6.8968134900000004  6.7944605899999999
  5.3597298200000001  8.6845491100000007  8.6059752399999994
  3.3133496500000001 10.0246337299999997 10.4935170800000002
  1.2281470900000000 11.7667902200000007 12.0318874699999991
 -0.3390103800000000 13.7851977800000007 14.1388430399999994
 19.1507986599999995 15.6314799400000002 15.5584148500000001
 17.1179219899999993 17.2883899899999989 17.2218411799999984
 15.6101354000000008 19.2817267200000018 18.9628415500000003
 15.5273370899999996 19.1379511999999998  1.8803928299999999
 14.1311829200000005  0.4473144100000000  3.8878156800000001
 11.6293748200000007  1.7359809600000000  5.2015803399999996
 10.2644423600000003  3.3000685199999999  6.9647521299999999
  8.5682443999999993  5.1692353999999998  8.5095334000000005
  6.7712710800000000  6.8592591000000001 10.5717124699999996
  4.9244697200000003  8.6390891199999995 12.1384493500000001
  3.2910316399999999 10.3702029299999996 14.0630339800000002
  1.4009948100000000 11.8627065199999997 15.3752532199999994
 -0.0264259000000000 13.9293048200000005 17.3460432699999991
 19.0827643999999985 15.6885652800000006 18.9740924900000003
 17.4378440899999987 17.6121653999999985 -0.0360438600000000
  8.6118878500000005  8.7850509599999995 11.8530256200000004
  7.0036207199999998 10.2244684699999997 13.6782019500000001
  5.2693897099999996 12.0576552899999996 15.6032905599999996
  2.7768830100000002 13.6418661799999992 17.2734076300000012
  1.7884801500000000 15.9753766800000001 19.0129530399999993
 -0.1343136000000000 17.6112365199999985  0.5592446800000000
 18.8375202699999988 18.9837023900000013  2.0325680300000002
 17.2621151499999996 20.5442935899999988  3.7072508399999999
 15.6956188099999991  2.0479154300000002  5.0194022000000000
 13.9439794199999998  3.1801316800000001  6.7286426700000002
 12.2593400599999995  5.0263619200000003  8.3675810399999992
 10.1939420199999997  6.9056939200000000 10.3624434900000004
 10.1228782800000001  6.9333405499999996 13.4409289800000007
  8.9134753700000005  8.5975238699999998 15.5187469999999994
  7.0997930499999997 10.4664317199999992 16.8598156099999983
  5.3003092000000001 12.0521472900000006 18.8190561299999999
  3.4121424600000001 13.8601866299999994 -0.2391369600000000
  1.8340071400000000 15.6020340199999996  1.9426841800000001
  0.0063337300000000 17.0983652299999989  3.6696210900000001
 18.6958119300000014 18.4855323700000014  5.3392914100000004
 17.3630920199999998 20.4126788400000017  6.8316354800000001
 15.4212570000000007  1.7380687600000000  8.2815779799999998
 13.7110028899999996  3.4685413299999999 10.5571698900000008
 11.9924643199999998  5.0645076500000004 12.2370707900000006
 11.9352734500000004  5.1384630199999997 15.0452023500000003
 10.3262780000000003  6.9522745600000002 16.9881400099999986
  8.6805458600000005  8.7235324199999997 18.9347032900000016
  6.9725863700000001 10.5949071200000002 -0.0537417400000000
  5.2622384899999997 12.2080263500000008  1.6616282499999999
  3.6038599300000000 13.8527626700000006  3.5438625300000002
  1.6947206800000001 15.7730993999999995  5.3736487000000004
 -0.0303035700000000 17.0963313300000017  6.8453905800000001
 18.7830727700000004 18.5900837299999999  8.4895092600000002
 17.3984278799999998 -0.2050979700000000 10.2394552200000000
 15.8818537099999997  1.7580018700000000 11.9351201600000003
 13.8508778499999998  3.3400252799999999 13.5937493000000007
 13.8014160300000004  3.7193264099999999 17.2124444300000015
 11.9814875700000005  5.5459277000000000 18.9310234599999987
 10.4505217600000009  6.8068607700000001 -0.0819337000000000
  8.6885115699999993  8.7046138299999996  1.2091949799999999
  6.7298343200000001 10.0815640700000007  3.2668037999999999
  4.9541748900000000 11.8930462000000006  5.3646240799999996
  3.2856442399999999 14.0077093799999997  6.4991623599999997
  1.6125515399999999 15.6675170500000007  8.6668252199999998
 -0.2451572900000000 17.0984847400000000 10.5362766099999998
 18.6664141500000014 18.6230298300000001 11.9540454199999999
 17.2280745400000015 20.6371542800000007 13.5666616700000002
 15.5360931499999992  1.7995151899999999 15.6217020899999994
 15.4828902500000005  1.8953727400000000 18.9368274399999983
 13.5254509499999998  3.6083763000000002  0.1673354300000000
 11.9452053199999995  5.3940201500000002  2.1386805600000001
 10.0802460400000005  6.8551881200000002  3.6127961100000001
  8.6470127300000001  8.3824379199999992  5.2766773499999999
  6.8289757399999997 10.0863096100000007  6.7892833899999996
  4.8245856399999996 11.8575110099999996  8.6235961299999992
  3.3211604600000002 13.9851397599999991 10.1281234999999992
  1.5520013900000000 15.2065994900000003 12.4249368499999999
 -0.0762417200000000 17.3354365699999988 13.7606107099999999
 18.8795879299999996 18.9219748999999986 15.0422359799999992
 17.0480019700000014 20.7534630000000000 17.2399869499999987
 17.2103780899999990  0.2615698500000000  0.0782341000000000
 15.5788904899999991  1.8644630499999999  1.6790773900000000
 13.7441321300000006  3.7410263499999998  3.6285154099999999
 11.9320512000000001  5.2346686000000000  5.2333026000000000
 10.3411164400000004  6.9228779300000003  6.8669030600000003
  8.4506280999999994  8.4639142199999995  8.5911410799999999
  6.5152149300000000 10.3724019799999994 10.1181006500000006
  5.0508854899999998 12.2766245600000001 12.0139287699999997
  2.9808731599999998 13.5167415000000002 13.7497659799999994
  1.5017814000000000 15.6461143400000005 15.5552537900000001
 -0.1572903000000000 17.4279165099999993 17.2808651500000003
 18.9263955499999987 19.1482014000000014 18.8250385599999994
