Li                                      
   1.00000000000000     
   -11.0705700000000018   19.1747897087477881    0.0000000000000013
   -18.9781199999999970  -10.9570226907130195    0.0000000000000076
     0.0000000000000001    0.0000000000000001   23.2203000000000017
   Li
   504
Direct
  0.0206576100046121  0.9865119981542563  0.0103741295332114
  0.9469033589300295  0.0346126345354492  0.6697252374000300
  0.8425840392570692  0.0767676720624522  0.3158339211810386
  0.7749264433054748  0.1198199170695418  0.0046476087733609
  0.7062130305455980  0.1879567286134147  0.6533749934324717
  0.6387346494709689  0.2126086646941943  0.3400488219359801
  0.5705565089558959  0.2465807265760844  0.9840290504429348
  0.5005196322008985  0.2927874581542156  0.6710476548537301
  0.4060358115121261  0.3309389468581827  0.3089615211689747
  0.3651858352544579  0.3743212413983628  0.0136282201349687
  0.2991359181920998  0.4179882468937990  0.6520517852913201
  0.2038137954690811  0.4637337597345734  0.3271348845622128
  0.0815439855057178  0.0613325730040657  0.6692388147439985
  0.9742994051868763  0.0794899201775721  0.3427288876543386
  0.9219259120102095  0.1145775248695386  0.9950682178955503
  0.8645402358191987  0.1610515425946843  0.6774109589454085
  0.7612939640296261  0.2196718373912958  0.3293959307157976
  0.7003215843648078  0.2447443876305186  0.0038270556366626
  0.6421442199789453  0.3182517869329331  0.6661977368940128
  0.5600025427284763  0.3344049927256449  0.3416333828589657
  0.4923376026189672  0.3681834089243097  0.0005142517538559
  0.4708477567371361  0.4262749144645852  0.6723374301796241
  0.3425687563862354  0.4614578336849604  0.3209164571517178
  0.2841843536701774  0.5029097571197525  0.0025630125364415
  0.1390685114360508  0.0735819158774120  0.3435481160880798
  0.0811014221597688  0.1461177602881989  0.9992562314009703
  0.0038302152444629  0.1840658734385201  0.6812243890044485
  0.9104511129737745  0.2146073379368403  0.3316309298329472
  0.8343417499004460  0.2418752396867845  0.9956729361808385
  0.7924950765800602  0.2782564885281076  0.6630851780554110
  0.7155215808052375  0.3269012764797026  0.3296137336726943
  0.6371495789146238  0.3877263156811708  0.9902275965426810
  0.5977823667076265  0.4289749629888249  0.6547060490174559
  0.4992473566916615  0.4589238107056985  0.3101829334677006
  0.4392205688064834  0.5079591317574170  0.9994274453818406
  0.3803865368860784  0.5436670664083252  0.6744005663148158
  0.2163369549561978  0.1171371113983142  0.0264389417880011
  0.1590683094732839  0.1757873701501680  0.6757925526371338
  0.0310566570560411  0.2087855590593293  0.3489067531427210
  0.9970378857982993  0.2368767060498058  0.0118162189980353
  0.9377006331510174  0.3036109346793765  0.6749611986063897
  0.8509237127847129  0.3307051142556219  0.3439168865173983
  0.7760906454729195  0.3725721326952751  0.9905607408173012
  0.7154214037837647  0.4304672759953831  0.6647668643385316
  0.6382769301523936  0.4681159495968430  0.3414149545871510
  0.5574729606456259  0.5138654411535697  0.0043899200268740
  0.5038951455712635  0.5494555703248309  0.6693318665133532
  0.4232912904678798  0.5725532681047980  0.3124531173154494
  0.2979825883376037  0.1693014654258391  0.6885914260367016
  0.1897757397697362  0.2095717994499608  0.3424080528675333
  0.1431541435011567  0.2345152182397641  0.0003853770192492
  0.0925209691636084  0.2804872002288121  0.6634715873610588
  0.0106757104555086  0.3595717452573055  0.3281908463714913
  0.9239716767840847  0.3537082927152113  0.9799982821066067
  0.8461252946332891  0.4105590878860284  0.6931718621206429
  0.7906969949912011  0.4513332984595024  0.3639820282253012
  0.7051882261913036  0.5142613008439909  0.0170441656653892
  0.6394842655801583  0.5486237543021275  0.6665695606861206
  0.5766814449520936  0.5783247205706772  0.3395960095261472
  0.5117676804170941  0.6393517645691418  0.9914865208459815
  0.3025291310264393  0.2255928821154356  0.3255757612950703
  0.2781345081750501  0.2473023997020007  0.0115513783198296
  0.2192243969050978  0.2871024162748697  0.6926400115416271
  0.1553179941221075  0.3169090238554517  0.3481175415476940
  0.0759382343140302  0.3546708757953922  0.0133870346205711
  0.0022706601686835  0.4116722413841032  0.6799408719956261
  0.9422626556249654  0.4679744486028099  0.3311652541095498
  0.8351490766403487  0.4869664680493955  0.9917350413216042
  0.8021007850785438  0.5529028587517075  0.6884295082320193
  0.7241292193133049  0.5975089718342375  0.3449135846651430
  0.6436050352822846  0.6443833727763888  0.9889392268833745
  0.5858157600174820  0.6466383557287685  0.6741714129447089
  0.4358945749585246  0.2469286070117320  0.0179560436342356
  0.3537647323417090  0.2985876502561808  0.6733094219282236
  0.2581062951755513  0.3415660219146304  0.3397929867400507
  0.2071825148750648  0.3748168631191930  0.9853487095343283
  0.1459399501923428  0.4219584640417011  0.6713607507224282
  0.0676610646276856  0.4637290246749757  0.3287484627674928
  0.0049716845683889  0.5085555175100467  0.0089451846014015
  0.9597422244980862  0.5520617680643909  0.6825314987317128
  0.8566357740276729  0.5907518426020317  0.3257329427268374
  0.7998025865982399  0.6283457596897435  0.0089855445450766
  0.7292848218762060  0.6585668379945915  0.6848904574876258
  0.6351949444875302  0.7077956643442391  0.3391370710111374
  0.1394528553303189  0.5096276719383042  0.0010518610870633
  0.0959026062094210  0.5443673427492399  0.6545060528933746
  0.9959920821297814  0.5736345678779813  0.3232091592270550
  0.9326909689086733  0.6220832332353652  0.9807402432354451
  0.8679559700712502  0.6670823962757311  0.6657605039555889
  0.7751515972394074  0.7185502806468378  0.3467848447263790
  0.7150091800202176  0.7565365848642287  0.9947872753581990
  0.2312980663413242  0.5563082832073860  0.6761239256168068
  0.1478982681909145  0.5842117253507553  0.3266795424693072
  0.0762344540477855  0.6480658200102098  0.9950144515790029
  0.0189125136917596  0.6892210826625274  0.6823752604402173
  0.9287182753100254  0.7054862516888392  0.3182919553149617
  0.8648717253388796  0.7599241238655452  0.9838886698276923
  0.8011072564966142  0.7935285618094028  0.6431895892817892
  0.2855153858982860  0.5772277261570693  0.3174000770877186
  0.2140158273743324  0.6215400493802647  0.0050227184833957
  0.1487361927766244  0.6863514698153921  0.6620812797422957
  0.0708998514879653  0.6999686017957956  0.3337012514911493
  0.9845341230373350  0.7652710628622117  0.0000524011317680
  0.9692610110842566  0.7907945164495231  0.6453531013811187
  0.8671969478010624  0.8391725179091480  0.3324099210604530
  0.3652493883157959  0.6193989045908026  0.0100799347984335
  0.2899891308763003  0.6661774204923745  0.6626123654733149
  0.1905804725741049  0.7107656563313611  0.3285268002566752
  0.1475008777889784  0.7594338478930283  0.9893264992269692
  0.0963458957972492  0.8067747024659937  0.6484854558295936
  0.9977865587627051  0.8246362377389573  0.3295925552210761
  0.9207515286425547  0.8783925804850838  0.9768595392824366
  0.4364369906172314  0.6469401128658987  0.6731556280495923
  0.3571151942159645  0.6972546919488636  0.3414175165695497
  0.2875967340541479  0.7641099678936669  0.0032588902813515
  0.2316879214964587  0.8188495265557876  0.6585850785734877
  0.1405067973109269  0.8391818855025477  0.3164802366894506
  0.0851703690878267  0.8883290197916054  0.9718701580082936
  0.0047234458554399  0.9221841210834469  0.6556202977567054
  0.9099357301221644  0.9398607098164362  0.3489017351197035
  0.8868790482952704  0.9933329715648256  0.9950105928863948
  0.7959538555071930  0.0505868028992182  0.6658988376549857
  0.7072095267742853  0.0887928740664705  0.3380709797031045
  0.6368713870549456  0.1312533896197934  0.9911990310202725
  0.5840348779426847  0.1848455026785558  0.6787663901844496
  0.4678884966179453  0.2188821751573045  0.3231092083220304
  0.0498837962695831  0.9575474816015443  0.3480744766432835
  0.1449129588189138  0.0357359277677674  0.0060326434197648
  0.2223328689510353  0.0569995358326736  0.6542454068207562
  0.2473482952173853  0.0840229998237589  0.3418519317149205
  0.3647179095609516  0.1182859509767979  0.0054251280129876
  0.4263968815187553  0.1749415155644982  0.6831081071304013
  0.8721208382829388  0.9031648061731090  0.6468424624143552
  0.7746559258126169  0.9699004030629297  0.3321057703819505
  0.7332569569614193  0.9937905862104159  0.0017770808301378
  0.6365359755215536  0.0512808468631434  0.6512818818017010
  0.5351872780198690  0.0947344840042987  0.3187605491746410
  0.4871719124907088  0.1103195501312939  0.9985846509304324
  0.1564967981346115  0.9261082057377052  0.6651199605517562
  0.2039378815976463  0.9326181611309039  0.3431913730658067
  0.2805152441596235  0.0014536099183573  0.0157713914118247
  0.3737245560800133  0.0515362765751988  0.6657503903911675
  0.3716792902602037  0.0867837894177157  0.3280669371196723
  0.8132470750432788  0.8779337030453007  0.9927818339986985
  0.7080063116626221  0.9262541746125095  0.6527051459283442
  0.6298709508654099  0.9689078079113145  0.3324933131785528
  0.5817022100023337  0.9930077428646484  0.9959450510975287
  0.5024629538495731  0.0460901652535455  0.6619779813352977
  0.2247076109095545  0.8964705278443290  0.9799910479192775
  0.2999878621644143  0.9378912860050690  0.6569134042195799
  0.3353359018000432  0.9393148339039641  0.3444362902288063
  0.4129274360950106  0.9844255750195288  0.0193871005111887
  0.6926411393368923  0.8516413239083320  0.3450764008216964
  0.6611898677048558  0.8847542726193467  0.0030077337502092
  0.5981075756325751  0.9213836368633608  0.6561011399508203
  0.4866309613870570  0.9558203524794493  0.3294876448624677
  0.2813121834278718  0.8263187761226547  0.3395582925285225
  0.3571188198473365  0.8739459159580960  0.9860765222671546
  0.4382391585579555  0.9113070629990290  0.6604019035068447
  0.6619133026340691  0.7877023245325887  0.6619235772147647
  0.5781030401619347  0.8279302937632664  0.3269839743672591
  0.5072144602446613  0.8936473619541445  0.0111356825708526
  0.3789174651838536  0.7785700415773320  0.6698174308686760
  0.4276737192933311  0.8207550623245510  0.3114824799851874
  0.5730778667313245  0.7757583507165151  0.9846316188851958
  0.5112465513694744  0.8002920144780248  0.6445477952481227
  0.4291201362599466  0.7632337477645166  0.9882808490846386
  0.5047522282967876  0.7053400417946776  0.3506733763129688
  0.9967794940111219  0.0201450906088354  0.7864712893459611
  0.9169836957193240  0.0454627480319729  0.4407456156897211
  0.8553656299454246  0.0763352501773156  0.1090393362704205
  0.7796334164397152  0.1365847285697939  0.7785553184067382
  0.7172777443810432  0.1637633143529271  0.4277155368363026
  0.6462061066205820  0.1868407477784615  0.1229694151238334
  0.5669317048747828  0.2514830687109324  0.7836882955861881
  0.4995041226761288  0.2925361634674744  0.4485112935664048
  0.4248030256286341  0.3212739722673490  0.1360433370800536
  0.3689167644966389  0.4016295378291659  0.7719909385322339
  0.2879507707199025  0.4150178139979843  0.4335056971701476
  0.1883105067677633  0.4328373702501622  0.0987757828279570
  0.0741691894177521  0.0312085463000287  0.4510448689293440
  0.0183811624373078  0.0629288725414554  0.0977691231379438
  0.9149521863191907  0.1346952276990763  0.7957460851065647
  0.8695052146023983  0.1552781817366053  0.4364353345994658
  0.7766077172844135  0.2038643797838091  0.1226711877107505
  0.7013426549935744  0.2353865759046627  0.7696399219648313
  0.6662198584852064  0.3057524850327340  0.4492735666636491
  0.5635719362865430  0.3389881858321218  0.1133974802220479
  0.5071637508248727  0.3824469354725721  0.7732778805614018
  0.4488074393704480  0.3944197937376686  0.4288300314810769
  0.3444576702752471  0.4605437629850044  0.1013257520359332
  0.2827211074815779  0.4912230652534433  0.7659428706778115
  0.1291055143923856  0.0858183363543432  0.1356544355585427
  0.0652465210924049  0.1482716059857410  0.7744356227094400
  0.0030866822694406  0.1595563231694399  0.4450351998036197
  0.9232209229760784  0.1876822865873322  0.1032168830721361
  0.8762049189884920  0.2483714509126074  0.7998374297489690
  0.7924127214129442  0.2839729946226228  0.4488140855199987
  0.6973073801778256  0.3411297012678176  0.1008711252653924
  0.6506670808174846  0.3737204841741146  0.7868608704452598
  0.5746878536002171  0.4303752272916910  0.4509437543873247
  0.4831925151146521  0.4760065031703462  0.1178586719379169
  0.4380418364479155  0.5147441852340933  0.7777589591865706
  0.3500254629163635  0.5136490991205633  0.4357783891680995
  0.2065582774848096  0.1459270523120821  0.7599022165949592
  0.1486552319952636  0.1643993065872777  0.4601463271361723
  0.0616694498777548  0.2001665100793346  0.1123309091613791
  0.0018831555757615  0.2567216233419174  0.7941083155687068
  0.9542411176610202  0.2952580234530870  0.4445647523933829
  0.8396894817863796  0.3306920197374765  0.1111114589389430
  0.7912964189041318  0.3470520511922430  0.7761461901870348
  0.7201623794331482  0.3966249632270618  0.4721501492228768
  0.6343324281132823  0.4598370266023153  0.1270197086170270
  0.5800212971106120  0.4923812974544433  0.7667485131544396
  0.4995326761671208  0.5335839272385527  0.4369973652364507
  0.4231826381972539  0.5795068537374917  0.1002813077350453
  0.2579511621652060  0.1596311369444763  0.4585543722518679
  0.2155409596213147  0.1932030063380878  0.1212194304121823
  0.1452372215181583  0.2464854328341133  0.7933656701248495
  0.0824851076674591  0.3093210445296961  0.4427549949828347
  0.9837272069056056  0.3215294868536489  0.0982367910836643
  0.9223512677882582  0.3906301491065136  0.7826121587576367
  0.8612061431083617  0.4230478334149481  0.4435051657385998
  0.7868580847562967  0.4427594778955708  0.1068242387049239
  0.7196740224909064  0.4918510403998297  0.7629644780644540
  0.6361826062959679  0.5235168780794979  0.4537769120123372
  0.5497895570259530  0.6059906589101161  0.0974370946973124
  0.5203895267811305  0.6312105786296343  0.7793292179687583
  0.3455809745606473  0.2170946927545074  0.1066860492758508
  0.2908026321477450  0.2527941263214757  0.8052117319759020
  0.2056583391686786  0.3026401203148339  0.4617624087544101
  0.1192242824412588  0.3173592381929424  0.0970760468211012
  0.0868936896481358  0.3527125493037246  0.7877700632636078
  0.9979496636699352  0.4129357160701659  0.4450663785566960
  0.9134181138160642  0.4494864834731445  0.1108309892637038
  0.8725942510055944  0.5086487398459383  0.7849369642080433
  0.7665054679777157  0.5563749634510700  0.4502995999190347
  0.7122670209027646  0.6026613139976149  0.1307374430993562
  0.6717574402026329  0.6252550792816152  0.7859107836677381
  0.5543342089404035  0.6688050879924177  0.4593274608855182
  0.4274851583408292  0.2475000500906717  0.8007457168942693
  0.3640935274586639  0.2892502153912986  0.4592628919522994
  0.2754802939608254  0.3290953936473215  0.1128007493443235
  0.2126784862597475  0.3842913808305255  0.7788404456445406
  0.1424405636238220  0.4242689154438395  0.4371777457655597
  0.0512411966230886  0.4491655277709441  0.1057429942765609
  0.0188727742657804  0.4948597606821181  0.7892092974681617
  0.9106215638277817  0.5428280627446327  0.4344813607059308
  0.8568011186017230  0.5807271884908189  0.1073323156892911
  0.8077167213988048  0.6234620982259571  0.7933690133202376
  0.6961709040935560  0.6710671507119272  0.4516016029078003
  0.6460406587436864  0.7139507761849870  0.1057949931740794
  0.1573873948833437  0.4751570017381255  0.7707087380438651
  0.0538679739521299  0.5391308176787177  0.4356589199967260
  0.0047982358597736  0.5626793177637097  0.1078422272752704
  0.9391023933774605  0.6512803769260245  0.7850806298798858
  0.8435922093187855  0.6727978696141506  0.4416714883098010
  0.8079823572534579  0.7071665020170883  0.1147319896814452
  0.7270045786626511  0.7395863595337460  0.7817829338983557
  0.1961480462242662  0.5475244815561879  0.4285980616098826
  0.1461865071739510  0.5827514173835624  0.1199225802422887
  0.0826350356994254  0.6104379602846350  0.7535436234673938
  0.9893360772615765  0.6724215693203703  0.4128792526366993
  0.9474341253939542  0.6999263854605928  0.1147355090158158
  0.8781805200252819  0.7654438458827144  0.7612222701687728
  0.7645753020432409  0.8047365586506530  0.4404488865346252
  0.2661658798858753  0.5580509621138319  0.1198257429921199
  0.2282394962051484  0.6156604922139906  0.7816839170897865
  0.1367853508273740  0.6580031693703603  0.4524109481789651
  0.0670216439377498  0.7076530182795793  0.1121585401566705
  0.0201888201378821  0.7472729855984781  0.7687664827758454
  0.9243156869605613  0.7777978190360813  0.4396414327118947
  0.8615961505353411  0.8267225564896847  0.1011371799675302
  0.3563212830516207  0.6129090849613803  0.7970915651391266
  0.2789056706240913  0.6437825796211101  0.4466599204144615
  0.2165273814114599  0.6931938172573311  0.1269297748091134
  0.1480347607426680  0.7579404023562404  0.7947017588058713
  0.0671703515207938  0.7954063353780256  0.4410161664577998
  0.0080091998239951  0.8231693267143640  0.1028637381945998
  0.9328259990068304  0.8831209498187889  0.7760829705042553
  0.4307839394209267  0.6479532057846029  0.4388740584746955
  0.3605828220861937  0.7073802277199874  0.1114473671744136
  0.2857037917219927  0.7527375627552289  0.7824831617162573
  0.2080269539527322  0.7887255452267965  0.4373428547434770
  0.1691553131433210  0.8280530308046821  0.1272138081764638
  0.0638714828750153  0.9000105567795060  0.7682318217249531
  0.9894233852868339  0.9177237320422194  0.4471527288622426
  0.9277034639410999  0.9634600494252084  0.1190575182060556
  0.8621698136019873  0.9945751010443757  0.7567183653957983
  0.7731259379885671  0.0415137982414464  0.4436676825880781
  0.7073179849584221  0.0798434605355425  0.1120757621563868
  0.6426814235620810  0.0911286683167916  0.7743731760571535
  0.5720764117436801  0.1907546220828422  0.4432777789261948
  0.5078325283033251  0.2069496934965684  0.1146676571792753
  0.0755013962498623  0.9466957373922256  0.1074981283618186
  0.1382531444536070  0.0263453685932120  0.7726396317015727
  0.1999492275230708  0.0353753132691708  0.4606419904135635
  0.3015697540564943  0.0813731495972618  0.1202859019909326
  0.3673552847808850  0.1318145398471131  0.7878562184812452
  0.4224869580599275  0.1650269408513907  0.4521734826854100
  0.8324289358279771  0.9229879564409345  0.4526453676309075
  0.7912720935489617  0.9524151569976240  0.1003597348010175
  0.7133025432599922  0.0065492869505661  0.7747032187353327
  0.6173397734315245  0.0483640099463045  0.4286467741588211
  0.5809946379478674  0.0907713730850830  0.1067018264191262
  0.5131836882655421  0.1153172709519268  0.7742443934832863
  0.1335972810681838  0.9176066221588357  0.4308484476944727
  0.2079645908396088  0.9652206356366548  0.1163481272851783
  0.2793330144932966  0.0011689171393670  0.7774804274707918
  0.3567263374466663  0.0396215273405929  0.4610491160751593
  0.4414943623702854  0.0940326368878672  0.1078163171879751
  0.7787389563223073  0.8736852049785213  0.7579840747104925
  0.6905494151574061  0.9359816447066862  0.4353226655125013
  0.6412644698842485  0.9493718660032471  0.1280567374237194
  0.5695546700246084  0.9910602918869600  0.7685278876672541
  0.4920174849518233  0.0368287808074186  0.4393126118094912
  0.2074357330161263  0.8660420514331051  0.7791910035615359
  0.2770359361883052  0.9138978215920091  0.4499996817439893
  0.3540536790721660  0.9616226861287629  0.1214912481750900
  0.4314602691251608  0.9808788593617805  0.7639495574992594
  0.7242905710870318  0.8312448505142243  0.1020702286361512
  0.6521322815779200  0.8768396199166162  0.7905926542723378
  0.5598455752585565  0.9015381544594447  0.4366159937640788
  0.4958863633907242  0.9758051314902403  0.1281994323932096
  0.2757016705494593  0.8663096137586450  0.0948266762272638
  0.3429163105693718  0.8574466748919320  0.7656969828124502
  0.4203557640618953  0.9029741406972533  0.4382573235487897
  0.6208818008907286  0.7889758422600934  0.4363639690270986
  0.5804320635573319  0.8350528229426359  0.1222414172082154
  0.4999832421173735  0.8901500079730056  0.7627513507577390
  0.3463867959430544  0.7751785096962536  0.4365061377329340
  0.4201121300105797  0.8437665694425363  0.0925492775717771
  0.5764002634849490  0.7578460814386005  0.7606502956464780
  0.4776604166071294  0.7894508914329563  0.4213648699629218
  0.4334546574125753  0.7613103586281511  0.7860752729292884
  0.5221414172736019  0.7287727277608838  0.1128816871444371
  0.0180315513378417  0.9967939652982380  0.2298644039913356
  0.9117678268309035  0.0267109023085865  0.8978439012415862
  0.8683252527170993  0.0654771008417967  0.5641681489903263
  0.7769083954801559  0.1397029539411321  0.2207065757117661
  0.7316157643894527  0.1581268670038440  0.8885235380249199
  0.6514293070778621  0.2190244632209613  0.5481009129942365
  0.5711432264692817  0.2354187048741352  0.2232033302756662
  0.4906292337542553  0.2946760487170081  0.9051414318505806
  0.4454682229330942  0.3269675428990624  0.5614975448206962
  0.3409773418096052  0.3581525187470049  0.2237182017458892
  0.2957475494888016  0.4157583749631542  0.8969934341933552
  0.2223704984608403  0.4605672332588426  0.5631532921624611
  0.0700657769066311  0.0375652373444098  0.8885435696351891
  0.0039912835111764  0.0783904246837750  0.5553451699590468
  0.9278271327607825  0.1364363029042082  0.2204196018139299
  0.8542887323431998  0.1512642183937771  0.8974625586232747
  0.7854150835453524  0.1941455348872978  0.5387510768594694
  0.7096048997540905  0.2530988314400631  0.2112570319935543
  0.6448604317835702  0.2862898653665269  0.8862689146996345
  0.5806402081194832  0.3321388647136132  0.5581845772879745
  0.4941151057668449  0.3671793340726452  0.2221126871745867
  0.4310944201352385  0.4154503836672703  0.8880468521078555
  0.3490472972375045  0.4321123626903685  0.5625866440140754
  0.2715133752677303  0.4589304152973170  0.2090173882335691
  0.1358450506180944  0.0880146446528371  0.5610098125347207
  0.0731283223545276  0.1215575435497129  0.2412454481638875
  0.0039078504358940  0.1745277292060479  0.9015237619668994
  0.9393150135789341  0.2016202063283146  0.5612764296757575
  0.8596535372274303  0.2244732687102911  0.2307128297222718
  0.7668329635684827  0.2762115661882021  0.8778270935345347
  0.7094836810933316  0.3451229228500310  0.5660844915871053
  0.6297734487347100  0.3862785998634735  0.2234642295749865
  0.5949854701669395  0.3963177518918641  0.8965033315676365
  0.5139123872327218  0.4727753788717237  0.5545445747901638
  0.3994136790307010  0.4860697264709586  0.2076960310590295
  0.3629413091195275  0.5488270024375765  0.8955309884023919
  0.1944256915116682  0.1177444690159888  0.2401676976611000
  0.1419257363564981  0.1714320670785057  0.8843269079210856
  0.0738075203869641  0.2238075088064448  0.5484543985219830
  0.9871886182089682  0.2352811389597278  0.2244276154916207
  0.9208194751463381  0.2817676510122809  0.8959139024904914
  0.8603104164887725  0.3375233970768363  0.5685421622459685
  0.7873093918253034  0.3639903992671876  0.2224172138172236
  0.7254926570649047  0.4299427469884805  0.8875296245095896
  0.6337766938595379  0.4551784647931143  0.5559570819498418
  0.5492057723554353  0.5017332661367462  0.2105155790407522
  0.5104196055483001  0.5245937214753198  0.8877888373535257
  0.4326502056574171  0.5710200980263167  0.5397412014487344
  0.2633223739469912  0.1727388606802833  0.8995447444692815
  0.2215252955253320  0.2144569983283944  0.5655889997114585
  0.1156662044744010  0.2396195564540520  0.2336770226913529
  0.0592589020084162  0.2923861577012232  0.9132952029043580
  0.0139287590322468  0.3480184975182183  0.5484936146389146
  0.9435317099932945  0.3630727009471713  0.1992361308854740
  0.8496463154077105  0.4154604123083203  0.8767379646257822
  0.7910870930675031  0.4884582355944431  0.5604205014577772
  0.7163357422699335  0.4927383935657872  0.2293209781958012
  0.6384611403988103  0.5534744159555913  0.8915176535186902
  0.5714060368654046  0.5916277950850244  0.5643528003514149
  0.5000606869371396  0.6127771460510445  0.2139032312243998
  0.3635411785742022  0.2063290396894857  0.5740814244432642
  0.2528863007766944  0.2446061008788334  0.2130127926857099
  0.1845542730504874  0.2880357059284862  0.9074926525497062
  0.1491754478505740  0.3355742582662984  0.5697686481225475
  0.0721412110152784  0.3787233574016042  0.2080418500191641
  0.9987615653029494  0.4314305151408107  0.8962318152650894
  0.9253839312012531  0.4777029032781641  0.5669041528317891
  0.8548011388594290  0.4943289955051924  0.2126555040201907
  0.7689907490860080  0.5476284617702305  0.8881821841233730
  0.6946084528837631  0.5898013243544966  0.5690131875987845
  0.6399465802447892  0.6053896042990274  0.2283092742126485
  0.5715358260502015  0.6616666735273782  0.8739621929949237
  0.4187370307797238  0.2360731652640453  0.2293579699659318
  0.3347188553461251  0.3114549197481509  0.9021362837689466
  0.2943853210269438  0.3227751282318181  0.5692306460295526
  0.1841622254841440  0.3691485305932289  0.2168366786820144
  0.1380591015751946  0.4226597161296652  0.8941273028341570
  0.0764585925962038  0.4681291660376417  0.5610233627472496
  0.9925284011672559  0.4905411683501768  0.2136759206384085
  0.9247569069216297  0.5310969600224169  0.8853570832418214
  0.8746590657557931  0.5720292619298419  0.5594541504631749
  0.7680748395473032  0.6490117890261402  0.2192007700158882
  0.7248433638862366  0.6498301760691731  0.8893273881043768
  0.6507529037460671  0.7270913629156084  0.5852825975547233
  0.1363358476494412  0.4959015310835611  0.2101056575496472
  0.0745458312833733  0.5127918985952888  0.8747882503671320
  0.0226802395436181  0.5853614146456891  0.5583392540148040
  0.9355229478096305  0.6245298248544700  0.1978005650228454
  0.8685310081099402  0.6645137873271096  0.8956091687015260
  0.8041222972988535  0.7058965924544793  0.5514757522512639
  0.7011945146294210  0.7520088956218487  0.2466361192577153
  0.2060012448531126  0.5401892673650721  0.8736012626882541
  0.1722133583689640  0.5762056600570205  0.5494127397148176
  0.0660355042305412  0.6089631695832125  0.2172143327174894
  0.0154776320844263  0.6640319130965082  0.8879425084947243
  0.9406978335691960  0.7080158558710679  0.5555091725774446
  0.8526111031152155  0.7328553186609525  0.2234283338285863
  0.8073494793442393  0.7812472639258274  0.8829519321455805
  0.3030978797331443  0.5762332262396228  0.5582368655874390
  0.2180769575754979  0.6143328741610574  0.2155772388814938
  0.1447076828570246  0.6574259451090754  0.8793832853150008
  0.0716652695771458  0.7004353290303413  0.5507065438431056
  0.0078276543135232  0.7431975577658037  0.2248252964001338
  0.9506293690257053  0.7926965387585838  0.8811870845768581
  0.8629236595762748  0.8313665659193177  0.5439342325465191
  0.3456833191749666  0.6183947201957452  0.2278713793534095
  0.2918104092393889  0.6654775487659847  0.8952538270392694
  0.2138979749408350  0.6938470488941562  0.5493242718655651
  0.1594188706317041  0.7510479627777045  0.2336276654479050
  0.0895687929125941  0.7975186303093054  0.8961076992975947
  0.0080446275630877  0.8375164740995871  0.5553436385404140
  0.9197957397662364  0.8695609769153165  0.2203851001063697
  0.4319695060549336  0.6817638267306450  0.9058354616434769
  0.3711414539045776  0.7048122340172540  0.5639010189360150
  0.2886993451643747  0.7445540675474476  0.2150938291064293
  0.2077616666133721  0.8040612687895319  0.8911838055494528
  0.1590957663347936  0.8326626110535216  0.5490972450829688
  0.0776254370728182  0.8673169947868828  0.2105857297278675
  0.0147472096608965  0.9193984695609672  0.8877866254957922
  0.9272677188724217  0.9756441886489569  0.5523996757147813
  0.8680955914466892  0.0023570721545667  0.2248816212538145
  0.7988154010329467  0.0078797254831713  0.8841429619772327
  0.7260565708931921  0.0621990838906541  0.5440983277563163
  0.6339576251206580  0.1089353768480734  0.2327338393560794
  0.5716633528993995  0.1636477751901921  0.8777810368513741
  0.5171449549593703  0.2027161924350480  0.5775495531926822
  0.0806983748745722  0.9745908673812167  0.5539624811048967
  0.1348570725011697  0.9818275091990500  0.2281467926770944
  0.2122062491877728  0.0632247411192139  0.8899042536056783
  0.2820673399474387  0.0868929018468663  0.5586557869622695
  0.3507433176221042  0.1387078999517470  0.2301814132461715
  0.4253922645140307  0.1796402308679106  0.9023405515863274
  0.8557538395105624  0.9032636524023232  0.8689030223554397
  0.7855366922816671  0.9617861384861826  0.5668032846259550
  0.7236488186728280  0.0108633561946689  0.2239016743969700
  0.6558374357256085  0.0374174111650234  0.8836613635482777
  0.5694538543503427  0.1041263140735040  0.5524959070296234
  0.5053642379895393  0.1166627509911464  0.2008071562382909
  0.1511995334509137  0.9292944712629279  0.8743369112371511
  0.2254567098931801  0.9577480367474678  0.5533449309440428
  0.2839027923157431  0.9992483715179930  0.2342809154059182
  0.3403052113669744  0.0571364532523333  0.9006669517620338
  0.4376098860104491  0.0779258337616824  0.5709877650159569
  0.7677244760935835  0.8719176571068488  0.2245435136496923
  0.7300055601684434  0.9226797541466709  0.8821433551676776
  0.6251618826752079  0.9734069094574380  0.5392068065442714
  0.5733069748689914  0.0152076340135210  0.2286425420860212
  0.4772154161173390  0.0357128656997574  0.9005352717234487
  0.2289248335684846  0.8626714719498949  0.2249260397152497
  0.2897021729386537  0.9253128674141848  0.8739277369370768
  0.3535462786521606  0.9675933540277839  0.5385240892667156