Li 
 1.0000000000000000
   -11.0705700000000018   19.1747897087477881    0.0000000000000013
   -18.9781199999999970  -10.9570226907130195    0.0000000000000076
     0.0000000000000001    0.0000000000000001   23.2203000000000017
 Li 
 504
Cartesian
  0.0272854000000000  0.5438936700000000  0.2408904000000000
 -11.1396426500000008 17.7774213600000017 15.5512209299999995
 -10.7847916799999997 15.3152266400000006  7.3337583999999998
 -10.8528342000000002 13.5461820399999997  0.1079188700000000
 -11.3852461399999996 11.4820402099999992 15.1715633600000004
 -11.1060694000000009  9.9180446199999999  7.8960356599999999
 -10.9960243900000005  8.2385104600000005 -0.3708502400000000
 -11.0975931400000007  6.3892798700000002 15.5819278600000004
 -10.7756469199999998  4.1595457500000004  7.1741792100000001
 -11.1467287899999992  2.9009152600000001  0.3164513600000000
 -11.2442362300000003  1.1559616200000000 15.1408380699999991
 -11.0571298299999992 -1.1730546600000000  7.5961701599999998
 -2.0667153300000001  0.8915663800000000 15.5399260500000000
 -1.2240490100000001 -1.3637763599999999  7.9582675900000002
 -12.3807113599999994 16.4223069499999994 -0.1145174600000000
 -12.6274087000000002 14.8127318100000007 15.7296856900000002
 -12.5969166099999992 12.1907023599999995  7.6486723300000001
 -12.3977474799999996 10.7468492999999992  0.0888653800000000
 -13.1487231399999995  8.8258883299999997 15.4693113100000001
 -12.5459254300000005  7.0738478999999996  7.9328296399999996
 -12.4378868100000002  5.4062760299999999  0.0119410800000000
 -13.3024495300000005  4.3577028100000001 15.6118768299999999
 -12.5500335399999994  1.5124799099999999  7.4517764099999999
 -12.6903644999999994 -0.0612184000000000  0.0595139200000000
 -2.9360141199999998  1.8603707400000000  7.9772903199999998
 -3.6708793599999998 -0.0459129000000000 -0.0172705300000000
 -3.5356269000000000 -1.9433703800000000 15.8182346799999998
 -14.1520565900000008 15.1062511599999993  7.7005696800000001
 -13.8269760700000006 13.3480951099999992 -0.1004757200000000
 -14.0541572499999994 12.1470637799999999 15.3970367600000007
 -14.1252034000000002 10.1381111399999995  7.6537297799999999
 -14.4119255600000002  7.9688831499999999 -0.2269181400000000
 -14.7589298600000003  6.7620627700000000 15.2024708700000009
 -14.2364639600000000  4.5445244699999998  7.2025407699999997
 -14.5025314099999996  2.8562423099999998 -0.0132948900000000
 -14.5288746100000008  1.3368594700000000 15.6597834700000007
 -4.6180155599999999  2.8647416300000001  0.6139201600000000
 -5.0970906600000001  1.1239951800000001 15.6921058099999993
 -4.3061722900000001 -1.6921632400000000  8.1017194799999999
 -4.4626822600000002 -2.6522613599999998  0.2743761500000000
 -16.1428452500000006 14.6535405500000007 15.6728015200000002
 -15.6963718700000001 12.6927398100000008  7.9858532799999997
 -15.6624844599999999 10.7990936099999999 -0.2191824300000000
 -16.0895823500000006  9.0014152599999999 15.4360860199999994
 -15.9500501000000003  7.1096688300000004  7.9277576700000001
 -15.9237434400000009  5.0589914900000004  0.1019352600000000
 -16.0060402300000000  3.6416862999999999 15.5420867400000002
 -15.5520604900000006  1.8430423300000001  7.2552551200000002
 -6.5118606300000001  3.8587134700000001 15.9892994900000005
 -6.0782043699999999  1.3426269399999999  7.9508177099999999
 -6.0354559200000004  0.1753620300000000  0.0089485700000000
 -6.3473796099999999 -1.2992344899999999 15.4060092999999991
 -18.0127519300000003 15.4396584400000005  7.6206899100000003
 -16.9416115500000011 13.8413728099999993 -0.4644458900000000
 -17.1587289399999996 11.7257693500000002 16.0956585899999993
 -17.3189239300000004 10.2161794100000005  8.4517718899999998
 -17.5665483000000009  7.8870632000000001  0.3957706400000000
 -17.4913027700000008  6.2506933900000003 15.4779451699999999
 -17.3597082500000006  4.7210283500000001  7.8855212200000002
 -17.7992544399999986  2.8076458600000000 -0.1976855400000000
 -7.6304987100000004  3.3291061399999999  7.5599668500000003
 -7.7724421599999998  2.6234727000000002  0.2682264700000000
 -7.8756031399999999  1.0577940200000000 16.0833088599999989
 -7.7337962100000004 -0.4941894900000000  8.0833937500000008
 -7.5716659799999997 -2.4300371599999999  0.3108509600000000
 -18.9084727000000008 14.7076270499999993 15.7884310299999999
 -19.3126599299999988 12.9400816200000008  7.6897565500000002
 -18.4872843799999984 10.6781052800000005 -0.1919148200000000
 -19.3727696899999984  9.3219447100000004 15.9855397099999994
 -19.3561201800000013  7.3381061399999998  8.0089969100000005
 -19.3542595700000000  5.2804679700000001 -0.2568344700000000
 -18.7572946899999984  4.1476628699999996 15.6544624599999995
 -9.5118421400000006  5.6525844599999999  0.4169447200000000
 -9.5830094900000002  3.5117326900000001 15.6344467700000003
 -9.3396647599999998  1.2065872799999999  7.8900950900000000
 -9.4069479400000002 -0.1341957200000000 -0.3402073600000000
 -9.6236168000000006 -1.8250406100000001 15.5891980399999994
 -9.5497516299999994 -3.7837027600000002  7.6336379299999999
 -20.7770370200000016 13.6978663699999998  0.2077098700000000
 -21.1019879599999989 12.3539020100000005 15.8485861600000000
 -20.6948056600000001  9.9529294799999999  7.5636166500000002
 -20.7790917499999992  8.4512476599999999  0.2086470400000000
 -20.5719591500000014  6.7679513099999999 15.9033618899999993
 -20.4646011500000000  4.4243963300000004  7.8748645300000000
 -11.2155977100000008 -2.9100227900000002  0.0244245300000000
 -11.3927652699999999 -4.1257330200000002 15.1978269000000008
 -21.9127057299999990 12.8126117500000003  7.5050136399999996
 -22.1313909100000004 11.0679730900000006 -0.4472173300000000
 -22.2687370899999983  9.3336362499999996 15.4591586299999992
 -22.2181034699999991  6.9901971400000003  8.0524481300000001
 -22.2732012700000013  5.4207621399999999 -0.1210410300000000
 -13.1182867900000009 -1.6603907000000000 15.6998003900000000
 -12.7245583599999996 -3.5653029400000000  7.5855969800000000
 -13.1430297599999992 -5.6390922699999999 -0.1157659300000000
 -24.3600627199999984 11.9856221400000003 15.8449582600000003
 -23.6702434199999985 10.0779487600000000  7.3908346900000002
 -23.9965541900000012  8.2572275899999994 -0.3741099200000000
 -23.9283942299999985  6.6663527199999999 14.9350552200000006
 -14.1155151199999995 -0.8499998100000000  7.3701250099999998
 -14.1649388399999996 -2.7065199400000002  0.1166290300000000
 -14.6722549900000008 -4.6683834099999997 15.3737259399999999
 -14.0689898899999992 -6.3100821099999997  7.7486431700000002
 -25.4227599899999994 10.4931423699999993  0.0012167700000000
 -25.7380651000000000  9.9206225999999997 14.9852926199999992
 -25.5262812600000011  7.4334867899999999  7.7186580899999999
 -15.7985456600000003  0.2168123600000000  0.2340591100000000
 -15.8531399999999998 -1.7388405100000000 15.3860579099999999
 -15.5988303800000008 -4.1335349399999997  7.6284908600000003
 -16.0455454899999985 -5.4928355900000003 -0.2478418900000000
 -16.3776711000000006 -6.9924364299999997 15.0580268299999993
 -26.6961114200000011 10.0967894699999992  7.6532380099999999
 -26.8634840500000003  8.0306495000000009 -0.5373284400000000
 -17.1093133500000008  1.2800500200000000 15.6308756300000002
 -17.1860519700000012 -0.7922267300000000  7.9278171600000000
 -17.6852304400000016 -2.8577633599999999  0.0756724100000000
 -18.1051419299999985 -4.5295856700000003 15.2925430999999996
 -17.4815848600000017 -6.5007466699999998  7.3487660400000001
 -17.8016992700000003 -8.1003173099999994 -0.6531833700000000
 -28.6241821499999993  9.1609684500000004 15.2236999999999991
 -27.9102965300000001  7.1497511500000002  8.1016029599999992
 -9.6917289199999992 17.0787700300000012 -0.1158555300000000
 -9.7717052899999999 14.7079670500000006 15.4623707800000005
 -9.5143343900000001 12.5876884199999992  7.8501095699999999
 -9.5414718500000006 10.7737285499999995 -0.2043611400000000
 -9.9736191299999994  9.1733896000000001 15.7611592100000006
 -9.3337645400000007  6.5733665700000001  7.5026927499999996
 -18.7246930700000007 -9.5353581799999994  8.0823937699999995
 -2.2824697800000000  2.3871161399999998  0.1400797900000000
 -3.5430956199999999  3.6386408000000001 15.1917746200000003
 -4.3328851899999998  3.8222096300000001  7.9379044099999998
 -6.2824801199999998  5.6973273700000000  0.1259731000000000
 -8.0405175999999994  6.2592323800000003 15.8619751800000000
 -26.7952448600000004  6.8267363999999997 15.0198760300000007
 -26.9827688899999991  4.2266437500000000  7.7115956199999998
 -7.9997294700000001 14.1280846400000009  0.0412643500000000
 -8.0200301399999994 11.6435580699999992 15.1229606800000003
 -7.7227106299999999  9.2240956199999999  7.4017155800000003
 -7.4869284199999999  8.1326451599999992 -0.0328648300000000
 -19.3083014199999994 -7.1465954299999996 15.4442850200000006
 -19.9570479700000014 -6.3082523600000000  7.9690066399999999
 -3.1330504299999999  5.3628935799999997  0.3662164400000000
 -5.1154054999999996  6.6014056200000004 15.4589237900000001
 -5.7616947700000001  6.1759802800000001  7.6178127000000000
 -25.6646398399999995  5.9743021399999998 -0.1676079800000000
 -25.4165963099999992  3.4268841299999999 15.1560092999999991
 -25.3610791000000013  1.4612981899999999  7.7205944799999999
 -6.3070751400000002 11.2306318699999999 -0.0941571300000000
 -6.4372559899999997  9.1296104899999992 15.3713273200000007
 -19.5009665900000009 -5.5139267299999997 -0.4646138700000000
 -21.1204500000000017 -4.5242919300000004 15.2537263200000002
 -21.5387892100000009 -3.8620985499999998  7.9979139899999998
 -4.2757687799999999  8.0884460800000006  0.4501742900000000
 -23.8304834600000000  3.9497948799999998  8.0127775499999991
 -24.1107214700000014  2.9839040300000002  0.0698404800000000
 -24.1075210099999993  1.3729655700000001 15.2348652999999992
 -23.5269554700000008 -1.1418989399999999  7.6508019599999999
 -18.7962631100000017 -3.6598916199999998  7.8846454200000000
 -20.5393593599999988 -2.7281669599999998 -0.3233073300000000
 -22.1464520799999995 -1.5820684599999999 15.3347303200000002
 -22.2768667899999997  4.0611761399999997 15.3700640400000008
 -22.1124906400000008  2.0133532100000000  7.5926659799999996
 -22.5749000600000009 -0.0659838100000000  0.2585738900000000
 -18.9706280000000014 -1.2651469000000000 15.5533616899999991
 -20.3109799100000004 -0.7924782100000000  7.2327166299999996
 -21.0667337100000012  2.4886457300000000 -0.3568584200000000
 -20.8478286200000014  1.0342273500000001 14.9665931699999994
 -19.2353461599999989 -0.1344811200000000 -0.2721222000000000
 -18.9739228299999994  1.9500909900000001  8.1427409999999991
 -0.3466631100000000 -0.2824827400000000 18.2620992800000010
 -11.0143296799999995 17.0848331699999996 10.2342454200000006
 -10.9180846200000001 15.5650490099999992  2.5319261000000002
 -11.2231076800000000 13.4527448399999994 18.0782880599999984
 -11.0485933099999993 11.9592915600000005  9.9316830800000009
 -10.6997560699999994 10.3436478899999997  2.8553867099999999
 -11.0489329800000000  8.1152905299999993 18.1974773300000017
 -11.0815817699999997  6.3725611300000002 10.4145667900000003
 -10.7999876300000004  4.6253024800000002  3.1589670999999999
 -11.7062924299999995  2.6732374200000000 17.9258611899999991
 -11.0640370400000005  0.9740358700000000 10.0661323399999993
 -10.2991442000000006 -1.1317945199999999  2.2936033100000000
 -1.4133747400000001  1.0802258600000001 10.4733971700000001
 -1.3977616399999999 -0.3370581600000000  2.2702283699999999
 -12.6853044199999996 16.0681571000000005 18.4774628199999995
 -12.5728063100000007 14.9711930800000008 10.1341593999999997
 -12.4664527599999992 12.6575430299999994  2.8484617800000001
 -12.2314576400000004 10.8689618699999997 17.8712698799999998
 -13.1780409299999999  9.4244887700000000 10.4322669999999995
 -12.6724210399999997  7.0920721200000001  2.6331235099999999
 -12.8727156399999991  5.5342785200000000 17.9557443700000015
 -12.4539003499999996  4.2841216400000004  9.9575619799999995
 -12.5535975499999992  1.5587149300000001  2.3528143600000000
 -12.4523740899999993  0.0387755100000000 17.7854232400000001
 -3.0579423200000000  1.5352576300000000  3.1499366900000001
 -3.5362325100000001 -0.3735270300000000 17.9826274899999987
 -3.0622503800000000 -1.6890757700000001 10.3338508499999993
 -13.7824388100000004 15.6461279799999993  2.3967269899999999
 -14.4137110899999996 14.0796334400000003 18.5724650699999998
 -14.1617340699999996 12.0828487500000001 10.4215977100000003
 -14.1935905699999996  9.6329565000000006  2.3422577900000001
 -14.2957676599999992  8.3815406200000009 18.2711454700000004
 -14.5298348199999996  6.3038876100000003 10.4710492599999991
 -14.3829250999999996  4.0495008099999996  2.7367137200000000
 -14.6182497300000005  2.7592963799999999 18.0597963600000000
 -13.6230756300000007  1.0835998099999999 10.1189049299999994
 -5.0561389800000001  2.3617855099999998 17.6451574399999984
 -4.7656879200000004  1.0491058799999999 10.6847357600000006
 -4.4815000100000004 -1.0107302600000001  2.6083574100000000
 -4.8929413799999999 -2.7767955400000002 18.4394333199999991
 -16.1674352900000002 15.0622238999999993 10.3229269200000005
 -15.5717540200000002 12.4774692700000003  2.5800414100000002
 -15.3464978700000003 11.3702852300000004 18.0223473799999994
 -15.4998041799999999  9.4631334599999999 10.9634681100000009
 -15.7492638199999995  7.1247461799999998  2.9494357400000002
 -15.7656377200000009  5.7267533500000001 17.8041304999999994
 -15.6565312599999995  3.7319428200000000 10.1472099199999999
 -15.6828236299999997  1.7647683500000000  2.3285620499999999
 -5.8851652699999999  3.1970773000000001 10.6477700899999999
 -6.0527911200000002  2.0160228500000001  2.8147515400000001
 -6.2856889499999999  0.0841467000000000 18.4221888699999994
 -6.7834890600000000 -1.8076031100000001 10.2809038099999999
 -16.9924460900000014 15.3397564400000004  2.2810877600000001
 -17.6243801200000014 13.4057481900000006 18.1724891100000008
 -17.5626954399999988 11.8781019800000003 10.2983229999999999
 -17.1137100099999984 10.2365126600000007  2.4804908700000001
 -17.3016097100000010  8.4103750300000009 17.7162640700000011
 -16.9782702100000016  6.4624813799999998 10.5368360299999999
 -17.5870472199999988  3.9022457400000001  2.2625185700000001
 -17.7401987900000009  3.0621711100000000 18.0962582400000009
 -7.9458275000000000  4.2477310399999997  2.4772820699999998
 -8.0169081599999998  2.8062083400000000 18.6972579799999998
 -8.0202955599999992  0.6274207400000000 10.7222616599999991
 -7.3427624700000003 -1.1912118300000001  2.2541349300000002
 -7.6557837600000003 -2.1985111800000001 18.2922572000000017
 -18.8846151800000008 14.6109289300000000 10.3345748299999993
 -18.6424675899999990 12.5895666500000001  2.5735288199999999
 -19.3133125600000000 11.1585354799999994 18.2264717900000015
 -19.0446032599999988  8.6013680600000004 10.4560917999999994
 -19.3225806499999990  7.0541966499999997  3.0357626500000001
 -19.3029036900000008  6.0298735600000004 18.2490841699999997
 -18.8294588800000007  3.3011293600000000 10.6657214400000004
 -9.4295900199999991  5.4850743499999997 18.5935557699999983
 -9.5201481799999996  3.8120956499999998 10.6642221300000006
 -9.2953357499999996  1.6763710100000000  2.6192672400000001
 -9.6476000099999997 -0.1326241300000000 18.0849088000000009
 -9.6287246199999998 -1.9174562799999999 10.1513984100000005
 -9.0915865399999998 -3.9389777100000001  2.4553840500000002
 -20.6710102900000017 14.1144815599999998 18.3256766499999983
 -20.3829558800000008 11.5131975900000008 10.0887875400000002
 -20.5063870299999991 10.0659402900000003  2.4922885699999999
 -20.7740230200000013  8.6565099199999995 18.4222664999999992
 -20.4426016399999995  5.9960326899999998 10.4863247000000008
 -20.7014818399999996  4.5649189200000002  2.4565914800000002
 -10.7599547700000002 -2.1884358499999998 17.8960881100000009
 -10.8280385300000006 -4.8743615299999998 10.1161308200000004
 -21.8022848200000006 13.1015048200000006  2.5041288700000002
 -22.7564759300000006 10.8709970400000007 18.2298077499999991
 -22.1074853100000013  8.8038416900000005 10.2557444600000007
 -22.3655159800000014  7.7444523800000002  2.6641112200000001
 -22.0843137600000006  5.8364953899999996 18.1532342600000014
 -12.5624559900000001 -2.2381406300000002  9.9521755699999996
 -12.6778942899999993 -3.5821249700000002  2.7846382900000002
 -12.4997818100000000 -5.1040731499999996 17.4975090000000009
 -23.7138115300000010 11.6025728400000006  9.5871801100000003
 -23.7719227400000008 10.4977408299999997  2.6641929400000000
 -24.2486440799999983  8.4519412099999993 17.6758094800000016
 -23.7366713800000007  5.8430539000000001 10.2273552799999994
 -13.5373661300000006 -1.0109022800000000  2.7823897000000000
 -14.2108200199999999 -2.3693616400000002 18.1509350599999983
 -14.0019549100000003 -4.5869253199999998 10.5051179399999999
 -14.1718916999999998 -6.4686442499999997  2.6043549499999998
 -25.4759081400000014 11.3740190299999995 17.8509883599999988
 -24.9938418599999999  9.2012105700000006 10.2086059599999999
 -25.2280003800000010  7.4625071900000002  2.3484356599999998
 -15.5765418699999998  0.1167269200000000 18.5087052700000001
 -15.3054278000000004 -1.7059827500000000 10.3715773500000008
 -15.5525969800000006 -3.4434733799999999  2.9473474500000001
 -16.0231130899999989 -5.4662347799999997 18.4532132500000010
 -15.8389309600000008 -7.4273078999999997 10.2405276900000004
 -26.7814426700000006 10.3088794400000001  2.3885268599999998
 -27.0868908799999986  8.2103660800000000 18.0208793999999983
 -17.0659574499999991  1.1605534700000000 10.1907873000000002
 -17.4166042200000000 -0.8366814200000000  2.5878413000000000
 -17.4484476199999996 -2.7694524299999999 18.1694937600000017
 -17.2715050000000012 -4.6532106000000004 10.1552322900000007
 -17.5875355199999994 -5.8294782900000000  2.9539427900000002
 -17.7876020699999984 -8.6367138400000005 17.8385733699999989
 -28.3701519600000012  8.9164655899999996 10.3830205099999997
 -28.5548665700000015  7.2318652099999996  2.7645512900000000
 -9.4417568900000006 16.5913656100000004 17.5712274599999994
 -9.3467986599999993 14.3696596499999991 10.3020966900000008
 -9.3456920399999994 12.6878270099999995  2.6024328200000002
 -8.8443004900000002 11.3247822599999992 17.9811774600000014
 -9.9533760699999991  8.8793421699999993 10.2930430099999999
 -9.5495116699999993  7.4700294500000002  2.6626173999999998
 -18.8023488000000008 -8.9252432800000001  2.4961387899999998
 -2.0305266799999999  2.3623081699999999 17.9409240399999987
 -2.8849088599999999  3.4463762800000000 10.6962452100000007
 -4.8828584700000004  4.8909291699999997  2.7930747299999998
 -6.5684245499999996  5.5996654299999999 18.2942577499999999
 -7.8090725299999999  6.2928946400000001 10.4996039200000002
 -26.7320390000000003  5.8484498100000000 10.5105612300000004
 -26.8348822399999989  4.7368415099999996  2.3303831499999998
 -8.0209588899999993 13.6056655800000001 17.9888411499999989
 -7.7521611600000000 11.3074347799999995  9.9533066899999998
 -8.1546118199999995 10.1458660100000007  2.4776484200000000
 -7.8697409499999997  8.5766553499999993 17.9781870899999987
 -18.8934466400000005 -7.4925368099999998 10.0044302100000007
 -20.6203596100000013 -6.5882671100000003  2.7016384200000001
 -3.1145595400000001  5.3433439600000003 18.0533287700000002
 -4.7011059900000003  6.4060185299999999 10.7056987899999996
 -6.6721569100000000  7.4352438200000002  2.5035272300000000
 -25.2019867899999994  5.3591671099999996 17.6006176100000005
 -25.4079476100000008  2.9855676999999998 10.1083228900000002
 -25.1164564000000006  1.8938222800000000  2.9735158600000000
 -6.1356359899999999 11.0190436100000007 17.8454481099999995
 -6.1458550299999999  9.0307980200000006 10.2009706399999995
 -18.7322817800000010 -5.5117058500000002 18.0930488599999997
 -20.4110082499999983 -4.7014933499999998 10.4491276099999997
 -22.1693667699999999 -3.7476167500000002  2.8210632300000000
 -4.4136278100000004  8.4826706999999999 17.7391379100000002
 -23.7937739899999983  4.7801507000000001  2.3701013299999998
 -23.8602436000000004  2.8969477499999998 18.3577986099999997
 -23.3073089099999997  0.8567471600000000 10.1383543599999992
 -24.0086915800000007 -1.1834022300000000  2.9768292800000000
 -19.4931024499999985 -4.2056525400000000  2.2019038700000002
 -20.0690049100000003 -2.8197145300000002 17.7797136500000015
 -21.7903295099999994 -1.8336747700000000 10.1764665300000008
 -21.8467936499999986  3.2604517600000000 10.1325022699999998
 -22.2734464699999997  1.9799700300000000  2.8384823799999999
 -22.4284731499999985 -0.1663203100000000 17.7113151900000005
 -18.5461300499999986 -1.8517545500000001 10.1358034700000008
 -20.6639839499999987 -1.1896077000000000  2.1490219900000000
 -20.7635733400000007  2.7486171300000000 17.6625280599999996
 -20.2702668300000006  0.5090067100000000  9.7842186899999994
 -19.2468294700000015 -0.0302929700000000 18.2529036600000012
 -19.6111393900000017  2.0267725599999999  2.6211466400000001
 -0.1387750400000000  0.3808798000000000  5.3375204199999997
 -10.6007122599999999 17.1902843800000014 20.8482047399999999
 -10.8554877699999999 15.9325200400000000 13.1001536699999992
 -11.2521182000000000 13.3663266699999994  5.1248728999999997
 -11.1003541899999991 12.2959787600000006 20.6317831100000006
 -11.3683662900000009 10.0911639599999994 12.7270676300000005
 -10.7906855000000004  8.3720631700000006  5.1828482899999999
 -11.0239426900000002  6.1789402300000003 21.0176555900000004
 -11.1368164099999998  4.9591687100000001 13.0381414400000004
 -10.5718750099999994  2.6138835500000002  5.1948037600000001
 -11.1644062799999997  1.1154231200000000 20.8284566399999989
 -11.2024683899999999 -0.7825380800000000 13.0765883899999995
 -1.4885856700000000  0.9318933800000000 20.6322482500000000
 -1.5318886700000001 -0.7823936400000000 12.8952814500000006
 -12.8608797500000005 16.2959544899999997  5.1182092800000003
 -12.3281737000000007 14.7234013200000007 20.8393498500000014
 -12.3795099200000003 12.9329120300000007 12.5099616299999994
 -12.6590707099999999 10.8333150899999993  4.9054516599999998
 -12.5722159700000002  9.2281786199999996 20.5794300800000016
 -12.7313893000000000  7.4944008100000001 12.9612133400000005
 -12.4385093300000005  5.4513609499999998  5.1575232299999998
 -12.6569281900000004  3.7140455700000001 20.6207143200000012
 -12.0648328100000004  1.9582435600000001 13.0634306500000008
 -11.7154443199999996  0.1777009000000000  4.8534464599999998
 -3.1742346299999999  1.6404218200000000 13.0268161500000001
 -3.1165058600000002  0.0703114400000000  5.6017916799999998
 -14.4260403200000002 17.3374176300000009 20.9336522100000018
 -14.2251250799999998 15.8020106800000004 13.0330070800000009
 -13.7769352900000008 14.0241170999999998  5.3572211200000002
 -13.7312542499999992 11.6774044200000002 20.3834084599999983
 -14.4041730000000001  9.8226806900000003 13.1446517200000006
 -14.3027926700000005  7.8433100600000003  5.1889064500000002
 -14.1081941499999992  7.0662586699999999 20.8170763100000009
 -14.6616909300000007  4.6739514000000000 12.8766913899999995
 -13.6464266900000002  2.3327962800000002  4.8227641500000002
 -14.4336718800000003  0.9458133600000000 20.7944982100000004
 -4.3869718899999999  2.4379429300000002  5.5767659900000002
 -4.8246571400000002  0.8430111000000000 20.5343361000000009
 -5.0645370800000000 -1.0370202700000000 12.7352756700000000
 -4.3233643900000001 -2.8236363299999998  5.2112765599999999
 -15.5414167499999998 14.5691852500000003 20.8033895899999983
 -15.9296862200000007 12.7980198000000005 13.2017195699999998
 -15.6238172100000003 11.1082409599999998  5.1645944300000002
 -16.1911222899999991  9.2002766999999999 20.6087041400000004
 -15.6547007800000006  7.1651340599999997 12.9094902299999994
 -15.6019750800000008  5.0334024099999999  4.8882348999999996
 -15.6064385699999999  4.0392032899999997 20.6147231399999988
 -15.6265723300000001  2.0392965400000000 12.5329526199999997
 -6.1933876000000003  3.1564475299999999 20.8876988300000015
 -6.5224019400000000  1.8978907599999999 13.1331462499999994
 -5.8280195099999998 -0.4076417700000000  5.4260505700000001
 -6.2049694100000004 -2.0674047799999999 21.2069885999999990
 -17.8295061100000005 15.6286241599999993 12.7361862800000001
 -17.3358711300000010 14.1138262999999995  4.6263227300000000
 -17.2907265700000004 11.7395802600000003 20.3581185600000012
 -18.0278040500000003  9.8168806800000006 13.0131321700000004
 -17.2814933400000008  8.3366414599999992  5.3249019100000003
 -17.5720326299999989  6.1779263699999998 20.7013073699999985
 -17.5537738200000000  4.4741114199999998 13.1044413300000002
 -17.1653150500000002  2.8743454200000000  4.9668972000000000
 -7.9403453400000004  4.7100736799999998 13.3303428999999998
 -7.4417594300000003  2.1688870400000000  4.9462209499999998
 -7.5094971900000003  0.3827756100000000 21.0722516400000011
 -8.0200257799999992 -0.8164869200000000 13.2301989399999993
 -7.9861016500000002 -2.7663878700000000  4.8307941699999999
 -19.2445999100000016 14.4238490400000003 20.8107716200000006
 -19.3104306100000009 12.5098407300000005 13.1636845000000005
 -18.8445708399999994 10.9742580600000004  4.9379245999999997
 -18.9061245800000002  8.7448584199999999 20.6238567699999997
 -18.8830318099999985  6.8565045199999997 13.2126569200000006
 -18.5737299699999987  5.6375734700000004  5.3014098399999998
 -18.8844169000000015  3.7091825200000001 20.2936643100000005
 -9.1158824700000007  5.4425354800000001  5.3257608699999999
 -9.6163573600000003  3.0055450399999999 20.9478751500000016
 -9.3846784200000002  2.1081222199999998 13.2177063700000001
 -9.0445259199999999 -0.5134968800000000  5.0350127300000000
 -9.5496797600000001 -1.9838378600000000 20.7619042100000009
 -9.7306516900000002 -3.6632244599999999 13.0271307899999993
 -20.2974043000000002 13.6566526600000007  4.9616189799999999
 -20.3168079100000014 11.9127777800000008 20.5582570800000006
 -20.5390143899999984 10.5036660499999996 12.9906932099999999
 -20.8200498899999999  7.6164366299999999  5.0899076399999998
 -20.3569842600000008  6.7785150900000000 20.6504487499999989
 -21.0030327099999994  4.5112935199999997 13.5904375000000002
 -10.9205943100000002 -2.8193931200000000  4.8787164000000001
 -10.5570910300000005 -4.1892718300000000 20.3128456100000001
 -22.4307123500000003 13.1958602299999992 12.9648049800000003
 -22.2091742399999994 11.0954683299999992  4.5929884599999999
 -22.2263557200000008  9.3728067900000003 20.7963135799999996
 -22.2986824199999987  7.6843509699999997 12.8054324099999999
 -22.0343380199999999  5.2054788299999997  5.7269646800000000
 -12.5323279400000001 -1.9688355099999999 20.2852834000000009
 -12.8418001999999998 -3.0113435599999998 12.7575286400000003
 -12.2880267799999991 -5.4062063599999997  5.0437819700000004
 -23.8439935399999996 12.1957573099999994 20.6182914299999993
 -23.8508710899999983 10.2799373400000000 12.8990896399999997
 -23.3471070800000007  8.3187262499999992  5.1880729399999996
 -23.7644232500000001  6.9206124899999999 20.5024087500000007
 -14.2912896099999998 -0.5019624300000000 12.9624274899999996
 -14.0731192299999996 -2.5496794399999998  5.0057681599999997
 -14.0787050100000002 -4.4286916099999996 20.4195436999999984
 -14.0863211100000001 -6.3005193200000003 12.7875711600000006
 -25.2617190299999983 11.1816508300000006  5.2205108300000003
 -25.5678990100000014  9.5425242800000003 20.4614284600000005
 -25.3308312300000011  7.4370773799999998 12.6303160600000002
 -15.5628805900000007 -0.1473600300000000  5.2912417899999999
 -15.8600203400000002 -1.6962493700000001 20.7880624400000009
 -15.5358850600000000 -3.5010491699999999 12.7554743899999998
 -16.0183361300000016 -5.1724262500000000  5.4249044800000004
 -16.1269818600000008 -7.0209669600000000 20.8078896100000001
 -27.0541167599999994 10.1523567400000001 12.8952458900000000
 -26.6852956900000002  8.1090905299999996  5.1174081400000002
 -17.7207443699999985  0.8128227200000000 21.0337711700000014
 -17.4847585999999993 -0.6060843100000000 13.0939508300000007
 -17.3263027500000000 -2.6223465799999999  4.9945432399999996
 -17.5596113199999984 -4.8263312999999997 20.6935553200000015
 -17.5636517699999999 -6.0728752600000000 12.7502027600000005
 -17.3194038399999997 -8.0147605599999991  4.8898638200000004
 -28.6822845000000015  9.3836944599999992 20.6146717799999983
 -28.7812746799999992  7.0900080000000001 12.8268861899999997
 -9.6550458100000007 16.6197239199999984  5.2218187100000000
 -8.9928841899999998 15.2307790000000001 20.5300648199999998
 -9.2182817700000008 13.2404652899999995 12.6341263999999995
 -9.0856609200000005 10.9623967499999999  5.4041495700000004
 -9.4343662800000008  9.1684321900000008 20.3823390099999990
 -9.5722616499999997  7.6949798400000002 13.4108738899999995
 -19.3892794399999993 -9.1312398800000008 12.8631750000000000
 -1.1480649500000000  2.7849724000000000  5.2976369700000001
 -3.5491308600000000  3.3762552800000001 20.6638437400000008
 -4.7717101499999997  4.4564944300000002 12.9721549700000001
 -6.5153436200000003  5.2056037499999999  5.3448814699999998
 -8.1185687000000009  6.1884851300000001 20.9526183099999983
 -26.6159287700000000  6.5118195800000001 20.1761888499999991
 -26.9492316900000013  4.5241883400000003 13.1613423100000002
 -27.1954909799999989  2.7997611899999999  5.1990640499999996
 -7.9706063599999997 12.1655614900000000 20.5188819600000016
 -8.2803004399999995  9.7782435200000002 12.8291207099999998
 -7.8087098599999996  8.4119765799999993  4.6628024100000003
 -19.3101270099999986 -7.2830813499999998 20.3023653800000012
 -20.6721914600000005 -6.1709819699999997 12.8488352999999993
 -22.1068212399999986 -5.5050107400000003  5.4400731400000000
 -4.8517151299999997  5.8992354499999999 20.9137568199999997
 -6.3234766999999996  7.5372424100000002 13.2585072000000004
 -25.0465054800000004  5.1673338299999996  5.2139677500000001
 -25.5923047500000003  3.8878800999999998 20.4836333500000016
 -25.3943315200000015  1.3217060400000000 12.5205438099999995