Li                                      
   1.00000000000000     
   -11.0705700000000018   19.1747897087477881    0.0000000000000013
   -18.9781199999999970  -10.9570226907130195    0.0000000000000076
     0.0000000000000001    0.0000000000000001   23.2203000000000017
   Li
   504
Direct
  0.0081482509207333  0.9811780802210350  0.0025749723302440
  0.9330444602521979  0.0457318532955782  0.6635441988260240
  0.8750657201031586  0.1026046368659053  0.3266040008096383
  0.7829177021957960  0.1239288935680847  0.9865077247063994
  0.7136818254693225  0.1498991677475985  0.6636811613114375
  0.6476036256453881  0.2037307441432006  0.3316408134261835
  0.5610856389320844  0.2077891202188411  0.9821680998953468
  0.5085251650962519  0.3014071226781354  0.6485676433982306
  0.4171297852898732  0.3340699738890649  0.3113040701455176
  0.3517802800305176  0.3911272910753354  0.9981002777741921
  0.2880305440374755  0.4207307178000264  0.6657927727031918
  0.2062044573580266  0.4812260087145575  0.3345608006787160
  0.0417397458540378  0.0394821195008035  0.6477530639139033
  0.0286348900825786  0.1014572231021091  0.3396283842155370
  0.9168526273450155  0.1136620328722273  0.0049794416954114
  0.8370899903656053  0.1590782424896773  0.6840949449404192
  0.8026041864862137  0.2206219794801214  0.3405184618631125
  0.7114437079928138  0.2358906277126493  0.9995640185527321
  0.6550510807143510  0.2747315412367541  0.6500383806410781
  0.5780666132986525  0.3052411373104533  0.3323843016670764
  0.5008604851023222  0.3456837110019748  0.9950377182896020
  0.4321928738681464  0.4149434183334009  0.6784994366997807
  0.3419763941863323  0.4858130547078758  0.3408658208550293
  0.2794116207451438  0.4864649814484991  0.0240901125308426
  0.1762107938785533  0.1003399726428071  0.3392026222744775
  0.0814027863613589  0.1369059709492575  0.0222342140282450
  0.9762914632987716  0.1663657451395864  0.6545430270065395
  0.9337949617550905  0.2311096220406981  0.3219929311852141
  0.8464714098971129  0.2306116698458709  0.0057303626568128
  0.7668680011592386  0.2765775267732806  0.6624017092802390
  0.7009676732109114  0.3400556101437573  0.3304527013001533
  0.6346673171844017  0.3225443336009022  0.9937309543804318
  0.5692271687062700  0.4349064550616930  0.6581125553933376
  0.4940299697402537  0.4623419995180029  0.3158797621047071
  0.4460655454726776  0.4952567311333524  0.0121737746713038
  0.3524715801628489  0.5494973057814221  0.6630518770214024
  0.2272215785781455  0.1281260608975074  0.0054368772151960
  0.1165271711643499  0.1443080239098009  0.6678162215819796
  0.0665049381327307  0.2171876211687902  0.3380095205488303
  0.9978564859723420  0.2426961907759662  0.9997507646326724
  0.9020099611195960  0.2730619652909851  0.6594772156259836
  0.8608844476119444  0.3599060755649433  0.3330352687088478
  0.7892660847356225  0.3526251499257214  0.0033284453689220
  0.7137670010394643  0.4103313858961002  0.6492436445696228
  0.6589885157437649  0.4547830373747530  0.3215562727441039
  0.5779187913797585  0.4684731873186081  0.9994934716605712
  0.4908408695521871  0.5501160328189343  0.6802582094115905
  0.4270543942231342  0.5861949294737911  0.3489060481561381
  0.2860078552799266  0.1715003302526128  0.6646791484175480
  0.2128390107453555  0.2439981606614765  0.3116353996287700
  0.1362341943969341  0.2562020913839262  0.0266092940229044
  0.0578835054175713  0.2660766794302774  0.6756486066071474
  0.9941319556668944  0.3294772973061981  0.3334115653113869
  0.9130110353059067  0.3703076043819706  0.0047464744210899
  0.8501523470314254  0.4133273739192447  0.6643201832017667
  0.7798629827222143  0.4758151144246625  0.3179255832181340
  0.7016824954615757  0.4637340403695376  0.0050844209592498
  0.6481010103880820  0.5258507047815044  0.6468948191883825
  0.5770967626618955  0.5653280868799513  0.3387068220479463
  0.5039793835981499  0.6232294466111412  0.9947051760743832
  0.3717055520195416  0.2143496677742078  0.3207429680064422
  0.2986621465907575  0.2465931915182722  0.9961753995426434
  0.1965405625077921  0.2790940569939551  0.6542820161668885
  0.1296053471230323  0.3593329472202811  0.3430726183554924
  0.0695372723886294  0.3654597382887559  0.9900151948941200
  0.9936611400010804  0.3923449848213778  0.6926327226607754
  0.9270514604634528  0.4673006890744205  0.3357337295383758
  0.8493675899732764  0.4907207199379897  0.9981487366657618
  0.7948626009371793  0.5587347706697443  0.6649569846212131
  0.7176439940076378  0.5871704415009944  0.3233406080024821
  0.6476637351026326  0.6027127979001534  0.9906522508322482
  0.5656820340574740  0.6605429375630649  0.6828513783198318
  0.4192807388849005  0.2375401357206641  0.9763509859907060
  0.3521431193394733  0.2975172017741485  0.6680023122009615
  0.2918092027385271  0.3379798127759202  0.3533934906095126
  0.2177430606253878  0.3699417626894785  0.0137629810984379
  0.1289201628599486  0.4010166535277193  0.6646269996511691
  0.0610774883013434  0.4702016770015049  0.3428768349246099
  0.9882654128336057  0.4863085810737147  0.0047053078556232
  0.9259464932641635  0.5486980833752000  0.6716611103215726
  0.8509517119159753  0.5955798233236180  0.3298057277468445
  0.7880592511890470  0.5996929672467104  0.9884035658454025
  0.7111026494570609  0.6821129549186153  0.6753108301787663
  0.6204745071026210  0.7120804002664656  0.3227674388358466
  0.1524823285526153  0.4864547272330029  0.9904676154054854
  0.0369725225822677  0.5271676794475155  0.6638021502736819
  0.9880069051966700  0.5971424074427247  0.3520629733465981
  0.9154567663276367  0.6269601328475218  0.0050595625379515
  0.8410566265013131  0.6651465267557271  0.6611702561982398
  0.7818369410829291  0.7166251675695747  0.3206429034077942
  0.7039436012195353  0.7306948900442762  0.9961006253149165
  0.2056220215193321  0.5246945228098880  0.6695749370163142
  0.1280110246246551  0.5938110672248413  0.3304222899790261
  0.0906321338886116  0.6179317091227574  0.0254636572309579
  0.0045295985898264  0.6652511977866880  0.6702601624440661
  0.9442390215366316  0.7331229750548118  0.3296416967050391
  0.8561912493415278  0.7215737449640471  0.0063038263932853
  0.7931783364399081  0.8038941883578801  0.6870422010051556
  0.2898966435083139  0.6213415093421375  0.3453802788938987
  0.2240538209363478  0.6112728748451701  0.9876947808598544
  0.1343957498130166  0.6618924442459289  0.6918177461100825
  0.0607905968045941  0.7364345057747030  0.3196572124391182
  0.0122624939758680  0.7430334591659005  0.9992080752617341
  0.9338320884895452  0.7788386171090877  0.6477278450321506
  0.8722165846301024  0.8537071250836021  0.3318063082733644
  0.3769677916998688  0.6114186391613714  0.0050274445205289
  0.3011260022455886  0.6647165853793737  0.6719529898407828
  0.2176524357479011  0.7105530402580627  0.3410732970719579
  0.1558582830643545  0.7424186972817282  0.0069513856410097
  0.0622102472818611  0.8060236990149150  0.6652675744930079
  0.0128813819432239  0.8414721652882804  0.3481483141906025
  0.9283584347871923  0.8495676375003427  0.0046067875953355
  0.4315289691700102  0.6620325184884308  0.6541765644716051
  0.3585373435004655  0.7276506756814740  0.3318305198468607
  0.2882922883874812  0.7472761201291931  0.0021874433146891
  0.1946115302332174  0.7753854123456918  0.6637836027096995
  0.1549250032087102  0.8553308176588459  0.3501568730808842
  0.0851918780501606  0.8728718919795142  0.9987931689082430
  0.9877655577907731  0.9031754867651927  0.6577532167973743
  0.9544560141204954  0.9851833423836496  0.3485719004491727
  0.8706292600242378  0.9847240523747089  0.9891728862245515
  0.7921711972644445  0.0556188362546024  0.6761948764658499
  0.7144858837129462  0.1065777358528592  0.3302212951598378
  0.6504798272670271  0.1077533232297228  0.9881845742733759
  0.5656262402890277  0.1628178504005362  0.6574405270388439
  0.5133939040120978  0.2083076736821567  0.3260086760291614
  0.0804959364086386  0.9826337151031055  0.3420995887219362
  0.1562709965633076  0.0254373596318374  0.0198880832719652
  0.2165105800563012  0.0426576941101686  0.6738729534071481
  0.3077267735574480  0.1165330260562243  0.3337399766583573
  0.3593528987561072  0.1208973744300081  0.9814037682545020
  0.4382408708578751  0.1760171978208049  0.6712426979840913
  0.8642694136736395  0.9165731451306556  0.6635969957321848
  0.8202396982504894  0.9794845924537867  0.3432084934303177
  0.7358421048647372  0.9810725946061893  0.0065568433655017
  0.6196244740087167  0.0409093190881578  0.6654792793374753
  0.5827966490868519  0.0767490615782052  0.3273354370959893
  0.5171348866024630  0.1187772744837403  0.9695812539028381
  0.1338052682906792  0.9343423300632168  0.6578370313906348
  0.2116294141253832  0.9781357303497913  0.3298193636602420
  0.2923783817220666  0.9858012573773962  0.9925318484257275
  0.3581383255487225  0.0476641067360788  0.6681495152948074
  0.4354165846176343  0.1016665929412142  0.3381567481901584
  0.8139138518318418  0.8517230568320784  0.9958815045455935
  0.6860161961324565  0.9336147515972044  0.6717689797289452
  0.6650687288341786  0.9744159575674658  0.3475871689857613
  0.5781386571846809  0.9822785932395277  0.0005463792457476
  0.4891510489373516  0.0218641647415865  0.6491801462513394
  0.2286657509736543  0.8825389215182327  0.0051838464619323
  0.2635006237307138  0.9229483431417620  0.6580968376808229
  0.3790827183064494  0.9744438153620152  0.3087464037932293
  0.4303840629076063  0.0123753335260233  0.9969375128658982
  0.7110621939458781  0.8234687043589446  0.3415478800876812
  0.6572032899496421  0.8526885399808961  0.0010772190712416
  0.5673003415426550  0.9250998137817703  0.6852011713888260
  0.5270291338048878  0.9817261563407556  0.3459520850290474
  0.3028340934041296  0.8579820014091553  0.3376475678608770
  0.3690467297166933  0.8864493393128683  0.9941546788801148
  0.4154681012801476  0.9025040964021258  0.6652447423159913
  0.6355734665581778  0.7903831132022034  0.6647293755894594
  0.5690820790267352  0.8632738326235128  0.3252771760054785
  0.5189112337389759  0.8848102653532806  0.0026209342687196
  0.3492093375078156  0.7866647504845616  0.6732273390094008
  0.4493528319931954  0.8360844672033423  0.3516616951546681
  0.5512845821396013  0.7366213067207283  0.0025939750993729
  0.4796722387300463  0.7796933307452107  0.6573233308785831
  0.4138633472227440  0.7580338697477060  0.0184346933502155
  0.4944240448637913  0.7152760680010601  0.3434231685206441
  0.0227375899713280  0.9840606350150125  0.7605978178576507
  0.9304596926483271  0.0441701238246068  0.4448496065942322
  0.8542075676308230  0.0812320018006645  0.1166538675210944
  0.7752819036623038  0.0890693480583522  0.7865378759103052
  0.7309105870940371  0.1739335298667299  0.4417546952451090
  0.6303953750003117  0.2148693112585889  0.0899448103599028
  0.5880039979038045  0.2508984625940869  0.7607450812435701
  0.5164807118438262  0.2937470843204224  0.4377614259936351
  0.4168012321721477  0.3370485086590236  0.0924928807982681
  0.3595390016498712  0.3736873422923352  0.7873852964862635
  0.2689847234834417  0.4052689871149440  0.4428425795532362
  0.2111356101980491  0.4553468224360344  0.1156341356485484
  0.0806725513485347  0.0355660372690991  0.4495568287231464
  0.9980227154927661  0.0559043786501121  0.1140758168499119
  0.9116121296062616  0.1039483318866559  0.7643973622218496
  0.8562309639991668  0.1698835841948352  0.4412578020094458
  0.7690206275941804  0.1931546913379592  0.1075798861341184
  0.7133111567042931  0.2348819455206410  0.7715348548468342
  0.6580433860475381  0.2972486859459025  0.4299728995749419
  0.5759760114340580  0.3357128291473828  0.1000274729439354
  0.5272414858663339  0.3516989182180694  0.7763472465902694
  0.4127802630893527  0.4164079019866520  0.4288524842486936
  0.3630218413304647  0.4631099478779888  0.1268392096570636
  0.2816742604089271  0.4946616953072649  0.7721742656210324
  0.1575526539507806  0.0825070626464637  0.1246428650792595
  0.0793231486122252  0.1417071085369912  0.7865504170919380
  0.0088032448830120  0.1821732632787345  0.4443414779309478
  0.9385519387696206  0.2083471378205601  0.1188326546168668
  0.8445055500614203  0.2454680396507456  0.7728437509420658
  0.7675554846113641  0.3028655977897685  0.4185135385847758
  0.6802599069291446  0.3229907030911079  0.1122945745748325
  0.6630571118518560  0.3715294254249741  0.7542494274406408
  0.5982115642967969  0.4130777670624326  0.4268800670103303
  0.4947094808307000  0.4531662552876696  0.1104903623122837
  0.4310000760163675  0.4635703598910439  0.7793255672837986
  0.3548626592116548  0.5390494938809098  0.4469926404912954
  0.2320097462864368  0.1465058173862204  0.7759780653135380
  0.1412926682802720  0.1714876444724993  0.4458512185458403
  0.0718851208417988  0.1982601657994820  0.1480483800812209
  0.9779880387160560  0.2214023416561375  0.7811326490183177
  0.8999248317198578  0.2783783175418364  0.4419534717467073
  0.8491832173348328  0.3164308055629022  0.1158971697178757
  0.7934515622564504  0.3713941264166607  0.7835776441303537
  0.7467922144379742  0.4284827841013410  0.4542241163981515
  0.6244177978477623  0.4490481559648956  0.1174004297963407
  0.5703074421178087  0.4974988065474264  0.7793389288682775
  0.4948956114294418  0.5298062896102209  0.4584703311326734
  0.4135907974064708  0.5666203494316520  0.1343298661085370
  0.2952078975447918  0.1668825471478499  0.4368328092229632
  0.2279908119589962  0.2028963019967804  0.1174890190910531
  0.1627680146327748  0.2656240170389310  0.7662076196259306
  0.0601705099396384  0.2980491933751921  0.4507536870755331
  0.9926196612919327  0.3251922585741553  0.1054601292834292
  0.9265924897007096  0.3464956761414726  0.7619268605487406
  0.8513663752779053  0.4308190266917720  0.4404831255410144
  0.7668764020487586  0.4530251968989063  0.0998017471781125
  0.7208803837793525  0.4969208303954105  0.7669188765864376
  0.6316746416129035  0.5524664836558841  0.4529876978333576
  0.5574181211968892  0.5885699168316663  0.1024690632765299
  0.4907267744635817  0.6220677639527352  0.7921769279466702
  0.3715359882753475  0.2139457250917687  0.1190354879135924
  0.2932562875174796  0.2662473854679845  0.7929169937511560
  0.2053017333290583  0.2981767187718987  0.4421319659952729
  0.1343509932776925  0.3339116342582855  0.1382518124227516
  0.0625722945106659  0.3505789215980855  0.7793752078999816
  0.9921619813421998  0.4082022594552299  0.4399100571482677
  0.9195251815150058  0.4428335446964908  0.0971192538425427
  0.8599509755812278  0.5072231073604598  0.7678397363513838
  0.7719562989881439  0.5508956290249429  0.4281142831918601
  0.7134599817662775  0.5740004473392375  0.1054798534041339
  0.6380581531198075  0.6062172613418255  0.7652499304487890
  0.5475131371990614  0.6767552544044477  0.4414670839739330
  0.4434822079279215  0.2578511376985375  0.7511264690809298
  0.3602619215785552  0.2982243688431794  0.4325813202241164
  0.2907207194919366  0.3404168792490623  0.1143655839933189
  0.2177896676330633  0.3863087233715135  0.7563159519902811
  0.1415179056243403  0.4291856084550218  0.4392944858593566
  0.0878816978740602  0.4461555318422654  0.1109664982795238
  0.0063930591831607  0.4807425714875180  0.7881559010865473
  0.9149429483713192  0.5496849263282613  0.4410878446876225
  0.8758522622059530  0.5727326574808629  0.0933116467056863
  0.7876153434068840  0.6179144218573853  0.7712277072216978
  0.7220131767645697  0.6642507638114523  0.4409590913984758
  0.6378304004334012  0.7030531482504045  0.1103293898011657
  0.1458832615559729  0.4876241040269704  0.7878945427061694
  0.0681890902359470  0.5429531820489402  0.4507276874114439
  0.9897691850596715  0.5768188541833368  0.0999689250354194
  0.9250188074644967  0.6379097713918824  0.7755915246573011
  0.8696304830597299  0.6649144263580098  0.4393625409663073
  0.7866025817461448  0.6892074692645309  0.1101426165897905
  0.6941932741322816  0.7430111936898598  0.7924886259006101
  0.2060606740568289  0.5499472367972587  0.4321912537736381
  0.1585465463177158  0.5780734140542592  0.1166039779847807
  0.0718359677133336  0.6024064539012173  0.7864963587895062
  0.9900571867989925  0.6649534779808874  0.4430417526905330
  0.9312316172396891  0.6981687951775442  0.1219653092337296
  0.8502361927913356  0.7650971213781972  0.7817863692544904
  0.7951934092493502  0.7957877797888528  0.4543743918037251
  0.2821746239729848  0.5856417739524957  0.1123221943730286
  0.2192492583387917  0.6342537036393665  0.7781702406945641
  0.1294919947813824  0.6707250780020928  0.4388232240754846
  0.0595955594716244  0.6892707548050225  0.1248886091049641
  0.0056928786362391  0.7397878345460995  0.7788049030374253
  0.9256934043180536  0.7937576993379025  0.4380155286538070
  0.8842537739572833  0.8280823304753966  0.1403469055094035
  0.3515145731242626  0.6192765891567618  0.7780265082707771
  0.3004103235503877  0.6771826589995626  0.4619185238778130
  0.2119752906704804  0.7051809255269816  0.1163573222568175
  0.1619931883482408  0.7371757628715372  0.7906183959724871
  0.0605803285994071  0.7938179920675594  0.4459910944303047
  0.0185410454809585  0.8324765407811654  0.1441141135127424
  0.9482753138730544  0.8573176404457499  0.7780124076777639
  0.4451604014618979  0.6746350120237423  0.4418647325831273
  0.3520988355178361  0.7002532060331248  0.1192724361873019
  0.2890187086321063  0.7526933787318626  0.8041094361399317
  0.2192371470718442  0.7991631466520843  0.4480667881121292
  0.1688627689682036  0.8448700532899807  0.1122851634130484
  0.0908651733770967  0.8592074925001398  0.7898319616886980
  0.0130381669083661  0.9205071972655503  0.4438385507508542
  0.9330674442328259  0.9591410389384976  0.1120886948058342
  0.8631469297756951  0.9985975456806599  0.7788853270629588
  0.7656675239135211  0.0497546827498567  0.4463066024125411
  0.7185082457571070  0.0988984477792698  0.1227502241573077
  0.6469054095581939  0.1168121647511597  0.7649524045770306
  0.5668742299718801  0.1714496660312079  0.4245393255039787
  0.5135369943348707  0.2164951110345115  0.0834339026627546
  0.1012657531889900  0.9691649220638610  0.1290291085817117
  0.1423537046746688  0.0069293706457643  0.7828011571771256
  0.2305670415066885  0.0495306873023935  0.4558620564764482
  0.2911039652788645  0.0834454416508450  0.1157980706536961
  0.3782692477251501  0.1163692322638568  0.7484584251710800
  0.4255705113143620  0.1731910286455474  0.4343016343458075
  0.8706955159670926  0.9117928994969020  0.4663830424240842
  0.7983320587554914  0.9449536919517385  0.1070966555126347
  0.7018566544033717  0.9927396384605913  0.7610136221323600
  0.6334689007178795  0.0484300063325378  0.4463017170320782
  0.5589960717562690  0.0778038677117223  0.1035413870621795
  0.4984599308345423  0.1301323810525545  0.7480356937679531
  0.1519959229565799  0.9032469320035190  0.4502316550604419
  0.2306305747161019  0.9613847819734076  0.1157303798831180
  0.2948375603965019  0.9874322993532161  0.7834971481849919
  0.3488022334802210  0.0375612699308903  0.4592502930625386
  0.4231773200662303  0.0806793146947342  0.0929628734340184
  0.7892709991544322  0.8858423329018308  0.7933015159149548
  0.7483461076247977  0.9100489480155076  0.4460118396403132
  0.6420399717879732  0.9729610145537677  0.0923445498120188
  0.5503075163482833  0.9882317831660927  0.7766767302748008
  0.5054525708832429  0.0634154490727781  0.4313114335301407
  0.2064442050392259  0.8588149056396972  0.7830286951503638
  0.2959628407945800  0.9214130853627651  0.4264692816199585
  0.3654875466026084  0.9667677357508353  0.0994963264901827
  0.4319672957859382  0.9938733665026405  0.7766409133387597
  0.7088411375908734  0.8220877098163939  0.1240012906810009
  0.6278485063946775  0.8732676292784660  0.7954077634655903
  0.5915870838657753  0.9196515944133594  0.4446832004754455
  0.5183915845081088  0.9523965938824333  0.1153639914212974
  0.2933336851938577  0.8325414116205110  0.1072058801996505
  0.3572985070118975  0.8696933577840866  0.7650198141281521
  0.4432091699930893  0.9479195731162875  0.4409256607365108
  0.6375547349597142  0.7816355749566881  0.4511634444860775
  0.5879797400125426  0.8380886283577809  0.1231369831569822
  0.4722116922737456  0.8739398436654966  0.7762142315129452
  0.3839788656416019  0.7986044665854166  0.4558806294492328
  0.4407283411725942  0.8196395959170317  0.1046398280814600
  0.5714399229382394  0.7325501078250980  0.7872914428323483
  0.5265889287924637  0.8057832489507888  0.4584448237102876
  0.4355689913020058  0.7395115507733010  0.7672976124339499
  0.5068108721310054  0.7160314326873589  0.1226891246021822
  0.0259427092313018  0.0108408942226745  0.2337222878257421
  0.9509550195030485  0.0290298533121387  0.8761851504933205
  0.8443372068184019  0.1003635554160525  0.5715499205436601
  0.7842446016726115  0.1316361978984872  0.2513108577408545
  0.7245872594046148  0.1469215050623092  0.8856558687872251
  0.6488956540783164  0.2073582846367401  0.5445711149296102
  0.5993819514898817  0.2487466287121478  0.1983967399215345
  0.4899970312078210  0.2688976809200128  0.8681358281331413
  0.4284071069581046  0.3358368143906105  0.5528192882951544
  0.3499198544088813  0.3696672898778530  0.2426089378690222
  0.2811949899672896  0.4294145510681702  0.8968306985697865
  0.2031658101414067  0.4717095374685627  0.5618213201379803
  0.0970185964874091  0.0604063324651989  0.9002492642213937
  0.0057073472739901  0.1132649341709779  0.5233134149860277
  0.9160660874330091  0.1176887428494879  0.2173681584647937
  0.8556246234455500  0.1686392130739165  0.8711730873416812
  0.7807440041747853  0.2394413930201083  0.5480022277920611
  0.7202351693523354  0.2363205275982594  0.2236082277145428
  0.6394605373563849  0.2758619915438700  0.8620582641051158
  0.5624162289921557  0.3358273605502688  0.5557622782651350
  0.4879645924033795  0.3482644393794985  0.2077231538782840
  0.4300496520124710  0.4049917981296502  0.8859684241805681
  0.3766513215997662  0.4559395345080191  0.5578052436876320
  0.2763530070031877  0.4876217212906582  0.2182988475601064
  0.1319622409263772  0.0999057727776886  0.5566648583351608
  0.0900656639347588  0.1330760350769040  0.2299594479830134
  0.9875030785131855  0.1549579813018482  0.8828061571125261
  0.9035028460458676  0.2161191850220163  0.5496689991085404
  0.8626314906878676  0.2437089057364830  0.2250936353104791
  0.7753880254956087  0.2719569855491031  0.8937391321386912
  0.7117388111768008  0.3603779889235881  0.5498113095007398
  0.6307436586220447  0.3693813610182985  0.2337764253691788
  0.5864924374041323  0.3978329885809018  0.8874576534325556
  0.4811535371594786  0.4718476048274738  0.5600763556026394
  0.4315171892996332  0.4891592070054926  0.2220922567753192
  0.3639935228771307  0.5215086075671422  0.9052850927851921
  0.2353732387018681  0.1242071129713693  0.2281118482534694
  0.1405381451983416  0.1921720926999910  0.8994341210061876
  0.0558474374858520  0.2206739310317474  0.5465475239337962
  0.0038351983060139  0.2609977072907839  0.2276706024469988
  0.9105377933648455  0.3056387856599585  0.9055208993854507
  0.8460283645141118  0.3659475416248270  0.5505354022127165
  0.7665129832939002  0.3839856904970631  0.2104203223041878
  0.7082211043958466  0.4095558073354226  0.8961908132108505
  0.6349868638142198  0.4501791381371945  0.5411711429223587
  0.5474623933934382  0.4901435680441679  0.2112758668061971
  0.4919298045734237  0.5376152081124772  0.8915889424339909
  0.4020853488653273  0.5868756067203691  0.5490252968307914
  0.2880440666759370  0.1613498479712092  0.8793807285004931
  0.2247694414963917  0.2208533286781460  0.5504155966977180
  0.1537851448302305  0.2470473739862982  0.2121467758814504
  0.0547426628157410  0.2701843959945407  0.8881818985973453
  0.9853496535084361  0.3261285831451772  0.5598210961960035
  0.9346894924617573  0.4044102632630455  0.2175592335155017
  0.8474866028861499  0.4228919855436999  0.8809341296193409
  0.7815862455290699  0.4929533277180909  0.5441684345163509
  0.6842938105895158  0.4979740711567828  0.2122263756282194
  0.6319543567742514  0.5219890282349198  0.8861033096040956
  0.5300992074501423  0.5804454565035257  0.5612727764068524
  0.5184394942559365  0.6092448402726447  0.2538506001214458
  0.3577518866189422  0.2212684679279562  0.5703766790265448
  0.3025357962085025  0.2557113023085549  0.2143262834674857
  0.2223456038421645  0.2996862760101138  0.9001986270633893
  0.1331768162632656  0.3535917790160639  0.5547745907675576
  0.0603824912347761  0.3744916495422643  0.2389731502176957
  0.9972061021891037  0.4029839510598734  0.8949535509877151
  0.9217348052510062  0.4713525784973598  0.5585508606693281
  0.8615984429884804  0.5190959075506427  0.1958488606951647
  0.7687208281956686  0.5529866120038207  0.8820180204390127
  0.6761417776706509  0.5938468262595364  0.5448756514773692
  0.6344305206760268  0.6204580533119000  0.2224119572098573
  0.5782486602289296  0.6460052871163953  0.8838808620043679
  0.4528870067016086  0.2474225792765239  0.2068100024547519
  0.3529878619952171  0.3042115096032489  0.8870107754852441
  0.2895981048001417  0.3278684895523227  0.5574193081054091
  0.2083321814675188  0.3695427082245857  0.2372755016085080
  0.1311180017157696  0.4260543180117651  0.8835716722006168
  0.0539120814287912  0.4438879740826209  0.5506005874170441
  0.0090335871540006  0.5026484473204178  0.2268579734111995
  0.9116149903471609  0.5398064147719808  0.8890994345464946
  0.8542973316227389  0.6005765497034119  0.5474458934639088
  0.7596448976519525  0.6094817829901586  0.2159904613635462
  0.6954204236175414  0.6597819942603564  0.8804090924751193
  0.6084966727941961  0.7180088032463061  0.5611648889118541
  0.1404685116572253  0.4918730100190558  0.2332572292347663
  0.0704757090069137  0.5322209512922953  0.9161177883145371
  0.9895503626213653  0.5846607504892347  0.5616247925306723
  0.9270663820266805  0.6420663997870619  0.2169350094529321
  0.8482447361743866  0.6748150402173607  0.8901609363358816
  0.7621577722783641  0.6923826601870076  0.5536360886810243
  0.6832772257959832  0.7473575950842246  0.2079168512034713
  0.2299016617389640  0.5306437160584139  0.8875502538726892
  0.1413583235575899  0.5759944828029901  0.5477542421932498
  0.0804918636314298  0.6064111434239905  0.2373733900940138
  0.0091009643964881  0.6719376453822150  0.8972072888808498
  0.9073972011045370  0.7239879981456596  0.5384044564454342
  0.8312784072988961  0.7695428536919877  0.2079096574979644
  0.7769318806662184  0.7964779161398994  0.8961904247576484
  0.2747052550537958  0.5774914925482122  0.5502585961421715
  0.2240105992247052  0.6191917397793318  0.2264049529937182
  0.1387860301664077  0.6578378183940572  0.8947185019142765
  0.0529145940446796  0.7255129634867288  0.5608570526651278
  0.9874189343573008  0.7667491952770931  0.2251973251852917
  0.9453889699741040  0.7661110558197421  0.8783395158546625
  0.8563138884446246  0.8261862990644815  0.5739578536883698
  0.3643117870295640  0.6213129192914835  0.2276504218291748
  0.2936577566727436  0.6588377567805139  0.9055597274798330
  0.1782914707206160  0.7054103643029137  0.5685658445411974
  0.1396159630985352  0.7538848267057148  0.2159110429236506
  0.0783414465661210  0.8014787840886513  0.8934089322704679
  0.9868251260929242  0.8383812940285651  0.5322776613566589
  0.9400641786315447  0.9021448149746689  0.2273268153296897
  0.4366220482156820  0.6821343432165534  0.8948680826690421
  0.3528944142624013  0.7176519283416383  0.5584123017359843
  0.2871987104221745  0.7761833955292516  0.2137437866866492
  0.2180566304727307  0.8011519006301739  0.9036013660460895
  0.1163078986076300  0.8402956503021031  0.5513981856392860
  0.0973619698804313  0.8908014643758619  0.2462661563373416
  0.0123685124675745  0.9189157765327565  0.8773371433616290
  0.9357971056065324  0.9657155122101386  0.5674070347928293
  0.8730053457331906  0.0012567957040233  0.2395725714138095
  0.7987899114052937  0.0121145329723831  0.8930745998113707
  0.6894381242851395  0.0753806917878421  0.5576688673272940
  0.6291984990568551  0.1211778401810122  0.2192821208167004
  0.5783985495438770  0.1484882327320136  0.8811482060955314
  0.5041499068148809  0.2140408157453138  0.5178358755054830
  0.0578194112275696  0.9592041166694258  0.5545769537861247
  0.1505312420417582  0.0086072533944233  0.2242588149162614
  0.2143409942533623  0.0399243465237120  0.8759811376252671
  0.2885602615831289  0.1012304588086508  0.5774074843994299
  0.3586121226574974  0.1292676568211988  0.2264614677674288
  0.4062432471569508  0.1457130882996651  0.8443276714771102
  0.8843874515443773  0.9116908029117923  0.8913424822246014
  0.8034341023240614  0.9716258464924010  0.5835537973238942
  0.7322189838654936  0.9971697909902630  0.2266019297769617
  0.6471822800265770  0.0405181923291806  0.8828737005981822
  0.5561315653780312  0.0915862196188542  0.5502564010800910
  0.4781675583985958  0.1486712589560639  0.2058779399921633
  0.1308821610470829  0.9220049569913655  0.9127575160527641
  0.2046581970279462  0.9518402594002140  0.5695017600978431
  0.3057943063533841  0.0068090182754403  0.2313014896448351
  0.3586968307291727  0.0362992128110946  0.8840577533451324
  0.4280047351711076  0.0851948469583306  0.5572380809033461
  0.7926401151580791  0.8653487147480590  0.2530653260293789
  0.7324723746327919  0.9115812974921340  0.8826744908549813
  0.6382949593666680  0.9685126578230197  0.5610830928110317
  0.5979277350156735  0.9938377602506208  0.2181074137715697
  0.4996360994224887  0.0349455365872089  0.8788184037243241
  0.2470225126593277  0.8960250937410592  0.2298163447500698
  0.2819890162273921  0.9197247665534576  0.8852678389168105
  0.3313148538910440  0.9601063607965088  0.5578431282110898