Li 
 1.0000000000000000
   -11.0705700000000018   19.1747897087477881    0.0000000000000013
   -18.9781199999999970  -10.9570226907130195    0.0000000000000076
     0.0000000000000001    0.0000000000000001   23.2203000000000017
 Li 
 504
Cartesian
  0.2669988700000000  0.3624732000000000  0.0597916300000000
 -11.1972386099999994 17.3898463599999999 15.4076953600000000
 -11.6347194199999997 15.6549598299999992  7.5838428799999997
 -11.0192826400000001 13.6543905999999993 -0.3132946800000000
 -10.7456689999999995 12.0422503400000007 15.4108756699999994
 -11.0357677800000005 10.1853809500000008  7.7007991799999997
 -10.1549847000000000  8.4819490299999991 -0.4140620700000000
 -11.3498039800000008  6.4483384199999998 15.0599352500000006
 -10.9578845400000002  4.3379636300000000  7.2285738999999998
 -11.3172688800000003  2.4597222900000002 -0.0441121200000000
 -11.1733403500000001  0.9129690900000000 15.4599079199999991
 -11.4155658199999994 -1.3188771900000000  7.7686021600000004
 -1.2113791800000000  0.3677443700000000 15.0410204699999994
 -2.2424719099999999 -0.5626011000000000  7.8862729700000003
 -12.3071728900000004 16.3350588499999994  0.1156241300000000
 -12.2860693100000002 14.3080006199999996 15.8848898500000004
 -13.0722762299999999 12.9724064600000002  7.9069408399999999
 -12.3528480100000007 11.0571245299999994 -0.0101236200000000
 -12.4656769999999995  9.5502269900000005 15.0940862100000004
 -12.1924298400000009  7.7397716799999996  7.7180631999999996
 -12.1052380100000008  5.8162302099999996 -0.1152256700000000
 -12.6594674499999993  3.7406630199999999 15.7549604700000003
 -13.0056920599999994  1.2342607800000001  7.9150066199999998
 -12.3254366999999991  0.0274512300000000  0.5593796400000000
 -3.8550179700000000  2.2793775599999999  7.8763866499999997
 -3.4993931900000002  0.0607994800000000  0.5162851200000000
 -2.8948420600000002 -2.2774794500000000 15.1986854499999993
 -14.7236686300000006 15.3730486499999994  7.4767724600000003
 -13.7474969399999996 13.7040939799999997  0.1330607400000000
 -13.7385873800000002 11.6740664200000008 15.3811664100000005
 -14.2137278699999996  9.7149106900000000  7.6732108600000002
 -13.1474140300000002  8.6354867599999992 -0.1455691200000000
 -14.5553761099999992  6.1495313600000001 15.2815709700000006
 -14.2435753100000007  4.4070289999999996  7.3348228400000002
 -14.3372415199999992  3.1266737899999999  0.2826787000000000
 -14.3304871100000000  0.7377139800000000 15.3962634999999999
 -4.9470641500000001  2.9530458300000002  0.1262459200000000
 -4.0287172000000000  0.6531977100000000 15.5068930100000006
 -4.8580603099999999 -1.1045114899999999  7.8486824700000000
 -4.5821875099999998 -2.7003290999999998 -0.0057873200000000
 -15.1679671599999999 14.3039051700000002 15.3132587900000008
 -16.3608222300000001 12.5637792099999999  7.7331788499999998
 -15.4297878500000003 11.2702894300000001  0.0772875000000000
 -15.6891258300000001  9.1903218399999993 15.0756321999999994
 -15.9263055500000004  7.6528981500000004  7.4666331200000000
 -15.2886308000000000  5.9483999499999998 -0.0117617400000000
 -15.8740562900000004  3.3841366000000002 15.7957996999999999
 -15.8526132799999999  1.7657270599999999  8.1017031100000008
 -6.4210238300000002  3.6050074699999999 15.4340492299999994
 -6.9868755399999998  1.4076498900000001  7.2362674699999996
 -6.3704242200000003 -0.1949501000000000  0.6178757900000000
 -5.6904385499999997 -1.8055041700000001 15.6887633399999995
 -17.2584670899999999 15.4521809700000006  7.7419165699999999
 -17.1352947299999983 13.4493257800000006  0.1102145600000000
 -17.2558475700000002 11.7726550599999999 15.4257139500000005
 -17.6636040799999989  9.7401916899999996  7.3823274200000002
 -16.5688254499999985  8.3734698900000009  0.1180617800000000
 -17.1545053799999998  6.6654424800000003 15.0210917700000000
 -17.1176543800000012  4.8713963900000001  7.8648740200000002
 -17.4070622700000008  2.8349595100000000 -0.1229474000000000
 -8.1829460500000000  4.7787416199999999  7.4477479400000002
 -7.9862353800000001  3.0248566600000002 -0.0888083700000000
 -7.4724965599999997  0.7105840400000000 15.1926246999999996
 -8.2542688599999998 -1.4520639799999999  7.9662491199999996
 -7.7055560099999996 -2.6709880699999999 -0.2318501700000000
 -18.4463654099999985 14.7543105000000008 16.0831396099999999
 -19.1314766399999989 12.6557925499999993  7.7958379200000003
 -18.7159400699999985 10.9096068600000002 -0.0429868900000000
 -19.4033175900000003  9.1192536600000000 15.4405006700000005
 -19.0881191699999988  7.3270328200000003  7.5080659199999999
 -18.6083625200000000  5.8148781200000004 -0.2170575400000000
 -18.7982856900000002  3.6092500900000002 15.8560138599999991
 -9.1497419699999991  5.4368873400000002 -0.5491372000000000
 -9.5447422100000008  3.4923675300000001 15.5112140899999993
 -9.6447156500000002  1.8921276199999999  8.2059028699999992
 -9.4313389599999997  0.1217171100000000  0.3195805500000000
 -9.0377618599999998 -1.9219315600000000 15.4328383200000001
 -9.5997064600000002 -3.9808624500000001  7.9617029700000002
 -20.1698840399999995 13.6212873099999996  0.1092586600000000
 -20.6640135399999991 11.7427319400000005 15.5961724799999999
 -20.7235058499999987  9.7910384900000000  7.6581879400000004
 -20.1053102000000017  8.5400209700000005 -0.2692726800000000
 -20.8175331700000008  6.1613166399999999 15.6809200700000009
 -20.3829537499999986  4.0951870899999996  7.4947567599999996
 -10.9200624800000003 -2.4062789000000002 -0.2213448300000000
 -10.4139583800000004 -5.0672478800000000 15.4136850699999997
 -22.2704398700000006 12.4019217299999998  8.1750078599999991
 -22.0331528500000005 10.6840745800000008  0.1174845600000000
 -21.9342068599999998  8.8390583599999992 15.3525717000000004
 -22.2555790100000017  7.1394807100000000  7.4454244100000002
 -21.6602722199999995  5.4917300300000003 -0.0905446500000000
 -12.2340686000000005 -1.8063307700000000 15.5477309100000003
 -12.6865726999999993 -4.0518168599999997  7.6725047000000002
 -12.7305315100000005 -5.0328396499999997  0.5912737600000000
 -23.7459322999999998 11.9724713400000002 15.5636420500000003
 -24.3665599800000017 10.0727396000000002  7.6543790899999999
 -23.1726382800000010  8.5109872600000003  0.1463767400000000
 -24.0373366699999984  6.4007409400000004 15.9533260200000004
 -15.0012148100000005 -1.2493458399999999  8.0198336900000005
 -14.0812134800000006 -2.4015458600000001 -0.2857308800000000
 -14.0493117900000009 -4.6753602900000004 16.0642156100000015
 -14.6491289800000004 -6.9034826799999998  7.4225363700000004
 -25.3077009500000010 11.2684859799999995 -0.0183887300000000
 -25.1189462399999996  9.3722815199999996 15.0404348799999994
 -25.8576910200000007  7.3704812500000001  7.7046420199999996
 -15.7768246300000001  0.5289502300000000  0.1167387700000000
 -15.9487076099999996 -1.5092869400000000 15.6029500100000007
 -15.8944973899999997 -3.6121061000000001  7.9198242800000003
 -15.8151511599999992 -5.1461487100000003  0.1614132600000000
 -15.9855173799999992 -7.6387515500000003 15.4477126600000005
 -27.1827339700000010 10.2017578899999997  8.0841083000000005
 -26.4006536099999991  8.4923458800000002  0.1069709900000000
 -17.3414042399999992  1.0205719099999999 15.1901760800000005
 -17.7786545999999994 -1.0980068000000001  7.7052042199999997
 -17.3734558399999983 -2.6599773999999998  0.0507930900000000
 -16.8698179699999997 -4.7642803899999997 15.4132543900000005
 -17.9476789900000000 -6.4012248200000004  8.1307476399999992
 -17.5085901600000007 -7.9305407800000003 -0.0280229800000000
 -28.0757005200000016  9.0440825500000006 15.2732270200000002
 -29.2632998099999995  7.5068171200000000  8.0939440999999999
 -9.3484534000000004 16.8615118799999983 -0.2514088300000000
 -9.8253276399999994 14.5802992699999994 15.7014478900000007
 -9.9324110500000007 12.5323419000000005  7.6678375399999998
 -9.2461379600000004 11.2921582899999997 -0.2743577300000000
 -9.3517815899999999  9.0617653300000001 15.2659662699999998
 -9.6368511800000007  7.5617882400000003  7.5700192599999996
 -19.5396764599999990 -9.2232472600000008  7.9436550800000001
 -2.2127622699999998  2.7177457700000001  0.4618072600000000
 -3.2064583700000000  3.6841435200000001 15.6475321399999991
 -5.6182885400000000  4.6237411599999998  7.7495423800000003
 -6.2726462999999999  5.5658409899999999 -0.4318100800000000
 -8.1920517400000001  6.4745521100000003 15.5864568200000004
 -26.9627901799999989  6.5292715100000001 15.4089213199999993
 -27.6692971300000004  4.9956888199999998  7.9694041799999997
 -7.7869849599999998 14.3170056300000006  0.1522518700000000
 -7.6359780800000001 11.4329246500000004 15.4526285100000003
 -7.9084440000000003 10.3340619799999995  7.6008270500000004
 -7.9791473300000000  8.6145074099999999 -0.7063324100000000
 -19.2133614500000007 -7.6719222299999998 15.2751732199999992
 -20.9060355099999988 -6.6595058800000002  7.6585045699999998
 -2.9673299000000002  5.7618699299999996 -0.1734127200000000
 -4.8693705400000002  6.3449703800000004 15.5146321900000004
 -6.7497505799999997  7.2350582799999996  7.8521011400000003
 -25.1745926500000010  6.2742780900000001 -0.0956327000000000
 -25.3128431099999993  2.9245782800000000 15.5986772400000007
 -25.8552728899999984  2.0758552600000000  8.0710783399999997
 -6.0640054900000004 11.2798610299999993  0.0126870900000000
 -5.8301216699999996  9.1398023500000001 15.0741577499999995
 -19.2803897599999985 -5.2853813000000001  0.1203704700000000
 -20.4329265100000015 -5.0601968900000003 15.2812059999999992
 -22.6897734299999989 -3.4081715899999998  7.1691841199999997
 -4.9994574600000004  8.1169270900000008 -0.0711118700000000
 -23.4997516799999993  4.6117027600000000  7.9308442399999999
 -23.4580404599999994  3.2588072000000001  0.0250133500000000
 -23.8369934199999989  0.7415251000000000 15.9105767599999997
 -24.4658297199999986 -0.6511229600000000  8.0331112000000005
 -19.6354314099999989 -3.5941481999999998  7.8402778199999998
 -20.9086995900000012 -2.6364520900000001 -0.1357301100000000
 -21.7272997399999994 -1.9222443899999999 15.4471824899999994
 -22.0361461200000015  3.5267418600000000 15.4352155199999999
 -22.6833773799999996  1.4531182199999999  7.5530336100000000
 -22.5366785299999997  0.2551276300000000  0.0608588800000000
 -18.7953644500000010 -1.9234879100000000 15.6325407799999994
 -20.8419033300000009 -0.5447504200000000  8.1656900599999993
 -20.0827221099999988  2.4995895600000000  0.0602328800000000
 -20.1073586900000016  0.6544967900000001 15.2632449399999999
 -18.9677608999999983 -0.3700516600000000  0.4280591100000000
 -19.0481510500000013  1.6431809799999999  7.9743890000000004
  0.0507811000000000  0.6106364900000000 17.6613095099999988
 -11.1389850700000004 17.3573958899999994 10.3295413200000006
 -10.9981953499999996 15.4891895900000005  2.7087378000000002
 -10.2731813600000006 13.8899325999999999 18.2636454400000012
 -11.3925282200000009 12.1092631700000002 10.2576765499999993
 -11.0566516999999997  9.7333708300000001  2.0885454800000001
 -11.2711205499999991  8.5257528600000008 17.6647290099999985
 -11.2925032900000009  6.6848155699999996 10.1649516400000000
 -11.0107742599999998  4.2990278200000001  2.1477124399999998
 -11.0721849100000007  2.7995840599999999 18.2833228000000005
 -10.6690576799999999  0.7171840200000000 10.2829375499999998
 -10.9790181899999997 -0.9407645400000000  2.6850593200000001
 -1.5680676499999999  1.1571813300000000 10.4388444299999996
 -1.0390703400000001 -0.6504595600000000  2.6488746900000000
 -12.0648098099999999 16.3410066500000006 17.7495360700000013
 -12.7030358700000008 14.5566303900000005 10.2461385400000005
 -12.1792096000000001 12.6294084800000004  2.4980372300000000
 -12.3543788400000007 11.1039846200000003 17.9152707900000010
 -12.9261365999999995  9.3608829500000006  9.9840997199999997
 -12.7475811100000005  7.3658058100000003  2.3226679300000002
 -12.5114480500000003  6.2561715900000001 18.0270159700000008
 -12.4723519300000003  3.3523839099999999  9.9580833400000000
 -12.8078148699999996  1.8865612599999999  2.9452444999999998
 -12.5060436300000006 -0.0189747100000000 17.9301181000000014
 -3.3100266199999999  2.1170072499999999  2.8942447200000001
 -3.5674869800000000 -0.0316833100000000 18.2639366500000015
 -3.5547629900000000 -1.8272762100000000 10.3177424200000001
 -14.3443419199999997 15.7136717400000006  2.7593298900000001
 -14.0076797200000005 13.5036174500000001 17.9456637500000014
 -14.2450963799999997 11.3992097799999996  9.7180099200000001
 -13.6606212399999993  9.5048241999999998  2.6075137100000001
 -14.3913501900000007  8.6431243400000000 17.5138979799999994
 -14.4619824300000008  6.9444784799999999  9.9122832200000008
 -14.0769595100000000  4.5205973200000003  2.5656193599999999
 -13.5691104300000003  3.1849848700000001 18.0961734700000001
 -14.1586778899999999  0.8980393300000000 10.3793032099999998
 -5.3488851200000003  2.8434705299999998 18.0184434700000011
 -4.8187034700000000  0.8302631900000000 10.3527990499999998
 -4.5584144799999997 -0.7939590600000000  3.4377277999999998
 -3.9581152500000001 -2.8479852100000000 18.1381344499999990
 -15.2457779599999999 14.2056718600000007 10.2622921999999992
 -15.4062040499999995 12.8157700999999999  2.6911670499999998
 -15.8323233600000002 11.1448929799999998 18.1949079699999992
 -16.3992131800000003  9.6246880800000003 10.5472202500000005
 -15.4347507299999993  7.0528491300000002  2.7260732000000001
 -15.7552205099999991  5.4844195600000001 18.0964837299999992
 -15.5335038500000007  3.6844197400000001 10.6458186300000008
 -15.3320748600000005  1.7220445400000000  3.1191797900000000
 -6.4352366999999999  3.8320135000000000 10.1433888799999998
 -6.3745786100000004  2.1485364900000001  2.7281302699999999
 -6.8429791700000004  0.2105940700000000 17.7915707900000015
 -6.3225351999999999 -2.1119748999999999 10.4666358400000004
 -17.1604031500000005 15.4701343100000006  2.4488158400000000
 -16.8337435400000004 13.9706551500000007 17.6921702799999991
 -17.6012462399999983 11.6042773599999993 10.2281503199999992
 -17.0873254400000008  9.7408863799999992  2.3174265100000002
 -17.4111799000000005  8.3779569499999997 17.8080863899999997
 -17.4777735599999993  6.0588406199999998 10.5185102399999995
 -17.3408868399999996  4.2394013199999998  2.3793623899999998
 -17.2383017800000005  2.5935720999999998 18.3945859200000008
 -8.1734028100000007  4.7799162800000001  2.7640397399999999
 -8.2993890900000000  2.7058490000000002 18.4117704700000004
 -7.9316407599999996  0.6694884900000000 10.2664368899999996
 -7.8243571400000000 -1.0825253100000001  3.2102485600000001
 -7.3460398099999997 -2.6414906100000000 18.0973261399999998
 -18.7307101299999985 14.5518159300000001 10.2148435000000006
 -18.5838160399999985 12.7795647900000002  2.2551382100000001
 -19.1462884699999982 10.9317240200000008 17.8294690299999985
 -19.0009596000000016  8.7659237900000004  9.9409420900000001
 -18.7918580400000010  7.3911091899999999  2.4492738400000000
 -18.5685313799999996  5.5922946199999997 17.7693329599999998
 -18.9048249400000010  3.0832265900000002 10.2509981299999993
 -9.8031306600000008  5.6783973100000003 17.4413819500000002
 -9.6480426799999996  3.6402954099999998 10.0446680300000004
 -9.6789164599999999  1.8445531900000001  2.6556031700000000
 -9.7424690700000003 -0.0567223700000000 17.5618833000000016
 -9.7118198600000003 -1.9890203700000000 10.2005497500000004
 -9.4400937099999993 -3.2034232100000000  2.5766753800000002
 -20.2649350199999994 14.0298680099999995 18.3012164700000000
 -20.5609264500000002 11.5209284200000006 10.2421920800000006
 -20.5655728800000013 10.5188382199999992  2.1667244299999999
 -20.4462048400000000  8.3318562400000005 17.9081387300000010
 -20.5993281199999991  6.5662401399999997 10.2392023900000009
 -20.4037731099999995  4.5268945000000000  2.5618815300000000
 -10.8691996199999998 -2.5456275100000001 18.2951476500000005
 -11.0591227399999994 -4.6416388700000004 10.4660321199999995
 -21.9042464800000012 12.6583987100000002  2.3213084300000002
 -22.3468136500000014 10.7474492700000006 18.0094678799999990
 -22.2461309100000015  9.3894991799999996 10.2021300099999994
 -21.7880010000000013  7.5312772099999998  2.5575445999999999
 -21.7860708299999999  5.1698195399999998 18.4018236399999999
 -12.7181737699999999 -2.0746142600000002 10.0356105699999993
 -12.7259472599999999 -3.2938668299999998  2.7075793500000001
 -12.2278070799999998 -5.2231416099999999 18.2626814000000017
 -23.5800642899999993 11.6982280099999993 10.2875624099999996
 -23.5591959799999984 10.2063191000000000  2.8320710700000000
 -23.9327042699999986  7.9199136799999996 18.1533140300000007
 -23.9058002800000011  6.5282016399999998 10.5507096899999997
 -14.2382137899999996 -1.0062511300000001  2.6081550500000001
 -14.4641571599999992 -2.7454738000000001 18.0693464400000003
 -14.1626512099999999 -4.8661681300000001 10.1896069100000002
 -13.7408199100000008 -6.4096229800000000  2.8999509699999999
 -25.1733757099999984 11.1780773700000005 18.0840834900000011
 -25.3119824999999992  9.0527552399999998 10.1708519800000001
 -25.5046391399999983  7.8820632799999997  3.2588972500000000
 -15.6441721099999995 -0.0452096200000000 18.0660089299999989
 -16.1773672799999986 -1.6596009800000000 10.7258867000000002
 -15.7296955199999999 -3.6621017800000000  2.7018519300000001
 -15.7835670199999996 -4.9710662399999999 18.3583963399999988
 -15.7358318799999992 -7.5362666899999997 10.3560470099999993
 -27.0746696299999989 10.4088460099999995  3.3463729500000001
 -26.7682253000000010  8.7893308900000005 18.0656815100000010
 -17.7314836000000007  1.1438659499999999 10.2602316499999997
 -17.1874241800000007 -0.9212691400000000  2.7695417500000001
 -17.4843071099999996 -2.7054054700000001 18.6716623400000010
 -17.5936942800000011 -4.5526225399999998 10.4042452399999998
 -17.9034523599999993 -6.0193522599999998  2.6072951799999999
 -17.3120721599999996 -7.6720354000000004 18.3401351000000012
 -28.6844059899999984  9.3387755699999992 10.3060642999999992
 -28.5322821900000001  7.3820418999999999  2.6027331199999999
 -9.5289125600000002 16.5660275900000009 18.0859509600000017
 -9.4206262600000006 14.1363505699999994 10.3633731999999998
 -9.8312024400000002 12.6936119800000000  2.8502970300000001
 -9.3784869000000004 11.1243616500000009 17.7624243200000009
 -9.5294131800000006  8.9911162699999991  9.8579305000000002
 -9.7938174399999998  7.4748220300000003  1.9373602500000000
 -19.5139977999999985 -8.6774125200000007  2.9960946100000001
 -1.7074430800000000  2.6536770800000000 18.1768777099999994
 -3.4925079000000001  3.8783656700000000 10.5852537099999999
 -4.8063244300000001  4.6675437200000003  2.6888659399999999
 -6.3961254399999996  5.9781729600000002 17.3794291700000016
 -7.9981482599999998  6.2625670299999996 10.0846142400000005
 -26.9432107199999997  6.7048679299999998 10.8295541600000007
 -26.7714354999999991  4.9539702999999999  2.4868164699999999
 -7.6321652100000001 13.5375057000000005 17.6709646099999986
 -7.9319722800000001 11.6159842799999993 10.3632597600000000
 -7.6649762800000003  9.8661333800000008  2.4042620700000001
 -7.9879034999999998  8.1320008999999995 17.3696132200000015
 -18.8246101699999997 -6.9824072700000004 10.4545141000000008
 -20.7984876800000009 -6.1116220999999999  2.6872941400000001
 -3.0255085199999998  5.7911527999999999 18.1930388299999990
 -4.5742818300000003  6.2766497899999996 10.6639295799999996
 -6.2159558600000002  7.2303310400000003  2.1586258100000002
 -25.5493019399999994  5.4279108899999997 18.4206991900000006
 -25.5556361099999982  4.3779522699999998 10.3565287200000000
 -25.5727193399999990  1.6502255299999999  2.1442681499999998
 -5.8688792500000000 10.6809755200000005 18.0346666800000008
 -6.7991540700000002  8.9971022400000003 10.0151808800000008
 -18.5841473599999993 -5.4515301899999997 18.1821612100000003
 -20.7631654499999989 -4.4209188499999996  9.9027446599999998
 -22.3935895699999996 -3.5847491699999998  2.3103345499999999
 -4.6658521999999998  8.3500117199999995 18.0338349999999998
 -23.4489546400000002  4.5842460599999999  2.8793471700000000
 -23.5236187000000001  2.4704498500000001 18.4696068900000014
 -24.0024645399999983  1.2669145399999999 10.3256773200000005
 -23.8135871700000017 -0.4953814700000000  2.6787864899999998
 -19.0474419099999999 -3.4975634100000002  2.4893527000000000
 -20.4606430400000008 -2.6781261199999999 17.7639895900000013
 -22.8963095500000016 -1.8879336400000000 10.2384261199999997
 -21.8920680599999997  3.6605792400000001 10.4761505300000000
 -22.4146174299999998  2.0914317499999999  2.8592776899999999
 -21.8133878199999991 -0.5212188000000000 18.0239273199999985
 -19.4068763100000012 -1.3876132600000000 10.5856849799999999
 -20.4343325600000014 -0.5299363900000000  2.4297681999999998
 -20.2285895199999999  2.9306722000000001 18.2811434900000016
 -21.1218907899999984  1.2682466299999999 10.6452263400000007
 -18.8565359599999987  0.2490989700000000 17.8168807499999993
 -19.1996156900000017  1.8724192399999999  2.8488782800000001
 -0.4929403700000000  0.3786620700000000  5.4271016400000001
 -11.0785461499999993 17.9162817600000004 20.3452820500000016
 -11.2520057500000004 15.0903026300000001 13.2715606200000007
 -11.1802423199999996 13.5953845100000006  5.8355135100000002
 -10.8098879300000004 12.2839860600000002 20.5651949700000003
 -11.1189151699999993 10.1704082800000002 12.6451046599999994
 -11.3562432199999996  8.7675004199999993  4.6068318200000000
 -10.5277188899999992  6.4492720400000003 20.1583743700000007
 -11.1162622300000002  4.5348445899999996 12.8366297199999995
 -10.8894024300000005  2.6591867400000000  5.6334523200000000
 -11.2624697000000005  0.6867498200000000 20.8246778699999986
 -11.2013215299999995 -1.2728704200000001 13.0456596000000005
 -2.2204497900000000  1.1984376299999999 20.9040579899999983
 -2.2127390999999998 -1.1316092700000000 12.1514944899999993
 -12.3748848299999992 16.2758563599999988  5.0473538500000004
 -12.6727075100000004 14.5586385400000005 20.2289004400000003
 -13.1874286400000003 12.3470373200000001 12.7247761300000004
 -12.4583331899999994 11.2209885299999996  5.1922501299999997
 -12.3145346199999999  9.2388952300000007 20.0172515100000012
 -12.5996401799999997  7.1045449100000004 12.9049668299999993
 -12.0114505000000005  5.5406770800000000  4.8233939499999998
 -12.4468777199999998  3.8086073200000001 20.5724525999999983
 -12.8226200200000005  2.2264700600000000 12.9524051000000000
 -12.3135288500000009 -0.0438714700000000  5.0689647300000003
 -3.3569209700000000  1.4356784000000000 12.9259250100000003
 -3.5226112000000001  0.2688730300000000  5.3397273700000003
 -13.8730331200000006 17.2372857500000016 20.4990238100000006
 -14.1038273299999997 14.9564542599999992 12.7634790599999999
 -14.1749591600000002 13.8704534200000005  5.2267417399999996
 -13.7452197199999997 11.8880634700000005 20.7528907700000005
 -14.7186510500000001  9.6987722299999994 12.7667835499999995
 -13.9928556200000003  8.0470570600000002  5.4283587300000002
 -14.0429277799999994  6.8868040700000002 20.6070329500000007
 -14.2814243800000007  4.0559729799999999 13.0051410000000001
 -14.0604633799999998  2.9145228300000001  5.1570488299999999
 -13.9268687100000008  1.2653176100000001 21.0209914399999995
 -4.9629334099999998  3.1522922000000002  5.2968255500000003
 -5.2029024100000001  0.5891554000000000 20.8851301199999995
 -4.8062393099999996 -1.3470664000000001 12.6909974699999992
 -4.9957036400000003 -2.7862186800000002  5.2865796899999999
 -15.8806219300000002 14.1104795999999997 21.0264669399999988
 -16.3110125900000007 12.2127204599999999 12.7835972000000009
 -15.7730621499999994 10.4903853399999996  4.8860230099999997
 -15.6130105700000001  9.0924784699999996 20.8098195399999994
 -15.5732202300000004  7.2431165499999999 12.5661562900000003
 -15.3627242000000006  5.1269620700000003  4.9058890100000001
 -15.6488692700000005  3.5419885199999999 20.7029627199999986
 -15.5891096900000008  1.2794926700000000 12.7485321000000003
 -6.2509287799999997  3.7552704600000002 20.4194843299999995
 -6.6797068099999999  1.8900118400000001 12.7808152800000006
 -6.3909839200000000  0.2418941300000000  4.9261117800000003
 -5.7336243700000002 -1.9107375099999999 20.6238501399999983
 -17.0976897000000001 15.3204741099999993 12.9992137999999997
 -18.0224919600000000 13.4913420300000002  5.0517906699999999
 -17.4078546100000011 11.6167403100000008 20.4555547699999991
 -18.0079326500000008  9.5854511000000002 12.6357543000000003
 -17.0261342099999986  7.6648767199999996  4.9279601099999999
 -16.9024653600000008  6.3981462699999998 20.5755846799999986
 -16.8842639100000014  3.8045867900000001 13.0329222500000004
 -17.3017423999999984  3.2654587400000001  5.8944870900000002
 -8.1597768399999993  4.4353735700000003 13.2443176000000005
 -8.2021634900000002  2.9992257300000000  4.9767206000000002
 -8.1489746800000002  0.9797608700000000 20.9028821799999989
 -8.1848504799999997 -1.3206757000000000 12.8820324300000006
 -7.7756160599999999 -2.9454919300000002  5.5490282400000002
 -18.6875177400000005 14.7057130100000002 20.7810899400000011
 -19.1495154800000016 12.5094501600000001 12.9697185499999996
 -19.3898502999999991 10.8332233200000001  4.5476692999999999
 -19.0048240200000009  8.6809733700000002 20.4807230400000009
 -18.7553712099999998  6.4580832499999996 12.6521760899999993
 -18.7986348800000016  5.3666988499999997  5.1644723700000004
 -18.6615081300000014  4.0095018700000002 20.5239787800000002
 -9.7093327100000000  5.9729983000000004  4.8021903000000004
 -9.6811393700000004  3.4352156100000002 20.5966563100000002
 -9.4283436300000005  1.9605202799999999 12.9434435600000004
 -9.3195818599999996 -0.0543620700000000  5.5096083299999998
 -9.5372609900000000 -2.1541267199999998 20.5167992999999989
 -9.0209967100000004 -3.8299377799999998 12.7851108199999999
 -20.7098995099999996 13.8404764000000000  5.2677101999999998
 -20.3366084799999989 11.5653545999999992 20.6451555999999989
 -20.8553722400000012  9.8004408000000005 12.7118578800000002
 -19.9765204300000008  7.8879254400000001  5.0153633099999997
 -20.2201223399999996  6.1052941000000001 20.4433632500000009
 -20.3628622399999983  3.8005569900000000 13.0304170700000004
 -10.8898914999999992 -2.6960095599999998  5.4163028400000002
 -10.8807593499999999 -4.4802001400000000 21.2725298800000004
 -22.0506484399999998 12.5682790000000004 13.0410961699999994
 -22.4483664599999990 10.7411668099999993  5.0372960000000004
 -22.1972735400000012  8.8709507300000006 20.6698039899999984
 -21.5776421800000016  7.0277624899999998 12.8555960700000007
 -21.7477104799999985  4.9128829899999999  4.8278916599999997
 -12.6157625600000003 -1.4059592200000000 20.6091831600000006
 -12.4962096299999992 -3.6006684899999999 12.7190178300000003
 -12.3996342599999991 -5.1010460999999996  5.5118813299999996
 -23.9234361299999989 11.9868627599999993 20.8334224100000007
 -23.7853353399999996  9.4663975899999997 12.5019130000000001
 -23.8072024199999994  7.5076901400000002  4.8277246199999997
 -23.7167322399999989  6.1704788300000004 20.8098105199999992
 -14.0008465999999991 -1.0601718899999999 12.7771696800000001
 -14.2310201599999999 -2.4891418100000000  5.2571909300000002
 -14.0209655200000007 -4.5467509599999998 20.7756320300000006
 -14.3546668000000004 -6.9348357900000002 13.0232690200000008
 -25.4827486699999994 10.5322620899999997  5.2291494500000004
 -25.0053423200000005  9.7333384699999996 20.3953070600000004
 -25.1593455699999993  7.3670967100000002 13.3274735500000006
 -15.8244902799999991  0.1778621500000000  5.2861110900000003
 -15.7544607600000006 -1.5880745199999999 21.0273685400000012
 -15.3611507500000002 -4.3104959100000002 13.2022694800000000
 -15.8529450000000001 -5.5832264199999999  5.0135191900000002
 -16.0778450100000008 -7.2796404600000004 20.7452234299999994
 -26.8356174400000000  9.7360014100000001 12.3596469800000008
 -27.5280588500000007  8.1407117299999996  5.2785968499999996
 -17.7792823700000007  0.8979744800000000 20.7791053400000010
 -17.5264267300000007 -1.0966522800000000 12.9665011700000008
 -17.9099550500000007 -2.9976842000000001  4.9631948499999998
 -17.6183681000000014 -4.5970495199999997 20.9818947999999992
 -17.2348264200000010 -6.9769590099999999 12.8036312900000002
 -17.9835895900000011 -7.8936365600000000  5.7183740299999997
 -28.6467903600000007  9.3433723200000003 20.3720316699999984
 -28.6872722399999986  7.3623459300000000 13.1753615699999997
 -9.6885184100000004 16.7259231799999988  5.5629469800000004
 -9.0729706900000000 15.1838893600000002 20.7374601299999988
 -9.0630568300000007 12.3938831000000000 12.9492384000000005
 -9.2653136200000006 10.7370005600000002  5.0917966300000002
 -9.2212291299999993  9.4636816199999991 20.4605256900000008
 -9.6433191199999992  7.3217183700000001 12.0243043800000002
 -18.8439846700000011 -9.4013462200000006 12.8774432399999998
 -1.8298161399999999  2.7920950400000000  5.2073569600000003
 -3.1305660199999998  3.6724915199999999 20.3405448100000008
 -5.1156903700000003  4.4238979000000000 13.4075750100000004
 -6.4232977099999999  5.4599233900000002  5.2585032199999997
 -7.2627047800000000  6.1930472200000004 19.6055418299999999
 -27.0928506499999990  6.9685265899999997 20.6972398400000017
 -27.3341053800000005  4.7595535099999999 13.5502942399999995
 -27.0304894699999991  3.1141330100000002  5.2617647900000000
 -7.9336358499999999 11.9656253699999997 20.5005921899999990
 -7.8948276899999996  9.6601935300000008 12.7771187099999999
 -8.1150884199999993  7.5397680200000003  4.7805475299999998
 -18.9468608399999994 -7.5927913199999999 21.1945033500000015
 -20.3298215599999992 -6.5050574299999999 13.2240017200000004
 -22.4926596399999994 -5.1680877399999998  5.3708899800000003
 -4.6598691900000002  6.4802049999999998 20.5280862500000012
 -6.3550944100000004  7.2734189200000001 12.9392354100000002
 -25.1976696300000000  5.7170620200000002  5.8762527899999997
 -25.4089859500000017  4.0567867900000003 20.4959664799999999
 -25.4468384699999994  1.6271564500000000 13.0285177399999998