Li                                      
   1.00000000000000     
    21.0527999999999977    0.0000000000000000    0.0000000000000000
     0.0000000000000000   21.0527999999999977    0.0000000000000000
     0.0000000000000000    0.0000000000000000   21.0527999999999977
   Li
   432
Direct
  0.9945810576265401  0.9921795609135131  0.9942622283021763
  0.9043152777777763  0.0733095241488044  0.0868588548791607
  0.8278445494186073  0.1614344756991954  0.1561923929358571
  0.7570970607235168  0.2541287196952453  0.2338331366849076
  0.6658044022647829  0.3202306301299558  0.3360921511627879
  0.5801173131364976  0.4072108816879449  0.3938906055251579
  0.5088959516073857  0.4926199712152268  0.4853949317905446
  0.4110705944102477  0.5848410382466938  0.5731754583713311
  0.3428813103245147  0.6681033282983719  0.6733295832383348
  0.2441328683120503  0.7648382775687779  0.7579576450638399
  0.1628402150782762  0.8402937932246530  0.8505406938744500
  0.1031792450410407  0.9211765779373735  0.9196870530285750
  0.0868496190530479  0.9176955008359897  0.0944736386608938
  0.0001372306771543  0.9939647643068881  0.1716870463786293
  0.8978856817145484  0.0793234348875202  0.2445304539063713
  0.8274081656596763  0.1530257808937563  0.3160642403860763
  0.7545421145880837  0.2428272723818239  0.4151081347849228
  0.6737989469334238  0.3271828512121928  0.4966938345493261
  0.5812693123954986  0.4074658952728356  0.5688027868027064
  0.4988470122738988  0.4866275858793117  0.6533050325847398
  0.4081718232254161  0.5758144736092135  0.7452717253761989
  0.3246041044421659  0.6631031017251843  0.8323162724198241
  0.2516159812471486  0.7497840501025976  0.9212656012501910
  0.1909334197826382  0.8349381664196684  0.0104994418794675
  0.1666033776979816  0.8384570503685964  0.1721407005243947
  0.0692366654316743  0.9219831941594450  0.2537069876690978
  0.0018101335689309  0.0008143529601767  0.3342221371979051
  0.9076344638242873  0.0800214076037378  0.4056387359401157
  0.8260918766149885  0.1571047266871872  0.4960886038911667
  0.7542687960746335  0.2370090192278482  0.5987183367533078
  0.6454341417768674  0.3282618236054091  0.6579107377640980
  0.5778776490538107  0.4058853957668305  0.7436349459454306
  0.5052649144056858  0.4973133245934065  0.8132461207060331
  0.4130601763185879  0.5850308320033406  0.9086693470702230
  0.3369063820489444  0.6840108194634453  0.0069773555061587
  0.2522692021963806  0.7548036470208217  0.1015827984876125
  0.2608918129654967  0.7548468241754094  0.2516545290887677
  0.1623625394246844  0.8513438706490319  0.3381286094961240
  0.0904308624031032  0.9041863894588857  0.4341804919060621
  0.0007293899148806  0.0085751595987205  0.5003026937034534
  0.9213012568399463  0.0955264515883840  0.5775869865291057
  0.8266027350281178  0.1423438910738710  0.6724074355905145
  0.7549851677686590  0.2557936645006862  0.7409652003534006
  0.6806449517403834  0.3330213102295190  0.8220155537505676
  0.5795252042483696  0.4154013784389718  0.8976589574783418
  0.5013236951854410  0.4953530499506016  0.9836492252811979
  0.4210850333447311  0.5698257918186656  0.0869752873727023
  0.3561631284199720  0.6533302705578379  0.1673528096025265
  0.3447243635050938  0.6787060680764583  0.3384060433766507
  0.2513641620117042  0.7421524248556040  0.4213369143296859
  0.1745664092187269  0.8377642693608465  0.5057629868711047
  0.0736389387634873  0.9182009286175727  0.5821372230772184
  0.9977146721576204  0.9903034541723699  0.6566796858375099
  0.9058971143980870  0.0635242447560387  0.7597101862935105
  0.8390978321173463  0.1765875118749065  0.8291152540279683
  0.7474752246732024  0.2492675748594024  0.9215540635924881
  0.6515795856133124  0.3340947550919608  0.9787173744110049
  0.5763847364721073  0.4201065858223103  0.0728094452994341
  0.4928045086639301  0.4879651932284546  0.1587731342149254
  0.4180445285187702  0.5864699094657269  0.2489492898806844
  0.4168551309089494  0.5807070935932543  0.4103339584283319
  0.3589700595645269  0.6802139088387307  0.4907694472944186
  0.2725311341009302  0.7507865348077232  0.5864678004825947
  0.1707978074175429  0.8341662405950743  0.6754043504901972
  0.0845166813915483  0.9243166671416603  0.7460572208922329
  0.9910866093821227  0.9936867048563585  0.8549222963216323
  0.9217862802097585  0.0984654582763369  0.9280835827063356
  0.8294134699422386  0.1648402948776422  0.0158334938820488
  0.7421486562357487  0.2659492879806962  0.0788679805061534
  0.6558735460366307  0.3247012392650888  0.1511329785111712
  0.5914935191518467  0.3937413764439910  0.2257107011893922
  0.5084750375246969  0.4947853425672619  0.3217496152530757
  0.0825412453450340  0.0807002061483502  0.9423210247568008
  0.0058619314295498  0.1707428323073401  0.0087318541951689
  0.9194276704286395  0.2549839969030216  0.0807513760639935
  0.8382646612327136  0.3357082711088282  0.1653861196610436
  0.7487194477694175  0.4195591835765313  0.2375481717396255
  0.6639827381630923  0.4901361723856184  0.3306302653328785
  0.5756317967206286  0.5771899300805572  0.4089952115633082
  0.5071067240462099  0.6646355420656604  0.5056835062319536
  0.4379577091883249  0.7509309355525176  0.5867721281729743
  0.3383471542977645  0.8249503039975679  0.6861213914538666
  0.2371506659446752  0.9085129037467681  0.7615338577291411
  0.1596569439694449  0.0209282038493726  0.8344869741792067
  0.1658052278081783  0.0002858422632599  0.0185187642498832
  0.0815187704248359  0.0872219429244581  0.0897687362251105
  0.0092082996086020  0.1693084810571506  0.1568639648882808
  0.9292077163132717  0.2378744342795258  0.2495862897096828
  0.8397780993502053  0.3406608056885574  0.3234301461088336
  0.7697880951702416  0.4054254312965497  0.4020739355335152
  0.6633407157242743  0.4928570422936644  0.4911527160282745
  0.5859832354841146  0.5846842348761214  0.5758673634860898
  0.5061437889496858  0.6784753961468297  0.6619152473780190
  0.4229367879806958  0.7528625303997600  0.7677068033705723
  0.3171429933310534  0.8393348566461469  0.8358788930688590
  0.2417189034237737  0.9333647187072529  0.9286240139078856
  0.2671649752051977  0.9388140793623663  0.0982495772533838
  0.1716622439770461  0.9917408890978905  0.1945455321857423
  0.0736997525269771  0.0797496822275434  0.2611931928294595
  0.9952977366431099  0.1635287253951958  0.3305405675254605
  0.9190314076987391  0.2473607263641924  0.4061161227960142
  0.8335669587893264  0.3295403433272526  0.4832751291989652
  0.7406487730848141  0.4061236419858645  0.5820869922290655
  0.6625430104309160  0.4939714456034352  0.6528957293091651
  0.5672811127260999  0.5770134300425624  0.7388955388356919
  0.4988421369129057  0.6643923758359946  0.8351802529829797
  0.4219009347925251  0.7447357149642784  0.9185364483584166
  0.3359878343973222  0.8296689665982697  0.0122888014895892
  0.3497367775307794  0.8411353701170370  0.1664548060115507
  0.2595863310343489  0.9150218118255040  0.2508006051451588
  0.1605144071097442  0.9772086074061406  0.3284993031805712
  0.0926843127754964  0.0892923397362821  0.4106721305479581
  0.9960368715800243  0.1666733527131754  0.4896169763641893
  0.9030928128324973  0.2433603012425891  0.5870800059849515
  0.8384305189808501  0.3240699313155488  0.6661983603131176
  0.7514816000721964  0.4322040350927168  0.7423752659978717
  0.6502585679814530  0.5099380044459636  0.8154673957858307
  0.5775377080483324  0.5791590197028427  0.9185677985826146
  0.4981934246276012  0.6569386670656669  0.9937631996694023
  0.4396144308595495  0.7549830977352201  0.0867484073377440
  0.4369060063269501  0.7483928646070837  0.2428446691176447
  0.3408740390826850  0.8345431904544753  0.3468494604043144
  0.2674790046929658  0.9294565592225297  0.4245082378591007
  0.1687604874410980  0.0012206666096688  0.5034462902796761
  0.0762354660662723  0.0808392779107763  0.5845235484116102
  0.0049578013375893  0.1605075225148198  0.6852186702006406
  0.9217427007333967  0.2528994404544775  0.7482764178636572
  0.8414440364227076  0.3445062832497356  0.8360252028233788
  0.7386416419668649  0.4299217947256437  0.9078716128020972
  0.6674860731114123  0.5051024946800453  0.9844883910928743
  0.6042522975566200  0.5655089042787651  0.0806143396602792
  0.5083736567107451  0.6579263603891192  0.1481593108755135
  0.5090396887824866  0.6581332478340158  0.3158102717928273
  0.4388777849027221  0.7453066660966741  0.4150169184146506
  0.3462226606437184  0.8347083499581984  0.4945190064979457
  0.2489790284427755  0.9219046473628225  0.5891559721272230
  0.1672283387482878  0.9908232035643749  0.6739796236130076
  0.0750386176660598  0.0711670295637603  0.7607415488676068
  0.0040334549323617  0.1849733707630321  0.8372401405038730
  0.9235178038075702  0.2466343835499316  0.9147046829875336
  0.8399452961126315  0.3412163484192092  0.9866169720892231
  0.7535432260791879  0.4214509100927160  0.0610658529981762
  0.6700196168680677  0.4845502916476647  0.1689431686046490
  0.6042285187718477  0.5671393401352773  0.2372073952158402
  0.1553101601687175  0.1660962741298064  0.8541860541115653
  0.0915298915108664  0.2526671563877514  0.9468663327443352
  0.9981845944482473  0.3365445270937855  0.0007805370307068
  0.9124112350851163  0.4214335827063351  0.0838569306695547
  0.8376299062357475  0.4892938535491709  0.1680343450752417
  0.7548103135924933  0.5680877579229389  0.2342207796587630
  0.6608033140484864  0.6577419127146982  0.3301604746161999
  0.5865970018239821  0.7432698253913941  0.4122878624220974
  0.4972662144702866  0.8333896422328593  0.4970860868863056
  0.3974084478074147  0.9163272353321190  0.5961929510563948
  0.3277570123688989  0.0027051199840429  0.6788220835233290
  0.2598239132086917  0.0799693461202295  0.7669903295523639
  0.2580815378476942  0.0800172604119140  0.9295585380566962
  0.1692079390864905  0.1548039790431659  0.0077925758093969
  0.0943645847583241  0.2483454010867945  0.0818715914272659
  0.9871443950448366  0.3332870212038301  0.1637112246352004
  0.9305516748366003  0.4266156620497057  0.2443468161004745
  0.8209944819691444  0.5022615637824899  0.3368562666248636
  0.7570181443798418  0.5822454542863653  0.4240853553921582
  0.6675496347279193  0.6539066162220735  0.5005241188820477
  0.5807352727428210  0.7520969324745437  0.5871670960632329
  0.5043989170086647  0.8458198344163250  0.6713899315055514
  0.4169383944178477  0.9211246513527911  0.7621547323871383
  0.3312003643220862  0.9940435039519713  0.8312733674380581
  0.3406165811673532  0.0014801822085388  0.9964629745212008
  0.2536067121713046  0.0722412999695976  0.0975503419972625
  0.1589260791913674  0.1472598452462393  0.1774670851383178
  0.0901301617837049  0.2491345032489747  0.2543279036517703
  0.0178003030475722  0.3492688264743862  0.3283644398844814
  0.9241648574061401  0.4193880372206991  0.4159317097963182
  0.8331478810419526  0.4947696624677036  0.4983574175406602
  0.7504241112821077  0.5845514520633870  0.5874924708352367
  0.6543202467130271  0.6747082910586713  0.6728363714090264
  0.5800253035225751  0.7492756773445848  0.7615593232254128
  0.4959493939048514  0.8223756839945295  0.8359799969600274
  0.4201982553389598  0.9223471509727901  0.9191846538227679
  0.4179244157546762  0.9430187984496143  0.0864653319273430
  0.3492979503913958  0.0085731323149432  0.1890202832877321
  0.2516893904848772  0.0835718968498256  0.2706547537619670
  0.1667678365823093  0.1636207953336353  0.3338484144626861
  0.0867673311863513  0.2466049532603733  0.4027942691708475
  0.0121897614569093  0.3219070498936034  0.4990949650402783
  0.9225298112365081  0.4088606532147736  0.5711572346671261
  0.8327826944634467  0.4987324028157758  0.6462493316803446
  0.7491520353587191  0.5717405100509225  0.7533998717510286
  0.6597580070109430  0.6730373465762298  0.8285590482026137
  0.5863027853777183  0.7653255381706927  0.9312939513983878
  0.4841671221880191  0.8428904521013862  0.0046657598989199
  0.4960406188250488  0.8457562998746013  0.1511637022153849
  0.4188753543471648  0.8945170300387630  0.2589540621675042
  0.3496800986092126  0.9873375161498714  0.3490585285567747
  0.2627417768657878  0.0709680793053664  0.4159953165374688
  0.1732395952082371  0.1699288189694457  0.4993052202082353
  0.0684051551337603  0.2515778490272069  0.5890689827481381
  0.0018255096709225  0.3262366374069003  0.6582056282299718
  0.9295473081965326  0.4236721257979923  0.7265552525079784
  0.8338050838843287  0.4947618815549504  0.8240353758169903
  0.7426924969600250  0.5954165089679293  0.9130835508815949
  0.6507981826645377  0.6572299608603132  0.0013916310419546
  0.5711845588235320  0.7547492547309602  0.0703882447940387
  0.5844739621333019  0.7606554130566963  0.2378934265275845
  0.5206291908914764  0.8521082207592343  0.3350899053807552
  0.4305758744680048  0.9151004032717722  0.4182336786555680
  0.3515564186236517  0.9854435034769722  0.4913566694216414
  0.2352287828697399  0.0796479337665303  0.5770490300577578
  0.1581386062661494  0.1746973153214739  0.6805591318019424
  0.0955294668642637  0.2694546160130713  0.7518603615671040
  0.0052098955958328  0.3403830193608428  0.8378556149300778
  0.9366612692848477  0.4188204979860188  0.9084776875285030
  0.8507989236586084  0.5127328654620769  0.9804157959986313
  0.7654308092035293  0.5758324750151971  0.0710268957098350
  0.6753506450448370  0.6682624092757266  0.1609598984458103
  0.2231702296131601  0.2593431215800308  0.7630095459986350
  0.1573828711620280  0.3284718892498830  0.8475398388812891
  0.0836325291647668  0.4155711967054287  0.9355016895614838
  0.9774656463748315  0.5213336211810287  0.9831372544269641
  0.9029231327899367  0.5832088254293950  0.0922446106931147
  0.8294799841351264  0.6650403347773235  0.1707295281387715
  0.7445541125171005  0.7551115989322099  0.2523064200486402
  0.6528606142650872  0.8348382884936925  0.3286524937300470
  0.5997458461582283  0.9179940791723666  0.4274595364987093
  0.4889522714318275  0.0039023840059258  0.4996234681372584
  0.4064368801299594  0.0775973343213252  0.5803017627108957
  0.3128512886646888  0.1744841075771362  0.6730843488752072
  0.3300949075657371  0.1804919364645059  0.8317078830369340
  0.2425922133872902  0.2624191960214333  0.9223505946952457
  0.1791801774585835  0.3462800506345971  0.0087941912714697
  0.0796906796245622  0.4150380951702388  0.0860948947408389
  0.0033001363239080  0.5072713306543548  0.1640976820185429
  0.9123262392650844  0.5811351145690864  0.2542217344011277
  0.8149935329267350  0.6685741364569111  0.3265382196192448
  0.7342577614379096  0.7422313787239716  0.4175185780513786
  0.6795938905988734  0.8226137178902562  0.4953818104955161
  0.5805227480430162  0.9187464194786443  0.5889718555251591
  0.4833207677838587  0.9970366863315121  0.6706303954818367
  0.4123866060571544  0.0913874672252604  0.7523484434374552
  0.4027071999923990  0.0859478971918222  0.9213866948814413
  0.3276855159408711  0.1738953801869556  0.0107878476972161
  0.2459823638660907  0.2400642688858454  0.1036602779677764
  0.1619646944824424  0.3446584378324999  0.1581261338159266
  0.0827697360921107  0.4249960537315687  0.2389349578203408
  0.0129808861529099  0.5110700358147113  0.3314989184336525
  0.9025008725680195  0.5872176223590202  0.4046035434716515
  0.8339971519227873  0.6651646227580201  0.5077268771849859
  0.7592307802287550  0.7565306614797080  0.6015665355677129
  0.6745855995402010  0.8196109852371194  0.6732719372244986
  0.5777526785035718  0.9146446026181820  0.7704905988752060
  0.4962394166096686  0.0097473404962756  0.8480547803617569
  0.5061774752051988  0.0063759428674572  0.0048854427914549
  0.4143820912182719  0.0759867837057300  0.0788091926014616
  0.3260592054263540  0.1597821876424987  0.1692991070071415
  0.2428063103245179  0.2575004735712128  0.2580108517631885
  0.1720253633720930  0.3416458917578638  0.3404912296701639
  0.0944649410054694  0.4237165479176142  0.4140916932664567
  0.0020894973590231  0.5064043348153220  0.4848130638204893
  0.9084815663474686  0.5669943945698463  0.5756738866089037
  0.8313360322617385  0.6713860640864908  0.6669260174418596
  0.7369198728910149  0.7429585347317200  0.7563591246770045
  0.6768330901352755  0.8330276965534296  0.8377006982444115
  0.5846187708998301  0.9235484011627904  0.9248234871371039
  0.5663535657964758  0.9289187438250508  0.0810102941176467
  0.4973398892308865  0.0101566261969879  0.1731472336221316
  0.4142640014629890  0.0743528381022927  0.2606354456414337
  0.3498464940530468  0.1727546587627273  0.3302296392878858
  0.2501673468612253  0.2559995269037856  0.4127115238828054
  0.1714617822807440  0.3349179805061553  0.5081372050273600
  0.0810906919744667  0.4350844362745079  0.5633881554947564
  0.0090054672062649  0.5028870121789026  0.6541991473818243
  0.9054876358489139  0.5836511418908685  0.7476713914538706
  0.8193376078241386  0.6595139112137076  0.8194303209074363
  0.7511401143790835  0.7572891824365371  0.9316170789633702
  0.6745407085993307  0.8554134694672442  0.0191207468840275
  0.6533592234762153  0.8479287030703730  0.1531835124068976
  0.5840770059089522  0.9349085366317098  0.2375841090021282
  0.4954170632884924  0.9997222687718477  0.3487438240994081
  0.4160646835575292  0.0881936075011396  0.4110886509157936
  0.3391666106171130  0.1797715429776545  0.4973602314181491
  0.2581923003115989  0.2675606147400842  0.5820937770747818
  0.1682950438896498  0.3511432123043008  0.6609214774281824
  0.0900831723096189  0.4272950481646163  0.7512069843441225
  0.0042115243578067  0.5051486016111895  0.8306188074745435
  0.8938507671188631  0.5990195551185593  0.8906420903632792
  0.8294656710746295  0.6646721234230100  0.0022481508397902
  0.7486374957250348  0.7570870216788279  0.0747902440530481
  0.3173439076987350  0.3456327718878214  0.6780398578811386
  0.2450649709302297  0.4146010245668066  0.7594638413892696
  0.1642253533971711  0.4941727546929613  0.8383168371903054
  0.0848171663626687  0.5915119295295668  0.9212917934906528
  0.9907344243996050  0.6623902407280724  0.9973639853131147
  0.8999434811521496  0.7364574028157804  0.0774744646792840
  0.8331544782641771  0.8358270467586237  0.1549545732634172
  0.7351681078051371  0.9095718374752977  0.2560594481494149
  0.6629912006953944  0.0083193361453127  0.3425368421302650
  0.5942089161536686  0.0895414785681723  0.4230741131820963
  0.4891510402416799  0.1641361253609972  0.5038441152720807
  0.4164800102599173  0.2617407304491550  0.5899083347583201
  0.4165581476098197  0.2550241934564497  0.7500058077785354
  0.3255380671454660  0.3474820204438345  0.8381871599027235
  0.2305561649756811  0.4199346770975865  0.9356485612365120
  0.1640022571819415  0.5243743155304728  0.0160710755813938
  0.0811298772609845  0.5792794540393658  0.0856430527055778
  0.9841047167122667  0.6731038028195755  0.1680402887026915
  0.9238872211772318  0.7442318693950440  0.2496208627830967
  0.8314885867913091  0.8246683267783865  0.3268344951740403
  0.7495224255205954  0.9263549304605547  0.4094077224882184
  0.6616563915488669  0.0001382167692654  0.5092537358451139
  0.5821544022647842  0.0718802297081638  0.5849918614151122
  0.4985310234268141  0.1650921635126892  0.6713770035339692
  0.4987751187490517  0.1760918167654637  0.8295334563573462
  0.4230392460860344  0.2456954367115074  0.9147489801831554
  0.3329371485028148  0.3553326365139071  0.0048402877526996
  0.2683505799703596  0.4112219300995577  0.1023443917198676
  0.1648863885088900  0.4990957801337572  0.1752105667654646
  0.0711818722450204  0.5941129925710626  0.2500406995744058
  0.9978313017745890  0.6722897600319229  0.3398668405152776
  0.9104269185096499  0.7537103767669890  0.4039243654050750
  0.8156040683424521  0.8247091721766253  0.5010033439732453
  0.7392638485142129  0.8970466394018857  0.5843921003381993
  0.6552381573947414  0.9828356489398118  0.6971421103131163
  0.5688253557721552  0.0710198382162943  0.7610711644056849
  0.5801251021241853  0.0822664676432581  0.9031225057949541
  0.4948636395158843  0.1538581252849980  0.0012185343517217
  0.4135122112023097  0.2552514169136657  0.0784734486624075
  0.3252369699042390  0.3376133535681731  0.1834478796169634
  0.2507763152644813  0.4252516743616042  0.2648506996694024
  0.1629236890104906  0.5093346367229046  0.3194272096823241
  0.1019093636000932  0.5877545699384399  0.4221841341769235
  0.0063004160966713  0.6566098176964559  0.4939172765617883
  0.9233424157356751  0.7543386100661209  0.5675355634404937
  0.8376767812357500  0.8202378443722438  0.6835060438516507
  0.7491516577367392  0.9066230168908618  0.7429259371675059
  0.6537270163588715  0.9744389183386559  0.8465091745516062
  0.6731910353967194  0.9952705858603110  0.9926846956224367
  0.5906656971994195  0.0660914334435319  0.0827961040811687
  0.4846845179738537  0.1527262682398529  0.1512909242476042
  0.4237981565397462  0.2433465947522393  0.2290208048335600
  0.3513987963596321  0.3311260065169463  0.3425346946724446
  0.2568863490842048  0.4406501372738987  0.4164856123651006
  0.1818727599179226  0.5273657313991507  0.5020236923354631
  0.0938135929662565  0.5715465206528378  0.5766747577519382
  0.9960212836297302  0.6657072954666390  0.6525210822313454
  0.9237068361453140  0.7519292953906387  0.7609648645310827
  0.8365599715952285  0.8379590235028118  0.8358554249316015
  0.7624323515161890  0.9052995639534913  0.9088418875399000
  0.7765055161308680  0.9048427363581126  0.0798826730886120
  0.6761170580635323  0.9905617765807904  0.1464789177686612
  0.5882987996846012  0.0720754597963236  0.2273344581243322
  0.5104961126311025  0.1582808875779023  0.3273598053465605
  0.4312039125437011  0.2510489155836737  0.4223560514515867
  0.3229017935856504  0.3372744238296121  0.4956035505965986
  0.2486701616887075  0.4218869784541752  0.5820838938288517
  0.1763718080255359  0.5003353634670944  0.6643391121370996
  0.0800498204514355  0.5802306182550510  0.7447444753191945
  0.9968224725452188  0.6616995948282423  0.8382778927268575
  0.9010132371940998  0.7466564841731298  0.9275127897476807
  0.8447504859211108  0.8285733987878103  0.9944261684906550
  0.4001583860579103  0.4118480696154450  0.5910061393258843
  0.3353929311065542  0.4977901181790543  0.6769106726896155
  0.2528215482026113  0.5852843659750704  0.7598567525459785
  0.1624247881516965  0.6692681728796188  0.8359865153328769
  0.0776402388280886  0.7482724483204137  0.9321097749468024
  0.0106502674228608  0.8308649177306577  0.0005974065207468
  0.9153893045105619  0.9163262055403578  0.0870603188174499
  0.8360132989436053  0.9995509946420427  0.1637560889762852
  0.7380334316575485  0.0851451227390214  0.2281879593213247
  0.6690816195470433  0.1522910130718955  0.3250798843859215
  0.5776592329761385  0.2414646963824296  0.4234767603359160
  0.4807798872359044  0.3401405124258972  0.4962292488410114
  0.4932133768429878  0.3200428294573641  0.6743226596937220
  0.4103897581319345  0.4051066793965674  0.7512999667502669
  0.3462633540431668  0.4866234301375556  0.8463085071819449
  0.2622026690036492  0.5888066798715599  0.9275068750949984
  0.1678177111833108  0.6744799689352519  0.0109571206680315
  0.0827923007865934  0.7487707207592322  0.0928300905342780
  0.9883280200258397  0.8347157038493691  0.1667402958276369
  0.9045202562129475  0.9141809255775968  0.2392453787619715
  0.8187571857425127  0.9909032513489890  0.3223991388318908
  0.7436162002204014  0.0782315967472229  0.4294510967662291
  0.6590865561825510  0.1520847811217507  0.5076948158914760
  0.5647057484040161  0.2320465211278275  0.5681286740956040
  0.5760644954590362  0.2385181624296990  0.7375017408610702
  0.4886381887444884  0.3277113652340802  0.8113661318209466
  0.4300869884290961  0.4208110550615629  0.9194401072541396
  0.3352662885696915  0.5029345896982846  0.0018129844961265
  0.2709383369433027  0.5881620611035103  0.0881590349027235
  0.1693405143258886  0.6875610664614697  0.1681696710176297
  0.0579050221348254  0.7561349027207811  0.2415710580065351
  0.9950226297689611  0.8513713472792190  0.3410561279259738
  0.9056977812927514  0.9131665730924183  0.4299235203868363
  0.8332728449422433  0.9927172708618315  0.5021085366317095
  0.7474585019569844  0.0825422832117368  0.5830713833789360
  0.6668460736814126  0.1484748860009120  0.6642822712418308
  0.6658445432436508  0.1691616868065040  0.8165543761399903
  0.5819227390180899  0.2318668528651742  0.9175941461468327
  0.4940121793775631  0.3172403286023737  0.9957059236776118
  0.4088664153936747  0.4175098191214488  0.0737892456110316
  0.3328460836563281  0.4799438953488391  0.1702505870953033
  0.2533556937794472  0.5823913080445351  0.2614060927762552
  0.1742201702386410  0.6829643624600976  0.3233301575087424
  0.0822863410092722  0.7569596053731544  0.4253812148502831
  0.9952652502280017  0.8232382956186370  0.5003362987346094
  0.9127465472526239  0.9137178057075559  0.5851162553199600
  0.8146814841731285  0.0094752066233497  0.6571806980544181
  0.7369557422290640  0.0838535990462077  0.7591180778803803
  0.7419280789253691  0.0954664434184522  0.9054196624677004
  0.6626264107387172  0.1652158553731553  0.0035617404810750
  0.5691475879692973  0.2542291068171423  0.0755054168566645
  0.4869162975946182  0.3335767318361462  0.1718905124259038
  0.4236482125892991  0.4183231061901509  0.2637591432018525
  0.3333802596329249  0.4987073757409917  0.3304066233470166
  0.2675232919136619  0.5944983740880048  0.4110621456528349
  0.1817820674684612  0.6631823082915318  0.4954166310419481
  0.0885112141852886  0.7656557137292879  0.5839289082687316
  0.9978593032755754  0.8255340049779605  0.6737274139306919
  0.9132378139724864  0.9265019170846642  0.7432887715648278
  0.8205703825619395  0.9975777421530623  0.8374412111453111
  0.8326598618711074  0.9932467624258976  0.9798509765921892
  0.7590270486586093  0.0864893429852529  0.0693626724236225
  0.6644160919212680  0.1578289462684310  0.1425234842871248
  0.5859999867001093  0.2241080891852860  0.2281638898388820
  0.5162890598875194  0.3147631459948315  0.3299362616849066
  0.4101414286935707  0.4307704837361328  0.4082125398996794
  0.3413467477010173  0.5045365894322842  0.4981477575429381
  0.2840289923430603  0.6075774619053078  0.5874981831395374
  0.1625660862213110  0.6836493701550381  0.6654061683006560
  0.0928081305099582  0.7570798045865601  0.7554829367115090
  0.0016224188706460  0.8415104674912612  0.8315374496504049
  0.9177858104385166  0.9034953469372269  0.9152660748214032
 
  0.00000000E+00  0.00000000E+00  0.00000000E+00
  0.00000000E+00  0.00000000E+00  0.00000000E+00
  0.00000000E+00  0.00000000E+00  0.00000000E+00
  0.00000000E+00  0.00000000E+00  0.00000000E+00
  0.00000000E+00  0.00000000E+00  0.00000000E+00
  0.00000000E+00  0.00000000E+00  0.00000000E+00
  0.00000000E+00  0.00000000E+00  0.00000000E+00
  0.00000000E+00  0.00000000E+00  0.00000000E+00
  0.00000000E+00  0.00000000E+00  0.00000000E+00
  0.00000000E+00  0.00000000E+00  0.00000000E+00
  0.00000000E+00  0.00000000E+00  0.00000000E+00
  0.00000000E+00  0.00000000E+00  0.00000000E+00
  0.00000000E+00  0.00000000E+00  0.00000000E+00
  0.00000000E+00  0.00000000E+00  0.00000000E+00
  0.00000000E+00  0.00000000E+00  0.00000000E+00
  0.00000000E+00  0.00000000E+00  0.00000000E+00
  0.00000000E+00  0.00000000E+00  0.00000000E+00
  0.00000000E+00  0.00000000E+00  0.00000000E+00
  0.00000000E+00  0.00000000E+00  0.00000000E+00
  0.00000000E+00  0.00000000E+00  0.00000000E+00
  0.00000000E+00  0.00000000E+00  0.00000000E+00
  0.00000000E+00  0.00000000E+00  0.00000000E+00
  0.00000000E+00  0.00000000E+00  0.00000000E+00
  0.00000000E+00  0.00000000E+00  0.00000000E+00
  0.00000000E+00  0.00000000E+00  0.00000000E+00
  0.00000000E+00  0.00000000E+00  0.00000000E+00
  0.00000000E+00  0.00000000E+00  0.00000000E+00
  0.00000000E+00  0.00000000E+00  0.00000000E+00
  0.00000000E+00  0.00000000E+00  0.00000000E+00
  0.00000000E+00  0.00000000E+00  0.00000000E+00
  0.00000000E+00  0.00000000E+00  0.00000000E+00
  0.00000000E+00  0.00000000E+00  0.00000000E+00
  0.00000000E+00  0.00000000E+00  0.00000000E+00
  0.00000000E+00  0.00000000E+00  0.00000000E+00
  0.00000000E+00  0.00000000E+00  0.00000000E+00
  0.00000000E+00  0.00000000E+00  0.00000000E+00
  0.00000000E+00  0.00000000E+00  0.00000000E+00
  0.00000000E+00  0.00000000E+00  0.00000000E+00
  0.00000000E+00  0.00000000E+00  0.00000000E+00
  0.00000000E+00  0.00000000E+00  0.00000000E+00
  0.00000000E+00  0.00000000E+00  0.00000000E+00
  0.00000000E+00  0.00000000E+00  0.00000000E+00
  0.00000000E+00  0.00000000E+00  0.00000000E+00
  0.00000000E+00  0.00000000E+00  0.00000000E+00
  0.00000000E+00  0.00000000E+00  0.00000000E+00
  0.00000000E+00  0.00000000E+00  0.00000000E+00
  0.00000000E+00  0.00000000E+00  0.00000000E+00
  0.00000000E+00  0.00000000E+00  0.00000000E+00
  0.00000000E+00  0.00000000E+00  0.00000000E+00
  0.00000000E+00  0.00000000E+00  0.00000000E+00
  0.00000000E+00  0.00000000E+00  0.00000000E+00
  0.00000000E+00  0.00000000E+00  0.00000000E+00
  0.00000000E+00  0.00000000E+00  0.00000000E+00
  0.00000000E+00  0.00000000E+00  0.00000000E+00
  0.00000000E+00  0.00000000E+00  0.00000000E+00
  0.00000000E+00  0.00000000E+00  0.00000000E+00
  0.00000000E+00  0.00000000E+00  0.00000000E+00
  0.00000000E+00  0.00000000E+00  0.00000000E+00
  0.00000000E+00  0.00000000E+00  0.00000000E+00
  0.00000000E+00  0.00000000E+00  0.00000000E+00
  0.00000000E+00  0.00000000E+00  0.00000000E+00
  0.00000000E+00  0.00000000E+00  0.00000000E+00
  0.00000000E+00  0.00000000E+00  0.00000000E+00
  0.00000000E+00  0.00000000E+00  0.00000000E+00
  0.00000000E+00  0.00000000E+00  0.00000000E+00
  0.00000000E+00  0.00000000E+00  0.00000000E+00
  0.00000000E+00  0.00000000E+00  0.00000000E+00
  0.00000000E+00  0.00000000E+00  0.00000000E+00