Li 
 1.0000000000000000
    21.0527999999999977    0.0000000000000000    0.0000000000000000
     0.0000000000000000   21.0527999999999977    0.0000000000000000
     0.0000000000000000    0.0000000000000000   21.0527999999999977
 Li 
 432
Cartesian
 -0.1140839100000000 -0.1646421400000000 -0.1207961600000000
 19.0383686800000014  1.5433707500000000  1.8286221000000000
 17.4284457300000000  3.3986477300000000  3.2882872100000000
 15.9390129999999992  5.3501211099999999  4.9228422600000004
 14.0170469200000003  6.7417514100000000  7.0756808400000004
 12.2130937700000004  8.5729292499999996  8.2925001399999996
 10.7136846899999991 10.3710297300000001 10.2189224200000002
  8.6541870099999993 12.3125414099999997 12.0669482899999991
  7.2186116499999997 14.0654457500000003 14.1754730500000008
  5.1396804500000002 16.1019872900000003 15.9571307099999995
  3.4282424800000002 17.6905371699999989 17.9062631199999984
  2.1722120100000000 19.3933462600000013 19.3619875899999982
  1.8284276600000000 19.3200598399999990  1.9889346200000000
  0.0028890900000000 -0.1270586100000000  3.6144930500000001
 18.9030076800000018  1.6699804100000000  5.1480507400000004
 17.4192586300000016  3.2216211600000002  6.6540372400000001
 15.8852242300000004  5.1121939999999997  8.7391885400000007
 14.1853544700000000  6.8881151300000001 10.4567959599999991
 12.2373465800000005  8.5782980000000002 11.9748913100000003
 10.5021263800000000 10.2448732400000004 13.7539001899999995
  8.5931597600000007 12.1225069500000000 15.6900565800000003
  6.8338252900000001 13.9601769800000000 17.5225880200000006
  5.2972209299999999 15.7850536500000000 19.3952204500000001
  4.0196831000000000 17.5777862300000010  0.2210426500000000
  3.5074675900000001 17.6518685899999994  3.6240437399999998
  1.4576256700000001 19.4103277900000002  5.3412424700000001
  0.0381083800000000  0.0171444100000000  7.0363118099999999
 19.1082468399999996  1.6846746900000000  8.5398311800000002
 17.3915470600000006  3.3074943900000000 10.4440541600000003
 15.8794701099999997  4.9897034800000002 12.6046973999999992
 13.5881959000000005  6.9108305200000002 13.8508631799999993
 12.1659425700000003  8.5450240599999994 15.6555977899999998
 10.6372411899999992 10.4698379599999996 17.1211079300000009
  8.6960732800000002 12.3165370999999997 19.1300340300000009
  7.0928226800000003 14.4003429799999996 21.1996928699999998
  5.3109730600000002 15.8907302200000000  2.1386023399999998
  5.4925031600000001 15.8916392200000001  5.2980324699999999
  3.4181860700000000 17.9231722399999995  7.1185539899999997
  1.9038228600000000 19.0356552199999989  9.1407150599999998
  0.0153557000000000  0.1805311200000000 10.5327725500000007
 19.3959711000000006  2.0110992799999998 12.1598233100000002
 17.4023020600000002  2.9967374699999998 14.1560592599999993
 15.8945517400000007  5.3851728600000000 15.5993921699999998
 14.3294820400000003  7.0110310399999998 17.3057290500000001
 12.2006282200000005  8.7453621399999992 18.8982345000000009
 10.5542674900000009 10.4285686900000005 -0.3442295900000000
  8.8650189899999994 11.9964284299999999  1.8310733299999999
  7.4982311099999999 13.7544315200000007  3.5232452300000001
  7.2574130800000001 14.2886631099999999  7.1243947500000004
  5.2919194300000001 15.6243865700000004  8.8703217900000002
  3.6751117000000000 17.6372836100000008 10.6477270100000005
  1.5503058500000000 19.3307005099999998 12.2556185299999996
 -0.0481125500000000 -0.2041394400000000 13.8249460899999992
 19.0716707700000008  1.3373632200000001 15.9940266100000006
 17.6653588399999997  3.7176615700000002 17.4551976199999999
 15.7364464099999992  5.2477803999999999 19.4012933899999993
 13.7175747000000001  7.0336300600000001 -0.4480588600000000
 12.1345125800000009  8.8444199300000008  1.5328426900000001
 10.3749147599999993 10.2730336199999996  3.3426190400000002
  8.8010078499999995 12.3468337100000003  5.2410796099999999
  8.7759677000000007 12.2255102999999998  8.6386787599999995
  7.5573248700000004 14.3204073800000007 10.3320710200000008
  5.7375434600000004 15.8061587600000006 12.3467893100000001
  3.5957720800000001 17.5615350300000017 14.2191527099999995
  1.7793127900000001 19.4594539299999987 15.7065934600000006
 -0.1876518300000000 -0.1329125400000000 17.9985081200000003
 19.4061821999999999  2.0729736000000001 19.5387580499999984
 17.4614758999999999  3.4703497600000000 21.3861393799999995
 15.6243072299999994  5.5989771700000004  1.6603918200000001
 13.8079745900000006  6.8358702500000001  3.1817723700000000
 12.4525947600000002  8.2893584499999999  4.7518422500000002
 10.7048232700000003 10.4166168599999995  6.7737303000000004
  1.7377243300000000  1.6989653000000000 19.8384960700000015
  0.1234100700000000  3.5946147000000002  0.1838299800000000
 19.3565268599999989  5.3681270899999998  1.7000425699999999
 17.6478182600000011  7.0675990899999999  3.4818408999999999
 15.7626407900000007  8.8328955800000006  5.0010541499999999
 13.9786957899999997 10.3187388099999993  6.9606928500000000
 12.1186610899999998 12.1514641599999997  8.6104943899999995
 10.6760164399999997 13.9924391400000001 10.6460537199999994
  9.2202360599999995 15.8091988000000008 12.3531962600000007
  7.1231549699999999 17.3675137600000014 14.4447764299999992
  4.9926855400000001 19.1267404600000006 16.0324199999999983
  3.3612257099999998  0.4405972900000000 17.5682873700000002
  3.4906643000000002  0.0060177800000000  0.3898718400000000
  1.7161983700000001  1.8362661199999999  1.8898832500000000
  0.1938604900000000  3.5644175900000001  3.3024256799999998
 19.5624242099999996  5.0079228899999997  5.2544902400000000
 17.6796803699999998  7.1718638099999996  6.8091101800000002
 16.2061948099999995  8.5353405200000001  8.4647821499999996
 13.9651794200000001 10.3760207399999995 10.3401399000000005
 12.3365878599999998 12.3092402599999993 12.1236204300000008
 10.6557439600000006 14.2838068200000006 13.9351693200000000
  8.9040036100000002 15.8498642800000002 16.1623777900000007
  6.6767480099999998 17.6703488700000015 17.5975911600000003
  5.0888597300000002 19.6499407499999990 19.5501356400000006
  5.6245707899999999 19.7646650500000014  2.0684287000000001
  3.6139708900000000 -0.1738774100000000  4.0957281800000001
  1.5515861500000001  1.6789541100000001  5.4988480500000003
 -0.0989958100000000  3.4427375499999999  6.9588044599999996
 19.3481844199999991  5.2076358999999997  8.5498815100000005
 17.5489184700000003  6.9377469400000003 10.1742946399999994
 15.5927304899999992  8.5500398099999995 12.2545610299999996
 13.9483854899999997 10.3994820499999996 13.7452832100000002
 11.9428558099999993 12.1477483399999997 15.5558200000000006
 10.5020237400000003 13.9873198100000007 17.5828828299999991
  8.8821960000000004 15.6787720600000000 19.3377641400000009
  7.0734846800000000 17.4668548199999982 21.3115136800000009
  7.3629384299999998 17.7082547199999993  3.5043397399999998
  5.4650191100000001 19.2637712000000008  5.2800549800000001
  3.3792777100000002 -0.4798226300000000  6.9158301299999998
  1.9512643000000001  1.8798537700000000  8.6457982300000005
 -0.0834349500000000  3.5089407600000002 10.3078082799999997
 19.0126323699999986  5.1234157500000004 12.3596779500000000
 17.6513100300000012  6.8225794500000001 14.0253408400000001
 15.8207918299999992  9.0991051100000000 15.6290779999999998
 13.6897635799999993 10.7356228199999997 17.1678719899999983
 12.1587858600000001 12.1929190100000007 19.3384241500000016
 10.4883665300000004 13.8303983699999993 20.9214978900000013
  9.2551146899999992 15.8945081600000009  1.8262968700000000
  9.1980947700000009 15.7557653000000002  5.1125602499999996
  7.1763529699999999 17.5694708800000008  7.3021523200000003
  5.6311819900000000 19.5676630500000002  8.9370870300000007
  3.5528807900000001  0.0256984500000000 10.5989540600000005
  1.6049700200000001  1.7018931500000001 12.3058573599999992
  0.1043756000000000  3.3791327700000000 14.4257716200000008
 19.4052647299999990  5.3242413400000004 15.7533137700000001
 17.7147530099999990  7.2528218799999999 17.6006713899999987
 15.5504747600000002  9.0510575600000003 19.1132394900000016
 14.0524508000000008 10.6338217999999998 20.7262371999999999
 12.7212027699999997 11.9055458600000001  1.6971575699999999
 10.7026889199999999 13.8511920800000006  3.1191683399999999
 10.7167107599999998 13.8555476399999993  6.6486904899999999
  9.2396062299999997 15.6907921800000008  8.7372681799999992
  7.2889564299999998 17.5729479499999997 10.4110097400000008
  5.2417056899999999 19.4086741600000003 12.4033828499999998
  3.5206247700000000 -0.1931972600000000 14.1891582199999995
  1.5797730100000000  1.4982652400000001 16.0157396799999994
  0.0849155200000000  3.8942073800000001 17.6262492299999991
 19.4426356200000008  5.1923443499999999 19.2570947500000003
 17.6832003299999982  7.1835595400000001 20.7710497899999993
 15.8641948300000006  8.8727217199999995  1.2856071899999999
 14.1057889900000006 10.2011403800000000  3.5567267400000002
 12.7207021600000001 11.9398710999999995  4.9938798499999999
  3.2697137399999998  3.4967916400000001 17.9830081600000007
  1.9269605000000001  5.3193511100000004 19.9341875299999991
 -0.0382193700000000  7.0852046199999998  0.0164324900000000
 19.2088112500000001  8.8723569300000005  1.7654231899999999
 17.6344548900000007 10.3010056399999996  3.5375934600000001
 15.8908705700000006 11.9598379500000007  4.9310032300000000
 13.9117600100000001 13.8473089399999996  6.9508024400000004
 12.3495093600000008 15.6479109800000007  8.6798139100000000
 10.4688461600000000 17.5451854599999990 10.4650539699999996
  8.3665605700000008 19.2912540200000002 12.5515309599999991
  6.9002028299999996 21.1097503499999988 14.2911055600000001
  5.4700208799999999  1.6835786500000001 16.1472940099999995
  5.4333390000000001  1.6845873800000000 19.5698099899999995
  3.5623008999999999  3.2590572099999999  0.1640555400000000
  1.9866387299999999  5.2283660599999999  1.7236262400000000
 -0.2706464800000000  7.0166250000000003  3.4465796700000002
 19.5907182999999989  8.9814542100000008  5.1441846499999997
 17.2842326300000018 10.5740122499999991  7.0917676099999998
 15.9373515900000005 12.2578970999999992  8.9281841699999998
 14.0537889499999995 13.7665652099999996 10.5374341699999992
 12.2261035499999995 15.8337462999999996 12.3615114399999992
 10.6190095200000005 17.8068758100000011 14.1346379500000001
  8.7777206299999992 19.3922530600000016 16.0454911500000001
  6.9726950299999997 20.9273990800000007 17.5006319499999989
  7.1709327600000003  0.0311619800000000 -0.0744642900000000
  5.3391313900000004  1.5208816400000000  2.0537078400000000
  3.3458389600000000  3.1002320700000001  3.7361790500000001
  1.8974922700000001  5.2449788699999997  5.3543144900000001
  0.3747462200000000  7.3530867500000001  6.9129908799999997
 19.4562579100000015  8.8292924700000004  8.7565270999999996
 17.5400957099999992 10.4162867499999994 10.4918190399999993
 15.7985287299999992 12.3064448100000003 12.3683614899999998
 13.7752732899999994 14.2044987099999993 14.1650895600000002
 12.2111567099999991 15.7743509799999995 16.0329561200000015
 10.4411234000000004 17.3133108000000000 17.5997196799999998
  8.8463498299999994 19.4179901000000008 19.3514106800000008
  8.7984791399999995 19.8531861599999999  1.8203373400000000
  7.3536998899999997  0.1804884400000000  3.9794062200000000
  5.2987663999999999  1.7594224300000001  5.6980404000000000
  3.5109299100000002  3.4446758800000001  7.0284439000000001
  1.8266952700000001  5.1917247599999996  8.4799471900000007
  0.2566286100000000  6.7770447400000000 10.5073464800000007
 19.4218356099999987  8.6076615600000004 12.0244590299999992
 17.5324075099999988 10.4997135299999993 13.6053579300000003
 15.7717479699999998 12.0367386100000004 15.8611768200000007
 13.8897533699999993 14.1693206499999995 17.4434879299999999
 12.3433152800000006 16.1122454899999994 19.6063453000000010
 10.1930735899999991 17.7452041099999995 21.1510273099999999
 10.4430439400000008 17.8055382299999998  3.1824191900000001
  8.8184990600000006 18.8320881299999989  5.4517080800000004
  7.3617451799999998 -0.2665807400000000  7.3486593899999999
  5.5314500799999999  1.4940767800000001  8.7578662000000005
  3.6471785500000000  3.5774774400000000 10.5117729400000002
  1.4401200500000000  5.2964181400000001 12.4015514800000002
  0.0384320900000000  6.8681946800000002 13.8570714499999994
 19.5695735699999993  8.9194845300000001 15.2960224199999999
 17.5539316700000008 10.4161229399999993 17.3482519599999989
 15.6357566000000006 12.5351846800000004 19.2229653800000015
 13.7011239800000002 13.8365309199999995 21.0820977300000010
 12.0250342799999999 15.8895851100000005  1.4818696400000000
 12.3048134299999994 16.0139262799999997  5.0083227299999997
 10.9607022300000008 17.9392639500000008  7.0545807600000003
  9.0648277700000008 19.2654257700000002  8.8049899899999993
  7.4012469699999999 -0.3064550100000000 10.3444336900000007
  4.9522245199999997  1.6768120200000001 12.1484978199999993
  3.3292604500000000  3.6778676400000001 14.3276752900000002
  2.0111627599999999  5.6727741399999996 15.8287658199999992
  0.1096828900000000  7.1660156300000004 17.6392066900000017
 19.7193423699999997  8.8173441799999992 19.1259990600000016
 17.9116995800000005 10.7944624699999991 20.6404976699999985
 16.1144617399999994 12.1228859300000007  1.4953150300000000
 14.2180220599999991 14.0687948499999997  3.3886565499999999
  4.6983582100000003  5.4598988700000000 16.0634873700000007
  3.3133501100000000  6.9152529899999999 17.8430867199999987
  1.7606989099999999  8.7489372900000006 19.6949299700000005
 -0.4744112400000000 10.9755324600000002 -0.3550080100000000
 19.0090601300000017 12.2781787599999994  1.9420073400000000
 17.4628762100000010 14.0009611599999992  3.5943346100000002
 15.6749488199999991 15.8972134700000005  5.3117565999999998
 13.7445439399999998 17.5756835199999983  6.9190552199999997
 12.6263293500000007 19.3263457500000015  8.9992201299999994
 10.2938143800000006  0.0821561100000000 10.5184729499999996
  8.5566343499999995  1.6336411600000000 12.2169769499999994
  6.5863956100000003  3.6733790200000001 14.1703101799999995
  6.9494220699999998  3.7998606399999999 17.5097797200000009
  5.1072453500000004  5.5246588499999998 19.4180625999999990
  3.7722444400000001  7.2901646500000004  0.1851423500000000
  1.6777119400000000  8.7377140099999995  1.8125386000000001
  0.0694771100000000 10.6794818700000000  3.4547156800000001
 19.2070218500000003 12.2345213400000006  5.3520793299999996
 17.1578958499999992 14.0753575800000004  6.8745438300000004
 15.4581818000000002 15.6260487700000006  8.7899351200000009
 14.3073542600000003 17.3183220800000015 10.4291741800000004
 12.2216293100000009 19.3421846200000012 12.3995066800000000
 10.1752554600000007 20.9904139500000007 14.1186475900000001
  8.6818927400000003  1.9239620700000000 15.8390413100000007
  8.4781141400000006  1.8094438900000001 19.3977698099999998
  6.8986976300000000  3.6609846600000000  0.2271144000000000
  5.1786175099999996  5.0540250400000000  2.1823391000000001
  3.4098103200000001  7.2560251600000001  3.3289978699999998
  1.7425347000000000  8.9473569200000007  5.0302498800000004
  0.2732840000000000 10.7594552500000002  6.9789804300000000
 19.0001703699999993 12.3625751600000005  8.5180374800000003
 17.5579752400000011 14.0035777699999997 10.6890724000000006
 15.9839337700000002 15.9270887099999996 12.6646599599999998
 14.2019157099999997 17.2551061499999996 14.1742594400000002
 12.1633115899999993 19.2558298900000011 16.2209844799999985
 10.4472291899999998  0.2052088100000000 17.8539276800000017
 10.6564531500000008  0.1342314500000000  0.1028522500000000
  8.7239032900000009  1.5997345599999999  1.6591541700000001
  6.8644592400000004  3.3638624400000001  3.5642202400000000
  5.1117526900000003  5.4211059700000002  5.4318508599999999
  3.6216155699999999  7.1926026299999997  7.1682937600000001
  1.9887515099999999  8.9204197399999998  8.7177895999999997
  0.0439897700000000 10.6612291799999994 10.2066724700000009
 19.1260807200000009 11.9368195900000007 12.1195471999999995
 17.5019512199999987 14.1345565299999993 14.0406600600000004
 15.5142267000000000 15.6413574400000002 15.9234773799999996
 14.2492316799999994 17.5375654899999986 17.6359452599999997
 12.3078620599999997 19.4432797800000010 19.4701239100000016
 11.9233283500000002 19.5563405299999999  1.7054935200000001
 10.4703972200000006  0.2138254200000000  3.6452340799999998
  8.7214171700000005  1.5653354300000000  5.4871059100000004
  7.3652482700000004  3.6369692800000002  6.9522585499999998
  5.2667231200000000  5.3895068400000001  8.6887331700000008
  3.6097506099999999  7.0509612600000002 10.6977109499999994
  1.7071861200000000  9.1597456200000007 11.8608981599999996
  0.1895903000000000 10.5871796899999993 13.7727238100000005
 19.0630501000000017 12.2874907600000007 15.7405762700000000
 17.2493507900000012 13.8846144700000007 17.2513026600000003
 15.8136025999999994 15.9430577000000007 19.6131480399999987
 14.2009706300000005 18.0088486900000007  0.4025452600000000
 13.7550410599999999 17.8512734000000002  3.2249418500000000
 12.2964563899999995 19.6824424399999991  5.0018107299999999
 10.4299163499999992 -0.0058470200000000  7.3420339800000001
  8.7593265700000007  1.8567223799999999  8.6545671500000001
  7.1404068199999999  3.7846943400000002 10.4708254800000002
  5.4356708600000001  5.6329001099999996 12.2547038700000002
  3.5430818999999998  7.3925478199999999 13.9142476800000008
  1.8965030100000000  8.9957571900000008 15.8150104000000002
  0.0886643800000000 10.6347924799999998 17.4868516300000003
 18.8180614300000002 12.6110388899999997 18.7505097999999997
 17.4625748799999982 13.9932092800000003  0.0473298700000000
 15.7609154700000005 15.9388016500000003  1.5745440500000001
  6.6809778199999998  7.2765376200000000 14.2746375200000006
  5.1593038199999999  8.7285124500000002 15.9888403599999993
  3.4574035200000002 10.4037201699999997 17.6489167100000017
  1.7856388400000001 12.4529823499999992 19.3957718700000008
 -0.1950663100000000 13.9451692600000001 -0.0554954900000000
 18.9463301199999989 15.5044904100000007  1.6310544100000000
 17.5402346000000016 17.5964996499999984  3.2622276399999999
 15.4773471399999991 19.1490339799999987  5.3907683500000001
 13.9578211499999991  0.1751453200000000  7.2113596299999996
 12.5097614700000008  1.8850988399999999  8.9068946899999997
 10.2979990200000007  3.4555250200000001 10.6073293900000003
  8.7680703599999994  5.5103752500000001 12.4192221899999993
  8.7697153700000001  5.3689733400000001 15.7897222700000004
  6.8534878199999998  7.3154694800000000 17.6461866399999998
  4.8538528300000001  8.8408007699999995 19.6980220300000006
  3.4527067200000001 11.0395475899999997  0.3383411400000000
  1.7080110799999999 12.1954544899999995  1.8030260600000001
 -0.3346402200000000 14.1707197399999991  3.5377185899999999
 19.4504128899999991 15.6681647000000002  5.2552180999999996
 17.5051629200000001 17.3615773500000010  6.8807812600000000
 15.7795457199999998 19.5023650800000006  8.6191788999999996
 13.9297196799999998  0.0029098500000000 10.7212170499999999
 12.2559801999999998  1.5132801000000000 12.3157166599999996
 10.4954739299999993  3.4756523000000001 14.1343657799999995
 10.5006128200000006  3.7072257999999998 17.4640019500000001
  8.9061606399999995  5.1725768900000002 19.2580273300000009
  7.0092591999999998  7.4807469299999996  0.1019016100000000
  5.6495310900000000  8.6573730500000003  2.1546360099999999
  3.4713201599999999 10.5073636399999994  3.6886730200000000
  1.4985777199999999 12.5077420099999994  5.2640568400000003
 -0.0456571700000000 14.1535818599999992  7.1551486200000003
 19.1670358299999997 15.8677138200000005  8.5037388800000002
 17.1707493299999996 17.3624372600000001 10.5475232000000005
 15.5635739500000003 18.8853434900000003 12.3030900100000000
 13.7945978799999995 -0.3613576500000000 14.6767934199999992
 11.9753664499999992  1.4951664499999999 16.0226790100000009
 12.2132577500000004  1.7319394900000000 19.0132574900000009
 10.4182652299999994  3.2391443400000002  0.0256535600000000
  8.7055898799999998  5.3737570300000002  1.6520858199999999
  6.8471488799999998  7.1077064099999996  3.8620915199999999
  5.2795436100000002  8.9527384500000000  5.5758488100000001
  3.4299998399999998 10.7229202400000005  6.7248371599999999
  2.1454774500000000 12.3738794100000007  8.8881581399999998
  0.1326414000000000 13.8234751700000000 10.3983416399999999
 19.4389432100000015 15.8809398900000005 11.9482127100000000
 17.6354417400000010 17.2683032899999986 14.3897160399999997
 15.7717400199999993 19.0869530500000018 15.6406711699999992
 13.7627841300000000 -0.5381323400000000 17.8213883499999994
 14.1725562299999996 -0.0995674100000000 -0.1540076400000000
 12.4351667900000002  1.3914097299999999  1.7430898200000000
 10.2039662199999999  3.2153155800000000  3.1850975699999999
  8.9221378300000005  5.1231271899999999  4.8215291999999996
  7.3979285800000003  6.9711295900000003  7.2113144199999999
  5.4081769299999998  9.2769192100000009  8.7681883000000003
  3.8289308399999999 11.1025252699999992 10.5690043899999999
  1.9750388100000000 12.0326545899999999 12.1406183399999996
 -0.0837631200000000 14.0150025500000002 13.7373958399999996
 19.4466152799999996 15.8302170699999998 16.0204410999999993
 17.6119297699999997 17.6413837300000012 17.5970970899999983
 16.0513358100000012 19.0590906599999990 19.1336664899999995
 16.3476153300000000 19.0494731600000016  1.6817539399999999
 14.2341572000000003 -0.1987010300000000  3.0837913600000002
 12.3853369699999991  1.5173902399999999  4.7860268799999997
 10.7473725600000005  3.3322558700000000  6.8918405099999998
  9.0780497300000000  5.2852826100000003  8.8917774800000000
  6.7979868799999998  7.1005709899999996 10.4338424300000003
  5.2352031800000001  8.8819021800000009 12.2544958000000008
  3.7131204000000002 10.5334603399999995 13.9861984600000007
  1.6852728600000000 12.2154791599999992 15.6789564899999991
 -0.0668958500000000 13.9306292299999992 17.6480968199999992
 18.9688514800000014 15.7192096299999999 19.5267412600000014
 17.7843630300000015 17.4437900500000005 -0.1173447600000000
  8.4244544700000006  8.6705550400000000 12.4423340499999995
  7.0609602999999996 10.4798758000000003 14.2508650100000001
  5.3226014900000003 12.3218747000000004 15.9971122399999999
  3.4194965800000001 14.0899689899999991 17.5998569099999997
  1.6345444200000001 15.7532302000000008 19.6235206700000013
  0.2242179500000000 17.4920329400000014  0.0125770800000000
 19.2715079500000002 19.2912323400000005  1.8328634800000001
 17.6004207800000003 21.0433471800000014  3.4475241900000002
 15.5376702299999998  1.7925432400000001  4.8039954700000003
 14.0860415200000002  3.2061522400000002  6.8438417899999999
 12.1613442999999997  5.0835079600000004  8.9153715400000006
 10.1217628099999999  7.1609101800000001 10.4470151300000005
 10.3835225799999993  6.7377976799999999 14.1963800899999999
  8.6398534999999992  8.5286299000000003 15.8169679399999996
  7.2898131399999997 10.2447857500000001 17.8171637400000016
  5.5201003499999999 12.3960292699999997 19.5266167400000015
  3.5330327100000001 14.1996918900000004  0.2306780700000000
  1.7430097499999999 15.7637202300000006  1.9543333300000001
 -0.2457278600000000 17.5731027699999984  3.5103501000000001
 19.0426840499999983 19.2460681899999990  5.0367851100000003
 17.2371312799999998 20.8612879699999993  6.7874045900000004
 15.6552031399999994  1.6469941600000000  9.0411480500000003
 13.8756174500000000  3.2018104799999998 10.6883974199999994
 11.8886371799999999  4.8852289999999998 11.9606993500000005
 12.1277706100000007  5.0214751700000004 15.5264766499999993
 10.2872020600000003  6.8992418300000002 17.0815288999999986
  9.0545353500000001  8.8592509800000006 19.3567886899999984
  7.0582941200000002 10.5881813299999994  0.0381684000000000
  5.7040106200000000 12.3824582400000001  1.8559945300000000
  3.5650919800000000 14.4750856199999998  3.5404424500000000
  1.2190628500000000 15.9187568800000001  5.0857471700000003
 -0.1047875800000000 17.9237506999999994  7.1801864499999999
 19.0674742500000001 19.2247132299999990  9.0510938900000006
 17.5427265500000011 -0.1533218400000000 10.5707906000000005
 15.7360943500000001  1.7377461800000000 12.2752852200000007
 14.0389770200000008  3.1258120800000002 13.9850017999999992
 14.0178919999999998  3.5613271599999998 17.1907559700000014
 12.2511030400000003  4.8814464800000001 19.3179260399999997
 10.4003396099999996  6.6787971900000001 -0.0904023300000000
  8.6077828699999994  8.7897507200000007  1.5534702300000001
  7.0073420300000002 10.1041628400000008  3.5842515599999998
  5.3338467500000002 12.2609677300000008  5.5033301899999998
  3.6678223999999999 14.3783121299999994  6.8070051400000002
  1.7323578799999999 15.9361191800000004  8.9554656399999999
 -0.0996797400000000 17.3314711899999985 10.5334800299999998
 19.2158705099999985 19.2363182200000011 12.3183354999999999
 17.1513263500000015 21.2522796300000003 13.8354938000000001
 15.5149818499999999  1.7653530500000001 15.9815610699999997
 15.6196634599999999  2.0098359399999999 19.0616190699999990
 13.9501413000000003  3.4782563600000000  0.0749846100000000
 11.9821503400000005  5.3522345400000004  1.5896004399999999
 10.2509514300000006  7.0227242199999997  3.6187765800000000
  8.9189810900000008  8.8068726900000005  5.5528684899999998
  7.0185879299999998 10.4991866399999996  6.9559845600000001
  5.6321143600000001 12.5158553700000006  8.6540091399999994
  3.8270215099999998 13.9618444999999998 10.4299072499999994
  1.8634088900000001 16.1191966099999995 12.2933385200000007
 -0.0450676600000000 17.3798023000000015 14.1838484999999999
 19.2262130499999984 19.5054595599999985 15.6483098500000004
 17.2753041500000002 21.0018046900000002 17.6304823299999995
 17.5298215400000004 -0.1421745600000000 -0.4241933600000000
 15.9796446499999991  1.8208428400000001  1.4602784700000000
 13.9878190999999994  3.3227412400000000  3.0005184100000002
 12.3369405200000006  4.7181027799999997  4.8034887399999997
 10.8693303199999995  6.6266455600000000  6.9460821299999997
  8.6346254699999996  9.0689248399999993  8.5940169599999994
  7.1863048100000002 10.6219079099999991 10.4874051099999992
  5.9796055700000004 12.7912067900000004 12.3684817500000008
  3.4224713000000002 14.3927334600000005 14.0086629800000004
  1.9538710100000001 15.9386497100000000 15.9050311700000009
  0.0341564600000000 17.7161515700000010 17.5061916199999992
 19.3219611100000002 19.0211068400000016 19.2689136199999993
