Li                                      
   1.00000000000000     
    21.0004999999999988    0.0000000000000000    0.0000000000000000
     0.0000000000000000   21.0004999999999988    0.0000000000000000
     0.0000000000000000    0.0000000000000000   21.0004999999999988
   Li
   500
Direct
  0.0069961267588852  0.9928601409490270  0.0022303740387102
  0.9905547582200427  0.0991388562177065  0.1017011714006841
  0.9807470698316720  0.2007740529987387  0.1940703597533400
  0.9889897407204558  0.2944670388800290  0.3028418599557128
  0.9941880993309695  0.4115962838979996  0.3955649065498434
  0.0172013690150266  0.5046061422347066  0.5013750401180914
  0.0036197133401572  0.6022612190185939  0.5904036013428282
  0.0101127944572781  0.6991100697602448  0.6997120606652203
  0.0053535058689107  0.7835505249874970  0.8202856793885829
  0.0018849927382689  0.8911912197328604  0.9125837370538790
  0.0845039560962846  0.0039612794933461  0.0947318292421642
  0.1017068931692080  0.1014738558605757  0.1927328215994848
  0.1000313625866056  0.2084810514035382  0.2910559110497388
  0.0889783343253754  0.2901141882336162  0.3942493873955399
  0.1122428151710650  0.3935248955977215  0.4950103330873077
  0.0981624285136036  0.4917134325373240  0.6066866774600612
  0.1064338449084516  0.5964227413632983  0.6934729296921489
  0.1130802666603188  0.6992324754172543  0.7993747963143747
  0.1036717011499704  0.7923115902002351  0.9002589919287658
  0.1052552639222881  0.8932085950334496  0.9906352553510658
  0.2045789828813582  0.0003816013904441  0.1989276917216287
  0.1865765486536048  0.0875747977429100  0.3083587519344775
  0.1765348286945567  0.1962255012975902  0.3993051998761956
  0.1884049998809587  0.2976125725577958  0.4865795800100017
  0.1777472850646404  0.3807635946763170  0.5862222999452413
  0.2056440279993339  0.5051331306397486  0.6994511640199050
  0.1956038422894721  0.5806371786386038  0.7909151444013247
  0.1987560386657492  0.6835060108092677  0.8978570576891016
  0.2204430042141823  0.8056484764648459  0.9983641213304466
  0.1951239432394445  0.8936072369705457  0.0897800219042395
  0.2940159981905168  0.9963789766910338  0.3107872364943702
  0.2939609495012050  0.1056162610414049  0.3929298740506155
  0.2869280845694178  0.2058276779124313  0.4975924720840013
  0.2892466188900258  0.3051447570295949  0.5887275174400628
  0.2945211937811010  0.3826919982857575  0.7028992562081839
  0.2986750448798858  0.4881757339110990  0.8040394533463484
  0.3032781929001658  0.6041582667079339  0.8801446222708975
  0.3075426070807836  0.6930388147901212  0.9950983762291372
  0.3201243432299208  0.8105446860789058  0.1095188047903619
  0.2920782809933087  0.9081872860169966  0.2093979138591919
  0.3989318206709385  0.9936114387752681  0.3911627194590608
  0.4091836756267710  0.0954839380014789  0.4933745053689194
  0.4040724111330647  0.2010611580676667  0.5922140068093640
  0.4125486145567976  0.2934342458512873  0.6917518597176269
  0.3970351486869390  0.3750653408252163  0.7819744510845013
  0.3969036818171006  0.4990341129973075  0.8772748148853609
  0.4000318978119566  0.5773935801528509  0.9928811875907684
  0.4099085083688507  0.6842064974643449  0.0970913897288170
  0.3876419147163190  0.8106216413894884  0.2028142058522420
  0.4116445156067741  0.8910154072522118  0.3132937134830129
  0.5114695616771030  0.0116698607176033  0.4940222547082200
  0.4977098969072173  0.1017785862241354  0.6004305287969345
  0.4981169438822874  0.1999111249732124  0.6847569048356021
  0.5161443046594130  0.2998519625723191  0.7877087988381248
  0.4920108845027471  0.4039534244422782  0.9010758872407791
  0.4952979176686299  0.5043195990571618  0.9925217947191740
  0.5121391190685927  0.5884732720649524  0.1162532082569427
  0.4808082907549789  0.6990574133949181  0.2084673726816035
  0.4958437313397326  0.7986439632389732  0.2988263550867813
  0.5123227618390018  0.9054453265398408  0.4052429008833158
  0.5930983757529589  0.0133823380395697  0.6004598838122917
  0.6070881621866135  0.0998098392895415  0.7085159820004279
  0.6077873707768831  0.1940643327539817  0.8039342920406654
  0.6019718992404961  0.3042834027761216  0.8985223708959325
  0.6034301997571490  0.4103427856479627  0.9875357801004725
  0.5970964377038612  0.5005972886359871  0.0872240951405914
  0.5978840460941370  0.6071277407680782  0.2060385909859264
  0.5818299026213651  0.6982579586200330  0.2959235742006143
  0.5916190771648289  0.8062831804004702  0.4055561529487406
  0.6007834456322456  0.9008773995857240  0.5186416751982108
  0.6991140696650078  0.0085204737982423  0.7134749653579675
  0.7084741944239425  0.0930749596438147  0.8249878545748928
  0.6841730806409387  0.2016628480274250  0.9159325877955311
  0.6926393447775041  0.3037327096973854  0.0119503311825895
  0.7026147834575340  0.4078674107759355  0.0796727873145855
  0.7017657517678160  0.5086657103402317  0.1887955229637370
  0.7009722273279237  0.6111504726077968  0.3120909454536829
  0.6737342110902134  0.7176337949096450  0.4043215023451836
  0.6960302597557231  0.8045918392419225  0.5187608280755214
  0.6826052951120190  0.9104730458798613  0.6026506378419541
  0.7968799252398782  0.9885372872074498  0.8040386619366231
  0.7907478274326820  0.0991958962881867  0.9075464374657756
  0.7940144377514855  0.1978123301826145  0.9887968443608486
  0.7918276779124298  0.3119725058927187  0.1024171748291707
  0.7997111011642559  0.4036274660127148  0.2030321001880893
  0.8124385786052741  0.5220843770386452  0.2935720630461205
  0.8046333592057309  0.6141284417037696  0.4116187924097048
  0.7912338577652918  0.7067514211566390  0.5026310149758331
  0.7791373776814865  0.8207233284921784  0.6188752510654538
  0.8126929415966302  0.9035811647341703  0.7066414437751476
  0.9134177567200794  0.0074391124020892  0.9043840470464986
  0.9020681126639829  0.0921819951905931  0.9912862712792574
  0.8983653370157825  0.1972614213947281  0.0928543563248496
  0.8720788147901217  0.3058722530415920  0.2059678879074340
  0.8851374638699099  0.4034931563534201  0.2960509673579210
  0.9144648403609423  0.5135285436061068  0.3998870936406291
  0.9102439884764664  0.6126894454893943  0.4880395200114265
  0.8905151820194774  0.7130569153115403  0.6094253817766244
  0.8974540934739679  0.7899231751624995  0.6983362272326872
  0.9143905307016524  0.8992417132925397  0.8070297359586647
  0.0904207295064410  0.1005443294207282  0.0036458831932578
  0.0965120187614588  0.1965392633508714  0.0926143334682479
  0.1030689735958674  0.2938688935977680  0.1949960677126725
  0.0829724997023860  0.3948432380181401  0.2892193223970878
  0.1034651270207831  0.5026028142187116  0.3952734244422729
  0.1141423842289484  0.5830751410680719  0.5104706364134159
  0.1209019223351859  0.7030764438941901  0.5942109902145205
  0.1110986214613945  0.7965229770719731  0.7063980871883970
  0.1010860446179862  0.8920648855979607  0.8091147115544857
  0.0944459131925441  0.0066470960215241  0.9051708183138487
  0.1958334949167906  0.0882242356134384  0.1043984600366628
  0.2054140929977848  0.1987051027356515  0.2005728535034876
  0.1874697426251757  0.2998945615580553  0.3112304945120385
  0.1883859379538606  0.4057572076855323  0.3899249855955844
  0.1945809080736183  0.4930497778624314  0.5009315340110945
  0.2179151001166630  0.5827809180733823  0.5931147339349039
  0.2067681283778953  0.6944575795814387  0.6754430523082817
  0.1942845517963860  0.7951383562296144  0.8065119740006210
  0.2139388995500084  0.8997596142949007  0.8916325597009589
  0.1984308435513427  0.9906820513797285  0.0064233913478233
  0.3041410480702851  0.0865070541177602  0.2185622785171759
  0.2929863208018872  0.2149333487297937  0.3144348639318082
  0.2931294950120247  0.2962494645365581  0.3951449751196421
  0.2910126344610831  0.3953606923644699  0.4946176086283671
  0.3086892821599463  0.4757649484536088  0.6085200099997650
  0.3091705511773526  0.5930426089854990  0.7085205880812353
  0.3037539606199857  0.6992611061641369  0.7944094231089736
  0.3182823361348568  0.7934300178567213  0.8859039299064335
  0.3119882502797537  0.9085201390443061  0.9929317087688361
  0.3022640741887130  0.9976540625223222  0.1151547639341928
  0.3972231656389127  0.0950678702888013  0.3256691416871007
  0.3891063993714425  0.2044337439584751  0.4127356924835155
  0.3982185976524377  0.3051946520320925  0.5024049951191643
  0.3955918054332059  0.3744629761196165  0.5975822470893561
  0.4011220309040269  0.4964557058165298  0.6984656041522825
  0.3974326939834754  0.5919533777767185  0.7905224547034564
  0.4037460469988829  0.6967021766148420  0.8829220785219434
  0.3921841218066220  0.8076399276207695  0.9977692621604248
  0.3923357205780817  0.8982859022404242  0.1017273736339632
  0.3986173019690042  0.0010594733458760  0.2187943815623470
  0.5089968900740445  0.0977796452465398  0.4035275993428726
  0.5103269136449100  0.2062576400561866  0.5041976481512336
  0.5140304049903577  0.2981684874169659  0.6019354467750802
  0.5140251446394117  0.3913299688102683  0.6788495292969188
  0.5012291997809584  0.4781345220351909  0.7806497154829657
  0.4941404118949535  0.6017218032903955  0.8853790995452471
  0.4934633727768372  0.6867921101878522  0.9959311454489210
  0.5036718544796557  0.7940412885407468  0.0817847875050575
  0.4939806742696575  0.8997161777100544  0.1932187362205653
  0.5051963415156777  0.0006107183162314  0.2888096211994977
  0.5990142153758242  0.1007374086331296  0.5011360419989970
  0.6189423223256583  0.1915603804671306  0.6086057446251303
  0.6061598133377757  0.2897625885097952  0.7068295316778190
  0.6070008366467476  0.4070255322492287  0.7892256379610032
  0.5944331987333626  0.5024849851194020  0.8835188366943640
  0.5996331149258367  0.5941995452489195  0.9889710778314793
  0.5917152210661669  0.7086992047808351  0.0980996590557339
  0.5895075488678856  0.8014892650175014  0.1956814513940159
  0.6034016785314620  0.8991043422775675  0.2873060317611476
  0.6061831832575422  0.9916905992714433  0.4078161253303492
  0.7018954872503045  0.0748418599557183  0.5932295840575250
  0.7071715759148560  0.1765582909930714  0.7115277231494517
  0.7025999052403549  0.3047874502988037  0.7964157443870405
  0.6939388776457704  0.4009763010404512  0.8945718278136212
  0.7016499921430466  0.5121561600914291  0.9791046341753784
  0.7007689812147362  0.5981290369276948  0.0937517982905192
  0.6858354162996108  0.6995880926644631  0.2118586100330972
  0.6879038803838000  0.7951007628389775  0.3006170600699960
  0.7007114949644091  0.8849588205042735  0.4095073207780757
  0.7058926477941014  0.9850743429918367  0.4947558500988052
  0.8011702359467634  0.0967576281517140  0.7026107516487698
  0.8000218532892092  0.2007959958096208  0.8163647389347872
  0.7904503926096993  0.3052649351205901  0.8928522930406402
  0.8054325192257323  0.4131560105711785  0.9950970153091561
  0.7900402190424032  0.5065203995143008  0.0945382190900190
  0.8041210580700451  0.6156743948953576  0.1874249965476977
  0.7818248146472726  0.7008356377229106  0.2998262231851641
  0.7845292959691434  0.7931902288040789  0.3958319001928530
  0.8003818980500483  0.9022851070212639  0.5014684440846651
  0.7977780429037438  0.0007100454751097  0.6132352491607378
  0.8944499240494252  0.0932543920382827  0.7999668384086078
  0.9012471679245735  0.2009881874241088  0.8919535249160759
  0.8968398895264400  0.3188049317873407  0.9899397142925181
  0.8963352310659261  0.4023273003023746  0.1002991990666899
  0.9045367810290230  0.5124272674460144  0.1841881221875639
  0.9124737006261725  0.6210706702221387  0.2862035232494478
  0.8947126720792369  0.7131429589771656  0.4010965015118657
  0.8963287916954386  0.7789839456203396  0.5015455217732878
  0.9068593171591175  0.8944026108902179  0.5956494902502314
  0.9062368015047255  0.0027740282374253  0.7016908925977958
  0.9975812037808609  0.1016329539772869  0.9008468736458681
  0.9857728549320228  0.1904605337968164  0.9959151529725503
  0.9973141682340909  0.2959324763696074  0.0930942568034112
  0.9835612709221238  0.3949084569415007  0.1941922701840397
  0.0049891831146880  0.5172482174233934  0.2811754910597344
  0.0070582143282323  0.6086933973000654  0.3976349563105614
  0.0042783986095571  0.7068560029523070  0.5106494202519016
  0.0082461446156046  0.7913073041118039  0.5981030818313826
  0.9961477569581660  0.8993820880455203  0.6940815828194573
  0.0019680598080996  0.0105474379181416  0.7998655284397955
  0.2040497483393224  0.1949519106687916  0.0099717568629316
  0.2102711487821693  0.2925940329992116  0.0887135549153584
  0.2097856298659551  0.3930552820170945  0.2047103897526270
  0.1986669065022255  0.5104061717578148  0.2798679798100068
  0.2125696954834382  0.5971113349682184  0.4149768181709987
  0.1989307083164675  0.7118282821837596  0.5068906511749702
  0.2110739939525246  0.8185522239946650  0.5943052332087362
  0.2089916778171954  0.9016971719720956  0.7060879431442117
  0.1975367353158290  0.0089155553439184  0.8034406966500782
  0.1952852936834830  0.1085016994833481  0.9107347115544897
  0.3027353258255729  0.1751612194947754  0.1028805442727574
  0.2950140791885900  0.2884114635365833  0.2037725363681844
  0.2828637770529241  0.4102436003904657  0.3022654808218874
  0.2749180962358011  0.5019954967738869  0.3976573743482277
  0.3043038189566900  0.5940086836027731  0.5046761853289183
  0.3104813566343694  0.7063801590438317  0.5936717559105702
  0.2996665736530062  0.8069169534058744  0.6912534806314170
  0.3044889755005826  0.9028727911240182  0.7910301954715351
  0.3079510602128508  0.9956045841765686  0.8930363681817113
  0.3021719078117187  0.0915794295373900  0.0087299626199382
  0.3958963267541264  0.1992879260017588  0.2220782390895479
  0.3964369481679029  0.2991607756958174  0.2999520792362063
  0.4090286559843790  0.4061281417109086  0.3995973514916287
  0.4086135406299860  0.4908925558915271  0.4923710473560163
  0.3904868055522499  0.5874111664007984  0.6062375386300332
  0.3991245817956681  0.6872096402466639  0.7060623218494797
  0.3998003157067700  0.8002942206137931  0.7846323225637519
  0.4121820923311361  0.9050789281207585  0.9010055132020653
  0.3901092788266922  0.0022894492988286  0.0092703816575792
  0.4052280050474977  0.0986366691269254  0.1154513330634970
  0.4990540210947358  0.1896699545248950  0.3102967029356449
  0.4935164772267342  0.3040733125401758  0.4074515178210021
  0.5158406795076331  0.3861861946144174  0.5084746048903597
  0.5041765815099666  0.4844576886264633  0.6082847684578923
  0.5130219342396600  0.5998102021380447  0.7097943006118896
  0.4834341244256066  0.7093878155282027  0.7976406252232096
  0.4979013204447540  0.7910054574891063  0.9082665174638720
  0.4873232523035185  0.8930007885526550  0.9917264779410004
  0.4914958958120010  0.0106216204376111  0.0903956510559283
  0.4799026585081307  0.1024432151615429  0.2079006356991471
  0.6175348596461987  0.2000715197257179  0.3930355520106659
  0.6218659327158846  0.2956025513678213  0.4972165134163475
  0.6265948472655438  0.3920157039118095  0.6105679893335889
  0.6140348801218991  0.4943590700221421  0.6765074945834613
  0.5950828427894592  0.6034116392466871  0.7854007023642282
  0.5874984847979832  0.6914866517463878  0.9043383695626304
  0.6028798828599307  0.8016766567462668  0.9915942701364244
  0.5908418099569062  0.8943669212637815  0.0914868188852651
  0.5944846632223033  0.9954798133377807  0.1884110116425788
  0.6038842527558899  0.1064595304873706  0.2967562424704155
  0.7107081269493563  0.1939009547391706  0.4952840965691294
  0.7131352010666419  0.2883683245636988  0.6025594438227628
  0.7031948348848829  0.3875397900050004  0.6910675774386306
  0.7051088683602771  0.5037059622389961  0.7882324682745647
  0.6974069341206146  0.6088519749529766  0.8850421880431441
  0.7068062965167528  0.6900850860693808  0.9875826080331436
  0.6948252284469447  0.7984892035903925  0.0915011194971527
  0.6921251479726678  0.8905743529915924  0.1949153729673085
  0.6994307892669198  0.9986690902597530  0.2949342329944500
  0.7010554686793142  0.0797628285040801  0.4064427408871225
  0.7968075931525433  0.1870932663508000  0.5862388233613487
  0.7907406014142495  0.2877692331134938  0.7003344606080830
  0.8079324601795221  0.4088454017761478  0.7861374843456090
  0.7941996347705995  0.5078050965453187  0.8923453041594271
  0.8026762043760840  0.6042435261065222  0.9997182867074628
  0.7870385614628219  0.7136408556939102  0.1021975791052583
  0.7997435861050946  0.8027105102259497  0.1828863203257072
  0.7987754301088046  0.9001731058784301  0.3028075717244860
  0.8107582005190324  0.9893975662484209  0.3784680369515030
  0.8037935539630041  0.0864554915359150  0.4886103921335234
  0.8907993900145215  0.2042651074974415  0.7019299369062608
  0.9003266703173765  0.3010691859717625  0.7989010614032992
  0.9026463984190869  0.4100483940858553  0.8894335930096915
  0.8996759853336798  0.4985883364681811  0.9994652489226468
  0.9061294754886760  0.6048480193328700  0.0861243108497405
  0.9003019080498049  0.7055030294516769  0.1884122525654135
  0.8900064041332314  0.8000202123758982  0.2935966634127780
  0.9069037561010447  0.8973986281279025  0.3988562615175795
  0.8981621675674418  0.9960360929501704  0.5099975281540949
  0.8882049479774281  0.0883121811385408  0.6117947758386677
  0.9990716297231046  0.1999497364348457  0.8036948791695409
  0.0015426656508168  0.3066812156853373  0.8906729758815288
  0.0211425561296181  0.4007982357562909  0.0038373905383224
  0.9977878850503572  0.5116597066736475  0.0991317363872284
  0.0182725039880012  0.6226923758958094  0.1942007714102019
  0.9946718944786994  0.7067040951405943  0.3011146686983608
  0.9880617985286051  0.8049296235803922  0.4001384014666343
  0.9945451817813833  0.9082597857193875  0.5103098459560513
  0.9883898040522823  0.9941484521797079  0.6237560310468808
  0.9902514125854154  0.1239415942477535  0.6903320078093387
  0.1085041456155835  0.1908105211780651  0.8876245432251579
  0.0880582624223223  0.2870122868503131  0.0025670203090371
  0.1197049446441767  0.3909362100902385  0.1057267588866964
  0.1022831070688781  0.4981018690031220  0.1788786071760171
  0.1045610714030616  0.6145363772291148  0.3007015699626194
  0.0839894426323156  0.7113690302611815  0.4145024089902591
  0.1039272222089949  0.8136068322182837  0.4943701483298000
  0.1054335311063994  0.8893040589509766  0.5955115130592148
  0.1004775438680028  0.0087133206352235  0.6983236094378711
  0.0952384519416185  0.0986597523868511  0.7831308225994604
  0.2938268312659247  0.2955517735292048  0.0070300264279410
  0.3018074812504494  0.4219985005118900  0.1008473860146211
  0.2914963243732274  0.5030941810909297  0.1984665622247093
  0.3043933525392220  0.6031345482250430  0.3027639403823699
  0.3111773243494227  0.7055028018380511  0.4082002242803711
  0.3068389871669694  0.8230225147020320  0.5005241475202951
  0.3162669403109462  0.9186494235851512  0.6003693745387011
  0.3103162962786570  0.0059846708411726  0.7058267074593445
  0.3061797414347254  0.1061182052808292  0.7999584733696850
  0.3044576338658587  0.2064758272422083  0.9081850665460323
  0.3882961919954298  0.3022574181567137  0.1153014461560460
  0.3973738220518541  0.3867207399823798  0.2117839427632688
  0.3943677231494505  0.4975186690793052  0.3084182148044121
  0.3884168162662789  0.5983949015499661  0.4120581509964083
  0.3940833118259093  0.7111159000976173  0.5231469907859321
  0.3970472193519186  0.8008935858670014  0.6048225766053221
  0.3995925435108703  0.9107451641627549  0.6981346148901224
  0.3991901335682471  0.0051165000833322  0.7991795666769832
  0.4000381905192754  0.1030239718101953  0.8809956067712648
  0.3853027808861711  0.2003604718935250  0.0112880398085764
  0.5013358800980896  0.3023043808480779  0.2083624823218528
  0.5018642303754675  0.4050306554605854  0.2936991590676428
  0.5043786114616324  0.4988089507392672  0.3979335653912983
  0.4906170900692857  0.5945707711721155  0.5028473417299608
  0.4965924930358767  0.6862097297683363  0.6039593285874147
  0.5053446698888138  0.8047933134925387  0.6988908945025116
  0.4983601814242533  0.9057280936168155  0.8144586371753064
  0.4969287907430768  0.0007636794362043  0.9159238446703668
  0.4839916297230999  0.1133733520630429  0.0107852541606164
  0.4927718859074801  0.2136377386252732  0.1058633042070412
  0.6083051903526098  0.3018893354920138  0.3179103354682056
  0.5879093116830560  0.3968189433584897  0.4100836670555452
  0.5993191566867466  0.4907786347944096  0.5050233384919380
  0.6044774386324150  0.5898863079450507  0.5847685045594133
  0.6000440575224388  0.6890096669126891  0.6906948453608237
  0.5956209828337435  0.8023560048570246  0.7979628456465306
  0.6041111325920809  0.8933489945477504  0.9122710325944610
  0.5824054927263660  0.0050496188186031  0.0103175705340348
  0.5822777967191257  0.1060280917121048  0.1094700688078873
  0.5890582262327086  0.2023103811813982  0.2043697492916863
  0.7079721006642714  0.3049503573724408  0.4001000647603661
  0.7239051789243121  0.3988760391419248  0.4971860750934525
  0.7123544315611525  0.4986018628127908  0.5928564843694204
  0.6985357115306812  0.5919722349467875  0.6856578010047372
  0.7047850717840021  0.6882743148972637  0.7844012456846272
  0.7040448679793343  0.7877307721244762  0.8953794347753643
  0.6977360743791792  0.9006064941310896  0.9951080959977148
  0.7005739891907368  0.9865670098331023  0.0902011890193108
  0.7011830623080400  0.0923824980357608  0.1877936682459946
  0.6881603580867122  0.1965160096188185  0.2929123258969994
  0.8118083464679415  0.3036708092664426  0.4894923520868559
  0.8088783062308025  0.4008874045856032  0.6003030832599237
  0.8034677112449700  0.5080443498964300  0.6809312221137560
  0.8128907035546789  0.5882817237684819  0.7964650236899118
  0.7998926773172030  0.6969337306254602  0.9029004547510766
  0.8036734830123109  0.7997096054855817  0.9925863008023583
  0.8030141906145118  0.9050335625342285  0.0756769219780509
  0.7879816742458488  0.9836850365467456  0.1982190795457228
  0.8023420675698176  0.0961690021666186  0.3002811823527978
  0.7861521344729852  0.2015808833123032  0.3831500007142665
  0.9090664060379510  0.2884563715149611  0.5847506106997429
  0.8938184528939814  0.3848291950191651  0.6831275598200008
  0.9129699626199397  0.4922495050117845  0.7991289488345501
  0.9026153448727428  0.5851860212852102  0.8968681507583156
  0.9072978662412794  0.7043481517106756  0.0029505359396182
  0.9027699230970683  0.8064646817932939  0.0946924316087703
  0.8974500440465718  0.8958587914573428  0.1931341382348037
  0.9138895678674288  0.9975536282469477  0.2934636818171015
  0.9032815918668575  0.0981568415037728  0.3902058389085994
  0.8999367572200683  0.1872060450941646  0.4921798047665504
  0.0025206180805242  0.2935416623413758  0.6876746610794982
  0.9901727949334571  0.4013799023832760  0.7925305464155628
  0.0009301297588138  0.4863863298492888  0.9101076174376814
  0.0029972205423690  0.5988747144115649  0.0049613975857739
  0.0069082012333013  0.6883741329968345  0.0989141563296130
  0.0079548563129421  0.7903885888431219  0.1953473503011836
  0.9950074974405396  0.9058641570438795  0.2829304592747803
  0.9903268760267636  0.0041180019523352  0.3892041008547409
  0.9868116530558808  0.0828636213423479  0.5224025513678257
  0.9878787671722122  0.1924231884955105  0.5853758186709825
  0.0963613442537081  0.3003228537415765  0.7890397676245797
  0.1119212804457064  0.3925166205566555  0.8944389785957441
  0.1051168515035386  0.4946005090355001  0.0190601433299236
  0.1079502273755395  0.6116426204137966  0.1054722454227246
  0.1145276221994749  0.7055904002285658  0.2047676498178603
  0.1061749363110422  0.8037127063641307  0.3212638441941849
  0.0846101845194127  0.8988177914811573  0.4120701245208451
  0.0976364353229684  0.0052110944977528  0.4974150586890786
  0.0914778733839654  0.0910721030451640  0.5939051727339830
  0.0927224961310458  0.2013136563415188  0.6973761619961465
  0.2032026066046058  0.2884508059331949  0.9029717163877038
  0.1932125663674640  0.3960869612628244  0.0082921139972854
  0.2084344634651529  0.5060338696697713  0.1079335392014471
  0.2010316073426850  0.6227199085736075  0.1961985857479576
  0.2096360334277776  0.7082508787885970  0.3253732825408946
  0.2030533015880565  0.8149938115759170  0.4156439622866088
  0.2069465707959353  0.9137256660555693  0.4968857122449464
  0.2059208266469881  0.9959972448275067  0.6013186843170431
  0.2000876588652645  0.1054412537796736  0.7046509287874088
  0.2024317706721277  0.1967464203233291  0.7961863160400924
  0.4073888021713756  0.3981747886955063  0.0113961896145298
  0.4030181571867359  0.4918343001357144  0.1013264827027953
  0.3933851627342193  0.5876248289326469  0.1893929692150209
  0.3951371986381247  0.6974357658151007  0.3116152415418654
  0.3913971286397953  0.7961289969286440  0.4073362696126281
  0.4066725492250214  0.9043798814313959  0.4904977443394216
  0.4057831594485819  0.0186587433632539  0.5954278502892763
  0.4003534482512308  0.1082844760839023  0.7020823528011206
  0.4106106873645885  0.2081228032665905  0.8043007037927694
  0.4079151401157119  0.2993954310611642  0.9020879174305350
  0.4982253798719043  0.3906489926430297  0.0897030313563931
  0.5070454612985387  0.4882832194471547  0.1956652360658069
  0.4843066526987485  0.6092103354682052  0.3072170910216414
  0.4861879498107200  0.7013626670793585  0.4093347258398623
  0.4944278064808003  0.8155016056760545  0.5088231365919853
  0.4894803252303532  0.9198488793123971  0.6003853874907747
  0.5016846803647539  0.0091019423347092  0.7193460889026468
  0.5151613971095941  0.0958565057974781  0.8007720849503599
  0.5169358191471645  0.2037117068641194  0.9012490716887669
  0.4980880979024320  0.3007699673817257  0.9903567672198292
  0.6246326292231146  0.4068132206376021  0.1989582586128904
  0.5964708997404813  0.4984374929168354  0.3040067884098008
  0.5787766338896674  0.6123861236637254  0.3991360658079586
  0.6005261698530973  0.7119547201257106  0.5109739725244609
  0.5887478840979981  0.8006681721863771  0.6123247079831415
  0.5999359853336799  0.9122901235684893  0.7117408266469880
  0.5912235194400139  0.0000648713125884  0.8149722430418294
  0.6000830861169959  0.1003403357062922  0.9077044189424086
  0.6061991562105646  0.2019118354324902  0.0097951405918906
  0.5887105326063633  0.3113496450084554  0.0946363900859524
  0.6975791147829824  0.4177783538487176  0.3085420628080300
  0.6987438246708422  0.4957953434442004  0.4045462065188943
  0.6978431756386740  0.6197354624889897  0.5093232218280548
  0.7016259884288445  0.7139209052165398  0.6150947939334799
  0.6937417466250793  0.8095745001309496  0.7094441975191046
  0.6894940268088874  0.9023995347729823  0.8129459336682459
  0.6828979690959756  0.0016171643532275  0.9126011990190719
  0.6911493869193563  0.1026234894407310  0.0137104887978836
  0.6996062188995467  0.2051702216613904  0.1089867117449614
  0.6893687402680868  0.3080700102378486  0.2026735968191247
  0.8020414699649976  0.4159108354563017  0.3989969915002050
  0.8107924416085339  0.5118978495750071  0.5054431232589707
  0.8182114273469665  0.6263135887240807  0.5919447027451739
  0.7947949091688287  0.7152169157877211  0.7038518301945160
  0.8159147382205205  0.8183915506773616  0.8073521016166296
  0.7987362300897587  0.9120219604295130  0.9090311916382916
  0.8065583890859713  0.0145421285207519  0.0136514235375316
  0.8035718640032385  0.1062215604390389  0.1116370848313153
  0.8096798938120529  0.2110056122473267  0.2010729596914373
  0.7902883583724218  0.3112393904907051  0.3034964572272116
  0.8984029670722151  0.4244480269517368  0.5019052479702850
  0.9010776743410887  0.5090106206995060  0.5966729554058219
  0.9040856889121685  0.6032564919882830  0.6984414080617114
  0.9049520044760868  0.7048795257255804  0.8119611209256945
  0.9081573886336045  0.7848581809956912  0.9144082845646508
  0.9034255065355552  0.8953916087712201  0.9957613599676165
  0.8992113449679735  0.0146211285445617  0.1106171272112562
  0.8918983709911643  0.1029892683507541  0.2144083440870475
  0.8895983795623934  0.2024580967119860  0.3102835322968502
  0.8870648965500791  0.3033507430775444  0.4071791828765967
  0.0097316240089498  0.3924268998357192  0.6107960353324913
  0.9968720568557856  0.4977195604866580  0.7043725439870485
  0.0111724668460269  0.5988314125854117  0.7974196528654076
  0.0173193743006124  0.6914903378490962  0.9016777195781032
  0.9987811847336943  0.7838987800290482  0.9935774486321733
  0.0076798752410667  0.8916050246422671  0.1021408209328314
  0.0017466169853080  0.9938845094164392  0.1986928835027726
  0.0159012375895813  0.1074824708935509  0.2853418628127926
  0.0033111549725007  0.1868231337349116  0.4003095545344166
  0.9863078536225345  0.3102117292445428  0.4854220747125098
  0.1146145210828280  0.4074374067284126  0.7058830351658258
  0.0948125897002470  0.5014892421609005  0.8045514402038023
  0.1053848779790982  0.5887870536415818  0.9175114930596919
  0.1194400585700350  0.6979016104378459  0.0055423128020777
  0.1091566924597061  0.8020275769624519  0.0930851860670003
  0.1079673674436350  0.9053087650294032  0.1992404423704173
  0.0984969229304085  0.9929942520416191  0.3183494040618058
  0.0812504645127490  0.0947848746458391  0.4080752553510649
  0.0761397638151493  0.1922180738553863  0.5050148439322868
  0.0969772167329381  0.2932674945834606  0.6019928711221141
  0.1938879588581202  0.3841743496583447  0.8010161134258738
  0.2018561962810423  0.4988466712697317  0.8991046332230184
  0.2198132453989174  0.5839099202399964  0.0051378343372761
  0.2120677988619306  0.6964517373395864  0.1001821175686288
  0.1975109225970826  0.7918134911073551  0.2000113411585431
  0.1961349267874581  0.8984648270279294  0.3058196204852237
  0.1993818213852023  0.0008327463631801  0.3961302702316587