Li 
 1.0000000000000000
    21.0004999999999988    0.0000000000000000    0.0000000000000000
     0.0000000000000000   21.0004999999999988    0.0000000000000000
    -0.0000000000000000   -0.0000000000000000   21.0004999999999988
 Li 
 500
Cartesian
  0.1469221600000000 -0.1499406100000000  0.0468389700000000
 -0.1983548000000000  2.0819655500000001  2.1357754500000001
 -0.4043211600000000  4.2163554999999997  4.0755745900000004
 -0.2312209500000000  6.1839550499999998  6.3598304800000003
 -0.1220528200000000  8.6437277600000009  8.3070608200000002
  0.3612373500000000 10.5969812900000004 10.5291265299999992
  0.0760157900000000 12.6477867300000000 12.3987708300000001
  0.2123737400000000 14.6816610200000000 14.6943031299999998
  0.1124263000000000 16.4549528000000009 17.2264094099999987
  0.0395857900000000 18.7154612100000008 19.1647147699999998
  1.7746253299999999  0.0831888500000000  1.9894157800000001
  2.1358956099999999  2.1310017100000000  4.0474856199999998
  2.1007086300000002  4.3782063200000003  6.1123196599999998
  1.8685895100000001  6.0925430100000000  8.2794342600000004
  2.3571552400000000  8.2642195699999998 10.3954644999999992
  2.0614600799999998 10.3262279400000008 12.7407235700000001
  2.2351639599999999 12.5251757799999996 14.5632782600000006
  2.3747421399999999 14.6842316000000004 16.7872704100000014
  2.1771575599999999 16.6389395499999999 18.9058889599999986
  2.2104131699999998 18.7578271000000001 20.8038356799999988
  4.2962609299999999  0.0080138200000000  4.1775809900000000
  3.9182008100000001  1.8391145400000000  6.4756879700000001
  3.7073196700000000  4.1208336399999999  8.3856088500000006
  3.9565991999999999  6.2500128300000002 10.2184144700000008
  3.7327818599999998  7.9962258700000000 12.3109614100000009
  4.3186274100000004 10.6080483099999991 14.6888241700000002
  4.1077784900000003 12.1936710700000006 16.6096134900000010
  4.1739761900000003 14.3539679800000002 18.8554471399999990
  4.6294133100000003 16.9190208300000009 -0.0343542700000000
  4.0977003700000001 18.7661987799999999  1.8854253500000000
  6.1744829699999997 -0.0760433000000000  6.5266873600000004
  6.1733269200000001  2.2179942900000000  8.2517238200000005
  6.0256332400000003  4.3224841500000002 10.4496907100000005
  6.0743236200000004  6.4081924700000004 12.3635722300000008
  6.1850923299999998  8.0367233099999993 14.7612358300000004
  6.2723252799999996 10.2519345000000008 16.8852305399999985
  6.3689936899999999 12.6876256800000000 18.4834771400000015
  6.4585485199999999 14.5541616299999994 -0.1029365500000000
  6.7227712700000000 17.0218436799999999  2.2999496599999998
  6.1337899399999998 19.0723871000000003  4.3974608899999996
  8.3777676999999997 -0.1341629800000000  8.2146126899999992
  8.5930617799999993  2.0052104399999999 10.3611112999999992
  8.4857226699999995  4.2223848500000001 12.4367902499999996
  8.6637271800000004  6.1622658799999996 14.5271349300000008
  8.3379366400000006  7.8765596899999997 16.4218544599999987
  8.3351757699999993 10.4799658900000008 18.4232097500000016
  8.4008698699999993 12.1255538800000000 -0.1494986200000000
  8.6082836300000007 14.3686785500000003  2.0389677300000000
  8.1406740299999996 17.0234597799999996  4.2591997299999997
  8.6447406499999992 18.7117690600000017  6.5793246300000003
 10.7411165299999993  0.2450729100000000 10.3747143600000005
 10.4521566900000007  2.1374011999999998 12.6093413200000004
 10.4607048799999998  4.1982335800000001 14.3802373800000005
 10.8392884699999996  6.2970411400000001 16.5422786299999984
 10.3324745799999995  8.4832238899999997 18.9230441700000007
 10.4015039199999997 10.5909637399999994 -0.1570460500000000
 10.7551775700000007 12.3582329499999997  2.4413754999999999
 10.0972145100000006 14.6805552099999996  4.3779190600000000
 10.4129662799999991 16.7719225499999993  6.2755028700000004
 10.7590341600000006 19.0148045799999998  8.5103035400000007
 12.4553624400000000  0.2810357900000000 12.6099577899999993
 12.7491549499999994  2.0960565299999998 14.8791898800000002
 12.7638386799999992  4.0754480199999996 16.8830221000000016
 12.6417108700000007  6.3901035999999998 18.8694190500000012
 12.6723359099999993  8.6174036699999998 -0.2617548500000000
 12.5393237400000004 10.5127933599999999  1.8317496099999999
 12.5558639099999994 12.7499861200000009  4.3269134300000003
 12.2187188700000000 14.6637662599999992  6.2145430199999998
 12.4242964300000001 16.9323499300000009  8.5168819899999999
 12.6167527499999998 18.9188758300000011 10.8917345000000001
 14.6817450199999993  0.1789342100000000 14.9833310100000006
 14.8783123199999991  1.9546206900000000 17.3251574400000017
 14.3679767799999993  4.2350206400000001 19.2350423100000008
 14.5457725599999996  6.3785387699999996  0.2509629300000000
 14.7552617599999998  8.5654195600000005  1.6731683700000000
 14.7374316699999994 10.6822342500000005  3.9648003799999998
 14.7207672600000006 12.8344655000000003  6.5540659000000003
 14.1487552999999995 15.0706685100000009  8.4909537099999994
 14.6169834699999992 16.8968309199999993 10.8942367699999991
 14.3350524999999998 19.1203892000000018 12.6559647200000001
 16.7348768700000008 -0.2407227000000000 16.8852139200000018
 16.6060997499999985  2.0831634200000000 19.0589289599999994
 16.6747002000000002  4.1541578399999999 -0.2352718700000000
 16.6287771500000012  6.5515786100000000  2.1508118800000000
 16.7943329800000001  8.4763786000000003  4.2637756199999997
 17.0616163699999994 10.9640329600000008  6.1651601100000004
 16.8977028599999990 12.8970043400000005  8.6442004499999996
 16.6163066300000004 14.8421332199999991 10.5555026299999994
 16.3622745000000016 17.2356002599999982 12.9966897100000001
 17.0669581199999989 18.9756562500000001 14.8398236400000005
 19.1822295999999994  0.1562250800000000 18.9925171800000001
 18.9438813999999986  1.9358679900000000 20.8175073399999988
 18.8661212599999999  4.1425884799999997  1.9499879099999999
 18.3140911499999994  6.4234702500000003  4.3254286300000002
 18.5883293099999989  8.4735580299999995  6.2172183399999996
 19.2042188799999991 10.7843561799999996  8.3978289099999994
 19.1155788800000010 12.8667847000000002 10.2490739400000006
 18.7012640800000014 14.9745517499999998 12.7982377300000003
 18.8469846899999993 16.5887816400000006 14.6654099400000000
 19.2026583399999993 18.8845255999999999 16.9480279699999983
  1.8988805300000000  2.1114811900000001  0.0765653700000000
  2.0268006500000002  4.1274227999999997  1.9449473100000001
  2.1644999800000000  6.1713937000000003  4.0950149199999997
  1.7424639799999999  8.2919054200000009  6.0737503799999999
  2.1728193999999998 10.5549104000000007  8.3009395500000007
  2.3970471400000002 12.2448695000000001 10.7201386000000003
  2.5390008200000000 14.7649568599999998 12.4787279000000009
  2.3331265999999999 16.7273807800000007 14.8347130299999996
  2.1228574800000000 18.7338086299999986 16.9918134999999992
  1.9834114000000000 21.1400923399999989 19.0090397700000011
  4.1126013099999996  1.8527530600000000  2.1924198600000002
  4.3137986599999998  4.1729065099999998  4.2121302099999998
  3.9369583300000000  6.2979357399999998  6.5359959999999999
  3.9561988900000000  8.5211042399999997  8.1886196600000005
  4.0862963600000004 10.3542918600000000 10.5198126799999994
  4.5763260600000004 12.2386906700000004 12.4557059700000003
  4.3422340799999999 14.5839563999999999 14.1846418199999995
  4.0800727300000004 16.6983030499999998 16.9371547100000015
  4.4928238599999997 18.8954017800000003 18.7247295700000009
  4.1671469300000004 20.8048184200000001 21.1353944300000016
  6.3871140799999999  1.8166913899999999  4.5899171299999999
  6.1528592299999998  4.5137077899999998  6.6032893599999998
  6.1558659599999999  6.2213868799999998  8.2982420500000007
  6.1114108299999996  8.3027722199999996 10.3872170900000000
  6.4826292700000003  9.9913018000000005 12.7792244700000008
  6.4927361599999998 12.4541913100000006 14.8792866099999994
  6.3789850499999998 14.6848328600000002 16.6829950899999986
  6.6840881999999997 16.6624270900000013 18.6044254799999997
  6.5519092499999996 19.0793771800000016 -0.1484376500000000
  6.3476966900000003 20.9512341400000004  2.4183076200000002
  8.3418850899999999  1.9964728100000000  6.8392148099999996
  8.1714289400000002  4.2932108400000004  8.6676559100000006
  8.3627896600000007  6.4092402899999996 10.5507560999999992
  8.3076257099999999  7.8639097299999996 12.5495259800000003
  8.4237632100000006 10.4258180500000002 14.6681269200000006
  8.3462852900000009 12.4313169099999996 16.6013668099999983
  8.4788688600000004 14.6310940600000006 18.5418051099999985
  8.2360626499999992 16.9608422999999995 -0.0468466100000000
  8.2392462999999996 18.8644530900000014  2.1363257099999999
  8.3711626500000005 21.0227494700000008  4.5947914100000000
 10.6891891900000005  2.0534214400000002  8.4742813500000000
 10.7171203500000001  4.3315135700000003 10.5884027100000004
 10.7948955200000007  6.2616873200000001 12.6409453500000009
 10.7947850499999998  8.2181250099999996 14.2561795399999998
 10.5260638100000001 10.0410640299999994 16.3940343499999983
 10.3771957199999996 12.6364587299999993 18.5934037799999992
 10.3629775599999991 14.4229777099999996 -0.0854479800000000
 10.5773607799999994 16.6752640800000016  1.7175214299999999
 10.3738411500000005 18.8944895899999992  4.0576900699999996
 10.6093757699999998 21.0133253899999985  6.0651464500000003
 12.5795980299999997  2.1155359499999999 10.5241074500000007
 12.9980982399999991  4.0228637699999998 12.7810249400000000
 12.7296591600000006  6.0851592400000003 14.8437735800000006
 12.7473210699999999  8.5477396900000002 16.5741330100000006
 12.4833943900000008 10.5524359299999997 18.5543373299999992
 12.5925952300000006 12.4784875500000005 -0.2316128800000000
 12.4263154999999994 14.8830376500000003  2.0601418900000001
 12.3799532800000005 16.8316753100000014  4.1094083200000000
 12.6717369499999997 18.8816407400000017  6.0335703199999999
 12.7301499400000004 20.8259984299999985  8.5643425400000002
 14.7401561799999996  1.5717164800000001 12.4581178799999996
 14.8509566799999995  3.7078123900000000 14.9424379500000004
 14.7549493100000007  6.4006888499999999 16.7251288400000000
 14.5730634000000006  8.4207028099999999 18.7864556699999987
 14.7350006600000007 10.7555354399999992 -0.4388131300000000
 14.7164989899999998 12.5610088399999995  1.9688346400000001
 14.4028866600000001 14.6916997400000007  4.4491367400000001
 14.4463254400000007 16.6975135700000017  6.3131085699999998
 14.7152917500000004 18.5845777100000014  8.5998584900000008
 14.8240985500000004 20.6870537399999996 10.3901202300000008
 16.8249755400000005  2.0319585700000000 14.7551770900000001
 16.8008589300000004  4.2168163099999996 17.1440677000000008
 16.5998534699999993  6.4107162700000000 18.7503445800000001
 16.9144856200000007  8.6764828000000005 -0.1029651300000000
 16.5912396199999996 10.6371816500000005  1.9853498700000001
 16.8869442800000016 12.9294701300000003  3.9360186399999999
 16.4187120200000010 14.7178988099999994  6.2965005999999999
 16.4755074800000010 16.6573914000000016  8.3126678199999997
 16.8084200499999987 18.9484383899999997 10.5310880600000001
 16.7537377899999989 21.0154113100000011 12.8782468500000000
 18.7838956300000000  1.9583888599999999 16.7997035900000000
 18.9266411499999982  4.2208524299999999 18.7314700000000016
 18.8340861000000004  6.6950629700000004 -0.2112710300000000
 18.8234880199999992  8.4490744699999993  2.1063333300000000
 18.9957246700000013 10.7612288300000003  3.8680426600000000
 19.1624039500000016 13.0427946099999996  6.0104170899999998
 18.7894134699999995 14.9763587099999995  8.4232270800000002
 18.8233527900000013 16.3590523499999989 10.5327067299999992
 19.0444990899999986 18.7829020299999989 12.5089371200000006
 19.0314259499999991 21.0587559800000008 14.7358595900000005
 20.9497040699999992  2.1343428499999999 18.9182347700000015
 20.7017228399999986  3.9997664400000001 20.9147161699999984
 20.9440961899999998  6.2147299699999996  1.9550259400000001
 20.6552784699999989  8.2932750500000001  4.0781347700000001
 21.1052753399999986 10.8624711900000008  5.9048258999999996
 21.1487260299999988 12.7828656899999995  8.3505328999999993
 21.0903485099999983 14.8443294899999998 10.7238931500000003
 21.1736731599999999 16.6178490399999994 12.5604637700000001
 20.9196009700000012 18.8874735399999985 14.5760602800000001
 21.0418302399999995 21.2220014699999986 16.7975760299999983
  4.2851467400000001  4.0940875999999999  0.2094118800000000
  4.4157992600000000  6.1446209899999999  1.8630290100000000
  4.4056031200000003  8.2543574500000005  4.2990205399999999
  4.1721043699999996 10.7187848100000007  5.8773675100000000
  4.4640698900000002 12.5396365900000006  8.7147206700000002
  4.1776443399999996 14.9487498399999996 10.6449571200000008
  4.4326594100000003 17.1900059799999987 12.4807070499999995
  4.3889297300000001 18.9360914600000001 14.8281998500000007
  4.1483702100000004  0.1872311200000000 16.8726563499999997
  4.1010888100000003  2.2785899399999998 19.1258843100000000
  6.3575932100000001  3.6784731900000001  2.1605428700000000
  6.1954431699999999  6.0567849400000000  4.2793251500000000
  5.9402807500000003  8.6153207300000005  6.3477262300000001
  5.7734174800000000 10.5421564300000004  8.3510036900000006
  6.3905323500000000 12.4744793600000001 10.5984522299999995
  6.5202637299999999 14.8343365299999999 12.4674037099999993
  6.2931478800000002 16.9456594799999998 14.5166687200000002
  6.3944207300000002 18.9607800500000003 16.6120296200000013
  6.4671262399999998 -0.0923059300000000 18.7542102499999999
  6.3457611500000004  1.9232138100000000 21.1838335800000017
  8.3140208100000006  4.1851460899999999  4.6637540599999996
  8.3253741300000002  6.2825258699999997  6.2991436399999996
  8.5898062900000003  8.5288940400000008  8.3917441799999999
  8.5810886600000007 10.3089891199999997 10.3400381800000005
  8.2004181599999999 12.3359281999999997 12.7312914300000006
  8.3818157800000002 14.4317460499999992 14.8276617900000005
  8.3960065299999993 16.8065787799999988 16.4776710900000012
  8.6560300300000002 19.0071100299999998 18.9215662800000004
  8.1924899100000008  0.0480795800000000  0.1946826500000000
  8.5099907199999993  2.0714193700000001  2.4245357200000002
 10.4803839700000001  3.9831638800000002  6.5163859100000003
 10.3640927800000000  6.3856916000000004  8.5566855999999998
 10.8329121900000001  8.1101031799999994 10.6782209399999992
 10.5879603000000007 10.1738536899999996 12.7742842799999998
 10.7737171299999996 12.5963141499999995 14.9060352100000006
 10.1523583300000002 14.8974988199999991 16.7508519500000013
 10.4561766800000004 16.6115101100000011 19.0740510000000008
 10.2340319599999994 18.7534630600000014 -0.1737481000000000
 10.3216595600000005  0.2230593400000000  1.8983538700000000
 10.0781957799999997  2.1513587400000000  4.3660173000000002
 12.9685408199999994  4.2016019499999997  8.2539431099999998
 13.0594955200000005  6.2078013800000003 10.4417953899999993
 13.1588050899999995  8.2325257900000004 12.8222330600000003
 12.8950394999999993 10.3817876499999997 14.2069956400000006
 12.4970372399999992 12.6719461300000003 16.4938074499999985
 12.3377619299999992 14.5215654300000008 18.9915579299999990
 12.6607789799999999 16.8356106300000015 -0.1765245300000000
 12.4079734300000002 18.7821525300000012  1.9212689400000000
 12.4844751699999996 -0.0949261800000000  3.9567254500000000
 12.6818712500000004  2.2357033700000000  6.2320294699999996
 14.9252260200000002  4.0720169999999998 10.4012136700000006
 14.9761957900000002  6.0558790000000000 12.6540496000000005
 14.7674431300000002  8.1385293599999997 14.5127646600000002
 14.8076387900000004 10.5780770600000000 16.5532759499999997
 14.6458943200000000 12.7861958999999992 18.5863284700000015
 14.8432856300000005 14.4921318499999998 -0.2607714400000000
 14.5916772100000003 16.7686725199999991  1.9215692600000001
 14.5349741699999999 18.7025067000000007  4.0933202900000003
 14.6883962900000000 -0.0279497700000000  6.1937663599999997
 14.7225153700000000  1.6750592799999999  8.5355007799999996
 16.7333578600000017  3.9290521400000000 12.3113084100000005
 16.6059480000000015  6.0432977799999996 14.7073738400000007
 16.9669856299999999  8.5859578600000006 16.5092802399999989
 16.6785894299999988 10.6641609299999995 18.7396975599999998
 16.8566016300000001 12.6894161699999994 -0.0059161200000000
 16.5282033099999985 14.9868147900000004  2.1462002600000001
 16.7950151800000000 16.8573220699999986  3.8407041700000000
 16.7746834199999988 18.9040853099999993  6.3591104100000004
 17.0263275900000011 -0.2226564100000000  7.9480180100000002
 16.8800665300000006  1.8156085500000001 10.2610625399999993
 18.7072325900000003  4.2896693900000002 14.7408796399999993
 18.9073102400000010  6.3226034400000000 16.7773217400000014
 18.9560256900000006  8.6112213000000004 18.6785501700000012
 18.8936455300000006 10.4706043599999994 -0.0112300400000000
 19.0291720499999997 12.7021108300000005  1.8086535900000000
 18.9067902200000013 14.8159163700000001  3.9567515100000001
 18.6905794900000011 16.8008244699999985  6.1656767300000004
 19.0454323300000006 18.8458198900000014  8.3761809199999995
 18.8618546000000009 -0.0832440300000000 10.7102030900000003
 18.6527480099999998  1.8545999600000000 12.8479961899999999
 -0.0194962400000000  4.1990444399999998 16.8779943099999983
  0.0323967500000000  6.4404588699999996 18.7045778300000016
  0.4440042500000000  8.4169633499999996  0.0805871200000000
 -0.0464555200000000 10.7451096699999997  2.0818160300000002
  0.3837317200000000 13.0768512399999999  4.0783132999999996
 -0.1118928800000000 14.8411393500000006  6.3235586000000001
 -0.2507082000000000 16.9039245600000001  8.4031064999999998
 -0.1145539100000000 19.0739096299999993 10.7167619199999997
 -0.2438199200000000 -0.1228854300000000 13.0991885299999993
 -0.2047252100000000  2.6028354500000002 14.4973173299999996
  2.2786413099999998  4.0071163500000004 18.6405592200000001
  1.8492675400000000  6.0274015299999997 21.0544087100000006
  2.5138636900000000  8.2098558799999992  2.2203148000000001
  2.1479963899999999 10.4603883000000000  3.7565401899999999
  2.1958347800000002 12.9055711899999999  6.3148833199999999
  1.7638202900000000 14.9391053199999995  8.7047578399999992
  2.1825236299999999 17.0861502799999982 10.3820203000000006
  2.2141568700000001 18.6758298899999993 12.5060395300000007
  2.1100786600000001  0.1829840900000000 14.6651449599999992
  2.0000551099999999  2.0719041300000001 16.4461388399999997
  6.1705103699999997  6.2067350200000000  0.1476340700000000
  6.3381080100000000  8.8621795100000007  2.1178455299999999
  6.1215685600000000 10.5652293499999992  4.1678970399999997
  6.3924126000000001 12.6661270800000008  6.3581941300000002
  6.5348794000000003 14.8159115900000007  8.5724088100000007
  6.4437721500000000 17.2838843199999985 10.5112573600000001
  6.6417638800000001 19.2920972199999987 12.6080570499999993
  6.5167973799999999  0.1256810800000000 14.8227137700000000
  6.4299276599999997  2.2285353699999999 16.7995279199999992
  6.3937625400000000  4.3360956100000001 19.0723404899999984
  8.1544141799999998  6.3475569099999998  2.4213880200000002
  8.3450489500000007  8.1213289000000000  4.4475686899999998
  8.2819193700000007 10.4481408099999999  6.4769367200000003
  8.1569473499999994 12.5665921300000001  8.6534271999999994
  8.2759465900000002 14.9337894599999998 10.9863483800000008
  8.3381901299999992 16.8191657499999998 12.7015765199999997
  8.3916432099999998 19.1261038200000009 14.6611759799999994
  8.3831924000000004  0.1074490600000000 16.7831704899999998
  8.4010020200000000  2.1635549200000002 18.5013482399999987
  8.0915510499999996  4.2076700899999997 21.2375544800000000
 10.5283041500000003  6.3485431500000002  4.3757163099999996
 10.5393997699999993  8.5058462800000001  6.1678291900000000
 10.5922030300000003 10.4752373700000003  8.3568038399999995
 10.3032041999999997 12.4862834800000009 10.5600456000000005
 10.4286906500000001 14.4107474300000007 12.6834478799999992
 10.6124907400000001 16.9010619800000015 14.6770582300000001
 10.4658129899999999 19.0207428299999997 17.1040386099999999
 10.4357530700000005  0.0160376500000000 19.2348587000000002
 10.1640662200000005  2.3808970800000000  0.2264957300000000
 10.3484559899999997  4.4864993300000000  2.2231823199999998
 12.7747131500000002  6.3398269899999997  6.6762759999999997
 12.3463895000000008  8.3333962199999991  8.6119620500000007
 12.5860019500000000 10.3065967199999999 10.6057426199999991
 12.6943284500000004 12.3879074100000004 12.2804309800000002
 12.6012252300000007 14.4695475099999999 14.5049370999999994
 12.5083384500000001 16.8498772800000012 16.7576187400000016
 12.6866358399999992 18.7607755599999990 19.1581478199999999
 12.2308065500000005  0.1060445200000000  0.2166741400000000
 12.2281248700000003  2.2266429400000001  2.2989261800000000
 12.3705172799999996  4.2486191599999996  4.2918669200000004
 14.8677680999999993  6.4041099800000003  8.4023014099999997
 15.2023707100000003  8.3765962599999995 10.4411561699999993
 14.9597992400000006 10.4708884199999996 12.4502825999999995
 14.6695992099999994 12.4317129200000007 14.3991566500000001
 14.8008389000000005 14.4541047500000008 16.4728183600000015
 14.7852942499999997 16.5427400800000015 18.8034158200000014
 14.6528064300000000 18.9131866799999990 -0.1027324300000000
 14.7124040600000008 -0.2820995100000000  1.8942700699999999
 14.7251949000000000  1.9400786500000000  3.9437609299999998
 14.4517115999999994  4.1269344600000002  6.1513052999999998
 17.0483811799999998  6.3772388299999996 10.2795841400000008
 16.9868488699999993  8.4188359399999992 12.6066649000000002
 16.8732236700000016 10.6691853699999992 14.2998961300000005
 17.0711112199999988 12.3542103399999998 16.7261637299999997
 16.7981461699999990 14.6359568099999997 18.9613610000000001
 16.8775449799999997 16.7943015699999982 -0.1556913900000000
 16.8636995100000000 19.0061573300000006  1.5892531999999999
 16.5480091499999986 -0.3426223900000000  4.1626997799999996
 16.8495845899999992  2.0195971300000002  6.3060549699999999
 16.5095878999999996  4.2332993400000003  8.0463415900000008
 19.0908490600000000  6.0577280299999998 12.2800551999999996
 18.7706344200000004  8.0816055099999993 14.3460203199999992
 19.1728257000000006 10.3374857299999992 16.7821074900000013
 18.9553735500000009 12.2891990399999997 18.8346796000000012
 19.0537088399999988 14.7916633599999994  0.0619627300000000
 18.9586197699999985 16.9361615500000013  1.9885884100000000
 18.8468996500000010 18.8134825499999998  4.0559134700000001
 19.1921378699999998 -0.0513750300000000  6.1628840499999997
 18.9693650699999985  2.0613427500000001  8.1945177200000003
 18.8991218699999983  3.9314205499999999 10.3360219900000008
  0.0529342400000000  6.1645216800000000 14.4415117199999994
 -0.2063762200000000  8.4291786399999999 16.6435377399999993
  0.0195331900000000 10.2143561199999997 19.1127150199999996
  0.0629431300000000 12.5766684400000006  0.1041918300000000
  0.1450756800000000 14.4562009800000002  2.0772467400000001
  0.1670559600000000 16.5985555600000012  4.1023920299999999
 -0.1048450500000000 19.0236002299999996  5.9416811100000002
 -0.2031404400000000  0.0864801000000000  8.1734807200000006
 -0.2769618800000000  1.7401774800000001 10.9707147799999998
 -0.2545519500000000  4.0409831699999996 12.2931848800000001
  2.0236364099999999  6.3069300899999998 16.5702296400000009
  2.3504028500000000  8.2430452899999995 18.7836657699999989
  2.2075064400000000 10.3868579899999993  0.4002725400000000
  2.2670087500000000 12.8448008500000004  2.2149698899999999
  2.4051373300000001 14.8177512000000000  4.3002230299999997
  2.2297267500000002 16.8783686899999985  6.7467013600000003
  1.7768561800000000 18.8756230299999999  8.6536786499999998
  2.0504139600000002  0.1094355900000000 10.4459649399999996
  1.9210810800000000  1.9125597000000001 12.4723055800000004
  1.9472187800000000  4.2276874400000004 14.6452480900000008
  4.2673563400000001  6.0576111499999996 18.9628575300000008
  4.0575605000000001  8.3180242300000007 21.1746385400000001
  4.3772279500000000 10.6269642799999993  2.2666582900000001
  4.2217642700000004 13.0774294399999995  4.1202683999999996
  4.4024615200000001 14.8736225799999993  6.8330016200000001
  4.2642208600000000 17.1152775400000010  8.7287310300000005
  4.3459814600000000 19.1886958499999984 10.4348483999999999
  4.3244403199999999 -0.0840598600000000 12.6279930300000007
  4.2019408800000004  2.2143190499999998 14.7980218299999997
  4.2511684000000001  4.1317731999999996 16.7203107300000013
  8.5553685399999999  8.3618696499999992  0.2393256800000000
  8.4635828100000001 10.3287662200000003  2.1279067999999999
  8.2612851099999993 12.3404152200000006  3.9773470500000001
  8.2980787399999993 14.6464998000000008  6.5440758800000003
  8.2195353999999998 16.7191070000000011  8.5542653299999998
  8.5403268699999995 18.9924296999999989 10.3006978799999995
  8.5216492400000003  0.3918429400000000 12.5042825700000009
  8.4076225900000008  2.2740281400000000 14.7440804500000002
  8.6230297399999998  4.3706829300000001 16.8907169300000000
  8.5664218999999999  6.2874537500000001 18.9442973099999996
 10.4629820900000006  8.2038241700000007  1.8838085099999999
 10.6482082100000000 10.2541917500000004  4.1090677900000001
 10.1706818600000002 12.7937216500000002  6.4517125200000001
 10.2101900400000005 14.7289666900000000  8.5962339100000005
 10.3832311500000003 17.1259414700000008 10.6855402799999997
 10.2793315700000001 19.3172863899999996 12.6083933300000002
 10.5356291300000002  0.1911453400000000 15.1066275399999999
 10.8186469200000008  2.0130345500000000 16.8166141700000011
 10.8559106700000001  4.2780477000000001 18.9266811299999986
 10.4600991000000008  6.3163197000000002 20.7979872899999982
 13.1175975299999994  8.5432810400000001  4.1782229099999997
 12.5261871300000003 10.4674365700000003  6.3842945599999998
 12.1545986999999993 12.8604147900000001  8.3820569500000008
 12.6113498300000000 14.9514051000000006 10.7307089100000006
 12.3639999399999994 16.8144319499999995 12.8591250299999995
 12.5989556599999997 19.1585487400000005 14.9469132299999998
 12.4159895200000001  0.0013623300000000 17.1148245900000013
 12.6020448500000004  2.1071972200000002 19.0622466499999987
 12.7304853799999993  4.2402495000000000  0.2057028500000000
 12.3632155400000006  6.5384982200000001  1.9874115100000000
 14.6495101999999999  8.7735543200000006  6.4795375899999996
 14.6739696899999998 10.4119501099999994  8.4956726099999997
 14.6550556099999998 13.0147545800000000 10.6960423200000001
 14.7344965699999992 14.9926959699999998 12.9172982199999993
 14.5689235499999992 17.0014692899999993 14.8986828700000000
 14.4797193100000001 18.9508414300000005 17.0722710800000002
 14.3411988000000008  0.0339612600000000 19.1650814800000013
 14.5144827000000003  2.1551445899999999  0.2879271200000000
 14.6920804000000000  4.3086772399999997  2.2887754400000002
 14.4770882299999997  6.4696242499999999  4.2562468700000000
 16.8432718900000005  8.7343355000000003  8.3791363200000006
 17.0270466700000007 10.7501107900000008 10.6145583099999996
 17.1828490800000004 13.1528985200000008 12.4311347300000001
 16.6910904900000006 15.0199128399999999 14.7812403600000000
 17.1346174600000012 17.1866317600000009 16.9547978099999987
 16.7738602000000014 19.1529171799999993 19.0901095400000003
 16.9381294500000017  0.3053919700000000  0.2866867200000000
 16.8754109300000010  2.2307058799999999  2.3444346000000000
 17.0036826099999985  4.4312233599999997  4.2226326900000002
 16.5964506699999994  6.5361828199999996  6.3735773499999997
 18.8669115100000013  8.9136207899999995 10.5402611600000000
 18.9230817000000009 10.6894775400000004 12.5304304000000002
 18.9862515099999989 12.6686879599999997 14.6676187900000006
 19.0044445700000004 14.8028224799999997 17.0515895200000003
 19.0717592399999987 16.4824142299999998 19.2030311800000000
 18.9723873500000018 18.8036714799999984 -0.0890135600000000
 18.8838878500000007  0.3070510100000000  2.3230149800000000
 18.7303117400000012  2.1628261300000000  4.5026824300000001
 18.6820107700000015  4.2517212600000001  6.5161093200000000
 18.6288063599999987  6.3705172799999996  8.5509664300000008
  0.2043689700000000  8.2411611100000002 12.8270221400000004
 -0.0656883700000000 10.4523596300000001 14.7921756099999993
  0.2346273900000000 12.5757590799999992 16.7462114200000016
  0.3637155200000000 14.5216428400000002 18.9356829500000003
 -0.0255957300000000 16.4622663299999985 -0.1348767900000000
  0.1612812200000000 18.7241513200000007  2.1450083100000001
  0.0366798300000000 -0.1284283600000000  4.1726498999999997
  0.3339339400000000  2.2571856299999999  5.9923217900000001
  0.0695359100000000  3.9233792200000002  8.4067007999999994
 -0.2875419200000000  6.5146014200000000 10.1941062799999997
  2.4069622499999999  8.5563892599999996 14.8238966800000007
  1.9911117899999999 10.5315248300000004 16.8959825200000004
  2.2131351300000000 12.3648225200000006 19.2682001099999987
  2.5083009500000002 14.6562827700000007  0.1163913400000000
  2.2923451199999998 16.8429801300000008  1.9548354500000000
  2.2673687000000000 19.0119367200000013  4.1841489100000002
  2.0684846299999999 -0.1471242100000000  6.6854966600000001
  1.7063003800000001  1.9905297600000000  8.5697843999999996
  1.5989731100000000  4.0366756600000002 10.6055642300000006
  2.0365700400000000  6.1587640199999996 12.6421512899999993
  4.0717440800000002  8.0678534299999995 16.8217388899999989
  4.2390810500000002 10.4760295200000009 18.8816468499999992
  4.6161880599999998 12.2624002799999996  0.1078970900000000
  4.4535298100000000 14.6258347099999995  2.1038745599999999
  4.1478281299999997 16.6284792199999991  4.2003381700000002
  4.1189315300000002 18.8682106000000012  6.4223649399999996
  4.1871179400000003  0.0174880900000000  8.3189337400000003