Li                                      
   1.00000000000000     
    21.2169999999999987    0.0000000000000006    0.0000000000000000
     0.0000000000000006   21.2169999999999987    0.0000000000000000
    -0.0000000000000006   -0.0000000000000006   21.2169999999999987
   Li
   500
Direct
  0.0115855003063601  0.0307458509685645  0.0128465819861461
  0.0209893410944062  0.0912449252957543  0.1022030131498326
  0.9987653381722197  0.1973277913936968  0.1842922317009936
  0.9889412942451798  0.3012833911486084  0.2992155766602238
  0.9984705655841992  0.3932078771739640  0.4078695795824103
  0.0184254343215358  0.4755638761370591  0.4951376910024976
  0.9904189319885006  0.5807793943535842  0.6015990870528327
  0.9859875632747332  0.6749575661026554  0.7287381345147779
  0.9898312829334941  0.7910245256162511  0.7921297652825530
  0.9947479040392153  0.9169785733138553  0.9188012881180185
  0.1141940995428214  0.0022165989536660  0.1075030706508926
  0.1061248989018253  0.1192068237733892  0.2087334995522454
  0.1030224371965858  0.2071114342272722  0.3164081100061296
  0.0981716397228638  0.2969592345760503  0.3828603280388378
  0.1096066993448659  0.3730292449450943  0.4810283291700017
  0.1054253702219938  0.4656351496441502  0.6063905966913339
  0.0862664377621698  0.5877167700428885  0.6930191761323456
  0.0988456280341268  0.6948945449403752  0.8050208464910185
  0.0980132450393540  0.7920868176462292  0.9225074327190441
  0.0978718230664057  0.9016788806146039  0.0152937121176393
  0.2139546137531241  0.0249646712541818  0.2132965730310588
  0.2021177673563628  0.1309289932601203  0.3248569665833969
  0.2359778093038614  0.2085882009709223  0.4068168077485055
  0.1871686897299369  0.3134197912051633  0.4774132393835160
  0.1993532855728901  0.3883795508318784  0.6156699151623712
  0.2128845680350651  0.4840313163972283  0.7204672592732209
  0.2042688575199136  0.5981638327756045  0.8071791049629979
  0.1986483673469408  0.6823535759061130  0.9005122764764124
  0.2036458094923859  0.7947321633595692  0.0253819658764201
  0.1997789871329587  0.8792857821558187  0.1220703044728282
  0.3028193330819633  0.0048106523071141  0.3171641956921363
  0.3091807588254696  0.1279554413913360  0.3995472093132832
  0.3427368204741512  0.1879715157656605  0.5201778045906593
  0.3134581199038493  0.3030850732902834  0.5818378229721475
  0.3112477065560668  0.3893769731818821  0.7127310713107420
  0.2906745430550970  0.4994090502898629  0.7893627515671398
  0.2993500603289831  0.6148253150775318  0.8740549672432465
  0.2812750549087966  0.6908279935900481  0.0081090092850076
  0.3157247989819467  0.7793204289013502  0.1351363713060252
  0.2867512560682499  0.9102028331055294  0.2256888118018594
  0.3861726596597066  0.0069277136258634  0.4000935528114269
  0.3872901654333774  0.0916154743837509  0.5145776184191888
  0.4093162987227217  0.1795926276099351  0.6058011717019340
  0.4121412786916139  0.2972468916434963  0.6940485162841128
  0.4103595461186771  0.4041444770702753  0.8036819776594228
  0.3976262728001103  0.4867092289202049  0.8949028001131154
  0.3962388174577001  0.6086192133666373  0.9753120799359039
  0.4083760809728076  0.6849598322100192  0.0894141928642114
  0.3904487745675667  0.8167678691615237  0.2162285671866897
  0.3916446792666264  0.9184886473111149  0.3050403153131924
  0.5029120940755050  0.9907207781495941  0.5094466281755174
  0.5206188579912308  0.1107840967149016  0.6099897893198829
  0.5037593524060924  0.1878437008059564  0.7128047245133615
  0.4954533864354076  0.3039177649997669  0.8098635264174945
  0.5297108248102944  0.4155559061130205  0.8999633755950427
  0.5213506721025567  0.5220691426686130  0.9802527859735122
  0.4905673997266362  0.6143379997172076  0.0780552519206310
  0.4687494047226295  0.7024696908139703  0.2090908229250132
  0.4826585294810783  0.8099586619220460  0.3045599274166975
  0.5046933209219020  0.8946319187444018  0.3834082448036966
  0.6103598449356653  0.0061863628222625  0.5921190616015437
  0.5871210972333500  0.0950264123108795  0.7094041089692240
  0.5843715586557963  0.1905588433803089  0.8043121610029687
  0.5818259730404876  0.2826867002875062  0.9011921544044839
  0.6126911886694657  0.4046720130084367  0.0043331173115888
  0.5883319342979689  0.5262123726257215  0.0828783664043016
  0.5999414431823524  0.6125855658198631  0.2018329330254076
  0.5868841344205151  0.6987329287835209  0.2949538148654369
  0.5937127378988549  0.7776443941179210  0.3979879822783587
  0.6055078215581844  0.8935879332610668  0.5020700952066761
  0.7031128109534777  0.9794702380166882  0.7104792769948602
  0.7185001286704065  0.1076045510675385  0.8023832191167486
  0.6875091794315864  0.1884074836216243  0.8984878107178176
  0.6926981425272203  0.2891462421642998  0.0104319701183044
  0.7209790375642200  0.4216078837724453  0.1248735810906325
  0.7111169269925028  0.5118438110948773  0.1954827567516588
  0.6990657972380632  0.6283698312673778  0.3073746505160955
  0.6776344860253545  0.6961558750058927  0.3973621619456082
  0.7083169807230050  0.8124663727199888  0.5125805132676646
  0.7090165928265080  0.9207458646368494  0.5667052509779893
  0.7909649073855860  0.9754904835744895  0.8125904260734345
  0.7897685841542170  0.0911172017721640  0.9192612951878232
  0.7857103233256382  0.2077917467125445  0.0070000956779950
  0.8032058321157578  0.2991085671866927  0.0898024272988636
  0.8045310972333510  0.3994069090823373  0.2002905768958883
  0.7853340151765096  0.5177637964839548  0.2903599802045562
  0.7892155611066585  0.5910201498798102  0.3959452457934702
  0.7867176891172178  0.6649973983126714  0.5080088028467742
  0.8108545322147336  0.8053971725503146  0.5598929273695603
  0.8130060677758379  0.8982254998350356  0.6940393377951608
  0.9016128477164571  0.0044415237781052  0.8922989319884991
  0.9136394928595024  0.0986953164914937  0.9977192854786239
  0.9257229250129626  0.1922814186737085  0.1113349234104746
  0.9094018178818857  0.3046802813781397  0.1644890229532905
  0.8883296253004644  0.4029962765706756  0.3063394089645115
  0.9065641598717988  0.4906394999293013  0.3987247513786087
  0.9186088513927544  0.5852421101003884  0.4869922307583536
  0.9039673728613877  0.6792890846962365  0.5950921006739875
  0.8975875943818608  0.7842849050289828  0.6962834147146140
  0.9074103157845101  0.9077573271433295  0.8146965230711203
  0.1164744525616257  0.1350898930103241  0.9733985030871466
  0.1193611806570232  0.2187772545600239  0.0749038030824352
  0.0976349285949922  0.3077047989819519  0.2088400513738975
  0.0974828265070471  0.3992771489843037  0.3074422557383230
  0.1145162652589917  0.4831204708488457  0.3722193524060913
  0.1062547617476568  0.5661910548145386  0.5146712306169547
  0.0860132719046049  0.6799323066409002  0.5960766437290843
  0.0686180058443711  0.7701847056605544  0.6685136998633183
  0.0855178564358781  0.8735351520007555  0.7869474308337630
  0.1142808563887456  0.0057330023094693  0.8824283451948887
  0.2224308328227380  0.1219504435122758  0.1059124678323968
  0.2142221610029722  0.2306571998868847  0.1960341443182330
  0.2141671348447005  0.2882989909035203  0.2997435184050516
  0.1889225347598611  0.3753287872932063  0.3891100000000023
  0.2097504769760121  0.4935653607955857  0.4993172701135862
  0.1901478182589429  0.5863687109393396  0.6349163477400168
  0.1692183753593781  0.7195819069614018  0.7082063241740144
  0.1874490432200560  0.7960054852241143  0.8132512169486716
  0.1705629151152408  0.9000875232125196  0.9108887302634656
  0.2162249328368731  0.9823059433473134  0.9961049865673743
  0.3080320591978136  0.1105450516095559  0.2157656666823797
  0.3014224211717007  0.2354647937974264  0.3097794650516121
  0.3134131130697071  0.2989013446764375  0.3958923716830824
  0.3057128034123551  0.4006655940990740  0.5135166654098100
  0.2964250351133515  0.4641266248762790  0.5998337465240127
  0.2942065291982843  0.6039044883819571  0.6930207828627957
  0.2944795616722473  0.7149688664749974  0.7932299481547815
  0.2870067210255911  0.7908264971485153  0.9140808992788791
  0.3032631686854899  0.8905040528821218  0.0236390616015427
  0.2766277409624323  0.0092310279492835  0.1039085907526953
  0.4016943187066957  0.1204010684828205  0.2994942230287023
  0.4033419672903804  0.2130506188433827  0.3960718810387931
  0.4247064387048098  0.2986211651034552  0.5032169679973606
  0.4135718056275621  0.3900757972380617  0.6085207762643137
  0.4068064047697604  0.5004621261252780  0.7161730956308645
  0.3982687066974577  0.5923043394447873  0.7894375500777642
  0.3897792100673954  0.7088460060328998  0.8924233383607501
  0.4039277942216160  0.7982875142574315  0.0107429424518060
  0.3891285040297845  0.9160589800631556  0.1144602596974096
  0.3869976886458986  0.0142143922326454  0.2113923052269371
  0.5034069368902294  0.0844078126031036  0.3978812838761385
  0.5122918013856790  0.1784016152142129  0.5135986510816792
  0.5189186270443500  0.2758467257387949  0.6382039322241582
  0.5175246839798291  0.4155107795635544  0.7083821020879455
  0.5139480562756304  0.5117925314606211  0.7989311636894953
  0.5049107362020990  0.6275129584766930  0.9042795781684489
  0.5212611231559592  0.7200431224961150  0.9940751350332278
  0.4794898675590318  0.8234519126172444  0.1165453226186557
  0.4970985634161309  0.9207993203563163  0.2060050511382414
  0.5220395324503926  0.9919834085874513  0.2960888768440384
  0.6256824320120629  0.1091323457604716  0.5054279408021856
  0.5913323306782274  0.2115924296554681  0.6130742366969884
  0.6114811127869189  0.2955903534901267  0.7144035876891195
  0.6122652999952862  0.3830501263138046  0.8036197398312694
  0.6112388792006413  0.5134847754159395  0.8911053669227513
  0.5989922939152592  0.6213983956261515  0.9964845284441708
  0.5819113748409279  0.7006070292689799  0.1116049460338431
  0.5904695630862022  0.7986426992505997  0.2266011476646099
  0.6072290993071618  0.9023535278314583  0.2932017184333304
  0.6067663863882728  0.0037440858745370  0.4066530758354148
  0.7185306353395831  0.1058051444596302  0.6202024998821685
  0.6815003662157721  0.1874236527312974  0.6880143347315837
  0.7055843625394758  0.3009143691379563  0.8115349761983310
  0.6880526516472614  0.3992164245652106  0.9071315148230212
  0.7028891228731666  0.5029768119903864  0.9875405896215312
  0.6918977734835252  0.6065571485129837  0.0892640420417621
  0.7034732709619647  0.7173256831785864  0.2011562859970795
  0.6858265277843216  0.7865602700664596  0.2852354036857250
  0.6855741810812077  0.8880488297120266  0.4023739204411569
  0.7064995894801314  0.0077823943064530  0.4828324979968883
  0.7986885257105172  0.0947142824150475  0.6960244732997154
  0.7790975029457528  0.2015536286939721  0.8047556303907228
  0.7868349040863478  0.3018059900080132  0.9010505731253247
  0.7950645095913629  0.4137240274308311  0.9976458750058939
  0.8127487439317562  0.5165456897770682  0.0980572729415101
  0.7974126719140315  0.6079880732431562  0.1761296399113945
  0.8071986972710548  0.7236097299335427  0.2877135537540667
  0.8043049799688902  0.7976897341754281  0.4017815440448729
  0.8223887684404048  0.9238886411839573  0.4860214351699099
  0.7837628783522632  0.0318738992317478  0.6040496224725445
  0.8673200080124417  0.0961064957345528  0.7904543780930382
  0.8810266328887195  0.1698506037611338  0.8809038549276522
  0.8775574218786844  0.2928492284488868  0.9823395008719444
  0.8963613182825085  0.3877029358533264  0.1041379686100754
  0.8987007531696278  0.5247954027430808  0.1905323146533462
  0.9197281170759268  0.6079668129330287  0.2755262563039054
  0.9102436154970093  0.6971724753735202  0.3821414210303047
  0.9032276952443823  0.7925719460809759  0.4735742663901590
  0.8837472102559261  0.9028756068247148  0.5709671843333197
  0.9054815204788582  0.9894364910213511  0.6929154569449025
  0.0015694848470531  0.1032760541075533  0.9013987175378233
  0.9943645680350670  0.2092149168119875  0.9820821878682153
  0.9955762643163482  0.2893745312720952  0.0888709162464068
  0.9890998081726892  0.4070266842626182  0.1974420059386333
  0.9916151821652477  0.4918287901211258  0.2910819163878031
  0.0028876023943099  0.6053416180421394  0.4061096271857494
  0.0053159702125640  0.6950577961068944  0.4942011080737174
  0.9785078762313262  0.7818751355045492  0.5762613178111877
  0.9949721237686759  0.9014755073761620  0.6742975792996191
  0.9935983263420809  0.9845855493236542  0.7890131554885258
  0.2209345977282382  0.2361282259508855  0.9741930909176588
  0.2073693778573755  0.3078834307395013  0.0872473332704899
  0.1992517410566990  0.3769127501531813  0.2132864273931290
  0.2197624541641119  0.4970660677758403  0.2700521671301317
  0.1938828076542407  0.5512465918838672  0.3759231917801742
  0.2030952292972614  0.6743349389640372  0.5146387340340297
  0.1970183673469421  0.7845412141207504  0.5859532978272171
  0.1814997478437093  0.8712560310128694  0.7079504750907262
  0.1751821327237622  0.0039015110524545  0.7858192619126143
  0.1910388169863779  0.1101704439835984  0.8755425578545513
  0.3168469849648901  0.2314285817976156  0.0749315223641389
  0.3123293198849950  0.3077627756044663  0.1877472785973495
  0.3136828990903524  0.3796410303058835  0.2886191115614807
  0.2942742211434251  0.4698183475514952  0.4242660673045222
  0.2873071395579032  0.5655094490267203  0.5415113710703707
  0.2909317382287782  0.7035040198897136  0.6020832987698554
  0.3220463053212015  0.8021019097893216  0.7067719258142091
  0.2909929320827658  0.9082280920959604  0.8158719696469845
  0.2924830150351099  0.9884811278691643  0.9176330329452824
  0.3194482146392019  0.1039535264174987  0.9825435787340311
  0.4087493236555559  0.2015861177357792  0.2126798911250418
  0.4356817075929698  0.3093216029598906  0.2878370278550193
  0.4169954545883030  0.3682207390300221  0.3909135650657518
  0.4150588028467723  0.4713920125371160  0.5197562751567162
  0.4036836367064112  0.5979985610595264  0.6116077494462004
  0.4059702139793586  0.6976274445020536  0.6942798213696548
  0.3977711358816052  0.8057753848329199  0.8328513743696107
  0.4102368661922071  0.8882764504878153  0.9141703746995304
  0.4036795131262636  0.0015484262619623  0.0077605283499054
  0.3841442239713402  0.1062906664467178  0.0977734170712168
  0.4939501951265513  0.1964706141301775  0.2954979733232790
  0.5108464405900932  0.2985469463166339  0.4046358933873790
  0.5220013559881238  0.3716831927228199  0.5075613027289450
  0.5248178719894412  0.5096988099165785  0.6081727006645608
  0.5102416760145161  0.5961777579299650  0.7144712004524649
  0.4831935207616525  0.7194282141678841  0.7990199377857365
  0.5070138455012483  0.8093817349295378  0.9284398241975751
  0.4992941480887936  0.8937905509732786  0.0209562223688522
  0.4718086840740909  0.0022279096950584  0.0793300282792089
  0.4904894264033572  0.1255861620398733  0.2076445015789190
  0.5854059678559622  0.2028321586463662  0.4088199754913546
  0.6002346905783114  0.2921159819955719  0.5205802149219991
  0.6081694212188324  0.3837970316255834  0.6184374661827761
  0.6114931404062744  0.5072476240750348  0.7191924324833892
  0.6080016849696008  0.6247703214403515  0.7907590691426662
  0.6067526846396731  0.7288906669180406  0.9201064368195304
  0.5926634764575596  0.8269260654192365  0.0242741834378108
  0.6058969354762667  0.9090075976811036  0.1331059056416990
  0.5937481722203870  0.0101452175142569  0.2077476537682017
  0.6130901786303440  0.1086584955460239  0.3012362388650587
  0.7154150068341423  0.1953942173728649  0.4961468449827962
  0.7063462907102789  0.2964912848187780  0.5952547914408228
  0.7190783065466348  0.3847729565914122  0.7056446132818053
  0.7084486675778834  0.5028930588678904  0.8039374379035706
  0.6973281406419360  0.6183399637083440  0.9108436362350929
  0.6942825140217721  0.7225745590799804  0.0247448927746632
  0.7062014535514010  0.7940657425649249  0.1099116632888695
  0.7144972210962877  0.8862173870009897  0.2013955592213819
  0.7209701937125885  0.9891364896073895  0.3026360361973914
  0.7278139411792424  0.1069023561295168  0.3825658113776669
  0.8077094466701240  0.2136019229862853  0.6121201611914984
  0.8044583216288856  0.2960696521657127  0.7034764302210519
  0.8049956572559722  0.3947864679266644  0.7982726299665330
  0.8028379662534775  0.5279293458076069  0.8839468105764254
  0.7869300640995434  0.5996306259131856  0.9927541466748337
  0.8249782132252435  0.7037654885233522  0.1114988612904781
  0.8015904293726734  0.7963855568647773  0.2184933916199299
  0.7966734118866938  0.8923570207852194  0.3084644935664826
  0.8128001654333801  0.0135751175943852  0.3860544044869698
  0.8062304241881506  0.0911235716642338  0.4903144549182272
  0.8945865174152772  0.1763438021397903  0.6768766630532141
  0.8939156374605304  0.2839516835556424  0.8034927459112993
  0.8739400980345948  0.4069619644624609  0.8862274713672988
  0.8789651237215423  0.4968597935617680  0.9854171607673123
  0.8979365970683872  0.5944921577037263  0.0872773356270926
  0.9361527723052276  0.7008038115661961  0.2150734929537634
  0.9256428265070440  0.8137625371164603  0.3314752325965031
  0.9185663354856928  0.8901817212612499  0.3965825917896026
  0.9276306782297183  0.0034553523118248  0.4895324155158605
  0.8823453961446006  0.1078088938115656  0.5835112796342585
  0.9780127393128168  0.1862875712871741  0.7862498237262585
  0.9677565876419862  0.2998598091153326  0.8809474680680580
  0.9758319408964482  0.3980019352406075  0.9941555238723652
  0.0124810486873699  0.4888098680303514  0.0819904713201680
  0.0084155304708489  0.6016093090446333  0.1874772536173808
  0.0293561827779598  0.7200036847810694  0.2908923947777708
  0.0158397049535779  0.7843564900787072  0.4190880812555946
  0.0011933402460258  0.8918770877126860  0.5097293707875750
  0.0237085987651398  0.0244999401423414  0.5944301324409693
  0.0023971989442444  0.0896359768110457  0.6753637861149073
  0.0942439265683177  0.1855105457887518  0.8560962826978340
  0.0967868779752052  0.2782501456379336  0.9694643413300668
  0.0932122086063032  0.3749934995522466  0.1034098142998516
  0.1095480529763861  0.4994271348447015  0.1940574553424170
  0.1127194122637505  0.5983334184851756  0.2775899688928689
  0.1295001522364174  0.6688282113399637  0.4038302667672156
  0.1160670825281613  0.7918775967384661  0.5028680336522626
  0.1040370132440955  0.8973080039590897  0.6010044558608669
  0.0932829646038584  0.0094465211858434  0.6982231649149284
  0.0560763967573195  0.0966736598011053  0.7799234599613527
  0.3291951892350440  0.2984087406325102  0.9719339765282555
  0.3026034783428386  0.4064347791865046  0.0934751915916507
  0.2939482179384427  0.4799092529575333  0.1861456487722108
  0.2850853829476350  0.5779395225526684  0.2990176462270853
  0.2828430164490712  0.6607090908233957  0.4023330569826058
  0.2892573601357427  0.7811315633689944  0.4692561073667321
  0.2770419927416725  0.9031384719800144  0.5964436786539125
  0.2779181566668214  0.9922019338266495  0.7105443106942531
  0.3189033501437493  0.0971519635198206  0.7819670452938681
  0.3182941132111026  0.2030430140924722  0.8822917749917494
  0.4033220243201185  0.2934763991139206  0.0942729608332940
  0.4131994108497921  0.4027834609039900  0.1921019437243743
  0.4002408087854050  0.4839725083659303  0.2956836282226547
  0.4059359296790319  0.5633962817551961  0.4355574581703365
  0.3882818975349949  0.6904771489843071  0.5067334712730371
  0.3828352222274560  0.8204863689494246  0.5736710029693199
  0.3953257581184886  0.8963492322194497  0.6909784616109746
  0.3959698081726941  0.9697784559551295  0.7891930989301059
  0.4063708766555152  0.1005545373992547  0.8930699033793630
  0.4165121968233052  0.1700844327661812  0.0075039275109603
  0.5082701470518955  0.2873888820285586  0.1776156992034714
  0.5022006815289615  0.3945668666635243  0.2891201244285213
  0.5097976848753376  0.4836136371777329  0.4186625380591025
  0.4986951199509804  0.6045168855163325  0.5192919555073772
  0.4952481052929230  0.6988605745392817  0.6121678163736632
  0.4557847650468929  0.8072734646745516  0.7039644624593464
  0.4907493981241444  0.8920939934957843  0.7989068798604890
  0.5025554366781364  0.0140086180892709  0.9124639275109558
  0.4913496224725478  0.0888198340953039  0.0179000608003008
  0.5171114403544337  0.2018008073714483  0.1031323914785318
  0.6036978734034051  0.2982530117358735  0.2897776396285963
  0.5888499853890750  0.3998619178017648  0.3890467120705097
  0.5914493109299173  0.5019885110995901  0.4929795074704231
  0.6152891143894053  0.6229627397841355  0.6273588122731795
  0.5822626342084192  0.7554216703586718  0.6981468628929619
  0.5867664198520046  0.8381387260215831  0.7854898270255006
  0.6051754729697905  0.9056990894094383  0.9104957661309356
  0.5843666489136083  0.0100170174859784  0.9909619399538130
  0.5916581934297938  0.0787644563321876  0.1028009025781245
  0.6009593481642099  0.2059401574209332  0.1792660314841896
  0.7032570344535074  0.3284798463496230  0.4206026064005286
  0.6788119781307458  0.4362312697365311  0.5197807545835857
  0.6985155460244172  0.5036033237498216  0.6101172682283078
  0.7032414544940409  0.6175850322854330  0.7098088947542038
  0.6803185497478452  0.7367280100862530  0.7812947263986416
  0.6906990168261302  0.8156505519159154  0.9194661775934421
  0.6946886487250765  0.9100474388462061  0.0291651732101599
  0.6894775180279993  0.0171820511853724  0.1176855073761587
  0.6924727402554538  0.1059404453975574  0.2108469114389422
  0.6950673700334633  0.2052359348635520  0.3056466489136085
  0.7931020191355955  0.3305340995428168  0.5187540085780284
  0.7976777183390666  0.4075674624122172  0.5993439595607271
  0.7976388363105045  0.5067490281378113  0.6931793274261224
  0.7879181538389020  0.6232247499646490  0.7986992232643644
  0.7927267092425865  0.7240278272140230  0.9119577522741196
  0.8028448032238273  0.8345110444454917  0.0266133114954954
  0.7876694004807447  0.9159075891973387  0.1061047678748182
  0.8000374661827792  0.9802635306593785  0.2274438308903228
  0.7901783343545290  0.1152721888108559  0.3232900805957470
  0.8059569104962989  0.2319662289673374  0.4032066672950947
  0.8889946047980359  0.3005013314794738  0.6309440231889525
  0.8881638143941188  0.4064006094169770  0.7017387764528422
  0.8777101154734410  0.5235842861856028  0.8045335339586188
  0.9111708728849521  0.6119629914691060  0.8968555884432305
  0.9015870000471295  0.6980893236555588  0.0005721727859722
  0.9164125192062968  0.8285823782815669  0.1051671117500135
  0.9024090403921363  0.8941694103784670  0.1965311627468509
  0.9152123311495473  0.9947089051232467  0.3177383635763746
  0.9094164617995020  0.0988680393081012  0.4030396059763390
  0.9010404402130376  0.2015928712824646  0.5127135711929114
  0.9876166941603444  0.3117525658669962  0.7110380845548363
  0.0111377720695671  0.4097705538011951  0.8167095333930305
  0.0075226379789797  0.4984556181363970  0.9082564627421377
  0.9937515294339434  0.5898996799736054  0.9836840712636103
  0.0076651171230608  0.6909058504972450  0.0988779238346638
  0.0230668520526010  0.8027891907432689  0.2038839972663453
  0.0233704298439932  0.8908133958618123  0.2988016505632274
  0.0111585926379760  0.9944919809586636  0.3852084248480026
  0.0019630876184209  0.0948011679313723  0.5139628316915648
  0.9957150016496215  0.1999178356977893  0.6001519663477382
  0.0880418381486550  0.3147234722156753  0.7857494678795334
  0.1042071079794482  0.3751592166658781  0.9061629292548403
  0.1107151223075817  0.4545603959089419  0.0051529763868601
  0.1001038403167271  0.6004442230287026  0.0872949912805794
  0.0952195423481186  0.6889047080171551  0.1880543724371933
  0.1282308078427690  0.7912927449686578  0.3124264858368306
  0.1078601461092532  0.8858925927322403  0.3950786685205259
  0.1224054545883035  0.0101461469576307  0.4899738162793952
  0.1211740024508643  0.1322612654946482  0.6148611448366879
  0.0940470603761128  0.2149826290238934  0.6831266852052593
  0.1978803789414130  0.2736872710562253  0.8629423674411996
  0.2178170108874937  0.3743093250695182  0.9999012838761345
  0.1908599410849803  0.4835520747513797  0.0977758208040740
  0.2043978880143271  0.5981623203091857  0.1954344978083640
  0.2067589230334193  0.6876970099448556  0.2880372597445415
  0.1865123735683625  0.7901848621388510  0.4123772979214806
  0.2019282570580216  0.8874104609511235  0.5080578258000656
  0.2099742244426608  0.9860592751095822  0.6261050124899867
  0.1945161955036028  0.0985069401894734  0.7104413753122500
  0.2188940297874353  0.1855627072630455  0.7755794221614707
  0.4022852410802642  0.4139223976056954  0.9797618301362121
  0.3981359145967858  0.5183013286515532  0.0710457175849584
  0.3921042989112493  0.6015878022340573  0.1966803459490052
  0.3984056926049888  0.6808734745722802  0.3117492694537418
  0.3895028576141755  0.7761751996040900  0.3954174129235994
  0.3615520290333194  0.9041299806758758  0.4772062119998139
  0.3808758415421565  0.9872459838808467  0.6038851223075810
  0.3920563764905509  0.0859957958241040  0.6874211985671863
  0.4064331743413305  0.2071933803082402  0.7837893264834790
  0.3899480091436089  0.3236530263467969  0.8946612089362276
  0.4849642908988088  0.4163367535466875  0.0899097384173047
  0.4845831635009645  0.5173533638120347  0.1831274166941625
  0.4842477159824696  0.5920658377715995  0.3095907979450416
  0.4898283621624202  0.6841789225620971  0.3898921049158659
  0.4789856280341240  0.8020404543526425  0.4701024857425651
  0.4997240703209656  0.8866670622613952  0.5584571819767135
  0.5108879035678910  0.9835960017910139  0.6873143088089719
  0.4658791040203596  0.0848909770467046  0.7980449941085013
  0.4938007159353361  0.1997025300466575  0.9109469005985744
  0.4836672404204165  0.2936642150162641  0.0255321322524367
  0.5912882721402681  0.4327921977659415  0.1702907225338137
  0.5950282759108276  0.5120766776641403  0.2839455328274525
  0.6094664566149817  0.5911452571051541  0.3845868826884100
  0.5994282716689412  0.6912562445209005  0.4892098656737502
  0.5784967497761215  0.8088427044351221  0.5821843187066946
  0.5861789465994249  0.8892184342744045  0.6782703299241177
  0.5990702408446040  0.9930770118301382  0.7953302408446064
  0.5992516434934245  0.0982208210397317  0.8832038794363015
  0.5823764636847812  0.1845430150351106  0.9857324485082728
  0.6024836522599770  0.3030196314276310  0.0911818117547227
  0.6982077635858062  0.4049748753358173  0.2910366050808335
  0.6902010929914724  0.5205341231088312  0.3958507970024030
  0.6733274053824729  0.5994552646462736  0.5122025163783732
  0.6782508436631005  0.7293653485412648  0.6105181604373868
  0.7197959046990619  0.8415108813687127  0.6818811085450349
  0.6958950247443099  0.8841635707215900  0.8063551915916491
  0.7010183107885197  0.9853529457510461  0.9115861870198430
  0.7034371833906761  0.0979617575529090  0.9874359862374504
  0.6897991096762013  0.1791256322760049  0.0969112725644550
  0.6969359862374489  0.2760434872979189  0.2028905834943657
  0.7966377961068929  0.4252795663854485  0.3979339821840995
  0.8018340986001817  0.5281348107649535  0.4884490465192997
  0.7737989739359961  0.6234778408823090  0.6128651878210860
  0.8147297846066834  0.7274939435358405  0.6974168685488067
  0.7954817580242235  0.8119449663006080  0.8049457585898097
  0.7881830032521080  0.9022478375830687  0.9364611528491338
  0.8025069642268008  0.0169927039638011  0.0253198011028886
  0.8165424555780731  0.1104194202761946  0.1203299217608489
  0.8110088546919911  0.2046207465711447  0.1798352335391442
  0.8178520554272524  0.3002590484045840  0.2980295329217171
  0.8807944624593489  0.3982202455578090  0.5192694193335541
  0.8911976221897504  0.5128918164679277  0.5965528142527248
  0.8784877909223709  0.6063401748597812  0.6998774553424170
  0.8956181420559020  0.6955449446198827  0.8250970764010006
  0.9079624315407457  0.8186196634773992  0.8989025338172212
  0.9117704109911884  0.9298801729744994  0.9902905712400454
  0.9185954197106128  0.9951556393458105  0.1109425550266323
  0.9001680770137170  0.0887169566856798  0.2250310637696202
  0.8714230984587843  0.2159317302163331  0.2727963100344084
  0.8920933345901858  0.2911290243672511  0.4183496177593469
  0.9775760427958744  0.3729773799311857  0.5899665183579188
  0.9616851227789027  0.4744878102465009  0.7104516500919047
  0.9815501121741974  0.5992359395767579  0.8195362638450305
  0.0156747622189783  0.6869234429938231  0.9008885280671137
  0.0042756204930043  0.8012731686854906  0.0001981750483111
  0.0241217099495685  0.9080307126360907  0.0990024970542507
  0.0331369406607891  0.9865504755620478  0.2285751915916450
  0.9991316642315127  0.0919775430079639  0.3124817773483528
  0.9699060691898040  0.2135361931470072  0.3833995654428080
  0.9794304477541615  0.3039915671395548  0.4990086529669640
  0.0936825366451401  0.3976097247490245  0.6778007894612799
  0.0920820054673115  0.5028058288165127  0.7805360965263688
  0.0965182759108245  0.5807852146863368  0.9138683824291860
  0.1027063576377429  0.6901811726445786  0.9913031837677337
  0.1033586859593711  0.8147881759909481  0.1148049931658548
  0.1339632931140144  0.8885462808125553  0.2126063703633889
  0.1288684931894224  0.0111614035914585  0.2962803030588645
  0.0951420912475811  0.1179163797897900  0.4129312098788702
  0.0868960517509549  0.2133393919969819  0.4883166479709686
  0.0866733869067247  0.3233606716312423  0.6123304081632668
  0.1804344770702713  0.3753359207239484  0.7805284955460223
  0.1897858217467103  0.4837799759626691  0.8826789734646781
  0.2043788254701440  0.5795780873827567  0.9948620408163293
  0.2067553475986230  0.6704040052787832  0.0877006871848067
  0.1941842579063930  0.7865124551067524  0.2008300999198767
  0.2091694692934922  0.8930551251355041  0.3066490121129277
  0.2178328227364830  0.9943236984493566  0.4041148970165409