Li 
 1.0000000000000000
    21.2169999999999987    0.0000000000000006    0.0000000000000000
     0.0000000000000006   21.2169999999999987    0.0000000000000000
    -0.0000000000000006   -0.0000000000000006   21.2169999999999987
 Li 
 500
Cartesian
  0.2458095600000000  0.6523347200000000  0.2725659300000000
  0.4453308500000000  1.9359435800000000  2.1684413299999998
 -0.0261958200000000  4.1867037500000004  3.9101282799999999
 -0.2346325600000000  6.3923297100000003  6.3484568899999996
 -0.0324500100000000  8.3426915299999997  8.6537688700000004
  0.3909324400000000 10.0900387600000006 10.5053363900000001
 -0.2032815200000000 12.3223964099999996 12.7641278299999996
 -0.2973018700000000 14.3205746800000000 15.4616369999999996
 -0.2157496700000000 16.7831673600000002 16.8066172300000005
 -0.1114337200000000 19.4555343900000004 19.4942069300000007
  2.4228562100000000  0.0470295800000000  2.2808926500000002
  2.2516519800000001  2.5292111799999999  4.4286986600000002
  2.1858270499999999  4.3942832999999997  6.7132308700000003
  2.0829076799999999  6.3005840800000001  8.1231475799999995
  2.3255253400000000  7.9145614899999996 10.2059780599999996
  2.2368100800000001  9.8793809699999997 12.8657892900000004
  1.8303150100000001 12.4695867099999997 14.7037878600000003
  2.0972076899999998 14.7435775600000003 17.0801273000000009
  2.0795470200000001 16.8057060100000015 19.5728402000000017
  2.0765464699999998 19.1309208099999992 21.5414866899999993
  4.5394750400000001  0.5296754299999999  4.5255133900000004
  4.2883326700000000  2.7779204499999999  6.8924902599999998
  5.0067411799999997  4.4256158599999997  8.6314322099999998
  3.9711580899999999  6.6498277100000003 10.1292767000000001
  4.2296786600000003  8.2402489299999999 13.0626685899999995
  4.5167718800000003 10.2696924400000000 15.2861538400000008
  4.3339723499999998 12.6912420400000006 17.1259190699999984
  4.2147224100000003 14.4774958199999997 19.1061689699999988
  4.3207531399999999 16.8618323100000005  0.5385291700000000
  4.2387107700000000 18.6558064399999992  2.5899656499999999
  6.4249177900000003  0.1020676100000000  6.7292727399999999
  6.5598881599999999  2.7148306000000000  8.4771931400000007
  7.2718471200000003  3.9881916500000001 11.0366124800000005
  6.6506409299999998  6.4305560000000002 12.3448530900000009
  6.6037425900000004  8.2614112399999993 15.1220151400000002
  6.1672417800000003 10.5959618199999994 16.7479094999999987
  6.3513102300000002 13.0447487100000004 18.5448242400000005
  5.9678128399999997 14.6572975400000001  0.1720488500000000
  6.6987330600000003 16.5348415399999986  2.8671883899999999
  6.0840014000000000 19.3117735099999983  4.7884395199999998
  8.1934253199999993  0.1469853000000000  8.4887849099999997
  8.2171354399999998  1.9438055200000000 10.9177933300000003
  8.6844639099999998  3.8104167800000002 12.8532834600000001
  8.7444015099999994  6.3066873000000001 14.7256273699999998
  8.7065984899999993  8.5747333700000006 17.0517205199999999
  8.4364366299999993 10.3265097099999998 18.9871527100000002
  8.4069989899999999 12.9130738500000000 -0.5238036000000000
  8.6645153100000005 14.5327927599999995  1.8971009299999999
  8.2841516500000001 17.3293638799999989  4.5877215099999997
  8.3095251599999997 19.4875736300000000  6.4720403700000002
 10.6702858999999997 -0.1968772500000000 10.8089291099999993
 11.0459703099999995  2.3505061800000000 12.9421533600000007
 10.6882621800000006  3.9854797999999998 15.1235778399999994
 10.5120345000000004  6.4482232200000000 17.1828744399999991
 11.2388745700000001  8.8168496600000008 19.0945229400000009
 11.0614972100000006 11.0767410000000002 -0.4189766400000000
 10.4083685199999998 13.0344093399999998  1.6560982799999999
  9.9454561199999993 14.9042994300000000  4.4362799900000001
 10.2405660199999993 17.1848929300000002  6.4618479799999999
 10.7080781900000002 18.9814054200000015  8.1347727299999999
 12.9500048299999992  0.1312560600000000 12.5629901299999993
 12.4569483200000004  2.0161753899999999 15.0514269800000005
 12.3986113600000003  4.0430869800000000 17.0650911200000017
 12.3446016699999994  5.9977637200000000 19.1205939399999991
 12.9994689500000007  8.5859261000000000  0.0919357500000000
 12.4826386500000002 11.1646479099999993  1.7584302999999999
 12.7289575999999993 12.9972279499999992  4.2822893400000002
 12.4519206800000006 14.8250165500000008  6.2580350899999999
 12.5968031600000003 16.4992811099999983  8.4441110199999994
 12.8470594499999997 18.9592551799999995 10.6524212100000000
 14.9179445099999999 -0.4355799600000000 15.0742388199999997
 15.2444172299999998  2.2830457599999998 17.0241647600000015
 14.5868822599999994  3.9974415799999998 19.0632158800000013
 14.6969764900000008  6.1348158200000000  0.2213351100000000
 15.2970122400000008  8.9452544700000001  2.6494427699999998
 15.0877678399999997 10.8597901399999994  4.1475576500000004
 14.8320790200000001 13.3321227100000002  6.5215679599999996
 14.3773708899999999 14.7703392000000004  8.4308329900000007
 15.0283613799999998 17.2380990300000008 10.8754207500000000
 15.0432050499999992 19.5354650099999994 12.0237853099999992
 16.7819024399999996 -0.5200184100000000 17.2407310699999989
 16.7565200499999989  1.9332336699999999 19.5039669000000018
 16.6704159300000008  4.4087174899999999  0.1485210300000000
 17.0416181400000006  6.3461864700000001  1.9053381000000000
 17.0697362900000016  8.4742163900000005  4.2495651700000003
 16.6624318000000002 10.9853944699999992  6.1605676999999996
 16.7447865600000014 12.5396745200000002  8.4007702799999997
 16.6917892099999996 14.1092498000000006 10.7784227700000006
 17.2039006100000016 17.0881118100000009 11.8792482400000008
 17.2495497399999991 19.0576504299999989 14.7254326300000002
 19.1295197899999998  0.0942358100000000 18.9319064399999988
 19.3846891200000009  2.0940185300000000 21.1686100800000006
 19.6410632999999990  4.0796348599999996  2.3621930700000000
 19.2947783699999995  6.4644015300000000  3.4899635999999998
 18.8476896600000003  8.5503719999999994  6.4996032399999999
 19.2345717799999996 10.4098982699999993  8.4597430500000002
 19.4901240000000016 12.4170818500000006 10.3325141600000006
 19.1794757500000017 14.4124765099999994 12.6260691000000005
 19.0441159900000017 16.6401728300000009 14.7730452099999994
 19.2525246699999997 19.2598872099999987 17.2854161300000015
  2.4712384599999999  2.8662022600000001 -0.5644039600000000
  2.5324861699999999  4.6417970100000003  1.5892339900000001
  2.0715202800000001  6.5285727199999997  4.4309593700000001
  2.0682931299999998  8.4714632699999992  6.5230023399999997
  2.4296916000000000 10.2503670299999996  7.8973779999999998
  2.2544072800000001 12.0128756100000000 10.9197795000000006
  1.8249435899999999 14.4261237500000004 12.6469581499999997
  1.4558682300000001 16.3410088999999985 14.1838551699999993
  1.8144323600000001 18.5337953199999994 16.6966636400000006
  2.4246969300000001 21.3386371100000005 18.7224822000000017
  4.7193149800000000  2.5874225599999998  2.2471448299999999
  4.5451515899999997  4.8938538100000004  4.1592564400000001
  4.5439841000000003  6.1168396899999999  6.3596582300000000
  4.0083694200000002  7.9633508800000001  8.2557468699999994
  4.4502758699999996 10.4719762599999999 10.5940145200000000
  4.0343662599999996 12.4409849399999999 13.4710201499999993
  3.5903062700000001 15.2673693200000002 15.0260135800000008
  3.9771063500000001 16.8888483799999989 17.2547510700000011
  3.6188333699999999 19.0971569800000012 19.3263261899999996
  4.5876444000000003 20.8415852000000008 21.1343594999999986
  6.5355162000000000  2.3454343600000001  4.5779001499999996
  6.3952795099999999  4.9958565300000002  6.5725909099999997
  6.6496860199999999  6.3417898299999997  8.3996484500000008
  6.4863085500000004  8.5009219100000006 10.8952830899999995
  6.2892499700000002  9.8473746000000002 12.7266726000000006
  6.2421799299999998 12.8130415299999996 14.7038219500000000
  6.2479728600000000 15.1694944399999994 16.8299598099999983
  6.0894215999999997 16.7789657900000009 19.3940544400000014
  6.4343346500000003 18.8938244900000001  0.5015499700000000
  5.8692107800000004 21.4128547199999986  2.2046285700000001
  8.5227483599999996  2.5545494700000000  6.3543689299999997
  8.5577065200000000  4.5202949800000001  8.4034571000000007
  9.0109965100000000  6.3358452600000001 10.6767544099999991
  8.7747530000000005  8.2762381900000008 12.9109853099999992
  8.6312114900000001 10.6183049300000008 15.1950445700000003
  8.4500671500000006 12.5669211700000005 16.7494964999999993
  8.2699455000000004 15.0395857100000008 18.9345459699999985
  8.5701360100000006 16.9372661899999990  0.2279330100000000
  8.2561394700000008 19.4360233800000017  2.4285033299999998
  8.2109299599999996 21.5185867600000016  4.4851105400000000
 10.6807849800000003  1.7908805600000000  8.4418471999999998
 10.8692951499999992  3.7851470699999998 10.8970225799999998
 11.0098965100000008  5.8526399800000002 13.5407728299999999
 10.9803212200000004  8.8158922099999995 15.0297430599999995
 10.9044359100000001 10.8587021400000001 16.9509225000000008
 10.7126910899999999 13.3139424399999999 19.1860998100000018
 11.0595972499999995 15.2771549300000000 -0.1257078600000000
 10.1733365199999994 17.4711792300000006  2.4727421100000000
 10.5469402199999998 19.5365991799999996  4.3708091700000002
 11.0761127599999991 21.0469119800000009  6.2821176999999997
 13.2751041599999997  2.3154609800000001 10.7236646199999992
 12.5462980599999998  4.4893565799999999 13.0075960800000008
 12.9737947699999996  6.2715405300000002 15.1575009200000004
 12.9904328699999994  8.1271745299999996 17.0504000200000014
 12.9686553000000000 10.8946064800000002 18.9065825700000012
 12.7088195000000006 13.1842097599999999 -0.0745877600000000
 12.3464136399999997 14.8647793400000001  2.3679221400000001
 12.5279927200000003 16.9448021500000010  4.8077965499999999
 12.8835797999999997 19.1452348000000008  6.2208608600000002
 12.8737624200000003 21.2964382699999994  8.6279583100000004
 15.2450644900000007  2.2448677500000001 13.1588364400000000
 14.4593932699999996  3.9765676399999998 14.5976001400000008
 14.9703834199999992  6.3845001699999999 17.2183375900000009
 14.5984131099999992  8.4701748800000001 19.2466093499999999
 14.9131985199999999 10.6716590199999999 -0.2643513100000000
 14.6799950599999995 12.8693230199999995  1.8939151800000000
 14.9255923900000003 15.2194990200000007  4.2679329199999998
 14.5511814400000006 16.6884492500000015  6.0518395600000003
 14.5458274000000003 18.8417320199999985  8.5371674700000000
 14.9898017899999996 21.3821190600000008 10.2442571099999995
 16.9457744499999983  2.0095529299999999 14.7675512500000004
 16.5301117200000007  4.2763633399999996 17.0745002100000001
 16.6942761600000011  6.4034176900000004 19.1175900100000007
 16.8688837000000014  8.7779826900000000 -0.0499474700000000
 17.2440901000000011 10.9595499000000007  2.0804811600000002
 16.9187046599999995 12.8996829500000008  3.7369425700000001
 17.1263347599999989 15.3528276399999992  6.1044184699999997
 17.0649387600000004 16.9245830899999987  8.5245990200000001
 17.4486224999999990 19.6021453000000001 10.3119167899999997
 16.6290969900000007 21.8932685199999995 12.8161208400000000
 18.4019286099999988  2.0390915199999999 16.7710705400000002
 18.6927420700000013  3.6037202599999998 18.6901370900000003
 18.6191358200000003  6.2133820799999997 -0.3747028100000000
 19.0180980899999987  8.2258931900000007  2.2094952800000001
 19.0677338799999987 11.1345840599999999  4.0425241200000004
 19.5138714600000007 12.8992318699999995  5.8458405800000000
 19.3126387900000012 14.7919084099999996  8.1078945299999994
 19.1637820099999985 16.8159989799999998 10.0478252099999992
 18.7504645600000011 19.1563117500000004 12.1142107499999998
 19.2116014200000009 20.9928740299999994 14.7015872499999993
 21.2502997600000008  2.1912080399999998 19.1249765899999993
 21.0974330399999985  4.4389128900000001 20.8368377799999998
 21.1231416000000003  6.1396594300000000  1.8855742300000000
 20.9857306299999991  8.6358851600000008  4.1891270399999998
 21.0390993199999983 10.4351314399999993  6.1758850199999999
 21.2782662599999988 12.8435331099999992  8.6164279599999993
 21.3297889400000003 14.7470412599999996 10.4854649099999993
 20.7610016100000010 16.5890447499999993 12.2265363800000006
 21.1103235500000004 19.1266058399999999 14.3065717400000008
 21.0811756899999985 20.8899515999999998 16.7404921199999990
  4.6875693600000004  5.0099325700000001 -0.5475451900000000
  4.3997560900000003  6.5323627499999999  1.8511266700000000
  4.2275241899999996  7.9969578200000004  4.5252981300000004
  4.6626999900000001 10.5462507599999995  5.7296968300000000
  4.1136115300000000 11.6957989399999995  7.9759623599999996
  4.3090714800000001 14.3073644000000009 10.9190900200000005
  4.1801386999999997 16.6456109400000010 12.4321711199999996
  3.8508801500000001 18.4854392099999991 15.0205852300000000
  3.7168393100000001  0.0827783600000000 16.6727272800000001
  4.0532705800000004  2.3374863100000001 18.5763864500000011
  6.7225424800000004  4.9102202200000002  1.5898221100000001
  6.6266911799999999  6.5298028099999996  3.9834340099999999
  6.6554100700000003  8.0548437400000008  6.1236316899999998
  6.2436161500000003  9.9681358800000002  9.0016531499999992
  6.0957955799999999 11.9984139800000005 11.4892467600000003
  6.1726986899999998 14.9262447900000002 12.7744013499999998
  6.8328564600000004 17.0181962200000001 14.9955799499999998
  6.1739970399999997 19.2698754299999990 17.3103555799999995
  6.2056121299999996 -0.2443959100000000 19.4694200600000009
  6.7777327700000001  2.2055819699999999 20.8466271100000000
  8.6724344000000002  4.2770526599999998  4.5124292500000003
  9.2438587900000009  6.5628764500000001  6.1070382199999997
  8.8473925599999994  7.8125394200000002  8.2940131099999999
  8.8063026200000003 10.0015243300000005 11.0276688899999993
  8.5649557200000004 12.6877354699999998 12.9764816199999995
  8.6134700300000002 14.8015614899999992 14.7305349700000008
  8.4395101900000000 17.0961363400000010 17.6706076100000011
  8.7039955899999999 18.8465614499999994 19.3959528399999996
  8.5648682300000001  0.0328529600000000  0.1646551300000000
  8.1503879999999995  2.2551690700000000  2.0744585899999999
 10.4801412900000006  4.1685170200000004  6.2695805000000000
 10.8386289300000005  6.3342705600000002  8.5851597500000008
 11.0753027700000004  7.8860023000000004 10.7689281599999997
 11.1350607900000007 10.8142796499999996 12.9036001900000006
 10.8257976399999993 12.6491034899999999 15.1589354600000004
 10.2519169300000001 15.2641084199999995 16.9528060200000006
 10.7573127599999996 17.1726522700000004 19.6987077500000005
 10.5935239400000007 18.9635541200000013  0.4446281700000000
 10.0103648500000002  0.0472695600000000  1.6831452099999999
 10.4067141599999999  2.6645615999999999  4.4055933899999999
 12.4205584200000008  4.3034899099999997  8.6739334199999991
 12.7351794300000005  6.1978247900000003 11.0451504200000006
 12.9035306100000007  8.1430216200000007 13.1213877199999995
 12.9740499600000003 10.7622728399999996 15.2591058400000001
 12.8999717500000006 13.2557519100000007 16.7775351700000002
 12.8734717100000005 15.4648732800000008 19.5218982700000012
 12.5745409800000001 17.5448903300000012  0.5150253500000000
 12.8553152799999992 19.2864141999999994  2.8241079999999998
 12.5975549699999991  0.2152510800000000  4.4077819700000003
 13.0079343200000004  2.3054073000000002  6.3913292799999999
 15.1789602000000006  4.1456791099999997 10.5267476099999993
 14.9865492499999995  6.2906555900000001 12.6295209100000001
 15.2566844300000000  8.1637278200000001 14.9716617599999999
 15.0311553799999995 10.6698820300000001 17.0571406199999984
 14.7952111599999991 13.1193190099999999 19.3253694299999985
 14.7305921000000009 15.3308644199999993  0.5250123900000000
 14.9834762399999999 16.8476928599999987  2.3319957599999999
 15.1594875400000006 18.8028742999999992  4.2730095800000001
 15.2968246000000008 -0.2304911000000000  6.4210287800000003
 15.4420283900000008  2.2681472899999999  8.1168988199999994
 17.1371713300000010  4.5319919999999998 12.9873534599999996
 17.0681922099999994  6.2817098099999997 14.9256594200000006
 17.0795928600000018  8.3761844900000000 16.9369503899999998
 17.0338131299999986 11.2010769299999993 18.7546994799999993
 16.6962951699999991 12.7223629900000006 -0.1537352700000000
 17.5035627500000004 14.9317923700000001  2.3656713400000000
 17.0073441400000007 16.8969123600000017  4.6357742899999996
 16.9030197800000010 18.9331389100000003  6.5446911600000002
 17.2451811100000008  0.2880232700000000  8.1909162999999996
 17.1057909099999996  1.9333688200000001 10.4030017899999994
 18.9804421400000010  3.7414864500000000 14.3612921599999996
 18.9662080800000012  6.0246028699999998 17.0477055899999996
 18.5423870599999994  8.6345120000000009 18.8030882599999991
 18.6490030299999994 10.5418742400000003 -0.3094041000000000
 19.0515207800000006 12.6133401099999993  1.8517632300000000
 19.8623533700000010 14.8689544700000003  4.5632143000000003
 19.6393638499999987 17.2655997499999998  7.0329100100000002
 19.4892219400000002 18.8869855800000011  8.4142928500000007
 19.6815400999999994  0.0733122100000000 10.3864092600000006
 18.7207222699999996  2.2873812999999998 12.3803588199999997
 -0.4665037100000000  3.9524634000000001 16.6818625099999984
 -0.6841084800000000  6.3621255699999999 18.6910624299999988
 -0.5127737100000000  8.4444070599999996 -0.1240022500000000
  0.2648104100000000 10.3710789699999992  1.7395918300000000
  0.1785523100000000 12.7643447099999996  3.9777048900000000
  0.6228501300000000 15.2763181800000005  6.1718639399999997
  0.3360710200000000 16.6416916499999985  8.8917918199999999
  0.0253191000000000 18.9229561699999991 10.8149280599999997
  0.5030253400000000  0.5198152300000000 12.6120241199999992
  0.0508613700000000  1.9018065200000001 14.3291934500000000
  1.9995733899999999  3.9359772500000001 18.1637948300000005
  2.0535271900000001  5.9036333399999998 20.5691249300000010
  1.9776834299999999  7.9562370800000002  2.1940460300000000
  2.3242810399999998 10.5963455199999999  4.1173170299999997
  2.3915677700000000 12.6948401400000002  5.8896263700000002
  2.7476047299999999 14.1905281599999995  8.5680667699999997
  2.4625952899999999 16.8012669700000004 10.6693510699999994
  2.2073533099999998 19.0381839200000016 12.7515115399999992
  1.9791846600000000  0.2004268400000000 14.8142008900000004
  1.1897729100000001  2.0511250400000001 16.5476360500000013
  6.9845343299999998  6.3313382499999999 -0.5954768200000000
  6.4203380000000001  8.6233267100000006  1.9832631400000000
  6.2366993400000004 10.1822346199999991  3.9494522299999999
  6.0486565700000003 12.2621428500000000  6.3442574000000000
  6.0010802800000000 14.0182647800000009  8.5363004700000005
  6.1371734099999999 16.5732683799999982  9.9562068299999993
  5.8779999600000004 19.1618889599999989 12.6547455299999996
  5.8965895300000000 -0.1654515700000000 15.0756186400000001
  6.7661723800000004  2.0612732100000000 16.5909948000000007
  6.7532462000000004  4.3079636299999997 18.7195845900000002
  8.5572833900000003  6.2266887600000000  2.0001894099999999
  8.7668519000000007  8.5458566900000008  4.0758269399999998
  8.4919092400000000 10.2684447100000007  6.2735195399999997
  8.6127426200000006 11.9535789099999992  9.2412225899999996
  8.2381770200000002 14.6498536700000006 10.7513640600000002
  8.1226149099999994 17.4082592900000002 12.1715776699999996
  8.3876266099999999 19.0178416599999984 14.6604900199999992
  8.4012914199999997 -0.6412105000000000 16.7443099800000006
  8.6219708900000001  2.1334656200000000 18.9482641399999991
  8.8371392800000006  3.6086814100000000 21.3762108300000016
 10.7839677100000007  6.0975299100000004  3.7684722900000001
 10.6551918600000004  8.3715252099999997  6.1342616799999998
 10.8163774799999999 10.2608305400000006  8.8827630699999993
 10.5808143599999998 12.8260347600000006 11.0178174200000001
 10.5076790500000001 14.8277248099999994 12.9883645600000008
  9.6703853599999992 17.1279210999999982 14.9360140000000001
 10.4122299799999993 18.9275582600000014 16.9504072699999995
 10.6627186999999992  0.2972208500000000 19.3597471500000005
 10.4249649400000006  1.8844904200000001  0.3797855900000000
 10.9715534300000002  4.2816077300000002  2.1881599500000002
 12.8086577800000008  6.3280341499999997  6.1482121799999998
 12.4936301400000005  8.4838703100000004  8.2544040899999995
 12.5487800299999996 10.6506902399999994 10.4595462099999992
 13.0545891399999991 13.2174004499999995 13.3106719200000008
 12.3538663100000008 16.0277815799999992 14.8125819900000000
 12.4494231299999996 17.7827893500000016 16.6657376600000013
 12.8400080100000000 19.2162175799999986 19.3179886699999983
 12.3985071900000001  0.2125310600000000 -0.1917605200000000
 12.5532118900000000  1.6711454699999999  2.1811267499999998
 12.7505544900000007  4.3694323199999996  3.8034873899999999
 14.9210045000000004  6.9693569000000002  8.9239254999999993
 14.4023537400000006  9.2555188499999996 11.0281882699999993
 14.8204043399999996 10.6849517200000008 12.9448580799999995
 14.9206739400000004 13.1033016300000007 15.0600153199999998
 14.4343186699999997 15.6311581900000007 16.5767302100000009
 14.6545610400000008 17.3056577599999990 19.5083138900000002
 14.7392090600000003 19.3084765099999984  0.6187974800000000
 14.6286445000000001  0.3645515800000000  2.4969334100000000
 14.6921941300000007  2.2477384300000001  4.4735389200000002
 14.7472443900000005  4.3544908299999996  6.4849049499999998
 16.8272455399999998  7.0129419899999998 11.0064037999999993
 16.9243281500000009  8.6473588499999998 12.7162807900000008
 16.9235031900000017 10.7516941300000006 14.7071857900000005
 16.7172594699999983 13.2229595199999999 16.9460014200000018
 16.8192825900000003 15.3616984100000007 19.3490076299999991
 17.0339581899999999 17.7058208300000004  0.5646546300000000
 16.7119816700000001 19.4328113199999990  2.2512248600000002
 16.9743949200000017 -0.4187486700000000  4.8256757600000002
 16.7652137199999984  2.4457300300000000  6.8592456400000001
 17.0999877699999985  4.9216274799999997  8.5548358600000007
 18.8617985300000015  6.3757367499999997 13.3867393400000001
 18.8441716499999998  8.6226017299999995 14.8887916199999992
 18.6223755199999985 11.1088877999999998 17.0697879899999982
 19.3323124100000001 12.9840187900000004 19.0285850200000013
 19.1289713799999994 14.8113611800000005  0.0121397900000000
 19.4435244199999993 17.5800323200000008  2.2313306100000001
 19.1464126099999987 18.9715923800000006  4.1698016800000000
 19.4180600299999995 -0.1122611600000000  6.7414548600000002
 19.2950890699999995  2.0976831900000001  8.5512913200000007
 19.1173750200000008  4.2771959500000003 10.8782438399999997
 -0.2627366000000000  6.6144541900000000 15.0860950400000000
  0.2363101100000000  8.6941018400000001 17.3281261700000009
  0.1596078100000000 10.5757328499999996 19.2704773699999983
 -0.1325738000000000 12.5159015100000008 -0.3461750600000000
  0.1626307900000000 14.6589494299999998  2.0978929100000001
  0.4894094000000000 17.0327782600000006  4.3258067699999998
  0.4958504100000000 18.9003878199999988  6.3396746200000003
  0.2367518600000000 -0.1168636400000000  8.1729671499999998
  0.0416508300000000  2.0113963799999999 10.9047494000000000
 -0.0909148100000000  4.2416567199999999 12.7334242700000004
  1.8679836800000000  6.6774879100000000 16.6712464599999990
  2.2109622099999999  7.9597531000000004 19.2260588699999992
  2.3490427500000002  9.6444079200000008  0.1093307000000000
  2.1239031800000001 12.7396250799999997  1.8521378300000000
  2.0202730299999998 14.6164911899999996  3.9899496200000000
  2.7206730499999998 16.7888581700000010  6.6287527500000003
  2.2884687200000000 18.7959831400000006  8.3823841100000003
  2.5970765299999998  0.2152708000000000 10.3957744600000002
  2.5709488100000000  2.8061872700000001 13.0455089100000006
  1.9953964799999999  4.5612864399999999 14.4938988799999997
  4.1984279999999998  5.8068228299999998 18.3090482100000003
  4.6214235199999996  7.9417209499999997 21.2149055400000002
  4.0494753699999997 10.2595243699999994  2.0745095899999999
  4.3367099900000001 12.6912099499999993  4.1465337399999997
  4.3868040700000002 14.5908674600000001  6.1112865400000000
  3.9572330299999998 16.7653522200000005  8.7494091300000001
  4.2843118300000000 18.8281877500000014 10.7794628899999996
  4.4550231199999999 -0.2957803600000000 13.2840700500000004
  4.1270501199999998  2.0900217500000000 15.0734346600000002
  4.6442746300000000  3.9370839599999998 16.4554685999999997
  8.5352859599999995  8.7821915100000005 -0.4293932500000000
  8.4472497000000004 10.9967992900000002  1.5073769900000000
  8.3192769099999992 12.7638884000000008  4.1729668999999996
  8.4529735800000001 14.4460925099999997  6.6143842499999996
  8.2640821300000002 16.4681092100000015  8.3895712499999995
  7.6710494000000002 19.1829257999999996 10.1248842000000003
  8.0810427300000001 -0.2706019600000000 12.8126306400000001
  8.3182601399999996  1.8245728000000001 14.5850155699999995
  8.6232926600000006  4.3960219499999997 16.6296581400000001
  8.2735269099999993  6.8669462599999997 18.9820268699999986
 10.2894873600000007  8.8334168999999996  1.9076149200000001
 10.2814009800000008 10.9766863200000007  3.8854144000000002
 10.2742837900000001 12.5618608799999993  6.5685879600000003
 10.3926883599999993 14.5162241999999999  8.2723407899999994
 10.1626380699999999 17.0168923200000002  9.9741644399999991
 10.6026456000000007 18.8124150599999993 11.8487860299999994
 10.8395086500000009 -0.3480436300000000 14.5827476899999997
  9.8845569500000003  1.8011318599999999 16.9321206400000008
 10.4769697900000001  4.2370885800000000 19.3275603899999986
 10.2619678400000005  6.2306736500000000 21.7587152500000016
 12.5453632699999993  9.1825520600000008  3.6130582599999999
 12.6247149299999997 10.8647308700000007  6.0244723699999998
 12.9310498099999993 12.5423289199999992  8.1597798899999994
 12.7180696399999995 14.6663837400000006 10.3795657200000004
 12.2739655400000007 17.1612156599999999 12.3522046900000007
 12.4369587100000007 18.8665475200000010 14.3908615900000001
 12.7104733000000003 -0.1468850400000000 16.8745217200000006
 12.7143221200000003  2.0839511599999998 18.7389367100000008
 12.3562814299999992  3.9154491500000002 -0.3027146400000000
 12.7828956500000004  6.4291675200000000  1.9346045000000001
 14.8138741199999995  8.5923519299999995  6.1749236500000002
 14.6439965900000004 11.0441724899999993  8.3987663599999998
 14.2859875600000006 12.7186423499999997 10.8674007899999996
 14.3904481499999992 15.4749446000000006 12.9533638100000008
 15.2719097099999992 17.8543363699999986 14.4674714800000004
 14.7648047400000006 18.7592984800000018 17.1084381000000008
 14.8735055000000003 -0.3107665500000000 19.3411241300000007
 14.9248267200000004  2.0784546100000001 -0.2665706800000000
 14.6354677100000004  3.8005085400000000  2.0561664700000000
 14.7868908200000000  5.8568146700000003  4.3047295099999996
 16.9022641200000017  9.0231565600000003  8.4429652999999991
 17.0125140700000017 11.2054362800000007 10.3634234200000002
 16.4176928300000000 13.2283293499999992 13.0031606899999996
 17.2861218399999998 15.4352389999999993 14.7970936999999996
 16.8777364600000013 17.2270363499999988 17.0785341600000002
 16.7228787799999985 19.1429923700000018 19.8688962800000013
 17.0267902599999985  0.3605342000000000  0.5372102200000000
 17.3245812800000003  2.3427688400000002  2.5530399500000001
 17.2071748699999993  4.3414383799999996  3.8155641500000002
 17.3523670599999988  6.3705962300000003  6.3232926000000003
 18.6878161100000000  8.4490389500000003 11.0173392700000008
 18.9085399500000015 10.8820256700000009 12.6570610600000002
 18.6388754600000013 12.8647194900000006 14.8492999700000006
 19.0023301199999999 14.7573770900000003 17.5060846699999999
 19.2642389099999995 17.3686533999999995 19.0720150599999982
 19.3450328099999993 19.7292676299999989 -0.2060049500000000
 19.4898390200000016 -0.1027828000000000  2.3538681900000000
 19.0988660900000013  1.8823076700000001  4.7744840799999997
 18.4889838799999993  4.5814235200000004  5.7879193100000004
 18.9275442799999993  6.1768845099999998  8.8761238400000000
 -0.4757691000000000  7.9134610700000003 12.5173196200000003
 -0.8129267500000000 10.0672078700000007 15.0736526600000005
 -0.3914512700000000 12.7139889299999993 17.3881009099999986
  0.3325714300000000 14.5744546899999996 19.1141518999999995
  0.0907158400000000 17.0006128200000006  0.0042046800000000
  0.5117903200000000 19.2656876299999986  2.1005359800000001
  0.7030664700000000 -0.2853585600000000  4.8496798400000003
 -0.0184234800000000  1.9514875300000001  6.6299258700000001
 -0.6385029300000000  4.5305974100000004  8.1345885800000008
 -0.4364241900000000  6.4497890800000004 10.5874665900000000
  1.9876623800000000  8.4360855299999997 14.3808993500000000
  1.9537039100000000 10.6680312700000002 16.5606343600000017
  2.0478282600000002 12.3225198999999996 19.3895454700000016
  2.1791207899999998 14.6435739399999996 -0.1845203500000000
  2.1929612399999998 17.2873607299999996  2.4358175399999999
  2.8422991899999999 18.8522864400000003  4.5108693600000001
  2.7342028200000001  0.2368115000000000  6.2861791900000004
  2.0186297500000001  2.5018318300000000  8.7611614800000002
  1.8436735300000000  4.5264218800000000 10.3606143199999998
  1.8389492500000000  6.8607433699999998 12.9918142700000008
  3.8282783000000000  7.9635022299999996 16.5604730899999986
  4.0266857800000002 10.2643597500000006 18.7277997800000016
  4.3363055399999997 12.2969082800000002 -0.1090120800000000
  4.3867282100000002 14.2239617799999998  1.8607454800000001
  4.1200074000000004 16.6874347599999986  4.2610122300000004
  4.4379486300000002 18.9479505900000014  6.5061720899999997
  4.6217590000000000 -0.1204340900000000  8.5741057699999992