Li                                      
   1.00000000000000     
    20.6400000000000006    0.0000000000000000    0.0000000000000000
     0.0000000000000000   20.6400000000000006    0.0000000000000000
     0.0000000000000000    0.0000000000000000   20.6400000000000006
   Li
   432
Direct
  0.9929120290697639  0.9851544728682171  0.9879764849806207
  0.9162154534883697  0.0626150101744187  0.0914679844961270
  0.8192032635658890  0.1550794869186021  0.1651981119186061
  0.7526553284883732  0.2472490954457385  0.2388355305232537
  0.6637468628875993  0.3338052684108561  0.3290395145348839
  0.5754002485465151  0.4107306976744169  0.4199867848837187
  0.5148489970930257  0.5135368280038790  0.4951547427325593
  0.4015087916666644  0.5885686230620166  0.5618299021317839
  0.3336369714147267  0.6389261492248082  0.6831728696705426
  0.2452239951550368  0.7619510784883730  0.7270639287790672
  0.1783014515503893  0.8151479268410853  0.8655709132751923
  0.1020072000968995  0.9011624103682152  0.9328996550387600
  0.1003187979651159  0.8902494898255782  0.0639883706395352
  0.0216398691860462  0.9784085750968998  0.1624697475775179
  0.9271268221899192  0.1056492180232524  0.2628714069767426
  0.8320371390503851  0.1516639437984466  0.3418872441860472
  0.7573722126937952  0.2567772030038782  0.4228761487403077
  0.6817204956395315  0.3300637461240328  0.5251667277131773
  0.5745919811046534  0.4253721947674407  0.5816368221899211
  0.4863567727713161  0.5125187030038774  0.6636777795542628
  0.4261342582364307  0.5885982596899240  0.7893976967054286
  0.3042058812984507  0.6762282335271337  0.8438192863372080
  0.2223721996124013  0.7531083192829442  0.9180704946705447
  0.1648444675387566  0.8250244491279091  0.0269026002906969
  0.1600923197674433  0.8083475092054258  0.1711632291666660
  0.0919009316860482  0.9120838498062014  0.2417424244186037
  0.0391937325581395  0.9887910247093004  0.3137294190891495
  0.9311313633720957  0.0762206312984475  0.4133985116279035
  0.8407594840116275  0.1519122126938015  0.5026063502906979
  0.7554229287790690  0.2244984762596900  0.5912564258720963
  0.6660884563953502  0.3467647437015486  0.6791643367248028
  0.5762776371124048  0.4121443735465107  0.7430793265503866
  0.4960950508720927  0.5292546729651164  0.8683600237403084
  0.4242088076550417  0.6168369534883738  0.9296646225775191
  0.3206299127907002  0.6529063905038726  0.0006750576550374
  0.2303215406976733  0.7338086792635679  0.1030014583333312
  0.2450654481589112  0.7362513309108536  0.2536003410852743
  0.1691732257751966  0.8189726254844985  0.3325469869186080
  0.1046874302325591  0.9048544631782960  0.4019858120155035
  0.0294746792635650  0.9861701051356562  0.4783921671511635
  0.9461814752907003  0.0518693275193769  0.5485982131782947
  0.8260171065891484  0.1298608759689941  0.6474710474806216
  0.7469091114341069  0.2407957848837228  0.7341861094961217
  0.6858184423449600  0.3366611516472844  0.8157580038759704
  0.6000655629844971  0.4082307388565880  0.9226887582364327
  0.4949747335271297  0.5006819825581417  0.0011761337209322
  0.4234474777131751  0.5907817548449614  0.0849886715116313
  0.3307191438953510  0.6573642582364343  0.1685817451550378
  0.3476952049418571  0.6446589350775227  0.3217220130813985
  0.2511387083333361  0.7168034152131781  0.3935535591085255
  0.1690340426356585  0.8165516017441874  0.4975836371124061
  0.0926888464147311  0.8995859602713168  0.5593156836240283
  0.0431400765503867  0.9899927461240310  0.6371112427325585
  0.9311070726744219  0.0548431085271304  0.7522430673449634
  0.8235784079457389  0.1576300678294587  0.8213953875969011
  0.7713813619186070  0.2410411448643401  0.9153456734496146
  0.6859795009689904  0.3487458609496130  0.0086541526162804
  0.5847496845930209  0.4169360038759677  0.0866237451550376
  0.5203704084302316  0.5163593183139525  0.1717654559108510
  0.4227249820736461  0.5963157170542601  0.2283875789728711
  0.4207739476744194  0.5577133091085287  0.4129699597868211
  0.3312730101744208  0.6566633822674390  0.4895494656007742
  0.2602446715116287  0.7555351143410860  0.5819425881782934
  0.1855584215116295  0.8410121405038780  0.6601165741279047
  0.1099645959302293  0.9368383120155030  0.7895210586240324
  0.0166375620155037  0.9929880557170563  0.8565356928294605
  0.9106881908914701  0.0842928478682197  0.8893749898255834
  0.8412290363372108  0.1438114796511627  0.9905761443798440
  0.7555360373062001  0.2481648788759685  0.0762457504844960
  0.6763937926356576  0.3327358900193786  0.1739151937984502
  0.5694276947674410  0.4306522301356566  0.2591572848837203
  0.5141909961240287  0.5083325092054238  0.3310169074612404
  0.0927397790697668  0.0938287349806188  0.9115970077519364
  0.9815792751938019  0.1644371094961272  0.9660337766472864
  0.9198563682170544  0.2375591438953464  0.0739859491279091
  0.8336544292635679  0.3060815765503904  0.2007960353682137
  0.7372755324612399  0.4089616671511607  0.2429792911821735
  0.6759683328488393  0.4769086448643378  0.3321150247093030
  0.6200464815891493  0.5585514835271326  0.4187372650193808
  0.5050698720930242  0.6470621937984475  0.4876506923449639
  0.3979312688953485  0.7305809869186035  0.5943236351744190
  0.3293634205426343  0.8310277543604627  0.6866312025193793
  0.2463818323643423  0.9446065784883686  0.7713697659883749
  0.1745426468023226  0.0016587228682141  0.8835377441860430
  0.1697491133720916  0.9992276850775212  0.9944543129844945
  0.0963289471899245  0.0842329345930253  0.0474941143410845
  0.0021832441860496  0.1293055775193821  0.1500374714147270
  0.9398350062984520  0.2170622160852744  0.2477450765503875
  0.8477350164728676  0.3380001177325553  0.3401241613372079
  0.7514383493217025  0.4175507165697709  0.4317959137596930
  0.6718039026162756  0.4871688168604678  0.4947858900193793
  0.5679886908914753  0.5949755402131771  0.5794782374031016
  0.4867212393410867  0.6385106274224839  0.6807509898255830
  0.4177228313953520  0.7282245683139550  0.7504514219961251
  0.3254522369186077  0.8292045741279068  0.8331995586240311
  0.2624030334302319  0.8924023362403091  0.9313303817829421
  0.2515945838178268  0.9140600116279103  0.0901419408914705
  0.1582710373062000  0.0063595809108534  0.1553716695736469
  0.0794431826550408  0.0954459549418587  0.2317990377907009
  0.0219106589147273  0.1483940518410876  0.3405655552325584
  0.9293660562015518  0.2420250954457330  0.4266574878875957
  0.8479571080426354  0.3468646342054242  0.5254348735465086
  0.7483272659883724  0.4281421642441856  0.5990408711240320
  0.6643053982558129  0.5076365116279078  0.6377231991279046
  0.5856230159883751  0.5749865605620172  0.7645774578488371
  0.5213318478682183  0.6565785387596890  0.8114491904069752
  0.4125698270348863  0.7378941686046545  0.9253893013565886
  0.3330233725775216  0.7990551875000023  0.0491117577519375
  0.3384785155038728  0.8320056458333340  0.1778551540697677
  0.2507586807170554  0.9252841768410818  0.2373912592054239
  0.1728157611434114  0.0062930092054287  0.2979074685077521
  0.0946139219961211  0.0792079161821704  0.4033397248062016
  0.0321771128875952  0.1628651133720922  0.5107722853682191
  0.9233091831395370  0.2481125227713150  0.5630880818798474
  0.8346847582364347  0.3080634738372083  0.6497086608527098
  0.7536339137596926  0.4303358914728648  0.7382640557170532
  0.6586382974806213  0.4986761642441877  0.8069286715116277
  0.6181239612403076  0.6007464966085294  0.9119700930232568
  0.5210087722868195  0.6651536434108536  0.9877032475775209
  0.4265108875968977  0.7217462199612399  0.1084706589147260
  0.4124911385658905  0.7603738938953484  0.2582784447674413
  0.3298593071705440  0.8427919656007745  0.3255309026162791
  0.2453169428294544  0.9152116681201576  0.4089830746124008
  0.1739418696705428  0.0191764394379845  0.5237034786821724
  0.0980337621124008  0.1005154394379844  0.5914022698643393
  0.9734385193798474  0.1586843134689957  0.6673269869186029
  0.8708778774224797  0.2660008982558111  0.7566419263565862
  0.8253389423449633  0.3379012684108531  0.8288401836240311
  0.7676720809108559  0.4313870910852700  0.8980232684108529
  0.6663860179263565  0.5119919215116298  0.9991751414728682
  0.5906956012596893  0.5969432015503884  0.0991732364341118
  0.4729980847868234  0.6546813565891441  0.1731824026162769
  0.5100143105620134  0.6472651477713143  0.3429842146317839
  0.4377369985465123  0.7560680876937980  0.4208090775193796
  0.3313153081395370  0.8151034108527142  0.4849578919573645
  0.2729517180232577  0.9056214869186050  0.5905087000968976
  0.1716488173449591  0.0048909026162818  0.6638788459302347
  0.0925578352713146  0.0859168871124041  0.7701314045542631
  0.9998602955426321  0.1811147785852683  0.8263910891472861
  0.8986330184108553  0.2810330886627881  0.9127285978682167
  0.8148494147286840  0.3235298144379826  0.0184436007751927
  0.7374448788759693  0.4366691996124032  0.0786682664728673
  0.6697761947674437  0.4975783866279073  0.1836808309108520
  0.5809375208333307  0.5718719263565859  0.2537416826550398
  0.1668073410852742  0.1988127538759699  0.8235193667635627
  0.0603426671511613  0.2488056792635689  0.9025261211240334
  0.9966482965116299  0.3183179743217082  0.9905939830426362
  0.8900871574612381  0.4115797117248050  0.0909983720930256
  0.8269667873062048  0.4971465847868188  0.1745113691860496
  0.7416680169573624  0.5883498648255809  0.2704541603682173
  0.6581760043604632  0.6782716051356559  0.3537041652131805
  0.5879495809108519  0.7463819467054265  0.4095686322674439
  0.5131491187015484  0.8295269568798460  0.5058692451550399
  0.4047048062015506  0.9085374321705402  0.5689274055232545
  0.3532390445736411  0.0287949050387581  0.6852867233527107
  0.2619312243217067  0.0663647170542632  0.7724740673449588
  0.2646436506782948  0.1144354161821681  0.9132477538759716
  0.1616681041666652  0.1942898687015528  0.9965243614341119
  0.0527278197674406  0.2391482882751959  0.0905176157945746
  0.9747378885658904  0.3158038914728678  0.1657226734496149
  0.9058019680232547  0.4162964258720905  0.2508833052325556
  0.8292658696705431  0.4851400518410856  0.3376306472868222
  0.7577256375968986  0.6099101836240308  0.4227834801356565
  0.6451801012596903  0.6956429263565909  0.5342071012596890
  0.5455940222868207  0.7369754273255822  0.6049109123062024
  0.4733938512596865  0.8442981923449580  0.6767620552325582
  0.4021015925387630  0.9243541879844983  0.7725580629844941
  0.3589938163759712  0.9848100944767424  0.8672456593992237
  0.3571184932170510  0.0049284588178296  0.0111549428294566
  0.2435438851744181  0.0999067936046529  0.0574294815891463
  0.1819260620155063  0.1658454801356584  0.1603624462209297
  0.0813515600775219  0.2313520329457361  0.2526732533914711
  0.9809208822674407  0.3053471080426391  0.3263574215116307
  0.9173107015503845  0.4021056414728648  0.4335858129844965
  0.8466657519379837  0.5024140314922505  0.5082561206395368
  0.7595656734496146  0.5914711637596923  0.5665514622093042
  0.6693819796511633  0.6548850125968997  0.6375672117248072
  0.5851474321705439  0.7278331254844943  0.7387673144379860
  0.5074367257751931  0.8305174239341113  0.8268882068798433
  0.3999517218992281  0.8553676075581365  0.9232865479651196
  0.4062695305232538  0.9166713459302329  0.0873732286821678
  0.3238852562984462  0.0199681356589139  0.1539342630813962
  0.2364854607558158  0.0959385770348860  0.2412265876937951
  0.1812636453488352  0.2075282548449593  0.3452655169573617
  0.0923560610465088  0.2610881162790690  0.4117722000968982
  0.9769045033914736  0.3219974331395363  0.4983365499031009
  0.9085055174418599  0.4265130557170522  0.6052426845930228
  0.8401505741279038  0.5146607965116274  0.6554989496124008
  0.7560768018410826  0.5920484956395313  0.7592260503875963
  0.6756836167635640  0.6796849612403122  0.8292418154069736
  0.5912391375969008  0.7614828551356609  0.9102716036821690
  0.5044944660852693  0.8135251758720941  0.0349780266472877
  0.4984527034883754  0.8269588691860434  0.1999990746123999
  0.4327647742248075  0.9357070426356557  0.2526170213178318
  0.3382471816860431  0.0110297606589143  0.3248635983527137
  0.2597201913759690  0.0760523619186060  0.4062134704457350
  0.1970937863372058  0.1373288609496157  0.4940351652131767
  0.0835651162790683  0.2447376274224808  0.5873678817829457
  0.9762238343023242  0.3377853197674412  0.6634742073643380
  0.9023254118217068  0.4353299801356556  0.7431980876937985
  0.8428321187015513  0.5115658938953516  0.8385031312984523
  0.7239908507751949  0.5831067059108506  0.9051484423449594
  0.6943510624999973  0.6785313827519346  0.0121016312984494
  0.5927583561046532  0.7196098260658914  0.1045242088178284
  0.5827024704457386  0.7445090813953499  0.2610772873062004
  0.5130164113372118  0.8498537199612386  0.3289876976744210
  0.4083371274224774  0.9038383716085292  0.4012877873062024
  0.3422997611434084  0.9710124883720965  0.4852169374999988
  0.2815611700581400  0.0719898948643376  0.5938828250968982
  0.1847284878875968  0.1593443042635627  0.6616258062015490
  0.0647038376937985  0.2482310348837231  0.7170276724806186
  0.9991026826550353  0.3396564045542618  0.8114632625969023
  0.9195333900193816  0.4295323750000009  0.9197804767441866
  0.7999333696705406  0.4983668168604680  0.9893617359496147
  0.7673822054263582  0.6059562470930260  0.0855134602713150
  0.6919516429263552  0.6809253507751905  0.1998329336240303
  0.2322712814922454  0.2526908042635654  0.7306454360465082
  0.1613178575581387  0.3173269622093002  0.8369617674418635
  0.0820032122093011  0.4148039893410882  0.9115324021317832
  0.9985727819767476  0.5037595954457359  0.9932673241279062
  0.8925791143410819  0.5794458745155069  0.0667192034883755
  0.8244110528100776  0.6795461405038736  0.1634670663759721
  0.7393467204457380  0.7543717286821732  0.2846846036821731
  0.6626273023255820  0.8564839510658899  0.3479344215116313
  0.5741098473837241  0.9317573817829441  0.4221994718992264
  0.4836944646317818  0.0104008488372074  0.4860000988372093
  0.3948638008720948  0.1021481167635656  0.5731217921511629
  0.3540685062984466  0.1610148410852688  0.6930359966085291
  0.3402446584302297  0.1602032911821709  0.8256053158914725
  0.2570566719961249  0.2391604607558122  0.9105669680232538
  0.1727413313953505  0.3401131807170543  0.9934839350775206
  0.0356947766472899  0.3910474883720951  0.0900593255813931
  0.9677450760658886  0.5003668386627922  0.1885688604651179
  0.9013026623062004  0.5964325644379826  0.2757618662790691
  0.8320876845930201  0.7016255450581426  0.3377957562984477
  0.7796932790697682  0.7820334680232577  0.4543275096899251
  0.6443511477713173  0.8339177301356600  0.5224071598837199
  0.5648373803294575  0.9172632911821736  0.5937395906007765
  0.4993581719961213  0.0038187950581374  0.6528041913759708
  0.4332525237403075  0.0566342548449583  0.7889214229651174
  0.4209863280038775  0.0872493687015492  0.9265611104651157
  0.3510895736434136  0.1850527897286796  0.0018933895348852
  0.2391008217054278  0.2432708900193816  0.0882267684108555
  0.1385724282945731  0.3433313192829459  0.1438214244186042
  0.0258461690891494  0.4128131375968991  0.2605066279069774
  0.9746938294573653  0.4961489685077538  0.3255923546511639
  0.9135949268410855  0.5833279423449582  0.4244073958333345
  0.8514942625969013  0.7049371908914708  0.5138320174418638
  0.7371604331395361  0.7672941797480632  0.5897338633720963
  0.6582805106589120  0.8374298842054273  0.6619477233527107
  0.5823329777131789  0.8982368047480591  0.7448423638565913
  0.5106916104651162  0.9744591816860435  0.8566729796511652
  0.5003159593023270  0.9808339602713190  0.0002922204457363
  0.4267426797480596  0.0910837839147263  0.0666310620155031
  0.3476545794573624  0.1933820673449631  0.1679639253875962
  0.2374993105620149  0.2730937635658890  0.2359953924418576
  0.1464092843992262  0.3312370731589169  0.3107342742248065
  0.0450651690891490  0.4058648420542639  0.4234396099806190
  0.9690827751937974  0.5104465227713177  0.5306369714147294
  0.9144732500000003  0.6269818376937977  0.6125394883720929
  0.8328474956395340  0.6672918677325583  0.6605533449612437
  0.7664657175387575  0.7412778091085244  0.7442242034883719
  0.6714417005813971  0.8310971274224812  0.8299204844961210
  0.5873300436046520  0.8813010251937996  0.9368285411821731
  0.5739406642441836  0.9206755460271339  0.1242856540697659
  0.5070495513565874  0.0095910726744179  0.1814175857558169
  0.3982928013565896  0.0971439127906990  0.2444515857558116
  0.3261003280038750  0.1679666138565921  0.3094175600775202
  0.2803147165697695  0.2768994103682161  0.4084365973837194
  0.1575684297480606  0.3312601540697671  0.4995167776162788
  0.0449253100775167  0.4212789491279096  0.5834127417635671
  0.9933018691860482  0.5043896676356567  0.6765074273255820
  0.9349381104651187  0.5981201947674393  0.7218724428294578
  0.8210609796511648  0.6686460251938016  0.8285209471899222
  0.7483420562015510  0.7619938958333350  0.9155116211240326
  0.6754262621124028  0.8269095687984489  0.0463030348837208
  0.6516114796511658  0.8297217732558124  0.2035676405038771
  0.5767640440891455  0.9381308294573643  0.2746394123062004
  0.5042954442829455  0.0071392887596886  0.3439936923449594
  0.4230587747093040  0.1005074278100793  0.4080486288759673
  0.3194512868217032  0.1807454714147312  0.4947121744186020
  0.2739575973837205  0.2585028406007766  0.5759963498062035
  0.1770966734496113  0.3441673376937970  0.6718402374031029
  0.0693088304263583  0.4308105988372120  0.7455762151162801
  0.0031352630813970  0.5147849636627910  0.8307445712209329
  0.9094116632751934  0.5927163406007736  0.9114991182170513
  0.8226008464147299  0.6714288885658917  0.9661562776162782
  0.7399545499031035  0.7525433657945726  0.1158221419573664
  0.3332665445736467  0.3316172655038727  0.6734999854651136
  0.2633317558139510  0.4292648410852706  0.7583512645348804
  0.1408925576550359  0.4883439680232584  0.8213594404069795
  0.1031659748062026  0.5668964912790670  0.9138976400193783
  0.9915115203488369  0.6417038517441824  0.9993584084302327
  0.9084845159883699  0.7372730000000018  0.0849756240310100
  0.8226184738372098  0.8416541526162789  0.1828713812984475
  0.7544591167635630  0.9236238037790727  0.2484460135658892
  0.6676877538759669  0.9971956022286790  0.3672267906976714
  0.5944389709302342  0.1258285503875953  0.4128636031976711
  0.4852332514534865  0.1927836584302298  0.4911594927325567
  0.4023329467054282  0.2604702984496114  0.5731274781976765
  0.3859608968023238  0.2677364617248088  0.7559854748062023
  0.3257399011627911  0.3445409123062007  0.8238569825581408
  0.2475150353682167  0.4440861375968979  0.9210942335271284
  0.1394006908914704  0.4775699176356554  0.0161236613372111
  0.0776346501938008  0.5762018764534886  0.0925732335271334
  0.9714673522286787  0.6712130450581384  0.1467660281007781
  0.9020399578488352  0.7550428018410855  0.2558127335271294
  0.8103944229651177  0.8477095499031009  0.3366278672480618
  0.7385349675387616  0.9068507422480607  0.4450189680232555
  0.6499447393410875  0.0053000499030986  0.5131921361434095
  0.5671586031976759  0.1161757814922453  0.5673052039728717
  0.4775177320736432  0.1844105794573636  0.6852436133720943
  0.4940575087209282  0.1814662659883695  0.8260896899224832
  0.4216966269379867  0.2549305237403132  0.9249382252906955
  0.3304137204457334  0.3559144670542622  0.0073771695736440
  0.2518580087209301  0.4340781400193805  0.1049074699612405
  0.1277983120155071  0.4979593527131811  0.1727244418604670
  0.0654851574612394  0.5890351366279063  0.2651902877906949
  0.9872009588178301  0.6356367853682201  0.3486397039728715
  0.9119576758720953  0.7757894588178260  0.4021075319767462
  0.8308072441860475  0.8446254622093008  0.5043477596899208
  0.7533336686046539  0.9222938895348847  0.5696644995155040
  0.6496469127907005  0.0371551022286809  0.6389554675387572
  0.5979889307170509  0.0775156753875947  0.7596720823643395
  0.6102503372093011  0.0532657718023231  0.9075650794573633
  0.5149336293604634  0.1495397311046531  0.9824692625969007
  0.4234627669573641  0.2540261027131763  0.0790935305232523
  0.3281534074612438  0.3321926114341096  0.1425671535852686
  0.2146025906007765  0.4079938343023244  0.2302655867248049
  0.1429328023255820  0.4831113309108517  0.3278980901162782
  0.0776088105620190  0.5721282596899258  0.3951777407945727
  0.9984143057170556  0.6651388856589122  0.5002752635658894
  0.9429893086240284  0.7993607059108498  0.5885243924418617
  0.8630019127907005  0.8590954709302352  0.6491037490310063
  0.7818692529069793  0.9176313900193804  0.7449057223837201
  0.6605822562984471  0.9724287965116289  0.8220967218992214
  0.6449965513565914  0.9748609341085270  0.0191927529069744
  0.5740363091085285  0.0684668226744165  0.0940828270348817
  0.5120505508720896  0.1717640188953453  0.1379665033914748
  0.4334800857558108  0.2596823091085270  0.2270159491279102
  0.3320584079457376  0.3305716894379813  0.2838837122093025
  0.2470448352713177  0.4114904723837185  0.3958036148255815
  0.1444217456395336  0.5071275726744204  0.4915619098837212
  0.0721932330426327  0.5757436017441862  0.5711567810077511
  0.0013581245155052  0.6844836773255807  0.6604547703488350
  0.9212087451550417  0.7559998158914709  0.7509223982558169
  0.8530727073643405  0.8495439835271341  0.8335743938953470
  0.7472499748062020  0.9256150426356555  0.9204573313953475
  0.7643463895348859  0.9175830043604662  0.0984706928294585
  0.6823755668604647  0.9959844728682157  0.1614909970930256
  0.6035745886627879  0.0885009951550373  0.2401578531976725
  0.4921874762596872  0.1648979738372063  0.3195331453488350
  0.4025988454457377  0.2457156603682193  0.4001544835271318
  0.3316318672480634  0.3478556240310056  0.4928160726744153
  0.2601190048449595  0.4033579079457397  0.5805435896317803
  0.1717155988372099  0.5040329234496141  0.6392201240310058
  0.0851350799418640  0.5953907437015502  0.7227440562015488
  0.0321912732558118  0.6752661002906990  0.8263460319767475
  0.9233468711240320  0.7488189365310092  0.9096014123062020
  0.8316761434108528  0.8221196627906977  0.9888613212209307
  0.4347636187015524  0.4409281099806179  0.5681489520348819
  0.3592454728682171  0.4996386332364366  0.6644469670542605
  0.2504855712209277  0.5410205717054239  0.7352886230620186
  0.1731607562984507  0.6503436850775159  0.8343297083333354
  0.0665114374999973  0.7230454825581418  0.9286342291666685
  0.0056866293604685  0.8223870881782958  0.9946579040697685
  0.9126658202519380  0.8962718972868231  0.0750707243217050
  0.8403851041666641  0.0148083682170537  0.1775269442829455
  0.7282970731589131  0.0704570193798446  0.2532483449612428
  0.6803396545542668  0.1416105406976769  0.3188839471899243
  0.6024352233527139  0.2439918672480630  0.4365283095930224
  0.5013908386627932  0.3075007776162764  0.4982965271317852
  0.4720065092054284  0.3325276899224789  0.6460928677325555
  0.4289593808139500  0.4159610116279069  0.7590468013565896
  0.3427735343992282  0.5117162684108507  0.8473067281976725
  0.2292545707364368  0.5596936933139531  0.9246567868217070
  0.1936378173449640  0.6344034588178289  0.9769929990310047
  0.0788608003875950  0.6994573246124034  0.0595901695736458
  0.0095262722868199  0.8289510755813936  0.1514392180232562
  0.9084566850775175  0.9644052393410831  0.2429775421511593
  0.8313048871124025  0.0239705978682139  0.3466410038759662
  0.7565656632751967  0.0996694113372101  0.4410415159883740
  0.6693573541666638  0.1606535833333353  0.5116924224806212
  0.5691562441860469  0.2521911017441880  0.5964304399224787
  0.5887250174418597  0.2543556734496093  0.7523893304263538
  0.5213267044573655  0.3186206002906999  0.8311990925387605
  0.4085068546511650  0.4128343851744205  0.9114204399224803
  0.3425918812984463  0.5124806908914721  0.0120281908914706
  0.2308430305232534  0.5754261681201527  0.1022503682170566
  0.1482030397286849  0.6611773338178324  0.1614178168604639
  0.0599695750969005  0.7345603953488364  0.2716477301356619
  0.9812996056201584  0.8589833178294555  0.3174239811046533
  0.9157007122093006  0.9384956346899216  0.3899115639534898
  0.8279814573643378  0.9949992553294607  0.5102580247093016
  0.7638692228682160  0.0691268900193833  0.5702485465116283
  0.6688916017441855  0.1685456671511645  0.6420642281976754
  0.6723927369186029  0.1607344326550404  0.8211634103682144
  0.6148054147286786  0.2378366652131803  0.9080743691860462
  0.5379850038759670  0.3213610736434092  0.9996475615310061
  0.4370352708333343  0.4051966283914723  0.0851811143410828
  0.3421686719961272  0.4927303735465145  0.1551309467054267
  0.2341313672480609  0.5850536521317835  0.2589396356589120
  0.1430980387596890  0.6634772577519357  0.3344731947674404
  0.0604040542635644  0.7390482277131767  0.4023159360465129
  0.9999737781007738  0.8470343735465136  0.4936076405038747
  0.9228039612403123  0.9263958454457395  0.5600909636627875
  0.8493283648255812  0.0107678817829466  0.6411955392441868
  0.7552377393410836  0.0877082766472839  0.7411700334302296
  0.7243606148255779  0.0602721182170569  0.9268073716085254
  0.6695291356589124  0.1357416206395357  0.9949279786821705
  0.6001365736434110  0.2544643866279088  0.0697769001938013
  0.5276618299418629  0.3285331128875981  0.1566686686046523
  0.4251024941860493  0.4400802572674394  0.2422808299418620
  0.3252821308139531  0.5078957567829434  0.3133985925387606
  0.2180430358527161  0.5864652504844940  0.3853479898255827
  0.1872033914728704  0.6473832189922462  0.4965924544573639
  0.0885817054263569  0.7520795891472858  0.5875066036821721
  0.0190058871124066  0.8746581763565899  0.6982761051356619
  0.9430620964147280  0.9627209733527167  0.7517938653100771
  0.8367099365310082  0.0218388798449638  0.8456141235465111
  0.8205707955426362  0.0107547243217070  0.9974411429263554
  0.7321768362403134  0.0784543076550364  0.0851479777131772
  0.6714644035852686  0.1703953875968978  0.1374702664728673
  0.5960205625000015  0.2234572562984525  0.2589400043604684
  0.4837762863372106  0.3250006942829486  0.3290335629844989
  0.4126284563953462  0.4294436608527121  0.3849708687015507
  0.3188171007751919  0.5162241976744184  0.4886590552325600
  0.2549626744186071  0.5788601143410830  0.5804107490310102
  0.1672149646317820  0.6918797495155005  0.6468678856589136
  0.0928570421511594  0.7604671293604639  0.7667286918604646
  0.0085288057170558  0.8298282834302313  0.8571913745155015
  0.8923581981589166  0.9367020731589122  0.9285319176356595
 
  0.00000000E+00  0.00000000E+00  0.00000000E+00
  0.00000000E+00  0.00000000E+00  0.00000000E+00
  0.00000000E+00  0.00000000E+00  0.00000000E+00
  0.00000000E+00  0.00000000E+00  0.00000000E+00
  0.00000000E+00  0.00000000E+00  0.00000000E+00
  0.00000000E+00  0.00000000E+00  0.00000000E+00
  0.00000000E+00  0.00000000E+00  0.00000000E+00
  0.00000000E+00  0.00000000E+00  0.00000000E+00
  0.00000000E+00  0.00000000E+00  0.00000000E+00
  0.00000000E+00  0.00000000E+00  0.00000000E+00
  0.00000000E+00  0.00000000E+00  0.00000000E+00
  0.00000000E+00  0.00000000E+00  0.00000000E+00
  0.00000000E+00  0.00000000E+00  0.00000000E+00
  0.00000000E+00  0.00000000E+00  0.00000000E+00
  0.00000000E+00  0.00000000E+00  0.00000000E+00
  0.00000000E+00  0.00000000E+00  0.00000000E+00
  0.00000000E+00  0.00000000E+00  0.00000000E+00
  0.00000000E+00  0.00000000E+00  0.00000000E+00
  0.00000000E+00  0.00000000E+00  0.00000000E+00
  0.00000000E+00  0.00000000E+00  0.00000000E+00
  0.00000000E+00  0.00000000E+00  0.00000000E+00
  0.00000000E+00  0.00000000E+00  0.00000000E+00
  0.00000000E+00  0.00000000E+00  0.00000000E+00
  0.00000000E+00  0.00000000E+00  0.00000000E+00
  0.00000000E+00  0.00000000E+00  0.00000000E+00
  0.00000000E+00  0.00000000E+00  0.00000000E+00
  0.00000000E+00  0.00000000E+00  0.00000000E+00
  0.00000000E+00  0.00000000E+00  0.00000000E+00
  0.00000000E+00  0.00000000E+00  0.00000000E+00
  0.00000000E+00  0.00000000E+00  0.00000000E+00
  0.00000000E+00  0.00000000E+00  0.00000000E+00
  0.00000000E+00  0.00000000E+00  0.00000000E+00
  0.00000000E+00  0.00000000E+00  0.00000000E+00
  0.00000000E+00  0.00000000E+00  0.00000000E+00
  0.00000000E+00  0.00000000E+00  0.00000000E+00
  0.00000000E+00  0.00000000E+00  0.00000000E+00
  0.00000000E+00  0.00000000E+00  0.00000000E+00
  0.00000000E+00  0.00000000E+00  0.00000000E+00
  0.00000000E+00  0.00000000E+00  0.00000000E+00
  0.00000000E+00  0.00000000E+00  0.00000000E+00
  0.00000000E+00  0.00000000E+00  0.00000000E+00
  0.00000000E+00  0.00000000E+00  0.00000000E+00
  0.00000000E+00  0.00000000E+00  0.00000000E+00
  0.00000000E+00  0.00000000E+00  0.00000000E+00
  0.00000000E+00  0.00000000E+00  0.00000000E+00
  0.00000000E+00  0.00000000E+00  0.00000000E+00
  0.00000000E+00  0.00000000E+00  0.00000000E+00
  0.00000000E+00  0.00000000E+00  0.00000000E+00
  0.00000000E+00  0.00000000E+00  0.00000000E+00
  0.00000000E+00  0.00000000E+00  0.00000000E+00
  0.00000000E+00  0.00000000E+00  0.00000000E+00
  0.00000000E+00  0.00000000E+00  0.00000000E+00
  0.00000000E+00  0.00000000E+00  0.00000000E+00
  0.00000000E+00  0.00000000E+00  0.00000000E+00
  0.00000000E+00  0.00000000E+00  0.00000000E+00
  0.00000000E+00  0.00000000E+00  0.00000000E+00
  0.00000000E+00  0.00000000E+00  0.00000000E+00
  0.00000000E+00  0.00000000E+00  0.00000000E+00
  0.00000000E+00  0.00000000E+00  0.00000000E+00
  0.00000000E+00  0.00000000E+00  0.00000000E+00
  0.00000000E+00  0.00000000E+00  0.00000000E+00
  0.00000000E+00  0.00000000E+00  0.00000000E+00
  0.00000000E+00  0.00000000E+00  0.00000000E+00
  0.00000000E+00  0.00000000E+00  0.00000000E+00
  0.00000000E+00  0.00000000E+00  0.00000000E+00
  0.00000000E+00  0.00000000E+00  0.00000000E+00
  0.00000000E+00  0.00000000E+00  0.00000000E+00
  0.00000000E+00  0.00000000E+00  0.00000000E+00