Li 
 1.0000000000000000
    20.6400000000000006    0.0000000000000000    0.0000000000000000
     0.0000000000000000   20.6400000000000006    0.0000000000000000
     0.0000000000000000    0.0000000000000000   20.6400000000000006
 Li 
 432
Cartesian
 -0.1462957200000000 -0.3064116800000000 -0.2481653500000000
 18.9106869599999996  1.2923738100000000  1.8878992000000001
 16.9083553600000016  3.2008406100000002  3.4096890300000000
 15.5348059799999998  5.1032213300000002  4.9295653499999998
 13.6997352499999998  6.8897407399999997  6.7913755800000004
 11.8762611299999996  8.4774816000000008  8.6685272399999995
 10.6264833000000003 10.5994001299999994 10.2199938899999996
  8.2871414600000008 12.1480563799999999 11.5961691800000004
  6.8862670899999996 13.1874357199999999 14.1006880300000006
  5.0614232599999998 15.7266702600000006 15.0065994899999993
  3.6801419599999998 16.8246532100000010 17.8653836499999983
  2.1054286100000001 18.5999921499999985 19.2550488800000004
  2.0705799900000001 18.3747494700000011  1.3207199700000001
  0.4466469000000000 -0.4456470100000000  3.3533755900000002
 19.1358976100000007  2.1805998600000001  5.4256658399999997
 17.1732465500000018  3.1303437999999999  7.0565527200000000
 15.6321624700000008  5.2998814699999999  8.7281637100000005
 14.0707110300000000  6.8125157200000004 10.8394412599999992
 11.8595784900000005  8.7796821000000005 12.0049840099999994
 10.0384037900000003 10.5783860300000008 13.6983093700000005
  8.7954110900000000 12.1486680800000002 16.2931684600000004
  6.2788093900000002 13.9573507400000008 17.4164300700000005
  4.5897622000000000 15.5441557100000001 18.9489750100000016
  3.4023898099999998 17.0285046300000005  0.5552696700000000
  3.3043054800000000 16.6842925899999983  3.5328090500000000
  1.8968352300000000 18.8254106599999993  4.9895636400000001
  0.8089586400000000 -0.2313532500000000  6.4753752100000002
 19.2185513400000012  1.5731938299999999  8.5325452800000008
 17.3532757500000017  3.1354680699999999 10.3737950699999999
 15.5919292499999997  4.6336485500000002 12.2035326299999998
 13.7480657399999995  7.1572243100000001 14.0179519100000007
 11.8943704300000004  8.5066598700000000 15.3371572999999994
 10.2394018500000001 10.9238164500000003 17.9229508899999992
  8.7556697900000007 12.7315147199999998 19.1882778099999989
  6.6178014000000003 13.4759878999999998 20.6539331900000001
  4.7538365999999996 15.1458111399999993  2.1259500999999998
  5.0581508499999996 15.1962274700000002  5.2343110399999997
  3.4917353800000002 16.9035949899999984  6.8637698100000000
  2.1607485600000000 18.6761961200000002  8.2969871600000005
  0.6083573799999999 -0.2854490300000000  9.8740143299999996
 19.5291856499999987  1.0705829200000001 11.3230671199999993
 17.0489930799999989  2.6803284800000000 13.3638024200000007
 15.4162040600000001  4.9700249999999997 15.1536013000000001
 14.1552926499999998  6.9486861700000002 16.8372452000000017
 12.3853532200000007  8.4258824499999996 19.0442959700000003
 10.2162784999999996 10.3340761200000006  0.0242754000000000
  8.7399559399999998 12.1937354199999994  1.7541661799999999
  6.8260431300000004 13.5679982900000002  3.4795272200000000
  7.1764290300000004 13.3057604200000004  6.6403423500000001
  5.1835029400000003 14.7948224899999996  8.1229454600000004
  3.4888626399999998 16.8536250599999988 10.2701262700000004
  1.9130977899999999 18.5674542199999983 11.5442757100000009
  0.8904111800000000 -0.2065497200000000 13.1499760499999994
 19.2180499800000000  1.1319617600000000 15.5262969099999992
 16.9986583399999986  3.2534846000000002 16.9536008000000002
 15.9213113100000001  4.9750892300000000 18.8927346999999983
 14.1586169000000002  7.1981145700000004  0.1786217100000000
 12.0692334900000002  8.6055591200000006  1.7879141000000001
 10.7404452300000006 10.6576563300000000  3.5452390100000000
  8.7250436300000001 12.3079564000000001  4.7139196300000004
  8.6847742799999992 11.5112027000000001  8.5236999699999991
  6.8374749300000000 13.5535322100000002 10.1043009700000006
  5.3714500200000002 15.5942447600000005 12.0112950200000004
  3.8299258200000001 17.3584905800000016 13.6248060899999999
  2.2696692600000001 19.3363427600000009 16.2957146500000007
  0.3433992800000000 -0.1447265300000000 17.6788966999999992
 18.7966042599999987  1.7398043800000000 18.3566997900000004
 17.3629673099999984  2.9682689400000002 20.4454916199999985
 15.5942638099999993  5.1221230999999996  1.5737122900000000
 13.9607678800000006  6.8676687699999999  3.5896096000000002
 11.7529876200000007  8.8886620300000008  5.3490063599999997
 10.6129021600000009 10.4919829900000003  6.8321889699999998
  1.9141490400000001  1.9366250899999999 18.8153622399999989
 -0.3802037600000000  3.3939819400000002 -0.7010628500000000
 18.9858354399999989  4.9032207300000001  1.5270699900000000
 17.2066274200000002  6.3175237400000004  4.1444301699999997
 15.2173669900000004  8.4409688099999993  5.0150925700000002
 13.9519863900000001  9.8433944300000000  6.8548541099999998
 12.7977593800000005 11.5285026199999994  8.6427371500000003
 10.4246421599999994 13.3553636800000000 10.0651102899999998
  8.2133013899999998 15.0791915700000008 12.2668398300000003
  6.7980609999999997 17.1524128500000010 14.1720680199999993
  5.0853210200000003 19.4966797800000009 15.9210719699999999
  3.6025602299999999  0.0342360400000000 18.2362190400000017
  3.5036217000000001 -0.0159405800000000 -0.1144629800000000
  1.9882294700000001  1.7385677700000000  0.9802785200000000
  0.0450621600000000  2.6688671199999998  3.0967734099999999
 19.3981945300000014  4.4801641400000003  5.1134583800000000
 17.4972507399999984  6.9763224299999997  7.0201626900000003
 15.5096875300000008  8.6182467900000006  8.9122676599999995
 13.8660325499999999 10.0551643800000008 10.2123807699999993
 11.7232865799999999 12.2802951500000006 11.9604308199999991
 10.0459263799999992 13.1788593499999998 14.0507004299999991
  8.6217992399999996 15.0305550900000000 15.4893173500000003
  6.7173341700000000 17.1147824100000001 17.1972388900000013
  5.4159986099999999 18.4191842200000018 19.2226590799999997
  5.1929122100000003 18.8661986400000004  1.8605296600000001
  3.2667142100000000  0.1312617500000000  3.2068712599999998
  1.6397072900000000  1.9700045100000001  4.7843321400000001
  0.4522360000000000  3.0628532300000000  7.0292730600000004
 19.1821154000000007  4.9953979700000000  8.8062105499999994
 17.5018347100000007  7.1592860500000004 10.8449757899999994
 15.4454747700000006  8.8368542699999999 12.3642035799999999
 13.7112634199999999 10.4776176000000003 13.1626068299999996
 12.0872590500000001 11.8677226099999995 15.7808787299999995
 10.7602893399999999 13.5517810399999998 16.7483112900000002
  8.5154412300000004 15.2301356400000003 19.1000351799999990
  6.8736024100000002 16.4924990700000009 21.6536666800000006
  6.9861965599999998 17.1725965299999999  3.6709303800000002
  5.1756591700000003 19.0978654100000007  4.8997555899999998
  3.5669173100000000  0.1298877100000000  6.1488101500000001
  1.9528313500000001  1.6348513899999999  8.3249319199999992
  0.6641356100000000  3.3615359400000000 10.5423399700000004
 19.0571015400000014  5.1210424699999999 11.6221380100000005
 17.2278934100000001  6.3584300999999996 13.4099867600000007
 15.5550039800000004  8.8821328000000008 15.2377701099999996
 13.5942944600000004 10.2926760300000009 16.6550077799999983
 12.7580785599999995 12.3994076900000003 18.8230627199999994
 10.7536210600000004 13.7287712000000006 20.3861950299999997
  8.8031847200000009 14.8968419799999996  2.2388344000000000
  8.5138171000000007 15.6941171700000002  5.3308670999999999
  6.8082960999999997 17.3952261700000008  6.7189578299999999
  5.0633416999999996 18.8899688300000008  8.4414106600000007
  3.5901601900000002  0.3958017100000000 10.8092398000000003
  2.0234168499999998  2.0746386700000001 12.2065428499999999
 -0.5482289600000000  3.2752442300000002 13.7736290100000005
 17.9749193900000002  5.4902585400000001 15.6170893599999996
 17.0349957699999983  6.9742821800000003 17.1072613900000015
 15.8447517500000004  8.9038295600000001 18.5352002599999999
 13.7542074099999994 10.5675132600000001 20.6229749200000008
 12.1919572100000000 12.3209076799999995  2.0469355999999999
  9.7626804699999994 13.5126232000000002  3.5744847900000001
 10.5266953700000006 13.3595526499999995  7.0791941899999999
  9.0348916500000005 15.6052453300000007  8.6854993599999997
  6.8383479600000001 16.8237343999999993 10.0095308900000006
  5.6337234599999997 18.6920274900000010 12.1880995700000003
  3.5428315900000000  0.1009482300000000 13.7024593800000005
  1.9103937200000001  1.7733245500000001 15.8955121899999998
 -0.0028835000000000  3.7382090300000002 17.0567120800000005
 18.5477854999999998  5.8005229500000004 18.8387182600000003
 16.8184919199999996  6.6776553700000001 21.0206759199999986
 15.2208623000000003  9.0128522800000006  1.6237130200000001
 13.8241806599999997 10.2700178999999991  3.7911723500000001
 11.9905504300000008 11.8034365599999997  5.2372283299999998
  3.4429035200000002  4.1034952400000000 16.9974397300000000
  1.2454726500000000  5.1353492200000002 18.6281391399999983
 -0.0691791600000000  6.5700829900000004 -0.1941401900000000
 18.3713989300000016  8.4950052500000002  1.8782064000000001
 17.0685944899999988 10.2611055100000002  3.6019146599999998
 15.3080278700000001 12.1435412100000004  5.5821738700000001
 13.5847527299999999 13.9995259300000008  7.3004539700000004
 12.1352793499999994 15.4053233800000005  8.4534965700000004
 10.5913978100000001 17.1214363899999995 10.4411412200000004
  8.3531072000000002 18.7522126000000000 11.7426616500000005
  7.2908538800000002 21.2343268400000014 14.1443179699999995
  5.4062604700000003  1.3697677600000000 15.9438647499999995
  5.4622449499999997  2.3619469899999999 18.8494336400000009
  3.3368296700000002  4.0101428900000000 -0.0717371800000000
  1.0883022000000000  4.9360206700000004  1.8682835900000001
 -0.5214099800000001  6.5181923199999998  3.4205159799999998
 18.6957526200000004  8.5923582300000003  5.1782314200000004
 17.1160475500000011 10.0132906699999999  6.9686965599999997
 15.6394571599999992 12.5885461900000006  8.7262510300000002
 13.3165172900000002 14.3580699999999997 11.0260345700000002
 11.2610606200000003 15.2111728199999998 12.4853612300000005
  9.7708490900000005 17.4263146900000017 13.9683688200000002
  8.2993768699999997 19.0786704399999998 15.9455984199999996
  7.4096323699999997 20.3264803500000006 17.8999504099999989
  7.3709256999999999  0.1017233900000000  0.2302380200000000
  5.0267457899999997  2.0620762199999998  1.1853445000000000
  3.7549539200000002  3.4230507100000001  3.3098808900000001
  1.6790962000000000  4.7751059600000003  5.2151759499999999
 -0.3937929900000000  6.3023643099999997  6.7360171800000002
 18.9332928799999998  8.2994604400000007  8.9492111800000007
 17.4751811199999985 10.3698256099999995 10.4904063300000008
 15.6774354999999996 12.2079648200000008 11.6936221800000002
 13.8160440599999994 13.5168266599999995 13.1593872500000000
 12.0774430000000006 15.0224757100000001 15.2481573699999995
 10.4734940200000004 17.1418796299999983 17.0669725899999989
  8.2550035400000006 17.6547874200000017 19.0566343499999995
  8.3854031100000004 18.9200965799999992  1.8033834399999999
  6.6849916900000004  0.4121423200000000  3.1772031900000002
  4.8810599100000003  1.9801722300000000  4.9789167699999997
  3.7412816400000000  4.2833831800000004  7.1262802699999996
  1.9062291000000000  5.3888587200000000  8.4989782100000006
 -0.4766910500000000  6.6460270200000000 10.2856663899999994
 18.7515538799999995  8.8032294699999998 12.4922090099999998
 17.3407078500000011 10.6225988400000002 13.5294983200000001
 15.6054251900000001 12.2198809500000003 15.6704256799999992
 13.9461098499999991 14.0286975999999992 17.1155510699999986
 12.2031758000000004 15.7170061299999997 18.7880059000000017
 10.4127657800000009 16.7911596299999992 21.3619464699999995
 10.2880637999999998 17.0684310600000018  4.1279808999999998
  8.9322649399999996 19.3129933600000001  5.2140153199999997
  6.9814218300000004  0.2276542600000000  6.7051846700000004
  5.3606247500000004  1.5697207500000001  8.3842460299999999
  4.0680157499999998  2.8344676899999999 10.1968858099999995
  1.7247840000000001  5.0513846300000003 12.1232730800000006
 -0.4907400600000000  6.9718890000000000 13.6941076400000004
 18.6239965000000005  8.9852107900000000 15.3396085299999996
 17.3960549299999983 10.5587200499999998 17.3067046299999987
 14.9431711600000003 12.0353224099999991 18.6822638499999982
 14.3314059300000007 14.0048877399999991 20.8897776700000009
 12.2345324699999995 14.8527468099999993  2.1573796700000001
 12.0269789899999999 15.3666674400000005  5.3886352100000003
 10.5886587300000006 17.5409807800000017  6.7903060799999997
  8.4280783100000001 18.6552239899999996  8.2825799300000007
  7.0650670699999996 -0.5983022400000000 10.0148775899999993
  5.8114225499999996  1.4858714300000000 12.2577415100000007
  3.8127959900000001  3.2888664400000001 13.6559566399999994
  1.3354872099999999  5.1234885600000002 14.7994511600000003
 -0.0185206300000000  7.0105081900000004 16.7486017400000016
 18.9791691699999987  8.8655482200000009 18.9842690400000009
 16.5106247500000016 10.2862910999999997 20.4204262300000003
 15.8387687199999991 12.5069369399999992  1.7649978200000001
 14.2818819099999992 14.0542992400000006  4.1245517500000002
  4.7940792500000002  5.2155382000000001 15.0805217999999996
  3.3296005800000001  6.5496284999999999 17.2748908800000009
  1.6925463000000001  8.5615543400000007 18.8140287800000010
 -0.0294577800000000 10.3975980499999991 -0.1389624300000000
 18.4228329200000012 11.9597628500000006  1.3770843600000000
 17.0158441300000014 14.0258323399999991  3.3739602500000001
 15.2601163100000008 15.5702324799999996  5.8758902199999996
 13.6766275200000003 17.6778287499999998  7.1813664599999996
 11.8496272499999993 19.2314723600000015  8.7141970999999998
  9.9834537500000007  0.2146735200000000 10.0310420400000009
  8.1499888499999997  2.1083371299999998 11.8292337900000000
  7.3079739699999999  3.3233463200000002 14.3042629699999999
  7.0226497500000002  3.3065959299999998 17.0404937200000006
  5.3056497100000000  4.9362719100000003 18.7941022199999992
  3.5653810799999999  7.0199360500000001 -0.1344915800000000
  0.7367401900000000  8.0712201599999993  1.8588244800000000
 -0.6657416300000000 10.3275715500000000  3.8920612800000001
 18.6028869499999985 12.3103681300000005  5.6917249200000004
 17.1742898100000012 14.4815512500000008  6.9721044100000000
 16.0928692799999986 16.1411707799999995  9.3773198000000004
 13.2994076900000007 17.2120619499999989 10.7824837799999997
 11.6582435300000000 18.9323143300000005 12.2547851500000000
 10.3067526699999998 20.7188199299999987 13.4738785100000005
  8.9423320900000007  1.1689310200000000 16.2833381700000004
  8.6891578099999993  1.8008269699999999 19.1242213200000002
  7.2464887999999998  3.8194895799999999  0.0390795600000000
  4.9350409600000003  5.0211111700000002  1.8210005000000000
  2.8601349200000001  7.0863584299999998  2.9684742000000002
  0.5334649299999999  8.5204631600000003  5.3768567999999997
 -0.5223193600000000 10.2405147099999994  6.7202261999999999
 18.8565992899999983 12.0398887299999995  8.7597686499999998
 17.5748415800000011 14.5499036200000003 10.6054928400000001
 15.2149913399999992 15.8369518700000000 12.1721069400000008
 13.5869097399999994 17.2845528100000010 13.6626010099999995
 12.0193526599999991 18.5396076500000007 15.3735463899999996
 10.5406748399999994 -0.5271624900000000 17.6817303000000017
 10.3265214000000007 -0.3955870600000000  0.0060314300000000
  8.8079689099999996  1.8799693000000000  1.3752651199999999
  7.1755905200000001  3.9914058699999999  3.4667754199999998
  4.9019857699999996  5.6366552800000003  4.8709448999999996
  3.0218876300000002  6.8367331900000003  6.4135554199999998
  0.9301450900000000  8.3770503400000003  8.7397935499999999
 -0.6381315200000000 10.5356162300000005 10.9523470900000000
 18.8747278799999982 12.9409051300000009 12.6428150400000003
 17.1899723100000017 13.7729041500000005 13.6338210400000008
 15.8198524099999993 15.2999739800000008 15.3607875600000003
 13.8585566999999994 17.1538447100000013 17.1295588000000016
 12.1224921000000005 18.1900531600000015 19.3361410900000017
 11.8461353099999993 19.0027432699999999  2.5652558999999999
 10.4655027399999998  0.1979597400000000  3.7444589700000002
  8.2207634200000008  2.0050503599999998  5.0454807300000004
  6.7307107700000000  3.4668309100000001  6.3863784399999997
  5.7856957500000004  5.7152038300000001  8.4301313699999998
  3.2522123900000000  6.8372095799999997 10.3100262899999997
  0.9272584000000000  8.6951975099999999 12.0416389899999992
 -0.1382494200000000 10.4106027399999999 13.9631132999999998
 19.2971226000000016 12.3452008200000005 14.8994472200000008
 16.9466986199999994 13.8008539599999995 17.1006723500000000
 15.4457800400000007 15.7275540100000004 18.8961598600000009
 13.9407980499999997 17.0674135000000007  0.9556946400000000
 13.4492609400000003 17.1254573999999984  4.2016361000000000
 11.9044098700000003 19.3630203200000004  5.6685574699999997
 10.4086579700000001  0.1473549200000000  7.1000298099999997
  8.7319331099999999  2.0744733100000001  8.4221237000000002
  6.5934745599999998  3.7305865300000001 10.2108592799999993
  5.6544848099999996  5.3354986300000000 11.8885646600000001
  3.6552753400000002  7.1036138500000003 13.8667824999999993
  1.4305342599999999  8.8919307599999993 15.3886930799999995
  0.0647118300000000 10.6251616500000008 17.1465679500000014
 18.7702567299999998 12.2336652699999995 18.8133417999999999
 16.9784814699999984 13.8582922600000007 -0.6985344300000000
 15.2726619100000001 15.5324950699999995  2.3905690100000001
  6.8786214799999996  6.8445803600000001 13.9010397000000001
  5.4351674399999998  8.8600263199999993 15.6523701000000006
  2.9080223900000002 10.0794195000000002 16.9528588499999984
  2.1293457199999999 11.7007435799999993 18.8628472900000013
 -0.1752022200000000 13.2447675000000000 -0.0132424500000000
 18.7511204099999986 15.2173147199999992  1.7538968800000001
 16.9788452999999997 17.3717417099999984  3.7744653100000001
 15.5720361700000005 19.0635953100000002  5.1279257200000004
 13.7810752399999998 -0.0578827700000000  7.5795609600000002
 12.2692203600000003  2.5971012800000000  8.5215047700000000
 10.0152143099999993  3.9790547100000002 10.1375319299999997
  8.3041520200000001  5.3761069600000004 11.8293511500000008
  7.9662329099999996  5.5260805700000004 15.6035401999999994
  6.7232715599999997  7.1113244299999998 17.0044081200000008
  5.1087103300000001  9.1659378799999995 19.0113849799999990
  2.8772302600000002  9.8570431000000003  0.3327923700000000
  1.6023791800000000 11.8928067300000002  1.9107115400000001
 -0.5889138500000000 13.8538372499999998  3.0292508200000001
 18.6181047299999989 15.5840834299999997  5.2799748199999996
 16.7265408899999990 17.4967251099999999  6.9479991800000001
 15.2433617300000002 18.7173993199999984  9.1851915000000002
 13.4148594200000009  0.1093930300000000 10.5922856900000006
 11.7061535699999997  2.3978681300000000 11.7091794100000008
  9.8559659899999996  3.8062343599999999 14.1434281800000008
 10.1973469800000007  3.7454637300000000 17.0504911999999997
  8.7038183799999995  5.2617660099999997 19.0907249700000001
  6.8197391900000000  7.3460745999999997  0.1522647800000000
  5.1983493000000003  8.9593728099999996  2.1652901800000000
  2.6377571600000000 10.2778810400000005  3.5650324800000002
  1.3516136500000000 12.1576852199999994  5.4735275400000001
 -0.2641722100000000 13.1195432499999995  7.1959234900000002
 18.8228064300000000 16.0122944300000007  8.2994994599999998
 17.1478615199999993 17.4330695400000018 10.4097377600000005
 15.5488069200000005 19.0361458799999994 11.7578752699999995
 13.4087122799999996  0.7668813100000000 13.1880408500000001
 12.3424915300000002  1.5999235400000000 15.6796317799999994
 12.5955669599999993  1.0994055300000001 18.7321432399999992
 10.6282301100000005  3.0865000500000002 -0.3618344200000000
  8.7402715099999995  5.2430987599999996  1.6324904700000000
  6.7730863299999999  6.8564555000000000  2.9425860500000001
  4.4293974699999996  8.4209927400000009  4.7526817100000001
  2.9501330399999999  9.9714178699999998  6.7678165799999999
  1.6018458499999999 11.8087272799999994  8.1564685699999995
 -0.0327287300000000 13.7284666000000009 10.3256814400000003
 19.4632993300000017 16.4988049699999983 12.1471434600000006
 17.8123594800000014 17.7317305199999993 13.3975013799999996
 16.1377813799999998 18.9399118900000012 15.3748541099999994
 13.6344177700000007 -0.5690696400000000 16.9680763399999996
 13.3127288200000002 -0.5188703200000000  0.3961384200000000
 11.8481094200000001  1.4131552199999999  1.9418695500000001
 10.5687233700000007  3.5452093499999999  2.8476286300000000
  8.9470289699999999  5.3598428599999997  4.6856091900000001
  6.8536855399999999  6.8229996699999997  5.8593598199999999
  5.0990054000000002  8.4931633499999997  8.1693866100000001
  2.9808648299999998 10.4671131000000006 10.1458378200000006
  1.4900683299999999 11.8833479400000002 11.7886759600000008
  0.0280316900000000 14.1277431000000000 13.6317864600000007
 19.0137484999999984 15.6038361999999999 15.4990383000000005
 17.6074206800000006 17.5345878199999987 17.2049754899999989
 15.4232394799999994 19.1046944799999991 18.9982393199999997
 15.7761094800000006 18.9389132099999991  2.0324350999999998
 14.0842317000000001 -0.0828804800000000  3.3331741799999999
 12.4577795099999999  1.8266605400000000  4.9568580899999999
 10.1587495099999998  3.4034941800000000  6.5951641199999997
  8.3096401699999998  5.0715712300000000  8.2591885400000002
  6.8448817399999999  7.1797400800000002 10.1717237399999991
  5.3688562600000003  8.3253072199999991 11.9824196900000004
  3.5442099599999999 10.4032395399999995 13.1935033599999993
  1.7571880499999999 12.2888649500000007 14.9174373199999994
  0.6644278800000000 13.9374923099999997 17.0557820999999983
 19.0578794199999990 15.4556228499999992 18.7741731499999993
 17.1657955999999992 16.9685498400000014 -0.2299023300000000
  8.9735210900000002  9.1007561900000002 11.7265943700000008
  7.4148265599999998 10.3125413899999998 13.7141853999999999
  5.1700221900000001 11.1666646000000007 15.1763571800000001
  3.5740380100000002 13.4230936599999993 17.2205651800000012
  1.3727960699999999 14.9236587600000004 19.1670104899999991
  0.1173720300000000 16.9740694999999988 -0.1102608600000000
 18.8374225300000013 18.4990519599999992  1.5494597500000000
 17.3455485500000002 20.9456447200000007  3.6641561299999998
 15.0320515900000000  1.4542328800000000  5.2270458399999997
 14.0422104700000006  2.9228415600000002  6.5817646700000001
 12.4342630100000004  5.0359921400000003  9.0099443099999998
 10.3487069100000006  6.3468160500000002 10.2848403200000007
  9.7422143499999994  6.8633715200000003 13.3353567900000005
  8.8537216200000000  8.5854352800000004 15.6667259800000007
  7.0748457499999997 10.5618237799999992 17.4884108699999992
  4.7318143399999997 11.5520778300000000 19.0849160799999993
  3.9966845499999999 13.0940873900000003 -0.4748645000000000
  1.6276869199999999 14.4367991799999995  1.2299411000000000
  0.1966222600000000 17.1095502000000010  3.1257054599999998
 18.7505459799999983 19.9053241400000012  5.0150564700000002
 17.1581328699999993 21.1347531400000008  7.1546703200000001
 15.6155152899999994  2.0571766500000002  9.1030968899999998
 13.8155357900000002  3.3158899599999998 10.5613316000000008
 11.7473848800000003  5.2052243400000000 12.3103242799999997
 12.1512843600000000  5.2499010999999998 15.5293157799999992
 10.7601831800000003  6.5763291900000000 17.1559492700000007
  8.4315814800000002  8.5209017100000004 18.8117178799999998
  7.0710964299999999 10.5776014600000003  0.2482618600000000
  4.7646001499999997 11.8767961100000008  2.1104476000000001
  3.0589107400000000 13.6467001700000008  3.3316637400000002
  1.2377720299999999 15.1613265599999991  5.6068091500000001
 -0.3859761400000000 17.7294156799999989  6.5516309699999997
 18.9000626999999994 19.3705499000000003  8.0477746799999998
 17.0895372799999983 -0.1032153700000000 10.5317256300000004
 15.7662607599999998  1.4267790100000000 11.7699300000000004
 13.8059226600000002  3.4787825699999999 13.2522056700000004
 13.8781860899999998  3.3175586899999998 16.9488127900000016
 12.6895837599999997  4.9089487700000003 18.7426549800000011
 11.1040104799999995  6.6328925600000002 -0.0072743300000000
  9.0204079900000007  8.3632584100000003  1.7581382000000001
  7.0623613900000004 10.1699549099999995  3.2019027400000000
  4.8324714200000001 12.0755073799999995  5.3445140799999997
  2.9535435200000002 13.6941705999999996  6.9035267400000002
  1.2467396799999999 15.2539554200000005  8.3038009200000005
 -0.0005412200000000 17.4827894700000002 10.1880617000000004
 19.0466737600000009 19.1208102500000017 11.5602774900000007
 17.5301374500000016 20.8622490800000016 13.2342759300000008
 15.5881069399999994  1.8102988300000000 15.2977494899999993
 14.9508030900000009  1.2440165200000000 19.1293041499999994
 13.8190813600000002  2.8017070500000001 -0.1046865200000000
 12.3868188799999999  5.2521449400000000  1.4401952200000001
 10.8909401700000004  6.7809234500000004  3.2336413199999998
  8.7741154800000007  9.0832565100000000  5.0006763300000001
  6.7138231800000003 10.4829684200000006  6.4685469500000004
  4.5004082600000004 12.1046427699999999  7.9535825100000004
  3.8638780000000001 13.3619896399999991 10.2496682600000000
  1.8283263999999999 15.5229227200000004 12.1261363000000006
  0.3922815100000000 18.0529447599999990 14.4124188100000001
 19.4648016699999999 19.8705608900000001 15.5170253799999998
 17.2696930900000005 21.0907544800000011 17.4534755100000005
 16.9365812200000008  0.2219775100000000 -0.0528148100000000
 15.1121298999999993  1.6192969100000001  1.7574542600000000
 13.8590252899999999  3.5169608000000001  2.8373862999999999
 12.3018644100000003  4.6121577699999996  5.3445216899999997
  9.9851425500000008  6.7080143300000001  6.7912527400000000
  8.5166513399999992  8.8637171600000002  7.9457987299999999
  6.5803849599999999 10.6548674400000003 10.0859228999999999
  5.2624295999999999 11.9476727599999997 11.9796778600000007
  3.4513168699999999 14.2803980300000006 13.3513531600000004
  1.9165693500000001 15.6960415500000003 15.8252801999999999
  0.1760345500000000 17.1276557700000005 17.6924299699999992
 18.4182732099999988 19.3335307900000011 19.1648987800000015
