Li                                      
   1.00000000000000     
    22.0829999999999984   -0.0000000000000006    0.0000000000000000
    -0.0000000000000006   22.0829999999999984    0.0000000000000000
     0.0000000000000006    0.0000000000000006   22.0829999999999984
   Li
   500
Direct
  0.0099108567676467  0.9936474767921055  0.0151613345107080
  0.9981445890503977  0.1090047172032769  0.0959160041660994
  0.9994709681655607  0.2041605148756958  0.2100598007517078
  0.0082645220305224  0.3105330724992044  0.3038402232486561
  0.9955637766607808  0.4046815419100653  0.3936836811121651
  0.9969140963637173  0.5089394919168626  0.4851109441651928
  0.0108449073948265  0.6087114857582776  0.6024570511252989
  0.0064417289317547  0.6918939419462902  0.7089306892179508
  0.0221054639315312  0.7957215532309903  0.8016257632568013
  0.0098014957206871  0.9017507417470441  0.8897122347507107
  0.1131727527962667  0.0114318199520014  0.1131638740207421
  0.0821057682380086  0.1095322243354602  0.2080382842005193
  0.0988562545849732  0.1981567490830045  0.3052676099261902
  0.1042404641579466  0.2921445709369195  0.4106651510211492
  0.0837120667481770  0.4014915129284944  0.5044245591631551
  0.0876780346873147  0.4964166874971667  0.5941941982520476
  0.1074680740841387  0.5870881560476420  0.6928654489879094
  0.1095711687723622  0.6895294661051494  0.8006841307793309
  0.1229857990309284  0.8088566490060245  0.9089461395643710
  0.1203457116333837  0.9014346569759510  0.9953858492958361
  0.1989516551193233  0.0072335946202955  0.2095253516279456
  0.1987184571842562  0.0991877860797885  0.3180821106733660
  0.2022074890187042  0.2018504098175100  0.4121249825657713
  0.1902865000226441  0.3079101150206043  0.5130661042430802
  0.2046659480143092  0.4046925032830657  0.6080044015758759
  0.2033519431236712  0.4999817841778764  0.6969294389349301
  0.2053035900919227  0.5914243680659297  0.7983723139971914
  0.2105149594710838  0.6999382651813590  0.8836611950369075
  0.1959702277770248  0.8032776022279577  0.9998481578589846
  0.1884487008105751  0.9047552936648131  0.1147435203550273
  0.3006932635964290  0.9948430412534535  0.2914089186251871
  0.3005088570393539  0.1038750142643678  0.3994540402119284
  0.3008347493547063  0.2039233781641983  0.5128520536159016
  0.3132681406511821  0.2971112457546496  0.6185209844676933
  0.2956462328487959  0.3980643531223080  0.7030582882760470
  0.2971180315174564  0.4910097464112653  0.8028714300593194
  0.3058538314540584  0.5977054005343447  0.9053174278857057
  0.2982046927500761  0.6933504940451911  0.0040636865462105
  0.2820792849703366  0.8061211932255574  0.0911318643300305
  0.2978312647738051  0.9054993773490949  0.1950705252909444
  0.4194571362586572  0.9986736815650019  0.4041805483856393
  0.4025576570212408  0.1117800230946884  0.5102822904496662
  0.4089121627496297  0.1994631617081026  0.5990549866413062
  0.4044390965901385  0.3022191373454675  0.6977311551872489
  0.3988076638137912  0.3776143531223113  0.7921347090522133
  0.3964331848027882  0.5039359172213906  0.8813595313136773
  0.4072147534302388  0.5806265108907311  0.0036380378571721
  0.3948159040891213  0.7066516754969854  0.1063952171353506
  0.4012683195218045  0.8183496481456345  0.1914211325454005
  0.4104964058325393  0.8964990685142453  0.3064555169134664
  0.5035204129873634  0.0132733016347402  0.5071026346058076
  0.5214360086944723  0.1197660177512105  0.6114698116197985
  0.4960014223610898  0.1953457478603440  0.7195704686863209
  0.5100695734275220  0.3123158207671040  0.7959223936965074
  0.5042436548476203  0.3949669487841305  0.8910104351763835
  0.5045638762849265  0.4902981596703313  0.9849575800389445
  0.4950949857356335  0.6070107204637054  0.0947822297695069
  0.5079107086899413  0.7008591590816451  0.1960052162296790
  0.5215777928723426  0.7999472290902503  0.2914554218176875
  0.5160738246615040  0.9084407616718764  0.3981123443372709
  0.6096903554770634  0.9986364429651786  0.5989395290494954
  0.6114895276909849  0.1074817361771494  0.6966796232395964
  0.6040281229905347  0.1999071385228461  0.8103501353982736
  0.6141026749083025  0.2939075093963694  0.9058597405243844
  0.6012662591133449  0.3938785060906582  0.0006067807815953
  0.5857989702486108  0.5057321672779977  0.1002188520581413
  0.5949735217135341  0.5978170859937535  0.1862012412262857
  0.5978158705791756  0.7007149137345436  0.2925375506045356
  0.6107994262554897  0.8159908218991987  0.3964558556355584
  0.5901300969071244  0.9073010727709132  0.5120440565140640
  0.7121655966127776  0.9945159706561597  0.6890891993841421
  0.7014942747815098  0.1007306403115535  0.8107482488792286
  0.7070174482633718  0.1933042910836420  0.9051714490784804
  0.7051945804464950  0.2971484037494889  0.0009967010822791
  0.6886783951455868  0.3922110089208886  0.1060297957705032
  0.6889940913825114  0.5006794724448653  0.1804609912602473
  0.6997259815242529  0.5966583765792706  0.2962876769460649
  0.6905903065706624  0.7087054811393401  0.3923949929810249
  0.7043186048091314  0.8047332486528092  0.5146642639134171
  0.7035713671149750  0.8999831671421461  0.5979901861160144
  0.7924096377303798  0.9928682049540356  0.7867222030521219
  0.7903340782502397  0.1029479083457829  0.9056205936693402
  0.8034571032015592  0.2028198922247881  0.0164900692840675
  0.8016518362541305  0.3179718756509544  0.0974234492596082
  0.7815589104741179  0.4205721188244382  0.1922013096046769
  0.7958933115971547  0.5047962500566072  0.3006598315446283
  0.8141435316759527  0.6072851591722142  0.3999867454603105
  0.7942188765113443  0.6882898627903842  0.5168471358058255
  0.7955762138296407  0.7986426395870154  0.6122015890051173
  0.7957908535977936  0.8982761744328229  0.6950775759634098
  0.9078814047004471  0.9960201444550094  0.9019049707920104
  0.8931934949961544  0.0979563474165630  0.0051821908255221
  0.8926394937282041  0.2053455318570840  0.1070012688493378
  0.8945000185663190  0.3191045256532163  0.1961894402934377
  0.8995095634651094  0.3967081130281187  0.2966158732962043
  0.8972192021011622  0.5040485952995510  0.3936438957569166
  0.9066115708916342  0.6093293089707004  0.5040022786759053
  0.8776437091880638  0.6925567364035672  0.6113171131639703
  0.9009660304306450  0.8060317026672124  0.7073967988950756
  0.8978615129285004  0.8876635796766763  0.7938952157768426
  0.1057734189195330  0.1079682783136349  0.9928349703391746
  0.0995435810351850  0.2054917647058829  0.1075764665127039
  0.0926257388036049  0.2981735624688682  0.2064578105329886
  0.0936481207263498  0.4003805859711065  0.3066571118054640
  0.0786005972920378  0.4978710668840307  0.4052150980392142
  0.0866997708644632  0.6137014187383940  0.5000709912602446
  0.0987638907757074  0.7104943494996121  0.5943540651179617
  0.0992152918534615  0.8083960748086767  0.6903590657972174
  0.1071021641081344  0.9087330480460096  0.7882912240184794
  0.1096931644251242  0.9815212163202460  0.9061012742833867
  0.1979080134039748  0.1091938550015854  0.0968047063351918
  0.1922651931349932  0.1905548299596944  0.1910624195082207
  0.1994755490648927  0.3055986016392680  0.3033405293664799
  0.1945744500294353  0.3952983177104556  0.3959217542906330
  0.1866312181315948  0.4937619372367905  0.4955427591359864
  0.2019657632568013  0.5990187008105750  0.5995853941946265
  0.1948910003169857  0.7145271050129054  0.7078358841642896
  0.1869602884571862  0.8029825272834330  0.8016483888058659
  0.1931081107639372  0.9084108010686975  0.8906927953629520
  0.2048374876601926  0.0013474337725867  0.0146398396956968
  0.2880129230629862  0.0987365113435672  0.1971321278811757
  0.2911727147579555  0.2067835090340964  0.2842390254947276
  0.2895870801068696  0.3086842494226332  0.4099130154417452
  0.2907642127428360  0.3999988959833374  0.5094464936829226
  0.2996406665760958  0.5030766010052972  0.6098164963999437
  0.3150910555631015  0.5934699039985531  0.7036570705972949
  0.2993598772811694  0.7046027487207382  0.8065439324367176
  0.2993725272834311  0.7980758728433628  0.9104343861794177
  0.2824059516370028  0.9044697473169379  0.9987499773581519
  0.3052830684236767  0.0091716451569113  0.1125062052257420
  0.3885364832676714  0.1028955336684305  0.2937390775709829
  0.3850062482452543  0.2105161341303301  0.4110964669655388
  0.4117346465607028  0.3016866757234098  0.5014205877824551
  0.3913758379749126  0.4079094280668372  0.5999097337318275
  0.4045876203414380  0.4863192990082865  0.7090684490331967
  0.3965281555948010  0.6002078173255470  0.7879346325227559
  0.4066689965131545  0.6900061508852957  0.9091959412217534
  0.3995512602454383  0.8026292881401957  0.0088074392066275
  0.4001334239007406  0.8933073712810753  0.0943977000407585
  0.4107138916813824  0.9847996952406817  0.1931029407236338
  0.4868371041072308  0.1063099275460786  0.3935311379794442
  0.4941320105963882  0.2119174718108923  0.4981088470769350
  0.4968090716840976  0.2930283362767767  0.6151092772721114
  0.5036375945297280  0.3812755875560399  0.6965123950550165
  0.4959277589095663  0.4945763813793391  0.8022459366933816
  0.5052937408866569  0.5803920712765489  0.9038353362314879
  0.4916185799030899  0.7062518194991654  0.0098873228275167
  0.5066238536430774  0.8075379785355281  0.1099755110265832
  0.5069904963093776  0.9050544699542655  0.2000498704886127
  0.5044032640492659  0.9925481501607578  0.2972170207852187
  0.6171819716523999  0.1196782452565301  0.4961175718878792
  0.6098819829733273  0.2044928696282184  0.5994170253135920
  0.6087274179232907  0.2850602993252735  0.6973321011637879
  0.6042194321423722  0.4011414662862833  0.7953972050898912
  0.5882281288774180  0.5021469555766913  0.9042837042068541
  0.5978048607526176  0.6048259335235215  0.0045214373047173
  0.6141733509939797  0.6935292279128760  0.0835536349227937
  0.6285865982882797  0.8023779414028880  0.1922587510754852
  0.6207809640900237  0.9041632192184039  0.2983434832223892
  0.6003556699723802  0.0190322053163072  0.3995443082914463
  0.7058905248381109  0.1065747244486701  0.5872125712086245
  0.7030420889371882  0.1970739183987718  0.6926022800344143
  0.7049489507766182  0.2970782434451849  0.8166417954988034
  0.6973494633881288  0.4081484168817653  0.8863921949010560
  0.6826335108454487  0.4979267848571283  0.0060684440519836
  0.7073822098446740  0.6077800131322704  0.0915283331069148
  0.7098237123579239  0.6870331639722878  0.1960023556582016
  0.7041026595118396  0.7980545138794568  0.2915676198886032
  0.6970413467373078  0.9079392949327527  0.4052192125164140
  0.6925549789430789  0.0032378974776961  0.5002098433183875
  0.7957340365892307  0.1024883634469944  0.6910268713490026
  0.7837862428112103  0.2076245899560760  0.7925877041162863
  0.7875043798396959  0.2995258307295217  0.9110500738124330
  0.7849062224335484  0.4119911293755365  0.9909483204274778
  0.7985653090612672  0.5052743513109661  0.0970437087352281
  0.8032102726078918  0.5866339496445221  0.1917742847439214
  0.8042285255626496  0.6921207462754140  0.3003021858443162
  0.8013648621111287  0.7918143961418309  0.4114383113707376
  0.8150247869401781  0.9016882411809988  0.5128487560566981
  0.8135583788434531  0.0020881868405596  0.5910789643617278
  0.8885580926504559  0.1097311397907887  0.8090337979441173
  0.9035021935425434  0.1959955576687946  0.9030049907168376
  0.8885033428429097  0.3042744414255338  0.9917624213195637
  0.8913344622560331  0.4140836448852028  0.0873243956889951
  0.8987271235792207  0.5022237852646825  0.2002698034687285
  0.8912556591042886  0.5993749268668225  0.3053721097676956
  0.8995050550197021  0.7074937349997725  0.4064205755558561
  0.8974868324050149  0.7923332604265738  0.5121402753249100
  0.8990251890594578  0.8939013526241908  0.6093294498030133
  0.8919146538060971  0.9946891676855500  0.7021601272472040
  0.0068855780464645  0.1050382488792252  0.9059064579087988
  0.9942994778789114  0.1996929869130071  0.0025418607073320
  0.9867434782411806  0.3101174939999112  0.1090798107141211
  0.9933746393153129  0.4165042059502753  0.1966110098265617
  0.9827724666032722  0.5092927555132931  0.3038815147398424
  0.9989618729339327  0.6085227215505142  0.3962854630258548
  0.9878414173798831  0.7105518434995233  0.5093242426300790
  0.9832918018385186  0.7948636856405358  0.6173294117647075
  0.0030360997147127  0.9068321872028235  0.6970094221799599
  0.0061220635783172  0.9970218258388783  0.7961641792328962
  0.1992720246343325  0.2078811483946907  0.9875665444006714
  0.1977062179051785  0.3022694901055090  0.0856132722003338
  0.1831170751256650  0.4065045138794545  0.1874619313499082
  0.1894280749898130  0.4943545750124514  0.2916836607344990
  0.1885517425168715  0.6016316044015753  0.3885523737716809
  0.2056626250962310  0.6980930561970737  0.4915242974233607
  0.2031377851741141  0.8001269682561230  0.5978049304895166
  0.2043543852737386  0.9116462151881564  0.6994907123126382
  0.2005952873250934  0.9991266530815537  0.7905669578408734
  0.1978296653534386  0.0918770733143148  0.9108802395507851
  0.3067184743920635  0.2115120717293877  0.0929637748494301
  0.2940209944301060  0.3022913118688564  0.1836247063351877
  0.3055367065163281  0.4001944541049696  0.2834324439614164
  0.2900733301634730  0.4927417339129647  0.4009858243897995
  0.2908666865914924  0.5977892813476444  0.4850119499162275
  0.3083410945070852  0.6890232414074191  0.6044574663768500
  0.2970817298374300  0.8035816777611728  0.7013818552732900
  0.3055000729067601  0.8908038971154255  0.7923375995109367
  0.2973553815151959  0.0023831363492306  0.8935471041072347
  0.3033669243309305  0.1010032939365146  0.0013842344790120
  0.4022541964407012  0.1947899501879249  0.1970449907168401
  0.3865407657474051  0.2870511606212958  0.3161804333650338
  0.3962444101797757  0.3953986274509802  0.3884994162930795
  0.3929125653217440  0.4960958936738677  0.4973810265815359
  0.4098941901009852  0.5946938160575996  0.6098514314178303
  0.3875166752705681  0.7123840193814246  0.7110973436580181
  0.3915738984739363  0.8043485382420883  0.8076269990490417
  0.4008313408504307  0.9095944056514043  0.9179606321604865
  0.3992608644658802  0.9787357578227613  0.0097369700674719
  0.3914734044287442  0.1059990562876436  0.1144059462029645
  0.4869417914232699  0.1948998922247895  0.3018442978761939
  0.5040234275234354  0.3038425716614626  0.3927563646243684
  0.4932844858035565  0.3916341701761539  0.5042047013539843
  0.5042930484988446  0.5053863302087578  0.5908782452565333
  0.4957272281845775  0.5925473115065856  0.7027613739075278
  0.4964988307748044  0.7020533745414994  0.8104030720463697
  0.4907075198116218  0.8029162622832047  0.8965237825476606
  0.5067355875560366  0.8991706117828215  0.9916650504913278
  0.5069277897024875  0.0016890576461535  0.1029591572702984
  0.4905082307657480  0.0908030543857237  0.2071732581623849
  0.5961699787166594  0.1895782497849012  0.3915922659964650
  0.6005307426527224  0.2993771611646991  0.4870206738214904
  0.5983599198478444  0.3741773078838904  0.6039602327582330
  0.5885689063985851  0.5025355554046129  0.6912169125571737
  0.5880646239188536  0.5991923398089014  0.7967776429832938
  0.5846490839106977  0.6906694620296179  0.9110744301046054
  0.5998528238916805  0.8154962545849784  0.9900352764570002
  0.6099148141104038  0.9062794706335211  0.1097807621247142
  0.6028830910655287  0.9968155504233991  0.1972055277815485
  0.5987382013313436  0.0985581827650250  0.2977169745958435
  0.7086210129964243  0.2147191962142827  0.4934174582257853
  0.7102593139519087  0.2985296241452673  0.5900548127518874
  0.7007467250826451  0.4078829266856872  0.7120756609156373
  0.6892100221890161  0.4974217683285787  0.7931773586016391
  0.6950299470180710  0.5870909197119971  0.8976097074672822
  0.7106602857401612  0.6986619259158644  0.9967489272290919
  0.6994493279898535  0.7993871108997865  0.0881460268079550
  0.7217916872707519  0.8982956844631644  0.2083236448852048
  0.7207481415568537  0.0136060806955598  0.2996585020151272
  0.7146873273558825  0.1098677860797892  0.4008141058732946
  0.8192497880722698  0.2000619019155039  0.6064535144681429
  0.7949997618077234  0.2928267219127818  0.7022091214961748
  0.7894223022234286  0.3982905298193202  0.8044846728252537
  0.7910528850246834  0.5039732409545792  0.8916945147851294
  0.8066806923878076  0.5844126327944608  0.0051833337861709
  0.8198922723361832  0.7023981026128681  0.1000448485260179
  0.8173643209708814  0.7970139342480635  0.1992527641171975
  0.7980042639134197  0.8999148507902035  0.3036902535887336
  0.8006017370828218  0.0039579998188657  0.4015130466874979
  0.7871309473350578  0.1040265924013966  0.5023742349318496
  0.9066154598559990  0.2015355472535418  0.7117965602499652
  0.8939387886609609  0.2996545224833582  0.8035746945614264
  0.8979541679119691  0.4096427505320861  0.8771711669610127
  0.9000716650817395  0.5039715437214127  0.9999368939908493
  0.9044616356473298  0.5917228288728893  0.1102945455780500
  0.8999198528279706  0.7054235239777213  0.2126108246162204
  0.9039408952587991  0.8102224543766710  0.3075914418330825
  0.9121337526604165  0.8930131852556258  0.4220592351582653
  0.8942087524339968  0.0060123878096263  0.4983232400489044
  0.8935175909070310  0.0846754435538628  0.6139856020468244
  0.9986423149028667  0.1993974102250604  0.7928610306570647
  0.9958048263370003  0.3035800475478894  0.8754529212516431
  0.9970678766471934  0.4040933672961131  0.9930710442421784
  0.9982747081465391  0.5000262831137050  0.0988804306480091
  0.9946672630530244  0.5948208943531199  0.1955891355341208
  0.0130287261694519  0.6877110523932473  0.3139366870443325
  0.0034098940361389  0.7949969487841315  0.4011795068604798
  0.9879432056332931  0.9019826980029890  0.5118148227143067
  0.9979674731694033  0.9988433763528519  0.6033254661957130
  0.0041349540370419  0.0779381872933911  0.6996485685821696
  0.0915758384277510  0.2129284512973797  0.8985634248064116
  0.0851422596567488  0.2966178146085241  0.9768306615948887
  0.0981153543449693  0.3941709228818553  0.0944084191459496
  0.0913479500067922  0.4908142091201384  0.2032617348186392
  0.1064981651043766  0.6035058325408684  0.2916317995743327
  0.1040382407281655  0.6992457061993420  0.4012574269800311
  0.1063737888873817  0.8043356101978887  0.4912965004754781
  0.0991895181814044  0.8953770542951602  0.5963859665806268
  0.1075297332789944  0.9884324140741754  0.6912803011366222
  0.1076154720825997  0.0796212914911933  0.8012887791513847
  0.3047366829688016  0.3042554077797419  0.9769531476701516
  0.2975395340307045  0.3972413154915557  0.0875778857039364
  0.2975299483765781  0.4927867794230849  0.1823325680387597
  0.2985798428655499  0.6025465385137920  0.3016116157224999
  0.3053355169134662  0.7094986546211999  0.3900435896390917
  0.2985064927772498  0.7996792922157283  0.5075181574061531
  0.3135777326450224  0.8935432549925295  0.6075424222252437
  0.3121370121813172  0.9862002676266783  0.6983684988452623
  0.3061790024000359  0.0978961255264252  0.7927468722546749
  0.3044282950686039  0.1959551012090728  0.8941031671421484
  0.4038195824842674  0.3023638934927320  0.0912600140379496
  0.3971322659964684  0.4072020703708716  0.1888528315899123
  0.4052298555449880  0.4909213897568279  0.2909523230539364
  0.3983951206810659  0.5955185079020069  0.3959207372186739
  0.3920878743830087  0.6839072847892069  0.4969076307566880
  0.3954671792781781  0.7841163976814727  0.5953272268260648
  0.4115522777702338  0.8845884291083621  0.6950969809355598
  0.4130226884934132  0.9906104030249523  0.7972954680070643
  0.3969651297378078  0.0979626327944558  0.8953596916179833
  0.3988253452882304  0.1960178662319407  0.0017648634696386
  0.4784365398722983  0.2878517130824605  0.1942552927591379
  0.4802816401757042  0.3898567712720222  0.2855519843318390
  0.4949722012407705  0.5033181198206762  0.4086609966942873
  0.5049672521849402  0.5993194421047860  0.5079474867545173
  0.4986831721233500  0.6984720151247572  0.5972728755151024
  0.5025615142870095  0.7984598713942859  0.7058849703391772
  0.5030578435900921  0.9043434252592490  0.8068380971788258
  0.5085026712856049  0.0055758773717329  0.9029114287008113
  0.4850665484762047  0.0820417339129662  0.0104840411175999
  0.5029545994656530  0.2073178422315820  0.0952180446497337
  0.5981773586016388  0.3099245695784063  0.2960173137707756
  0.5853189317574632  0.3976699592446664  0.3977141366662167
  0.5982138771906023  0.4936740162115640  0.5011995073133164
  0.5998662668115742  0.5914547674681856  0.6027023783000516
  0.5932450550197004  0.7098497038445899  0.7056795738803601
  0.6016228650998485  0.8006320028981548  0.8175126047185586
  0.5988328995154646  0.9056589557578221  0.8904445541819470
  0.6100532907666505  0.0042148942625531  0.9996265715708930
  0.6001232984648794  0.1035491468550447  0.1074912742833831
  0.5829739120590531  0.1991844595390120  0.2031318924059207
  0.6900707059729214  0.2952495258796333  0.3899372295430865
  0.6994878173255472  0.3973909034098639  0.4956292464791900
  0.6910014748901858  0.4920810985826236  0.6013284694108592
  0.6880321632024646  0.5924519879545329  0.7186452864194166
  0.6984116252320760  0.6982752094371207  0.8025477235882832
  0.7033240768917253  0.7975502187202821  0.9074510034868482
  0.6929574124892426  0.9042872716569335  0.0110479785355224
  0.7082170266721022  0.0142565040981779  0.1125471561834885
  0.7140682257845370  0.1051569605578919  0.2077201593986331
  0.6899605153285364  0.2078380763483239  0.2859744423312023
  0.8164308563148097  0.3203291070053922  0.5145105275551316
  0.8038443268577637  0.4173155477063801  0.6002749173572397
  0.7947251736629966  0.5100474328669122  0.6978978349861862
  0.7962955739709301  0.6149397559208438  0.7964171272019200
  0.8119396395417269  0.6916832817099134  0.8950280971788231
  0.7994458927681904  0.8032491110809232  0.9819079640447370
  0.7918867921025239  0.8806046529004234  0.1090156591042870
  0.8059145822578486  0.9981847099578829  0.1999480980844979
  0.8044565738350755  0.1047164330027641  0.2890408631073669
  0.8007719884073694  0.2044483462391895  0.4065145161436376
  0.9050809627315104  0.3112402576642666  0.6154159923923359
  0.8948645605216683  0.4008508708055984  0.7115823262237910
  0.8979774758864281  0.5007066861386562  0.8040113168500653
  0.9023794706335195  0.5993717198750161  0.8811087311506611
  0.9009034112213001  0.6946622515056831  0.0007862690757605
  0.9277095023321138  0.8013843621790500  0.0992579989131883
  0.8959458022007851  0.9018319222931694  0.1995974378481193
  0.8978606385002053  0.0021097830910648  0.3056519078023854
  0.8887313825114376  0.1008667228184592  0.4006267780645771
  0.8995241248924515  0.2005959357877103  0.5090425232078957
  0.9909606135941686  0.3148300774351327  0.7134272136937909
  0.0061233048046034  0.4120643467825928  0.7893039867771563
  0.0037045582574819  0.5097859692976527  0.8907145632386886
  0.9936373477335536  0.6077365321740729  0.9929538966625913
  0.0108178372503716  0.6987974632069935  0.0998052764570048
  0.9986998895077690  0.7939081900104128  0.2091744559163189
  0.0105851030204249  0.9101176606439338  0.2978967816872711
  0.0039407630303856  0.9985519499162265  0.4000208110311121
  0.9922197319204784  0.1000529275913564  0.5103993239143207
  0.0086692061766982  0.1831725675859275  0.6063198433183885
  0.0937141076846473  0.2992673717339116  0.7846526115111203
  0.0972226278132524  0.3973909165421361  0.9020416841008938
  0.0815639451161516  0.5143498695829365  0.9995731635194502
  0.1019630539328915  0.5901019254630242  0.0986462373771673
  0.1008952547208253  0.6992068206312538  0.1930585975637342
  0.0963048906398569  0.7949394778789127  0.3138004320065235
  0.0988251030204239  0.8950525399628688  0.3930013268124810
  0.1070080885749221  0.9883279223837320  0.4995470814653800
  0.1209715043245936  0.0899735950731326  0.5951320133134104
  0.0853193497260349  0.2037903441561397  0.7068352270977698
  0.1839466988180973  0.3008401254358546  0.8732745949372855
  0.1859900448308665  0.3996681478965698  0.0000741126658497
  0.1970199855092147  0.5053659181270689  0.0958925802653638
  0.2002985495630156  0.6099630439704740  0.1957332853326079
  0.2032094760675633  0.7054832993705560  0.2987691006656732
  0.2130095394647498  0.7991568890096445  0.3992931331793699
  0.2003667323280354  0.8998443209708853  0.4987662296789352
  0.2154325938504726  0.0029201526060803  0.5795962428112134
  0.2037245836163564  0.0879062446225589  0.6958200244531980
  0.1998807643888938  0.1924908794094975  0.7819510886202039
  0.4032395086718310  0.4040444038400608  0.9801485205814444
  0.4088144015758743  0.5004431617080982  0.0976256541230782
  0.3992958031064617  0.5974458746547100  0.2057052139654942
  0.3935470438799058  0.7200930842729676  0.3057878707603123
  0.3960636974142986  0.8183239863243230  0.4119433016347429
  0.4068341579495538  0.9144024018475747  0.5066902907213660
  0.4150084775619263  0.9979884503917020  0.6013730181587675
  0.4116673327899321  0.0871976203414420  0.7183155680840443
  0.4078951310963177  0.1937813816057599  0.8050641556853719
  0.4055549083005019  0.2938336974142999  0.8950298809038628
  0.4997040746275445  0.3825091260245443  0.0968830661594922
  0.4825390123624516  0.5037279133269905  0.1914420540687374
  0.4955893891228556  0.6124230285740140  0.2942609849205269
  0.4897951483041254  0.6982766308925434  0.3946509025041891
  0.5012589059457468  0.7858178866096068  0.4932532622379213
  0.5021700353212850  0.8935225798125259  0.6038049694335044
  0.5110023035819395  0.9940928094008967  0.6842632328035165
  0.5220949508671850  0.0901816827423829  0.8111631485758295
  0.5128013571525614  0.2017348910926984  0.9051181415568550
  0.5082321532400513  0.2952859312593432  0.0160123040347813
  0.5902054390254960  0.3877174491690454  0.1988125576235120
  0.5728417497622615  0.5002587134900125  0.2934872576189846
  0.5958917615360235  0.6013657501245291  0.4074990309287685
  0.5996599773581508  0.6931773282615552  0.4985008105782711
  0.6102456885386971  0.7980749159987326  0.6014298442240644
  0.6235818258388832  0.8943567803287564  0.6923422976950633
  0.6179475537743997  0.9918071752026449  0.7886932260109560
  0.5986693402164533  0.0953960172983770  0.9023936507720904
  0.6105805375175493  0.1833343925191357  0.9973225834352206
  0.5956174487162045  0.2851366259113348  0.0966381569533112
  0.6839476715120227  0.4166027654757087  0.2985881302359275
  0.6984441316850081  0.5083398741113072  0.3884199388670027
  0.6955916777611719  0.5908968061404707  0.4904697088257919
  0.6946158153330586  0.6846795838427724  0.6230539541728959
  0.7060316030430656  0.7906481569533099  0.7157658995607505
  0.7169290082869182  0.9048016338359801  0.7962088864737566
  0.7097127011728475  0.9933630276683445  0.9164396590137187
  0.7033052402300441  0.0975892220259951  0.0186017665172287
  0.7057901811348088  0.2040669809355649  0.1216524240365899
  0.6847861834895639  0.3232115794955419  0.1925956355567635
  0.8084637748494288  0.4006479495539566  0.4007910569216122
  0.8020554367613073  0.4982338916813873  0.4956084562785890
  0.7826487601322256  0.5796577829099334  0.6021619259158655
  0.7878955644613512  0.6941220889371920  0.7082238957569160
  0.7903286052619691  0.7980563759453005  0.7915304261196425
  0.8081053267219147  0.8966458696735060  0.9123412978309133
  0.8208098718471248  0.9994389666259096  0.0071739804374431
  0.8119888031517490  0.1182665964769285  0.1165475809446193
  0.7896705615179087  0.2177525893221031  0.2011930335552208
  0.7810538962097553  0.3136928737037508  0.2858074446406746
  0.9004445202191746  0.4136758293710088  0.4917868727075145
  0.8937494099533581  0.5081885192229336  0.5896364520219208
  0.8945562328487995  0.6002038749264145  0.7112030041208186
  0.9047494525200364  0.7151291898745669  0.8098708250690549
  0.9075091273830580  0.8020844989358338  0.9018630081963508
  0.9107445012000213  0.9081852438527349  0.0081380514422875
  0.8945929656296698  0.0069076094733518  0.1211823026762673
  0.9096849943395355  0.1207478934021680  0.2026508834850347
  0.8906181035185412  0.2161103726848737  0.2995690680614018
  0.8948740814200988  0.3020064393424775  0.3966716524022971
  0.0018638328125675  0.4020780188380186  0.5967982529547626
  0.9890178241181005  0.5029405271022966  0.6938171951274725
  0.9981566471946763  0.5908595698048273  0.7937031531041967
  0.0073807127654746  0.6940655282343897  0.8997359217497660
  0.0140575682651800  0.7999765303627200  0.0071837313770757
  0.0138069211610770  0.9041251949463387  0.1072818991984761
  0.9856862849250589  0.0028025807181962  0.1990668989720632
  0.9946045247475439  0.0907913734546923  0.3106846547117712
  0.9891390318344406  0.1894622524113601  0.3840218131594426
  0.9900148412806260  0.2898401023411665  0.4955892559887687
  0.1035766019109730  0.4025110419779949  0.6953835103926096
  0.0980658502015146  0.4967853946474676  0.8003395032377867
  0.1059930041208190  0.5987597260335988  0.8829479074401121
  0.1017118104424242  0.7014866290811952  0.9990104981207253
  0.1081763967758036  0.8012390603631729  0.1061569764071919
  0.0761901353982708  0.9065354181949914  0.2106091233075205
  0.0978370225965648  0.0130150681519723  0.3004053760811516
  0.1022327278902324  0.0983033627677372  0.3955058189557548
  0.0942544654258910  0.1821824901507938  0.5015698043744052
  0.0870814690033086  0.2884089847393909  0.6066960037132603
  0.1982563283974130  0.3902361871122579  0.8020075429063098
  0.2021494860299811  0.4945372866005542  0.9027368428202678
  0.1921429538559067  0.6033194575012431  0.9970107580491785
  0.2039007720871240  0.6824236716025922  0.1016000760766218
  0.1865232608794116  0.7826916379115190  0.2066510206946504
  0.1982219245573518  0.8904076896255049  0.2881418013856845
  0.1884205307249900  0.9893369256894431  0.3998035257890677