Li 
 1.0000000000000000
    22.0829999999999984   -0.0000000000000006    0.0000000000000000
    -0.0000000000000006   22.0829999999999984    0.0000000000000000
     0.0000000000000006    0.0000000000000006   22.0829999999999984
 Li 
 500
Cartesian
  0.2188614500000000 -0.1402827700000000  0.3348077500000000
 -0.0409730400000000  2.4071511700000001  2.1181131199999998
 -0.0116826100000000  4.5084766500000004  4.6387505800000000
  0.1825054400000000  6.8575018400000003  6.7097036499999998
 -0.0979651200000000  8.9365824899999993  8.6937167300000002
 -0.0681460100000000 11.2389107999999993 10.7127049799999998
  0.2394880900000000 13.4421757399999997 13.3040590600000002
  0.1422527000000000 15.2790939199999993 15.6553164099999993
  0.4881549600000000 17.5719190599999990 17.7023017299999985
  0.2164464300000000 19.9133616300000007 19.6475152800000004
  2.4991938999999999  0.2524488800000000  2.4989978300000000
  1.8131416800000000  2.4188001099999998  4.5941094299999996
  2.1830426699999999  4.3758954900000004  6.7412246299999996
  2.3019421699999998  6.4514285600000001  9.0687185299999999
  1.8486135699999999  8.8661370799999997 11.1392075399999992
  1.9361940399999999 10.9623697100000008 13.1215904800000001
  2.3732174800000001 12.9646677500000003 15.3005477100000000
  2.4196601200000001 15.2268792000000008 17.6815076600000012
  2.7158954000000000 17.8619813799999996 20.0722576000000004
  2.6575943500000001 19.9063815300000009 21.9811057100000014
  4.3934493999999997  0.1597394700000000  4.6269483400000002
  4.3882996900000002  2.1903638800000000  7.0242072499999999
  4.4653479799999998  4.4574626000000004  9.1009559899999992
  4.2020967799999998  6.7995790700000001 11.3300387800000006
  4.5196381299999997  8.9368245500000008 13.4265612000000001
  4.4906209600000002 11.0410977399999997 15.3902927999999992
  4.5337191800000003 13.0604243199999992 17.6304558100000008
  4.6488018499999999 15.4567367099999995 19.5138901699999998
  4.3276105400000002 17.7387792900000001 -0.0033531300000000
  4.1615126599999996 19.9797111500000000  2.5338811600000000
  6.6402093400000002 -0.1138811200000000  6.4351831500000003
  6.6361370900000001  2.2938719399999998  8.8211435700000003
  6.6433337699999999  4.5032399600000002 11.3253119000000009
  6.9179003500000000  6.5611076400000004 13.6587989000000007
  6.5287557600000001  8.7904551099999999 15.5256361799999993
  6.5612574900000000 10.8429682300000003 17.7298097900000009
  6.7541701600000001 13.1991283599999996 19.9921247599999994
  6.5852542300000003 15.3112589600000000  0.0897383900000000
  6.2291568499999999 17.8015743099999995  2.0124649600000000
  6.5770078200000004 19.9961427500000006  4.3077424100000004
  9.2628719400000001 -0.0292890900000000  8.9255190500000001
  8.8896807399999993  2.4684382500000002 11.2685638200000007
  9.0300072900000004  4.4047450000000001 13.2289312700000004
  8.9312285700000000  6.6739052100000000 15.4079970999999993
  8.8068696400000004  8.3388577599999998 17.4927107799999995
  8.7544340199999997 11.1284168599999997 19.4630625299999984
  8.9925233999999996 12.8219752400000004  0.0803387900000000
  8.7187196100000008 15.6049889499999992  2.3495255799999999
  8.8612082999999995 18.0716152799999996  4.2271528700000003
  9.0649921300000003 19.7973889300000003  6.7674571800000001
 11.1192412800000007  0.2931143200000000 11.1983474800000007
 11.5148713800000007  2.6447929700000001 13.5030878500000000
 10.9531994099999999  4.3138201499999997 15.8902746599999993
 11.2638663900000005  6.8968702700000000 17.5763542199999989
 11.1352126299999998  8.7220551299999993 19.6761834399999991
 11.1422840799999996 10.8272542600000001 -0.3321817600000000
 10.9331825699999996 13.4046177400000008  2.0930759800000001
 11.2161921800000002 15.4770728099999992  4.3283831900000003
 11.5180024000000003 17.6652346599999994  6.4362100800000004
 11.3964582700000001 20.0610973399999999  8.7915148999999992
 13.4637921200000008 -0.0301114300000000 13.2263816199999997
 13.5035232399999998  2.3735191800000002 15.3847761199999997
 13.3387530400000003  4.4145493399999998 17.8949620399999993
 13.5612293699999995  6.4903595300000001 20.0041006500000016
 13.2777627999999996  8.6980190499999992  0.0133995400000000
 12.9361986600000005 11.1680834499999992  2.2131329100000001
 13.1388002799999999 13.2015947100000002  4.1118820100000004
 13.2015678699999999 15.4738874400000004  6.4601067299999997
 13.4882837299999991 18.0195253199999996  8.7549346600000000
 13.0318429299999998 20.0359295899999985 11.3074688999999999
 15.7267528700000003 -0.1211038200000000 15.2171567900000007
 15.4910980699999996  2.2244347300000000 17.9037535800000001
 15.6130663100000007  4.2687386600000004 19.9889011100000005
 15.5728119199999995  6.5619281999999997  0.0220101500000000
 15.2080850000000005  8.6611957099999994  2.3414559800000001
 15.2150565199999992 11.0565047900000000  3.9851200699999998
 15.4520488500000006 13.1760069299999998  6.5429207700000003
 15.2503057399999999 15.6503431400000004  8.6652586300000003
 15.5534677499999994 17.7709243299999997 11.3653309399999998
 15.5369665000000001 19.8743282800000003 13.2054172800000007
 17.4987820300000010 -0.1574914300000000 17.3731864099999989
 17.4529474499999999  2.2733986599999998 19.9988195699999984
 17.7427432100000004  4.4788716800000001  0.3641502000000000
 17.7028774999999996  7.0217729300000000  2.1514020299999999
 17.2591654199999986  9.2874941000000000  4.2443815200000001
 17.5757119999999993 11.1474155899999996  6.6394710600000000
 17.9787316100000005 13.4106781700000006  8.8329073000000005
 17.5387354500000008 15.1995050400000000 11.4135352999999995
 17.5687095299999996 17.6364254100000011 13.5192476900000003
 17.5734494199999993 19.8366327600000005 15.3493981099999992
 20.0487450600000017 -0.0878871500000000 19.9167674699999999
 19.7243919500000011  2.1631700199999999 22.1974383199999998
 19.7121579400000009  4.5346453799999997  2.3629090200000000
 19.7532439099999984  7.0467852400000002  4.3324514100000000
 19.8638696900000014  8.7605052600000004  6.5501683300000000
 19.8132916399999992 11.1309051300000004  8.6928381500000000
 20.0207033199999991 13.4558191300000001 11.1298823200000001
 19.3810060300000018 15.2937304100000002 13.4997158099999996
 19.8960328500000010 17.7995980899999999 15.6214435100000006
 19.8274757900000012 19.6022748299999989 17.5315880499999999
  2.3357944100000001  2.3842634899999999 -0.1582253500000000
  2.1982208999999999  4.5378746400000001  2.3756111099999999
  2.0454541900000001  6.5845667800000003  4.5592078300000001
  2.0680314499999999  8.8416044800000009  6.7719090000000000
  1.7357369899999999 10.9944867700000000  8.9483650099999998
  1.9145910399999999 13.5523684299999996 11.0430676999999999
  2.1810030000000000 15.6898467200000002 13.1251208199999994
  2.1909712899999998 17.8518105200000008 15.2451992500000006
  2.3651370900000002 20.0675519000000016 17.4078350999999998
  2.4223541499999999 21.6749330200000010 20.0094344399999997
  4.3704026599999999  2.4113278999999999  2.1377383299999999
  4.2457922600000000  4.2080223099999996  4.2192314099999999
  4.4050185500000003  6.7485339199999999  6.6986689100000003
  4.2967875800000002  8.7293727499999996  8.7431400999999997
  4.1213771899999996 10.9037448599999998 10.9430707500000004
  4.4600099499999999 13.2281299699999995 13.2406442599999998
  4.3037779599999997 15.7789020600000001 15.6311398300000004
  4.1286440500000001 17.7322631500000014 17.7028013699999995
  4.2644064100000003 20.0604357200000010 19.6691690000000001
  4.5234262400000000 22.1127553799999994 22.4062915800000013
  6.3601893799999996  2.1803983800000002  4.3532687799999996
  6.4299670600000001  4.5664002300000002  6.2768503999999998
  6.3949514900000004  6.8166742800000000  9.0521091200000008
  6.4209461100000000  8.8331756200000004 11.2501069200000003
  6.6169648399999996 11.1094405799999993 13.4665776899999994
  6.9581557800000002 13.1055958900000000 15.5388590900000008
  6.6107641700000004 15.5597425000000005 17.8109096600000001
  6.6110435200000000 17.6239094999999999 20.1051225500000008
  6.2363706299999997 19.9734054299999997 -0.0276042500000000
  6.7415659999999997 22.2855374399999988  2.4844745300000000
  8.5800511600000000  2.2722420699999999  6.4866400500000001
  8.5020929800000005  4.6488277900000003  9.0782432800000006
  9.0923362000000001  6.6621468600000000 11.0728708400000002
  8.6427526300000004  9.0078639000000003 13.2478066499999994
  8.9345084200000002 10.7393890800000005 15.6583585599999999
  8.7565312599999992 13.2543892299999992 17.3999604900000016
  8.9804714499999996 15.2374058300000002 20.0777739699999991
  8.8232904800000007 17.7244625700000000  0.1944946800000000
  8.8361464000000005 19.7269066799999990  2.0845844100000002
  9.0697948700000008 21.7473316700000012  4.2642922399999996
 10.7508237700000002  2.3476421300000001  8.6903481199999995
 10.9119171900000005  4.6797735300000003 10.9997376700000000
 10.9710347299999995  6.4709447500000001 13.5834581700000001
 11.1218290000000000  8.4197088000000004 15.3810832200000007
 10.9515726999999998 10.9217302299999997 17.7159970199999997
 11.1584016800000008 12.8167981100000006 19.9593957300000007
 10.8564130999999993 15.5961589299999996  0.2183417500000000
 11.1877745599999994 17.8328611799999983  2.4285892100000002
 11.1958711300000004 19.9863178599999998  4.4177012900000001
 11.1387372800000009 21.9184407999999991  6.5634434700000002
 13.6292294799999993  2.6428546900000001 10.9557643400000000
 13.4680238299999999  4.5158160399999998 13.2369261700000003
 13.4425275699999993  6.2949865899999997 15.3991847899999996
 13.3429777200000004  8.8584069999999997 17.5647564799999998
 12.9898417700000000 11.0889112200000000 19.9692970400000007
 13.2013247400000004 13.3563710899999997  0.0998469000000000
 13.5627901099999999 15.3152059400000002  1.8451149200000001
 13.8810778500000005 17.7189120799999991  4.2456500000000004
 13.7087060300000001 19.9666363699999998  6.5883191400000003
 13.2576542600000007 22.5032881899999992  8.8231369599999994
 15.5881804600000002  2.3534896399999998 12.9674152100000004
 15.5252784500000001  4.3519833400000003 15.2947361500000003
 15.5673876799999995  6.5603788500000002 18.0339007699999989
 15.3995681999999992  9.0131414900000006 19.5741988400000011
 15.0745958200000008 10.9957171900000006  0.1340094500000000
 15.6211213400000002 13.4216060299999995  2.0212201799999998
 15.6750370399999994 15.1717533600000003  4.3283200199999996
 15.5486990299999999 17.6234378300000003  6.4386877499999997
 15.3927640599999993 20.0500234500000012  8.9484558700000001
 15.2936916000000007 22.1545024899999987 11.0461339699999996
 17.5721947299999997  2.2632505300000001 15.2599464000000005
 17.3083516000000017  4.5849738200000001 17.5027142699999985
 17.3904592200000003  6.6144289199999999 20.1187187799999982
 17.3330841100000015  9.0980001099999992 -0.1998882400000000
 17.6347177200000012 11.1579735000000007  2.1430162199999998
 17.7372924500000018 12.9546375099999995  4.2349515300000000
 17.7597785299999984 15.2841024399999998  6.6315731700000002
 17.6965402500000017 17.4856373100000013  9.0857922299999991
 17.9981923700000017 19.9119814300000009 11.3252390799999993
 17.9658096799999996 22.1291134300000003 13.0527967700000005
 19.6220283600000016  2.4231927600000001 17.8658933600000012
 19.9520389400000013  4.3281698999999998 19.9410592099999988
 19.6208193199999990  6.7192924900000000 -0.1819104500000000
 19.6833389300000015  9.1442091300000001  1.9283846300000000
 19.8465910699999988 11.0906078499999996  4.4225580700000000
 19.6815987200000002 13.2359965099999997  6.7435323000000000
 19.8637701299999989 15.6235841499999992  8.9749855699999994
 19.8192017199999988 17.4970953899999984 11.3095937000000006
 19.8531732500000011 19.7400235700000017 13.4558222399999998
 19.6961513000000004 21.9657208900000001 15.5058020899999995
 22.2350542199999985  2.3195596500000000 20.0051323100000005
 21.9571153700000004  4.4098202300000002 22.1391319099999997
 21.7902562300000007  6.8483246199999996  2.4088094600000001
 21.9366921599999998  9.1976623800000006  4.3417609300000004
 21.7025643799999983 11.2467119199999992  6.7106154900000003
 22.0600750400000010 13.4380072599999991  8.7511718799999993
 21.8145020199999990 15.6911163600000005 11.2474072500000002
 21.7140328599999997 17.5529747699999987 13.6324854000000002
 22.1500461900000012 20.0255751900000014 15.3920590700000002
 22.2181935300000006 22.0172329799999993 17.5816935699999988
  4.4005241200000000  4.5906393999999997 -0.2745680000000000
  4.3659464100000003  6.6750171500000004  1.8905978900000000
  4.0437743700000004  8.9768391800000007  4.1397218300000000
  4.1831401799999997 10.9168320800000007  6.4412502800000002
  4.1637881300000004 13.2858307199999999  8.5804020699999999
  4.5416477500000001 15.4159889600000000 10.8543310599999998
  4.4858917099999998 17.6692038400000015 13.2013262800000000
  4.5127578899999996 20.1318833700000006 15.4468534000000002
  4.4297457299999996 -0.0192861200000000 17.4580901299999987
  4.3686724999999997  2.0289214100000001 20.1149683300000000
  6.7732640699999997  4.6708210799999996  2.0529190399999999
  6.4928656199999999  6.6754990400000001  4.0549843900000004
  6.7471670899999996  8.8374941299999996  6.2590386599999999
  6.4056893500000003 10.8812157099999993  8.8549699600000000
  6.4232090399999997 13.2009807000000006 10.7105188899999995
  6.8090963899999997 15.2157002400000003 13.3482342299999992
  6.5604558400000004 17.7454941899999987 15.4886155100000007
  6.7463581100000001 19.6716224599999983 17.4971912100000004
  6.5664988900000001  0.0526268000000000 19.7322006999999999
  6.6992517899999999  2.2304557400000000 22.1135680500000014
  8.8829794199999998  4.3015464699999999  4.3513445300000004
  8.5359797299999993  6.3389507800000002  6.9822125100000001
  8.7502653099999996  8.7315878900000001  8.5792326100000000
  8.6766881799999993 10.9552856199999997 10.9836652099999998
  9.0516933999999996 13.1326235400000009 13.4673491599999995
  8.5575307400000007 15.7315763000000004 15.7031626400000004
  8.6471263999999994 17.7624287699999996 17.8348270199999988
  8.8515584999999994 20.0865732600000015 20.2713246399999996
  8.8168776700000002 -0.4695782600000000  0.2150215100000000
  8.6449071899999996  2.3407771600000000  2.5264265099999998
 10.7531355800000004  4.3039743200000000  6.6656276300000004
 11.1303493499999995  6.7097555099999999  8.6732388000000000
 10.8932012999999994  8.6484573800000000 11.1343524200000008
 11.1363033900000001 11.1604463299999992 13.0483642900000003
 10.9471443799999992 13.0852222800000000 15.5190794200000006
 10.9641836799999997 15.5034446700000004 17.8961310400000002
 10.8362941599999996 17.7307998200000014 19.7979346900000017
 11.1902419799999997 19.8563846200000000 -0.1840606900000000
 11.1944863800000007  0.0372994600000000  2.2736470700000000
 10.8318932599999993  2.0052038500000000  4.5750070599999999
 13.1652216400000004  4.1864564900000003  8.6475320100000008
 13.2615203899999994  6.6111458499999998 10.7548775400000007
 13.2135821100000008  8.2629574899999998 13.3372538200000008
 12.9973671599999996 11.0974926699999994 15.2641430800000002
 12.9862310900000004 13.2319644400000005 17.5952406900000007
 12.9108057200000008 15.2520537300000001 20.1192566399999997
 13.2465499100000006 18.0086037899999987 -0.2200509900000000
 13.4687488399999999 20.0133695500000002  2.4242885699999999
 13.3134672999999992 -0.0703222000000000  4.3548896700000004
 13.2219356999999995  2.1764603500000002  6.5744839500000003
 15.6484778299999991  4.7416440099999999 10.8961377299999995
 15.6846564300000004  6.5924296900000003 13.0301804299999997
 15.4745899300000005  9.0072786699999998 15.7247668199999993
 15.2198249200000006 10.9845649099999996 17.5157356100000001
 15.3483463199999992 12.9647287799999997 19.8219151700000005
 15.6935110899999994 15.4285513099999996 -0.0717934400000000
 15.4459395100000005 17.6528655699999995  1.9465287099999999
 15.9393258299999996 19.8370636000000005  4.6004110499999999
 15.9162812099999993  0.3004630800000000  6.6173586999999996
 15.7824402500000005  2.4262103200000000  8.8511778999999997
 18.0914930699999985  4.4179669800000001 13.3923129599999999
 17.5559797400000015  6.4664925000000002 15.5068840300000002
 17.4328126999999995  8.7954497699999994 17.7654350299999990
 17.4688208600000010 11.1292410799999999 19.6912899699999997
 17.8139297300000017 12.9055841699999991  0.1144635600000000
 18.1056810500000012 15.5110572999999992  2.2092903900000000
 18.0498562999999983 17.6004587100000016  4.4000987900000004
 17.6223281599999986 19.8728196500000003  6.7063918700000000
 17.6796881600000013  0.0874045100000000  8.8666126100000007
 17.3822127100000010  2.2972192400000000 11.0939302299999998
 20.0207891999999994  4.4505094900000000 15.7186034400000008
 19.7408502699999993  6.6172708199999999 17.7453399800000007
 19.8295218899999988  9.0461408599999995 19.3705708799999989
 19.8762825800000016 11.1292036000000003 -0.0013935700000000
 19.9732263000000003 13.0670152300000009  2.4356344499999998
 19.8729301099999986 15.5778676800000007  4.6950848399999998
 19.9617267900000002 17.8921424599999987  6.7925418100000003
 20.1426496600000000 19.7204101700000010  9.3203340899999993
 19.7468118799999992  0.1327715600000000 11.0044721100000000
 19.7315489600000014  1.8698878200000000 13.5586440499999998
 -0.0299817600000000  4.4032930099999996 17.5087501400000001
 -0.0926420200000000  6.7039581899999998 19.3326268600000013
 -0.0647500800000000  8.9235938299999997 -0.1530121300000000
 -0.0380996200000000 11.0420804100000005  2.1835765500000002
 -0.1177628300000000 13.1354298099999998  4.3191948800000004
  0.2877133600000000 15.1867231700000005  6.9326638599999999
  0.0753006900000000 17.5559176199999989  8.8592470500000005
 -0.2662501900000000 19.9184839199999999 11.3024067299999995
 -0.0448842900000000 -0.0255417200000000 13.3232362700000007
  0.0913121900000000  1.7211089900000001 15.4503393399999993
  2.0222692400000000  4.7020989899999996 19.8429761099999986
  1.8801965199999999  6.5502111999999997 21.5713514999999987
  2.1666813700000001  8.7044764899999993  2.0848211200000000
  2.0172367800000002 10.8386501800000001  4.4886288900000002
  2.3517989799999999 13.3272192999999994  6.4401050299999998
  2.2974764699999999 15.4414429299999991  8.8609677599999994
  2.3490523799999998 17.7621432800000001 10.8493006199999993
  2.1904021299999998 19.7726114899999992 13.1699912999999995
  2.3745791000000001 -0.2554470000000000 15.2655428900000008
  2.3764724699999999  1.7582769800000000 17.6948601100000005
  6.7295001699999997  6.7188721700000000 -0.5089436400000000
  6.5705655299999997  8.7722799699999996  1.9339824500000000
  6.5703538500000001 10.8822104500000005  4.0264500999999999
  6.5935386700000000 13.3060352099999992  6.6604893100000000
  6.7427242200000004 15.6678587900000004  8.6133325900000006
  6.5919188799999997 17.6593178100000010 11.2075234699999999
  6.9247370699999999 19.7321157000000014 13.4163593100000007
  6.8929216400000000 -0.3047394900000000 15.4220715599999991
  6.7613509100000000  2.1618401399999998 17.5062291799999983
  6.7226900399999998  4.3272765000000000 19.7444802400000015
  8.9175478399999992  6.6771018599999996  2.0152948899999998
  8.7698718299999996  8.9922433200000000  4.1704370800000001
  8.9486909000000008 10.8410170499999996  6.4251001499999996
  8.7977594499999991 13.1508352100000003  8.7431176399999995
  8.6584765299999997 15.1027245699999995 10.9732112100000005
  8.7331017200000005 17.3156424099999988 13.1466111500000000
  9.0883089500000001 19.5343662800000004 15.3498266300000008
  9.1207800300000006 -0.2073504700000000 17.6066758199999995
  8.7661809599999998  2.1633088200000001 19.7722280700000006
  8.8072601000000006  4.3286625399999998 22.1219734800000012
 10.5653141099999992  6.3566293800000002  4.2897396299999997
 10.6060594600000009  8.6092070799999991  6.3058444700000003
 10.9304711200000000 11.1147740400000004  9.0244607899999991
 11.1511918300000001 13.2347712400000006 11.2170043499999998
 11.0124204900000002 15.4243575100000001 13.1895769099999995
 11.0980659199999998 17.6323893399999996 15.5880577999999996
 11.1090263599999997 19.9706158599999988 17.8174056999999983
 11.2292644900000003  0.1231321000000000 19.9389930799999995
 10.7117245899999993  1.8117276099999999  0.2315190800000000
 11.1067464200000003  4.5781999100000004  2.1027000800000000
 13.2095506100000009  6.8440642699999996  6.5369503399999997
 12.9255979700000001  8.7817457099999991  8.7827212800000005
 13.2103570500000007 10.9018032999999992 11.0679887200000007
 13.2468467699999994 13.0610956300000005 13.3094766199999999
 13.1006305500000000 15.6756110100000008 15.5835220299999992
 13.2856377299999995 17.6803565200000001 18.0531308499999987
 13.2240269200000000 19.9996667200000005 19.6636870899999998
 13.4718068199999994  0.0930775100000000 -0.0082464200000000
 13.2525227999999995  2.2866758100000002  2.3737298099999999
 12.8738129000000008  4.3985904199999997  4.4857615800000001
 15.2388314000000005  6.5199952799999998  8.6109838399999994
 15.4467894700000006  8.7755833200000009 10.9449806499999998
 15.2593855699999992 10.8666269000000000 13.2791365900000002
 15.1938142599999999 13.0831172500000008 15.8698438599999996
 15.4230239200000003 15.4200114500000005 17.7226613800000017
 15.5315055900000001 17.6123014799999993 20.0392405099999991
 15.3025785400000007 19.9693758199999998  0.2439725100000000
 15.6395566000000006  0.3148263800000000  2.4853788500000000
 15.7687686300000003  2.3221811600000000  4.5870842800000000
 15.2363980600000009  4.5896882400000001  6.3151736100000004
 18.0292425999999999  7.0738276700000000 11.3619359800000002
 17.7512942699999989  9.2155792400000003 13.2558710000000008
 17.5499160100000005 11.2633774599999992 15.4116778900000000
 17.5845951599999992 13.5797146299999998 17.5872794200000016
 17.9300630599999984 15.2744419100000002 19.7649054699999986
 17.6541636500000010 17.7381501200000002 -0.3995264300000000
 17.4872360299999983 19.4463925499999988  2.4073928000000002
 17.7970117200000004 -0.0400870500000000  4.4154538499999996
 17.7648145200000016  2.3124529900000002  6.3828893799999999
 17.6834478200000014  4.5148328299999996  8.9770600599999995
 19.9869029000000005  6.8731186099999997 13.5902313600000006
 19.7612940899999998  8.8519897800000003 15.7138725099999998
 19.8300365999999997 11.0571057499999998 17.7549819100000015
 19.9272458499999985 13.2359256900000002 19.4575241100000014
 19.8946500300000011 15.3402265000000000  0.0173631800000000
 20.4866089400000000 17.6969708700000012  2.1919143900000000
 19.7851711500000000 19.9151543400000008  4.4077102200000002
 19.8274564799999986  0.0465903400000000  6.7497110800000000
 19.6258551200000007  2.2274398400000002  8.8470411400000000
 19.8641912500000011  4.4297600499999996 11.2411860400000005
 -0.1996167700000000  6.9523925999999996 15.7546131599999999
  0.1352209400000000  9.0996169699999996 17.4301999400000014
  0.0818077600000000 11.2576035599999997 19.6696497000000008
 -0.1405064500000000 13.4206458400000006 -0.1555991000000000
  0.2388903000000000 15.4315443800000001  2.2039999199999998
 -0.0287103400000000 17.5318745599999986  4.6191995099999996
  0.2337508300000000 20.0981282999999991  6.5784546300000004
  0.0870238700000000 -0.0319772900000000  8.8336595700000000
 -0.1718116600000000  2.2094687999999998 11.2711482699999994
  0.1914420800000000  4.0449998100000002 13.3893611000000003
  2.0694886399999999  6.6087213699999996 17.3274836199999989
  2.1469672900000001  8.7755836100000000 19.9197865100000016
  1.8011766000000000 11.3583881699999996 -0.0094258300000000
  2.2516501199999999 13.0312208199999997  2.1784048600000001
  2.2280699099999999 15.4405842199999999  4.2633130100000001
  2.1267008999999999 17.5546484900000017  6.9296549399999998
  2.1823547500000000 19.7654452399999983  8.6786483000000008
  2.3630596200000000 -0.2577544900000000 11.0314981999999997
  2.6714137299999998  1.9868869000000000 13.1423002499999999
  1.8841072000000001  4.5003021700000003 15.6090423200000004
  4.0620949499999996  6.6434524899999996 19.2845228800000008
  4.1072181600000004  8.8258717099999995 22.0846366299999985
  4.3507923399999999 11.1599955699999995  2.1175958499999998
  4.4231928700000003 13.4698139000000001  4.3223781399999996
  4.4874748599999998 15.5791877000000003  6.5977180500000001
  4.7038896599999998 17.6477815800000002  8.8175902599999993
  4.4246985499999996 19.8712621399999989 11.0142546499999998
  4.7573979700000004  0.0644857300000000 12.7992238300000007
  4.4988499800000001  1.9412335999999999 15.3657935999999999
  4.4139669200000000  4.2507760899999996 17.2678258900000010
  8.9047380700000005  8.9225125700000003 -0.4383802200000000
  9.0278484300000006 11.0512863400000008  2.1558673200000000
  8.8176492199999998 13.1933972500000003  4.5425882399999997
  8.6906993700000008 15.9018155799999992  6.7527135500000002
  8.7462746300000003 18.0710485900000002  9.0969439300000001
  8.9841187100000006 20.1927482400000002 11.1892416899999994
  9.1646322100000006 -0.0444210500000000 13.2801203599999997
  9.0908497100000005  1.9255850500000000 15.8625626900000007
  9.0075481800000006  4.2792742500000003 17.7782317499999998
  8.9558690399999996  6.4887295399999996 19.7649448599999999
 11.0349650799999992  8.4469490300000007  2.1394687499999998
 10.6559090100000002 11.1238235099999994  4.2276148800000000
 10.9441004799999995 13.5241377400000005  6.4981653300000000
 10.8161462600000000 15.4200428400000007  8.7150758800000006
 11.0693004199999994 17.3532163900000000 10.8925117900000004
 11.0894208899999995 19.7316591300000006 13.3338251400000001
 11.2844638699999997 -0.1304484900000000 15.1105849699999997
 11.5294228000000007  1.9914821000000000 17.9129158100000012
 11.3241923700000005  4.4549116000000000 19.9877239200000005
 11.2232906400000001  6.5207992199999998 22.4365997099999994
 13.0335067099999993  8.5619644299999997  4.3903777100000001
 12.6500643600000000 11.0472131699999991  6.4810791099999996
 13.1590777699999997 13.2799598599999999  8.9988010999999997
 13.2422912799999999 15.3074349400000003 11.0083933999999992
 13.4760555400000008 17.6238883699999995 13.2813752500000000
 13.7705574599999991 19.7500807800000011 15.2889949600000001
 13.6461358300000004 -0.1809221500000000 17.4167125100000000
 13.2204150400000007  2.1066302499999998 19.9275589900000014
 13.4834500100000003  4.0485733899999996 -0.0591253900000000
 13.1530201200000008  6.2966721100000003  2.1340604200000000
 15.1036164300000006  9.1998388700000007  6.5937216799999998
 15.4237417600000004 11.2256694400000008  8.5774775099999996
 15.3607510200000004 13.0487741699999997 10.8310425800000001
 15.3392010499999998 15.1197792500000006 13.7589004700000004
 15.5912958899999996 17.4598832500000007 15.8062583599999993
 15.8319432899999999 19.9807344799999989 17.5826808399999983
 15.6725855799999998 -0.1465642600000000 20.2377369899999984
 15.5310896199999995  2.1550627900000001  0.4107828100000000
 15.5859645699999998  4.5064111400000000  2.6864504800000000
 15.1221332900000007  7.1374813100000001  4.2530894200000002
 17.8533055400000009  8.8475086699999999  8.8506689099999996
 17.7117902100000002 11.0024990299999992 10.9445215400000002
 17.2832325699999991 12.8005828200000007 13.2975418100000002
 17.3990977499999993 15.3282980900000005 15.6397082899999997
 17.4528265900000008 17.6234789499999991 17.4793664000000000
 17.8453899299999996 19.8006307399999990 20.1472328800000007
 18.1259444000000016 -0.0123893000000000  0.1584230100000000
 17.9311487400000011  2.6116812500000002  2.5737202300000002
 17.4382950100000009  4.8086304300000000  4.4429457599999997
 17.2480131900000018  6.9272797300000004  6.3114857999999998
 19.8845163400000011  9.1352033400000003 10.8601295100000002
 19.7366682199999985 11.2223270700000004 13.0209417700000003
 19.7544852900000016 13.2543021700000008 15.7054959400000005
 19.9795821599999996 15.7921978999999997 17.8843774300000007
 20.0405240599999992 17.7124319899999989 19.9158408099999988
 20.1119708199999998 20.0554547399999983  0.1797125900000000
 19.7552964600000003  0.1525407400000000  2.6760687900000000
 20.0885737300000002  2.6664757300000002  4.4751394600000003
 19.6675195800000004  4.7723653600000002  6.6153837299999996
 19.7615043399999983  6.6692081999999999  8.7597000999999999
  0.0411590200000000  8.8790888900000002 13.1790958200000006
 -0.2425193900000000 11.1064356600000007 15.3215651200000007
 -0.0407067600000000 13.0479518799999994 17.5273467300000014
  0.1629882800000000 15.3270490600000002 19.8688683600000005
  0.3104332800000000 17.6658817200000016  0.1586383400000000
  0.3048982400000000 19.9657966800000004  2.3691061800000002
 -0.3160897700000000  0.0618893900000000  4.3959943299999997
 -0.1191482800000000  2.0049459000000001  6.8608492300000004
 -0.2398427600000000  4.1838949200000002  8.4803537000000002
 -0.2205022600000000  6.4005389800000003 10.9440975399999996
  2.2872821000000001  8.8886513399999991 15.3561540599999997
  2.1655881699999999 10.9705118699999993 17.6738972499999996
  2.3406435100000000 13.2224110300000000 19.4981386400000005
  2.2461019100000001 15.4909292300000008 -0.0218511700000000
  2.3888593700000000 17.6937621699999994  2.3442645099999999
  1.6825067600000001 20.0190216399999983  4.6508812700000002
  2.1605349700000001  0.2874117500000000  6.6338519199999997
  2.2576053300000001  2.1708331599999999  8.7339549999999999
  2.0814213600000002  4.0231359299999996 11.0761659899999998
  1.9230200799999999  6.3689356100000003 13.3976678499999995
  4.3780944999999996  8.6175857199999992 17.7107325700000011
  4.4640671000000003 10.9208669000000000 19.9351376999999985
  4.2430928500000000 13.3231035799999997 -0.0660114300000000
  4.5027407500000001 15.0699619400000007  2.2436344799999999
  4.1189931700000004 17.2841794399999991  4.5634744899999999
  4.3773347600000001 19.6628730099999984  6.3630354000000002
  4.1608905800000002 -0.2354726700000000  8.8288612600000000