fcc
1.0
0.0 2.2083 2.2083
2.2083 0.0 2.2083
2.2083 2.2083 0.0
Li
1
Direct
0.0 0.0 0.0
