Li 
 1.0000000000000000
   -10.6364300000000007   18.4228371711498369    0.0000000000000014
   -18.2338799999999992  -10.5273355263713349    0.0000000000000078
    -0.0000000000000001    0.0000000000000000   22.3096999999999994
 Li 
 504
Cartesian
 -0.0772100900000000  0.0134655400000000  0.3921091300000000
 -10.6887215599999994 16.7919517999999997 14.9387834399999999
 -10.6688931900000004 14.8743297499999994  6.9704696100000003
 -10.7682850699999992 13.1723840299999999  0.3191105500000000
 -10.6482634399999991 11.4615787299999994 14.9477496700000003
 -10.7400692299999996  9.5723998500000000  7.8576244199999996
 -10.6072290400000000  7.7367605599999996 -0.1788869600000000
 -10.6147642100000006  6.0069029699999996 14.9650074699999998
 -10.6521215799999993  4.4121320700000002  7.4819601699999998
 -10.8245830999999999  2.7028279500000001 -0.0928143700000000
 -10.6228061199999999  0.9449045500000000 15.5302901000000002
 -10.4271832000000000 -0.7483959900000000  7.4340531800000003
 -1.8366796400000001  0.7779059100000000 14.8647999700000000
 -1.3561008900000000 -0.9371033800000000  7.5759588500000001
 -12.0679155599999994 15.7958405699999993 -0.0856842800000000
 -12.0948477699999994 13.8828755400000006 15.0901409799999993
 -12.3184355199999995 12.3205002399999994  7.1624114199999998
 -12.1275846200000004 10.5730100500000006  0.2004981600000000
 -12.0672140999999993  8.7003033100000007 14.6294711100000008
 -12.1750720399999999  7.0509731799999997  7.6481629099999999
 -12.1296023700000006  5.2261964100000000  0.0404703800000000
 -12.4025524500000000  3.5860472699999999 15.2847732999999995
 -12.2860859500000004  1.8196372500000000  7.2638182699999998
 -12.0455995999999992  0.0621119200000000  0.2150897800000000
 -2.9478370200000001  1.7825922000000001  7.2602147400000003
 -3.1549573000000000 -0.1168089400000000  0.2138053100000000
 -3.1028259500000002 -1.7035730700000000 14.8096305800000003
 -13.7147480700000006 14.9424857400000004  7.3508716800000000
 -13.7952954099999996 13.1420696499999998  0.0928957700000000
 -13.6142564099999994 11.3175910900000005 14.9679889999999993
 -13.6779863099999996  9.5929060699999997  7.5493179599999998
 -13.7993919199999997  7.8874253100000002 -0.0867238200000000
 -13.6557360600000006  6.0868795300000000 15.1401016899999998
 -13.6930543000000000  4.2889910999999996  6.8949751499999996
 -13.6974053300000005  2.7425711700000002 -0.1964266700000000
 -13.6161275199999992  1.0326006800000000 14.7191237699999995
 -4.5511177700000003  2.5508116699999999  0.1657606100000000
 -4.6083831899999996  0.9417948700000000 14.8588285899999999
 -4.4770888299999996 -0.8224247000000000  7.3247599299999999
 -4.6246344800000001 -2.5648543500000001 -0.0639853200000000
 -15.1978904200000002 14.0221777099999994 14.8141895100000003
 -15.2419071699999993 12.2261211500000009  6.9957542200000002
 -15.0371526899999992 10.6593156699999998  0.1269881400000000
 -15.2674632700000004  8.8606097899999998 14.5912424299999994
 -15.2195470299999993  6.9603083600000000  7.0113126000000001
 -15.1973580199999994  5.2699848100000004 -0.0273478600000000
 -15.0048953600000008  3.5232979100000001 14.9617831500000005
 -15.1145843899999992  1.7757213500000000  7.1246046999999999
 -6.0157697299999997  3.4895733099999999 15.4137498199999996
 -5.9874143000000002  1.5883397400000001  7.6210900300000004
 -6.1593071400000001 -0.0404920600000000 -0.2011950800000000
 -6.0356262000000003 -1.7862918299999999 15.0136327900000008
 -16.8404709299999986 14.9167334000000000  7.3872850500000000
 -16.7738176800000005 13.4231856999999994 -0.0218686600000000
 -16.6271645300000017 11.4160328100000008 14.8909672999999998
 -16.6538880899999988  9.6508007899999999  7.1334971600000001
 -16.5180178300000016  7.9625448199999997 -0.0686582700000000
 -16.6813408099999982  6.1659870100000003 14.2175965200000007
 -16.5728425600000016  4.3678938399999998  7.2599865000000001
 -16.6118310999999999  2.7515536400000000 -0.1924882600000000
 -7.6194767800000003  4.4493046200000004  7.7385805799999998
 -7.5434239300000003  2.5763630100000001 -0.6239053800000000
 -7.6378660399999996  0.9569316600000000 15.3445257000000002
 -7.6760360099999998 -0.6915091400000000  7.2645830699999996
 -7.7233824300000000 -2.5970390100000000 -0.2691417400000000
 -18.3205228899999994 14.1737959900000003 14.8991673000000002
 -18.1621409999999983 12.3760341999999994  7.5228319800000003
 -18.2740043499999985 10.6051418900000005  0.1498719900000000
 -18.2472704000000014  8.8138634200000006 14.6999768599999996
 -18.1477389000000002  7.2814869000000000  7.3295921399999999
 -18.0936550800000013  5.3158100700000004 -0.1271467200000000
 -18.1435494400000010  3.5284751999999999 14.9874292300000000
 -9.0547019800000008  5.2353859800000002 -0.0141423300000000
 -9.0474067599999994  3.3585708200000002 15.5371643899999992
 -9.0673382900000004  1.8356731399999999  7.5985949300000000
 -9.1967915300000005  0.1331718300000000 -0.0094103300000000
 -9.0991720699999998 -1.6004817600000001 14.9391576500000003
 -9.0767390100000007 -3.3769695799999999  7.4516060399999997
 -19.6904111300000011 13.2466012200000005 -0.0844079700000000
 -19.7309339000000001 11.5804481700000004 14.5425712199999992
 -19.8542155899999990  9.6574709799999994  7.4590888800000004
 -19.6973432200000005  8.0043571300000007  0.1308549200000000
 -19.6660239799999985  6.1852340300000002 14.4739486300000006
 -19.6603813999999986  4.4868835799999998  7.5788765600000003
 -10.6099532500000002 -2.4784615099999998 -0.0816381100000000
 -10.6161012299999999 -4.4561780799999999 14.9496620399999998
 -21.2319490399999999 12.3811567100000008  7.6310054799999998
 -21.2379344699999990 10.5509773100000004  0.0836112500000000
 -21.1632189199999985  8.7987065799999993 14.8336531100000002
 -21.4009314999999987  7.0678915099999999  7.3841977200000004
 -21.2670051200000003  5.3726639900000004 -0.2288376700000000
 -12.1676982000000002 -1.9094806600000001 14.8724587300000000
 -12.1730657000000004 -3.6098207499999999  7.7520760700000002
 -12.2222233500000002 -5.2035471299999996 -0.3739516400000000
 -22.9156939100000017 11.5543206699999992 14.5852587000000007
 -22.7769816700000014  9.6187363399999999  7.2765027699999996
 -22.8244789700000013  8.1134281700000006  0.4695207300000000
 -22.7208483299999990  6.2254766799999999 14.8663743900000007
 -13.6529398799999999 -0.9672621100000000  7.5477651799999999
 -13.6750160199999993 -2.6575865799999998 -0.2072865400000000
 -13.6880988400000003 -4.4520966800000004 14.8787825300000005
 -13.7570994300000002 -6.0158337099999999  7.5935287200000001
 -24.2588013700000005 10.7050051499999999 -0.0261336200000000
 -24.3490989700000000  8.7893214799999999 14.4227993399999992
 -24.3031793399999998  7.0473203900000003  7.3494334300000004
 -15.0967124500000001 -0.0162274200000000 -0.2665498700000000
 -15.2965234700000003 -1.6762022999999999 14.7387346600000004
 -15.2384248000000007 -3.4056851799999999  7.4463509700000001
 -15.1365132899999999 -5.2004469300000000 -0.1587620600000000
 -15.1483715700000001 -7.0329859399999997 14.8817119299999998
 -25.8129904400000001  9.7844257199999998  7.2478054700000003
 -25.8233476800000012  7.7418708299999999  0.1043537300000000
 -16.8042800300000010  0.9069432300000000 15.2010060800000009
 -16.5670542800000007 -0.8768845300000000  7.0267534400000002
 -16.6068095400000004 -2.5858205700000001 -0.2866783900000000
 -16.7238416299999990 -4.2755360800000002 14.8881882399999999
 -16.6694015499999999 -6.1221943699999999  7.5986592799999997
 -16.7857129100000009 -7.8562684500000000  0.2568881700000000
 -27.3868907899999989  8.8367766400000001 14.9009070900000005
 -27.3740389499999992  7.0493924699999999  7.3638190999999997
 -9.0805453200000006 15.7886918900000008  0.1687630200000000
 -9.2137126699999996 13.9867983999999996 14.6910542000000000
 -9.1802067399999991 12.3227818500000001  7.4078189099999996
 -9.1448101699999995 10.3671208799999999 -0.0802803700000000
 -9.1544970899999996  8.8339724200000003 14.6680659500000008
 -9.0557498400000007  7.1122772400000001  7.5046969499999996
 -18.2934529599999998 -8.7517663599999995  7.6649782000000002
 -1.4269901899999999  2.6792598200000000 -0.1108793300000000
 -2.9341388600000000  3.4931033600000001 14.5404026999999996
 -4.6221187500000003  4.3593609100000004  7.5883056199999999
 -5.8853682899999997  5.2433516200000003  0.1260550800000000
 -7.7629814499999998  6.1367896499999999 15.2306129299999995
 -25.9594227500000017  6.1980471799999997 15.0697758600000000
 -25.7504861200000015  4.3879541000000000  7.3622734100000002
 -7.5766842499999996 13.2514530500000003  0.4932720400000000
 -7.7128745099999998 11.3572128400000008 14.8687395000000002
 -7.5917651599999996  9.5439165900000003  7.6314946900000002
 -7.5170006200000001  7.8814289400000002 -0.0449743800000000
 -18.2002726999999993 -7.0474977299999999 14.7118435099999996
 -19.6742024899999990 -6.1755679700000004  7.3495023100000001
 -3.0356490699999998  5.2186801699999998 -0.1682536100000000
 -4.5823706399999997  6.2153136199999999 15.0402377099999995
 -6.1336555400000004  7.0640438699999999  7.3673657900000000
 -24.2583061200000003  5.1514942699999997 -0.0340831900000000
 -24.3051511799999993  3.3713733800000001 14.9558742999999996
 -24.3175118300000008  1.8766012000000001  7.5269827500000002
 -6.1115826799999997 10.4753423800000007  0.0437081500000000
 -6.0808271600000001  8.6924497400000007 15.3065708500000000
 -18.1048648499999985 -5.2619566200000003  0.1708755300000000
 -19.6111533400000013 -4.5171483800000001 14.7237073200000008
 -21.2367813599999984 -3.6033705800000000  7.6128010000000002
 -4.5118730600000001  8.0500851800000000  0.2637709100000000
 -22.8651656099999983  4.3270384499999999  7.3566406799999999
 -22.8600693799999988  2.6288930900000000 -0.2503678400000000
 -22.6673787299999994  0.9145620400000000 14.9956228599999992
 -22.6359519899999988 -0.6319072300000000  7.4997850100000001
 -18.1324279699999984 -3.4373210599999999  7.3204171300000000
 -19.6816792800000009 -2.6568022999999998  0.0054228900000000
 -21.2176164100000015 -1.7447052199999999 14.9228456800000000
 -21.1307191600000017  3.5761801000000002 15.0158466900000001
 -21.2569888099999993  1.7589827899999999  7.0242957199999996
 -21.1998656899999993  0.2509481300000000 -0.3205362900000000
 -18.2570174600000001 -1.5617868800000001 14.8429022199999991
 -19.6555689399999984 -0.7992626300000000  7.4483893600000002
 -19.6984178199999995  2.7921448600000001 -0.0840101000000000
 -19.6334689299999994  0.8101841600000000 15.0625046999999999
 -18.2716135400000006  0.0610729200000000 -0.4247514200000000
 -18.0329886799999990  1.8892707099999999  7.2121981499999999
 -0.0537255700000000  0.0099132100000000 17.5230065000000010
 -10.7548743600000005 16.7014815399999996 10.0275938399999998
 -10.6317954900000000 14.9717813500000005  2.6175180100000000
 -10.7442599600000008 13.2832877600000003 17.5059831099999990
 -10.4327127799999992 11.2813316799999992  9.7776586000000005
 -10.8832725400000001  9.6085513099999993  2.4668934999999999
 -10.7333210700000006  8.1253849000000002 17.2168722999999986
 -10.7213879300000006  6.0851875599999996 10.0524510800000009
 -10.5092399699999994  4.3300885400000002  2.3141927199999999
 -10.4498670899999997  2.7223342700000002 17.6269013500000007
 -10.8240608500000004  0.8194743200000000  9.8169021700000005
 -10.5147028799999998 -0.9193794199999999  2.3432261500000000
 -1.7497694699999999  0.8643372900000000  9.7921669999999992
 -1.2885552499999999 -0.8275533300000000  2.6218701100000001
 -11.9434797100000001 15.7398654199999992 17.6236765999999996
 -12.1450955199999999 13.9751431600000000  9.4094859000000000
 -12.1207030899999992 12.2214679200000003  2.9810522000000002
 -12.3476321599999999 10.6303038900000004 17.4260368800000016
 -12.2134561000000001  8.7601108199999995 10.4143468899999991
 -12.2064888400000005  6.6337272399999998  2.4158875399999999
 -12.0240186599999994  5.2524370100000004 17.6066766100000009
 -11.9387416200000001  3.4317112900000000  9.8674790300000002
 -12.1398042700000008  1.7858310600000000  2.5341000999999999
 -12.3654355700000007  0.4756617800000000 17.4801077199999995
 -3.0523194800000000  1.8610973300000000  2.4100804299999998
 -2.8167322100000001  0.0406067800000000 17.1598477299999992
 -2.8783168899999998 -1.8567308600000001 10.0544252000000007
 -13.7938495799999998 14.9910371599999994  2.5004156700000002
 -13.7782132199999996 13.1697492599999997 17.5771629800000007
 -13.3818682199999994 11.5265697199999995  9.9513185499999999
 -13.6344302299999995  9.6489066700000006  2.4632000999999999
 -13.8634337900000002  7.7861045200000003 17.1668765000000008
 -13.6443510499999991  5.9362641900000002  9.9482122999999998
 -13.7752967999999996  4.4791067900000003  2.3920802399999999
 -13.7613934400000009  2.7119446699999998 17.8679716800000001
 -13.5085300099999994  0.9995752700000000 10.1026424899999991
 -4.3891980899999998  2.7413247200000002 17.6871185599999983
 -4.5433757400000001  0.6600828200000000 10.0776148299999999
 -4.4998869299999997 -0.8392673700000000  2.6341380000000001
 -4.4302140100000003 -2.4390516299999998 17.4434664899999987
 -15.1333267800000009 13.8409763699999999  9.6492317100000005
 -15.0627820799999999 12.1738107000000007  2.4403846599999999
 -15.2587627200000000 10.3070224800000005 17.1752962800000013
 -15.3426331000000005  8.7772670000000002  9.4864973199999998
 -15.0233156500000007  7.1721747699999998  2.3905711500000000
 -15.2926980500000003  5.5272741800000000 17.1889259599999988
 -15.0486448100000008  3.4012289000000000  9.6502258699999999
 -15.3558515599999996  1.8201268300000000  2.5731283800000000
 -6.0711041799999999  3.4588983000000000 10.2624031099999993
 -5.8795634699999999  1.9332582400000000  2.3662988999999999
 -5.8799381300000002  0.2256051700000000 17.3239364100000017
 -5.7425187800000002 -1.8549270700000000  9.7999557500000005
 -16.6732904499999997 15.0531625400000006  2.3159014700000000
 -16.6483961899999997 13.3045241099999991 17.2751951099999985
 -16.5810532700000017 11.2951681300000004  9.6951720899999998
 -16.8239814699999997  9.5440325500000007  2.3503075299999998
 -16.8808689500000000  8.0015463400000009 16.8296702899999993
 -16.6917064300000000  5.9344605499999998  9.7860377599999993
 -16.5976988200000015  4.3409219600000002  2.2015876799999998
 -16.7184824100000000  2.7300170600000002 17.7507485900000006
 -7.6401821999999999  4.6455748400000001  2.3242729199999999
 -7.3958424899999997  2.7797643299999999 17.7446070700000007
 -7.5776057699999999  0.8540518100000000  9.9590548400000003
 -7.6854818800000002 -0.7705068100000000  2.2855256900000001
 -7.5229478600000004 -2.4080167399999999 17.5307179499999997
 -17.9823892100000009 13.7824376300000004 10.0383802200000005
 -18.1587298299999986 12.2714118600000006  2.2148208199999999
 -18.1763545300000011 10.5370168399999997 17.0267921199999996
 -18.3458551599999993  8.6348043400000005  9.8833272599999997
 -18.2071858400000011  7.0612244600000000  2.6167064600000001
 -18.3563996899999999  5.1848100900000000 17.1443483900000011
 -18.1287107700000014  3.5240596800000001  9.7784789199999995
 -8.7871984699999999  5.0925463000000004 17.5665074799999985
 -9.1341029099999993  3.4674853200000002  9.9508277100000004
 -9.1916658800000004  1.7408164300000000  2.3940143699999998
 -9.3122629000000003  0.0424819200000000 17.3797668999999999
 -9.0836275299999993 -2.0130935000000001 10.3192942399999996
 -9.0053763799999995 -3.4881101399999999  2.1890016600000002
 -19.6997229300000001 13.0105536799999992 17.1184038299999983
 -19.6509345199999998 11.2989968600000008 10.2179422599999992
 -19.7955872200000016  9.8081683700000006  2.6188028399999999
 -19.8048524300000004  8.0641255300000001 17.3359098200000012
 -19.5711590800000010  6.3816054700000002  9.6679570699999999
 -19.5686935200000001  4.3430631599999998  2.3990402600000000
 -10.8222065099999991 -2.6191026499999999 17.3189485900000015
 -10.7433092899999991 -4.6676285899999996 10.3307085099999991
 -21.2865295400000001 12.2037652300000001  2.4267383800000002
 -21.1745165200000010 10.5646198200000008 17.2963084900000013
 -21.2119299999999988  8.9772488199999998  9.6162671999999993
 -21.2835263200000000  7.1245370499999998  2.5655230699999998
 -21.3241290700000015  5.3269641400000003 17.5598315999999990
 -12.4310527799999999 -1.8619116400000000 10.3691713199999995
 -12.1437290800000000 -3.4500386199999999  2.4177370699999998
 -12.1861468500000001 -5.3339534600000000 17.3014563099999990
 -22.9607891100000003 11.3264131999999993 10.0640802899999997
 -22.8179319599999992  9.5694750800000001  2.3940290700000002
 -22.9895970900000002  7.7881322600000003 17.1268620399999989
 -22.8844132999999985  6.2709943600000004  9.9659327700000002
 -13.6010481100000007 -0.7949341599999999  2.3402820499999999
 -13.7652194699999999 -2.5148185700000001 17.2327917200000016
 -13.7555707799999993 -4.3249280800000003  9.9227948099999992
 -13.9874177300000007 -6.2076231599999998  2.5204463499999998
 -24.2514842600000016 10.4737824899999996 17.2907523500000018
 -24.1858288899999998  8.7860479999999992  9.8369399800000004
 -24.2187747699999996  6.8459451900000001  2.6462482399999998
 -15.3682968100000004 -0.0182400400000000 17.3057596499999988
 -15.3033420899999992 -1.6633013299999999 10.0784976799999999
 -15.1251940499999993 -3.3283663500000000  2.5539353600000001
 -15.2879961800000004 -5.0908898400000000 17.0945031999999983
 -15.2324045199999993 -7.0103691000000001 10.2281014900000002
 -25.7334327199999997  9.3912033699999995  2.4988026099999998
 -26.0756540500000007  7.7509830900000001 17.4921132999999998
 -16.6641123600000007  0.6847772600000001  9.8708174500000005
 -16.7018997300000009 -1.0379365000000000  2.1585953400000002
 -16.8742271499999994 -2.3442765500000000 17.4940547100000003
 -16.7283328000000004 -4.4784863200000000 10.0699062999999995
 -16.7438959599999997 -6.2584557399999996  2.5944435600000002
 -16.8179912400000013 -7.8594618299999999 17.5976579000000015
 -27.1546559599999995  8.6851976299999993  9.7008493999999992
 -27.3182146800000005  7.1862486700000003  2.5357278299999999
 -9.0519865599999996 15.7536240799999998 17.3379116800000013
 -8.8346338400000004 14.0651985199999991  9.5352633800000000
 -9.0173370800000008 12.0152720500000001  2.6849549900000000
 -9.3435574900000002 10.4195725400000008 17.4019122099999990
 -8.9829632799999999  8.5464642299999998  9.8887538900000003
 -9.1763814400000001  6.8147922300000001  2.6288068000000000
 -18.1404330099999989 -8.6325761900000000  2.3810444799999999
 -1.1221261300000001  2.7007018899999999 17.3279611100000004
 -2.9305547999999999  3.6665161600000000  9.7237245100000003
 -4.7077596699999997  4.5660581400000000  2.4351905399999998
 -5.8690265799999999  5.2641301699999996 17.4683203399999982
 -7.7911029200000002  5.8947889599999996 10.3125252399999994
 -25.7937517300000003  5.8938257399999996  9.8325782299999993
 -25.7514207400000004  4.3973278200000001  2.5733196999999999
 -7.5042961300000002 13.0159198299999996 17.3375040200000008
 -7.7109026099999998 11.7012453099999991  9.9408255699999994
 -7.6083385699999999  9.4496099000000005  2.4167677799999998
 -7.4588350800000001  7.8091003900000002 17.5495238799999989
 -18.0338277600000012 -6.9166939599999999 10.0216121699999992
 -19.9114897800000001 -6.1937042099999999  2.2633820800000000
 -2.9695309999999999  5.4049741999999998 17.4213079899999990
 -4.7520840299999998  6.1896741100000003 10.2056581000000008
 -6.0154828499999997  7.0107486300000001  2.5246939300000002
 -24.2417426300000010  5.0325092299999996 17.1754198000000002
 -24.1461797500000017  3.5701097000000002  9.7278218699999996
 -24.2558493400000010  1.8971974300000001  2.4346001400000001
 -24.1823428699999994 -0.1369379700000000 17.4293523300000004
 -6.1021341700000002  8.9328760299999992 10.0434458099999997
 -18.2664019099999990 -5.3087604199999996 17.1854064300000005
 -19.8066358700000009 -4.2355894500000000  9.7945890599999998
 -21.2803125800000004 -3.4158391600000000  2.1554906800000002
 -22.6537415300000013 -2.6633819500000002 17.2129488100000003
 -22.4757571300000016  4.3531369099999999  2.3372755600000001
 -22.8054977799999996  2.8720908399999998 17.4572597400000014
 -22.6536545499999988  0.6686458400000000  9.9815069199999993
 -22.7939894599999988 -0.8462355700000000  2.6489321800000001
 -18.2047023000000010 -3.6541150500000001  2.5181387700000002
 -19.8208671099999982 -2.2751106100000000 17.6387126099999989
 -21.2018550800000014 -1.7088942899999999  9.7048752599999997
 -21.0422623299999998  3.8677334200000000 10.0605767600000000
 -21.1369873800000008  1.5812467299999999  2.2610491300000000
 -21.3099904199999983  0.3940410000000000 17.1387424000000017
 -18.1205904800000006 -1.6939674300000001  9.9990708700000006
 -19.7074229599999988 -1.0047712099999999  2.0364410500000001
 -19.7025253700000000  2.9221880400000000 17.2487620899999996
 -19.8216834400000010  0.9536580900000000  9.7685747299999992
 -18.1377396699999984  0.1675616900000000 17.4437733299999991
 -18.0341194999999992  1.5920791100000000  2.4616320300000001
  0.1210318400000000  0.0492616800000000  4.8858594699999998
 -10.5106669400000001 16.7627386899999991 19.8869392900000008
 -10.6513038600000005 14.8607351600000008 12.5159303800000004
 -10.5299166700000004 12.9855372599999992  4.7275820299999998
 -10.7400555200000003 11.4456273199999998 19.9503008800000003
 -10.4596863700000000  9.3226729800000001 12.3509208000000008
 -10.9057276999999999  7.7721983999999997  5.1781633600000001
 -10.6102997299999995  6.2172701000000004 19.7722361500000012
 -10.8506836300000007  4.3815245699999998 12.6722686600000003
 -10.5778410699999998  2.5075404899999998  5.0060592599999998
 -10.6230677599999996  0.9215741000000000 19.8841574100000003
 -10.4847260299999991 -1.1257286600000000 12.5333043499999999
 -1.5706833300000000  0.7739595900000000 20.0575751400000009
 -1.7788032600000001 -0.7204302600000000 12.6047375099999996
 -12.1305781300000000 15.7924623900000007  4.9168189599999996
 -12.0210036500000008 14.0879377399999992 20.0119341400000010
 -12.0049933000000006 12.2546415399999997 12.2274829599999997
 -12.0916487499999992 10.3865593500000006  5.0601364699999998
 -12.2646712999999998  8.7607494199999998 19.7456410499999997
 -12.3060151100000006  7.0725738900000001 12.3772324200000003
 -12.3338997900000003  5.1215028900000004  4.8268076500000001
 -12.5186826399999998  3.4282899699999998 19.9096433899999994
 -12.1059141900000000  1.6036564400000000 12.8938027399999999
 -12.0448813000000001 -0.2581858300000000  4.8604916600000001
 -3.1865776100000001  1.7091162300000000 12.1089918599999997
 -3.0226200099999998  0.0325459900000000  4.8458673100000000
 -13.6707327400000000 16.8834897999999995 19.9642289700000006
 -13.6022599399999997 14.7758042199999995 12.1459513900000005
 -13.7097491900000001 13.1013718099999998  5.1031095500000001
 -13.9676202600000003 11.3533469500000006 20.0109331499999996
 -13.7422012400000000  9.5871852600000000 12.1197439599999992
 -13.5704988100000001  7.8727596799999997  4.8765646199999999
 -13.6026241900000002  6.1544355900000003 19.8213520099999982
 -13.4949594400000006  4.1719891200000001 12.5041282700000007
 -13.7392838299999998  2.6822336999999998  4.7836723900000004
 -13.7986150199999997  0.8788651500000000 19.7570435300000007
 -4.6095469700000002  2.6259045500000000  4.9900877399999999
 -4.4114983299999997  1.0059746300000001 19.8970479599999983
 -4.5360422600000003 -1.1269216500000001 12.4595463800000008
 -4.7184149299999998 -2.8023282799999998  5.0161039699999996
 -15.2900938400000008 14.1206391300000007 19.8165785999999997
 -15.1075130600000005 12.3362582300000003 12.6145014199999999
 -15.2457171200000001 10.4559063699999992  4.6495437600000002
 -15.2903153500000002  8.5872371399999992 19.8462188600000005
 -15.3165102100000006  6.6482957300000001 12.2256718299999996
 -15.2532824199999997  5.3675135999999997  4.6875081099999996
 -15.1860695299999993  3.7444893499999998 20.3486666499999984
 -15.0635468600000006  1.6294146000000000 12.4185757399999996
 -6.1117040400000002  3.4923767200000002 19.8567889999999991
 -5.9349565000000002  1.4387340799999999 12.6337337699999992
 -6.0372727299999998 -0.0868494200000000  4.8870894099999997
 -6.0915520699999997 -1.9096332400000000 19.6049871099999997
 -16.7729655899999983 14.6213978800000000 12.2736755199999994
 -16.7902052899999994 13.2651240700000006  4.9553913999999999
 -16.6078696999999984 11.5980343399999999 19.7765939999999993
 -16.6206306200000000  9.4986835599999999 12.4657303600000002
 -16.4776519899999982  7.7258486700000004  4.6875629200000004
 -16.9354273699999993  6.1733269200000001 19.8709173499999991
 -16.7793391499999984  4.4363246500000004 12.3529741699999995
 -16.8925643200000017  2.6484749999999999  4.7435918199999998
 -7.6196098499999998  4.3052366400000004 12.8280853700000002
 -7.6435585599999998  2.6884065399999999  5.2310384000000001
 -7.7451782500000004  0.6264231500000000 19.5752754700000011
 -7.6271752499999996 -1.1641246999999999 12.4001438200000003
 -7.7451701699999997 -2.6974105900000001  4.7173485099999999
 -18.5858481399999995 14.1467729500000008 19.8020355300000013
 -18.2341243599999991 12.2369458200000008 12.4227105000000009
 -18.0750822699999993 10.5813157300000000  4.6962450499999999
 -18.0819918599999987  8.9167407999999995 20.0790561499999995
 -18.2572909500000016  6.8512884500000002 12.0225624999999994
 -18.2930033799999983  5.2635265400000000  4.9333044199999998
 -18.5584454900000004  3.6578761700000002 19.5149205700000010
 -9.3040669200000004  5.2365410700000004  4.9462093300000003
 -9.2632895099999999  3.5499171800000000 20.0519863299999983
 -9.1763863499999996  1.8193610499999999 12.7167007699999992
 -8.9796032199999996  0.0018855100000000  4.8337446799999997
 -9.1741188999999999 -1.8689300700000000 19.6985530299999994
 -8.9826026999999993 -3.8684590900000000 12.6194159100000007
 -19.9768205499999993 13.1479094300000003  4.9371370700000003
 -19.6153553199999990 11.3097581900000002 19.5282540199999985
 -19.5805596500000014  9.4050138499999996 12.2594665700000007
 -19.7148697999999989  7.8954443899999998  5.0561638699999998
 -20.0664131300000008  5.9802619400000001 20.0017863100000000
 -19.8643833900000004  4.4689297899999998 12.4580959199999999
 -10.6820137800000001 -2.4985551500000001  4.9377475000000004
 -10.6228698999999995 -4.2372895599999998 19.4689146700000002
 -21.2331860900000002 12.0539498500000004 12.4913915899999992
 -21.2641871599999988 10.3851698700000004  4.9824890499999999
 -21.5470992599999995  8.4931068500000002 20.1137255300000000
 -21.4408594199999989  7.1401105700000000 11.9773927199999992
 -21.2729691599999988  5.1930237200000002  5.1247051099999998
 -12.1493779300000000 -1.7175906500000000 19.6999656799999983
 -12.2384173500000006 -3.7425855700000001 12.4522042200000005
 -12.0243352199999993 -5.2597579799999998  4.9689051400000004
 -22.7213815699999984 11.4539399999999993 19.7081046099999995
 -22.8166165300000010  9.7137316699999996 12.4100256000000009
 -22.7513977499999989  7.9143776700000004  5.0703048700000002
 -22.8883128099999986  6.0104575300000000 19.5464088499999988
 -13.7043412900000003 -1.0061724400000001 12.3919390200000006
 -13.6158441400000001 -2.6691269399999999  4.7227228400000003
 -13.7194445399999996 -4.4125957299999996 19.7861027599999986
 -13.5570772399999999 -6.0754884699999998 12.3630504000000006
 -24.3150270199999987 10.4889281400000005  4.9593083800000004
 -24.2803854900000005  8.7452788399999992 19.6893419999999999
 -24.2756235400000016  7.1839293900000003 12.4968316799999997
 -15.1754903700000003  0.2186008000000000  4.6450130999999999
 -15.1982158100000007 -1.6594987200000000 19.6483896099999988
 -15.2490621999999991 -3.7100570700000000 12.2502629200000008
 -15.1182960800000004 -5.3312409799999996  5.2714558599999997
 -15.0547815699999994 -6.9133459000000004 19.8646981300000007
 -25.9174080099999991  9.7490424800000000 12.0983881899999997
 -25.6356321999999999  7.6175430500000001  4.9845030299999999
 -16.8463580700000009  0.8959583000000000 19.7940943099999984
 -16.5496758499999999 -0.7502964300000000 12.4443691899999997
 -16.5047036300000016 -2.7151567299999999  4.9328638800000002
 -16.8834332600000003 -4.2364488500000004 20.0221120200000016
 -16.8128107500000006 -6.1745655499999996 12.4189564899999993
 -16.4840619500000010 -7.9456692200000001  5.0431838800000000
 -27.4750690000000013  8.8139784199999998 20.1442190200000013
 -27.1338241099999991  6.6814452900000001 12.4692119699999999
 -9.2387911599999999 15.8337082200000001  4.6727234299999996
 -9.2570786999999992 13.8088120199999995 20.1311579599999995
 -9.4348809399999993 12.5414992299999994 12.3551683099999998
 -9.2316460100000004 10.4503520000000005  5.2491130000000004
 -9.0733836799999992  8.9059930800000000 19.6772533000000003
 -9.1994782500000003  7.0140723800000000 12.4871284800000009
 -17.9818734099999986 -8.8752421600000009 12.1346603399999999
 -1.7429549700000000  2.8113149599999998  5.0439873600000000
 -2.9668822300000000  3.3719744100000000 19.8527510400000011
 -4.6057808299999996  4.3923060100000004 12.6284641499999992
 -6.2200958899999996  5.4705224799999996  4.8744443500000001
 -7.5544012100000000  6.1614778200000000 19.7470120099999988
 -25.9181816800000000  6.2607714000000003 19.8117318699999991
 -25.6373133300000013  4.4101699999999999 12.4532300100000004
 -7.8257352400000002 13.1379616899999991  4.9176329299999999
 -7.6260736199999997 11.1625112600000005 20.0585489499999987
 -7.7387687400000003  9.8906355099999992 12.2088145600000004
 -7.7041805300000004  7.8455367999999996  5.1845405800000002
 -18.0848339399999993 -6.7567194300000004 19.9471352599999996
 -19.4725620100000008 -6.1418067000000001 12.3613045100000001
 -3.1568204099999999  5.2733135200000003  5.1066474900000003
 -4.6219707400000001  6.0536299800000002 19.9501170399999985
 -6.4242302100000002  7.0749993499999997 12.8199415000000005
 -24.4023605500000009  5.1392937600000002  5.0034257699999998
 -24.5755969100000016  3.4440780100000001 19.9355091500000015
 -24.5135345099999995  1.6291618400000001 12.3017799500000002