Li                                      
   1.00000000000000     
    22.0829999999999984   -0.0000000000000006    0.0000000000000000
    -0.0000000000000006   22.0829999999999984    0.0000000000000000
     0.0000000000000006    0.0000000000000006   22.0829999999999984
   Li
   500
Direct
  0.9867283421636586  0.0016873943757645  0.0193892985554527
  0.0314339007381221  0.1156626676629102  0.0985001204546450
  0.0100338296427083  0.1953010818276510  0.1990096363718692
  0.0032404383462392  0.2844403686093386  0.3203153810623576
  0.9953571063714151  0.3977965271928667  0.4008458619752773
  0.0034033831454039  0.4705406122356592  0.5149757089163600
  0.0116066173074287  0.5701579056287613  0.5961664130779312
  0.9977860068831248  0.6992383824661488  0.6897530204229483
  0.0166535679029138  0.8369256844631607  0.7937120812389651
  0.9811808563148148  0.9117319091608920  0.9144809699769070
  0.1317649051306446  0.9923718539147757  0.0851095231626147
  0.1104054675542301  0.1047507331431419  0.1895189607390293
  0.1015268102160007  0.1904388158311789  0.3029730127247205
  0.1060347153919281  0.2822687750758490  0.4223515514196450
  0.1020755708010697  0.3814616578363470  0.4959762731512924
  0.1091769555766859  0.4859652289091159  0.5905788633790721
  0.1044286202055886  0.5927817660643910  0.6920983584657847
  0.1000819164062818  0.7042846510890755  0.7803987320563337
  0.1085398030158942  0.8350680301589435  0.8908954313272659
  0.1150832391432317  0.9147731657836360  0.9828707077842651
  0.2052453878549088  0.0083909649956979  0.2011853371371615
  0.1963873110537548  0.0923837286600531  0.2843772616945159
  0.2333706190282143  0.1818035783181600  0.4075809192591606
  0.2164894380292566  0.2741094516143647  0.5093695471629758
  0.1956315487026217  0.3907371385228444  0.5901806303491384
  0.1819806851424204  0.4935420345967501  0.6819454027985330
  0.1969825721142939  0.5958456115563990  0.8029881927274403
  0.1859334374858506  0.6830604464973078  0.9102185885069929
  0.2076876044921434  0.8124597667889333  0.9912617434225410
  0.2293151881537838  0.9237002621926393  0.0921194715391920
  0.2898464112665877  0.0062513748132034  0.3176923542996875
  0.2985119136892607  0.0955867490830045  0.3919524321876580
  0.3211738568129334  0.1930626201150218  0.5219517724041083
  0.3005790408911864  0.2978806217452359  0.6261894670108248
  0.2941079151383406  0.4181707304261195  0.7109303563827396
  0.3042670796540321  0.5114501630213297  0.8120123742245156
  0.2970189702486081  0.6226600294344067  0.8907571593533490
  0.2860367110446944  0.6847317474980770  0.9957015473441118
  0.3036562953403106  0.8186278617035754  0.1055317361771486
  0.2969533763528531  0.9289948829416304  0.2120586926595109
  0.4031548919983692  0.0142596771271997  0.4057302721550542
  0.4096698233935641  0.0853595838427736  0.5012006190282108
  0.3981799180364973  0.1922063193406700  0.5884678164198718
  0.4146539822487867  0.2719857161617512  0.6915456559344264
  0.4100265262871901  0.4007604772902198  0.7759819422179959
  0.4207676941538736  0.4986915894579553  0.8874308517864407
  0.4012965629669907  0.5971134814110428  0.0064513295295043
  0.3847183512203927  0.7038135620160304  0.0987520201059624
  0.3776110886202062  0.8097397984875272  0.2160450070189768
  0.3936281592174993  0.8883085296381807  0.3292779776298502
  0.4893222080333288  0.9887312602454372  0.5158638780962761
  0.5221624507539744  0.0984968324050186  0.6038711973010891
  0.5076582140107746  0.1955138957569176  0.7030234012588892
  0.5305553452882279  0.3176830629896301  0.8112495589367370
  0.5102382842005184  0.3990679237422441  0.8995812702078538
  0.5237457428791359  0.5148111914142106  0.9970281574061488
  0.4987379124213192  0.5940014993433849  0.1133161173753550
  0.4725190472309038  0.6945966091563633  0.1878363446995408
  0.5036106452927598  0.7994050432459332  0.3045169949735111
  0.4880863483222413  0.9057351990218692  0.3994969827469106
  0.5866774672825272  0.9701252438527348  0.6056182932572582
  0.5965094919168621  0.0858042485169577  0.7190485314495305
  0.5876650803785708  0.2080428714395666  0.8147786600552465
  0.5844904311008463  0.3300400036226989  0.9123626540777963
  0.5988906049902667  0.4086284155232534  0.0005644387085084
  0.6015946669383681  0.4982208182765007  0.1084360621292362
  0.5865606851424161  0.5909652076257785  0.2160610655255155
  0.5756015070416183  0.6945321672779983  0.3418608644658789
  0.5807140741747077  0.8120013213784389  0.3861436842820254
  0.5819740556083843  0.9081689376443407  0.5008240307023470
  0.6897754829506866  0.0095188968890128  0.6869652366073424
  0.6886899266404001  0.0795948974324148  0.8011686446587873
  0.7106651206810639  0.1793923561110375  0.8882362400941872
  0.7132935244305543  0.2734494638409615  0.9873946959199387
  0.7094457111805497  0.3984616347416576  0.0777941574967187
  0.6896815758728465  0.4934293451976615  0.2081323742245189
  0.6797883516732313  0.6036867336865441  0.3092817669700665
  0.6927078050989479  0.7024732948421857  0.4080324566408535
  0.6909384639768135  0.7936425087171131  0.5030375103020432
  0.6991376887198300  0.8938129294027064  0.6060597151655145
  0.8016517932346119  0.0134851442285893  0.7893385097133532
  0.8039234922791323  0.1092691196848250  0.8883099855092169
  0.7930353937417891  0.1924186804329153  0.9951912194901027
  0.7641234374858499  0.2889320078793673  0.1092037033011835
  0.7849731802744202  0.4069229398179601  0.1983672222976978
  0.7917941008920906  0.5003999420368643  0.2979614341348551
  0.7973094615767806  0.5858512896798445  0.3988844989358356
  0.8034947009011475  0.7117649730561979  0.5239728673640371
  0.8042093791604401  0.7943705289136460  0.6016677743060299
  0.8021204175157379  0.9062009957886161  0.6784623493184796
  0.8789990227777054  0.0208577566453840  0.8949827690984051
  0.8962638509260543  0.1181720898428651  0.0247522854684590
  0.9187599044513917  0.2062447217316503  0.1079392750079222
  0.9148173966399469  0.3003921007109511  0.1922305479328017
  0.8889496902594729  0.4005939854186451  0.2849135294117673
  0.8908386763573759  0.5037501372096216  0.4032907163881703
  0.9100722225241142  0.5805516668930863  0.4980089548521462
  0.9184391993841388  0.7201033401258883  0.5830954725354331
  0.8874948670923359  0.7940003917040244  0.6935267694606679
  0.8982406031789196  0.9039199904904223  0.8068039691165154
  0.1333330177059295  0.0916126341529662  0.9845237096409036
  0.1206001675496964  0.2173326196621801  0.0800847135805824
  0.0966170370873556  0.2880475256985022  0.2039655286872275
  0.0977772001086805  0.3771494316895385  0.3057944699542645
  0.0932408612960174  0.4762765688538693  0.3976494602182683
  0.1093452198523721  0.5943881447267145  0.4973524421500670
  0.0974622990535678  0.6907861821310490  0.5892533174840366
  0.0958338359824324  0.8048959837884340  0.6805311248471710
  0.0972139433048014  0.9222009894488963  0.7878940098718488
  0.0904185033736340  0.9947678838925853  0.8856011905085381
  0.2243228080423876  0.1012650387175640  0.0937587868496124
  0.2114545365213090  0.1915784277498531  0.1889854363084709
  0.2049606244622595  0.2613887071502958  0.2870864669655404
  0.1925525838880588  0.3862295376533993  0.4106366784404258
  0.1950567622152803  0.4898790884390678  0.4861683272200352
  0.1911688158311833  0.5925425947561465  0.5854429774034315
  0.1973337825476591  0.7005800783408063  0.6750654100439277
  0.1863019970112774  0.8019438794547824  0.7992307965403285
  0.2118219272743715  0.8978913666621366  0.8815739274555057
  0.2132755486120530  0.9982585794502583  0.9762602957025734
  0.3123899746411283  0.0900899927546064  0.1935624539238319
  0.3176472336186222  0.1790122560340563  0.2846727143051240
  0.3224272037313796  0.3019553778924973  0.3973730054793307
  0.2760009432595183  0.3936150314721729  0.5151071742969719
  0.2972879232894101  0.4920238518317248  0.5826891269302195
  0.2811857732192209  0.5945473078838930  0.6863969741430083
  0.2943952225693991  0.7005050142643654  0.7936376583797511
  0.2880727328714414  0.7872265425893232  0.8790208128424553
  0.3089054815921770  0.9175020961825808  0.9795509726939287
  0.3195684934112180  0.0259271113526225  0.0816714368518774
  0.4095109237875292  0.1094618901417377  0.3012563809265032
  0.3982368622922579  0.1943889539464720  0.4168632029162680
  0.3713401254358573  0.2977865471176955  0.5283973096952437
  0.4019547013539864  0.4199454435538641  0.6088645021056891
  0.3989274795091262  0.5115863311144295  0.6814873477335510
  0.4088010528460799  0.6015359484671450  0.7951796866367786
  0.3949859412217549  0.6837755780464647  0.9030778526468310
  0.3818600806049872  0.7827028990626275  0.9836541756101980
  0.3905129352895926  0.9081967205542725  0.0948174840374918
  0.3887597935063170  0.0058506135941698  0.2030628456278620
  0.4920464067382184  0.1051740198342586  0.4008860077887988
  0.5088385608839374  0.1836118172349757  0.5034179241950838
  0.5247755015170057  0.2999815794955367  0.5919688407372163
  0.5158919204818204  0.4046243404428722  0.6929603147217307
  0.5091637205089867  0.5076363682470699  0.8128615477969490
  0.5151185839786265  0.6025310809219775  0.8975943372730129
  0.4937725336231509  0.7022922071276554  0.0033351048317698
  0.4695533029932548  0.8107136525834377  0.1137124951319990
  0.4767178463071176  0.9105151233980919  0.2141109862790387
  0.4893610388081342  0.0057379500067896  0.3091252701172849
  0.6197784123533907  0.1036227111352659  0.5149266200244540
  0.6140983032196701  0.2071878766471968  0.6081101249830212
  0.6082950029434429  0.3143647783362766  0.7222256989539488
  0.5976080242720627  0.4252915514196474  0.8025594851243056
  0.6059587216410804  0.5069153602318508  0.9212282674455494
  0.6196357587284353  0.6201387134900145  0.0176953846850552
  0.5915679749128273  0.6900097129013290  0.1195484920527079
  0.5838450568310449  0.7887345170493134  0.2066676212471137
  0.5880592256486921  0.9068435851107211  0.3004104102703451
  0.5948056124620749  0.0146768292351567  0.4006146026355140
  0.6991935045057289  0.0984398659602377  0.6025997441470849
  0.6901551809083912  0.1960640981750643  0.7164364606258218
  0.6921017868948951  0.3100483398994669  0.8220920155775957
  0.6730646805234812  0.3991275918127073  0.9124343590091897
  0.6967694244441418  0.5190048453561573  0.9999939822487889
  0.7078566250056610  0.5910372734682809  0.1141730974052422
  0.6802269668976137  0.6800891681383874  0.2001498990173403
  0.6723837051125301  0.7988795050491362  0.3026162831137071
  0.6909299239233775  0.8873911411493012  0.4045758402390973
  0.6811178979305339  0.9970695435402774  0.5078896739573437
  0.8049345161436392  0.0934108327672902  0.7113394525200363
  0.8008095263324719  0.1945968337635264  0.8070571303717813
  0.8030477743060302  0.2769021998822652  0.8998555780464628
  0.8126048553185683  0.4068572322601085  0.9803126246433891
  0.7947207091427799  0.4883730317438761  0.0942633233709174
  0.8004422791287453  0.6046820952769068  0.1997479703844576
  0.7969803790245891  0.7004807494452763  0.2772061123941469
  0.7889285866956470  0.7966457614454541  0.3996498324503008
  0.7886221369379172  0.9043644291989281  0.5233055721595790
  0.8183602323053947  0.0282901209074851  0.6074331725761866
  0.9089777910609982  0.1130749268668225  0.7922443033102411
  0.8988665489290426  0.1851741891953083  0.9191822560340555
  0.8824067065163277  0.2783704234026203  0.0171599574333214
  0.8839362717927841  0.3806140334193699  0.0912620395779555
  0.8832606049902623  0.4849834768826682  0.1998531775573937
  0.8875477149843789  0.6176597622605655  0.2900424702259627
  0.8790083566544382  0.7124585482045021  0.3986159932980087
  0.8980819435765071  0.8007636453380442  0.4658638377937763
  0.8836245691255726  0.9077799270932374  0.5714373232803496
  0.8814816827423826  0.0062676303038529  0.6892981084997487
  0.9965561400172049  0.0874542557623528  0.8907019363311122
  0.0293973187519825  0.2080443214237206  0.9900424896979558
  0.0168232165013791  0.3076877149843753  0.0725550527555114
  0.0113787678304575  0.4010144079155893  0.1958767712720189
  0.9975767096861858  0.5065054594031579  0.2791950640764398
  0.9882789281347613  0.5862466856858219  0.4003279273649412
  0.9910399895847490  0.6742742376488735  0.4746764316442480
  0.9808611963954164  0.8040560363175260  0.5819076343793839
  0.9861362038672254  0.8968788765113445  0.6832162029615532
  0.9805143218765551  0.9985743341031537  0.7704688334918259
  0.2155118987456390  0.2142479337046623  0.9869642652719293
  0.2073128741565924  0.2924739238328158  0.0882459502784982
  0.1999754444595396  0.3747126884934104  0.1914055386496401
  0.1940093954625723  0.4866632939365090  0.3003240746275395
  0.2074629706108766  0.5801837313770761  0.3835343920662950
  0.1998340370420664  0.7065188221708993  0.5007206742743264
  0.1999243381786897  0.7982300919259160  0.5911812842457991
  0.2117796363718725  0.8912962677172516  0.7046366032694849
  0.2052583983154435  0.0030288013403990  0.7868269342933445
  0.2160827156636316  0.1042419195761468  0.8904445383326518
  0.3095249001494338  0.1831072037313746  0.0878266195716151
  0.3081155839333434  0.3020667291581773  0.1764479477426093
  0.3048827604945004  0.3855472191278366  0.3073480455554076
  0.2994303274011685  0.4980877480414776  0.3995269388217153
  0.3021420119548992  0.5890110469592003  0.4924765530045718
  0.2875219947470882  0.6874814228139314  0.5986469931621627
  0.2790381048770527  0.8102548403749523  0.7154668047819612
  0.3001696105601610  0.8860893343295757  0.8107742326676615
  0.3018449993207426  0.0060235099397730  0.8805156446135030
  0.3128061943576483  0.1002453403070263  0.9722396780328779
  0.4121485119775414  0.1938482321242603  0.1867985767332314
  0.3840805606122331  0.2959879042702553  0.2905048983380851
  0.3926865797219605  0.3972116229678946  0.4104563763981375
  0.4000239922112030  0.5032830883485033  0.4943896087488113
  0.4002835285060939  0.6035291491192325  0.6074435529592890
  0.3833632971063707  0.6829912040936463  0.7140074414708124
  0.4045679436670753  0.7760717995743320  0.7925821985237533
  0.4054013245482935  0.8632306181225360  0.9040572417696850
  0.4126737897930539  0.9929414699089776  0.9887105474799611
  0.4222088439070788  0.0988366385907682  0.0922329429878204
  0.5059417547434677  0.2150748711678645  0.2954616904406109
  0.4910655404609869  0.2985331399719229  0.4151810478648770
  0.4845911071865245  0.3976396585608839  0.5005897083729565
  0.5107395910881678  0.5038012584340876  0.6023510890730392
  0.5103397042974223  0.5999275157360842  0.6943844898790914
  0.5068100855861957  0.6860530412534516  0.8155488932663104
  0.5075745442195370  0.7783493221029758  0.9026975890956876
  0.5000261114884736  0.8846115301363042  0.0256238536430757
  0.5055694339537169  0.9741307847665652  0.1026796386360544
  0.5088800633971857  0.1034174704523849  0.1847799619616879
  0.6079172589774942  0.2238091341756103  0.3957293279898551
  0.6324335864692330  0.3109486831499311  0.4947265779106118
  0.6132654440067000  0.3877327220033493  0.5856255590273065
  0.5921841710818256  0.5023298197708641  0.6988074908300490
  0.6047442639134175  0.5943224593578762  0.8100451963048485
  0.6267021921840339  0.6893847738079089  0.9251163021328637
  0.6004135556763117  0.7843883838246626  0.0358836847348627
  0.5976730258569916  0.9104077892496463  0.1288381759724686
  0.5975832128786820  0.0064164579087986  0.1998687497169769
  0.6034165425893221  0.1250880002717025  0.3045947969025917
  0.7126603831001219  0.2267553996286722  0.4973325141511538
  0.7035258311823611  0.3131071647873966  0.6152568740660271
  0.6823298786396776  0.4164940705520053  0.7137040048906371
  0.7045454159308093  0.5176640325137001  0.8186761182810329
  0.7125256432549918  0.6103408436353774  0.9109003527600450
  0.7105469673504530  0.7273694303310236  0.0210907553321533
  0.7010648956210659  0.7959928646470118  0.1325441421002580
  0.7030149499615064  0.9145662894534254  0.2040851573608649
  0.6974753326087964  0.0057998329031363  0.3184444015758743
  0.7179672395055050  0.1301044568219893  0.4019303491373449
  0.7875304238554577  0.2209496508626572  0.6251478250237739
  0.7943293827831397  0.3002385196757658  0.7256221369379148
  0.7862614223610933  0.4243316877235870  0.8340342947063348
  0.8126258905040089  0.5327139378707599  0.9271660213739068
  0.8019245052755508  0.6179804501200010  0.0158897563736815
  0.8054657157089196  0.7170862428112130  0.1262190875333999
  0.7954594968980686  0.8037803097405245  0.2043627595888253
  0.8025022397319219  0.8765737653398560  0.3283908567676477
  0.8017635352986474  0.9969483245030091  0.4123255146492752
  0.8097060594122212  0.1169929819318014  0.4788072041842142
  0.8924008585789949  0.2035745419553479  0.6753762713399425
  0.9115040950052062  0.2871524978490214  0.8092414422859235
  0.8856666417606291  0.3979805642349348  0.9030866938368902
  0.9119594262554926  0.4985855028755140  0.0205482502377379
  0.8949911280170255  0.6059733532581646  0.1157168142915381
  0.8942883634469965  0.7230186840556101  0.2006800778879665
  0.9136088982475243  0.8046712475659987  0.3062234642032351
  0.9130767576869090  0.8994977928723458  0.4100878870624456
  0.9022095154643850  0.0249053289861010  0.4651720866730074
  0.8991371217678790  0.1161596653534360  0.5945688167368530
  0.0077660123171697  0.2197674459991816  0.8088753280804255
  0.9899784811846217  0.2875570511252974  0.9211456944255758
  0.0021237585472988  0.3902886002807620  0.9762161463569257
  0.9837169813883975  0.4901689865507421  0.1076959086174867
  0.9917015396458808  0.6115338314540608  0.2000625485667697
  0.9968861065072687  0.7167513105103467  0.3065408952587987
  0.9886616764026641  0.8043296911651510  0.4153934854865753
  0.0063371145224806  0.9195810655255201  0.4940335574876613
  0.9841139967395733  0.0007368342163687  0.6114464461350337
  0.0087695372005641  0.1226084771090896  0.6929459869582928
  0.1043756781234464  0.1822340533442031  0.8902100470950529
  0.1381128420051638  0.2988556867273502  0.9723535737897961
  0.1286891246660318  0.3915469410859060  0.1035703391749294
  0.1016698926776272  0.5001135923561080  0.1974423520355018
  0.0989599696599228  0.5976590603631777  0.2865465647783338
  0.1026472653172092  0.6760891233075199  0.3796223484128092
  0.1075121147489000  0.7859626436625433  0.4933207136711530
  0.0921290440610392  0.9073898650545686  0.6018252760041634
  0.0951151917764790  0.0076652995516895  0.7010769999547151
  0.1144574496218809  0.0955828836661681  0.7889572671285592
  0.3022483430693299  0.3142181814065097  0.0000300729067604
  0.3111182688040586  0.4206354571389781  0.1083108422768646
  0.2823853022687146  0.4896624570936936  0.2018975352080759
  0.2959740067019894  0.5956686324321865  0.2821552452112499
  0.2877480120454621  0.7027257913326963  0.3892004759317089
  0.2790396200697387  0.8132867848571266  0.4845198646017295
  0.2885155105737454  0.9053537866231949  0.5965489879092516
  0.3070605089888119  0.9878028904587239  0.7022666503645354
  0.3107362523207868  0.1057155146492761  0.7917673486392260
  0.3132810958655980  0.1976663863605523  0.8939987605850632
  0.3896764692297268  0.2901790363628152  0.1049013109631858
  0.3874126672100715  0.4057723167142129  0.1960956867273467
  0.3816404890639831  0.4842461979803474  0.3186984440519893
  0.3821607426527223  0.5990647393922899  0.3898065149662671
  0.3705509323914313  0.6879209826563439  0.4837624616220637
  0.3618794910111873  0.7788823185255609  0.6174720169361052
  0.3868161495267870  0.8887654014400255  0.6975088556808373
  0.4110894280668376  0.9698970443327468  0.8188368210840906
  0.4162381071412398  0.1161117207806939  0.8960422659964706
  0.4101081524249395  0.1923957487660175  0.9949122379205733
  0.4997629927998943  0.3019392627813247  0.1838427201920041
  0.4901914803242349  0.3921155291400638  0.2915699506407634
  0.5066172349771350  0.4808401761535990  0.4064673377711330
  0.4877210967712742  0.5800589249649022  0.4955442222524127
  0.4871996259566203  0.6894391740252672  0.5885148553185715
  0.4910608775981515  0.7775472952044566  0.6944916560249936
  0.4988898138839843  0.8723258628809489  0.8061263904360843
  0.4930932405017430  0.9917279359688465  0.9040597758456741
  0.5155077226826066  0.1008027523434336  0.0061528035140128
  0.5148364017570088  0.2020787211882435  0.0842918910474140
  0.5983871294661043  0.3131617370828224  0.2869016927047952
  0.6011868527826820  0.3805990540234561  0.3951115930806495
  0.5894980586876812  0.4831334859394119  0.4848297495811238
  0.5935122750532074  0.5768955064982109  0.5846689127383087
  0.6030545319929388  0.7040930724992052  0.6960835796766744
  0.6049144903319288  0.7909379930263114  0.7983877607209138
  0.5980414182855611  0.8883941937236770  0.9249104129873658
  0.6053291106280838  0.9818946361454479  0.9882355259702038
  0.6037454399311670  0.0973053312502827  0.0809681542362881
  0.5903864579087994  0.2306951446814267  0.1926817782909964
  0.7354437304714025  0.3213197916949682  0.3826116560249986
  0.7223267626681178  0.4105601435493398  0.4933272902232488
  0.6907493284426920  0.4824656065751967  0.5936409056740501
  0.7032603686093353  0.5948657243128181  0.6830125028302305
  0.6907225521894702  0.6927457582755991  0.7902744319159538
  0.7051202717022136  0.8000593162160925  0.8868291685912268
  0.7075782303129117  0.8896253593261818  0.0246338468505201
  0.7119651972105245  0.9912011574514352  0.1093115559480111
  0.6903777118145200  0.0979669084816379  0.2002706425757381
  0.6953913046234632  0.2132975134719004  0.2956945596159954
  0.7965697006747305  0.3136909568446313  0.5075318484807312
  0.8029340370420712  0.3887959072589808  0.6225913603224171
  0.7975166340624043  0.5033343019517247  0.6816151437757583
  0.8015443159896734  0.6179066567042497  0.7841160408459018
  0.8029755169134631  0.7033732454829504  0.9052561848480707
  0.8130434143911600  0.7904007947289742  0.9965934325046391
  0.8225915355703464  0.8931715871937698  0.1082043658017469
  0.8186105352533630  0.9916103935153728  0.2282264040211928
  0.7992309532219366  0.1023243413485488  0.3061540696463325
  0.8071292292713821  0.2256101032468436  0.3750016754969892
  0.9101943359145039  0.2959938817189709  0.6054087990762156
  0.8884496354661948  0.3968879327989825  0.7259416062129276
  0.8883043436127309  0.5243891876103817  0.7829978530996726
  0.9074672571661466  0.6079284404292906  0.8917657148032418
  0.9020190513064321  0.7042580903862685  0.0037673581487994
  0.9252692197618089  0.8067424213195693  0.0984258375220790
  0.9170080355929926  0.9017922030521248  0.2165327088710782
  0.8970875134719023  0.0080155957071071  0.2977440334193702
  0.8939901308699021  0.1404751877009431  0.3730212914911917
  0.8837371317302924  0.2090144147081432  0.5009747167504415
  0.0000673314314170  0.3027184359009212  0.6967452325318106
  0.9876018905945756  0.4022564619843294  0.8093274410179774
  0.0107835864692305  0.4969081080469167  0.9032549205271039
  0.0041046972784500  0.6147213136802065  0.0213496078431348
  0.0048988651904196  0.7245872023728666  0.1135076216999522
  0.0075265416836459  0.8164426884934102  0.2138090657972214
  0.0051907553321584  0.9012549055834782  0.3042170619933913
  0.0061724045645946  0.0161721260698258  0.4023082004256651
  0.9929676447946392  0.0919706068016097  0.5114301702667206
  0.0083466041751592  0.2273937974912812  0.5923178422315800
  0.1114364284743914  0.2980445193134997  0.8359351338133436
  0.1146988144726748  0.4127578322691647  0.9137440696463344
  0.1081052239279074  0.4928348435448058  0.0113423927908372
  0.1006743517638000  0.6079471607118592  0.1314563759452980
  0.1099306996332032  0.7341637327355883  0.2096457406149526
  0.0875218362541332  0.8172095951637033  0.2942711216773120
  0.0885819707467306  0.9136934361273390  0.3923860571480304
  0.1100463954172923  0.0199735167323283  0.5058700407553332
  0.1088238880586871  0.1063231766517205  0.5987814626635881
  0.1190355576687949  0.2104392940270827  0.7065323330163480
  0.2318842879137790  0.3010019440293448  0.8969741760630328
  0.2286624815468912  0.4089703278540071  0.0042957673323372
  0.1980074147534268  0.4972478829869118  0.0788927210976738
  0.1829712561699068  0.6097832386903974  0.2137447498075460
  0.1757833496354664  0.7055961332246525  0.2724296916179867
  0.1767868419145984  0.8156967676493210  0.3936237313770761
  0.1834481574061471  0.9114394393877632  0.5072209043155382
  0.2059308785038283  0.0045581755196338  0.5933573613186596
  0.2249529221573141  0.0803962197165262  0.7059732989177192
  0.2225796780328793  0.2036058325408661  0.8084787433772576
  0.4131164434180121  0.4168409115609322  0.0213243024045653
  0.4112722696191611  0.5011328705338940  0.0906486790743983
  0.3887056627269843  0.5905003545713896  0.2045548362994154
  0.3966812747362241  0.7089523914323266  0.3187302934383922
  0.3908677503056666  0.7876207213693789  0.4035578168727056
  0.3818720993524423  0.8956269949735116  0.4958934171081850
  0.3870182167278031  0.9930850763030392  0.5963764090024029
  0.3966539985509243  0.0952443173481896  0.7066387143956874
  0.4100920228229867  0.1945076207942762  0.7917106321604876
  0.3956116800253611  0.2879762432640476  0.8970902766834215
  0.4982804972150490  0.3893076606439365  0.1006321545985571
  0.4909979241950850  0.4854106135941691  0.2125730412534494
  0.5013844704071033  0.5760561114884766  0.2995270873522600
  0.4869757451433259  0.6748125938504757  0.4164590848163741
  0.4758481542362887  0.7762641751573582  0.5005135701670937
  0.4726552153240036  0.8745367984422430  0.5975437263958696
  0.4956806742743254  0.9857334537879794  0.7041422442602894
  0.4921141629307613  0.0794079690259508  0.8055352705701253
  0.5006031626137784  0.1983927450980403  0.8983950360005437
  0.4837506711044668  0.3000615450799273  0.0150823058461285
  0.5889338201331356  0.4113443956889924  0.1961491106280846
  0.5908070085586203  0.4972668989720574  0.3209976162659061
  0.5908570004075528  0.5966181592174991  0.4162763211520186
  0.5771500294344065  0.6929583919757292  0.4840010899787188
  0.5907485445818068  0.8025153575148281  0.6058653638545479
  0.5911590897975856  0.8900286369605581  0.7156289928904584
  0.5775308418240286  0.9830998809038647  0.8056995607480886
  0.5875806407643864  0.1088429592899516  0.9029796051261130
  0.6059780016302128  0.2070075949825636  0.9809938744735760
  0.6040919132364237  0.3079293076121914  0.0786013807000856
  0.6928849676221560  0.4115506099714707  0.3116140986279063
  0.7049039740977250  0.4976390970429776  0.4002074672825273
  0.6864565448535060  0.5927766743648988  0.5011299805280061
  0.6911985939410386  0.7034249409047675  0.5936922700720046
  0.7000118317257602  0.8073345369741460  0.6927435946202962
  0.7074109994113087  0.9166627867590478  0.7879446515419133
  0.6987283562016060  0.0041305909523146  0.9052266970067464
  0.7126824942263283  0.1028507240864016  0.9851758710320127
  0.6952369555766893  0.1845290513064342  0.0996889562106631
  0.6567547996196197  0.3182500819634981  0.2059106833310693
  0.8189740587782453  0.4029411687723581  0.3993358923153565
  0.8085859194855800  0.4898003165330778  0.5122478526468299
  0.8023351854367604  0.5942082461622036  0.5989963872662258
  0.7973916284019396  0.6904339491916858  0.6639678177783850
  0.7932978811755618  0.7814039220214681  0.7936880831408786
  0.7936283059366929  0.9129240474573237  0.8953889018702199
  0.8034666444776519  0.9989139523615478  0.0031665258343523
  0.7930627093239124  0.1146628827604914  0.1210659339763609
  0.7816085020151249  0.2271352461169229  0.2063487497169803
  0.7988064239460186  0.3171185540913797  0.2872818566318003
  0.9133853760811519  0.4035178956663472  0.5188003156274092
  0.9006065330797455  0.4806865557215971  0.6106826672100709
  0.9009938070008587  0.6161921935425454  0.6745701118507483
  0.9127751356246918  0.7100999578861575  0.7831782479735523
  0.8971617520264488  0.7945879382330290  0.9014371770139959
  0.9134545931259339  0.8948963170764870  0.0032957424263031
  0.8953372408640163  0.9998212154145705  0.1259004419689376
  0.8928700584159799  0.1159369211610723  0.2035167608567647
  0.8909059692976484  0.2116139025494732  0.2719998002988717
  0.9072921609382760  0.3060531757460510  0.3980155929900846
  0.0040752538151523  0.3834097604492115  0.5899687877552893
  0.0095281306887642  0.4699749667164781  0.7120039034551482
  0.0027364325499235  0.5902576076620036  0.7731045396911682
  0.9906024362631882  0.7228940940995372  0.8713920278041911
  0.0290295938051912  0.8218758701263411  0.9938493999909426
  0.9981167354978950  0.9177585559027293  0.1014266834216357
  0.0009573912059082  0.0228016886292650  0.2113334863922489
  0.0081205488384697  0.0922668088574952  0.2774363936059387
  0.9916474577729488  0.1731528791377954  0.3895788860209208
  0.9923827469093851  0.2766477761173789  0.4856898034687305
  0.1101803532128756  0.3650571195036889  0.7000351034732617
  0.1018242879137787  0.4945376755875586  0.7822376352850640
  0.0903673803378169  0.5735545229361918  0.8961280423855484
  0.0953688167368583  0.7033642648190934  0.0292999126024540
  0.0954073214690041  0.8231119168591192  0.1098423239596045
  0.1109466634968044  0.9030870221437297  0.2029696164470423
  0.1114589933432981  0.0215576706063487  0.2836060666576117
  0.1021978716659859  0.1142346954671041  0.3899552841552349
  0.1137857587284330  0.1923834397500315  0.4940861853009082
  0.1038139048136557  0.2789147796947873  0.6185520151247559
  0.1923519440293404  0.4035717425168670  0.8228133319748210
  0.2022932174070533  0.4980290422496978  0.8887730620839562
  0.2025006955576671  0.5899484974867519  0.0147561893764419
  0.2116567635737923  0.7113822238826231  0.1212320486346954
  0.2055790562876396  0.8377638812661345  0.1950998931304611
  0.1913403292125153  0.8965140026264535  0.3042378467599534
  0.1882518901417356  0.9938695548612060  0.3984351922293143