Li 
 1.0000000000000000
    22.0829999999999984   -0.0000000000000006    0.0000000000000000
    -0.0000000000000006   22.0829999999999984    0.0000000000000000
     0.0000000000000006    0.0000000000000006   22.0829999999999984
 Li 
 500
Cartesian
 -0.2930780200000000  0.0372627300000000  0.4281738800000000
  0.6941548300000000  2.5541786900000001  2.1751781600000002
  0.2215770600000000  4.3128337900000000  4.3947298000000004
  0.0715586000000000  6.2812966599999998  7.0735245600000001
 -0.1025290200000000  8.7845407099999999  8.8518791700000001
  0.0751569100000000 10.3909483399999996 11.3722085800000006
  0.2563089300000000 12.5907970299999992 13.1651428999999993
 -0.0488916100000000 15.4412812000000006 15.2318159499999997
  0.3677607400000000 18.4818298900000002 17.5275438900000005
 -0.4155831500000000 20.1337757500000016 20.1944832599999984
  2.9097643999999998 -0.1684523500000000  1.8794736000000001
  2.4380839399999998  2.3132104400000002  4.1851472100000002
  2.2420165500000002  4.2054603699999999  6.6905530400000002
  2.3415646200000002  6.2333413599999998  9.3267893100000006
  2.2541348299999999  8.4238177899999993 10.9526440399999991
  2.4109547099999999 10.7315701499999996 13.0417530399999997
  2.3060972199999998 13.0903997400000005 15.2836080499999998
  2.2101089599999999 15.5527179499999999 17.2335451999999982
  2.3968844699999998 18.4408073100000003 19.6736438100000015
  2.5413831700000000 20.2009358200000015 21.7047338399999994
  4.5324339000000000  0.1852976800000000  4.4427757999999997
  4.3368209899999997  2.0401098800000002  6.2799030699999996
  5.1535233800000002  4.0147684200000002  9.0006094399999999
  4.7807362600000003  6.0531590199999998 11.2484077100000004
  4.3201314899999996  8.6286482299999996 13.0329588600000008
  4.0186794700000004 10.8988887499999993 15.0594003300000008
  4.3499661400000003 13.1580586400000001 17.7323882600000005
  4.1059681000000001 15.0840238400000004 20.1003570899999993
  4.5863653700000002 17.9415490300000009 -0.1929669200000000
  5.0639672999999998 20.3980728900000017  2.0342742899999999
  6.4006783000000000  0.1380491100000000  7.0156002600000003
  6.5920385899999996  2.1108421800000001  8.6554855600000007
  7.0924822799999996  4.2634018400000002 11.5262609900000008
  6.6376869599999999  6.5780977700000003 13.8281419999999997
  6.4947850899999997  9.2344642399999994 15.6994750599999993
  6.7191299200000003 11.2943539499999996 17.9316692599999996
  6.5590699199999998 13.7502014300000006 19.6705903500000012
  6.3165486900000003 15.1209311799999995 -0.0949227300000000
  6.7056419700000003 18.0777590699999990  2.3304573300000002
  6.5576214100000003 20.5149940000000015  4.6828921100000001
  8.9028694799999997  0.3148964500000000  8.9597415999999992
  9.0467387099999996  1.8849956900000000 11.0680132699999998
  8.7930071299999994  4.2444921500000001 12.9951347899999998
  9.1568038900000008  6.0062605700000002 15.2714027199999993
  9.0546157800000007  8.8499936199999993 17.1360092299999991
  9.2918129900000004 11.0126063700000003 19.5971355000000003
  8.8618319999999997 13.1860570100000007  0.1424647100000000
  8.4957353500000004 15.5423148900000001  2.1807408599999998
  8.3387856700000000 17.8814839700000014  4.7709218900000003
  8.6924906400000008 19.6165172599999984  7.2714455800000000
 10.8057023200000000 -0.2488475800000000 11.3918220199999993
 11.5309133999999993  2.1751055500000001 13.3352876499999997
 11.2106163399999996  4.3175333599999997 15.5248657699999999
 11.7162536900000003  7.0153950800000002 17.9148240100000002
 11.2675920299999994  8.8126169599999997 19.8654531900000002
 11.5658772400000007 11.3685755400000001 -0.0656272000000000
 11.0136293199999997 13.1173351100000009  2.5023598200000001
 10.4346381200000007 15.3387769200000008  4.1479900000000001
 11.1212338800000001 17.6532615700000015  6.7246487999999998
 10.7784108300000003 20.0013503999999998  8.8220918699999995
 12.9555985099999997 -0.6597242400000000 13.3738687699999996
 13.1727191099999992  1.8948152199999999 15.8787487200000008
 12.9774079699999998  4.5942107300000004 17.9927571499999992
 12.9073021899999993  7.2882733999999996 20.1477044899999989
 13.2253012299999995  9.0237412999999993  0.0124645000000000
 13.2850150300000003 11.0022103300000005  2.3945935600000001
 12.9530196100000001 13.0502846800000007  4.7712765099999999
 12.7110080799999992 15.3373538499999995  7.5493134700000004
 12.8239088999999993 17.9314251800000015  8.5272109799999996
 12.8517330699999999 20.0550946500000009 11.0596970700000004
 15.2323119899999995  0.2102058000000000 15.1702533200000005
 15.2083396499999992  1.7576941200000000 17.6922071800000005
 15.6936178599999998  3.9615214000000001 19.6149208900000005
 15.7516608999999992  6.0385845099999997 -0.2783629300000000
 15.6666896399999995  8.7992282799999995  1.7179283800000000
 15.2302382400000003 10.8964002299999994  4.5961872200000000
 15.0117661699999996 13.3312141400000002  6.8298692599999997
 15.2970664599999999 15.5127177700000001  9.0105807400000000
 15.2579940999999994 17.5260075200000003 11.1085773400000001
 15.4390575800000001 19.7380709199999984 13.3836166900000002
 17.7028765499999992  0.2977924400000000 17.4309623100000017
 17.7530424800000013  2.4129899699999999 19.6165494100000011
 17.5126005999999990  4.2491817200000002 -0.1061923000000000
 16.8741378699999984  6.3804855299999996  2.4115453800000002
 17.3345627399999991  8.9860792800000002  4.3805433699999998
 17.4851891299999984 11.0503319199999996  6.5798823500000001
 17.6069848399999991 12.9373540299999998  8.8085663899999993
 17.7435734799999985 15.7179058999999999 11.5708928300000000
 17.7593557199999985 17.5420843899999994 13.2866294600000003
 17.7132251799999985 20.0116365899999984 14.9824840600000009
 19.4109354200000013  0.4606018400000000 19.7639044900000016
 19.7921946200000001  2.6095942600000002 22.6296047199999997
 20.2889749700000017  4.5545021900000000  2.3836230100000000
 20.2019125700000011  6.6335587599999997  4.2450271900000001
 19.6306760099999984  8.8463169799999992  6.2917454700000004
 19.6723904900000015 11.1243142800000001  8.9058688900000007
 20.0971248899999999 12.8203224599999999 10.9975317500000003
 20.2818928400000011 15.9020420599999994 12.8764973200000004
 19.5985491500000002 17.5339106499999993 15.3151516500000007
 19.8358472399999997 19.9612651499999991 17.8166520499999983
  2.9443930300000001  2.0230817999999999 -0.3417629200000000
  2.6632134999999999  4.7993562399999998  1.7685107300000000
  2.1335940299999998  6.3609535099999999  4.5041707700000000
  2.1592139100000001  8.3285909000000000  6.7528592800000000
  2.0590379400000001 10.5176154700000009  8.7812930300000005
  2.4146704899999998 13.1258733999999997 10.9830339800000001
  2.1522599499999999 15.2546312600000000 13.0124810100000001
  2.1162985999999999 17.7745180100000013 15.0281688300000003
  2.1467755099999999 20.3649644499999987 17.3990634200000009
  1.9967118100000001 21.9674591799999988 19.5567310899999995
  4.9537205699999998  2.2362358499999999  2.0704752900000001
  4.6695505300000004  4.2306264200000001  4.1733653899999998
  4.5261454700000003  5.7722468200000003  6.3397304500000002
  4.2521387099999997  8.5291068800000005  9.0680897700000003
  4.3074384800000001 10.8179999099999993 10.7360551700000002
  4.2215809599999998 13.0851181200000006 12.9283372700000001
  4.3577219200000004 15.4709098699999998 14.9074694500000007
  4.1141069999999997 17.7093266900000010 17.6494136799999985
  4.6776636199999997 19.8281350500000002 19.4677970400000007
  4.7097639400000002 22.0445442100000015 21.5587561100000009
  6.8985078099999999  1.9894573099999999  4.2744396699999996
  7.0146038600000002  3.9531276499999999  6.2864275500000000
  7.1201599399999997  6.6680806099999996  8.7751880799999995
  6.0949288299999997  8.6922007400000005 11.3751117300000004
  6.5650092100000004 10.8653627200000003 12.8675239900000005
  6.2094254299999996 13.1293881999999993 15.1577043800000002
  6.5011296999999999 15.4692522300000004 17.5259004099999984
  6.3615101599999999 17.3843237399999992 19.4114166099999998
  6.8215597499999996 20.2611987900000017 -0.4515758700000000
  7.0570310400000000 22.6555484000000007  1.8035503399999999
  9.0432297300000002  2.4172469200000002  6.6526446600000000
  8.7942646300000007  4.2926912699999997  9.2055901099999993
  8.2003039900000001  6.5760203199999996 11.6685977899999997
  8.8763656700000002  9.2736552299999992 13.4455548000000000
  8.8095155300000005 11.2973609499999998 15.0492851000000005
  9.0275536499999998 13.2837183499999991 17.5599530199999982
  8.7224745400000003 15.0998160899999991 19.9426682200000016
  8.4326161600000002 17.2844281200000012 -0.3609648400000000
  8.6236971499999999 20.0557081799999999  2.0938545000000000
  8.5849825200000005 22.2121990999999994  4.4842368199999996
 10.8658608000000001  2.3225578800000002  8.8527657099999999
 11.2366819400000004  4.0546997600000001 11.1169780199999995
 11.5886174000000004  6.6244932199999997 13.0724479099999993
 11.3924412799999999  8.9353193100000006 15.3026426299999994
 11.2438624399999991 11.2101339200000005 17.9504215599999988
 11.3753636900000004 13.3056938599999999 19.8215757500000009
 10.9039788600000005 15.5087188099999995  0.0736491200000000
 10.3691455900000005 17.9029895900000007  2.5111130300000002
 10.5273602000000004 20.1069054700000009  4.7282129099999999
 10.8065598200000004 22.2097111500000004  6.8264133400000002
 13.6865666800000003  2.2883003300000002 11.3711245499999993
 13.5611328300000000  4.5753298800000000 13.4288958899999997
 13.4329785499999996  6.9421173999999999 15.9489101099999999
 13.1969779999999997  9.3917133300000000 17.7229211100000015
 13.3813864500000008 11.1942119000000009 20.3434838300000003
 13.6834164600000001 13.6945232099999998  0.3907671800000000
 13.0635955900000003 15.2374844899999999  2.6399893500000000
 12.8930503900000009 17.4176243399999997  4.5638410800000004
 12.9861118799999993 20.0258268900000012  6.6339630900000000
 13.1350923399999999 22.4071084200000001  8.8467722700000007
 15.4402901600000000  2.1738475600000000 13.3072101499999995
 15.2406968599999999  4.3296834799999999 15.8210663599999997
 15.2836837600000006  6.8467974900000002 18.1542579800000006
 14.8632873399999994  8.8139346100000004 20.1492879500000015
 15.3867592000000002 11.4611839999999994 -0.0001328900000000
 15.6315978500000003 13.0518761100000003  2.5212845100000001
 15.0214521100000002 15.0184090999999995  4.4199102200000002
 14.8482493600000005 17.6416561099999996  6.6826753800000001
 15.2578055100000007 19.5962585699999998  8.9342482800000003
 15.0411265400000005 22.0182867299999998 11.2157276699999997
 17.7753689199999982  2.0627914199999999 15.7085091299999995
 17.6842767700000003  4.2972818799999999 17.8222426100000000
 17.7337039999999995  6.1148312799999998 19.8715107300000007
 17.9447530200000003  8.9846282599999991 -0.4347563100000000
 17.5498174200000001 10.7847416599999999  2.0816169699999998
 17.6761668500000013 13.3531947100000004  4.4110344300000000
 17.5997177100000002 15.4687163900000009  6.1215425799999998
 17.4219099799999988 17.5923283499999989  8.8254672500000009
 17.4151426499999999 19.9710796899999998 11.5561569500000001
 18.0718490100000011 22.7077307399999988 13.4139467499999991
 20.0729565600000015  2.4970336099999999 17.4951309500000001
 19.8496699999999997  4.0892016199999999 20.2983017600000011
 19.4861873000000010  6.1472540599999999  0.3789433400000000
 19.5199646899999983  8.4050996999999992  2.0153396200000002
 19.5050439400000002 10.7098901200000007  4.4133577199999996
 19.5997161899999988 13.6397805299999995  6.4050078700000004
 19.4111415399999991 15.7332221200000006  8.8026369800000008
 19.8323435600000018 17.6832635799999984 10.2876711299999997
 19.5130813600000010 20.0465041299999989 12.6190504099999998
 19.4657599999999995 22.2214080799999998 15.2217701299999995
 22.0069492400000009  1.9312523300000000 19.6693708600000008
 22.7321809899999998  4.5942427500000003 21.8631083000000004
 22.4545070899999999  6.7946678100000000  1.6022332300000000
 22.3342773299999990  8.8556011699999999  4.3255467400000001
 22.0294864799999992 11.1851600599999994  6.1654646000000000
 21.8241635699999996 12.9460855600000002  8.8404416200000000
 21.8851360899999996 14.8899979899999995 10.4822796399999998
 21.6603577999999999 17.7559694499999985 12.8502662900000004
 21.7768457899999994 19.8057762299999993 15.0874634099999998
 21.6526977699999996 22.0515170199999986 17.0142632499999991
  4.7591492600000000  4.7312371200000003 -0.2878681300000000
  4.5780902000000001  6.4587016600000000  1.9487353199999999
  4.4160577400000003  8.2747802999999998  4.2268085099999997
  4.2843094800000001 10.7469855200000008  6.6320565399999998
  4.5814047799999997 12.8121973400000009  8.4695899800000003
  4.4129350399999998 15.6020551500000000 11.0574146500000001
  4.4149291599999998 17.6273151199999987 13.0550563000000004
  4.6767297100000000 19.6824954800000000 15.5604901099999999
  4.5327212100000001  0.0668850200000000 17.3754991899999993
  4.7717546100000003  2.3019743099999999 19.6636867399999993
  6.8352383699999999  4.0435563800000001  1.9394752399999999
  6.8041164399999996  6.6705395799999998  3.8965000299999999
  6.7327260000000004  8.5140392400000007  6.7871668900000000
  6.6123199200000000 10.9992717399999993  8.8227533900000008
  6.6722020500000001 13.0071309500000005 10.8753597200000005
  6.3493482099999996 15.1816522599999999 13.2199215500000005
  6.1619984700000003 17.8928576399999990 15.7996534499999992
  6.6286455100000001 19.5675107699999984 17.9043273800000016
  6.6656431200000004  0.1330171700000000 19.4444269799999994
  6.9076991899999998  2.2137178500000001 21.4699688100000010
  9.1014755899999997  4.2807505099999998  4.1250729699999997
  8.4816510199999993  6.5363008899999997  6.4152196699999999
  8.6716977400000008  8.7716242700000002  9.0641081600000000
  8.8337298200000003 11.1140004399999999 10.9176057300000000
  8.8394611600000008 13.3277342000000001 13.4141759799999996
  8.4658116900000007 15.0824947599999994 15.7674263299999993
  8.9340738999999996 17.1379935500000009 17.5025926900000002
  8.9524774499999999 19.0627217400000006 19.9642960699999996
  9.1130753000000002 -0.1558735200000000 -0.2493049800000000
  9.3236378999999996  2.1826094899999999  2.0367800800000002
 11.1727117699999994  4.7494983800000004  6.5246805099999996
 10.8442003299999996  6.5925073300000001  9.1684430799999994
 10.7012254200000001  8.7810765800000006 11.0545225299999998
 11.2786623899999991 11.1254431900000004 13.3017190999999997
 11.2698316900000002 13.2481993300000003 15.3340926900000003
 11.1918871200000005 15.1501093099999995 18.0097662099999987
 11.2087686600000005 17.1882880799999995 19.9342708600000016
 11.0420766199999996 19.5348764199999998  0.5658515600000000
 11.1644898099999992 -0.5712698800000000  2.2674744599999999
 11.2375984399999993  2.2837679999999998  4.0804958999999998
 13.4246368300000007  4.9423771099999998  8.7388907499999995
 13.9660308900000008  6.8666797700000002 10.9250470199999992
 13.5427408000000007  8.5623017000000008 12.9323692200000000
 13.0772030499999996 11.0929494099999992 15.4317658200000007
 13.3545675799999994 13.1244228700000001 17.8882280700000003
 13.8394645100000009 15.2236839600000007 20.4293432999999993
 13.2589325500000008 17.3216486799999991  0.7924194100000000
 13.1984134300000004 20.1045352100000017  2.8451334400000001
 13.1964300899999998  0.1416946400000000  4.4137015999999996
 13.3252475100000005  2.7623183099999999  6.7263669000000004
 15.7376792400000003  5.0074394900000003 10.9825939100000003
 15.5359609299999999  6.9143455200000004 13.5867175499999995
 15.0678907100000004  9.1974385600000002 15.7607255399999993
 15.5584764199999999 11.4315748300000006 18.0788247200000001
 15.7347037800000003 13.4781568499999995 20.1154124900000006
 15.6910086799999995 16.0624991299999991  0.4657471500000000
 15.4816160899999993 17.5779104299999993  2.9269722900000001
 15.5246791399999999 20.1963673700000008  4.5068125300000004
 15.4023477700000004  0.1280777100000000  7.0322077199999997
 15.8548705499999993  2.8730967199999999  8.8758279000000009
 17.3910343500000018  4.8792311399999999 13.8051394199999997
 17.5411757600000016  6.6301672299999996 16.0239136500000008
 17.3630109899999994  9.3705166599999998 18.4179793300000014
 17.9452175400000016 11.7639218900000007 20.4746072499999983
 17.7088988500000006 13.6468622800000006  0.3508934900000000
 17.7870993999999989 15.8354154999999999  2.7872961100000002
 17.5661320699999983 17.7498805799999992  4.5129428200000001
 17.7216569600000007 19.3573784599999996  7.2518552900000000
 17.7053441499999984 -0.0673901500000000  9.1053843400000005
 17.8807389100000016  2.5835560200000001 10.5734994899999997
 19.7068881599999983  4.4955366100000003 14.9143342000000008
 20.1287449299999999  6.3411886099999997 17.8704787699999983
 19.5581764500000013  8.7886047999999999 19.9428634600000017
 20.1388000100000006 11.0102636599999997  0.4537670100000000
 19.7640890800000015 13.3817095599999991  2.5553744100000002
 19.7485699299999986 15.9664216000000003  4.4316181600000002
 20.1752253000000010 17.7695551599999995  6.7623327599999996
 20.1634740400000005 19.8636097599999992  9.0559708099999998
 19.9234927299999995  0.5499843800000001 10.2723951899999992
 19.8556450600000005  2.5651538899999999 13.1298631799999992
  0.1714968500000000  4.8531245099999998 17.8623938699999982
 -0.2213052000000000  6.3501223600000003 20.3416603699999996
  0.0468989600000000  8.6187431599999993 -0.5252188400000000
 -0.3595779000000000 10.8244017299999999  2.3782487500000000
 -0.1832549000000000 13.5045015999999993  4.4179812600000004
 -0.0687641100000000 15.8280191899999991  6.7693425899999999
 -0.2503842000000000 17.7620125699999996  9.1731343400000007
  0.1399425000000000 20.3071086700000016 10.9097430499999994
 -0.3508106100000000  0.0162715100000000 13.5025718700000006
  0.1936576900000000  2.7075629999999999 15.3023262300000003
  2.3049281000000001  4.0242746000000000 19.6585084700000010
  3.0499458900000000  6.5996301300000004 21.4724839699999990
  2.8418419400000001  8.6465311000000007  2.2871437999999999
  2.2451762400000002 11.0440084600000006  4.3601194599999999
  2.1853330099999999 13.1981050300000007  6.3278077899999996
  2.2667595600000001 14.9300761099999999  8.3832003200000003
  2.3741900299999998 17.3564130600000013 10.8940013199999992
  2.0344856800000000 20.0378903900000012 13.2901075700000000
  2.1004287800000001  0.1692728100000000 15.4818833900000001
  2.5275638599999999  2.1107568200000002 17.4225433299999999
  6.6745501599999999  6.9388801000000004  0.0006641000000000
  6.8704247299999999  9.2888927999999993  2.3918283300000001
  6.2359146299999999 10.8132160400000004  4.4585032699999996
  6.5359939899999997 13.1541504099999997  6.2308342799999998
  6.3543393500000001 15.5182936500000004  8.5947141100000000
  6.1620319300000004 17.9598120700000017 10.6996521700000002
  6.3712880199999997 19.9929276700000003 13.1735913000000000
  6.7808172200000003 -0.2693487700000000 15.5081544400000002
  6.8619886599999997  2.3345157099999998 17.4845983599999997
  6.9181864400000004  4.3650668100000001 19.7421746300000009
  8.6052254700000006  6.4080236599999996  2.3165356500000001
  8.5552339300000000  8.9606700700000008  4.3303810499999997
  8.4277669199999998 10.6936087900000008  7.0378177400000004
  8.4392556800000005 13.2291466399999997  8.6080972700000000
  8.1828762400000006 15.1913590599999999 10.6829264399999992
  7.9913847999999996 17.2000582400000006 13.6356345500000007
  8.5420610299999993 19.6266063600000003 15.4030880600000000
  9.0780878400000002 -0.6647635700000000 18.0823735200000009
  9.1917861199999997  2.5640951300000001 19.7873013600000007
  9.0564183299999996  4.2486753200000003 21.9706469499999990
 11.0362661699999993  6.6677247399999997  4.0597987900000003
 10.8248984600000000  8.6590872300000008  6.4387392200000004
 11.1876283999999995 10.6183936100000000  8.9760182200000003
 10.7703449800000008 12.8094412400000000 10.9431030600000003
 10.7588293400000001 15.2248852800000005 12.9961735500000000
 10.8440973599999992 17.1705769199999985 15.3364592399999999
 11.0169837600000005 19.2635720299999988 17.8016890799999992
 10.8889780300000005 -0.1826719900000000 19.9643520300000006
 11.3839570400000003  2.2260271800000000  0.1358723600000000
 11.3691322600000007  4.4625044000000003  1.8614178299999999
 13.2141829800000004  6.9155506400000002  6.3356500799999997
 13.2760092699999994  8.4047689099999996  8.7252493100000006
 13.0178856300000003 10.6690367699999999 10.7064953599999999
 13.1065315699999996 12.7395834699999995 12.9112436000000006
 13.3172532300000004 15.5484873199999996 15.3716136900000002
 13.3583266900000002 17.4662837000000017 17.6307969200000016
 13.2065486399999994 19.6184089800000017 20.4247966500000011
 13.3674827500000006 -0.3998207500000000 -0.2597948800000000
 13.3325105500000003  2.1487936300000001  1.7880197499999999
 13.0375041500000002  5.0944408799999996  4.2549917099999996
 16.2408038999999995  7.0957049600000000  8.4492132000000009
 15.9511418999999997  9.0663996499999993 10.8941465500000003
 15.2538174200000007 10.6542879900000003 13.1093721199999997
 15.5300987199999998 13.1364197899999997 15.0829650999999991
 15.2532261200000008 15.2979045800000009 17.4516302799999998
 15.5711709599999999 17.6677098800000003 19.5838485300000009
 15.6254500600000004 19.6455968100000007  0.5439892400000000
 15.7223274499999999 -0.1943048400000000  2.4139270900000001
 15.2456110099999993  2.1634032400000001  4.4225766000000002
 15.3563261799999999  4.7102489900000002  6.5298229599999997
 17.5906486999999991  6.9272374000000001 11.2078258099999992
 17.7311923399999998  8.5857800199999996 13.7486850100000009
 17.6115598300000009 11.1151313900000002 15.0521072199999999
 17.7005031300000013 13.6452326999999993 17.3156345300000005
 17.7321083399999999 15.5325913799999995 19.9907723299999986
 17.9544377200000014 17.4544207500000006 -0.0752272300000000
 18.1652888799999985 19.7239081600000006  2.3894770099999998
 18.0773764499999992 -0.1852676800000000  5.0399236800000002
 17.6494171400000006  2.2596284299999998  6.7608003200000004
 17.8238347700000013  4.9821479100000001  8.2811620000000001
 20.0998215199999990  6.5364328900000004 13.3692425099999994
 19.6196333000000003  8.7644762200000006 16.0309684899999993
 19.6164248199999989 11.5800864299999997 17.2909415899999992
 20.0395994399999999 13.4248837499999993 19.6928622799999999
 19.9192867100000015 15.5521314099999994  0.0831945700000000
 20.4327201800000005 17.8152928899999985  2.1735377699999998
 20.2502884499999993 19.9142772199999989  4.7816918099999999
 19.8103835599999982  0.1770084000000000  6.5750814899999996
 19.7419840600000001  3.1021135700000002  8.2374291799999995
 19.5155670800000003  4.6156653199999997 11.0630246700000008
  0.0014868800000000  6.6849312200000002 15.3862249700000007
 -0.2737874500000000  8.8830294500000004 17.8723778799999984
  0.2381339400000000 10.9732217500000004 19.9465784100000008
  0.0906440300000000 13.5748907699999997  0.4714633900000000
  0.1081816400000000 16.0010591899999994  2.5065888099999998
  0.1662086200000000 18.0295038900000009  4.7215455999999998
  0.1146274500000000 19.9024120800000013  6.7180253800000003
  0.1363052100000000  0.3571290600000000  8.8841719900000005
 -0.1552955000000000  2.0309869100000002 11.2939124500000005
  0.1843180600000000  5.0215372299999999 13.0801549099999992
  2.4608506499999998  6.5817171200000004 18.4599555600000009
  2.5328939199999998  9.1149312100000000 20.1782102899999991
  2.3872876600000001 10.8832718499999999  0.2504740600000000
  2.2231917100000000 13.4252971500000005  2.9029511499999998
  2.4275996399999999 16.2125377099999994  4.6296068899999998
  1.9327447099999999 18.0464394900000009  6.4983891800000002
  1.9561556600000001 20.1770921500000000  8.6650612999999996
  2.4301545500000001  0.4410751700000000 11.1711281099999997
  2.4031579199999999  2.3479347100000001 13.2228910400000004
  2.6286622199999998  4.6471309300000003 15.6023535100000004
  5.1207007300000003  6.6470259299999999 19.8078807300000008
  5.0495535800000004  9.0312917499999994 22.1778634299999986
  4.3725977399999998 10.9807249999999996  1.7421879600000001
  4.0405542499999996 13.4658432599999998  4.7201253100000002
  3.8818237099999999 15.5816794099999996  6.0160648800000001
  3.9039838300000000 18.0130317200000007  8.6923928600000000
  4.0510856600000000 20.1273171399999988 11.2009592300000005
  4.5475715900000004  0.1006581900000000 13.1031106099999999
  4.9676353799999999  1.7753897199999999 15.5900083600000006
  4.9152270299999996  4.4962276000000001 17.8536360899999984
  9.1228504200000007  9.2050978499999996  0.4709045700000000
  9.0821255300000008 11.0665171800000000  2.0017947800000000
  8.5837871499999991 13.0400193299999998  4.5171844500000002
  8.7599125900000008 15.6557956600000008  7.0385210699999998
  8.6315325299999994 17.3930283900000013  8.9117672700000004
  8.4328815699999993 19.7781309299999997 10.9508143300000000
  8.5465232800000006 -0.1527022600000000 13.1697802399999997
  8.7593102500000004  2.1032802600000000 15.6047027299999996
  9.0560621399999999  4.2953117900000004 17.4833458899999989
  8.7362927300000006  6.3593793800000000 19.8104445799999986
 11.0035282199999997  8.5970810699999998  2.2222598699999998
 10.8427071599999998 10.7193225800000000  4.6942504700000001
 11.0720732599999998 12.7210471100000007  6.6144566700000000
 10.7538853799999998 14.9018865100000006  9.1966659699999997
 10.5081547900000007 17.1422417799999991 11.0528411700000007
 10.4376451200000009 19.3123961199999989 13.1955581100000003
 10.9461163300000006 -0.3150481400000000 15.5495731799999994
 10.8673570599999998  1.7535661800000000 17.7886353799999988
 11.0548196399999998  4.3811069900000001 19.8392575800000017
 10.6826660699999998  6.6262591000000004 22.4160625600000003
 13.0054255500000000  9.0837182900000002  4.3315608100000000
 13.0467911700000005 10.9811449299999992  7.0885903600000004
 13.0478951399999996 13.1751188100000007  9.1926299999999994
 12.7452041000000005 15.3026001699999998 10.6881960700000000
 13.0455001100000008 17.7219466399999988 13.3793248299999998
 13.0545661800000001 19.6545023900000011 15.8032350499999996
 12.7536135799999997 -0.3732053300000000 17.7922633999999995
 12.9755432899999992  2.4035790700000002 19.9404986199999996
 13.3818122099999997  4.5713487199999996 -0.4197122700000000
 13.3401617199999993  6.8000029000000000  1.7357542900000000
 15.3009787399999997  9.0882721199999992  6.8813741400000001
 15.5663944599999997 10.9893641800000008  8.8377815000000002
 15.1590198800000007 13.0902873000000000 11.0664533600000006
 15.2637385499999993 15.5337329700000009 13.1105064000000002
 15.4583612800000001 17.8283685799999994 15.2978567999999999
 15.6217571000000000 20.2426643199999994 17.4001817400000007
 15.4300182899999996  0.0912158400000000 19.9901211500000002
 15.7381675199999993  2.2712525399999999 -0.3273612400000000
 15.3529176900000000  4.0749550399999999  2.2014312199999999
 14.5031162400000007  7.0279165600000004  4.5471256200000001
 18.0854041400000014  8.8981498299999995  8.8185345099999992
 17.8560028600000003 10.8162603900000001 11.3119693300000002
 17.7179679000000014 13.1219006999999994 13.2276372200000001
 17.6087993300000001 15.2468529000000004 14.6624013200000007
 17.5183971099999987 17.2557428100000010 17.5270139399999998
 17.5256938799999986 20.1601017400000018 19.7728731199999999
 17.7429539100000007 -0.0239831900000000  0.0699263900000000
 17.5132038100000003  2.5321004399999998  2.6734990199999999
 17.2602605500000017  5.0158276400000004  4.5567994399999998
 17.6400422600000013  7.0029290299999998  6.3440452399999998
 20.1702892600000006  8.9108856900000006 11.4566673699999999
 19.8880940700000011 10.6150012100000009 13.4857053400000009
 19.8966462399999990 13.6073722099999994 14.8965317800000001
 20.1568133200000013 15.6811373700000001 17.2949252499999986
 19.8120229700000010 17.5468854400000005 19.9064371800000011
 20.1718177800000014 19.7619953700000011  0.0727798800000000
 19.7717322899999992 -0.0039481000000000  2.7802594599999999
 19.7172495000000012  2.5602350299999999  4.4942606300000003
 19.6738765200000003  4.6730698100000003  6.0065715900000001
 20.0357327900000008  6.7585722800000001  8.7893783400000007
  0.0899938300000000  8.4668377400000008 13.0282807399999996
  0.2104097100000000 10.3784571900000007 15.7231822000000001
  0.0604286400000000 13.0346587500000002 17.0724675499999989
 -0.2075264000000000 15.9636702800000005 19.2429501499999986
  0.6410605200000000 18.1494848399999995 -0.1358237000000000
 -0.0415881300000000 20.2668621900000012  2.2398054500000000
  0.0211420700000000  0.5035296900000000  4.6668773799999999
  0.1793260800000000  2.0375279399999999  6.1266278800000000
 -0.1844491900000000  3.8237350299999999  8.6030705399999992
 -0.1682118000000000  6.1092128399999996 10.7254879299999999
  2.4331127399999999  8.0615563699999999 15.4588751900000005
  2.2485857500000002 10.9208754900000002 17.2741536999999994
  1.9955828600000001 12.6658045300000008 19.7891955599999996
  2.1060295800000000 15.5323930600000004  0.6470299700000000
  2.1068798800000001 18.1767804599999998  2.4256480400000000
  2.4500351700000000 19.9428707100000011  4.4821780400000000
  2.4613489500000001  0.4760580400000000  6.2628727700000004
  2.2568356000000001  2.5226447799999998  8.6113825399999993
  2.5127309100000002  4.2484035000000002 10.9109052299999991
  2.2925224599999998  6.1592750799999996 13.6594841500000008
  4.2477079800000004  8.9120747900000001 18.1701868100000006
  4.4672411199999997 10.9979753400000000 19.6267755299999997
  4.4718228599999996 13.0278326700000004  0.3258609300000000
  4.6740163099999998 15.7094536500000004  2.6771673300000001
  4.5398022999999998 18.5003397900000017  4.3083909399999998
  4.2253684900000001 19.7977187199999989  6.7184843699999997
  4.1571664899999998 -0.1353786200000000  8.7986443500000000