Li                                      
   1.00000000000000     
    20.6400000000000006    0.0000000000000000    0.0000000000000000
     0.0000000000000000   20.6400000000000006    0.0000000000000000
     0.0000000000000000    0.0000000000000000   20.6400000000000006
   Li
   432
Direct
  0.9923499883720908  0.9892318076550382  0.0198898987403098
  0.9078394597868211  0.0945428304263558  0.0904996429263534
  0.8217634646317862  0.1760688924418616  0.1723681482558135
  0.7350285717054277  0.2543915130813943  0.2522778255813947
  0.6655956409883714  0.3312438081395328  0.3365702645348847
  0.5940562698643390  0.4233235251938012  0.4391368154069752
  0.4963060256782938  0.5004812645348835  0.4979603255813956
  0.4144710876937978  0.5892557984496136  0.5728658158914754
  0.3171889738372116  0.6780396695736428  0.6649087466085248
  0.2485850818798454  0.7519465673449588  0.7571381879844949
  0.1600919399224807  0.8363389224806212  0.8374242785852744
  0.0794060741279097  0.9229925978682161  0.9246006560077547
  0.0762557151162824  0.9117141293604618  0.0937073871124028
  0.9895196540697668  0.0126593919573637  0.1626925644379824
  0.9121738730620166  0.0853512034883721  0.2545786506782974
  0.8232386715116249  0.1744317330426384  0.3443220528100781
  0.7393680319767455  0.2334568924418576  0.4191924186046521
  0.6666956690891439  0.3162017228682146  0.5110431962209319
  0.5870174762596889  0.4182763270348815  0.5801490203488342
  0.5043778207364369  0.5063971463178305  0.6484771395348830
  0.4090944098837213  0.5847715092054244  0.7412026632751960
  0.3444579563953454  0.6625837524224778  0.8293704447674415
  0.2429830876938013  0.7456165872093052  0.9237498081395330
  0.1669861443798482  0.8358416419573658  0.0119102311046504
  0.1697211967054244  0.8366180571705399  0.1639942015503877
  0.0913227751937953  0.9197229069767445  0.2518599229651173
  0.0086767635658944  0.9925307049418635  0.3282343221899211
  0.9053832553294541  0.0790419132751907  0.4085956303294580
  0.8348887000968972  0.1678106855620172  0.4949458759689946
  0.7593537369186052  0.2458174718992225  0.5872818362403081
  0.6643950009689945  0.3366482640503889  0.6515492577519382
  0.5784426787790693  0.4097907189922481  0.7385046366279084
  0.4973958536821712  0.4995485910852722  0.8270879699612408
  0.4168473430232567  0.5980780668604666  0.9274069539728700
  0.3410596065891482  0.6665359001938000  0.0026198347868203
  0.2391265077519407  0.7513953929263550  0.0866623769379871
  0.2387304152131762  0.7606988982558107  0.2436489612403108
  0.1583437630813975  0.8433735624999983  0.3329206763565864
  0.0949967659883697  0.9222830009689886  0.4379178192829443
  0.9976635465116246  0.0100975930232536  0.4984849297480594
  0.9283264796511617  0.0892294292635682  0.5831466724806234
  0.8485552766472892  0.1610883783914758  0.6624423953488403
  0.7502384718992232  0.2237183682170567  0.7428363110465099
  0.6816162596899247  0.3365084176356561  0.8230859985465102
  0.5799434060077502  0.4246527146317831  0.9060355072674398
  0.4993846739341095  0.4840027805232552  0.0009239447674432
  0.4343469917635687  0.5763167407945744  0.0753260019379880
  0.3499984360465120  0.6700467131782943  0.1708525130813925
  0.3263520968992282  0.6764381831395383  0.3245806235465096
  0.2382734370155006  0.7543884132751941  0.4060963934108557
  0.1652605450581390  0.8436904229651176  0.5089379786821695
  0.0810967000969001  0.9228514093992217  0.5700085295542650
  0.9915573435077505  0.9834176409883710  0.6518216351744215
  0.9225801007751926  0.0859462567829468  0.7492525426356593
  0.8538951187015513  0.1671970445736406  0.8272425406976751
  0.7527373294573607  0.2404799152131787  0.8990810741279063
  0.6574800915697665  0.3351238362403066  0.9927248125000006
  0.5986272553294540  0.4190499011627935  0.0748082562984465
  0.4997713023255841  0.4870265784883685  0.1623772858527133
  0.4306982170542639  0.5813351632751917  0.2658642679263536
  0.4016531385658908  0.5932196831395373  0.4139368134689931
  0.3328467965116246  0.6755279060077513  0.4853417252906951
  0.2361578735465102  0.7411644234496109  0.5701526414728662
  0.1664442078488406  0.8354400305232588  0.6812391497092989
  0.0796784268410846  0.9124167412790669  0.7562934229651148
  0.9973097393410839  0.9875934859496098  0.8325816632751923
  0.9311674341085237  0.0923346666666660  0.9164634772286817
  0.8378718740310092  0.1632656652131814  0.9991198987403109
  0.7446909660852725  0.2646480198643388  0.0845033953488397
  0.6760149142441847  0.3429665872093040  0.1580884767441830
  0.5862394597868246  0.4200759941860497  0.2691815649224836
  0.5082358517441889  0.5064663454457374  0.3475241308139516
  0.0520439476744201  0.0900932785852717  0.9228857621124007
  0.9926287737403072  0.1648936288759657  0.0210494152131773
  0.9147363687015471  0.2439831017441847  0.1060398420542654
  0.8360163270348835  0.3330881220930237  0.1772462136627908
  0.7337934888565911  0.4094729331395328  0.2554941448643433
  0.6758549331395329  0.5168276719961256  0.3391830392441832
  0.5830042267441868  0.5817227839147279  0.4215814883720910
  0.4997872068798443  0.6703065218023241  0.5092375329457397
  0.4125421317829492  0.7594617713178309  0.5849090121124050
  0.3152191976744163  0.8371015184108543  0.6667127640503878
  0.2521104040697679  0.9127689874030978  0.7595820343992230
  0.1563947441860449  0.0013385528100756  0.8427634796511612
  0.1638390634689912  0.0005891443798447  0.9853212407945762
  0.0759498749999992  0.0797866395348805  0.0897213561046541
  0.9972132030038736  0.1667757504844971  0.1817263396317799
  0.9151079791666632  0.2520287553294551  0.2619438783914703
  0.8248780726744158  0.3328491569767422  0.3459924496124032
  0.7319700256782937  0.4074894069767439  0.4284818953488383
  0.6750268023255828  0.5088798376937973  0.5016609844961266
  0.5861639956395379  0.5858309530038781  0.5997230600775225
  0.4924264249031012  0.6669111816860465  0.6634131918604638
  0.4097941061046484  0.7534562524224810  0.7464590998062022
  0.3174711521317803  0.8316226017441863  0.8251236904069756
  0.2347056860465102  0.9258646516472879  0.9108436472868249
  0.2592501860465148  0.9377120939922463  0.0916879181201580
  0.1643721167635661  0.0095352882751953  0.1743598105620165
  0.0683866298449587  0.0764586957364344  0.2581238347868222
  0.0023207999031030  0.1718810566860469  0.3443761613372089
  0.9176394709302329  0.2585495741279047  0.4219563512596878
  0.8139731400193781  0.3273819229651167  0.4932582141472892
  0.7805837829457332  0.4189102500000033  0.5846534457364356
  0.6738953260658889  0.4914575615310071  0.6667517306201560
  0.5829663502906968  0.5695465736434073  0.7424778682170512
  0.4966635591085264  0.6804913914728701  0.8187575765503894
  0.4130682543604678  0.7582793439922497  0.9171894728682162
  0.3225280334302312  0.8335997083333311  0.9963980595930266
  0.3224726627906946  0.8443243149224813  0.1594975421511649
  0.2334138473837228  0.9167714016472885  0.2540726409883689
  0.1674009500968978  0.0142188294573629  0.3459122533914751
  0.0677865886627913  0.0860353493217048  0.4274015009689904
  0.9849741119186035  0.1635518706395374  0.5035457577519367
  0.9198647572674403  0.2582288323643382  0.5772376656976732
  0.8337643158914716  0.3294703449612371  0.6691496812015529
  0.7544452437015536  0.4113481598837225  0.7431250033914694
  0.6703551986434135  0.5044832165697670  0.8147048953488394
  0.5729890809108511  0.5865281298449645  0.9199742945736418
  0.4898738594961216  0.6938449413759713  0.9707809113372079
  0.4083637950581362  0.7574564069767433  0.0809126434108549
  0.4173977020348829  0.7684057708333327  0.2545489321705432
  0.3286638536821727  0.8462244757751947  0.3451405542635655
  0.2530646642441852  0.9166650620155039  0.4138630881782959
  0.1854761012596882  0.9940335295542653  0.5008281855620140
  0.0945285910852718  0.0791906007751919  0.5706748207364356
  0.0055660600775198  0.1677437020348833  0.6572200605620182
  0.9293436477713186  0.2607243856589179  0.7490453890503872
  0.8242057039728650  0.3360171555232583  0.8309877936046490
  0.7552884370155013  0.4322410915697645  0.9158977529069787
  0.6699437940891499  0.5050746700581428  0.0016735528100753
  0.5793473168604635  0.5788891070736426  0.0792485402131788
  0.4944819026162790  0.6744175789728715  0.1694908624031015
  0.5057895179263596  0.6710348638565904  0.3349238226744191
  0.4262133735465099  0.7685277819767435  0.4082695140503887
  0.3349215377906987  0.8247000896317829  0.4982116855620120
  0.2616242732558121  0.9213691075581423  0.5944326686046537
  0.1803433934108511  0.0023340101744154  0.6901321879844957
  0.0885263202519369  0.0746155150193815  0.7385801942829460
  0.0013939500968974  0.1642559937015520  0.8325200726744200
  0.9277534752907002  0.2542758875968971  0.9123523221899248
  0.8231353304263536  0.3267277965116264  0.0008165431201519
  0.7493533720930259  0.4223191380813986  0.0861101114341096
  0.6656762824612414  0.5003935770348846  0.1721930765503856
  0.5768719404069742  0.5648844312015484  0.2387182437015483
  0.1607258260658924  0.1539454641472844  0.8534649607558151
  0.0686020135658936  0.2572088725775217  0.9222368687015532
  0.9976211841085245  0.3191943323643400  0.0006130440891496
  0.9055276899224793  0.4155318866279103  0.0841088343023273
  0.8310932378876004  0.4981598473837181  0.1622886608527097
  0.7465720484496146  0.5807683783914754  0.2503947558139501
  0.6571574859496110  0.6660430290697690  0.3281701104651162
  0.5848035455426341  0.7548377519379841  0.4081670251937979
  0.5063471957364314  0.8338360077519411  0.5128563280038776
  0.4145525436046498  0.9119999089147299  0.6003056642441891
  0.3325442892441828  0.9935954239341100  0.6612605038759654
  0.2708641836240275  0.0966738943798475  0.7458480164728698
  0.2614534336240339  0.0860214016472867  0.9102415382751943
  0.1556842543604660  0.1673080436046490  0.9913742955426343
  0.0918762156007773  0.2491179874031033  0.0855730460271289
  0.0031774423449633  0.3314194045542607  0.1695777848837210
  0.9110586085271350  0.4243416506782935  0.2636647286821727
  0.8124051501937970  0.4899565634689935  0.3496831148255808
  0.7492744786821675  0.5873939660852727  0.4221788968023290
  0.6574131312984477  0.6643780184108508  0.4974422446705447
  0.5924614336240310  0.7404109723837209  0.6103404525193810
  0.4925862732558173  0.8279776710271349  0.6771803236434124
  0.4070426036821715  0.9221719031007751  0.7417614912790711
  0.3351099200581373  0.0045843565891488  0.8257117955426381
  0.3416130644379862  0.0130225009689937  0.0075078391472871
  0.2440180668604626  0.1012314675387600  0.0834306148255806
  0.1466174287790665  0.1613698255813958  0.1812092126938012
  0.0865400741279103  0.2685310663759708  0.2522318929263534
  0.9990662969961264  0.3308046724806175  0.3306577921511646
  0.9196684307170528  0.3966409132751920  0.3994145649224805
  0.8343538672480619  0.4919286191860479  0.4857364617248052
  0.7648513439922482  0.5849927931201577  0.5825197475775212
  0.6644391206395355  0.6594875552325590  0.6739826855620166
  0.5909655872093040  0.7591185295542644  0.7438725988372070
  0.5044901230620127  0.8520383764534856  0.8182992655038746
  0.4115053953488399  0.9136051521317796  0.9326251124031018
  0.4191760847868196  0.9087448871124053  0.0880992156007778
  0.3371942877906946  0.0206141250000016  0.1870830445736402
  0.2332258309108539  0.1064161671511599  0.2684013701550398
  0.1539909752906965  0.1751372228682158  0.3360674379844966
  0.0748763667635686  0.2552067170542642  0.4051656918604678
  0.9941450620155052  0.3356531419573656  0.5028536608527148
  0.9006581778100795  0.4120476322674449  0.5817051133720952
  0.8325215998061992  0.5026148585271315  0.6688184646317836
  0.7685715702519360  0.5721255377906971  0.7399046501938003
  0.6780887059108522  0.6579861230620168  0.8290919651162767
  0.5971394859496115  0.7586848149224821  0.9095602398255807
  0.5080250062984462  0.8400898226744218  0.0091470809108500
  0.5097861312984477  0.8482919350775191  0.1578334534883723
  0.4131645750969000  0.9214574888565892  0.2486326773255811
  0.3282688556201521  0.0220264089147264  0.3201604709302330
  0.2478442000968997  0.0899932960271315  0.4121735775193827
  0.1711099268410834  0.1644262039728659  0.4854545121124048
  0.0861907185077513  0.2481046099806221  0.5764284626937979
  0.0119500019379828  0.3480512039728652  0.6547500857558148
  0.9112310353682176  0.4139826855620186  0.7350147068798449
  0.8346974733527119  0.4945925547480599  0.8359062475775190
  0.7394588749999969  0.5875057427325601  0.9250746366279046
  0.6690606584302330  0.6680297015503882  0.9899334665697666
  0.5815599413759713  0.7492333280038750  0.0979155324612435
  0.5765156598837180  0.7769227703488397  0.2515805155038748
  0.5015950721899216  0.8460238343023221  0.3289130038759680
  0.4082115324612374  0.9126785164728659  0.4212926497093008
  0.3255299554263544  0.0050544084302331  0.5014287664728698
  0.2577945823643404  0.1009004035852712  0.5876065048449632
  0.1639780155038792  0.1785672562984502  0.6635864597868206
  0.0874392805232560  0.2629113023255840  0.7513211652131773
  0.0030813023255831  0.3553995683139561  0.8160232965116307
  0.8989599835271349  0.4115068439922496  0.9311049956395365
  0.8282597616279048  0.5049901802325607  0.0065579714147290
  0.7436789738372127  0.5926364530038768  0.0861717252906971
  0.6598998696705394  0.6582072383720927  0.1685331603682201
  0.2358404045542670  0.2578422781007745  0.7581596584302304
  0.1595631894379821  0.3425475116279060  0.8381861080426347
  0.0761782853682149  0.4184002204457329  0.9324103687015537
  0.0071887238372099  0.5002441744186044  0.0070956201550416
  0.9283550440891446  0.5739730765503879  0.0835643299418578
  0.8382496540697701  0.6545984069767457  0.1787263536821726
  0.7329709098837185  0.7517183759689914  0.2314317243217019
  0.6615331647286808  0.8378066124030994  0.3336011511627888
  0.5647322877906973  0.9248494583333340  0.4018313134689890
  0.4996428570736455  0.9979049491279071  0.5145146443798438
  0.4064094602713197  0.0883021695736446  0.6039667926356600
  0.3326467911821709  0.1910757945736421  0.6754723759689938
  0.3284733769379855  0.1799814341085266  0.8282758415697700
  0.2409926434108556  0.2491993217054258  0.9056595799418616
  0.1768682194767450  0.3329659021317823  0.9978333754844968
  0.0814435227713162  0.4001147228682171  0.0835391797480654
  0.9909557281976760  0.4821169869186051  0.1763367916666638
  0.9194501308139564  0.5668853599806170  0.2690959578488403
  0.8205805072674437  0.6768146395348822  0.3303605489341095
  0.7368764830426358  0.7517036366279086  0.4097509026162811
  0.6573578662790709  0.8348239234496120  0.4908803488372087
  0.5728122117248091  0.9048751918604623  0.5865745586240294
  0.4988416274224790  0.0162214694767471  0.6724845402131763
  0.4128900247093057  0.0947072960271313  0.7422835833333323
  0.4074868154069762  0.0893884748061993  0.9201245712209314
  0.3286558556201555  0.1863634089147297  0.0129313386627885
  0.2409413720930260  0.2600973643410853  0.0911107834302314
  0.1762033425387628  0.3505458289728693  0.1612693565891448
  0.0785244055232539  0.4039068386627918  0.2725889840116267
  0.0045513653100784  0.4995003086240288  0.3490232737403076
  0.9134098808139512  0.5856995043604627  0.4070668943798452
  0.8372608619186011  0.6746818013565914  0.4901950024224817
  0.7485661812015536  0.7499843638565906  0.5833092349806179
  0.6751890150193773  0.8353373125000019  0.6780489302325563
  0.5849118507751925  0.9348299961240301  0.7485251690891488
  0.4903080828488342  0.0163987504844982  0.8365405261627927
  0.5005452437015521  0.9917814912790703  0.9889991448643443
  0.4213051894379873  0.0916758013565868  0.0701536434108547
  0.3317116254844947  0.1768589389534867  0.1583434055232544
  0.2539380125968975  0.2561422543604621  0.2537721119186074
  0.1816954757751930  0.3354884539728715  0.3325944055232526
  0.0792692151162768  0.4117591555232565  0.4165509360465123
  0.9860658817829488  0.4867400780038764  0.5018009622093018
  0.9156293095930224  0.5970705586240328  0.5703035155038734
  0.8453703357558169  0.6675475460271301  0.6789126216085251
  0.7568239510658898  0.7501183444767463  0.7446368953488403
  0.6860680416666654  0.8324213803294569  0.8227464331395353
  0.5923364849806205  0.9124541715116266  0.8939418909883727
  0.5892912034883722  0.9309609772286791  0.0895737063953490
  0.4969516560077523  0.0081781753875987  0.1677145087209269
  0.4243027388565892  0.1006768309108494  0.2374076332364368
  0.3473390334302309  0.1638121012596869  0.3320348909883748
  0.2580305082364376  0.2416305479651157  0.4010516448643386
  0.1608802495155004  0.3398282877906951  0.5076449932170561
  0.0690976579457399  0.4228699573643411  0.5677097238372113
  0.0020131075581418  0.5002925387596875  0.6600365111434101
  0.9202117340116303  0.5886972848837217  0.7503437097868186
  0.8359182340116291  0.6546137170542607  0.8261055687984467
  0.7646189864341082  0.7397667819767406  0.9121893895348805
  0.6758827315891480  0.8351968343023231  0.0039935431201528
  0.6661380324612409  0.8385782306201577  0.1461299937015497
  0.5975539244186052  0.9132555823643429  0.2306230862403069
  0.5126288648255795  0.0003425261627896  0.3009387592054296
  0.4201250266472840  0.0653864428294568  0.4186285789728714
  0.3259575542635673  0.1562026351744166  0.5102258580426380
  0.2300944467054293  0.2363329239341070  0.5730816448643381
  0.1633754849806195  0.3256890237403098  0.6644840683139535
  0.0797578149224805  0.4237417703488404  0.7530879001937976
  0.9841364820736445  0.4944422742248094  0.8374530828488389
  0.9084814685077518  0.5901346603682143  0.9295182882751902
  0.8321967645348849  0.6714933270348808  0.0072694694767463
  0.7541699181201551  0.7548510581395362  0.0882351623062050
  0.3244358173449626  0.3331390663759706  0.6672189859496100
  0.2396096647286825  0.4202786380813919  0.7491463362403081
  0.1772373619186070  0.4981832713178278  0.8523933735465121
  0.0860130683139531  0.5604331409883727  0.9213248236434097
  0.0033778522286809  0.6663510620155009  0.0042478701550408
  0.9156329428294541  0.7396820261627894  0.0993858042635694
  0.8130505707364364  0.8206529874031006  0.1610235300387615
  0.7504659258720920  0.9222229103682196  0.2420426167635625
  0.6397369806201567  0.0043669263565889  0.3261443173449621
  0.5618815712209297  0.0785220392441843  0.4155007446705454
  0.4868925920542608  0.1628594835271286  0.5047125411821725
  0.4059997354651159  0.2559555988372111  0.5620244966085295
  0.4288653347868205  0.2565161080426321  0.7488782422480611
  0.3193372727713211  0.3334752490310109  0.8324234350775157
  0.2478445644379832  0.4237118459302351  0.9187237848837242
  0.1770467945736414  0.4972642999031009  0.0120108284883713
  0.0870453919573677  0.5692360460271289  0.0818418483527097
  0.0017406516472889  0.6503928406007731  0.1747939031007775
  0.9290221613372083  0.7474563527131792  0.2558900813953500
  0.8323348716085235  0.8269189103682137  0.3291865576550421
  0.7573089350775177  0.9080935373062005  0.4045319694767429
  0.6651318730620162  0.9900211375968979  0.5248170469961266
  0.5700216671511598  0.0739083309108537  0.5902301705426325
  0.5045073938953522  0.1681511075581383  0.6506384229651161
  0.5131649840116310  0.1640750523255790  0.8221910789728710
  0.4012755082364308  0.2563554767441829  0.9212421816860470
  0.3227349345930222  0.3403341477713155  0.0074697902131788
  0.2605347093023269  0.4230352437015483  0.0951189927325586
  0.1558649588178298  0.4817673401162779  0.1768394205426347
  0.0748519840116302  0.5624513711240340  0.2477782354651197
  0.9996103120155055  0.6610887853682144  0.3274509738372089
  0.9285659127906953  0.7489774859496094  0.3974431937984519
  0.8386931676356610  0.8171059612403084  0.4945871627907010
  0.7710915784883738  0.9160648100775219  0.5913155508720962
  0.6765347422480588  0.9927657214147274  0.6603532407945707
  0.5890125111434088  0.0781357083333347  0.7493978246124016
  0.5998908667635661  0.0899982994186033  0.9050461007751949
  0.5076847800387583  0.1707517490310053  0.9932429491279038
  0.4124146196705425  0.2548231831395356  0.0871402577519405
  0.3407423929263587  0.3319923594961267  0.1606662756782953
  0.2750841826550356  0.4149681303294557  0.2427548449612402
  0.1740470087209331  0.4886714912790708  0.3432258575581386
  0.0919770562015501  0.5803192286821712  0.4066884559108530
  0.9996224360465149  0.6558242722868215  0.4852290232558119
  0.9251077456395365  0.7422682475775204  0.5823199103682200
  0.8625854888565883  0.8198763062015502  0.6689836816860435
  0.7755952407945728  0.9158344878875937  0.7455100939922445
  0.6727309249030995  0.9915875629844990  0.8290659530038766
  0.6751878798449624  0.0008769365310073  0.9930589767441873
  0.5714225973837230  0.0889806492248084  0.0684511472868223
  0.5135161201550389  0.1718379762596882  0.1525479224806219
  0.4231219035852689  0.2403173018410882  0.2409410629844970
  0.3410248115310068  0.3315769282945737  0.3301457829457348
  0.2561741201550376  0.4069635179263571  0.4326996724806236
  0.1639706734496116  0.4958647902131759  0.4997566787790717
  0.0803470469961240  0.5850505595930215  0.5723181424418584
  0.0126273483527157  0.6582051758720908  0.6761600251937949
  0.9324845169573663  0.7286075193798425  0.7609104147286843
  0.8497224815891471  0.8099254777131790  0.8308007243217048
  0.7578258217054241  0.9029330271317804  0.9018211933139568
  0.7513273459302354  0.9111836623062004  0.0920938909883731
  0.6738456661821672  0.0143846187015484  0.1568674999999971
  0.5756781690891444  0.1006055794573655  0.2426929084302358
  0.4962992320736461  0.1826570896317818  0.3417313774224837
  0.4127192441860430  0.2470465881782928  0.4222795484496089
  0.3243682640503849  0.3150546167635682  0.4995318435077536
  0.2428583561046480  0.4182967538759712  0.5799898677325572
  0.1560796099806225  0.4995573885658899  0.6529856569767460
  0.0897158590116263  0.5596119423449579  0.7582200610465151
  0.0059895368217084  0.6436094321705426  0.8489827078488403
  0.9091162737403096  0.7351800421511641  0.9032856114341072
  0.8290691487403095  0.8388845096899189  0.9931548672480588
  0.4238556589147322  0.4143089321705418  0.5733731293604620
  0.3360200780038767  0.5047339859496134  0.6658081618217082
  0.2519367688953480  0.5842361889534899  0.7496342398255820
  0.1558885363372084  0.6539366802325617  0.8421616434108543
  0.0826824113372098  0.7490081870155052  0.9237710358527096
  0.9962120537790682  0.8217978052325563  0.9957233745155065
  0.9010912940891487  0.9140497703488393  0.0889812228682203
  0.8257678430232573  0.0100136293604649  0.1779639995155051
  0.7568938837209274  0.0842738885658889  0.2650533420542658
  0.6574657083333335  0.1780639006782962  0.3321321947674392
  0.5886970227713206  0.2468921899224839  0.4381974796511656
  0.4923707921511635  0.3296198706395330  0.4949603081395324
  0.4867272359496155  0.3318358018410876  0.6516395673449580
  0.4230775562015481  0.4105815639534853  0.7527268018410851
  0.3341508401162798  0.4992238604651149  0.8441593498062048
  0.2528048313953519  0.5835876671511642  0.9234822383720953
  0.1738831196705419  0.6519412756782970  0.0183804525193807
  0.0791371366279066  0.7396304360465109  0.0970706303294548
  0.9960163759689920  0.8422162955426344  0.1675787291666637
  0.9199775062984514  0.9136487141472855  0.2444573696705419
  0.8381752344961271  0.9939539786821712  0.3326258154069777
  0.7393320290697645  0.0589703599806199  0.4234720445736428
  0.6686038498062032  0.1501938900193807  0.5097743779069788
  0.5658707616279059  0.2441659786821688  0.5683283076550367
  0.5955893948643407  0.2465385983527142  0.7427641545542656
  0.5068739219961245  0.3231068895348841  0.8312011245155020
  0.4134480247093038  0.4086808657945724  0.9165086472868182
  0.3441141148255795  0.4929550721899219  0.9938556308139539
  0.2728619127906953  0.5900468972868183  0.0974204786821673
  0.1678648798449629  0.6489736816860443  0.1751684903100781
  0.0878630029069782  0.7460258711240328  0.2315442897286815
  0.0191720222868241  0.8337091434108501  0.3342767233527155
  0.9365408197674441  0.9122041710271347  0.4116223842054296
  0.8325765092054240  0.0005914912790672  0.4944061598837237
  0.7556560116279059  0.0704536254844967  0.5896619990310086
  0.6694430518410854  0.1552470789728702  0.6652491240310070
  0.6658085508720930  0.1531990033914710  0.8297117427325560
  0.5901743202519398  0.2451661405038763  0.9011871453488354
  0.5029728129844955  0.3213306739341064  0.0097837892441888
  0.4211561472868226  0.4179201269379860  0.0794130818798422
  0.3422663711240332  0.4919639718992244  0.1637858183139542
  0.2570807839147307  0.5772283372093057  0.2448234108527103
  0.1547386695736463  0.6515859903100747  0.3215870339147315
  0.0953927403100749  0.7470738614341101  0.4007001913759680
  0.0064786187015500  0.8306726603682151  0.4856350847868214
  0.9217352383720936  0.9031250329457379  0.5717988439922479
  0.8469014714147320  0.9927475964147305  0.6656919263565868
  0.7698434176356557  0.0694837141472888  0.7571098488372101
  0.7644329282945748  0.0821150741279055  0.9101945009689913
  0.6686107214147299  0.1638082485465091  0.9992670474806218
  0.5872934505813987  0.2416572475775212  0.0882216875000026
  0.5034135765503862  0.3387205823643384  0.1619548013565861
  0.4321649844961257  0.4262102819767435  0.2493293328488377
  0.3403063207364312  0.4969635644379835  0.3267209462209308
  0.2490262490310045  0.5857810595930246  0.4073192616279044
  0.1637940571705414  0.6471396458333345  0.5002156254844934
  0.0858616191860477  0.7396731036821720  0.5794915843023247
  0.0095829127906981  0.8257085847868240  0.6625045009689927
  0.9183079205426381  0.9000099718992232  0.7369279064922480
  0.8526083565891440  0.0011782625969019  0.8424888633720897
  0.8350560605620174  0.0139057194767460  0.9985560581395347
  0.7527231550387583  0.0990941894379844  0.0792341928294604
  0.6616624215116289  0.1642024302325567  0.1745957950581385
  0.5862941138565887  0.2618344743217023  0.2472211845930232
  0.5007393527131754  0.3223290164728709  0.3518435673449645
  0.4059011332364335  0.4171824563953521  0.4121063570736467
  0.3370560939922456  0.5146302194767429  0.4968222301356562
  0.2310634714147284  0.5894817238372099  0.5800863745155027
  0.1592906419573623  0.6651621177325566  0.6618070397286786
  0.0922014302325564  0.7268493381782974  0.7559336051356595
  0.0161256845930211  0.8345347887596901  0.8452878905038759
  0.9079139273255805  0.9058797950581408  0.9187468822674418
 
  0.00000000E+00  0.00000000E+00  0.00000000E+00
  0.00000000E+00  0.00000000E+00  0.00000000E+00
  0.00000000E+00  0.00000000E+00  0.00000000E+00
  0.00000000E+00  0.00000000E+00  0.00000000E+00
  0.00000000E+00  0.00000000E+00  0.00000000E+00
  0.00000000E+00  0.00000000E+00  0.00000000E+00
  0.00000000E+00  0.00000000E+00  0.00000000E+00
  0.00000000E+00  0.00000000E+00  0.00000000E+00
  0.00000000E+00  0.00000000E+00  0.00000000E+00
  0.00000000E+00  0.00000000E+00  0.00000000E+00
  0.00000000E+00  0.00000000E+00  0.00000000E+00
  0.00000000E+00  0.00000000E+00  0.00000000E+00
  0.00000000E+00  0.00000000E+00  0.00000000E+00
  0.00000000E+00  0.00000000E+00  0.00000000E+00
  0.00000000E+00  0.00000000E+00  0.00000000E+00
  0.00000000E+00  0.00000000E+00  0.00000000E+00
  0.00000000E+00  0.00000000E+00  0.00000000E+00
  0.00000000E+00  0.00000000E+00  0.00000000E+00
  0.00000000E+00  0.00000000E+00  0.00000000E+00
  0.00000000E+00  0.00000000E+00  0.00000000E+00
  0.00000000E+00  0.00000000E+00  0.00000000E+00
  0.00000000E+00  0.00000000E+00  0.00000000E+00
  0.00000000E+00  0.00000000E+00  0.00000000E+00
  0.00000000E+00  0.00000000E+00  0.00000000E+00
  0.00000000E+00  0.00000000E+00  0.00000000E+00
  0.00000000E+00  0.00000000E+00  0.00000000E+00
  0.00000000E+00  0.00000000E+00  0.00000000E+00
  0.00000000E+00  0.00000000E+00  0.00000000E+00
  0.00000000E+00  0.00000000E+00  0.00000000E+00
  0.00000000E+00  0.00000000E+00  0.00000000E+00
  0.00000000E+00  0.00000000E+00  0.00000000E+00
  0.00000000E+00  0.00000000E+00  0.00000000E+00
  0.00000000E+00  0.00000000E+00  0.00000000E+00
  0.00000000E+00  0.00000000E+00  0.00000000E+00
  0.00000000E+00  0.00000000E+00  0.00000000E+00
  0.00000000E+00  0.00000000E+00  0.00000000E+00
  0.00000000E+00  0.00000000E+00  0.00000000E+00
  0.00000000E+00  0.00000000E+00  0.00000000E+00
  0.00000000E+00  0.00000000E+00  0.00000000E+00
  0.00000000E+00  0.00000000E+00  0.00000000E+00
  0.00000000E+00  0.00000000E+00  0.00000000E+00
  0.00000000E+00  0.00000000E+00  0.00000000E+00
  0.00000000E+00  0.00000000E+00  0.00000000E+00
  0.00000000E+00  0.00000000E+00  0.00000000E+00
  0.00000000E+00  0.00000000E+00  0.00000000E+00
  0.00000000E+00  0.00000000E+00  0.00000000E+00
  0.00000000E+00  0.00000000E+00  0.00000000E+00
  0.00000000E+00  0.00000000E+00  0.00000000E+00
  0.00000000E+00  0.00000000E+00  0.00000000E+00
  0.00000000E+00  0.00000000E+00  0.00000000E+00
  0.00000000E+00  0.00000000E+00  0.00000000E+00
  0.00000000E+00  0.00000000E+00  0.00000000E+00
  0.00000000E+00  0.00000000E+00  0.00000000E+00
  0.00000000E+00  0.00000000E+00  0.00000000E+00
  0.00000000E+00  0.00000000E+00  0.00000000E+00
  0.00000000E+00  0.00000000E+00  0.00000000E+00
  0.00000000E+00  0.00000000E+00  0.00000000E+00
  0.00000000E+00  0.00000000E+00  0.00000000E+00
  0.00000000E+00  0.00000000E+00  0.00000000E+00
  0.00000000E+00  0.00000000E+00  0.00000000E+00
  0.00000000E+00  0.00000000E+00  0.00000000E+00
  0.00000000E+00  0.00000000E+00  0.00000000E+00
  0.00000000E+00  0.00000000E+00  0.00000000E+00
  0.00000000E+00  0.00000000E+00  0.00000000E+00
  0.00000000E+00  0.00000000E+00  0.00000000E+00
  0.00000000E+00  0.00000000E+00  0.00000000E+00
  0.00000000E+00  0.00000000E+00  0.00000000E+00
  0.00000000E+00  0.00000000E+00  0.00000000E+00