Li 
 1.0000000000000000
    20.6400000000000006    0.0000000000000000    0.0000000000000000
     0.0000000000000000   20.6400000000000006    0.0000000000000000
     0.0000000000000000    0.0000000000000000   20.6400000000000006
 Li 
 432
Cartesian
 -0.1578962400000000 -0.2222554900000000  0.4105275100000000
 18.7378064500000008  1.9513640200000000  1.8679126300000000
 16.9611979099999992  3.6340619400000000  3.5576785800000001
 15.1709897199999997  5.2506408300000000  5.2070143199999999
 13.7378940299999996  6.8368722000000002  6.9468102600000003
 12.2613214100000008  8.7373975599999998  9.0637838700000000
 10.2437563699999998 10.3299333000000004 10.2779011199999992
  8.5546832500000001 12.1622396800000008 11.8239504400000008
  6.5467804200000002 13.9947387800000005 13.7237165300000008
  5.1307960899999996 15.5201771500000003 15.6273321999999997
  3.3042976400000001 17.2620353599999987 17.2844371099999989
  1.6389413700000000 19.0505672200000014 19.0837575400000006
  1.5739179599999999 18.8177796300000004  1.9341204700000001
 -0.2163143400000000  0.2612898500000000  3.3579745299999999
 18.8272687400000009  1.7616488400000001  5.2545033500000002
 16.9916461800000000  3.6002709700000000  7.1068071699999997
 15.2605561800000000  4.8185502600000003  8.6521315199999993
 13.7605986100000006  6.5264035600000003 10.5479315699999994
 12.1160407100000000  8.6332233899999995 11.9742757799999993
 10.4103582200000009 10.4520371000000001 13.3845681600000006
  8.4437086200000007 12.0696839499999999 15.2984229700000007
  7.1096122199999998 13.6757286499999999 17.1182059799999990
  5.0151709300000000 15.3895263599999996 19.0661960400000012
  3.4465940200000000 17.2517714899999994  0.2458271700000000
  3.5030454999999998 17.2677967000000017  3.3848403199999999
  1.8849020800000000 18.9830807999999998  5.1983888100000000
  0.1790884000000000 -0.1541662500000000  6.7747564100000002
 18.6871103900000008  1.6314250900000000  8.4334138099999993
 17.2321027700000009  3.4636125500000001 10.2156828799999992
 15.6730611300000007  5.0736726200000000 12.1214970999999991
 13.7131128199999992  6.9484201700000003 13.4479766800000000
 11.9390568899999998  8.4580804399999998 15.2427357000000008
 10.2662504200000004 10.3106829199999996 17.0710957000000008
  8.6037291600000003 12.3443313000000003 19.1416795300000011
  7.0394702799999997 13.7573009800000001 20.6940733899999998
  4.9355711199999996 15.5088009099999997  1.7887114600000000
  4.9273957700000004 15.7008252600000002  5.0289145599999996
  3.2682152699999998 17.4072303300000009  6.8714827600000001
  1.9607332500000001 19.0359211399999992  9.0386237900000008
 -0.0482244000000000  0.2084143200000000 10.2887289499999994
 19.1606585400000000  1.8416954200000000 12.0361473199999995
 17.5141809100000003  3.3248641299999999 13.6728110399999991
 15.4849220600000006  4.6175471200000002 15.3321414600000008
 14.0685596000000004  6.9455337400000001 16.9884950100000012
 11.9700319000000004  8.7648320300000009 18.7005728699999985
 10.3072996700000008  9.9898173900000007  0.0190702200000000
  8.9649219099999993 11.8951775299999998  1.5547286800000000
  7.2239677200000001 13.8297641599999999  3.5263958700000000
  6.7359072800000002 13.9616840999999994  6.6993440700000004
  4.9179637400000003 15.5705768500000001  8.3818295599999999
  3.4109776500000000 17.4137703299999984 10.5044798799999999
  1.6738358900000001 19.0476530900000007 11.7649760499999996
 -0.1742564300000000 -0.3422598900000000 13.4535985500000006
 19.0420532800000011  1.7739307400000000 15.4645724799999993
 17.6243952499999992  3.4509470000000002 17.0742860400000005
 15.5364984800000006  4.9635054500000004 18.5570333699999992
 13.5703890900000008  6.9169559800000000 -0.1501598700000000
 12.3556665500000005  8.6491899599999993  1.5440424100000001
 10.3152796799999997 10.0522285799999995  3.3514671800000002
  8.8896111999999992 11.9987577699999992  5.4874384899999997
  8.2901207800000005 12.2440542600000004  8.5436558300000005
  6.8699578800000003 13.9428959799999994 10.0174532099999993
  4.8742985100000000 15.2976337000000004 11.7679505199999994
  3.4354084500000002 17.2434822300000015 14.0607760499999994
  1.6445627300000001 18.8322815400000003 15.6098962500000003
 -0.0555269800000000 -0.2560704500000000 17.1844855299999999
 19.2192958400000009  1.9057875200000001 18.9158061699999998
 17.2936754800000010  3.3698033299999999 20.6218347100000017
 15.3704215400000006  5.4623351299999996  1.7441500800000000
 13.9529478299999994  7.0788303600000004  3.2629461599999998
 12.0999824500000006  8.6703685200000002  5.5559075000000000
 10.4899879800000004 10.4534653700000000  7.1728980599999996
  1.0741870800000000  1.8595252700000000 19.0483621300000010
 -0.1521421100000000  3.4034045000000002  0.4344599300000000
 18.8801586499999985  5.0358112200000003  2.1886623400000000
 17.2553769899999985  6.8749388400000004  3.6583618499999999
 15.1454976099999996  8.4515213399999993  5.2733991500000004
 13.9496458200000006 10.6673231499999996  7.0007379299999997
 12.0332072399999994 12.0067582599999998  8.7014419200000006
 10.3156079500000004 13.8351266099999997 10.5106626799999994
  8.5148696000000008 15.6752909599999999 12.0725220100000001
  6.5061242400000001 17.2777753400000016 13.7609514500000003
  5.2035587400000001 18.8395519000000000 15.6777731899999999
  3.2279875200000001  0.0276277300000000 17.3946382200000009
  3.3816382699999998  0.0121599400000000 -0.3029695900000000
  1.5676054200000000  1.6467962400000000  1.8518487900000000
 -0.0575194900000000  3.4422514899999999  3.7508316499999999
 18.8878286899999992  5.2018735100000004  5.4065216500000002
 17.0254834200000005  6.8700066000000000  7.1412841599999997
 15.1078613300000004  8.4105813600000001  8.8438663200000001
 13.9325531999999992 10.5032798500000002 10.3542827200000005
 12.0984248700000006 12.0915508700000007 12.3782839599999992
 10.1636814100000006 13.7650467899999995 13.6928482799999998
  8.4581503500000004 15.5513370500000008 15.4069158200000000
  6.5526045799999997 17.1646904999999990 17.0305529699999987
  4.8443253600000000 19.1098464099999994 18.7998128800000011
  5.3509238400000001 19.3543776200000011  1.8924386300000000
  3.3926404899999998  0.1968083500000000  3.5987864900000002
  1.4115000400000000  1.5781074799999999  5.3276759499999997
  0.0479013100000000  3.5476250100000000  7.1079239699999999
 18.9400786799999992  5.3364632099999998  8.7091790899999992
 16.8004056099999985  6.7571628900000000 10.1808495400000005
 16.1112492799999991  8.6463075600000003 12.0672471199999993
 13.9091995300000004 10.1436840700000008 13.7617557200000000
 12.0324254699999997 11.7554412799999994 15.3247432000000003
 10.2511358599999998 14.0453423199999996 16.8991563800000009
  8.5257287700000006 15.6508856600000001 18.9307907200000010
  6.6569786100000004 17.2054979800000005 20.5656559500000000
  6.6558357600000004 17.4268538600000014  3.2920292700000000
  4.8176618099999997 18.9221617299999991  5.2440593099999999
  3.4551556099999998  0.2934766400000000  7.1396289099999999
  1.3991151900000001  1.7757696100000000  8.8215669800000001
 -0.3101343300000000  3.3757106100000001 10.3931844400000006
 18.9860085900000009  5.3298430999999997 11.9141854200000008
 17.2088954799999989  6.8002679199999996 13.8112494199999993
 15.5717498299999999  8.4902260199999997 15.3381000699999994
 13.8361312999999999 10.4125335900000007 16.8155090399999985
 11.8264946299999991 12.1059406000000003 18.9882694399999998
 10.1109964600000009 14.3209595899999993 20.0369180100000008
  8.4286287299999998 15.6339002399999991  1.6700369600000000
  8.6150885699999993 15.8598951100000001  5.2538899600000004
  6.7836219399999997 17.4660731799999986  7.1237010400000003
  5.2232546700000002 18.9199668800000005  8.5421341399999999
  3.8282267299999999 -0.1231479500000000 10.3370937499999993
  1.9510701200000000  1.6344939999999999 11.7787282999999992
  0.1148834800000000  3.4622300099999999 13.5650220499999996
 19.1816528899999987  5.3813513200000003 15.4602968300000008
 17.0116057299999994  6.9353940900000000 17.1515880600000017
 15.5891533399999993  8.9214561299999993 18.9041296199999991
 13.8276399100000003 10.4247411900000007 20.6745421299999990
 11.9577286199999993 11.9482711699999999  1.6356898700000000
 10.2061064699999999 13.9199788299999998  3.4982913999999998
 10.4394956499999996 13.8501595900000005  6.9128277000000002
  8.7970440300000003 15.8624134199999993  8.4266827699999993
  6.9127805400000000 17.0218098500000004 10.2830891900000001
  5.3999249999999996 19.0170583800000017 12.2690902800000003
  3.7222876399999998  0.0481739700000000 14.2443283600000008
  1.8271832500000000  1.5400642300000000 15.2442952100000007
  0.0287711300000000  3.3902437100000000 17.1832142999999995
 19.1488317300000013  5.2482543200000000 18.8309519300000012
 16.9895132199999992  6.7436617200000004 20.6568534499999998
 15.4666536000000008  8.7166670100000001  1.7773127000000000
 13.7395584700000004 10.3281234299999998  3.5540650999999999
 11.9066368499999999 11.6592146600000000  4.9271445500000004
  3.3173810499999998  3.1774343799999998 17.6155167900000009
  1.4159455599999999  5.3087911300000004 19.0349689700000013
 -0.0490987600000000  6.5881710199999999  0.0126532300000000
 18.6900915199999993  8.5765781400000005  1.7360063400000001
 17.1537644299999990 10.2820192499999994  3.3496379599999999
 15.4092470800000001 11.9870593299999992  5.1681477600000001
 13.5637305099999992 13.7471281199999993  6.7734310799999999
 12.0703451800000003 15.5798512000000002  8.4245674000000008
 10.4510061200000006 17.2103752000000014 10.5853546099999996
  8.5563645000000008 18.8236781200000003 12.3903089099999999
  6.8637141300000000 20.5078095500000011 13.6484167999999997
  5.5906367499999998  1.9953491800000001 15.3943030600000004
  5.3963988699999996  1.7754817300000001 18.7873853500000010
  3.2133230099999999  3.4532380200000001 -0.1780345400000000
  1.8963250899999999  5.1417952600000003  1.7662276699999999
  0.0655824100000000  6.8404965100000004  3.5000854800000001
 18.8042496800000016  8.7584116699999992  5.4420400000000004
 16.7680423000000012 10.1127034699999996  7.2174594900000004
 15.4650252399999992 12.1238114600000007  8.7137724300000006
 13.5690070299999999 13.7127622999999996 10.2672079299999996
 12.2284039900000003 15.2820824700000006 12.5974269400000001
 10.1669806800000000 17.0894591300000016 13.9770018799999995
  8.4013593400000008 19.0336280799999997 15.3099571799999996
  6.9166687500000004 20.7346211199999999 17.0426914600000003
  7.0508936499999999  0.2687844200000000  0.1549618000000000
  5.0365329000000001  2.0894174900000002  1.7220078900000000
  3.0261837300000001  3.3306732000000001  3.7401581500000001
  1.7861871300000001  5.5424812100000000  5.2060662700000000
 -0.0192716300000000  6.8278084400000001  6.8247768300000002
 18.9819564099999987  8.1866684500000009  8.2439166200000003
 17.2210638200000012 10.1534066999999997 10.0256005699999999
 15.7865317399999991 12.0742512499999997 12.0232075900000002
 13.7140234499999991 13.6118231400000003 13.9110026300000005
 12.1975297200000004 15.6682064499999996 15.3535304400000001
 10.4126761400000003 17.5860720899999983 16.8896968399999992
  8.4934713599999991 18.8568103399999991 19.2493823199999987
  8.6517943899999992 18.7564944699999998  1.8183678100000000
  6.9596901000000004  0.4254755400000000  3.8613940400000000
  4.8137811499999996  2.1964296900000000  5.5398042800000002
  3.1783737300000001  3.6148322799999999  6.9364319200000004
  1.5454482100000000  5.2674666400000003  8.3626198800000004
 -0.1208459200000000  6.9278808500000002 10.3788995600000007
 18.5895847900000000  8.5046631300000008 12.0063935399999995
 17.1832458199999998 10.3739706799999993 13.8044131100000005
 15.8633172099999999 11.8086710999999998 15.2716319800000004
 13.9957508900000001 13.5808335800000002 17.1124581599999992
 12.3249589900000007 15.6592545800000007 18.7733233499999983
 10.4856361299999996 17.3394539399999985 20.8287957500000012
 10.5219857500000007 17.5087455399999996  3.2576824800000002
  8.5277168299999992 19.0188825699999988  5.1317784599999996
  6.7754691800000000  0.4546250800000000  6.6081121200000004
  5.1155042899999996  1.8574616300000000  8.5072626400000004
  3.5317088900000000  3.3937568499999999 10.0197811300000001
  1.7789764299999999  5.1208791500000004 11.8974834699999992
  0.2466480400000000  7.1837768500000001 13.5140417700000004
 18.8078085699999988  8.5446026300000000 15.1707035500000007
 17.2281558500000003 10.2083903300000003 17.2531049500000009
 15.2624311800000001 12.1261185299999994 19.0935404999999996
 13.8094119899999992 13.7881330400000000 20.4322267500000017
 12.0033971899999994 15.4641758899999999  2.0209765900000001
 11.8992832199999992 16.0356859800000002  5.1926218400000002
 10.3529222900000004 17.4619319399999995  6.7887643999999998
  8.4254860300000001 18.8376845800000012  8.6954802900000008
  6.7189382799999997  0.1043229900000000 10.3494897399999992
  5.3208801799999996  2.0825843300000000 12.1281982599999996
  3.3845062399999999  3.6856281700000002 13.6964245299999998
  1.8047467500000001  5.4264892800000002 15.5072688500000009
  0.0635980800000000  7.3354470899999997 16.8427208399999984
 18.5545340600000017  8.4935012600000004 19.2180071099999985
 17.0952814800000006 10.4229973200000003 20.7753565299999998
 15.3495340200000001 12.2320163900000001  1.7785844099999999
 13.6203333099999995 13.5853973999999997  3.4785244299999998
  4.8677459499999998  5.3218646200000004 15.6484153500000005
  3.2933842300000000  7.0701806400000002 17.3001612700000003
  1.5723198100000000  8.6357805499999998 19.2449500100000002
  0.1483752600000000 10.3250397599999992  0.1464536000000000
 19.1612481099999989 11.8468043000000005  1.7247677699999999
 17.3014728600000005 13.5109111199999994  3.6889119400000001
 15.1285195800000007 15.5154672799999993  4.7767507900000004
 13.6540445199999994 17.2923284799999983  6.8855277600000004
 11.6560744199999995 19.0888928200000016  8.2937983099999997
 10.3126285699999993 -0.0432418500000000 10.6195822599999996
  8.3882912600000008  1.8225567800000000 12.4658745999999994
  6.8658297700000004  3.9438043999999999 13.9417498399999999
  6.7796905000000001  3.7148167999999999 17.0956133699999988
  4.9740881600000000  5.1434740000000003 18.6928137300000010
  3.6505600500000002  6.8724162199999999 -0.0447191300000000
  1.6809943100000000  8.2583678799999998  1.7242486699999999
 -0.1866737700000000  9.9508946100000006  3.6395913800000002
 18.9774506999999986 11.7005138300000002  5.5541405700000004
 16.9367816699999985 13.9694541599999997  6.8186417300000004
 15.2091306100000008 15.5151630600000008  8.4572586300000001
 13.5678663600000000 17.2307657799999987 10.1317704000000006
 11.8228440500000005 18.6766239600000006 12.1068988900000001
 10.2960911900000003 20.9748111299999991 13.8800809100000002
  8.5220501100000003  1.9547585900000000 15.3207331599999996
  8.4105278699999992  1.8449781199999999 18.9913711499999991
  6.7834568600000003  3.8465407599999999  0.2669028300000000
  4.9730299200000001  5.3684095999999997  1.8805265700000000
  3.6368369899999999  7.2352659099999999  3.3285995200000000
  1.6207437300000000  8.3366371499999996  5.6262366300000002
  0.0939401800000000 10.3096863699999997  7.2038403700000000
 18.8527799400000013 12.0888377699999996  8.4018607000000003
 17.2810641899999986 13.9254323800000002 10.1176248500000003
 15.4504059799999993 15.4796772699999998 12.0395026099999995
 13.9359012700000005 17.2413621299999988 13.9949299200000006
 12.0725806000000002 19.2948911199999991 15.4495594900000004
 10.1199588299999998  0.3384702100000000 17.2661964599999997
 10.3312538299999996 -0.1696300200000000 -0.2270576500000000
  8.6957391099999999  1.8921885400000000  1.4479712000000000
  6.8465279499999996  3.6503684999999999  3.2682078899999998
  5.2412805799999997  5.2867761299999998  5.2378563900000001
  3.7501946199999998  6.9244816900000004  6.8647485300000000
  1.6361166000000000  8.4987089699999991  8.5976113200000004
 -0.2876002000000000 10.0463152099999995 10.3571718599999993
 18.8985889500000006 12.3235363299999996 11.7710645599999992
 17.4484437300000010 13.7781813500000005 14.0127565100000009
 15.6208463500000008 15.4824426299999995 15.3693055199999993
 14.1604443799999995 17.1811772900000008 16.9814863799999998
 12.2258250499999992 18.8330540999999982 18.4509606300000009
 12.1629704400000005 19.2150345700000003  1.8488013000000001
 10.2570821799999994  0.1687975400000000  3.4616274599999999
  8.7576085300000006  2.0779697900000000  4.9000935500000002
  7.1690776500000002  3.3810817700000002  6.8532001500000002
  5.3257496900000003  4.9872545099999996  8.2777059499999996
  3.3205683499999998  7.0140558600000000 10.4777926600000004
  1.4261756600000000  8.7280359199999999 11.7175287000000008
  0.0415505400000000 10.3260380000000005 13.6231535899999994
 18.9931701900000007 12.1507119600000006 15.4870941700000007
 17.2533523500000001 13.5112271199999991 17.0508189399999992
 15.7817358799999994 15.2687863799999999 18.8275889999999997
 13.9502195800000006 17.2384626599999997  0.0824267300000000
 13.7490889900000006 17.3082546800000010  3.0161230699999999
 12.3335129999999999 18.8495952200000012  4.7600604999999998
 10.5806597700000005  0.0070697400000000  6.2113759899999996
  8.6713805500000003  1.3495761799999999  8.6404938700000002
  6.7277639200000001  3.2240223900000000 10.5310617099999995
  4.7491493800000004  4.8779115500000003 11.8284051500000000
  3.3720700099999998  6.7222214500000002 13.7149511700000009
  1.6462013000000000  8.7460301400000002 15.5437342600000008
 -0.3274230100000000 10.2052885399999997 17.2850316299999989
 18.7510575099999990 12.1803793900000006 19.1852574699999998
 17.1765412200000007 13.8596222699999991  0.1500418500000000
 15.5660671100000005 15.5801258399999991  1.8211737500000000
  6.6963552699999997  6.8759903299999996 13.7713998699999998
  4.9455434800000004  8.6745510899999996 15.4623803800000008
  3.6581791500000000 10.2825027200000001 17.5933992299999993
  1.7753097300000000 11.5673400300000004 19.0161443599999984
  0.0697188700000000 13.7534859199999993  0.0876760400000000
 18.8986639399999987 15.2670370200000001  2.0513230000000000
 16.7813637799999995 16.9382776600000007  3.3235256600000000
 15.4896167100000000 19.0346808699999990  4.9957596100000004
 13.2041712800000006  0.0901333600000000  6.7316187100000002
 11.5972356300000001  1.6206948900000000  8.5759353699999998
 10.0494631000000005  3.3614197400000001 10.4172668500000007
  8.3798345399999992  5.2829235600000004 11.6001856100000005
  8.8517805099999993  5.2944924699999998 15.4568469200000003
  6.5911213100000001  6.8829291399999999 17.1812196999999998
  5.1155118100000001  8.7454125000000005 18.9624589199999996
  3.6542458400000002 10.2635351499999992  0.2479035000000000
  1.7966168899999999 11.7490319900000006  1.6892157500000000
  0.0359270500000000 13.4241082299999999  3.6077461600000000
 19.1750174099999988 15.4274991200000002  5.2815712799999996
 17.1793917500000006 17.0676063099999986  6.7944105500000003
 15.6308564200000006 18.7430506100000009  8.3495398499999993
 13.7283218599999994 -0.2059637200000000 10.8322238500000001
 11.7652472100000001  1.5254679499999999 12.1823507200000005
 10.4130326100000001  3.4706388600000002 13.4291770499999998
 10.5917252699999995  3.3865090800000002 16.9700238699999986
  8.2823264900000009  5.2911770400000000 19.0144386300000008
  6.6612490500000003  7.0244968099999996  0.1541764700000000
  5.3774363999999997  8.7314474299999993  1.9632560100000001
  3.2170527500000001  9.9436779000000008  3.6499656400000000
  1.5449449500000001 11.6089962999999994  5.1141427799999999
 -0.0080431600000000 13.6448725300000007  6.7585880999999999
 19.1656004399999986 15.4588953100000008  8.2032275200000004
 17.3106269799999986 16.8650670399999996 10.2082790400000007
 15.9153301799999998 18.9075776799999993 12.2047529699999995
 13.9636770800000001 -0.1493155100000000 13.6296908899999991
 12.1572182299999998  1.6127210199999999 15.4675711000000007
 12.3817474900000004  1.8575649000000001 18.6801515199999990
 10.4786138599999994  3.5243161000000001 -0.1394655300000000
  8.5122377500000006  5.2595504999999996  1.7985749200000001
  7.0329229900000003  6.8523223000000000  3.3161519300000002
  5.6777375299999999  8.5649422099999999  5.0104600000000001
  3.5923302600000002 10.0861795799999996  7.0841817000000002
  1.8984064400000000 11.9777888800000003  8.3940497300000008
 -0.0077929200000000 13.5362129800000002 10.0151270399999994
 19.0942238700000004 15.3204166300000004 12.0190829499999996
 17.8037644899999989 16.9222469599999989 13.8078231900000006
 16.0082857700000005 18.9028238299999991 15.3873283399999998
 13.8851662900000008 -0.1736327000000000 17.1119212699999999
 13.9358778399999998  0.0180999700000000 -0.1432627200000000
 11.7941624100000002  1.8365606000000001  1.4128316800000000
 10.5989727200000008  3.5467358299999998  3.1485891200000000
  8.7332360900000001  4.9601491099999997  4.9730235399999998
  7.0387521099999999  6.8437478000000000  6.8142089600000002
  5.2874338400000003  8.3997270099999994  8.9309212400000000
  3.3843546999999998 10.2346492700000002 10.3149778500000000
  1.6583630499999999 12.0754435499999992 11.8126464599999998
  0.2606284700000000 13.5853548300000000 13.9559429200000000
 19.2464804299999983 15.0384592000000001 15.7051909599999995
 17.5382720200000009 16.7168618600000016 17.1477269499999991
 15.6415249599999999 18.6365376800000000 18.6135894300000011
 15.5073964199999992 18.8068307899999994  1.9008179100000000
 13.9081745500000000  0.2968985300000000  3.2377452000000000
 11.8819974100000003  2.0764991600000000  5.0091816299999996
 10.2436161499999994  3.7700423299999999  7.0533356300000003
  8.5185251999999991  5.0990415799999997  8.7158498800000004
  6.6949609700000003  6.5027272900000002 10.3103372499999999
  5.0125964700000001  8.6336449999999996 11.9709908699999996
  3.2214831500000001 10.3108644999999992 13.4776239600000007
  1.8517353299999999 11.5503904899999998 15.6496620600000007
  0.1236240400000000 13.2840986799999996 17.5230030899999996
 18.7641598899999984 15.1741160700000002 18.6438150200000017
 17.1119872300000004 17.3145762800000007 -0.1412835400000000
  8.7483807999999996  8.5513363600000005 11.8344213899999993
  6.9354544100000002 10.4177094700000001 13.7422804599999999
  5.1999749099999999 12.0586349399999992 15.4724507100000004
  3.2175393900000002 13.4972530800000001 17.3822163200000013
  1.7065649700000001 15.4595289800000000 19.0666341800000012
 -0.0781832100000000 16.9619067000000001 -0.0882695500000000
 18.5985243099999984 18.8659872600000007  1.8365724400000001
 17.0438482799999989 20.8466813100000010  3.6731769500000002
 15.6222897599999992  1.7394130600000000  5.4707009800000002
 13.5700922199999994  3.6752389100000000  6.8552084999999998
 12.1507065500000007  5.0958547999999997  9.0443959799999991
 10.1625331499999998  6.8033541299999998 10.2159807600000008
 10.0460501499999992  6.8490909499999999 13.4498406700000004
  8.7323207600000003  8.4744034799999994 15.5362811900000004
  6.8968733400000000 10.3039804799999999 17.4234489799999999
  5.2178917199999999 12.0452494500000000 19.0606733999999989
  3.5889475900000001 13.4560679299999997  0.3793725400000000
  1.6333905000000000 15.2659722000000002  2.0035378100000001
 -0.0822220000000000 17.3833443400000007  3.4588249700000002
 18.9883357299999993 18.8577094599999988  5.0456001099999996
 17.2999368400000009 20.5152101199999990  6.8653968299999999
 15.2598130800000007  1.2171482300000001  8.7404630000000001
 13.7999834600000000  3.1000018900000001 10.5217431599999998
 11.6795725200000007  5.0395858000000002 11.7302962700000002
 12.2929651100000008  5.0885566700000000 15.3306521500000006
 10.4618777499999993  6.6689261999999996 17.1559912099999998
  8.5335672299999992  8.4351730699999994 18.9167384799999994
  7.1025153300000001 10.1745926900000008 -0.1268197800000000
  5.6318698800000000 12.1785679600000005  2.0107586799999999
  3.4647311200000002 13.3948167900000001  3.6154776399999999
  1.8134923800000000 15.3979739799999997  4.7790741399999996
  0.3957105400000000 17.2077567199999990  6.8994715700000002
 19.3302025200000003 18.8278940900000009  8.4958860099999995
 17.1843791500000016  0.0122083800000000 10.2045431400000002
 15.5967400800000000  1.4541628300000000 12.1706236600000004
 13.8173045900000009  3.2042997099999999 13.7307419199999998
 13.7422884900000000  3.1620274300000002 17.1252503699999998
 12.1811979699999995  5.0602291399999997 18.6005026800000017
 10.3813588600000006  6.6322651099999996  0.2019374100000000
  8.6926628800000003  8.6258714199999993  1.6390860100000000
  7.0643779000000002 10.1541363800000006  3.3805392900000002
  5.3061473799999996 11.9139928800000003  5.0531552000000000
  3.1938061400000000 13.4487348400000002  6.6375563800000004
  1.9689061600000000 15.4196045000000002  8.2704519500000000
  0.1337186900000000 17.1450837100000015 10.0235081499999996
 19.0246153199999988 18.6405006799999988 11.8019281399999993
 17.4800463700000002 20.4903103900000012 13.7398813600000000
 15.8895681399999997  1.4341438600000000 15.6267472800000000
 15.7778956400000006  1.6948551300000001 18.7864144999999994
 13.8001252900000004  3.3810022499999999 -0.0151281400000000
 12.1217368200000006  4.9878055899999998  1.8208956300000001
 10.3904562200000008  6.9911928200000002  3.3427471000000000
  8.9198852800000008  8.7969802200000000  5.1461574299999997
  7.0239224599999996 10.2573279700000004  6.7435203300000000
  5.1399017799999998 12.0905210699999994  8.4070695600000001
  3.3807093400000001 13.3569622900000002 10.3244505100000001
  1.7721838200000000 15.2668528600000002 11.9607063000000000
  0.1977913200000000 17.0426251899999990 13.6740928999999998
 18.9538754800000007 18.5762058199999984 15.2101919900000002
 17.5978364800000016 20.6643193399999987 17.3889701400000014
 17.2355570900000004  0.2870140500000000 -0.0298029600000000
 15.5362059200000004  2.0453040699999998  1.6353937400000000
 13.6567123800000001  3.3891381599999999  3.6036572100000002
 12.1011105099999998  5.4042635499999996  5.1026452500000001
 10.3352602400000002  6.6528708999999999  7.2620512300000000
  8.3777993899999998  8.6106458999999997  8.5058752099999992
  6.9568377799999999 10.6219677299999997 10.2544108299999994
  4.7691500500000004 12.1669027799999991 11.9729827699999998
  3.2877588499999999 13.7289461100000008 13.6596972999999995
  1.9030375200000000 15.0021703399999993 15.6024696100000000
  0.3328341300000000 17.2247980399999996 17.4467420599999983
 18.7393434600000006 18.6973589699999998 18.9629356499999986
