Li                                      
   1.00000000000000     
   -10.8535000000000021   18.7988134399488125    0.0000000000000014
   -18.6059999999999981  -10.7421791085421763    0.0000000000000014
     0.0000000000000001    0.0000000000000001   22.7650000000000006
   Li
   504
Direct
  0.9946173697751703  0.0146135320404781  0.0082795229519022
  0.9382121388645075  0.0287192712476667  0.6941797074456417
  0.8699179403260757  0.0717113250924939  0.3231940021963524
  0.7992972419716295  0.1077972796012503  0.0055397474192844
  0.7177308481203681  0.1683758244612292  0.6591386466066353
  0.6436256853112212  0.2271990290484069  0.3232056850428293
  0.5952739109502119  0.2700358743148357  0.9881197162310542
  0.4828976993975616  0.2569201252063067  0.6624004515703916
  0.4037253941270649  0.3279774698936890  0.3527245271249697
  0.3899237681437739  0.3835169532651577  0.0081280535910366
  0.2820446768198082  0.4291571407146151  0.6730091205798345
  0.2307865046339970  0.4665809315250371  0.3370383009005025
  0.0610051130323086  0.0352042220629798  0.6654067120579867
  0.9896073991039671  0.0686833953469375  0.3424409457500559
  0.9028387891214464  0.1360360852558529  0.0266853498792017
  0.8587432964714239  0.1573793497660674  0.6948261546233283
  0.7772978546284648  0.2033395025685252  0.3245200298704134
  0.7580911940500883  0.2316844983004032  0.9953556551724105
  0.6398568969286984  0.2989220288715657  0.6528635941137679
  0.5526829779759055  0.3186908894194573  0.3319779736437525
  0.5062942314577228  0.3768250735716236  0.0061086984405918
  0.4247184456575184  0.4286953762257397  0.6498219411377093
  0.3578624051743873  0.4688802459120609  0.3342908258291217
  0.2902909917893197  0.4674126233803406  0.9756028794201654
  0.1597724191615626  0.0770543538982054  0.3319364361959174
  0.0557364782929639  0.1274425154706762  0.0114334355370076
  0.0099193862422098  0.1577209739557262  0.6901273700856549
  0.9349612813655810  0.2064755483553000  0.3413484120360195
  0.8879208544300212  0.2546307033453630  0.0082121915220768
  0.7910426976765024  0.2959022638271591  0.6665532462112864
  0.7532422595004320  0.3281931799694746  0.3218885442565309
  0.6532400176442579  0.3955461280499861  0.0116320496376048
  0.5670607302717485  0.4045576343112742  0.6473058559191713
  0.5020620039959027  0.4523433252515545  0.3369674140127401
  0.4409256005592468  0.5155427488084641  0.0099190441467130
  0.3736052334043904  0.5274054207914389  0.6535941453986354
  0.2260348336504236  0.1106452812520189  0.0057252457720196
  0.1472550242576247  0.1666151319047557  0.6474318444981364
  0.0535291419925201  0.2131463682352077  0.3343915954315833
  0.0199247885159366  0.2464523915856347  0.0047483465846696
  0.9409933746626820  0.2957567004245192  0.6744312716889951
  0.8541160071091483  0.3570992882318009  0.3421592163408747
  0.7993917125909817  0.3528503427600640  0.0179313380188901
  0.7205438713864680  0.4163910551385044  0.6738004924225791
  0.6439742938949209  0.4200953945615069  0.3434501352954129
  0.5917656401511735  0.4917499620885337  0.0185888302218302
  0.5017065962885852  0.5253572415985062  0.6590525675378842
  0.4199421566496184  0.5780444401162725  0.3427077386338695
  0.2881426316266911  0.1780063306266655  0.6735501027893704
  0.1983667711195807  0.2301319246293474  0.3224053472435742
  0.1492136492885123  0.2486818734519574  0.0223560878541633
  0.0757822532674552  0.2827420796604159  0.6622317619152227
  0.9942217058125848  0.3485461709106232  0.3369349413573488
  0.9392087055298717  0.3653612229674081  0.9724811596749419
  0.8683571802535965  0.4322614121314388  0.6808516310125157
  0.7915125697893757  0.4641387016978911  0.3468894047880511
  0.6941373000908087  0.4902383867281728  0.0095341106962437
  0.6519794601628277  0.5368769697475457  0.6466439534372910
  0.5885433438386656  0.5601803024640972  0.3539850296507794
  0.5189187457885112  0.6565349098454476  0.0066476090489758
  0.3351987394153682  0.2098115619561085  0.3569572914561832
  0.2956593480833547  0.2289116911521702  0.0139383984186239
  0.2276918852773875  0.3034389736182845  0.6788002148034238
  0.1429613050392078  0.3283931283326353  0.3459487682846500
  0.0804513077354159  0.3761555988118701  0.0304009712277633
  0.9973540811295010  0.4095224395604120  0.6654860931254092
  0.9203936369764705  0.4859803155474509  0.3629561177245790
  0.8634265364805529  0.5061012391867337  0.9804029611245326
  0.8052602721660804  0.5421548224253172  0.6693123865583104
  0.7315882582029829  0.5844260356655866  0.3318039204919856
  0.6620130644773994  0.6233217959096322  0.0004952831100340
  0.5888793420796858  0.6536252607082744  0.6665615370085689
  0.4600571856502356  0.2405216035442947  0.9836501695585298
  0.3651760479466049  0.2851734845539866  0.6558220074676058
  0.2908793560376992  0.3509501423865871  0.3387938726114683
  0.2365102069272353  0.3568103192043068  0.9911676885569989
  0.1272896391186578  0.3824931410204044  0.6706941370524930
  0.0536960352188771  0.4791573047270745  0.3286746813090247
  0.0151001227020586  0.5099475222107515  0.9932618857895861
  0.9315631153864885  0.5427108936446743  0.6652741748297828
  0.8669357117526530  0.5988409804628887  0.3394753270371211
  0.7845065040578305  0.6091100842850850  0.0272517034922046
  0.7177231190715361  0.6646189190130656  0.6824980281133293
  0.6546802699906351  0.6939724094193593  0.3472489294970345
  0.1578179479935571  0.4853527416667731  0.9859138405446970
  0.0781481733098417  0.5472283613340636  0.6293248302218331
  0.9941545700355761  0.6014203828936289  0.3469317808038639
  0.9349469506926837  0.6178710152992011  0.0067436463870010
  0.8682353369447782  0.6783660109894569  0.6555736661541829
  0.7751611430394831  0.7060014739342648  0.3318604177465403
  0.7192803858453800  0.7542360933154484  0.9938044300461257
  0.2152917107278256  0.5177992592505376  0.6466060443663508
  0.1582707428151267  0.6087716953056059  0.3372197351197030
  0.0680819806310637  0.6196342106428432  0.9940232295190015
  0.9715074055028978  0.6738963369006896  0.6581861853722799
  0.9280665239217640  0.7171432281315262  0.3174834579398222
  0.8467972255608984  0.7776112937963475  0.9820787485174591
  0.7995056583635289  0.8080330171423995  0.6903911803206668
  0.2872923867202744  0.5886667338886156  0.3422569097298478
  0.2310552249681734  0.6214209268949773  0.9967423307709211
  0.1429877836681328  0.6904649591506953  0.6506140628157269
  0.0624840028773548  0.7123783131662194  0.3179238097957366
  0.9934743817754494  0.7426655308717685  0.9815398972106308
  0.9146329345229418  0.8105376166373901  0.6745610617175473
  0.8459575717488690  0.8439437313245008  0.3282933046343075
  0.3473387719666619  0.6111694404202836  0.0082846202503859
  0.2925575253474406  0.6467661457939116  0.6775388596529766
  0.2156361223727359  0.7131602115353957  0.3205277860751181
  0.0993647148860290  0.7570391952587556  0.9901473916099306
  0.0783169447503838  0.8179931264189904  0.6606403215462322
  0.9723886587990833  0.8446988945353198  0.3158063891939378
  0.9137471033637823  0.8876901651962399  0.0083828038655795
  0.4551695667354494  0.6488717417734478  0.6499432782780588
  0.3407360568045235  0.7224481332619632  0.3428534263123240
  0.2937315608712652  0.7387609929100165  0.9949073705249276
  0.2125819493555738  0.7870387768821487  0.6600210770920256
  0.1326765478590630  0.8334877049237690  0.3156237636723063
  0.0595291077952211  0.9012955578063284  0.9918285429387197
  0.9987836118885767  0.9146178608173372  0.6723620597408271
  0.9107433808339209  0.9742676930086560  0.3426360083461475
  0.8615727496898629  0.9919381651747301  0.0098652611464942
  0.7895766194057003  0.0689959529872226  0.6938641449593703
  0.7054243839262284  0.0890679479230698  0.3335640904897872
  0.6403470777884479  0.1430878862314913  0.0054274430046135
  0.5771975272171801  0.1532156572260774  0.6449059749615671
  0.4843889247044615  0.2017176064559862  0.3239451030090024
  0.0677866763557446  0.9620607297738815  0.3252150911486922
  0.1352032940488286  0.0080066214146512  0.9889031359543168
  0.2047608469029427  0.0267538567203545  0.6753228750274545
  0.2950920412122926  0.0630623697034522  0.3085042213924893
  0.3751633680361124  0.1303936157701813  0.9852036200307523
  0.4388469641411561  0.1108842494192146  0.6623327577421492
  0.8484994397084762  0.9389853510224668  0.6518638506479277
  0.7523973949808749  0.9489498534652867  0.3302958027674094
  0.7152033812973499  0.0131191218472111  0.0274902921150897
  0.6511337784076758  0.0604119050871930  0.6680456191522097
  0.5582443696235089  0.0788387495588125  0.3376346597847544
  0.5284622925473812  0.1422806706351167  0.9659159253239622
  0.1545681785220410  0.8945315158771905  0.6674307687239178
  0.1977268442998366  0.9577341640004136  0.3367325534812196
  0.2819188342575600  0.9906331910343766  0.0095344014935179
  0.3536873897006387  0.0097508656285115  0.6514681164067682
  0.4229111431691948  0.0948517960664930  0.3478843654733126
  0.7692209219931812  0.8956082550331672  0.9918699279595842
  0.7033202439915200  0.9286692750638537  0.6784017579617867
  0.6023044517112126  0.9320400060922509  0.3278318980891726
  0.5775937334841572  0.9871666550376048  0.9890518677794873
  0.4996975558963612  0.0092853739158798  0.6431449690314111
  0.2044581980520519  0.8806788190606269  0.9757811456182708
  0.2725215183014527  0.9313276244821651  0.6805567625741276
  0.3518168599085740  0.9352343610116236  0.3352716160773141
  0.4408410783074856  0.0037314670853306  0.0065176064133539
  0.7080830426744527  0.8372758914507585  0.3139192365473349
  0.6484059705252179  0.8921477119694998  0.0185294680430488
  0.5743288219469278  0.8988090702461022  0.6482726439710049
  0.4840166273474793  0.9727818056048676  0.3337585569953845
  0.2682789708728635  0.8315204385483952  0.3070617017351225
  0.3591291388295375  0.8765979115185232  0.9893428675598486
  0.4232569078969135  0.8866158534956909  0.6750248956731824
  0.6587649752139555  0.7775588579767430  0.6503685042828877
  0.5635018977107791  0.8267271387292325  0.3435515207555468
  0.4923280016197040  0.8539394848124573  0.9975192005271225
  0.3477854661846251  0.7839630507774444  0.6575096929497022
  0.4520185312311114  0.7932098705408492  0.3235575427190867
  0.5822467820078359  0.7452649839556003  0.9949181774654079
  0.4939532668447271  0.7827261253520774  0.6855539718866694
  0.4461776885382065  0.7322085089460728  0.9960567709202692
  0.5078899295138299  0.6707198688606724  0.3383189189545348
  0.9966789661810864  0.0009978706091331  0.8192366958049604
  0.9614176420847045  0.0426024288742184  0.4448538686580292
  0.8446878551742998  0.0699197180407225  0.1255897390731420
  0.7788543299490129  0.1152104589862617  0.8049094834175250
  0.6989685181555316  0.1816292340212229  0.4270926883373605
  0.6506297111884010  0.1921220525430840  0.1156105464528849
  0.5864112948701390  0.2395902419180373  0.7663897772896959
  0.4846403426046919  0.2824218666849418  0.4275314302657591
  0.4322034136491766  0.3314229538836173  0.1132217865143872
  0.3490471091944087  0.3602442873459353  0.7391824370744544
  0.2777359871863112  0.3869020081196055  0.4515204181858081
  0.2100039445573358  0.4600981612247068  0.1054912602679536
  0.0812620664188515  0.0350802516458657  0.4328075857676268
  0.9694454797332881  0.0944051196234952  0.1017759283988582
  0.9297100522462713  0.1206670632024682  0.7930758198989665
  0.8545967752611503  0.1612124948781641  0.4290068513068306
  0.7889861516314625  0.2041767232757152  0.1120364818800823
  0.7347485934906857  0.2319540820460517  0.7920470915879605
  0.6322463938020917  0.3311117948440838  0.4242299951680195
  0.5694307977810737  0.3254992054328270  0.1050612167801432
  0.5107599620388612  0.3676266871982818  0.7667137649901150
  0.4424131026102032  0.3984120638944546  0.4494350112014089
  0.3373136864339514  0.4481452732607281  0.1202521581374896
  0.3136173284345034  0.4946884384519024  0.7801178339556358
  0.1129797136290378  0.0860401906980144  0.0978943193498765
  0.0635061040776392  0.1432343388903234  0.7734914992312767
  0.9917686432141082  0.1831074411950766  0.4502268245113115
  0.9157348358528452  0.2185069170735829  0.1382010138370333
  0.8525749467502379  0.2205097982073667  0.7856664998901834
  0.7951327889176198  0.2980973344879416  0.4462992470898328
  0.7062349115865345  0.3299242334244639  0.1018050072479681
  0.6706034929903737  0.3654935090201548  0.7716680751153078
  0.5710691060145265  0.4322526033468392  0.4471291355150484
  0.4988162531822695  0.4598707258995063  0.1094578379090692
  0.4423283059557122  0.5195102387030914  0.7828108649242225
  0.3596805029059524  0.5393004606960261  0.4467081067428040
  0.2230911294353319  0.1373579687559712  0.7739149215901620
  0.1344423778586048  0.1942054725309958  0.4455927406105857
  0.0648946641773733  0.2052201683516515  0.1186084783659140
  0.0184082770892857  0.2559652077078027  0.8056748908412033
  0.8898192931374282  0.2913196443046786  0.4480037645508474
  0.8556537640324464  0.3335689493751417  0.1002826738414200
  0.7870184704754806  0.3590473116572284  0.7821130911486947
  0.7501386507629419  0.3971074096498128  0.4225888337360004
  0.6357250581654839  0.4678713114694659  0.1183345556775777
  0.5826627684871468  0.4760741439441460  0.7356023241818548
  0.4996298657931391  0.5118757880046303  0.4658219912145825
  0.4414910346818104  0.5892822156874615  0.1205996591258511
  0.2713106981382651  0.1696454341479310  0.4392606136613253
  0.2147999911999037  0.2074172296846086  0.1119312514825381
  0.1417674322837570  0.2651695659307904  0.7788958563584458
  0.0485036987041667  0.3075432879777651  0.4302857052492897
  0.9855806767414990  0.3458394869927019  0.1204217667471994
  0.9135040694429080  0.3737803333495293  0.7775747955194348
  0.8739329951282784  0.4393141909800704  0.4678203197891477
  0.7931368699516952  0.4898536328055059  0.1069954061058667
  0.7133542810238040  0.5128901612871175  0.7700021770261358
  0.6573116890447324  0.5495511594621618  0.4455182776191506
  0.5704466251959133  0.5815133243811772  0.1143474566220064
  0.5081388084796785  0.6151820860026760  0.7719623083681100
  0.3577169712706834  0.2138928325439977  0.1183983843619600
  0.3147720998066674  0.2498569259780936  0.7941103360421664
  0.2179547078068396  0.3009321831032139  0.4329536178343929
  0.1333558789566993  0.3353891415534491  0.1153239253239633
  0.0648921073582756  0.3524949539281366  0.7848966404568429
  0.0000448606944872  0.4146102920806385  0.4499204230177938
  0.9330290329445319  0.4649608411768540  0.1068873037557623
  0.8321675771023394  0.5093088187638273  0.7805545802767426
  0.7863850201111475  0.5561554973784624  0.4444172510432693
  0.7052447936441908  0.5837271741471994  0.1280303760158148
  0.6368999382198268  0.6161528179367437  0.7807713485613874
  0.5640096452013523  0.6677002083095331  0.4475397250164690
  0.4524516935083085  0.2110302969207538  0.7916433195695163
  0.3598637592998344  0.2700156695925600  0.4777307471996508
  0.2795770110577180  0.3161974976074973  0.1187891016911919
  0.2123598521003345  0.3954486802767363  0.7946596819679357
  0.1097731199857677  0.4072427529955078  0.4112722350098821
  0.0625410867329705  0.4559474462616180  0.1221588508675566
  0.9922017583700296  0.5080336862050316  0.7688465099934092
  0.9265757630117264  0.5495381874745888  0.4571212123874346
  0.8742341000677740  0.5926511665545746  0.1297996973424134
  0.7862260090027178  0.6201627712183679  0.7881750674280710
  0.7030139091678436  0.6784382116976673  0.4548635251482551
  0.6294034989065693  0.7109663911973314  0.1248535387656489
  0.1195650831735762  0.4691945211101611  0.7683017500549099
  0.0791263802757243  0.5597331807845549  0.4480603035361312
  0.0105382107895551  0.5923797419754706  0.1184037768504282
  0.9046078085157987  0.6032104262213167  0.7748947177685039
  0.8647806365491348  0.7031903300663203  0.4447123905117536
  0.7771601563175352  0.6915714583149324  0.1119427353393334
  0.7046975207844710  0.7559875899261357  0.7930691653854609
  0.2159948233198463  0.5246752544930686  0.4364985420601784
  0.1115478879623311  0.5665118132860840  0.0927824102789359
  0.0469338659230161  0.6431135088791038  0.7595160931254128
  0.9843241795759141  0.6802761080819550  0.4359611139907784
  0.9124521846247191  0.7045280594526275  0.0844998330770892
  0.8401700954417777  0.7372679232034116  0.8044231429826496
  0.7981676664462540  0.8058311035271188  0.4442817039314733
  0.3140337019537114  0.5888035540065246  0.1242257830002202
  0.1859818658938934  0.5919978103042354  0.7606483149571730
  0.1438810960415680  0.6960644675971679  0.4420858330770940
  0.0625818104147129  0.6889389149018541  0.1059529778168269
  0.9747919270267857  0.7570535574553787  0.7698926501208021
  0.9252659038792928  0.8165326374420161  0.4531721897649916
  0.8503364213343616  0.8575844959178482  0.0880324933011210
  0.3704079190830996  0.6153053203392247  0.7871040342631233
  0.2750785261555606  0.6570706979668230  0.4460407098616272
  0.1995303160499731  0.6932622414678917  0.1047068412036012
  0.1475882811518971  0.7517507352745270  0.7718727305073543
  0.0600983432380033  0.8071699275323212  0.4408933094662828
  0.0013048741504349  0.8304361280451644  0.1140504963760165
  0.9209486747226379  0.8973372158926054  0.7608594047880501
  0.4108513302474321  0.6712321034698192  0.4635271697781675
  0.3358444286271407  0.7073151705845078  0.1212537193059546
  0.2634428102738227  0.7558497768834300  0.7908991429826457
  0.2023305574764152  0.8168163288417531  0.4246960285526029
  0.1463435168958824  0.8600325249581076  0.1136754535471098
  0.0473926311629143  0.8688807184603533  0.7644165165824717
  0.9962589406224893  0.9010993565491674  0.4202974311442986
  0.9356572728177710  0.9501138514174059  0.0901599819898991
  0.8824303429221843  0.0032376503866516  0.8003552211728504
  0.8193120347349065  0.0324810819630557  0.4530072831100398
  0.6992974804662495  0.1172395155196995  0.1306713955633683
  0.6795769373347369  0.1192940035815013  0.7649493511970107
  0.5832736791888280  0.1706739359843112  0.4114306729628794
  0.5040013384356072  0.2066062148387147  0.0907582543377998
  0.0416496347022530  0.9651912743071662  0.1016984761695596
  0.1404449669884187  0.0103050360524151  0.7836826988798578
  0.2248393638296520  0.0626000104630151  0.4306933547111811
  0.2861751569995974  0.1020895626950917  0.1187698567977122
  0.3762851357513455  0.1005227436914282  0.7345993446079504
  0.4236895542077477  0.1656004613246367  0.4557259196134424
  0.8471113200816447  0.9110599004350135  0.4563917663079309
  0.7673554398458933  0.9572904204897696  0.1198015097737724
  0.7343462881568144  0.0040598877507279  0.7912241493520753
  0.6546899809366806  0.0421394260939394  0.4213991240940018
  0.5574023945406594  0.0984354724740868  0.0989909334504731
  0.5210465546718126  0.1106391340895101  0.7671339143421889
  0.1300596761395170  0.9377160440191190  0.4335173613002397
  0.1975131359874212  0.9696886320842992  0.0938363637162283
  0.2689780774240305  0.9976743086465802  0.7704938159455281
  0.3690180531771787  0.0187340599721324  0.4396933810674284
  0.4200777781701959  0.1143644552633418  0.1148815765429418
  0.7697108988047034  0.8891563474053044  0.7908022916758171
  0.6911662906002292  0.9177320200457046  0.4589078994069808
  0.6225319018318487  0.9741160380236451  0.1314774342191996
  0.5729949200368409  0.9997968050833137  0.7694325714913219
  0.5173083282661750  0.0383025184974244  0.4172185460136149
  0.1941059687146165  0.9169145704910235  0.7767764419064349
  0.3021684692129298  0.9312054229494535  0.4204581475949922
  0.3417825551998988  0.9725471384036268  0.1158847546672490
  0.4268069622919910  0.0006215255704589  0.7651372804744128
  0.7208959069505880  0.8214740440670596  0.1179186018010085
  0.6577799938307365  0.8658353798214620  0.7646069145618242
  0.5479710439119145  0.8994911681662927  0.4693474350977382
  0.4902043249976629  0.9512336863720208  0.1141245003294529
  0.2575817498064197  0.8428142603717106  0.1068788631671396
  0.3702254608317403  0.8782067123972226  0.7912305916977829
  0.4320776069912142  0.8917604602021356  0.4397950867559857
  0.6539069961229913  0.7940397596248019  0.4634305719305942
  0.5662199620304165  0.8532993175375054  0.1027196253020008
  0.5269922119998611  0.8928535347231801  0.7728906202503865
  0.3440239442343085  0.7811805558020524  0.4254443505381076
  0.4205019939551633  0.8430647575302430  0.1197422763013378
  0.5731112581192974  0.7534435257445011  0.7713641989896800
  0.5061112153222780  0.7737758440556632  0.4533762916758164
  0.4156202969945895  0.7490185970423084  0.7691028882055804
  0.4811966933548817  0.7035230785054694  0.1501995515044996
  0.9644521674790454  0.0168324970582745  0.2128206760377793
  0.9334305739303304  0.0604706495671934  0.9217578532835518
  0.8947726120139095  0.0856598987158463  0.5488827555457974
  0.7888080060633129  0.1245085491879934  0.2504691368328551
  0.7445048126018463  0.1617518922082084  0.8922930828025457
  0.6116491644933006  0.2056809751247926  0.5303525943334080
  0.5686858064917715  0.2579796672708596  0.1888569132440168
  0.5342753754669261  0.2821679771240326  0.8935974763891963
  0.4226221174982854  0.3448762392632645  0.5350159674939619
  0.3870842316276537  0.3703119623792972  0.2267388161651667
  0.2855868812559734  0.4147443434530942  0.8871704730946632
  0.2140557324912038  0.4429616219180232  0.5470654263123222
  0.0848640875514661  0.0435424968160874  0.9070890792883830
  0.0053942604027597  0.1219244439814346  0.5429929620030762
  0.9243226942651717  0.1340895290655126  0.2551451148693147
  0.8621325348068822  0.1576320516754564  0.9160695431583576
  0.7796728914514190  0.2005089655289680  0.5487821849330103
  0.7078985921359759  0.2343009190719201  0.2236444700197637
  0.6857574155156101  0.2917644416156762  0.8857459811113557
  0.5190632331078859  0.3324845915007799  0.5650118554799022
  0.4791543791885502  0.3604390742490082  0.2330044954974753
  0.4230813772066639  0.4224408971561573  0.8669673797496174
  0.3484982405757151  0.4685805066060169  0.5411377812431368
  0.2985890978230898  0.5000554152841588  0.2334936784537689
  0.1369287090042661  0.0824743709997975  0.5356006105864282
  0.0481087048482962  0.1319514646849953  0.2368269334504731
  0.9953311903454392  0.1687325011064047  0.9088137966176149
  0.9100009567838114  0.2210481218718101  0.5677415541401274
  0.8646132101460324  0.2614554930495530  0.2218264370744549
  0.8250000747834605  0.3031707012973115  0.8969956622007444
  0.7058894963247724  0.3262923579296526  0.5630158084779282
  0.6225500298230600  0.3715344072511826  0.2224763672303993
  0.6012097839923385  0.4256469428914968  0.8983616564902235
  0.4919601249481502  0.4519317560934795  0.5576349492642194
  0.4095030592896336  0.4737965605718557  0.2112636709861633
  0.3643655361131621  0.5349158703534229  0.8942924348781034
  0.1842847587349965  0.1366999893082692  0.1887918805183375
  0.1446423405166470  0.1697583885414673  0.9070197588403275
  0.0598529250148445  0.2284166821644291  0.5534780412914557
  0.9773342131899625  0.2920914090692648  0.2227669180759904
  0.9488486942234928  0.3170650853082506  0.8962057461014723
  0.8391576948898418  0.3520138255677239  0.5794678550406331
  0.8064781964718293  0.3731669764910777  0.2034648368108947
  0.7224927816049842  0.4253848336477688  0.8912436955853309
  0.6564823991160509  0.4438747221968171  0.5309239503623999
  0.5787979404176227  0.4699365287368238  0.2255625895014290
  0.5185286025555982  0.5263725009224345  0.8783046575884015
  0.4186643676257162  0.5677232132631573  0.5548654930814862
  0.3046442104812428  0.1566092755853958  0.8851722323742592
  0.2202224743419734  0.2064305452396766  0.5557203659125847
  0.1275147698698404  0.2531009204137220  0.2138592984845147
  0.1065655283228821  0.3177805696198845  0.9072703259389385
  0.0015464420911826  0.3475234548405552  0.5396767076652722
  0.9353331254238952  0.3927464685161652  0.2304995686360627
  0.8508115168080792  0.4373035796153673  0.9006803241818560
  0.7631810186106236  0.4949727058212190  0.5802542196354068
  0.7063767431787156  0.4786967933951303  0.2575172677355582
  0.6376035209759152  0.5494485448289765  0.8782558699758383
  0.5835962173589877  0.5703949647906157  0.5525978326378223
  0.5039466994412720  0.5601205561439428  0.2394396986602274
  0.3587503414482924  0.1784757153117837  0.5649037320448045
  0.2775457649852981  0.2456346017269695  0.2472105280035137
  0.2175258130656488  0.2810200702940975  0.9025886347463228
  0.1296378808186986  0.3294216183238845  0.5297627726773584
  0.0785377150748445  0.3901253955409629  0.2266530972984810
  0.0172241420116563  0.4266419490850524  0.8836973714034713
  0.9000788765210999  0.4751074692936825  0.5692554618932562
  0.8427172020456908  0.4851175791463547  0.2406687111794454
  0.7555175134068222  0.5640700321530190  0.8840836222271022
  0.7112828429906273  0.5842335791465771  0.5658075361300234
  0.6364844618430467  0.6185626192296283  0.2277384954974764
  0.6097246599675685  0.6713055833087154  0.8895641616516556
  0.4395059574114626  0.2455437870168069  0.2316826536349694
  0.3831501739235819  0.2912205631151465  0.8924926373819488
  0.2913585761441269  0.3309585216499897  0.5727885152646621
  0.2238399530089836  0.3727309921539828  0.2218511671425460
  0.1719439458334051  0.4115987887722810  0.9049381282670765
  0.0656967087045714  0.4472317070877665  0.5435463417526876
  0.9840795146768642  0.5239803637243199  0.2430025126290332
  0.9193672819490075  0.5427618034701922  0.8929294974741921
  0.8420201125180284  0.6154342383524423  0.5544000527124950
  0.7822822104488409  0.6003283483227762  0.2050042191961339
  0.7130149381536270  0.6772067611926076  0.8927824634307058
  0.6682577059847574  0.7036054126676561  0.5636442609268641
  0.1546965670635814  0.5254549693311503  0.1950799398198981
  0.0734800025340618  0.5356516700256151  0.8696261019108249
  0.0033344066723515  0.5753142957745681  0.5405554605754475
  0.9160456146448936  0.6218796647023339  0.2324632383044118
  0.8523501775998739  0.6575183761915397  0.9235699147814600
  0.7724388759044345  0.7376586558299039  0.5702859521194839
  0.7335994706169302  0.7202278429355644  0.2053054179661729
  0.2017903912224170  0.5325868681536861  0.9012865613880976
  0.1619496867681249  0.6037010165893832  0.5610760781902044
  0.0524023918379584  0.6273203713956121  0.2243456195914746
  0.9968514576760157  0.6448096992428987  0.8803146988798574
  0.9337623242232240  0.6950643407526158  0.5512967085438163
  0.8674593902056813  0.7542282698270810  0.1965554847353417
  0.7691149001673310  0.8028597759343157  0.8769740294311461
  0.2835774862084364  0.5910371177811840  0.5538204687019572
  0.2168398003398053  0.6496481945077903  0.2125553046343072
  0.1362151179714601  0.6510465697676437  0.8724341295848888
  0.0562528402093534  0.7075322717826396  0.5568224230177918
  0.0028220360888156  0.7492648259330323  0.1909205029650778
  0.9417006169222191  0.8012993413003713  0.8740438603118790
  0.8708198561670812  0.8493459105176058  0.5655711197012963
  0.3692066534971659  0.6322930525781203  0.2402835141664852
  0.3005584394826144  0.6391727844284318  0.8658186242038184
  0.1941505469572746  0.6981988734063904  0.5511525104326793
  0.1412818498126498  0.7678229373889280  0.2210349013837032
  0.0828860663995314  0.7908061672757540  0.8711887256753812
  0.0073201911767740  0.8506639468484849  0.5672701502306197
  0.9242118975941693  0.8759983553403003  0.2021768262683921
  0.4446567238337167  0.6319824383462702  0.8912612510432680
  0.3642087663738209  0.7004483314071663  0.5762543202284220
  0.2694266723751042  0.7579673423291808  0.2050953964419051
  0.2205959977158614  0.7686209421042065  0.8730562442345686
  0.1422496583908810  0.8443447840833400  0.5426686031188197
  0.0901025498179990  0.8950808478743610  0.2240829997803644
  0.9730193317062401  0.9075564679848611  0.8833458229738653
  0.9463206314855697  0.9699440495631180  0.5541185723698661
  0.8301817243019443  0.0098753926308106  0.2219951504502546
  0.7885459863648663  0.0419759866166274  0.8745859819898953
  0.7471088051807726  0.0705911938606079  0.5576986619811137
  0.6321632410265039  0.1279102710694886  0.2402302099714504
  0.5955487465667204  0.1817197769073502  0.8810075497474159
  0.4928266423891756  0.1957724812871717  0.5676007067867346
  0.0777109661030408  0.9713589476190805  0.5747088789808927
  0.1217269300525814  0.0095545622204867  0.2188039371842763
  0.2243869049218077  0.0285457904671134  0.8681429905556755
  0.2743119785113635  0.0857451946268384  0.5500108293432930
  0.3626119476774221  0.1540230998539798  0.2446293841423213
  0.4485577624069990  0.1526546267717777  0.8577245385460159
  0.8369548389829546  0.9161839414757864  0.8880483869975819
  0.7961443755097974  0.9727966887243014  0.5605743118822772
  0.7047441208200453  0.9999813455164812  0.2214148530639122
  0.6325291059965039  0.0506008560715330  0.9091063848012269
  0.5753756314639915  0.0643610487963855  0.5372110015374503
  0.5156711080148639  0.1469282107471059  0.2133346650560100
  0.1167073641787724  0.8982585608344422  0.8865169624423430
  0.2145001396221886  0.9584901018279339  0.5516628218756878
  0.2828486527674343  0.0063724254105466  0.2183826488029865
  0.3508614680427868  0.0309884137696201  0.8927906259609060
  0.4230800872736751  0.0505142751142174  0.5488579196134395
  0.8116952039466696  0.8831041005033242  0.2110172528003531
  0.6917547514211861  0.9348455501155613  0.8989944397100800
  0.6271125780979858  0.9788235538865706  0.5496914895673157
  0.5709084549576673  0.0012971033062996  0.2268076613222050
  0.5173804396357653  0.0430391829739420  0.8920997074456380
  0.2300584210402619  0.8720165762248513  0.2279094939600270
  0.2765032914194236  0.8862115632902956  0.8800924739732068
  0.3570867010420997  0.9541524863076205  0.5299347195255848