Li                                      
   1.00000000000000     
    20.2271999999999998    0.0000000000000000    0.0000000000000000
     0.0000000000000000   20.2271999999999998    0.0000000000000000
     0.0000000000000000    0.0000000000000000   20.2271999999999998
   Li
   432
Direct
  0.0114946191267222  0.9935992604018367  0.9967944203844326
  0.8945683485603553  0.0940356866002219  0.0747938656858125
  0.8203755428334105  0.1861126211240318  0.1531033311580430
  0.7388815520684986  0.2333711334242992  0.2719769023888645
  0.6612762799596581  0.3357819950363847  0.3473739855244418
  0.5779445652388873  0.4080724015187442  0.4167071660931825
  0.4842653901676925  0.4960895605916775  0.4991522123675054
  0.4192249703369697  0.5673931043347551  0.5842481979710499
  0.3237309311224479  0.6736364697041637  0.6624282945736439
  0.2556131960923906  0.7504741175249166  0.7575032159666222
  0.1741401306162018  0.8485249594605264  0.8446167635658881
  0.0904474069569687  0.9259834534685965  0.9220992732558173
  0.0872593591797184  0.9304912765978486  0.0676010466105055
  0.0013064754390157  0.0015706202539150  0.1565539516097161
  0.9078336611097910  0.1024628505181155  0.2365209406146178
  0.8222942626760030  0.1638042161050492  0.3500608210726170
  0.7223314536861238  0.2468280656739452  0.4366357731173878
  0.6585651281442821  0.3324798148038255  0.5178095772029749
  0.5722060092350887  0.4225905725953183  0.5952828854216108
  0.4938932165598828  0.5009516433317529  0.6929885006328078
  0.4040698717568389  0.5809371568976403  0.7520946478009805
  0.3198191272148421  0.6436388091283050  0.8293203127471926
  0.2491383310591644  0.7338518148829323  0.9223419440159759
  0.1729822971048876  0.8188096795404221  0.9942889816682481
  0.1519737230066411  0.8360695073959832  0.1698921037019474
  0.0869456622765412  0.9412855313637110  0.2656168841955378
  0.9851002788324621  0.0226891828824520  0.3570254068778667
  0.9187222611137500  0.0892259007672820  0.4397581410180322
  0.8154924730066426  0.1677993133009039  0.5043235850735641
  0.7402606895665258  0.2475542605995855  0.5951344630003135
  0.6661026726388215  0.3552834450640745  0.6877011519142542
  0.5879544721958538  0.4166243963573777  0.7605219916745796
  0.4919092751344749  0.5145195593062795  0.8563403066168362
  0.3942044687351682  0.5882660531363726  0.9309019399620340
  0.3105725053393442  0.6611205164333143  0.0224698915321966
  0.2303638620273674  0.7259578666350279  0.0902738238609402
  0.2223352001265653  0.7515045236117714  0.2403758132613518
  0.1629288275193801  0.8412729661050449  0.3260402260322763
  0.0822527502570765  0.9382523839186803  0.4194865418841971
  0.0141023799636102  0.0043367895704804  0.5441831543664009
  0.9145585330643868  0.0869493177503529  0.5942989746479981
  0.8264384872844488  0.1597217261904760  0.6721146683673496
  0.7436051989400383  0.2504002442255953  0.7597012048133180
  0.6903301410971352  0.3597916459025470  0.8473895037375385
  0.5820333021871562  0.4285921758819811  0.9249068215076761
  0.5014281398315106  0.5215914600142355  0.0079877382929894
  0.4147268939843372  0.5997934449651936  0.0912760723184647
  0.3332448949928803  0.6750505527210890  0.1683132124070568
  0.3273237595910459  0.6850716891116946  0.2935076644320489
  0.2598722096978321  0.7505082176475213  0.4065142451748116
  0.2004728345989548  0.8309087036267968  0.4679192325185895
  0.1173555726941942  0.9054519028832431  0.5862944451036256
  0.0287462342785929  0.9956567241140633  0.6655922312529654
  0.9297512196448352  0.0909763585666852  0.7532152739875002
  0.8435523740310060  0.1453369744700197  0.8243968161683313
  0.7574134887675967  0.2380135421610490  0.8999554416824864
  0.7008976585983220  0.3406249297974995  0.9676388832858720
  0.5896549794336323  0.4187989617940175  0.0736130897998706
  0.4872941929678873  0.4756663527329508  0.1604994309642436
  0.4236049967370690  0.5619656665282378  0.2535082206138242
  0.4052938468992267  0.5896121830999874  0.3958218502808108
  0.3345578438933714  0.6497825151281447  0.4883446393964590
  0.2620355466896029  0.7490149595594033  0.5628474064625877
  0.1761066529227975  0.8072018361414308  0.6840157940792579
  0.1106593369324500  0.9179394612205343  0.7423275139416248
  0.0164016354216088  0.0039362319055556  0.8085137028357821
  0.9209162761034619  0.0702748180667641  0.9051855185097324
  0.8342490428729619  0.1661564957087478  0.9789839201669039
  0.7380652186165193  0.2500253426079766  0.0762908361018830
  0.6884137774877388  0.3303292141275094  0.1542112388269246
  0.5967287617663359  0.4152112576135139  0.2448645452657843
  0.5058829590847935  0.4859448668130071  0.3283617253005886
  0.0948186100893835  0.0713365666033852  0.9103258730817885
  0.9948337708629964  0.1673645976704634  0.9778587194470845
  0.9346036500355979  0.2634163201036230  0.0902430128737564
  0.8144269191979134  0.3242314393489920  0.1770155009096683
  0.7548208802997962  0.3843450497350105  0.2747100597215635
  0.6833007559128319  0.4766105926672992  0.3324190673943974
  0.5887976754073705  0.5637058025826605  0.3955951046116155
  0.5023538764633741  0.6646222245293458  0.4719615888506539
  0.4308496791449130  0.7540518826135099  0.5543697214641696
  0.3463588371104223  0.8277171580841625  0.6455697610148690
  0.2691215274481920  0.9100673494106957  0.7691517862086670
  0.1986832492880879  0.9881311175051408  0.8638937628539765
  0.1892977940594847  0.0011379657095389  0.0086180153456752
  0.0783139450838490  0.0823991768509700  0.0705715758978016
  0.0057033257198214  0.1548294153417160  0.1596466456059176
  0.9091196571942746  0.2404759329022284  0.2787959727495632
  0.8238704259610827  0.2997503080011086  0.3604334396258508
  0.7629298790737238  0.3973022563676665  0.4388647059405173
  0.6524300155236489  0.4877497226506904  0.5074915252728971
  0.5876148196487918  0.5700935779544380  0.5731632030137632
  0.4872877803156115  0.6701871717291539  0.6550303601091585
  0.4051323752175264  0.7540384254864705  0.7608827094209758
  0.3363231554540391  0.7827234461517136  0.8607689467647504
  0.2828980244423320  0.8948956212426822  0.9298622898868842
  0.2618419242406276  0.8853601076767887  0.0707917838356238
  0.1844194989914598  0.0100089023690870  0.1479897598283486
  0.0830278946171461  0.0835909681023566  0.2490270818501799
  0.0186242178848275  0.1516388051732349  0.3376850261034647
  0.9044126255734852  0.2319674290064881  0.4399854532510687
  0.8269977060591671  0.3171941415519726  0.5133327232637228
  0.7312195726546449  0.4056283860346497  0.5828648849074511
  0.6834497750553723  0.5146922688261384  0.6556427963336517
  0.5877882460251556  0.5981868147840501  0.7499224089345020
  0.4759933999762680  0.6635778827519374  0.8308873511904764
  0.4162805079299190  0.7212700902744800  0.9161861636805853
  0.3253637443640258  0.7985128994621107  0.9967722255181144
  0.3157560631229259  0.8164841297856356  0.1758114266927677
  0.2352850028674283  0.9220282896298073  0.2457653303472540
  0.1851955638941618  0.0248401904366418  0.3314936526063903
  0.0961811575502267  0.0598005897998704  0.4394415237897462
  0.0361072723856992  0.1293238826926100  0.5204990230976136
  0.9257277833807933  0.2231715660101230  0.5947142313320697
  0.8335409320123404  0.3369705307704507  0.6730732380161371
  0.7456742940199348  0.4430614113668696  0.7787975147326378
  0.6621874115053004  0.4980708916706220  0.8478690846978338
  0.5735527398750193  0.6027781146179407  0.9216179965590854
  0.4962815945855112  0.6709366313676668  0.0052576535556099
  0.4244542521950621  0.7518154415836094  0.0800976457443454
  0.4269675600181913  0.7300612442651513  0.2345199226783734
  0.3356891092192669  0.8310344590452488  0.3077207873556418
  0.2653241981094752  0.9458650505260238  0.3957770828389471
  0.2019253782036046  0.9964677117940184  0.5021718290223092
  0.1181378500237287  0.0580116669632957  0.6133296561066288
  0.0291594110900206  0.1517918115211216  0.6680776004587869
  0.9365341807071701  0.2377192893727269  0.7336372251226067
  0.8505622048528707  0.3319538235643122  0.7933478345989542
  0.7878000405394729  0.4160285313834819  0.9049033583491521
  0.6861020170859007  0.4927284784844161  0.9799343705505450
  0.6195641789273836  0.5585716891116945  0.0779083442097743
  0.5165160867544714  0.6615675526024347  0.1520183040658125
  0.5160735643094441  0.6520576075779161  0.3174688127867427
  0.4151714463692429  0.7375628440911228  0.3878327781403286
  0.3484787063953476  0.8197243345594032  0.4810301865804476
  0.2537388017125437  0.9189821730145553  0.5943669222630916
  0.2037606954991276  0.9831903713811130  0.6706876151914258
  0.1100542546669843  0.0753053502214840  0.7593895897603247
  0.0297448727456100  0.1562458550862189  0.8364758691267227
  0.9070245056161994  0.2534596745965843  0.8960281452697387
  0.8253754217093814  0.3292741600419262  0.0226634348797674
  0.7535239919514325  0.4294280681458602  0.0700110069609252
  0.7011710182328770  0.5038654900332205  0.1645716189091928
  0.5971770185690559  0.5825071314863166  0.2457765276459440
  0.1755521095356727  0.1671006244067428  0.8387442691029889
  0.0978280246400871  0.2699639885896232  0.9276314368770784
  0.9912252101131145  0.3300438711240332  0.9753960869522231
  0.9162484787810499  0.3953974193165664  0.0843656141235556
  0.8349900703013731  0.4832762320044282  0.2060311644716037
  0.7672351566207851  0.5933936437074863  0.2594553457720323
  0.6910325388585647  0.6619456202539169  0.3296051969625040
  0.5908066791251372  0.7417357345554478  0.4025027146614448
  0.4966591174260415  0.8404620090768873  0.4673074607459284
  0.4276933668525515  0.9094209781877893  0.5872455362086697
  0.3421496608527121  0.0012741808060426  0.6815252610346434
  0.2467504795522828  0.0955853227337471  0.7627034507989237
  0.2759782609555472  0.0825966638981157  0.9326089547737695
  0.1527052597492471  0.1630008335310862  0.0002725686204741
  0.0505048385342519  0.2261528852238541  0.0760637789708909
  0.9837643994225616  0.3164406220336957  0.1905411673390276
  0.8981238851645301  0.3844737195459587  0.2645164160140823
  0.8275891922757452  0.4862438468992281  0.3507727184187601
  0.7566269231529787  0.5754077385896252  0.4262518771752895
  0.6780274269300719  0.6645998239993673  0.5005009333966157
  0.5751290089582355  0.7543672693205181  0.5729146352436345
  0.5065069599351375  0.8281979962624604  0.6493063009215305
  0.4240604122172158  0.8907203092865075  0.7581984708709086
  0.3511119522227517  0.0009194975083062  0.8425813122923600
  0.3411616644913806  0.9963884121381099  0.9983459193561117
  0.2488551346701442  0.0881962016492679  0.0805253574394840
  0.1303225972947288  0.1430295631624716  0.1602930746717277
  0.0626301514791976  0.2462472650688170  0.2479729868691649
  0.9887959519854448  0.3217473209341861  0.3386876987422909
  0.8933112007593706  0.4173181152112022  0.4212290712505933
  0.8337134709697835  0.5019156591124840  0.5217704496915019
  0.7518965076728392  0.5949943669909814  0.5795194663621288
  0.6749156601012487  0.6642182902230687  0.6492710765701659
  0.5821018855798101  0.7261094941464989  0.7374504029227964
  0.5036401098520784  0.8381956256921370  0.8311732543307997
  0.3875389831514013  0.9028302879291275  0.9160435176396149
  0.4074156803709883  0.8935438498655301  0.0924313251463360
  0.3305967657411770  0.0067887137122256  0.1759208941425427
  0.2524826787691836  0.1132298820400237  0.2308290860821103
  0.1416557486948236  0.1697428724687526  0.3305022746598638
  0.0522601640365465  0.2560859629607677  0.4133990290302165
  0.9880857474094284  0.3351967014712827  0.4984264702974244
  0.8981468834045216  0.4084914891828859  0.5854209297381772
  0.8239789179916173  0.5121764579378265  0.6668471142817580
  0.7592874891235581  0.5949826377353276  0.7436535452262305
  0.6570725715867738  0.6567258958234490  0.8211288319688350
  0.5917122765385230  0.7468099381031479  0.9206540920147148
  0.4934710943679832  0.8338879780691357  0.0007766037810484
  0.5121352856549564  0.8225708056478425  0.1908977253401360
  0.4157211749525374  0.9164415653179887  0.2270236448940040
  0.3377093745056143  0.9965165836101875  0.2967089404366376
  0.2504339700996709  0.1048805207838939  0.4083031136291737
  0.1568859659270672  0.1784137082740074  0.5058272489519098
  0.0697894117821534  0.2478153095831388  0.5849562930113876
  0.0004278288641046  0.3533183930548986  0.6683161579457391
  0.9220356846226849  0.4205347096978329  0.7370082809286487
  0.8607324157569991  0.5251684197516227  0.8174905251344740
  0.7741972754508808  0.5857732810275280  0.9122182837960793
  0.6836317092825510  0.6519587416943509  0.0048457641196009
  0.5802180267165014  0.7603948267679144  0.0793594634946970
  0.6288623793703536  0.7441424601526663  0.2420224316761619
  0.5185247636845460  0.8251913359239040  0.3181135520487288
  0.4052380749683593  0.9207926682882430  0.4060037311145379
  0.3304867604018327  0.9872688063597508  0.4941927360188245
  0.2667514856233169  0.0930188320677132  0.5770080119838639
  0.1927124505616220  0.1893106648473335  0.6713369428294556
  0.0786474964404391  0.2591702158479663  0.7520937312134137
  0.0006769918723322  0.3390284107538335  0.8340560735049820
  0.9120766868375227  0.4285026968636316  0.9176163131822506
  0.8425580994897928  0.4984891373991474  0.9944595737422901
  0.7646949711279873  0.5779618775707931  0.0611143400965020
  0.6900849855639919  0.6530881679125145  0.1630899209974714
  0.2619178729631386  0.2590689289669328  0.7539197269023887
  0.1712368627392848  0.3328574978247119  0.8255374767639623
  0.0750775950205664  0.4144664382613499  0.9073253549675684
  0.0019890439606058  0.4989045008701183  0.0086259358685368
  0.8956186545839273  0.5613572877115942  0.1175881258898883
  0.8581980303749432  0.6680750311461807  0.1724984234100617
  0.7687445370590069  0.7623999243592792  0.2708404514712868
  0.6904846073603892  0.8473792334084820  0.3371193091480791
  0.5837375484496121  0.9207950704991319  0.3920344160338587
  0.4851572961161210  0.0045614830525267  0.4910195424972343
  0.4377736419276985  0.0879728919474800  0.5865516957364321
  0.3313447437114405  0.1729101655196956  0.6823350750474617
  0.3326783860346438  0.1729318353504183  0.8413098481252987
  0.2490616852554979  0.2486091357182403  0.9174087975597232
  0.1527398819411516  0.3217828453765250  0.0069063864499270
  0.0561757104295211  0.3986051455465898  0.0944660961477624
  0.9979595643489958  0.4726638185215961  0.1948167274758745
  0.9322065075739587  0.5645630621143809  0.2822692478444893
  0.8643485400846416  0.6686909033380815  0.3276392194668531
  0.7742233037691832  0.7632314452815976  0.3966681468517663
  0.6674970569332359  0.8153698139139394  0.4951284547539956
  0.5791554426712580  0.8972992381545666  0.5681188592588171
  0.4935150905711154  0.9713839354928027  0.6758712644360045
  0.4292814027645946  0.0916690990349593  0.7657568284290477
  0.4398406072021857  0.1071125187865860  0.9135331177819950
  0.3449840709539629  0.1818144582542303  0.9979160150688173
  0.2199915173627573  0.2473688068541335  0.0847381169909838
  0.1438022815812374  0.3106860400846401  0.1535667650490424
  0.0803817508107869  0.3956250123595950  0.2543210108171152
  0.9959303779069799  0.4761750682249613  0.3429323124307828
  0.9341293471167518  0.6006660852713210  0.4344197709025437
  0.8397604730264163  0.6780133419356105  0.4877793120155047
  0.7561667225320363  0.7313311120669184  0.5676960360306893
  0.6635762834203476  0.8017661356984647  0.6733495777962375
  0.5766131318224978  0.8874498200442957  0.7457369344249329
  0.4902325724766641  0.9744318595752262  0.8399584134235099
  0.5005427730976137  0.9859604418802377  0.0033489588277149
  0.4199363703330192  0.0834125815733273  0.0779824765662056
  0.3280270230185067  0.1702987764000952  0.1582351131150119
  0.2300319965195357  0.2337759605877210  0.2330071571942725
  0.1470435309879790  0.3184713450205692  0.3306682699533283
  0.0944221503717770  0.4258185616397725  0.4206927661762379
  0.9941227357221933  0.5054437168762860  0.4920302923785798
  0.9185449345435828  0.6141023384353730  0.5692926584005704
  0.8328555628065146  0.6810507445420058  0.6644705975122633
  0.7420954333768393  0.7430494942453691  0.7760690149897158
  0.6662451540499887  0.8293704719387733  0.8379885673746230
  0.5774043965551314  0.9227406136291734  0.9487692082937826
  0.5894083669514316  0.8990684845159009  0.0693438098204382
  0.5059566573722520  0.9885858383760464  0.1420362497033665
  0.4257983146456255  0.0813242267837353  0.2231246114143346
  0.3354436175051418  0.1596560018193358  0.3171357538364177
  0.2352191845633627  0.2346105956336046  0.4087272435136811
  0.1602785195182719  0.3282644285912042  0.5069816791251398
  0.0758599845752244  0.4291968636291728  0.5655068022267074
  0.9859740967607991  0.5065016878262938  0.6348724890246800
  0.9193042052286060  0.6020907451352642  0.7253228692058187
  0.8473463445261800  0.6646417368691644  0.8361735949612381
  0.7619416918802386  0.7283137231055221  0.9250013501621552
  0.6743866185136866  0.8312466174260393  0.9999543120155039
  0.6801134081830398  0.8465066321586789  0.1554743340650191
  0.6234812277527269  0.9136072570598017  0.2419426341757642
  0.5046020818501802  0.0068820123398226  0.3118782530454070
  0.4175834218280343  0.0814796422638793  0.3909449177345365
  0.3496165559246975  0.1554116125810765  0.4964106534765094
  0.2784184948979558  0.2487756570360702  0.5703686728761284
  0.1749685858645762  0.3495519884116405  0.6478624426514799
  0.0872074256446780  0.4148430806043351  0.7500800288720129
  0.9830925723777852  0.5131936570558437  0.8213224697437127
  0.9245373675051383  0.5910596315851890  0.9395309286505267
  0.8585041132732130  0.6872017773097596  0.0255596978326196
  0.7589258409468442  0.7485380027883224  0.0931951945894625
  0.3216587362561327  0.3412065916192049  0.6686661243276362
  0.2450639248141115  0.4383012596899221  0.7332376171689603
  0.1615948846108211  0.4888375617979719  0.8407699790381287
  0.0781368612561337  0.5792451372409460  0.9126012310156639
  0.0104105313637106  0.6664691286979902  0.0337008577558962
  0.9339007826095553  0.7706904915163761  0.0955577598481270
  0.8451372345159029  0.8519233794099037  0.1846683485603577
  0.7509523943007466  0.9388026963692440  0.2413300056359731
  0.6696766082305032  0.0190683851447560  0.3302810542240167
  0.5705077919830757  0.0707118103346005  0.4440961630873304
  0.5160491758622072  0.1583849376087656  0.5094774931775063
  0.4187959450640690  0.2454893237818396  0.5798468596740989
  0.4179144078270838  0.2546425348046171  0.7567429303116597
  0.3195274269300725  0.3396202445222301  0.8384038893173553
  0.2261596488886255  0.4207729364420203  0.9179577222749558
  0.1456720475399464  0.4814451496005390  0.0031972828666369
  0.0706921195222279  0.5605275510204066  0.0875299275233345
  0.9955319100023701  0.6548961003005829  0.1685194490586923
  0.9385154816286985  0.7675061788087305  0.2435106559484268
  0.8488962298291440  0.8648669000158193  0.3420471251582029
  0.7476006431933229  0.9139276894478741  0.4173630052602419
  0.6535805761548801  0.9759925288720126  0.5057336487501942
  0.5850376690792629  0.0721923706691996  0.5922309489202675
  0.5038089369759504  0.1505248136173094  0.6886085666824897
  0.5207236206691945  0.1888247340215159  0.8505037573168792
  0.4254472576530617  0.2731965956731557  0.9209587090650189
  0.3107555717054282  0.3354220233151395  0.0079489217489339
  0.2273566820914397  0.4123555721998073  0.0800563849667739
  0.1274863466025948  0.4926987032312908  0.1756901706612908
  0.0894664916548038  0.5834828463652926  0.2678717242129380
  0.9947247369878198  0.6887471399897152  0.3276818323841155
  0.9259039916547991  0.7759828364776169  0.4107967647524120
  0.8211842484377456  0.8492040366437266  0.5102626300229360
  0.7202794939487447  0.9024416197002054  0.5934712471325767
  0.6519111686244230  0.9685702628144313  0.6702751295285552
  0.5672853968913145  0.0750872661564657  0.7757697753520034
  0.5785212654247758  0.0686116901993330  0.9184482973421950
  0.5067145101645281  0.1871846167536759  0.0031379790579038
  0.4142625741575685  0.2524092336062367  0.0893096780572691
  0.3061275208629937  0.3284055959302350  0.1577677879291244
  0.2309461091994933  0.4124661619008094  0.2347283613154545
  0.1600552014119572  0.4845183342232247  0.3382314230343297
  0.0746600641710202  0.6035752303828517  0.4025936278871995
  0.0202612081751283  0.6869653827519357  0.4732333026815354
  0.9188994220653370  0.7659921981292541  0.5913492959974676
  0.8144915989360868  0.8148344110900183  0.6824236893885427
  0.7578066549003353  0.9193028783024815  0.7514380754627439
  0.6464816801139079  0.9801235153654488  0.8479075319371958
  0.6487560700442998  0.0103203211517169  0.0225530251344708
  0.5735310003361818  0.0882865250751479  0.0649057096385093
  0.5123640088593575  0.1887930974133809  0.1666557546274348
  0.4228451426791651  0.2564454096464175  0.2552430712110407
  0.3333684593023278  0.3321069703171986  0.3129237704674921
  0.2500645536703061  0.3927900164135423  0.4201643989281791
  0.1741156348876771  0.5218182076609708  0.4760100310473021
  0.0694248353701923  0.6069373131229270  0.5625572788126902
  0.0080786505299812  0.6848195988569827  0.6536775777171329
  0.8962437223145088  0.7664758701154852  0.7710564581355825
  0.8340297970060107  0.8405545740389186  0.8504537607775688
  0.7352560977297884  0.9165459999406735  0.9195067631703822
  0.7661184558416423  0.9142018460291084  0.0682618548291387
  0.6658731005774428  0.0042351843062818  0.1471997977970290
  0.5873966856510080  0.0845916567789899  0.2290731203527940
  0.5259568086536959  0.1630511311501337  0.3251568318897355
  0.4197535659903480  0.2316423899501672  0.4047634175763335
  0.3521947956217346  0.3149246969427324  0.4842813340452494
  0.2486481796788453  0.4153905246400882  0.5561936422243292
  0.1494303353899724  0.5058132386093988  0.6287745565377350
  0.0673629933950295  0.5612474835864560  0.7325553788957464
  0.9747512478247131  0.6678046659943035  0.8280842914491373
  0.9290444109911391  0.7557775950205681  0.9155239202657839
  0.8527613525351967  0.8190673241971211  0.0070093834045224
  0.4029284260797326  0.4202461363906025  0.5904495244027856
  0.3222451105442161  0.5091243948742274  0.6719577212861907
  0.2185032352475886  0.5946370145151079  0.7262897667497228
  0.1552321057783601  0.6485932259531708  0.8283959860979309
  0.0854479260599561  0.7256402057625380  0.9264601378342050
  0.0141182600656506  0.8562624703369721  0.0007084287494052
  0.9050469110900181  0.9524852530256283  0.0885270783894967
  0.8305280434266749  0.0155797535002407  0.1635534888664765
  0.7303726694747681  0.1069696018232875  0.2395407476071796
  0.6529812475280821  0.1675688627195058  0.3569093196290112
  0.5750508567671275  0.2633013941623190  0.4366008785200108
  0.4869798830287948  0.3526103889811765  0.5220955470851152
  0.4936933905829761  0.3425992604018333  0.6977809805608288
  0.4065783894953299  0.4266399496717312  0.7519393104334782
  0.3138851566207848  0.5157592612917270  0.8176450502293946
  0.2389638892184749  0.5639271441425393  0.9349800896812184
  0.1612283192928317  0.6597865675921497  0.9902786935413701
  0.0717468502808103  0.7502930474806178  0.0835811926514793
  0.0147037494067419  0.8678494729868689  0.1658716233586475
  0.9083831958946362  0.9549863134788765  0.2567296210053769
  0.8054308164254067  0.0255132643173539  0.3283830940515742
  0.7280281556517991  0.0995862586022795  0.4367397603227303
  0.6641344417418154  0.1726185937747218  0.5215610039946199
  0.5639742094803069  0.2587142881862050  0.6118360751858916
  0.5920877560908053  0.2766134185650984  0.7715693091480773
  0.4948097833610205  0.3630699538245565  0.8208600147326379
  0.4013167942176850  0.4173092499208977  0.9065120906502102
  0.3241834920305351  0.4973168451392169  0.9999722181023571
  0.2359110035002345  0.5759815278436946  0.0948667714760347
  0.1608792492287634  0.6559249288087301  0.1506138373081782
  0.0706018564111659  0.7440943590808402  0.2406672712980509
  0.0109055069411497  0.8716249322694196  0.3346188829892398
  0.8994108408479704  0.9338973184622716  0.4216078997587402
  0.8199461329299140  0.9975432575937333  0.5043404455386806
  0.7469556231213446  0.0853783598323048  0.5838807462229099
  0.6560647232439507  0.1708361617030505  0.6940121742010774
  0.6550148695815565  0.1716727451154867  0.8420873457522546
  0.5838128149224815  0.3001089557625392  0.9186080752649914
  0.4890254315970566  0.3681698959816515  0.9960632133958214
  0.4003242559523841  0.4256553615923124  0.0961753040460351
  0.3236440495965809  0.5019671022187921  0.1839558935492818
  0.2389384329022306  0.5802373724489769  0.2468644681419079
  0.1685581988609428  0.6738175204674874  0.3354538858566656
  0.0779036055410529  0.7528963267283686  0.4255651691781352
  0.9871322476665085  0.8732516883206785  0.4897851175644661
  0.9102898181656371  0.9000383088118937  0.6191017056241108
  0.8181382816207901  0.9965865226032307  0.6598003401360515
  0.7277772731767129  0.0661503075067245  0.7654714804817289
  0.7324885757791506  0.0882359832305042  0.9138789990705618
  0.6538582359397225  0.1689025836497393  0.9836466406620801
  0.5804813345396269  0.3009118266492621  0.0526986468715407
  0.4880424547144457  0.3477525935374146  0.1628938192137355
  0.3900824859595033  0.4271853345989527  0.2269279806399283
  0.3179943635302962  0.4770651988411672  0.3373809805608303
  0.2487930667615856  0.5836715788641058  0.3890060566959335
  0.1670124035951588  0.6706895447713990  0.4866777398750202
  0.0920911559681983  0.7703218265503864  0.5589719862363580
  0.0019899654920081  0.8208995916389838  0.6684374673706657
  0.9232824088356253  0.9212465778753369  0.7460392718715383
  0.8351625865171641  0.0015864257040050  0.8330089612007612
  0.8011776874703358  0.9834486740626502  0.9688077064546761
  0.7386487363550103  0.1109874500672348  0.0836888644992868
  0.6569968829101427  0.1898399501661103  0.1713272390642331
  0.5928170196566995  0.2649134556438852  0.2571501888546095
  0.4882301153891788  0.3430125731687994  0.3463748398196458
  0.4058716208867281  0.4067952044771417  0.4109632608566685
  0.3361047287810450  0.5173711620985628  0.5039634764080034
  0.2326686689210575  0.6030261810828961  0.5870421561066266
  0.1548752625177983  0.6911846226862863  0.6501187504943857
  0.0712179678848273  0.7294258711042545  0.7514566702262329
  0.0149931527843705  0.8472711269973132  0.8267012512853995
  0.9286722685295032  0.9223168886449926  0.9154891294890035
 
  0.00000000E+00  0.00000000E+00  0.00000000E+00
  0.00000000E+00  0.00000000E+00  0.00000000E+00
  0.00000000E+00  0.00000000E+00  0.00000000E+00
  0.00000000E+00  0.00000000E+00  0.00000000E+00
  0.00000000E+00  0.00000000E+00  0.00000000E+00
  0.00000000E+00  0.00000000E+00  0.00000000E+00
  0.00000000E+00  0.00000000E+00  0.00000000E+00
  0.00000000E+00  0.00000000E+00  0.00000000E+00
  0.00000000E+00  0.00000000E+00  0.00000000E+00
  0.00000000E+00  0.00000000E+00  0.00000000E+00
  0.00000000E+00  0.00000000E+00  0.00000000E+00
  0.00000000E+00  0.00000000E+00  0.00000000E+00
  0.00000000E+00  0.00000000E+00  0.00000000E+00
  0.00000000E+00  0.00000000E+00  0.00000000E+00
  0.00000000E+00  0.00000000E+00  0.00000000E+00
  0.00000000E+00  0.00000000E+00  0.00000000E+00
  0.00000000E+00  0.00000000E+00  0.00000000E+00
  0.00000000E+00  0.00000000E+00  0.00000000E+00
  0.00000000E+00  0.00000000E+00  0.00000000E+00
  0.00000000E+00  0.00000000E+00  0.00000000E+00
  0.00000000E+00  0.00000000E+00  0.00000000E+00
  0.00000000E+00  0.00000000E+00  0.00000000E+00
  0.00000000E+00  0.00000000E+00  0.00000000E+00
  0.00000000E+00  0.00000000E+00  0.00000000E+00
  0.00000000E+00  0.00000000E+00  0.00000000E+00
  0.00000000E+00  0.00000000E+00  0.00000000E+00
  0.00000000E+00  0.00000000E+00  0.00000000E+00
  0.00000000E+00  0.00000000E+00  0.00000000E+00
  0.00000000E+00  0.00000000E+00  0.00000000E+00
  0.00000000E+00  0.00000000E+00  0.00000000E+00
  0.00000000E+00  0.00000000E+00  0.00000000E+00
  0.00000000E+00  0.00000000E+00  0.00000000E+00
  0.00000000E+00  0.00000000E+00  0.00000000E+00
  0.00000000E+00  0.00000000E+00  0.00000000E+00
  0.00000000E+00  0.00000000E+00  0.00000000E+00
  0.00000000E+00  0.00000000E+00  0.00000000E+00
  0.00000000E+00  0.00000000E+00  0.00000000E+00
  0.00000000E+00  0.00000000E+00  0.00000000E+00
  0.00000000E+00  0.00000000E+00  0.00000000E+00
  0.00000000E+00  0.00000000E+00  0.00000000E+00
  0.00000000E+00  0.00000000E+00  0.00000000E+00
  0.00000000E+00  0.00000000E+00  0.00000000E+00
  0.00000000E+00  0.00000000E+00  0.00000000E+00
  0.00000000E+00  0.00000000E+00  0.00000000E+00
  0.00000000E+00  0.00000000E+00  0.00000000E+00
  0.00000000E+00  0.00000000E+00  0.00000000E+00
  0.00000000E+00  0.00000000E+00  0.00000000E+00
  0.00000000E+00  0.00000000E+00  0.00000000E+00
  0.00000000E+00  0.00000000E+00  0.00000000E+00
  0.00000000E+00  0.00000000E+00  0.00000000E+00
  0.00000000E+00  0.00000000E+00  0.00000000E+00
  0.00000000E+00  0.00000000E+00  0.00000000E+00
  0.00000000E+00  0.00000000E+00  0.00000000E+00
  0.00000000E+00  0.00000000E+00  0.00000000E+00
  0.00000000E+00  0.00000000E+00  0.00000000E+00
  0.00000000E+00  0.00000000E+00  0.00000000E+00
  0.00000000E+00  0.00000000E+00  0.00000000E+00
  0.00000000E+00  0.00000000E+00  0.00000000E+00
  0.00000000E+00  0.00000000E+00  0.00000000E+00
  0.00000000E+00  0.00000000E+00  0.00000000E+00
  0.00000000E+00  0.00000000E+00  0.00000000E+00
  0.00000000E+00  0.00000000E+00  0.00000000E+00
  0.00000000E+00  0.00000000E+00  0.00000000E+00
  0.00000000E+00  0.00000000E+00  0.00000000E+00
  0.00000000E+00  0.00000000E+00  0.00000000E+00
  0.00000000E+00  0.00000000E+00  0.00000000E+00
  0.00000000E+00  0.00000000E+00  0.00000000E+00
  0.00000000E+00  0.00000000E+00  0.00000000E+00