Li 
 1.0000000000000000
    20.2271999999999998    0.0000000000000000    0.0000000000000000
     0.0000000000000000   20.2271999999999998    0.0000000000000000
     0.0000000000000000    0.0000000000000000   20.2271999999999998
 Li 
 432
Cartesian
  0.2325039600000000 -0.1294690400000000 -0.0648399000000000
 18.0946129000000013  1.9020786400000000  1.5128704799999999
 16.5939001799999986  3.7645372099999999  3.0968517000000002
 14.9455049300000002  4.7204445899999996  5.5013312000000001
 13.3757675700000007  6.7919295699999997  7.0264030799999997
 11.6902003099999998  8.2541620800000004  8.4288191900000005
  9.7953329000000000 10.0345027600000005 10.0964516300000007
  8.4797473199999995 11.4767738000000001 11.8177051500000001
  6.5481702899999998 13.6257795999999995 13.3990696000000007
  5.1703392399999997 15.1799900700000006 15.3221690499999994
  3.5223672499999998 17.1632840599999987 17.0842321999999989
  1.8294977900000000 18.7300525100000002 18.6514864200000012
  1.7650125100000000 18.8212331500000012  1.3673798900000000
  0.0264263400000000  0.0317692500000000  3.1666480899999998
 18.3629330300000007  2.0725365700000000  4.7841563699999998
 16.6327105099999990  3.3133006400000000  7.0807502400000004
 14.6107427800000007  4.9926406500000002  8.8319191099999994
 13.3209285600000005  6.7251357100000000 10.4738378799999996
 11.5741253900000007  8.5478240299999992 12.0409059799999998
  9.9900768699999993 10.1328490799999997 14.0172170000000005
  8.1732021100000001 11.7507320600000007 15.2127688600000006
  6.4690454500000003 13.0190109199999995 16.7748278299999996
  5.0393708500000001 14.8437674299999998 18.6563949700000009
  3.4989475200000002 16.5622271499999982 -0.1155179100000000
  3.0740028900000000 16.9113451400000017  3.4364415600000000
  1.7586672999999999 19.0395706999999987  5.3726858399999999
 -0.3013796400000000  0.4589386400000000  7.2216243100000002
 18.5831789200000017  1.8047901399999999  8.8950758699999994
 16.4951293499999991  3.3941102700000001 10.2010540200000008
 14.9734010200000007  5.0073295399999997 12.0379038099999995
 13.4733919800000006  7.1863893000000001 13.9102687399999994
 11.8926727000000003  8.4271449900000004 15.3832304299999993
  9.9499472900000008 10.4072900300000004 17.3213666500000016
  7.9736526300000001 11.8989751100000003 18.8295397199999996
  6.2820121799999997 13.3726169099999996 20.6817029900000016
  4.6596159100000003 14.6840949599999995  1.8259866899999999
  4.4972185600000003 15.2008323000000001  4.8621296500000000
  3.2955939800000000 17.0165965399999983  6.5948808600000000
  1.6637428299999999 18.9782186199999998  8.4850381800000001
  0.2852516600000000  0.0877211100000000 11.0073015000000005
 18.4989583599999996  1.7587412400000000 12.0210042200000000
 16.7165365699999988  3.2307233000000002 13.5949978199999997
 15.0410510800000008  5.0648958200000003 15.3666282100000000
 13.9634458299999995  7.2775775800000000 17.1403169700000007
 11.7729040099999995  8.6692196599999995 18.7082752600000006
 10.1424872700000002 10.5503347800000000  0.1615695800000000
  8.3887638300000003 12.1321419699999993  1.8462593700000001
  6.7406111400000004 13.6543825400000003  3.4045050099999998
  6.6208431499999998 13.8570820700000006  5.9368382300000002
  5.2564871599999998 15.1806798199999999  8.2226449400000003
  4.0550041200000004 16.8069565300000008  9.4646959000000006
  2.3737746400000002 18.3147567299999992 11.8590949999999999
  0.5814558300000000 -0.0878523100000000 13.4630671799999995
 18.8062638699999987  1.8401970000000001 15.2354359899999992
 17.0627025799999998  2.9397600499999998 16.6752392799999996
 15.3203541199999993  4.8143475200000001 18.2035787099999986
 14.1771971200000007  6.8898885800000000 -0.6545747800000000
 11.9270692000000000  8.4711303600000001  1.4889866899999999
  9.8565971000000001  9.6213984499999992  3.2464540899999998
  8.5683429899999997 11.3669919299999993  5.1277614800000002
  8.1979597000000002 11.9262035500000003  8.0063677299999991
  6.7671684200000000 13.1432808899999998  9.8778446899999999
  5.3002454099999996 15.1504753900000004 11.3848270599999992
  3.5621444900000001 16.3274329800000011 13.8357242700000000
  2.2383285399999999 18.5673450699999982 15.0152070900000005
  0.3317591600000000  0.0796189500000000 16.3539683700000005
 18.6275577000000006  1.4214628000000000 18.3093685199999996
 16.8745222400000010  3.3608806699999998 19.8021035500000018
 14.9289927900000006  5.0573126100000003  1.5431500000000000
 13.9246831600000007  6.6816350800000004  3.1192615699999999
 12.0701520099999993  8.3985611500000008  4.9529241300000004
 10.2325957899999995  9.8293040099999995  6.6418382899999999
  1.9179149900000001  1.4429390000000000 18.4133434999999999
 -0.1044983500000000  3.3853171899999999 -0.4478561100000000
 18.9044149499999996  5.3281745899999997  1.8253634700000001
 16.4735761799999985  6.5582941699999999  3.5805279400000001
 15.2679129099999997  7.7742241900000000  5.5566153199999997
 13.8212610500000004  9.6404977800000005  6.7239069599999999
 11.9097283399999991 11.4021900100000000  8.0017812999999993
 10.1612123299999997 13.4434466599999993  9.5464614500000007
  8.7148826300000000 15.2523582399999995 11.2133472300000001
  7.0058694700000004 16.7424004999999987 13.0580686700000008
  5.4435749600000003 18.4081142900000003 15.5577870100000002
  4.0188058199999999 -0.2400742600000000 17.4741519200000006
  3.8289643400000002  0.0230178600000000  0.1743183200000000
  1.5840718300000001  1.6667046299999999  1.4274653799999999
  0.1153623100000000  3.1317655499999999  3.2292046299999999
 18.3889451299999998  4.8641547899999997  5.6392619000000002
 16.6645918799999997  6.0631094299999999  7.2905592700000001
 15.4319352500000004  8.0363121999999994  8.8770041800000001
 13.1968324100000007  9.8658111900000005 10.2651325799999995
 11.8858024800000006 11.5313968199999994 11.5934867399999995
  9.8564673900000006 13.5560099600000008 13.2494300999999997
  8.1946935799999991 15.2520860400000000 15.3905267400000003
  6.8028757300000002 15.8323036899999998 17.4109456400000013
  5.7222349200000000 18.1012327100000014 18.8085105100000014
  5.2963289700000002 17.9083559699999988  1.4319195700000000
  3.7302900900000000  0.2024520700000000  2.9934184699999999
  1.6794218299999999  1.6908112300000000  5.0371205899999998
  0.3767157800000000  3.0672284400000001  6.8304225599999997
 18.2937350599999995  4.6920515800000002  8.8996737600000007
 16.7278480000000016  6.4159493400000001 10.3832836600000000
 14.7905245399999998  8.2047264900000005 11.7897245999999996
 13.8242752899999992 10.4107834599999993 13.2618179699999992
 11.8893104100000002 12.0996443399999993 15.1688305499999991
  9.6280137000000003 13.4223225500000005 16.8065246299999984
  8.4201890899999992 14.5892743700000000 18.5318807700000008
  6.5811975299999999 16.1516801200000018 20.1619111599999989
  6.3868610400000003 16.5151877899999988  3.5561728900000000
  4.7591568100000003 18.6500506199999982  4.9711444900000004
  3.7459877100000001  0.5024475000000000  6.7051884099999999
  1.9454755100000001  1.2095984900000001  8.8886715899999995
  0.7303490200000000  2.6158600399999998 10.5282378399999992
 18.7248810200000015  4.5141359000000003 12.0294036999999996
 16.8601991399999989  6.8159703199999999 13.6143870000000007
 15.0829030799999995  8.9618917800000002 15.7528930900000006
 13.3941972099999997 10.0745795400000002 17.1500175500000012
 11.6013659800000006 12.1925134800000006 18.6417515400000013
 10.0383870700000006 13.5711694299999994 20.3335476100000001
  8.5855210500000005 15.2071213000000007  1.6201511000000000
  8.6363582300000008 14.7670948000000006  4.7436813799999999
  6.7900507499999998 16.8095002099999995  6.2243299099999998
  5.3667656199999998 19.1322015500000013  8.0054622099999992
  4.0843850100000001 -0.0714483000000000 10.1575300199999994
  2.3895979199999999  1.1734135900000000 12.4059416200000001
  0.5898132400000000  3.0703233299999999 13.5133392400000005
 18.9434641799999994  4.8083956099999998 14.8394268799999995
 17.2044918299999985  6.7144963799999999 16.0472053199999998
 15.9349889800000000  8.4150923100000004 18.3036612100000013
 13.8779227200000008  9.9665174800000003 19.8213284999999999
 12.5320485599999998 11.2983412699999999  1.5758676599999999
 10.4476741900000007 13.3816591999999996  3.0749046400000002
 10.4387232000000001 13.1892996399999998  6.4215051699999997
  8.3977558800000001 14.9188311599999999  7.8447711699999996
  7.0487484900000004 16.5807280599999984  9.7298937900000002
  5.1324254900000001 18.5884362100000011 12.0223786100000005
  4.1215083400000001 -0.3400117200000000 13.5661325300000009
  2.2260894200000001  1.5232163800000000 15.3603251099999998
  0.6016554900000000  3.1604161600000000 16.9195646999999987
 18.3465660799999988  5.1267795300000003 18.1241404999999993
 16.6950337299999987  6.6602942900000004 20.6856178300000018
 15.2416804900000002  8.6861274200000000  1.4161266400000001
 14.1827264199999998 10.1917880400000005  3.3288230500000000
 12.0792189899999993 11.7824882500000001  4.9713709799999997
  3.5509276299999999  3.3799777500000001 16.9654480800000016
  1.9787870200000000  5.4606155899999997 18.7633866000000005
 -0.1774894300000000  6.6758633900000000 -0.4976682700000000
 18.5331412299999982  7.9977826800000003  1.7064801500000000
 16.8895111500000006  9.7753250000000005  4.1674335700000000
 15.5190189600000004 12.0026919099999994  5.2480551699999998
 13.9776533700000005 13.3893064499999994  6.6669902399999996
 11.9503648600000005 15.0032370499999992  8.1415029099999998
 10.0460232999999999 17.0001931500000012  9.4523214699999993
  8.6510392700000001 18.3950400099999989 11.8783329099999992
  6.9207296200000004 20.2529731099999992 13.7853477600000005
  4.9910712999999998  1.9334234400000001 15.4273552400000007
  5.5822674799999996  1.6706992400000000 18.8640678500000014
  3.0887998300000001  3.2970504599999999  0.0055133000000000
  1.0215714700000000  4.5744396399999996  1.5385572700000001
 -0.3284007400000000  6.4007077499999996  3.8541143000000000
 18.1665314500000008  7.7768268200000001  5.3504264499999996
 16.7398121099999990  9.8353515399999996  7.0951499299999998
 15.3044440999999996 11.6388874100000006  8.6218819700000005
 13.7145963700000006 13.4429935599999997 10.1237324799999993
 11.6332494900000007 15.2587376300000006 11.5884589099999999
 10.2452175800000003 16.7521265100000001 13.1336484099999993
  8.5775547700000008 18.0167778399999996 15.3362321099999992
  7.1020116800000004 20.2457988600000007 17.0430607199999997
  6.9007452200000001 -0.0730523100000000 -0.0334574200000000
  5.0336425800000004  1.7839622100000001  1.6288025100000001
  2.6360612400000001  2.8930875800000000  3.2422800800000000
  1.2668326000000001  4.9808926800000002  5.0157992000000000
 -0.2266265200000000  6.5080474099999996  6.8507038199999997
 18.0691843200000015  8.4411769799999998  8.5202846700000006
 16.8636891200000001 10.1523484199999992 10.5539552400000005
 15.2087610400000006 12.0350700600000007 11.7220561500000002
 13.6516540400000004 13.4352762000000006 13.1329359199999995
 11.7742912600000000 14.6871619599999992 14.9165567899999996
 10.1872292299999998 16.9543505600000017 16.8123076500000010
  7.8388285199999999 18.2617288000000002 18.5289954399999992
  8.2408784500000003 18.0738901600000013  1.8696269000000001
  6.6870469000000003  0.1373166700000000  3.5583871100000000
  5.1070176399999996  2.2903234700000001  4.6690260900000000
  2.8652991600000002  3.4334230300000002  6.6851356099999997
  1.0570767900000000  5.1799019900000003  8.3619048399999993
 -0.2409919700000000  6.7800907199999996 10.0817718999999997
 18.1669966400000007  8.2626390500000007 11.8414262299999997
 16.6667863700000005 10.3598956500000003 13.4884499499999997
 15.3582599000000002 12.0348328099999993 15.0420289900000004
 13.2907383200000009 13.2837260399999995 16.6091371099999989
 11.9686825599999995 15.1058739800000001 18.6222544499999998
  9.9815385200000009 16.8672189099999983 20.2429085200000003
 10.3590628500000008 16.6383042000000003  3.8613264699999998
  8.4088753500000006 18.5370468300000013  4.5920526700000002
  6.8309150599999997 -0.0704597600000000  6.0015910799999999
  5.0655780000000004  2.1214392700000002  8.2588287400000002
  3.1733638100000001  3.6088097600000002 10.2314689300000001
  1.4116443900000000  5.0126098299999997 11.8320279300000006
  0.0086537800000000  7.1466418000000003 13.5181645899999996
 18.6502002000000005  8.5062396800000002 14.9076138999999994
 17.4102067200000015 10.6226866599999994 16.5355443499999986
 15.6598431300000005 11.8485533099999998 18.4516216700000015
 13.8279553100000001 13.1872998599999995 20.3252162399999996
 11.7361860700000005 15.3806582400000007  1.6052197399999999
 12.7201251200000005 15.0519183699999992  4.8954361300000002
 10.4883041000000006 16.6913101899999994  6.4345464400000001
  8.1968315900000004 18.6250574600000007  8.2123186700000002
  6.6848217999999999 -0.2575164000000000  9.9961353099999997
  5.3956356500000000  1.8815105200000000 11.6712564600000004
  3.8980332799999999  3.8292246799999998 13.5792666099999995
  1.5908186400000000  5.2422877899999998 15.2127503199999996
  0.0136936500000000  6.8575954699999997 16.8706190099999986
 18.4487575600000007  8.6674097499999991 18.5608086900000018
 17.0425911899999996 10.0830394800000001 20.1151326899999994
 15.4676381200000002 11.6905504899999997  1.2361719799999999
 13.9584870199999997 13.2101449899999999  3.2988524500000000
  5.2978652000000004  5.2402390399999996 15.2496851000000007
  3.4636422699999998  6.7327751800000000 16.6983116500000008
  1.5186095300000000  8.3834955400000002 18.3526514200000008
  0.0402327900000000 10.0914411200000007  0.1744785300000000
 18.1158576499999988 11.3546861299999993  2.3784785400000001
 17.3589431999999988 13.5132872699999993  3.4891601099999998
 15.5495494999999995 15.4212157500000000  5.4783439800000000
 13.9665702500000002 17.1401092300000002  6.8189796899999999
 11.8073761400000006 18.6251060499999994  7.9297585399999999
  9.8133736599999999  0.0922660300000000  9.9319504900000002
  8.8549350100000002  1.7794452800000000 11.8642984600000005
  6.7021763999999999  3.4974884999999998 13.8017280299999996
  6.7291522500000003  3.4979268200000000 17.0173425599999995
  5.0378205200000004  5.0286667100000004 18.5566112300000015
  3.0895001400000002  6.5087659699999998  0.1396968600000000
  1.1362773300000000  8.0626660000000001  1.9107846200000000
 -0.0412723000000000  9.5606655899999993  3.9405969100000000
 18.8559274700000010 11.4195299699999993  5.7095165300000001
 17.4833507899999994 13.5257446399999992  6.6272240199999999
 15.6603696100000001 15.4380350899999996  8.0234859400000005
 13.5015964700000008 16.4926482999999990 10.0150622800000004
 11.7146929699999998 18.1498511499999999 11.4914537899999996
  9.9824284399999996 19.6483771400000009 13.6709832400000000
  8.6831607900000005  1.8542091999999999 15.4891165199999996
  8.8967439299999995  2.1665863399999998 18.4782170800000003
  6.9780617999999999  3.6775974100000002 -0.0421531800000000
  4.4498124199999998  5.0035783299999999  1.7140148399999999
  2.9087175099999998  6.2843086699999997  3.1062256700000002
  1.6258977500000000  8.0023862500000007  5.1442019500000002
 -0.0823170600000000  9.6316883400000002  6.9365604699999999
 18.8948211300000004 12.1497930400000005  8.7870955899999998
 16.9860030399999999 13.7143114700000002  9.8664097000000002
 15.2951355299999996 14.7927806700000009 11.4829012600000002
 13.4222902000000008 16.2174839800000008 13.6199765799999994
 11.6632691400000006 17.9506249999999987 15.0841701199999996
  9.9160322900000004 -0.5171718900000000 16.9900068200000014
 10.1245787800000002 -0.2839809500000000  0.0677400600000000
  8.4941369499999997  1.6872029700000000  1.5773671499999999
  6.6350682000000001  3.4446674100000001  3.2006532800000000
  4.6529031999999999  4.7286331099999996  4.7130823700000004
  2.9742789100000002  6.4417835900000000  6.6884932299999997
  1.9098957200000000  8.6131172100000004  8.5094367200000001
 -0.1188806000000000 10.2237111499999997  9.9523951299999993
 18.5795920999999993 12.4215708199999995 11.5151964600000003
 16.8463360400000006 13.7757496199999991 13.4403796700000004
 15.0105127500000002 15.0298107299999995 15.6977031799999995
 13.4762739800000002 16.7758424099999992 16.9501623499999994
 11.6792742100000009 18.6644589399999994 19.1909445299999994
 11.9220809200000009 18.1856380500000014  1.4026311100000000
 10.2340865000000001 -0.2308765300000000  2.8729956300000001
  8.6127076700000007  1.6449613999999999  4.5131861400000002
  6.7850851399999996  3.2293938799999999  6.4147683200000003
  4.7578254900000001  4.7455154400000001  8.2674076999999997
  3.2419856700000000  6.6398702500000004 10.2548198199999998
  1.5344350800000000  8.6814508000000004 11.4386191900000007
 -0.2837047500000000 10.2451109400000000 12.8416928099999996
 18.5949500199999989 12.1786099199999995 14.6712507399999996
 17.1394439799999994 13.4438413400000005 16.9134505399999995
 15.4119469900000006 14.7317473400000001 18.7101873099999985
 13.6409530100000005 16.8137915800000002 -0.0009241400000000
 13.7567899300000001 17.1224589499999986  3.1448104500000000
 12.6112794899999994 18.4797167100000017  4.8938220499999998
 10.2066872300000000  0.1392038400000000  6.3084237999999999
  8.4465433900000004  1.6481050200000000  7.9077210400000002
  7.0717639999999999  3.1435417700000001 10.0409975700000000
  5.6316265799999998  5.0320349699999998 11.5369612200000002
  3.5391245800000002  7.0704579799999996 13.1044432000000004
  1.7639620400000000  8.3911139600000002 15.1720187600000003
 -0.3419899200000000 10.3804707399999998 16.6130538600000008
 18.7008022400000016 11.9554813800000002 19.0040799999999983
 17.3651343999999987 13.9001677899999994  0.5170011200000000
 15.3509447699999999 15.1408278900000006  1.8850778399999999
  6.5062555900000003  6.9016539699999999 13.5252434299999997
  4.9569570199999999  8.8656072399999992 14.8313439299999992
  3.2686120500000002  9.8878151299999999 17.0064225200000010
  1.5804899200000000 11.7165072400000003 18.4593676199999983
  0.2105759000000000 13.4808043600000005  0.6816739900000000
 18.8901979100000013 15.5889107100000004  1.9328659200000000
 17.0947598700000007 17.2320245800000009  3.7353236200000000
 15.1896642699999997 18.9893499000000006  4.8814302899999999
 13.5456826899999996  0.3857000400000000  6.6806609400000001
 11.5397752100000002  1.4303019299999999  8.9828219100000002
 10.4382298900000006  3.2036838099999998 10.3053031500000003
  8.4710693399999997  4.9655616499999997 11.7286783999999997
  8.4532383099999997  5.1507054800000001 15.3067905999999994
  6.4631451699999998  6.8695666099999997 16.9585631499999998
  4.5745764500000003  8.5110583399999999 18.5677144399999996
  2.9465376399999998  9.7382873300000004  0.0646720800000000
  1.4299036400000000 11.3379028799999997  1.7704853500000000
 -0.0903769500000000 13.2467144000000001  3.4086766000000002
 18.9835403499999984 15.5245009799999991  4.9255387400000004
 17.1707938200000001 17.4938357599999996  6.9186556100000001
 15.1218677300000000 18.4861981600000007  8.4420849800000006
 13.2201050299999991 -0.4856039200000000 10.2295756600000001
 11.8336739400000006  1.4602495200000001 11.9791738500000005
 10.1906441300000008  3.0446955099999999 13.9286232000000005
 10.5327808199999993  3.8193956600000001 17.2033096000000008
  8.6056067699999996  5.5260021799999999 18.6284160000000014
  6.2857151000000000  6.7846483500000003  0.1607844300000000
  4.5987890800000004  8.3407986300000001  1.6193165100000000
  2.5786918299999999  9.9659152100000004  3.5537202200000002
  1.8096566199999999 11.8022242300000002  5.4182949400000000
 -0.1067038000000000 13.9314261500000001  6.6280859599999999
 18.7284452200000011 15.6959600300000002  8.3092683199999993
 16.6102580300000007 17.1770198900000004 10.3211842699999998
 14.5692373800000006 18.2538671299999997 12.0042616100000004
 13.1863375900000008 -0.6357355800000000 13.5577891000000008
 11.4745951799999997  1.5188051499999999 15.6916504000000003
 11.7018653399999994  1.3878223800000000 18.5776374000000004
 10.2494157399999999  3.7862206800000000  0.0634725300000000
  8.3793719400000004  5.1055320499999999  1.8064847200000000
  6.1921025900000002  6.6427256699999999  3.1912006000000002
  4.6713931400000002  8.3430355499999997  4.7478975099999996
  3.2374685699999999  9.8004492499999998  6.8414746400000004
  1.5101640500000000 12.2086369000000001  8.1433418300000007
  0.4098275100000000 13.8953861900000000  9.5721846599999996
 18.5867623900000005 15.4938773899999997 11.9613404800000005
 16.4748844699999992 16.4818186000000004 13.8035204500000006
 15.3283067699999993 18.5949231799999986 15.1994882400000009
 13.0765142399999998 -0.4020456300000000 17.1507952299999999
 13.1225187800000000  0.2087512000000000  0.4561845500000000
 11.6009262500000006  1.7857892000000000  1.3128607699999999
 10.3636892799999991  3.8187557399999998  3.3709792799999998
  8.5529732700000007  5.1871725900000003  5.1628526499999996
  6.7431105000000002  6.7175941100000003  6.3295716899999999
  5.0581057400000002  7.9450422200000004  8.4987493300000008
  3.5218717700000002 10.5549212499999996  9.6283501000000005
  1.4042700299999999 12.2766424199999999 11.3789585899999999
  0.1634084800000000 13.8519829899999998 13.2220671000000003
 18.1285010200000016 15.5036607199999992 15.5963131900000000
 16.8700875100000012 17.0020654799999988 17.2022983099999998
 14.8721721400000000 18.5391592500000009 18.5990472000000011
 15.4964312300000007 18.4917435800000014  1.3807461900000000
 13.4687483799999992  0.0856659200000000  2.9774397499999998
 11.8813902400000000  1.7110523600000000  4.6335078200000002
 10.6386335600000006  3.2980678399999999  6.5770122700000000
  8.4904393299999992  4.6854769500000000  8.1872305999999995
  7.1239145700000002  6.3700448300000003  9.7956553999999993
  5.0294564599999996  8.4021872200000001 11.2502400399999996
  3.0225572800000000 10.2311855400000002 12.7183487100000008
  1.3625647400000001 11.3524650999999999 14.8175441600000006
 -0.5107115600000000 13.5078185400000006 16.7498265800000006
 18.7919671100000016 15.2872645699999996 18.5184854399999992
 17.2489744300000005 16.5674385800000010  0.1417802000000000
  8.1501138599999994  8.5004026499999998 11.9431406199999994
  6.5181163000000000 10.2981609600000006 13.5918232200000002
  4.4197086399999996 12.0278418200000008 14.6908083699999992
  3.1399108500000001 13.1192249000000007 16.7561312899999990
  1.7283722900000000 14.6776695700000008 18.7396944999999988
  0.2855728700000000 17.3197922400000017  0.0143295300000000
 18.3065648799999998 19.2661097099999985  1.7906549199999999
 16.7992568400000017 20.5423347900000017  3.3082291300000000
 14.7733940599999993  2.1636955300000000  4.8452386100000000
 13.2079822900000003  3.3894489000000001  7.2192761900000004
 11.6316686899999997  5.3258499600000002  8.8312132900000009
  9.8502394899999999  7.1323208600000001 10.5605310499999998
  9.9860349500000005  6.9298237599999997 14.1141554500000002
  8.2239424000000003  8.6297315900000005 15.2096268200000004
  6.3490178400000001 10.4323657300000008 16.5386699600000000
  4.8335703800000003 11.4066671300000007 18.9120292700000014
  3.2611974600000000 13.3456348600000005 -0.1966348100000000
  1.4512378900000000 15.1763275300000000  1.6906135000000000
  0.2974156800000000 17.5541648600000002  3.3551185000000001
 18.3740485800000002 19.3166991599999989  5.1929213900000004
 16.2916102100000018 20.7432619000000003  6.6422705200000003
 14.7259711099999997  2.0143511699999999  8.8340224799999998
 13.4335801799999999  3.4915908199999999 10.5497187399999994
 11.4076191300000005  5.2330656500000003 12.3757306600000003
 11.9762774600000004  5.5951149400000002 15.6066867299999998
 10.0086164499999999  7.3438885699999998 16.6036996899999991
  8.1175150600000006  8.4409976600000007 18.3362013600000004
  6.5573243300000001 10.0593272900000006 -0.0005619500000000
  4.7718190500000004 11.6504935599999992  1.9188891600000000
  3.2541367499999998 13.2675247200000008  3.0464962099999999
  1.4280778700000001 15.0509454199999997  4.8680250300000001
  0.2205878700000000 17.6305318299999989  6.7684030699999997
 18.1925629600000001 18.8901278400000017  8.5279473100000001
 16.5852144199999998 -0.0496930200000000 10.2013950599999994
 15.1088207800000003  1.7269651600000000 11.8102726300000000
 13.2703523699999995  3.4555372100000001 14.0379230499999998
 13.2491167700000005  3.4724589500000000 17.0330691600000002
 11.8088985700000002  6.0703638700000004 18.5808692600000001
  9.8916152099999994  7.4470461200000004 -0.0796301700000000
  8.0974387900000000  8.6098161300000005  1.9453571100000000
  6.5464129199999999 10.1533889700000000  3.7209126499999998
  4.8330554699999997 11.7365773799999999  4.9933769699999999
  3.4094603999999999 13.6294417499999998  6.7852928400000003
  1.5757718100000000 15.2289845800000005  8.6079917899999998
 -0.2602786000000000 17.6634365500000001  9.9069815299999995
 18.4126142100000010 18.2052548799999983 12.5226940199999994
 16.5486466499999985 20.1581549100000004 13.3459134400000003
 14.7208964600000005  1.3380354999999999 15.4833447300000007
 14.8161929200000007  1.7847668800000001 18.4852132900000008
 13.2257213100000008  3.4164263400000001 -0.3307826700000000
 11.7415120500000008  6.0866037000000004  1.0659460700000001
  9.8717323399999994  7.0340612599999996  3.2948858599999999
  7.8902764599999999  8.6407632000000003  4.5901176499999998
  6.4321355899999997  9.6496931900000007  6.8242725699999998
  5.0323871200000001 11.8060417599999994  7.8685033100000004
  3.3781932900000000 13.5661715600000008  9.8441279799999997
  1.8627462299999999 15.5814536500000003 11.3064381600000008
  0.0402514300000000 16.6045002199999985 13.5206183400000004
 18.6754179399999991 18.6342387800000004 15.0902855599999999
 16.8930006699999993 20.2592889499999984 16.8494388599999994
 16.2055813200000003 -0.3347869800000000 -0.6309327600000000
 14.9407957200000006  2.2449653500000002  1.6927913999999999
 13.2892073499999999  3.8399306400000000  3.4654703300000000
 11.9910284199999992  5.3584574500000004  5.2014282999999999
  9.8755281900000007  6.9381839200000002  7.0061931599999996
  8.2096464499999993  8.2283279599999997  8.3126360699999999
  6.7984575700000001 10.4649699700000003 10.1937700299999996
  4.7062356999999997 12.1975311699999995 11.8742190999999995
  3.1326929099999998 13.9807296000000001 13.1500819900000003
  1.4405400799999999 14.7542429800000008 15.1998643599999994
  0.3032695000000000 17.1379225400000017 16.7218515500000002
 18.7844397100000009 18.6558881700000008 18.5177817199999986
