Li                                      
   1.00000000000000     
    20.0207999999999977    0.0000000000000000    0.0000000000000000
     0.0000000000000000   20.0207999999999977    0.0000000000000000
     0.0000000000000000    0.0000000000000000   20.0207999999999977
   Li
   432
Direct
  0.9613691326020941  0.0291147381723036  0.0276125624350669
  0.8693598442619646  0.1052091374970061  0.0881741578758124
  0.7777629495324874  0.1762538989450988  0.1739852048869182
  0.7351089531886856  0.2963843103172721  0.2371989161272268
  0.6651275488491990  0.3674074042995272  0.3491066306041688
  0.5828952444457798  0.4248352758131517  0.4392512347158970
  0.4980719117118184  0.5159353082793885  0.5366249350675290
  0.3862343492767550  0.5825608502157777  0.5882853777071873
  0.3299339641772576  0.6587792031287449  0.6797130584192459
  0.2527125914049364  0.7422931461280271  0.7400173819227973
  0.1687512062455028  0.8302610075521457  0.8658434098537526
  0.0558405368416857  0.9151778815032401  0.9470284039598837
  0.0797901122832272  0.9315989001438538  0.1015342643650570
  0.9663806691041330  0.0316911596939207  0.1639232917765554
  0.8837325256733024  0.0887344361863640  0.2380754814992443
  0.8363409763845624  0.1750271937185346  0.3589842713577909
  0.7677939657755957  0.2501097698393693  0.4148442280028775
  0.7009044503716169  0.3577352967913399  0.5125271922200909
  0.5883697719371881  0.4182484750859103  0.5924086629904934
  0.5169584676935983  0.5091956675057929  0.6449724007032671
  0.4329837943538735  0.5617931451290659  0.7563315581794967
  0.3242445067130220  0.6702733162510981  0.8325009015623763
  0.2572570966195187  0.7559585021577533  0.9313393565691683
  0.1608640349037032  0.8195365974386633  0.9883497237872589
  0.1567217483816847  0.8362555996763348  0.1805043854391428
  0.0764381213537888  0.9214460051546425  0.2357251698233824
  0.9977711180372424  0.0206161856669098  0.2972245704467369
  0.9352019239990383  0.0979646143011266  0.4233631443298975
  0.8623236534004661  0.1560929463358107  0.4887572529569226
  0.7726259350275697  0.2561665867497780  0.5822757417286013
  0.6622054173659393  0.3292549948054031  0.6661500119875328
  0.5935229791017349  0.4088474101933954  0.7284962024494561
  0.5177641637696766  0.4973834447174923  0.8254998281786925
  0.4034782900783185  0.5972241658674946  0.9144749395628580
  0.3357390598777243  0.6498374710301320  0.0044977723167889
  0.2433356244505731  0.7613262122392683  0.0763327379525265
  0.2270467453847971  0.7549928104771055  0.2510679073763313
  0.1644294044194012  0.8482375519459779  0.3444344212019530
  0.0592419154079735  0.9276432085630972  0.4079482478222616
  0.0029379695117058  0.0173233502157757  0.4976640403979857
  0.9324224276752204  0.0881856384360233  0.5808093677575314
  0.8541194367857443  0.1546936491049280  0.6615672490609796
  0.7621360689882550  0.2400003870974174  0.7546059158475202
  0.6807615909454157  0.3618955606169578  0.7873987183329305
  0.5968971075081910  0.4164440816550794  0.8793463587868615
  0.4913031447294784  0.5010824322704366  0.9924329886917604
  0.4363427580316497  0.5688828123751293  0.0678716874450558
  0.3282854676136822  0.6690280663110357  0.1891940466914406
  0.3175483267401873  0.6649637327179718  0.3307126098857154
  0.2370084047590524  0.7280812814672757  0.3957096164988414
  0.1490147112003513  0.8412495309877741  0.4786166342004350
  0.0532107787900600  0.9413324672340764  0.6018377107807851
  0.9893780148645419  0.0018213128346503  0.6822346539598811
  0.9241443528730144  0.0722200016982342  0.7852185387197324
  0.8177363072404731  0.1779781816910386  0.8271064627787084
  0.7217071006153617  0.2699135059538094  0.8902517411891608
  0.6700691465875508  0.3546800996963171  0.9678688339127319
  0.5772442824462587  0.4218283969671575  0.0653993232038701
  0.5097252397506580  0.5160308728921947  0.1729623586470055
  0.4292419523695372  0.5852247522576519  0.2537021352793118
  0.4248283150523449  0.5598198148925135  0.4203829052785082
  0.3202473572484621  0.6628745639534870  0.5111557540158245
  0.2348158679972840  0.7511134759849725  0.5712095061136395
  0.1582442314992392  0.8331474866139246  0.6801963373091979
  0.0757436426116840  0.9138311436106434  0.7587029404419425
  0.9794887801686230  0.0115124905098725  0.8579090176216724
  0.8832002872013121  0.0994730829936898  0.9354819133101557
  0.7913123146927177  0.2067600620354852  0.9749479141692632
  0.7225581914808572  0.2480802800087929  0.0768689148285802
  0.6512689393031224  0.3633443214057408  0.1641653075801202
  0.5652544184048622  0.4107581884839746  0.2568866458882795
  0.5265640953408450  0.5090109900703297  0.3500694577639223
  0.0823582634060571  0.0968830141652717  0.9459681930791959
  0.9787004445376795  0.1440734785822713  0.9965982578118755
  0.9006701765164209  0.2576603802045838  0.0653355220570617
  0.8401280578198680  0.3551071495644536  0.1634201430512263
  0.7569935297290797  0.4502904774034988  0.2492505504275542
  0.6562981444297904  0.5209172410692844  0.3426056940781592
  0.6009500834132524  0.6019471040118276  0.4349100515463888
  0.5023359556061706  0.6478512047470630  0.5313923854191671
  0.3881296127027909  0.7531668369895286  0.5661431036721822
  0.3313854236593912  0.8556913644809399  0.6519362967513800
  0.2530863916526798  0.9272403889954433  0.7692910338248211
  0.1566899549468559  0.9766807340365986  0.8734348332733930
  0.1659379839966419  0.9816635074522466  0.0063729516303042
  0.0959427330576190  0.0854324397626485  0.0912366259090547
  0.9806779519299909  0.1571462663829593  0.1618271732398284
  0.9018524664349101  0.2403772931151593  0.2385569307919795
  0.8408341769559655  0.3579151926995934  0.3296584791816528
  0.7804551281667074  0.4238869320906247  0.4241239585830741
  0.6818733067609699  0.5070902106808930  0.5162816121233931
  0.6247802510389207  0.6132714307120608  0.6172064233197503
  0.4768777226684264  0.6836818853392472  0.6635349446575560
  0.4028116164189228  0.7494548849196860  0.7356480425357645
  0.3394191321026128  0.8310093567689592  0.8385314592823434
  0.2668822459641973  0.8961375089906483  0.9412152281627115
  0.2498283415248110  0.8882415832534178  0.1109620289898530
  0.1850921946175959  0.0071273980060766  0.1911520223967074
  0.0966875324662340  0.1178560472108998  0.2420149324702336
  0.9820487537960503  0.1782609970630560  0.3205954727083835
  0.9533519629585214  0.2550103846999150  0.4122018435826718
  0.8512370709462189  0.3222468362902617  0.5149334402221655
  0.7838189457963693  0.4050496373771253  0.6031993451810109
  0.6887746248901152  0.4928357223487581  0.6771000099896085
  0.5694192319987224  0.6143180577199701  0.7261440971389774
  0.4863379655158653  0.6681096324822207  0.8227857263445983
  0.4032932595101073  0.7427843837409114  0.9077148905138657
  0.3545432270438766  0.8263613966474850  0.0286229661152433
  0.3537026922001090  0.8108511557979696  0.1598049029009800
  0.2598885933629020  0.9096132637057437  0.2531959696915180
  0.1626788554902916  0.9724296386757771  0.3438984695916218
  0.0693542745544633  0.0896437849636413  0.4025927120794393
  0.0146952554343471  0.1780214936466109  0.5030274154878924
  0.9335997287820703  0.2626413405058727  0.5943272346759372
  0.8314539423999037  0.3115422220890309  0.6912575286701852
  0.7657552370534617  0.4161663879565225  0.7490378386478085
  0.6667952829057811  0.5293189018420819  0.8190369610604975
  0.5785566870454701  0.5726032840845505  0.9108327449452602
  0.5107175267721544  0.6707552969911319  0.9999081769959233
  0.4327264619795415  0.7228642721569543  0.1002485380204590
  0.4096732737952564  0.7577931271477638  0.2835346284863718
  0.3265047135978563  0.8252832464237230  0.3519538784663965
  0.2375134969631603  0.9443358711939567  0.4279648085990573
  0.1329032676016908  0.9847616713617811  0.5290290877487394
  0.0583233032646078  0.0750226884040615  0.6043711190362018
  0.0091930851913986  0.1554059153480409  0.6803390603772073
  0.8958496109046621  0.2478501433509166  0.7700280777990898
  0.8202874290737654  0.3365259175457496  0.8464086210341222
  0.7189851839087353  0.4369041137217309  0.9038221184967625
  0.6718685581994706  0.5087761143410887  0.9943378811036538
  0.6066437809677936  0.5906069457763934  0.0905630699072972
  0.5058505689083361  0.6607920068129118  0.1750027456445267
  0.4900366453887983  0.6774246993127164  0.3314144090146272
  0.4269925612363110  0.7326031452289641  0.4548840710660897
  0.2950131243506746  0.8531096529609172  0.4852704332494184
  0.2183689672740385  0.9325686795732437  0.5888258421241943
  0.1585572454647135  0.9796664858547146  0.6823953902940971
  0.0819667790497860  0.0678771058099557  0.7735783650003967
  0.0024011338208254  0.1483123901142847  0.8515855769999234
  0.8986783200471535  0.2516967024294701  0.9075987977503388
  0.8135417026292657  0.3140398645408808  0.9955636697834223
  0.7696963183289398  0.4349903020858292  0.0759859830776008
  0.6437884285343216  0.4895828783065639  0.1686113666786540
  0.6014850895069159  0.6014161147406725  0.2509453793055201
  0.1588082464237175  0.1377079866938402  0.8470752242667601
  0.0521759085550997  0.2260046171981145  0.9485114246183954
  0.9860424893111173  0.3082320561615930  0.0145336544993242
  0.9067725550427568  0.4261583727922940  0.0686961535003618
  0.8503509784823819  0.5184101069887319  0.1793076565372047
  0.7622155967793489  0.5950934652960953  0.2350878506353382
  0.6651234715895455  0.6941550402581314  0.3434177015903472
  0.5937537700791182  0.7475094212019471  0.4297072894190066
  0.4921083782865807  0.8376671296851299  0.5184391922400735
  0.4109103177695204  0.9006376248701358  0.5661282331375403
  0.3364239271158027  0.9931918389874568  0.6735577594301958
  0.2547293160113497  0.0651222758331329  0.7680672205905879
  0.2398885119475764  0.0358521972148935  0.9090564408015638
  0.1858016777551370  0.1386889934468130  0.9976373676376582
  0.0804001873052016  0.2207960730839957  0.0884042440861492
  0.9923207489211237  0.3396880659114530  0.1497880269519669
  0.9108322924158898  0.4472051691241106  0.2478364131303437
  0.8291984371253918  0.5035397976104861  0.3427632437265231
  0.7550683329337460  0.5943545497682408  0.4275529149684303
  0.6923228622232855  0.6780206789938461  0.5079731304443413
  0.5959410178414473  0.7512197839247179  0.5701521442699615
  0.4918911891632689  0.8063620774394664  0.6572120594581605
  0.4291024709302320  0.9150460061536023  0.7499502547350758
  0.3553473282785902  0.9786037296211916  0.8169246798329723
  0.3617321485654941  0.9769956844881307  0.0143672210900689
  0.2737293669583636  0.0496587019499728  0.0828274344681503
  0.2040185871693438  0.1524306551186783  0.1418133331335412
  0.0901965226164805  0.2540798589466959  0.2323772776312651
  0.0080374205825962  0.3287885254335521  0.3081927305602150
  0.9346605065731666  0.4216942075241761  0.4127579717094250
  0.8762040343043225  0.5209600425557426  0.4946780897866248
  0.7699226684248401  0.5982755054743052  0.5872778080795982
  0.6925183698953106  0.6937501123831211  0.6705378606249468
  0.5875215351034910  0.7329286082474198  0.7422490025373634
  0.5104648805242533  0.8223397811276243  0.8008121543594697
  0.4481196215935412  0.9116130449332687  0.9208328758091611
  0.4352248086989547  0.9275928524334702  0.1100221709422229
  0.3494715420962180  0.0089299118916344  0.2000098742308012
  0.2548419024214823  0.0856864181251495  0.2614110779788987
  0.1700184802805111  0.1614187220290901  0.3271825271717432
  0.1067492073243841  0.2388759000639311  0.4052196875249763
  0.0214606733996661  0.3383840051346567  0.4935964516902445
  0.9306276627307568  0.4173634330296494  0.6124505254535251
  0.8390178589267165  0.5149436131423286  0.6702394070167017
  0.7617563224246808  0.6127808873771272  0.7255200206784949
  0.6630604456365390  0.6782438998441620  0.8247658390274140
  0.5581898200871080  0.7226850210780782  0.9128246203947867
  0.4884766293055236  0.8195649574442569  0.0172241863461977
  0.4876719321905227  0.8402876133820811  0.1804427120794401
  0.4463130519259977  0.9094399794213999  0.2646081445296886
  0.3612088013465993  0.9968011133421228  0.3438645129065776
  0.2306714906497263  0.0865724186845682  0.4154157571126049
  0.1463743721529625  0.1714374995005201  0.5016097988092412
  0.0931060292296024  0.2572067080236522  0.6020729905897895
  0.9942080026772189  0.3385572379725090  0.6760893480780013
  0.9155667890394028  0.4226501927994875  0.7569031642092199
  0.8488071835291322  0.5100938588867550  0.8237862208303355
  0.7565633481179574  0.5932753046831323  0.8896307839846571
  0.6715113576880043  0.6502890124270735  0.9813881083672982
  0.5845590046351816  0.7341243536721791  0.0947358741908388
  0.5669649824182841  0.7528889549868154  0.2511938199272734
  0.4858267197114969  0.8310267277031897  0.3569064667745536
  0.4018829277551319  0.9041635444138123  0.4151319537680820
  0.3268630504275549  0.0081412680811965  0.5142019534683939
  0.1955066855470307  0.0837033015663735  0.5954806686046510
  0.1500284449172895  0.1367665083313341  0.6734579397426685
  0.0791930961799707  0.2247090251138815  0.7744655857907787
  0.0008044838368093  0.3246450990969407  0.8465308509150518
  0.9012061036521999  0.4302184812794678  0.9341947919164042
  0.8270006538200292  0.5296410463118377  0.9755931676056875
  0.7529884689922497  0.5858644020218975  0.0949100875089925
  0.6638823448613422  0.6587301361583968  0.1917411232318358
  0.2292980445336852  0.2404210910652935  0.7437751278670177
  0.1700786147406674  0.3411365799568458  0.8740817135179384
  0.0781604611204330  0.3873380274514489  0.9548865759609981
  0.0054864690721672  0.4999100475505500  0.0070477378526306
  0.9151645328857967  0.5991360944617625  0.0559766083273416
  0.8145816151202752  0.6944466594741456  0.1559918724526526
  0.7194650253736086  0.7442245190002410  0.2620591589746653
  0.6605234151482478  0.8293573438623838  0.3480716399944086
  0.5796780857907748  0.8927167041277073  0.4160050097898207
  0.4998849051985914  0.9772077154759060  0.4738386842683582
  0.4231749080955822  0.0769463158315347  0.5936462558938729
  0.3330272231878837  0.1621215071325821  0.6827370309877736
  0.3270366793534691  0.1276807615080315  0.8300353212658820
  0.2621891937385143  0.2268957619076133  0.8799275343642634
  0.1908801366578743  0.3030891447894177  0.9978666037321204
  0.0833207933748881  0.4041892976304666  0.0780284314313135
  0.0051545857308426  0.4948976269679548  0.1439966135219350
  0.9056853302565315  0.5812775992967332  0.2380311735794791
  0.8205265209182429  0.6738264345081149  0.3192721414728652
  0.7677863427035874  0.7467709017621686  0.4228873961080453
  0.6603279524294763  0.8428564782626040  0.4851947709382216
  0.5727669848357735  0.9130905887876608  0.5682468377886991
  0.4914292216095291  0.0109396053104760  0.6452525408575056
  0.4475247362742749  0.0811654804003865  0.7497360245344851
  0.4219973197874225  0.0811129560257342  0.9100626733197501
  0.3249348647406691  0.1479414014425018  0.9901133056621134
  0.2728543404858925  0.2366805811955572  0.0710346329817000
  0.1771100485495083  0.2897594921281836  0.1297608022656433
  0.1026960585990579  0.4078523765284103  0.2133746723407626
  0.0059200646327824  0.5031415767601715  0.3009380589187245
  0.9375865185207388  0.6075490594781456  0.3986611623911145
  0.8666453153720113  0.6776205146647456  0.4981295357827875
  0.7587882307400307  0.7713263925517495  0.5516277331575168
  0.6676283290378038  0.8228568648605474  0.6579603302565360
  0.5751312984496124  0.9301309937664826  0.7361261193358928
  0.5238495679493340  0.0163126023935121  0.8392671376768135
  0.5214696285862672  0.9873438114361051  0.0049624140893485
  0.4166309982618088  0.0825009634979637  0.0939874685327240
  0.3491198173899122  0.1466561585950643  0.1589319612602864
  0.2640687684807830  0.2232676266682674  0.2271658025653309
  0.2144038854591201  0.3409662101414526  0.3251165318069198
  0.0850760893670568  0.4304993786462106  0.3806134759849726
  0.0015472703388468  0.5057331710021558  0.4727915982378335
  0.9490995599576451  0.6128501373571495  0.5854351224726315
  0.8429197689403054  0.7192102463437990  0.6526929063773679
  0.7675202354551303  0.7348933683968681  0.7567597788300162
  0.6694713448014085  0.8264435037560958  0.8434817644649542
  0.5761632472228868  0.8781379735075490  0.8993476434508096
  0.5683562974506486  0.8998591979341484  0.0858321081075673
  0.5110759450171827  0.0116900793175105  0.1694541017341962
  0.4409967758531153  0.0939895658515155  0.2768891567769529
  0.3288671891233150  0.1862270074122918  0.3348256043714528
  0.2291396772356720  0.2561912550946985  0.4119126383561067
  0.1621523705346419  0.3295768580676111  0.4723051611324252
  0.0741268021257895  0.4158556086669876  0.5770992298010071
  0.0020827249660371  0.5095972343762512  0.6862879005833946
  0.9406676196755370  0.6155963907536162  0.7418057325381611
  0.8648953343522763  0.6612253351514426  0.8396432000719258
  0.7493892836450087  0.7653777521377805  0.9097555896867249
  0.6487730205586217  0.8154842783505174  0.0012838957484220
  0.6654743721529641  0.8294869665547822  0.1866756718013249
  0.5725943074202817  0.8927282681011732  0.2718230100695251
  0.4899387402101780  0.9837589766642694  0.3458712563933517
  0.4102452679213613  0.1081627802085805  0.4296570676496430
  0.3193706520218953  0.1588271737393114  0.5142383740909438
  0.2396314268161106  0.2460623916127247  0.6201648995045161
  0.1497983686965583  0.3410113237233290  0.6718924783225475
  0.0581463817629668  0.4228316605730029  0.7927357458243449
  0.0006242003316572  0.5038259235395159  0.8641039214217230
  0.9373300442539758  0.5832604441380980  0.9274948908135556
  0.8385737897586480  0.6582324737273240  0.9953703733117578
  0.7319601759170453  0.7284916047310830  0.0682522376728230
  0.3100784564053356  0.3417526707224496  0.6670632122592508
  0.2362789978422413  0.4325887976504461  0.7466884235395170
  0.1574427810077523  0.4955803204667149  0.8506747592503814
  0.0896215246144010  0.5792782845840350  0.9306071026132798
  0.0047935042555736  0.6654123166906416  0.9915141163190313
  0.9107868172101021  0.7587354636178389  0.0602932724966010
  0.8017736389155274  0.8236790727643282  0.1632661157396313
  0.7298352848038050  0.8981699747262866  0.2577684717893405
  0.6601313903540316  0.9935533654998778  0.3315732947734347
  0.5780512626868060  0.0886041087269263  0.4353804643171131
  0.4943491528810071  0.1726157436266291  0.4965859461160420
  0.4097117088228259  0.2496430092703577  0.6052363087389097
  0.3911795222968095  0.2217913010469132  0.7767618561695855
  0.3277156637097391  0.3202765938424008  0.8128715246144012
  0.2564819218013241  0.4036675322664394  0.9186211280268495
  0.1700993891353022  0.4683922895189028  0.9723392871413736
  0.1128835725845150  0.5716416946375773  0.0516162031487255
  0.0172605954806997  0.6633672735355205  0.1551680417365944
  0.9101160223367728  0.7384260778790050  0.2381972024094949
  0.8272427145768404  0.8277987418085218  0.3399711465076294
  0.7534066955366399  0.9253818144130079  0.4227274499520490
  0.6634146732398278  0.0105250039958449  0.4938008670982157
  0.5771825576400573  0.1059638166307053  0.5889602138775700
  0.4942771157995693  0.1508962289219227  0.6494215371014178
  0.5132714631782918  0.1609395114081380  0.8297505009789816
  0.4231412156357379  0.2068226309637993  0.8770994800407550
  0.3437357787900552  0.2938013001478481  0.9635138196275861
  0.2777698198873182  0.3862535657915771  0.0651469371853253
  0.1929596449692355  0.4890010049548437  0.1482959502117822
  0.0919119006233515  0.5696261747782287  0.2244142491808532
  0.0141426776152827  0.6703755808958718  0.3073217428873960
  0.9369745070127067  0.7627214946455680  0.3936864930472339
  0.8426151537401125  0.8571451710221396  0.4833960456125652
  0.7600000599376671  0.9061084721889259  0.5745248491568802
  0.6649046097059070  0.9972494136098433  0.6334446001158796
  0.6258571715415968  0.0625079617198097  0.7387678873971097
  0.5895249115919441  0.0613300232757936  0.9092814727683205
  0.4989242692599731  0.1640336420123063  0.0208826020938204
  0.4319403770079120  0.2597167830456328  0.0745240439942449
  0.3346207684008604  0.3260318438823617  0.1571994101134848
  0.2713485974586405  0.4001194812395141  0.2244292281027711
  0.1698167261048482  0.4819285553024883  0.3077571970151070
  0.0764922091025326  0.5847020273915149  0.4043087444058173
  0.0046445451730222  0.6841349821186000  0.4611670892272031
  0.9396147766323040  0.7474846769359900  0.5552000339646739
  0.8491828912930544  0.8290617682610062  0.6676652321585550
  0.7647602143770484  0.9027822829257559  0.7501327049868109
  0.6982877532366345  0.9777499560457130  0.8281116294054200
  0.6513410373211883  0.9818172086030543  0.9871264035403158
  0.6052237168344945  0.0881944083153527  0.0865354331495212
  0.5141455556221501  0.1704519165068348  0.1904071325821164
  0.4108081320426749  0.2365766168185104  0.2551252522376757
  0.3270436875649310  0.3533118891352984  0.3245855934827802
  0.2438349756253473  0.4361784683928747  0.4196529419403845
  0.1596109650962987  0.5069901467473841  0.5152158799848152
  0.0773280598177877  0.5747684058579097  0.5641220440741606
  0.0033927320586571  0.6738413844601610  0.6617078723127960
  0.9145975035962621  0.7621939457963691  0.7389354361464058
  0.8651757217493810  0.8441958618037262  0.8372488526932003
  0.7186896048109972  0.8979577494405788  0.9252824902101793
  0.6977742143171071  0.8985100155837955  0.0829239575841143
  0.6547754505314458  0.9708906402341597  0.1864042560736863
  0.5778911911611928  0.0862246248901144  0.2818732847838277
  0.5197021712419101  0.2053373291776524  0.3595129165667714
  0.3960697025093936  0.2622122457644025  0.4424661871653512
  0.3261549038999476  0.3356883096579537  0.4984107653040866
  0.2233535558019639  0.4157637067449826  0.5797264854551258
  0.1480946126028897  0.5063386632901796  0.6890166456884828
  0.0905209462159320  0.5715086709821762  0.7702436396147974
  0.0250734111523983  0.6875691021337786  0.8537652161751765
  0.9399092418884365  0.7562172220890275  0.9234879525293707
  0.8175463802645240  0.8276037186326235  0.0082560806760981
  0.4090633096579523  0.3880672595500698  0.5868061421122022
  0.3363097378726110  0.4864885469112110  0.6648965385998551
  0.2448789419004243  0.5702838363102387  0.7516891253096816
  0.1788539119315899  0.6557592383920721  0.8445511752777080
  0.1011133511148401  0.7546455416366982  0.9241896093063247
  0.9998916391952335  0.8330496144010198  0.0021102673219886
  0.8778450546431742  0.9123081115639735  0.0943567110205379
  0.7839451125829129  0.9931484096539620  0.1608736179373480
  0.7330314168264991  0.0935067779509282  0.2578840665707673
  0.6547083842803474  0.1793975310676927  0.3492379305522277
  0.5987090665707697  0.2723340116279047  0.4326108182490245
  0.5125738521937180  0.3277899109925713  0.5179777146767393
  0.4934494171062127  0.3009664963438041  0.6791076520418784
  0.4159560127467401  0.4155373611444091  0.7372074382642069
  0.3496998411651902  0.4945683604051823  0.8258431136617901
  0.2444121873251817  0.5894318064213238  0.9091933743906324
  0.1755788569887287  0.6696219251977951  0.9928985235355228
  0.0884405728042807  0.7501664813593862  0.0757457693998234
  0.9952234790817585  0.8413358567090228  0.1544817934348259
  0.8881676771158027  0.9110740150243757  0.2511608577079869
  0.8333457843842424  0.9949828098777260  0.3279396787341184
  0.7595767971309826  0.0854642421881238  0.4157877906976779
  0.6718714087349156  0.1719661527011880  0.5059149439582811
  0.6151493072204914  0.2521616818508718  0.5778309967633675
  0.5859746538599850  0.2626995204986784  0.7562952704187680
  0.4979223322744346  0.3420425707264414  0.8257429088747728
  0.4506422230879892  0.3978329167665606  0.9030004245584564
  0.3477560292296005  0.4967914099336710  0.9825420817349979
  0.2536054413410085  0.5714478622232875  0.0669690491888417
  0.1578050417565748  0.6561166821505608  0.1623128636218354
  0.0791195821345809  0.7777966320027190  0.2318467833453184
  0.0058812649844171  0.8356459791816491  0.3050602803084814
  0.9427847673419620  0.9215565951410554  0.3977683124550495
  0.8307539923479581  0.0208347428674145  0.5045810002597335
  0.7594795602573328  0.0800653745105109  0.5640914968432824
  0.6792978232638092  0.1668482348357685  0.6639157226484471
  0.6606249535483073  0.1779665053344530  0.8380785917645639
  0.5807528610245356  0.2777104286542027  0.8931617188124363
  0.4995517811476091  0.3107849681331416  0.9676438449013034
  0.4153317684608027  0.4049259679932860  0.0703771797330788
  0.3498191915407958  0.4976814492927346  0.1607125604371475
  0.2367134550067931  0.5942476704227602  0.2602471015144232
  0.1534512551945966  0.6520518295972195  0.3239276742188153
  0.0848784429193614  0.7441630014784621  0.3914269504715122
  0.0160398680372396  0.8308162790697651  0.4748123396667481
  0.9365019769439797  0.9360481978742143  0.5824038629824955
  0.8366482098617425  0.0088416481858857  0.6460396972148956
  0.7680128261607919  0.0790212019499705  0.7487178189682737
  0.7200265663709757  0.0834970051146797  0.9240218367897413
  0.6460298909134536  0.2022770398785241  0.9928763406057683
  0.5886740544833344  0.2483679997802284  0.0998923065012391
  0.4946631668065180  0.3474634689922453  0.1620709267361917
  0.4282223317749541  0.4190834761847668  0.2503620160033577
  0.3341510868696531  0.4980702019899326  0.2926328268600642
  0.2332660238352133  0.5588090670702499  0.4293036641892414
  0.1463836320226974  0.6920026762167382  0.4948066380963780
  0.0818312060457131  0.7653346329816983  0.5695286746783381
  0.0023597718372912  0.8274986004555274  0.6616038699752238
  0.9135369800407602  0.9201652106808922  0.7459101634300325
  0.8240072254854951  0.9875619570646563  0.8393526027930989
  0.8021068239031379  0.0002148470590555  0.9866300207783922
  0.6888497602493402  0.0793350860105519  0.0661612722768297
  0.6502677075841135  0.1589916297051062  0.1851427959921708
  0.5832555831934769  0.2732075671301857  0.2656934243386857
  0.4721649614401002  0.3356565466914390  0.3518345590585810
  0.4035158110565007  0.4307940182210501  0.4175144529689092
  0.3402082099616379  0.4923854860944630  0.5081496358786879
  0.2478317324981987  0.5846389614800600  0.5806596434707885
  0.1475579672140981  0.6782810202389484  0.6570143390873469
  0.0788174933069641  0.7503794768440812  0.7455592378925928
  0.0166984371253918  0.8293387017501814  0.8258822974106934
  0.9076124795212976  0.9021091979341520  0.9256646322824267
 
  0.00000000E+00  0.00000000E+00  0.00000000E+00
  0.00000000E+00  0.00000000E+00  0.00000000E+00
  0.00000000E+00  0.00000000E+00  0.00000000E+00
  0.00000000E+00  0.00000000E+00  0.00000000E+00
  0.00000000E+00  0.00000000E+00  0.00000000E+00
  0.00000000E+00  0.00000000E+00  0.00000000E+00
  0.00000000E+00  0.00000000E+00  0.00000000E+00
  0.00000000E+00  0.00000000E+00  0.00000000E+00
  0.00000000E+00  0.00000000E+00  0.00000000E+00
  0.00000000E+00  0.00000000E+00  0.00000000E+00
  0.00000000E+00  0.00000000E+00  0.00000000E+00
  0.00000000E+00  0.00000000E+00  0.00000000E+00
  0.00000000E+00  0.00000000E+00  0.00000000E+00
  0.00000000E+00  0.00000000E+00  0.00000000E+00
  0.00000000E+00  0.00000000E+00  0.00000000E+00
  0.00000000E+00  0.00000000E+00  0.00000000E+00
  0.00000000E+00  0.00000000E+00  0.00000000E+00
  0.00000000E+00  0.00000000E+00  0.00000000E+00
  0.00000000E+00  0.00000000E+00  0.00000000E+00
  0.00000000E+00  0.00000000E+00  0.00000000E+00
  0.00000000E+00  0.00000000E+00  0.00000000E+00
  0.00000000E+00  0.00000000E+00  0.00000000E+00
  0.00000000E+00  0.00000000E+00  0.00000000E+00
  0.00000000E+00  0.00000000E+00  0.00000000E+00
  0.00000000E+00  0.00000000E+00  0.00000000E+00
  0.00000000E+00  0.00000000E+00  0.00000000E+00
  0.00000000E+00  0.00000000E+00  0.00000000E+00
  0.00000000E+00  0.00000000E+00  0.00000000E+00
  0.00000000E+00  0.00000000E+00  0.00000000E+00
  0.00000000E+00  0.00000000E+00  0.00000000E+00
  0.00000000E+00  0.00000000E+00  0.00000000E+00
  0.00000000E+00  0.00000000E+00  0.00000000E+00
  0.00000000E+00  0.00000000E+00  0.00000000E+00
  0.00000000E+00  0.00000000E+00  0.00000000E+00
  0.00000000E+00  0.00000000E+00  0.00000000E+00
  0.00000000E+00  0.00000000E+00  0.00000000E+00
  0.00000000E+00  0.00000000E+00  0.00000000E+00
  0.00000000E+00  0.00000000E+00  0.00000000E+00
  0.00000000E+00  0.00000000E+00  0.00000000E+00
  0.00000000E+00  0.00000000E+00  0.00000000E+00
  0.00000000E+00  0.00000000E+00  0.00000000E+00
  0.00000000E+00  0.00000000E+00  0.00000000E+00
  0.00000000E+00  0.00000000E+00  0.00000000E+00
  0.00000000E+00  0.00000000E+00  0.00000000E+00
  0.00000000E+00  0.00000000E+00  0.00000000E+00
  0.00000000E+00  0.00000000E+00  0.00000000E+00
  0.00000000E+00  0.00000000E+00  0.00000000E+00
  0.00000000E+00  0.00000000E+00  0.00000000E+00
  0.00000000E+00  0.00000000E+00  0.00000000E+00
  0.00000000E+00  0.00000000E+00  0.00000000E+00
  0.00000000E+00  0.00000000E+00  0.00000000E+00
  0.00000000E+00  0.00000000E+00  0.00000000E+00
  0.00000000E+00  0.00000000E+00  0.00000000E+00
  0.00000000E+00  0.00000000E+00  0.00000000E+00
  0.00000000E+00  0.00000000E+00  0.00000000E+00
  0.00000000E+00  0.00000000E+00  0.00000000E+00
  0.00000000E+00  0.00000000E+00  0.00000000E+00
  0.00000000E+00  0.00000000E+00  0.00000000E+00
  0.00000000E+00  0.00000000E+00  0.00000000E+00
  0.00000000E+00  0.00000000E+00  0.00000000E+00
  0.00000000E+00  0.00000000E+00  0.00000000E+00
  0.00000000E+00  0.00000000E+00  0.00000000E+00
  0.00000000E+00  0.00000000E+00  0.00000000E+00
  0.00000000E+00  0.00000000E+00  0.00000000E+00
  0.00000000E+00  0.00000000E+00  0.00000000E+00
  0.00000000E+00  0.00000000E+00  0.00000000E+00
  0.00000000E+00  0.00000000E+00  0.00000000E+00
  0.00000000E+00  0.00000000E+00  0.00000000E+00