Li 
 1.0000000000000000
    20.0207999999999977    0.0000000000000000    0.0000000000000000
     0.0000000000000000   20.0207999999999977    0.0000000000000000
     0.0000000000000000    0.0000000000000000   20.0207999999999977
 Li 
 432
Cartesian
 -0.7734208700000000  0.5829003500000000  0.5528255900000000
 17.4052795700000011  2.1063711000000001  1.7653171800000000
 15.5714364599999993  3.5287440600000002  3.4833229900000000
 14.7174693300000001  5.9338509999999998  4.7489120600000003
 13.3163856299999992  7.3557901599999997  6.9893940299999997
 11.6700291099999998  8.5055420900000005  8.7941611200000001
  9.9717981299999998 10.3294376200000002 10.7436605000000007
  7.7327206600000000 11.6633342700000000 11.7779438899999995
  6.6055419100000003 13.1892866699999995 13.6083991999999991
  5.0595082500000004 14.8613026200000000 14.8157399999999999
  3.3785341500000001 16.6224895799999999 17.3348777399999996
  1.1179722200000000 18.3225933300000001 18.9602662700000018
  1.5974618800000000 18.6513552599999990  2.0327972000000001
 -0.6730859000000000  0.6344823700000000  3.2818754399999999
 17.6930321500000005  1.7765344000000001  4.7664616000000004
 16.7442154199999997  3.5041844400000000  7.1871523000000002
 15.3718494299999993  5.0073976800000004  8.3055133199999993
 14.0326678200000003  7.1621468300000002 10.2612044099999995
 11.7796335299999999  8.3736690700000000 11.8604953599999998
 10.3499220899999997 10.1945046200000000 12.9128634400000006
  8.6686819499999999 11.2475482000000007 15.1423628600000004
  6.4916344199999996 13.4194080099999997 16.6673340500000009
  5.1504928799999998 15.1348939799999993 18.6461589900000000
  3.2206266700000001 16.4077783100000012 -0.2332478500000000
  3.1376947799999999 16.7425061100000008  3.6138422000000001
  1.5303523400000001 18.4480861800000007  4.7194064800000000
 -0.0446240000000000  0.4127525300000000  5.9506736800000004
 18.7234906800000012  1.9613299500000001  8.4760688399999999
 17.2644094000000017  3.1251056600000000  9.7853112099999997
 15.4685893199999995  5.1286600000000000 11.6576261700000003
 13.2578822200000008  6.5919483999999997 13.3368561600000000
 11.8828048600000002  8.1854522299999992 14.5850767700000006
 10.3660527699999996  9.9580144700000002 16.5271669599999989
  8.0779581500000006 11.9569055800000008 18.3085198700000014
  6.7217645700000004 13.0102660399999994 20.1108490000000018
  4.8717738700000002 15.2423598299999998  1.5282424800000001
  4.5456574800000000 15.1155600600000000  5.0265803599999996
  3.2920082200000000 16.9823943799999988  6.8958526600000001
  1.1860705400000000 18.5721591500000009  8.1674502800000006
  0.0588205000000000  0.3468273300000000  9.9636322199999992
 18.6678429399999999  1.7655470300000000 11.6282681900000000
 17.1001544199999991  3.0970906100000000 13.2451055800000006
 15.2585738099999997  4.8049997500000003 15.1078141200000005
 13.6293916599999996  7.2454386399999997 15.7643522600000008
 11.9503576099999993  8.3375436700000005 17.6052175800000015
  9.8362820000000006 10.0320711599999992 -0.1514976200000000
  8.7359310899999993 11.3894890100000001  1.3588454800000000
  6.5725376899999999 13.3944771100000004  3.7878161700000001
  6.3575715400000004 13.3131059000000000  6.6211310200000000
  4.7450978700000004 14.5767697199999997  7.9224230899999997
  2.9833937300000000 16.8424886100000002  9.5822879099999998
  1.0653223599999999 18.8462290599999989 12.0492724399999993
 -0.2126606400000000  0.0364641400000000 13.6588835599999996
 18.5021092600000010  1.4459022100000001 15.7207033200000001
 16.3717350599999989  3.5632655799999999 16.5593330700000010
 14.4491535199999994  5.4038843200000004 17.8235520600000008
 13.4153203699999999  7.1009793400000003 -0.6432916500000000
 11.5568923300000002  8.4453419699999994  1.3093467700000001
 10.2051070799999994 10.3313509000000003  3.4628447900000001
  8.5937672799999998 11.7166677200000002  5.0793197100000000
  8.5054027300000001 11.2080405499999998  8.4164020700000002
  6.4116082900000002 13.2712790700000003 10.2337471200000003
  4.7012015299999996 15.0378926800000006 11.4360712800000002
  3.1681761100000001 16.6802792000000011 13.6180748299999994
  1.5164483200000001 18.2956305599999993 15.1898398300000004
 -0.4106510300000000  0.2304892700000000 17.1760248599999983
 17.6823763099999987  1.9915307000000000 18.7290962900000011
 15.8427055899999996  4.1395018500000003 19.5192371999999992
 14.4661930400000003  4.9667656700000000  1.5389771699999999
 13.0389251799999997  7.2744439900000000  3.2867207899999999
 11.3168456600000003  8.2237075399999995  5.1430761599999997
 10.5422344399999997 10.1908072300000008  7.0086706000000003
  1.6488783199999999  1.9396754500000000 18.9390399999999985
 -0.4264341400000000  2.8844663000000001 -0.0681056000000000
 18.0321374699999986  5.1585669400000000  1.3080694200000000
 16.8200358200000011  7.1095292199999998  3.2718020000000001
 15.1556160599999998  9.0151755900000001  4.9901954200000000
 13.1396138899999997 10.4291798999999994  6.8592400800000002
 12.0315014300000005 12.0514625800000008  8.7072471599999997
 10.0571677000000008 12.9704993999999996 10.6389006699999999
  7.7706653499999998 15.0790026099999999 11.3346378500000000
  6.6346012900000000 17.1316256699999983 13.0522862100000001
  5.0669920299999998 18.5640943800000002 15.4018219300000005
  3.1370582499999999 -0.4668703600000000 17.4868641099999991
  3.3222111900000000 -0.3671112500000000  0.1275915900000000
  1.9208502700000001  1.7104257899999999  1.8266302400000001
 -0.3868428600000000  3.1461939700000001  3.2399094700000002
 18.0558078600000016  4.8125457100000002  4.7761006000000004
 16.8341728900000014  7.1657484900000004  6.6000264800000004
 15.6253360299999997  8.4865554900000006  8.4913009499999994
 13.6516491000000002 10.1523516899999997 10.3363709000000004
 12.5086004499999994 12.2781846600000009 12.3569663599999995
  9.5474735099999997 13.6878582899999994 13.2845004200000005
  8.0646108099999996 15.0046863599999991 14.7282623299999997
  6.7954425599999997 16.6374721299999990 16.7880706400000008
  5.3431960700000003 17.9413898399999994 18.8438818400000017
  5.0017632599999997 17.7833070900000010  2.2215485899999998
  3.7056938100000001  0.1426962100000000  3.8270164100000001
  1.9357617499999999  2.3595723500000001  4.8453325600000001
 -0.3593983100000000  3.5689277700000002  6.4185778400000002
 19.0868689799999984  5.1055119099999997  8.2526106699999993
 17.0424471500000010  6.4516394600000000 10.3093794200000008
 15.6926823500000001  8.1094177799999994 12.0765334499999994
 13.7898190100000004  9.8669654300000005 13.5560838799999992
 11.4002285600000004 12.2991389699999996 14.5379857399999999
  9.7368751400000004 13.3760893299999992 16.4728284699999996
  8.0742536900000008 14.8711375900000000 18.1731782799999984
  7.0982390400000002 16.5444162500000012 20.5938546799999997
  7.0814108600000001 16.2338888200000007  3.1994220000000002
  5.2031775500000004 18.2111852300000017  5.0691858700000001
  3.2569608300000001 -0.5519806900000001  6.8851224799999997
  1.3885280600000001  1.7947402900000000  8.0602281700000002
  0.2942107700000000  3.5641327199999999 10.0710112800000005
 18.6914134499999989  5.2582897500000003 11.8989066999999995
 16.6463730900000009  6.2373245199999996 13.8395287299999996
 15.3310324500000004  8.3319840200000002 14.9963367600000002
 13.3497749999999993 10.5973878700000004 16.3977751900000008
 11.5831677200000005 11.4639758300000008 18.2356002199999985
 10.2249734599999993 13.4290576500000007 20.0189616299999997
  8.6635299499999991 14.4723210200000008  2.0070559299999999
  8.2019866799999992 15.1716246399999992  5.6765900900000004
  6.5368855699999999 16.5228308199999994  7.0463982100000004
  4.7552102200000004 18.9063596099999991  8.5681978399999998
  2.6608297400000001 -0.3050835300000000 10.5915855600000004
  1.1676791900000001  1.5020142400000001 12.0999932999999995
  0.1840529200000000  3.1113507500000002 13.6209322600000000
 17.9356258900000007  4.9621581499999996 15.4165781400000004
 16.4228105599999985  6.7375180900000000 16.9457777199999988
 14.3946585700000007  8.7471698799999995 18.0952418699999988
 13.4513460299999998 10.1861048299999997 19.9074398499999994
 12.1454938099999996 11.8244235399999997  1.8131451100000000
 10.1275330700000001 13.2295846099999999  3.5036949700000002
  9.8109256699999996 13.5625844200000003  6.6351816000000001
  8.5487326699999997 14.6673010500000007  9.1071430099999997
  5.9063987600000001 17.0799377399999983  9.7155022899999999
  4.3719214199999996 18.6707710200000001 11.7887644199999997
  3.1744428999999998 -0.4070932200000000 13.6621016300000004
  1.6410404900000000  1.3589539600000000 15.4876577300000005
  0.0480726200000000  2.9693326999999998 17.0494245199999988
 17.9922589100000003  5.0391693399999999 18.1708540099999993
 16.2877557199999998  6.2873293200000004 19.9319811199999997
 15.4099360500000007  8.7088538399999997  1.5213001700000000
 12.8891593699999998  9.8018408899999994  3.3757344499999999
 12.0422126800000004 12.0408317500000006  5.0241272500000003
  3.1794681400000000  2.7570240600000000 16.9591236499999987
  1.0446034300000000  4.5247932400000002 18.9899575300000016
 -0.2794405300000000  6.1710523500000001  0.2909753900000000
 18.1543119699999984  8.5320315499999992  1.3753519500000000
 17.0247068699999993 10.3789850700000006  3.5898827299999998
 15.2601660199999998 11.9142472500000007  4.7066468400000003
 13.3163040000000006 13.8975392299999996  6.8754971200000004
 11.8874254799999992 14.9657366199999995  8.6030836999999991
  9.8524034199999999 16.7707660700000005 10.3795673799999992
  8.2267532899999996 18.0314857599999989 11.3343401299999993
  6.7354761600000002 19.8844951700000010 13.4851651900000000
  5.0998846899999997  1.3038000599999999 15.3773202100000006
  4.8027599199999997  0.7177896700000000 18.2000371899999998
  3.7198982300000001  2.7766646000000001 -0.0473017900000000
  1.6096760699999999  4.4205140199999997  1.7699236899999999
 -0.1537447500000000  6.8008268300000001  2.9988761300000002
 18.2355911599999985  8.9534052499999994  4.9618832599999996
 16.6012160699999995 10.0812695800000007  6.8623943499999998
 15.1170720799999998 11.8994535700000004  8.5599513999999992
 13.8608575599999995 13.5745164099999993 10.1700284500000002
 11.9312159300000005 15.0400210500000000 11.4149020500000002
  9.8480551199999997 16.1440138799999993 13.1579111999999991
  8.5909747500000009 18.3199530800000012 15.0146040599999999
  7.1143377900000004 19.5924295499999985 16.3554856300000004
  7.2421670000000002 -0.4605648000000000  0.2876432600000000
  5.4802809100000003  0.9942069400000000  1.6582714999999999
  4.0846153300000001  3.0517836599999999  2.8392163799999999
  1.8058065400000001  5.0868820399999999  4.6523789999999998
  0.1609155900000000  6.5826093099999996  6.1702650200000004
 18.7126510699999997  8.4426553900000005  8.2637447999999996
 17.5423057299999989 10.4300368199999998  9.9038511000000007
 15.4144677600000009 11.9779542400000008 11.7577715400000002
 13.8647717799999999 13.8894322500000005 13.4247043999999995
 11.7626511499999999 14.6738170799999992 14.8604188300000004
 10.2199152800000004 16.4639002900000015 16.0328999799999998
  8.9717133199999992 18.2512224500000002 18.4358108399999985
  8.7135488500000005 18.5711509799999988  2.2027318800000000
  6.9966998499999997  0.1787839800000000  4.0043576900000000
  5.1021387599999999  1.7155106400000000  5.2336589099999999
  3.4039059900000002  3.2317319499999999  6.5504559400000000
  2.1372045300000000  4.7824866200000002  8.1128223199999994
  0.4296598500000000  6.7747184899999997  9.8821958399999996
 18.6319103099999985  8.3559498199999993 12.2617494800000006
 16.7978087500000015 10.3095830900000003 13.4187291200000001
 15.2509709800000000 12.2683635899999999 14.5254912300000001
 13.2750005699999996 13.5789854699999992 16.5124719099999986
 11.1754067500000005 14.4687322700000003 18.2754791599999997
  9.7796929000000006 16.4083460999999993 20.3656419900000003
  9.7635822200000000 16.8232302500000017  3.6126074500000001
  8.9355443500000007 18.2077159399999999  5.2976667400000004
  7.2316891700000001 -0.0640442700000000  6.8844426399999996
  4.6182277799999998  1.7332490800000000  8.3169557899999997
  2.9305320300000002  3.4323158899999999 10.0426294600000006
  1.8640571900000000  5.1494840599999998 12.0539829300000001
 -0.1159604200000000  6.7781867499999997 13.5358496200000005
 18.3303795700000016  8.4617949800000005 15.1538068700000004
 16.9937988599999983 10.2124871299999995 16.4928591699999991
 15.1470034800000004 11.8778462200000003 17.8111199999999990
 13.4441945900000004 13.0193062600000005 19.6481750400000017
 11.7033389200000002 14.6977568600000001  1.8966879900000000
 11.3510925199999999 15.0734391900000002  5.0291012300000002
  9.7266395899999996 16.6378199100000010  7.1455529899999997
  8.0460177200000000 18.1020774899999992  8.3112738200000003
  6.5440597599999997  0.1629947000000000 10.2947344699999999
  3.9142002499999999  1.6758070599999999 11.9219993700000000
  3.0036894900000002  2.7381749100000001 13.4831667199999998
  1.5855091400000001  4.4988544499999996 15.5054206000000008
  0.0161064100000000  6.4996546000000004 16.9482248599999998
 18.0428671600000001  8.6133181699999994 18.7033270899999984
 16.5572146899999986 10.6038374599999994 19.5321556899999997
 15.0754315400000003 11.7294740199999996  1.9001758799999999
 13.2914556499999996 13.1883043099999995  3.8388106799999999
  4.5907302899999998  4.8134225800000001 14.8909730800000002
  3.4051099300000001  6.8298272400000002 17.4998151700000015
  1.5648349600000000  7.7548171799999999 19.1175931599999984
  0.1098435000000000 10.0085990799999998  0.1411013500000000
 18.3223260799999998 11.9951839200000006  1.1206964800000001
 16.3085756000000011 13.9033776800000002  3.1230820800000001
 14.4042653800000000 14.8999702500000009  5.2466340100000002
 13.2242071899999996 16.6043975099999983  6.9686726900000000
 11.6056190200000007 17.8729025899999989  8.3287531000000001
 10.0080957099999992 -0.4563197700000000  9.4866295300000001
  8.4723001999999994  1.5405268000000001 11.8852729600000000
  6.6674714300000000  3.2458022700000000 13.6689415499999996
  6.5475359500000003  2.5562709899999998 16.6179711599999997
  5.2492374100000001  4.5426346700000000 17.6168531799999997
  3.8215730400000001  6.0680871500000002 -0.0427123000000000
  1.6681489400000000  8.0921930900000003  1.5621916199999999
  0.1031989300000000  9.9082464100000003  2.8829273999999998
 18.1325448599999994 11.6376425599999997  4.7655745200000004
 16.4275973700000009 13.4905442799999999  6.3920836899999998
 15.3716968099999995 14.9509508699999998  8.4665439800000009
 13.2202938700000008 16.8746609800000016  9.7139874699999993
 11.4672532500000006 18.2808040600000012 11.3767562899999994
  9.8388061600000007 20.2398196500000012 12.9184720700000000
  8.9598032399999994  1.6249978500000000 15.0103150000000003
  8.4487239400000007  1.6239462700000000 18.2201827700000010
  6.5054559400000000  2.9619052099999998 -0.1979395300000000
  5.4627621800000004  4.7385345799999996  1.4221701800000000
  3.5458848600000001  5.8012168400000004  2.5979150700000000
  2.0560572499999998  8.1655308600000005  4.2719316400000000
  0.1185244300000000 10.0732968799999991  6.0250206899999998
 18.7712321700000011 12.1636182099999992  7.9815154000000001
 17.3509325300000015 13.5665048000000006  9.9729518099999996
 15.1915474100000001 15.4425714400000000 11.0440285199999995
 13.3664532499999993 16.4742527199999991 13.1728921799999998
 11.5145886999999991 18.6219666000000004 14.7378338099999997
 10.4878874300000007  0.3265913500000000 16.8027995099999998
 10.4402391399999992 -0.2533870200000000  0.0993515000000000
  8.3412858900000000  1.6517352900000000  1.8817043099999999
  6.9896580400000001  2.9361736199999999  3.1819450100000002
  5.2868680000000001  4.4699964999999997  4.5480410999999998
  4.2925373100000002  6.8264163000000000  6.5090930599999997
  1.7032913700000001  8.6189419600000008  7.6201862800000004
  0.0309775900000000 10.1251826699999992  9.4656660299999995
 19.0017324700000003 12.2697500300000009 11.7208795000000006
 16.8759281100000003 14.3991644999999995 13.0674341399999996
 15.3663691300000007 14.7131531500000001 15.1509361800000004
 13.4033519000000005 16.5460600999999983 16.8871797100000016
 11.5352491399999995 17.5810247400000002 18.0056593000000014
 11.3789477600000009 18.0159010299999984  1.7184274700000000
 10.2321492799999998  0.2340447400000000  3.3926066800000001
  8.8291082500000009  1.8817463000000001  5.5435424299999996
  6.5841842200000000  3.7284136700000001  6.7034764600000001
  4.5875596500000002  5.1291538799999996  8.2468205500000007
  3.2464201799999999  6.5983923600000001  9.4559271700000007
  1.4840778800000001  8.3257619700000003 11.5539882600000006
  0.0416978200000000 10.2025443100000004 13.7400327999999998
 18.8329182800000012 12.3247322199999996 14.8515442100000001
 17.3158965100000017 13.2382601900000001 16.8103285800000002
 15.0033729699999991 15.3234749000000008 18.2140347100000000
 12.9889548900000005 16.3266476400000009  0.0257046200000000
 13.3233293100000001 16.6069926599999995  3.7373962900000000
 11.4637961100000005 17.8731341099999987  5.4421141200000003
  9.8089655300000000 -0.3251582800000000  6.9246192500000001
  8.2134384600000008  2.1655053899999999  8.6020782199999992
  6.3940559500000003  3.1798470800000000 10.2954636399999995
  4.7976128700000000  4.9263659300000002 12.4161974199999996
  2.9990831800000000  6.8273195099999997 13.4518249300000008
  1.1641370799999999  8.4654281099999995 15.8712038199999999
  0.0124969900000000 10.0869980500000000 17.3000517900000013
 18.7660973499999990 11.6773407000000002 18.5691897099999998
 16.7889181299999990 13.1783407100000005 -0.0926888300000000
 14.6544282900000002 14.5849847199999996  1.3664643999999999
  6.2080187599999999  6.8421618700000000 13.3551391600000002
  4.7304945600000003  8.6607737999999994 14.9492995900000007
  3.1521304300000001  9.9219144799999999 17.0311892200000017
  1.7942946200000001 11.5976146799999995 18.6314986800000000
  0.0959697900000000 13.3220869099999994 -0.1698941800000000
 18.2346807099999992 15.1904909700000008  1.2071195500000000
 16.0521496699999986 16.4907139799999989  3.2687182500000000
 14.6118862699999994 17.9820814300000009  5.1607310200000001
 13.2163585399999999 -0.1290667800000000  6.6383626199999997
 11.5730487199999992  1.7739251400000000  8.7166651999999996
  9.8972655199999995  3.4559052800000001  9.9420479099999994
  8.2027561799999997  4.9980527600000002 12.1173150900000000
  7.8317269800000000  4.4404392799999997 15.5513937700000007
  6.5611297600000000  6.4121936300000000 16.2743382200000006
  5.1349732599999998  8.0817469299999996 18.3915298800000002
  3.4055258500000001  9.3775883499999999 -0.5537896000000000
  2.2600194299999998 11.4447240400000005  1.0333976800000000
  0.3455709300000000 13.2811435099999997  3.1065883300000001
 18.2212508600000014 14.7838808200000003  4.7688985500000003
 16.5620609399999985 16.5731930500000004  6.8064943299999996
 15.0838047700000004 18.5268842300000003  8.4633417299999998
 13.2820924900000001  0.2107190000000000  9.8862883999999998
 11.5556565500000001  2.1214803799999999 11.7914546500000004
  9.8958232800000001  3.0210632199999998 13.0019387099999992
 10.2761053100000002  3.2221377699999998 16.6122688300000014
  8.4716256500000000  4.1407545299999997 17.5602332700000012
  6.8818652800000004  5.8821370699999997 -0.7304825200000000
  5.5611740100000002  7.7331053900000004  1.3042937999999999
  3.8632064599999998  9.7901913199999999  2.9690035600000000
  1.8401497800000000 11.4043717200000003  4.4929528000000003
  0.2831477200000000 13.4214554300000000  6.1528271500000002
 18.7589792099999997 15.2702945000000003  7.8819185400000000
 16.8698294699999991 17.1607320399999992  9.6779755499999993
 15.2158092000000007 18.1410164999999992 11.5024470999999995
 13.3119222100000005 -0.0550689400000000 12.6820676500000005
 12.5301612599999999  1.2514594000000001 14.7907241200000001
 11.8027603499999998  1.2278761300000001 18.2045425099999996
  9.9888630099999993  3.2840847399999999  0.4180864000000000
  8.6477918999999996  5.1997377699999996  1.4920309800000000
  6.6993754799999996  6.5274183399999997  3.1472579500000002
  5.4326160000000003  8.0107121100000001  4.4932526900000003
  3.3998667100000000  9.6485952200000007  6.1615452900000003
  1.5314352200000001 11.7062023499999999  8.0945845100000007
  0.0929875100000000 13.6969296499999995  9.2329340599999998
 18.8118395199999995 14.9652412199999993 11.1155488400000007
 17.0013208300000009 16.5984798500000004 13.3671920800000006
 15.3111113000000003 18.0744235300000007 15.0182568599999993
 13.9802794499999994 -0.4454636800000000 16.5794573099999987
 13.0403686400000005 -0.3640340300000000 -0.2577397000000000
 12.1170629900000009  1.7657226100000001  1.7325086000000001
 10.2936053399999992  3.4125837300000001  3.8121031200000002
  8.2247074500000004  4.7364531300000001  5.1078116500000004
  6.5476762600000002  7.0735866700000001  6.4984632500000004
  4.8817712799999997  8.7326418799999992  8.4017876200000003
  3.1955392100000002 10.1503483299999999 10.3150340899999993
  1.5481696199999999 11.5073232999999995 11.2941746199999997
  0.0679252100000000 13.4908435900000008 13.2479209699999991
 18.3109737000000017 15.2597325500000007 14.7940785800000008
 17.3215100900000003 16.9014765099999984 16.7623918299999985
 14.3887408400000005 17.9778325099999989 18.5248956800000002
 13.9699979899999995 17.9888893199999984  1.6602039700000000
 13.1091283399999998 -0.5827926700000000  3.7319623300000000
 11.5698439600000000  1.7262859699999999  5.6433286599999999
 10.4048532300000005  4.1110176000000003  7.1977361999999996
  7.9296322999999997  5.2496989300000001  8.8585270400000002
  6.5298821000000000  6.7207485100000000  9.9785822500000005
  4.4717168699999998  8.3239220199999995 11.6065880200000002
  2.9649726200000002 10.1373051099999998 13.7946644599999999
  1.8123017600000000 11.4420608000000001 15.4208938599999996
  0.5019897500000000 13.7656834799999999 17.0930626399999994
 18.8177349499999984 15.1400737599999999 18.4889675999999987
 16.3679325700000007 16.5692885300000015  0.1652933400000000
  8.1897747100000000  7.7694169899999999 11.7483284099999992
  6.7331899999999996  9.7398898999999997 13.3117606199999994
  4.9026723199999998 11.4175386299999992 15.0494176399999997
  3.5807983999999999 13.1288245600000000 16.9085901700000001
  2.0243701800000000 15.1086074600000000 18.5030153300000002
 -0.0021694700000000 16.6783197200000011  0.0422492400000000
 17.5751602700000014 18.2651382399999989  1.8890968400000001
 15.6952083099999999 19.8836256800000015  3.2208185299999998
 14.6758753899999999  1.8720805000000000  5.1630453200000002
 13.1077856199999996  3.5916820899999999  6.9920227600000002
 11.9866344799999993  5.4523447799999998  8.6612146699999997
 10.2621385800000002  6.5626162499999996 10.3703282300000001
  9.8792520899999996  6.0255900300000000 13.5962784800000005
  8.3277721400000004  8.3193903999999996 14.7594826799999996
  7.0012705799999999  9.9016542300000001 16.5340398099999994
  4.8933275199999997 11.8008963100000006 18.2027787100000005
  3.5152291800000000 13.4063666399999999 -0.1421772400000000
  1.7706510200000001 15.0189330900000009  1.5164909000000000
 -0.0956297700000000 16.8442169200000009  3.0928490900000001
 17.7818274299999999 18.2404306399999996  5.0284412999999999
 16.6842492799999995 19.9203518399999986  6.5656147200000001
 15.2073351399999996  1.7110624999999999  8.3244042000000000
 13.4514031000000003  3.4428999500000002 10.1288219099999992
 12.3157812500000006  5.0484786000000001 11.5686388200000003
 11.7316813500000006  5.2594545600000000 15.1416363500000006
  9.9688034299999995  6.8479659000000002 16.5320336300000008
  9.0222178199999998  7.9649332599999996 18.0787909000000013
  6.9623539100000000  9.9461614600000008 -0.3495214900000000
  5.0773838199999997 11.4408433600000006  1.3407739400000001
  3.1593831799999998 13.1359808699999991  3.2496333800000001
  1.5840373299999999 15.5721108099999999  4.6417580799999998
  0.1177476300000000 16.7303010199999989  6.1075508599999999
 18.8753052699999984 18.4503002800000004  7.9636398300000000
 16.6323595299999987  0.4171282200000000 10.1021152900000004
 15.2053883800000005  1.6029728500000000 11.2935630400000004
 13.6000858600000001  3.3404351399999999 13.2921239000000000
 13.2262400699999993  3.5630318100000000 16.7790038700000004
 11.6271368800000001  5.5599849499999996 17.8818121400000010
 10.0014263000000003  6.2221636900000004 -0.6477961100000000
  8.3152742699999997  8.1069418199999994  1.4090074400000001
  7.0036600699999996  9.9639807600000001  3.2175940299999999
  4.7391927400000000 11.8973137599999994  5.2103551699999997
  3.0722168900000000 13.0545992700000006  6.4852911799999999
  1.6993343299999999 14.8987386199999996  7.8366806899999997
  0.3211309900000000 16.6336065600000005  9.5061228900000003
 18.7495187799999989 18.7404337599999984 11.6601912599999995
 16.7503664800000003 20.1978168700000005 12.9342315699999997
 15.3762311900000004  1.5820676800000000 14.9899297100000002
 14.4155078799999998  1.6716768399999999 18.4996563899999984
 12.9340352400000000  4.0497481600000000 -0.1426213600000000
 11.7857255100000007  4.9725260499999999  1.9999238900000000
  9.9035523300000001  6.9564966200000002  3.2447896100000002
  8.5733536600000004  8.3903864600000002  5.0124478500000000
  6.6899720800000004  9.9717638999999991  5.8587433000000004
  4.6701724100000002 11.1878045700000008  8.5950027999999996
  2.9307174200000001 13.8544471799999993  9.9064247400000003
  1.6383262100000000 15.3226116200000000 11.4024196900000003
  0.0472445200000000 16.5671839799999994 13.2458387599999998
 18.2897411699999992 18.4224436500000017 14.9337181999999995
 16.4972838599999996 19.7717804299999997 16.8045105899999996
 16.0588203000000007  0.0043014100000000 -0.2676776800000000
 13.7913232800000003  1.5883518900000000  1.3246016000000000
 13.0188797199999993  3.1831396199999999  3.7067068900000000
 11.6772433800000002  5.4698340600000002  5.3193949099999998
  9.4531202600000004  6.7201125900000003  7.0440093399999997
  8.0787093500000005  8.6248408800000007  8.3589733600000002
  6.8112405300000001  9.8579513399999996 10.1735622299999999
  4.9617895499999998 11.7049397200000005 11.6252705899999995
  2.9542285499999998 13.5797286499999998 13.1539526799999997
  1.5779892700000000 15.0231974299999997 14.9266923899999995
  0.3343160700000000 16.6040242800000009 16.5348243000000004
 18.1711279300000008 18.0609478299999999 18.5325464699999998
