Li                                      
   1.00000000000000     
    21.2169999999999987    0.0000000000000006    0.0000000000000000
     0.0000000000000006   21.2169999999999987    0.0000000000000000
    -0.0000000000000006   -0.0000000000000006   21.2169999999999987
   Li
   500
Direct
  0.9912093538200466  0.9930283126738004  0.0082833246924636
  0.9836601267851250  0.0788415676108798  0.1033898157138111
  0.0089921845689744  0.1810806933119693  0.1988838304190068
  0.0030849271810354  0.2918465230711220  0.3141962435782659
  0.9858627242305715  0.3842254267804108  0.4098803440637226
  0.0108294207475126  0.4991603921383785  0.5018096031484163
  0.0135951783946808  0.6174144643446269  0.5996636621577025
  0.9967281453551422  0.7159759692699268  0.6697846165810404
  0.9897318126973644  0.8002165004477533  0.7856983645190212
  0.9983956101239571  0.9090059485318349  0.9054734924824430
  0.0819762251967759  0.0062308139699283  0.1043658759485311
  0.1116398411651005  0.1055323316208714  0.2058177404911135
  0.1152251925342895  0.1808238577555699  0.2984242569637559
  0.1014529278408816  0.2856335815619531  0.4054797129660201
  0.0948574954046251  0.4094144124994088  0.5008672314653353
  0.1096129443370870  0.4942239256256755  0.6035499707781469
  0.0975885912240173  0.5828152358957439  0.7171347089597973
  0.0763183791299440  0.7001448192487132  0.7992740019795477
  0.0935542687467574  0.8221454135834492  0.8899816830843221
  0.0899100824810262  0.9250495621435633  0.0093462299099798
  0.1886558401281988  0.0062568336711095  0.1885226624876282
  0.2173102205778363  0.0922743248338591  0.3061282108686427
  0.2233659207239498  0.2103593137578343  0.3945991092048828
  0.1974908295234954  0.3103636319932122  0.5072174459160124
  0.1991567874817335  0.4087422948578947  0.5984989786491965
  0.2307241565725562  0.4743678196729064  0.7032330847904973
  0.2088144388933415  0.5744700603289843  0.7763209827025506
  0.1925961125512572  0.6936541631710398  0.8887549743130521
  0.1899667346938756  0.7964133501437516  0.9855369081397001
  0.1656103845972581  0.8921194829617747  0.0872527666493852
  0.3087858745345713  0.9707288118018553  0.2963526620163108
  0.3136594037799867  0.0934680553329912  0.4133129881698636
  0.3241187802234080  0.2067818947070776  0.4949691935711940
  0.3164079445727452  0.3238506673893582  0.5856538096809132
  0.2994015690248375  0.3925087623132413  0.6909296323702705
  0.2901894297026004  0.4687088480935131  0.7875240689070111
  0.2898164321063277  0.5887847193288422  0.8987530866757822
  0.3243544959230817  0.6958975053023551  0.9917388457369114
  0.3003251996040888  0.7934557161709961  0.0774131635009638
  0.3016704157043861  0.8875595305651132  0.1683059046990607
  0.4020121690154141  0.0069126054578845  0.3814665848140635
  0.4100137823443433  0.0939547579770945  0.5190594862610141
  0.4084449752556907  0.2079751628411159  0.6202296281283850
  0.3810150831880108  0.3072395875948501  0.7207419861431887
  0.4273256440590103  0.3832073874723108  0.7934348088796739
  0.3912131107131103  0.5039212310882775  0.8876061045388113
  0.3796709869444328  0.5834801578922537  0.0288779082810962
  0.4000129301974837  0.6720930249328347  0.1216317844181560
  0.4041379158222185  0.7768050747042494  0.2022162435782633
  0.4130044817834744  0.8941765023330319  0.2732080133854922
  0.4923307173492972  0.9922707088655329  0.4957758533251635
  0.5025306947259267  0.1027549648866497  0.6125577734835304
  0.4878135938162771  0.2123079723806356  0.7190192383466112
  0.5112310123957187  0.2855237441674134  0.8125724824433220
  0.5034449469764795  0.4179022524390845  0.8909423033416601
  0.4935945180751276  0.4978064330489715  0.9896786308149146
  0.5180086458971545  0.5996102422585636  0.1212720299759624
  0.5128699830324734  0.6900023033416574  0.1804439114860727
  0.5044303082433927  0.7887162336805389  0.2890850831880130
  0.5096986590941199  0.9132580543903472  0.3656005165669072
  0.5758315614837173  0.0124678225008239  0.6013090908233991
  0.5977423928924921  0.0771636381203749  0.7308469901494092
  0.6008968808031270  0.1973962798699134  0.8196769166234645
  0.5972191624640644  0.3082578135457439  0.9044461978602030
  0.6270584644388961  0.4048364759391063  0.9864857538766074
  0.6141401626054588  0.4823007343168229  0.0970302441438449
  0.6132651831078846  0.6029073144176849  0.1798222646934065
  0.6048545996135175  0.6927264019418402  0.2954236631003440
  0.6010182047414787  0.8021523038129814  0.3966159852948081
  0.5859299802045541  0.8880589602677134  0.5016833638120346
  0.7113535259461727  0.0172644601027443  0.7050188966394870
  0.6941259211952655  0.0953237828156688  0.7956438761370563
  0.6907811382382079  0.1917089522552686  0.8869754941791967
  0.7196273690908228  0.3148515567705132  0.9851173639063049
  0.7223559263797910  0.3955687967196084  0.1067453433567422
  0.7259533411886707  0.4958963929867579  0.2084772559739818
  0.7140082316067335  0.5883930984587806  0.3047441400763518
  0.7020138945185437  0.7060408634585471  0.4099120290333218
  0.6972489475420645  0.8167133671112765  0.5034310105104396
  0.6916277758401250  0.8970539407079201  0.6249104934722141
  0.8098012504124057  0.0095815812791642  0.7929608248102937
  0.7993342819437217  0.0944161653391120  0.8946892562567754
  0.7922096460385504  0.1935113903944981  0.9824511255125614
  0.7963072441909773  0.3051511193853997  0.1134233477871547
  0.8070741193382673  0.3843688848564852  0.2054956294480874
  0.8254338186360002  0.5236788537493524  0.2916063967573166
  0.8081164094829631  0.6261899212895301  0.4190109572512597
  0.8002518998915988  0.7258429226563621  0.4999624560493956
  0.7989809115332065  0.8069053061224523  0.5948565282556473
  0.8054012155347152  0.9029434081161298  0.6828596564076008
  0.8949854050996819  0.9936901946552297  0.9106343253051818
  0.9086443861054789  0.1101915445161907  0.9922855059622009
  0.8907245741622276  0.2112407729650769  0.1068844667012314
  0.9169371225903760  0.2984292510722568  0.2045607145213779
  0.9020819253428840  0.4006444304095780  0.2885720012254325
  0.9090026120563692  0.5015940953009377  0.4103235726068704
  0.9108413842673357  0.6023299481547824  0.5022683070179568
  0.8934753009379293  0.7024335391431364  0.5756092647405353
  0.8901564830089086  0.8015739746429773  0.6974932243012688
  0.8982923424612324  0.9027307050949673  0.8001743672526729
  0.0718335872177960  0.0962526502333034  0.9840803134279099
  0.0992310171089201  0.1869499816185112  0.1227827576943028
  0.0946699227034955  0.3116007767356379  0.2040101442239717
  0.0752341513880381  0.4046489607390313  0.3111764405900956
  0.0919248324456774  0.5080881213178117  0.4065781693924677
  0.1143311905547435  0.5914688636470729  0.5086158773624945
  0.1040893995381040  0.7018877970495367  0.6075987740962461
  0.1003143366168615  0.8053063383136134  0.6990507046236516
  0.0929796248291481  0.9059292642692185  0.7975195560164039
  0.0925014328133074  0.9870953730499110  0.8880351948908896
  0.1819685596455685  0.1084786727624092  0.0867612419286417
  0.1981921355516789  0.2076497723523616  0.2156098722722319
  0.1974850398265531  0.3090537436960901  0.3099989541405463
  0.1922232228873071  0.3757204105198682  0.4150873643776194
  0.2280609525380584  0.4821623377480293  0.5037628976763884
  0.2099587773954852  0.5977927011358801  0.6336995866522130
  0.2002978182589459  0.6897149903379329  0.7183107126360966
  0.2016130084366310  0.7991495762831704  0.8222098614318725
  0.1975118287222486  0.9142460442098326  0.8962465640759802
  0.1679764745251475  0.0002945623792243  0.9940652999952846
  0.2897186195032262  0.0979177678276884  0.1954070132440933
  0.3307070584908303  0.1900093726728542  0.3038689206768126
  0.3047360451524739  0.3124842498939557  0.4052069175661046
  0.3032593434510034  0.4000867625017648  0.5040778371117511
  0.3012034802281178  0.5155754107555239  0.6012593425083637
  0.3266506593769165  0.6030566460856832  0.7242696710185257
  0.3089785101569476  0.7134224871565280  0.8170754918225924
  0.3059130164490753  0.8025469482019147  0.9189057312532398
  0.2931637507658920  0.9103182909930680  0.0095902356600845
  0.2941349983503798  0.0111627539237418  0.0908695970212534
  0.3812053452420230  0.0911664198520086  0.2896262803412384
  0.3992477456756376  0.1916827105622829  0.3923646104538818
  0.4094848974878644  0.3084822859028122  0.5034793839845406
  0.4135255271716076  0.4146210208794798  0.6043347730593425
  0.4128590267238508  0.5020227256445295  0.7206429759155384
  0.4048653056511284  0.5911121459207251  0.8108163793184744
  0.4200592930197473  0.6803956506574949  0.9071891742470655
  0.4211586425979164  0.7947683560352559  0.0087959909506523
  0.4113639072441941  0.8962463444407760  0.0868507602394288
  0.3906058768911720  0.9855662596031465  0.1979993476928854
  0.4936228260357254  0.0981921242399935  0.3864067012301433
  0.5069475477211682  0.1740301423386938  0.4881992614412951
  0.4956506862421648  0.2874530480275226  0.6040613281802294
  0.4998223952490903  0.3816569623415162  0.7119149116274670
  0.4949468468680749  0.5114667521327263  0.7893772569166231
  0.5142510114530765  0.5891841127397868  0.8887001828722276
  0.5086241254654311  0.6659012834048141  0.0074262779846350
  0.5245999915162400  0.7830704420983139  0.0974077602865648
  0.5143545237309723  0.8753260998256138  0.1783878644483181
  0.5026784215487581  0.9810052929254809  0.2703042041758934
  0.5786675896686617  0.0989182763821432  0.4952520073525974
  0.5810139718150538  0.1890642692180791  0.6050086265730314
  0.5822410670688569  0.2981778276853433  0.6977210868643056
  0.6041843634821120  0.4065441806098917  0.8022349031437059
  0.6114310915775079  0.5015865291982848  0.8927170000471349
  0.6093081505396611  0.5910317740491138  0.9920009530093807
  0.6228610562284942  0.6868093547626870  0.0847087495875982
  0.6175837319130864  0.7888241655276431  0.1711120950181453
  0.6067927072630468  0.8928535047367703  0.2699778861290483
  0.5949705231653866  0.9956440792760546  0.3883175840128175
  0.6844092873639056  0.0995332978272145  0.5986393679596560
  0.6876467082999511  0.2073187514728758  0.7001935570533036
  0.6868225771786740  0.2916353744638727  0.7917822293443919
  0.6969884050525508  0.4141440260168707  0.8891653471273031
  0.7099070528349927  0.5072543130508578  0.0030042395249126
  0.7173267408210364  0.5841180817269205  0.1094541702408449
  0.7241783334118850  0.7021902168072742  0.1992142046472196
  0.7056445147758836  0.7906716618749101  0.2969887627845580
  0.6826988942828862  0.9123924197577438  0.3892587674977577
  0.6730317566102642  0.0008394655229296  0.5070633100815414
  0.7933197077814924  0.1117515011547354  0.6942451265494682
  0.7897806315690232  0.1871079016826158  0.7882040000942609
  0.7921967658010090  0.2874614469529178  0.8917329730876205
  0.8028641301786337  0.4027167040580650  0.0065180553329895
  0.8263130362445210  0.4957340962435808  0.1154462883536809
  0.8169871904604804  0.6016253075364091  0.2078639501343247
  0.8158341113258203  0.6991573073478818  0.3058927845595534
  0.7943572950935547  0.8110410387896465  0.4042362317952595
  0.7879250021209430  0.9096834835273597  0.4977419696469809
  0.7949738539850131  0.0099187467596735  0.6036485643587710
  0.9106276528255677  0.1046394146203511  0.7961441443182338
  0.9390768558231599  0.2077824956402878  0.8965302474430885
  0.8854764820662666  0.2961236404769778  0.9906244817834775
  0.9175272927369562  0.3906152613470297  0.0895667756987351
  0.9018836291652903  0.5292611222133203  0.2044123137107050
  0.9101620540132913  0.6189815704387982  0.3252189640382710
  0.9002167535466867  0.7073589739359960  0.4358309855304725
  0.9080614794740072  0.8115960828580882  0.4962122651647292
  0.8982538681246197  0.9093627218739684  0.5887633845501270
  0.9083533341188641  0.9979881759909475  0.7079125286326970
  0.0099797553848333  0.0947624433237522  0.8975515520573154
  0.0024300084837634  0.2004946227082058  0.0064538082669543
  0.0079538275910807  0.2999793985954682  0.1036714639204419
  0.0028834698590785  0.4244544652872690  0.1982820191355970
  0.9755120969034294  0.5135889942027632  0.3066918668991860
  0.0152723796955243  0.6187834444077893  0.4242459075269807
  0.0155478385257126  0.7085382754395084  0.5186685624734864
  0.0022128463024913  0.8259166729509388  0.5917565669038964
  0.9842936847810719  0.8991381519536219  0.6909210402036123
  0.0035996832728458  0.0032894424282404  0.7991578031766977
  0.1936951208936222  0.1976477404911137  0.9905131946080985
  0.1940483400103687  0.2974705707687235  0.1184828114247978
  0.1963619677617032  0.4160454724984675  0.1939024796154030
  0.1943636631003471  0.4987805801951239  0.3142634552481525
  0.2011068496959965  0.6025477296507518  0.4062293599472113
  0.1949015478154337  0.7030378889569704  0.5011646505160954
  0.2021707093368548  0.7930612815195346  0.5785370683885560
  0.2034668751472850  0.9116310623556600  0.7020218994202736
  0.1899777635858015  0.9943017759343888  0.7957517608521485
  0.1853631884809346  0.1270377819672888  0.8987769170947857
  0.3082568897582121  0.1955050676344428  0.1114725653956725
  0.2936498015742117  0.3048230772493739  0.2093698232549386
  0.2976900739972663  0.4016589989159627  0.3135372210962899
  0.2992673582504608  0.4976554164113693  0.3956107225338172
  0.2899690762124720  0.6119955172738827  0.5122631361643997
  0.3043920874770265  0.7060589777065545  0.6178957887543035
  0.2797586133760674  0.8212384470000487  0.7138089569684709
  0.2912434849413188  0.8977975736437784  0.8110103765848109
  0.2907475241551580  0.0132462855257600  0.9064779148795807
  0.3092247551491738  0.0996980477918683  0.0139036480181005
  0.4113797219211008  0.2201077263515074  0.2145526045152479
  0.4022257901682593  0.3086232558797164  0.2857196285997077
  0.4025179375029424  0.4066397228637442  0.4058424838572847
  0.3805657359664423  0.4977426101710876  0.5036199721921122
  0.3775916962812857  0.6048299769053145  0.5908596351981927
  0.3981608196257724  0.7217111721732579  0.7037130494414825
  0.3903642965546510  0.8271058193901126  0.8179560720177221
  0.3837579723806357  0.9052238176933614  0.9156916312390990
  0.4024238728378151  0.0108765230711256  0.9927247457227679
  0.4039707154640126  0.0962866343026789  0.1022738648253778
  0.4811636937361570  0.2191760253570223  0.2953648984305062
  0.4937836734693875  0.3106733020690982  0.4133551727388394
  0.4993951293773833  0.4179761955036057  0.4934219870858243
  0.4984544728283922  0.5017981802328322  0.6167066418438054
  0.4867998713295947  0.6009498699156310  0.7031120851204236
  0.4961251783946850  0.7005997351180682  0.8080438704812209
  0.5132097605693531  0.7893813107413834  0.9116606914266896
  0.5156789942027586  0.8989403063581065  0.9958377829099305
  0.5163628915492282  0.9882346915209510  0.1098153518405027
  0.4859858028939072  0.0948899462695039  0.2117760578781187
  0.5977126587170645  0.2169415841070830  0.3880875698732140
  0.5880118164679260  0.3071442428241511  0.5144864905500270
  0.6019988132158147  0.3962241565725577  0.6073133171513376
  0.6042050671631216  0.4966612362728000  0.6924675335815635
  0.6096950549087978  0.6119298783993941  0.7964959376914749
  0.6022137865862263  0.6917723712117620  0.9172663477400178
  0.6166979940613686  0.8102347485506911  0.0078881929584753
  0.6221403516048483  0.8932098364519021  0.0992359702125682
  0.6202029306688033  0.0116005184521839  0.1818703600886096
  0.5899866031955483  0.1265891322995714  0.2864843116368974
  0.6869163175755304  0.2049034477070251  0.5019876019229841
  0.7025216076730914  0.2954794396003209  0.6044339152566351
  0.6944236192675675  0.4050168643069227  0.7052568374416737
  0.7045983216288789  0.5391795192534303  0.7815635283027760
  0.7119508827826735  0.6105070778149582  0.8991420780506161
  0.7099184705660520  0.6799477470895994  0.0067905024273003
  0.7278804043927067  0.7948198274968163  0.0915165513503311
  0.7081890724419111  0.9009142112456985  0.1766208441344190
  0.6863860060328975  0.0096415907055629  0.2836199566385460
  0.6581039227977570  0.0913037422821290  0.4134031008153869
  0.7949801819295814  0.1936755224584061  0.6033829278408831
  0.8049978408823080  0.2762612829334969  0.7067230056087084
  0.8075163015506419  0.3982210354904083  0.7923597011830168
  0.7755769821369682  0.5046526087571266  0.8920340227176311
  0.8053198722722357  0.5924384460574075  0.0083366517415300
  0.8065256539567329  0.7054288744874384  0.1064609591365411
  0.8119963015506428  0.7938011377668843  0.1847716698873541
  0.8052501583635774  0.9131423306782267  0.2886623415185952
  0.8020501366828512  0.9890641344205093  0.3855578503087145
  0.7624363614083052  0.0965178814158492  0.4803074053824758
  0.8960064707545854  0.1965061893764428  0.6878441372484332
  0.9041971753782363  0.2999801706178999  0.7997395814676906
  0.8732931766979277  0.4098301413960499  0.8885363326577718
  0.9052431078851839  0.5000817132488109  0.0108747438374905
  0.9112844346514564  0.6203399858603973  0.0921438035537534
  0.9052072413630583  0.6975419498515336  0.2157741787246081
  0.9053589744073136  0.7725761747655184  0.3122503977942230
  0.8872674543997761  0.8917677678276874  0.3944954522317019
  0.8913012061083094  0.9979932987698561  0.4833302153933161
  0.8968938398454043  0.0761111457793291  0.5961238879200650
  0.0027504887590126  0.2049594749493338  0.7786893066880367
  0.9919626544751878  0.3188021511052455  0.8978355535655353
  0.9975428651553031  0.3980407512843485  0.9999153791770752
  0.0087687349766696  0.5180137748032223  0.0791862874110407
  0.9973123853513712  0.5914376594240451  0.1983503699863292
  0.0116598524767895  0.6929226309091732  0.3169388914549671
  0.0167290512325025  0.8144868982419737  0.4089705938634083
  0.0007976716783702  0.9090163439694550  0.4790334613753089
  0.9959432766178082  0.9777664731111813  0.6005815468727889
  0.9916125314606177  0.0993963152189252  0.6899257439788826
  0.0704174760805003  0.2077483169156835  0.8831978583211608
  0.1031088358391870  0.2805877428477146  0.9878187288495042
  0.0989520111231528  0.4067162068152896  0.0712612358014795
  0.0776355314134918  0.5010099886883168  0.2111515742093601
  0.0891707220624980  0.6189117137201308  0.3065881486543844
  0.1098306065890569  0.7143547697600994  0.3964968044492636
  0.1033983649903405  0.8072865805721818  0.4928633209218987
  0.0942382792100673  0.9159080845548360  0.5757581769335900
  0.0983441499740749  0.9895727765471065  0.6969949036150282
  0.0825829909977855  0.0872584338030791  0.7801038242918423
  0.2912768204741454  0.2935050784748086  0.0189202809068192
  0.2803401220719266  0.4037515520573152  0.1022019102606393
  0.2855475241551559  0.5064026803977910  0.2143425017674474
  0.2786780647593901  0.6046436635716645  0.3073239440071660
  0.3066436041853251  0.7078321044445488  0.3799971635952275
  0.3068234651458752  0.7868939802988137  0.4797646340198867
  0.3078335773200749  0.8919824946976505  0.6018312343875181
  0.3217992279775643  0.9974756256775237  0.7185979992458869
  0.2995405382476335  0.1186958170335117  0.8010928034123594
  0.3086972668143488  0.1983568435688383  0.9006388245275048
  0.3816407856907205  0.3247512621954058  0.1016342795871239
  0.3803369307630646  0.4048686256303924  0.2011770203138994
  0.3905218475750587  0.4945237861149110  0.3276919630485011
  0.3845552467361060  0.6240833788942837  0.4144764099542826
  0.3749376433991642  0.6994951208936229  0.5158163142762859
  0.3649837931847131  0.8114480449639458  0.6001775137861145
  0.4005173582504611  0.8948180477918655  0.7102012075222675
  0.3907896733751244  0.0009364108969194  0.8334423622566831
  0.3972611872555021  0.0944782240656110  0.9139891454965365
  0.4111782499882182  0.2033649794975716  0.9866669609275576
  0.5112448437573676  0.3162740910590571  0.1972986213885122
  0.5182197869632859  0.3973645788754325  0.2996091794315845
  0.5015477961068981  0.5041509563086208  0.3922898232549343
  0.4829510189941999  0.6055333845501281  0.4980622698779271
  0.4833012089362327  0.7176610312485252  0.5996901395107699
  0.4973727030211634  0.7900015190649015  0.7138639807701352
  0.5046023551868757  0.9006219206296819  0.7933300626855839
  0.4996262313239370  0.9878055846726710  0.9044786053636216
  0.5004498421077415  0.0767623316208699  0.0003135155771332
  0.4767604849884535  0.2169201979544724  0.1063832888721308
  0.5841420940755029  0.3156523570721603  0.3111382631851782
  0.6220730843191760  0.4097242767591993  0.4036279714379987
  0.6089629603619713  0.4848049860960515  0.5153122727058488
  0.5916959631427616  0.5964070599047915  0.6036934194278203
  0.5887769793090456  0.6994615487580731  0.6972969444313506
  0.6057594207475105  0.7946573771032632  0.8247240231889492
  0.6080232719046066  0.8982324178724639  0.8973645722769490
  0.6171667526040423  0.9987473313852107  0.0052313885092161
  0.6111577508601584  0.1255919239289227  0.0871646062119993
  0.5829204769760068  0.2127017943158762  0.1973689993872867
  0.6913791299429732  0.2972973101758001  0.4157922463119164
  0.7149748951312631  0.3983036315218911  0.5355849592308033
  0.7101919531507761  0.4995823971343754  0.5962195833529691
  0.7032729198284429  0.6109854762690290  0.6857340684356856
  0.7100250690484060  0.6879849761983294  0.7977395828816540
  0.6983595253805888  0.7932978036480165  0.9103554404486971
  0.7060682235942863  0.9040995018145850  0.9962837842296253
  0.7304806970825268  0.0135076269029568  0.0994248965452229
  0.6940068148183087  0.1137681481830626  0.1841134844700036
  0.6725457166423183  0.1794943337889450  0.3080739751142971
  0.7918420205495593  0.2891694938021416  0.4765726973653202
  0.8072632770891275  0.3858892440024491  0.6198325342885411
  0.8029257321958809  0.5075914469529152  0.6838902563981719
  0.8137375689305770  0.5996750176745067  0.7907782942923092
  0.7991311891407804  0.7033450577367191  0.9007169043691405
  0.7798606791723586  0.7930180887967211  0.0093712702078506
  0.8313320262054020  0.8851714139605065  0.1003590069284073
  0.8031121779704975  0.0086167945515356  0.1981696785596441
  0.7935963171042104  0.1003199349578168  0.3123563793184729
  0.7758020690955334  0.1826519649337826  0.3729262808125569
  0.8925064698119414  0.2930453631521885  0.5985426497619812
  0.8942395409341586  0.3951428463024911  0.7231540943582999
  0.8876214563793212  0.4990513894518571  0.7875500900221510
  0.8929813394919179  0.5988324739595612  0.8857889960880456
  0.8987818098694476  0.7108194603384064  0.9878460366687065
  0.8893104204175870  0.7955635127492116  0.0921601630767768
  0.9241139326954766  0.8916215209501814  0.2077278050619782
  0.9178498402224662  0.9913961342319837  0.2983162270820543
  0.9183961705236356  0.0803666064947919  0.4047804807465738
  0.8905043653673914  0.1794050902578093  0.4684882518734952
  0.9832928557288980  0.3029647150869579  0.6956384257906407
  0.9877987641985229  0.4088774558137374  0.7749574478012917
  0.9974228835367853  0.4949531041146216  0.8773864759391046
  0.9898154922939142  0.6028103911957388  0.9835477428477191
  0.9808906857708450  0.7010227944572733  0.1055785973511831
  0.0049284333317630  0.7836183970401081  0.1929632464533171
  0.9947158250459509  0.8865684026959499  0.3075046288353676
  0.0076802941037855  0.9931534194278200  0.3962699288306553
  0.0128896342555507  0.0998869986331741  0.5054968718480453
  0.0031607437432228  0.1966035848611938  0.5861852721874001
  0.0847390234246106  0.2952193217702757  0.7778825036527337
  0.0937450492529592  0.3857795395201933  0.8913958759485325
  0.0957951279634273  0.4863808295234975  0.9970745958429532
  0.0857184276759213  0.5983256492435345  0.0945060621199971
  0.1186802988169831  0.7010511726445756  0.1735457067445907
  0.0921937950699885  0.7961192180798449  0.2981242267992670
  0.1097886906725734  0.9130656940189468  0.4014764368195287
  0.1126318833953874  0.9971601102889167  0.4997454998350364
  0.0865585497478421  0.1017882118112823  0.6090646104538848
  0.1026295824103300  0.2151404241881494  0.6914578908422513
  0.1926802064382329  0.2718168134043424  0.8768217985577635
  0.2084842324551062  0.3893400829523515  0.9787320558985684
  0.1709976971296570  0.4978166998161839  0.0916321101003916
  0.1922527435546968  0.5989793863411421  0.1968327576943025
  0.2015110793231827  0.7257492020549563  0.3066724282415052
  0.1873305217514272  0.7973493674883372  0.4054850780034869
  0.2185281439411781  0.9033016515058705  0.4964088735448016
  0.2044467233821905  0.0169893599472104  0.6077846820945467
  0.2032468454541174  0.0946529278408832  0.6914951939482492
  0.1894290389781759  0.1909896677192791  0.7963025554979524
  0.3897340401564762  0.4265387576000350  0.0075977353065966
  0.3839520040533557  0.5083469844935635  0.1157510161662785
  0.3734330065513518  0.5845749375500802  0.2123410915775068
  0.4029117504831063  0.7071983371824473  0.2904417118348519
  0.4289529561200922  0.7987794513833251  0.3868795974925732
  0.4165865320262085  0.8964364123108837  0.4881629245416406
  0.4086302436725262  0.9875972173257281  0.6237025493707904
  0.3979251675543196  0.1124486204458677  0.7237774859782249
  0.3907471970589640  0.2122022628081268  0.8149628562002178
  0.3891870137154143  0.3177023547155571  0.9074351534147169
  0.4930396502804371  0.4263173516519743  0.1095898402224620
  0.4890775576188915  0.4963312678512537  0.2175907786209166
  0.4983023815808068  0.6085238860347815  0.2990095885374942
  0.4872644671725510  0.7032185883960977  0.4215476961870195
  0.4999040905877337  0.8096075722298153  0.5045198185417377
  0.4965198911250397  0.9061130866757807  0.5982919333553269
  0.4863159532450396  0.9844483664043011  0.7173448479992430
  0.4902753235612920  0.1083591044916830  0.8128036805391901
  0.4948643988311261  0.2117030852618171  0.8901304727341284
  0.4907723108827824  0.3229120375170851  0.0078983041900358
  0.6165950478389988  0.4012300782391449  0.1857518942357572
  0.5954400702267080  0.5010012310882814  0.2777324437950668
  0.6013322086063084  0.6036375656313311  0.4093869222793032
  0.6003578493660768  0.6959510114530829  0.5011283103171991
  0.6044622024791408  0.8048549766696524  0.6155174435594120
  0.5890290479332592  0.8963708413064992  0.7003237667907811
  0.6005074666541006  0.0053179276052191  0.8105788198143031
  0.6002972983927961  0.0969799519253414  0.9072492034689148
  0.5855294669368902  0.2217123891219330  0.9941240081067093
  0.5943058014799476  0.3101197073101787  0.0699910397322867
  0.7187308992788815  0.4021887637272030  0.2865555950417118
  0.7056194320591942  0.4986458580383655  0.4019181929584761
  0.7005414752321286  0.6066766229909959  0.5082653617382320
  0.6953349389640380  0.7123876886458973  0.5989964797096690
  0.7039297794221611  0.7908646519300575  0.7227594928595025
  0.7097854338502145  0.9025199674789093  0.8088745802893911
  0.7062277433190332  0.9961356511288102  0.9152094509120019
  0.7096267309233184  0.1142478545505980  0.9991208040722057
  0.7075517372861384  0.2212377164537855  0.0986349615874076
  0.7019649988217012  0.2896031941367738  0.2105233628693952
  0.7962038275910857  0.4192646627704164  0.4011043931752809
  0.8076903228543131  0.5289503817693344  0.4943821982372612
  0.8062863434981367  0.5998963001366846  0.5828618108120835
  0.7888558179761489  0.6911179455153871  0.7018656365178870
  0.7976278729320825  0.8037731738700131  0.8039005636989174
  0.8220015341471480  0.8844274379035681  0.9083914068907006
  0.8232121308384777  0.9996762515907065  0.0136261601545939
  0.7882353886034750  0.1284940844605771  0.1134363293585352
  0.7870859527737224  0.1956052933968024  0.2291859805816117
  0.8005912532403272  0.2921597087241352  0.3140569976905283
  0.8863845553094194  0.4025942376396259  0.5174224362539448
  0.9019454541169836  0.4914202318895207  0.6040861007682494
  0.9043846349625326  0.6063237884715065  0.6901793368525233
  0.9051672932082795  0.7071490389781800  0.8036106560776730
  0.9027821308384816  0.8066533364754704  0.9089568280152704
  0.9033921529905271  0.9048451439883110  0.0140062501767417
  0.9060430145637923  0.0065256728095378  0.1157771433284651
  0.8969481302728965  0.1032375444219227  0.2014562907102828
  0.9152442946693711  0.1859656516001351  0.3038040264881943
  0.8985587161238655  0.2829378427675948  0.4024101220719203
  0.9842543408587474  0.3703424508648752  0.6127087161238620
  0.9976421676014482  0.4969151948908888  0.6981117933732364
  0.9874576358580356  0.5977268275439513  0.7961880279964149
  0.0020191285290068  0.7228833765376805  0.8886610208794821
  0.0038684771645379  0.8118021949380179  0.9922658476693229
  0.0022983569778958  0.9098958434274422  0.1120482386765360
  0.0075678465381515  0.9996613776688505  0.2247679770938404
  0.0065753056511255  0.0888879129942950  0.3094770302116245
  0.0081546783239830  0.1836531856530144  0.4064612061083110
  0.9935099391996971  0.2919430367158427  0.5024626219540949
  0.0986211160861572  0.3864765193005582  0.7053488744874414
  0.1058464896073872  0.4771705208087837  0.7918952095018170
  0.0945581170759269  0.5780230386011240  0.8761471174058570
  0.0761087910637670  0.6921252952820822  0.9806380157420946
  0.0868862765706737  0.8042071042088921  0.0819111391808462
  0.0958094320591982  0.9027436678135459  0.2102121643022130
  0.1183519573926546  0.0017927652354217  0.3001808460196997
  0.1197655903285124  0.1023642338690678  0.3856562600744695
  0.1014837196587663  0.1957778338125067  0.5066975948531862
  0.1001256968468667  0.2803337465240148  0.6020899043220069
  0.2143862572465451  0.3683502205778382  0.7933375906113014
  0.2039167087712670  0.4718975854267811  0.8884439647452496
  0.1798808992788778  0.6006761577979916  0.9940384776358613
  0.1943386256303938  0.7162741692982024  0.0732418042136018
  0.1831948758071391  0.7916878465381529  0.1710414676910048
  0.2153328929631897  0.8842725319319413  0.2892909600791853
  0.2209761356459410  0.9791562355658172  0.4016013399632357