Li 
 1.0000000000000000
    21.2169999999999987    0.0000000000000006    0.0000000000000000
     0.0000000000000006   21.2169999999999987    0.0000000000000000
    -0.0000000000000006   -0.0000000000000006   21.2169999999999987
 Li 
 500
Cartesian
 -0.1865111400000000 -0.1479182900000000  0.1757473000000000
 -0.3466830900000000  1.6727815399999999  2.1936217199999999
  0.1907871800000000  3.8419890699999999  4.2197182299999998
  0.0654529000000000  6.1921076800000003  6.6663017000000000
 -0.2999505800000000  8.1521108800000004  8.6964312600000007
  0.2297678200000000 10.5906860399999996 10.6468943500000002
  0.2884489000000000 13.0996826899999999 12.7230639199999995
 -0.0694189400000000 15.1908621400000001 14.2108202099999996
 -0.2178601300000000 16.9781934899999989 16.6701622000000000
 -0.0340403400000000 19.2863792099999998 19.2114310900000014
  1.7392895700000000  0.1321991800000000  2.2143307900000000
  2.3686625100000001  2.2390794800000000  4.3668350000000000
  2.4447329099999999  3.8365397899999998  6.3316674600000002
  2.1525267700000001  6.0602876999999999  8.6030630699999993
  2.0125914800000002  8.6865455899999997 10.6269000499999997
  2.3256578399999999 10.4859490300000004 12.8055197300000003
  2.0705371399999999 12.3655908599999993 15.2154471200000003
  1.6192470500000000 14.8549726300000007 16.9581964999999997
  1.9849409200000001 17.4434592399999993 18.8827413700000015
  1.9076222199999999 19.6267765599999997 21.4152989600000012
  4.0027109599999999  0.1327512400000000  3.9998853300000001
  4.6106709500000003  1.9577843500000001  6.4951222499999997
  4.7391547400000000  4.4631935599999997  8.3722092999999997
  4.1901629299999996  6.5849851800000003 10.7616325499999999
  4.2255095599999999  8.6722852699999997 12.6983528299999993
  4.8952744299999997 10.0646620299999991 14.9204963599999996
  4.4304159500000004 12.1885312700000004 16.4712022900000008
  4.0863117200000003 14.7172603800000008 18.8567142899999993
  4.0305242100000003 16.8975020499999999 -0.3068634200000000
  3.5137555300000001 18.9280990699999982  1.8512419499999999
  6.5515099000000001 -0.6210468000000000  6.2877144300000003
  6.6549115700000003  1.9831117300000001  8.7692616700000006
  6.8768281599999996  4.3872914600000001 10.5017613799999996
  6.7132273600000003  6.8711396100000002 12.4258168799999993
  6.3524030900000001  8.3278584099999993 14.6594540099999993
  6.1569491300000001  9.9445956300000002 16.7088981700000012
  6.1490352399999999 12.4922453900000008 19.0688442400000007
  6.8818293400000004 14.7648573699999996 -0.1752769100000000
  6.3719997599999996 16.8347499300000010  1.6424750900000000
  6.4005412100000001 18.8313505600000006  3.5709463800000001
  8.5294921899999991  0.1466647500000000  8.0935765300000000
  8.6992624200000002  1.9934381000000001 11.0128851200000000
  8.6659770399999996  4.4126090299999996 13.1594120199999995
  8.0839970200000000  6.5187023300000000 15.2919827200000000
  9.0665681899999999  8.1305111399999994 16.8343063400000013
  8.3003685699999998 10.6916967599999992 18.8323387199999992
  8.0554793300000007 12.3796985100000008  0.6127025800000000
  8.4870743399999995 14.2597977100000008  2.5806615700000002
  8.5745941600000002 16.4814732699999986  4.2904220400000002
  8.7627160899999996 18.9717428499999983  5.7966544200000003
 10.4457808300000003 -0.1639923700000000 10.5188762800000006
 10.6621937500000001  2.1801520900000000 12.9966382800000009
 10.3499410199999993  4.5045382500000004 15.2554311800000004
 10.8467883900000004  6.0579572800000001 17.2403503600000008
 10.6815914400000000  8.8666320899999995 18.9031228499999990
 10.4725948899999999 10.5619590900000002 -0.2189884900000000
 10.9905894400000008 12.7219305100000000  2.5730286599999999
 10.8815624300000007 14.6397788700000007  3.8284784699999999
 10.7024978500000003 16.7341923299999991  6.1335182100000001
 10.8142764499999995 19.3765961400000002  7.7569461600000000
 12.2174182400000007  0.2645297900000000 12.7579749800000002
 12.6823003500000002  1.6371809100000001 15.5063805899999991
 12.7492291200000007  4.1881568700000003 17.3910851400000013
 12.6711989700000007  6.5403060300000000 19.1896349800000010
 13.3042994399999994  8.5894155100000003 -0.2867317600000000
 13.0302118300000007 10.2329746799999999  2.0586906900000002
 13.0116473900000003 12.7918844899999993  3.8152889900000000
 12.8332000399999995 14.6975760700000002  6.2680038600000003
 12.7518032500000000 17.0192654300000008  8.4150013599999998
 12.4316763899999998 18.8419469600000014 10.6442159299999997
 15.0927877600000002  0.3663000500000000 14.9583859300000004
 14.7272696700000001  2.0224847000000001 16.8811761199999992
 14.6563034099999996  4.0674888400000002 18.8189590600000010
 15.2683338899999992  6.6802054799999997 -0.3157648900000000
 15.3262256899999993  8.3927831600000005  2.2648159500000000
 15.4025520399999998 10.5214337699999998  4.4232619399999997
 15.1491126499999993 12.4839363700000003  6.4657564199999999
 14.8946287999999996 14.9800690000000003  8.6971035200000006
 14.7935309200000003 17.3282075099999986 10.6812957500000003
 14.6742665199999998 19.0327934600000006 13.2587259399999997
 17.1815531300000011  0.2032924100000000 16.8242498199999986
 16.9594754600000002  2.0032277800000000 18.9826219499999986
 16.8083120599999987  4.1057311700000003 -0.3723344700000000
 16.8952507999999995  6.4743912999999997  2.4065031700000001
 17.1236915900000000  8.1551546300000002  4.3600007700000001
 17.5132293300000015 11.1108942400000004  6.1870129199999999
 17.1458058599999994 13.2858715600000004  8.8901554800000007
 16.9789445599999986 15.4002092899999994 10.6077034300000008
 16.9519780000000004 17.1201098800000011 12.6210709600000008
 17.0881975900000000 19.1577502899999992 14.4882333299999999
 18.9889053399999987 -0.1338751400000000 19.3209284799999992
 19.2787079400000003  2.3379340000000002 21.0533215799999986
 18.8985032900000007  4.4818954800000004  2.2677677300000001
 19.4546549300000002  6.3317734200000002  4.3401646800000000
 19.1394722100000010  8.5004728800000002  6.1226321500000003
 19.2863084200000010 10.6423219200000005  8.7058352400000008
 19.3253216499999994 12.7796345099999993 10.6566266699999996
 18.9568654599999995 14.9035323999999996 12.2127017700000007
 18.8864501000000011 17.0069950200000015 14.7987137400000002
 19.0590686299999987 19.1532373699999994 16.9772995500000015
  1.5240932199999999  2.0421924800000002 -0.3377679900000000
  2.1053844900000001  3.9665177599999999  2.6050817700000000
  2.0086117500000000  6.6112336799999998  4.3284832299999998
  1.5962429899999999  8.5854370000000007  6.6022305399999999
  1.9503691700000001 10.7801056699999993  8.6263690200000003
  2.4257648700000001 12.5491948799999999 10.7913030699999997
  2.2084647899999998 14.8919533899999994 12.8914231899999994
  2.1283692799999998 17.0861845800000012 14.8317587999999994
  1.9727486999999999 19.2211011999999997 16.9209724199999982
  1.9626029000000000 20.9432025300000006 18.8414427300000007
  3.8608269300000000  2.3015919999999999  1.8408132699999999
  4.2050425400000000  4.4057052199999998  4.5745946599999998
  4.1900400900000001  6.5571932799999999  6.5772478100000002
  4.0784001200000004  7.9716599500000003  8.8069086100000007
  4.8387692299999996 10.2300383200000002 10.6883374000000000
  4.4546953800000004 12.6833677399999996 13.4452041300000005
  4.2497188100000001 14.6336829500000007 15.2403983899999993
  4.2776231999999998 16.9555565600000016 17.4448266300000014
  4.1906084699999999 19.3975583200000017 19.0156633500000005
  3.5639568599999998 21.2232497299999991 21.0910834700000009
  6.1469599500000003  2.0775212800000000  4.1459505999999999
  7.0166116599999997  4.0314288600000001  6.4471868900000002
  6.4655846700000001  6.6299783300000001  8.5972751699999996
  6.4342534899999997  8.4886408400000004 10.6950194700000001
  6.3906342399999998 10.9389634900000008 12.7569194699999997
  6.9305470400000004 12.7950528600000002 15.3668296099999999
  6.5555970500000003 15.1366849099999996 17.3358907100000010
  6.4905564699999996 17.0276385999999995 19.4964228999999989
  6.2200553000000003 19.3142231799999990  0.2034760300000000
  6.2406622599999997 21.4538401500000013  1.9279802399999999
  8.0880338100000007  1.9342779299999999  6.1450007900000001
  8.4708394200000008  4.0669320700000000  8.3247999400000001
  8.6880410700000006  6.5450686600000001 10.6823220899999995
  8.7737711100000002  8.7970141999999996 12.8221708799999998
  8.7596299700000007 10.6514161699999992 15.2898820200000003
  8.5900271900000007 12.5416264000000002 17.2030911199999998
  8.9123980199999995 14.4359545199999992 19.2478327100000008
  8.9357229199999999 16.8626002100000001  0.1866245400000000
  8.7279080199999992 19.0156586899999986  1.8427125799999999
  8.2874848900000000 20.9107593300000012  4.2009521599999999
 10.4731954999999992  2.0833423000000000  8.1983909799999992
 10.7559061200000006  3.6923975300000000 10.3581237300000009
 10.5162206099999995  6.0988913199999999 12.8163692000000005
 10.6047317600000000  8.0976157700000009 15.1046986800000003
 10.5012872500000007 10.8517900800000007 16.7482172600000006
 10.9108637099999992 12.5007193200000000 18.8555517799999990
 10.7914780700000001 14.1284275299999997  0.1575633400000000
 11.1304380199999997 16.6144055699999988  2.0667004499999999
 10.9130599299999993 18.5717938599999997  3.7848553200000001
 10.6653280699999993 20.8139892999999994  5.7350443000000002
 12.2775902499999994  2.0987490700000002 10.5077618400000006
 12.3273734400000006  4.0113766000000002 12.8364680300000007
 12.3534087199999991  6.3264389699999999 14.8035482999999992
 12.8189796400000002  8.6256478800000007 17.0210179400000001
 12.9727334699999997 10.6421613900000001 18.9407765899999987
 12.9276910300000001 12.5399211499999996 -0.1697157800000000
 13.2152430299999999 14.5720340799999999  1.7972655399999999
 13.1032740400000005 16.7364823200000004  3.6304853200000000
 12.8743208700000000 18.9436728099999989  5.7281208100000001
 12.6234895900000001 21.1245804300000017  8.2389341799999993
 14.5211118500000005  2.1117979800000000 12.7013314699999995
 14.5898002099999999  4.3986819500000003 14.8560067000000000
 14.5723146200000002  6.1876277399999999 16.7992435600000007
 14.7880029900000007  8.7868937999999996 18.8654211700000012
 15.0620979399999992 10.7624147600000004  0.0637409500000000
 15.2195214599999993 12.3932333400000001  2.3222891300000001
 15.3648916999999994 14.8983698300000000  4.2267277800000000
 14.9716596699999993 16.7756806500000017  6.3012105800000002
 14.4848224400000003 19.3582299700000000  8.2589032699999994
 14.2797147800000008 21.2348109399999991 10.7583622499999993
 16.8318642400000016  2.3710315999999998 14.7297988499999999
 16.7567756599999989  3.9698683500000000 16.7233242699999991
 16.8080387800000004  6.0990695199999996 18.9198984900000013
 17.0343682500000000  8.5444403100000006  0.1382935800000000
 17.5318836900000008 10.5179903199999991  2.4494239000000002
 17.3340172199999998 12.7646841500000008  4.4102494300000004
 17.3095523399999998 14.8340205899999997  6.4901272099999998
 16.8538787300000017 17.2078577199999998  8.5766801299999997
 16.7174047700000017 19.3007544700000011 10.5605913699999991
 16.8669602599999990 21.4274460500000004 12.8076115900000005
 19.3207869099999989  2.2201344600000001 16.8917903100000011
 19.9243936499999990  4.4085212100000000 19.0216822599999986
 18.7871545200000014  6.2828552799999997 -0.1989203700000000
 19.4671765699999995  8.2876840000000005  1.9003382799999999
 19.1352649600000007 11.2293332299999999  4.3370160599999998
 19.3109083000000012 13.1329319800000004  6.9001707600000000
 19.0998988599999997 15.0080353500000001  9.2470260199999998
 19.2663404100000015 17.2196340899999996 10.5281356299999995
 19.0582523200000011 19.2939488700000012 12.4917927300000002
 19.2725326899999985 21.1743151300000001 15.0197801200000001
 21.4287404700000010  2.0105747599999999 19.0433512799999995
 21.2685574899999992  4.2538944100000000 21.3539304500000000
 21.3857563599999985  6.3646628999999999  2.1995974500000002
 21.2781785799999987  9.0056503899999996  4.2069495999999997
 20.6974401599999993 10.8968176900000007  6.5070813400000000
 21.5410340799999993 13.1287283400000003  9.0012254200000008
 21.5468784900000010 15.0330565899999993 11.0045908899999993
 21.2639499600000015 17.5234740500000008 12.5552990799999993
 20.8837591099999997 19.0770141700000018 14.6592717100000005
 21.2933744800000007 21.2867920999999996 16.9557311099999986
  4.1096293800000003  4.1934921100000002 -0.2012815500000000
  4.1171236300000000  6.3114331000000004  2.5138498100000000
  4.1662118699999997  8.8272367900000006  4.1140289100000000
  4.1238138400000004 10.5826275699999997  6.6677277300000002
  4.2668840299999999 12.7842551800000006  8.6189683299999995
  4.1352261400000003 14.9163548899999991 10.6332103900000003
  4.2894559399999999 16.8263812100000010 12.2748209799999994
  4.3169566899999996 19.3420762500000016 14.8947986399999994
  4.0307582100000001 -0.1208992200000000 16.8834651099999995
  3.9328507699999999  2.6953606200000002 19.0693498499999983
  6.5402864300000001  4.1480310200000003  2.3651134200000001
  6.2303678400000004  6.4674312299999999  4.4421995399999998
  6.3160902999999999  8.5219989799999993  6.6523192199999999
  6.3495555399999999 10.5587549700000007  8.3936726999999998
  6.1522738900000000 12.9847088900000003 10.8686869599999998
  6.4582869199999999 14.9804533299999996 13.1098949499999993
  5.9356384999999996 17.4242161300000014 15.1448846400000008
  6.1793130200000004 19.0485711199999983 17.2072071599999994
  6.1687902200000000  0.2810464400000000 19.2327419199999987
  6.5608216300000004  2.1152934800000001 21.5119937000000014
  8.7282435599999992  4.6700256299999996  4.5521626099999999
  8.5340245899999996  6.5480596200000001  6.0621133599999997
  8.5402230800000005  8.6276750000000000  8.6107599799999992
  8.0744632200000002 10.5606049599999992 10.6853049500000008
  8.0113630199999992 12.8326776200000001 12.5362688799999997
  8.4477781099999998 15.3125459399999997 14.9306797699999994
  8.2823592799999997 17.5487041700000006 17.3545739800000014
  8.1421928999999995 19.2061337399999985 19.4282293400000015
  8.5382273099999999  0.2307671900000000 -0.1543590700000000
  8.5710466699999994  2.0429135199999999  2.1699445900000001
 10.2088500900000003  4.6502577299999999  6.2667570499999998
 10.4766081999999994  6.5915554500000004  8.7701566999999994
 10.5956664600000003  8.8682009399999995 10.4689343000000008
 10.5757085499999999 10.6466519900000005 13.0846648200000004
 10.3284328700000003 12.7503533900000008 14.9179291099999993
 10.5262879100000006 14.8646245799999992 17.1442668000000005
 10.8887714899999999 16.7483032700000010 19.3427048900000003
 10.9411612199999997 19.0728164800000002 -0.0883097600000000
 10.9556714700000004 -0.2496245500000000  2.3299523199999999
 10.3111607799999998  2.0132799900000000  4.4932526199999998
 12.6816694800000000  4.6028495899999999  8.2340539699999997
 12.4758467100000008  6.5166794000000001 10.9158598700000002
 12.7726088200000003  8.4066879300000004 12.8853666499999999
 12.8194189099999996 10.5376614499999999 14.6920836599999998
 12.9358999800000003 12.9833162299999998 16.8992543099999999
 12.7771699099999996 14.6773343999999994 19.4616401000000003
 13.0844813400000000 17.1907506599999991  0.1673637900000000
 13.1999518400000007 18.9512330999999996  2.1054895800000000
 13.1588455799999995  0.2461282000000000  3.8587434300000001
 12.5177457600000004  2.6858416200000002  6.0783376400000000
 14.5743035100000000  4.3474364500000000 10.6506709500000003
 14.9054009500000006  6.2691872699999998 12.8242743800000003
 14.7335859300000003  8.5932428099999996 14.9634343199999993
 14.9494625899999996 11.4397718600000005 16.5824333800000012
 15.1054618800000000 12.9531286699999999 19.0770974699999982
 15.0623401900000005 14.4264513500000007  0.1440740900000000
 15.4434385400000007 16.8636922799999986  1.9417066700000001
 15.0256475500000004 19.1146968199999989  3.7473644500000001
 14.5630518900000006  0.2045656300000000  6.0175646199999999
 13.9629909300000001  1.9371915000000000  8.7711735900000001
 16.8670945199999984  4.1092135599999997 12.8019755800000006
 17.0796391900000017  5.8614356399999998 14.9945420100000000
 17.1330733700000017  8.4490557099999997 16.8114957800000013
 16.4554168300000008 10.7072143999999998 18.9262858600000001
 17.0864717299999995 12.5697665099999991  0.1768787400000000
 17.1120547999999992 14.9670844299999999  2.2587821699999999
 17.2281255299999998 16.8420787400000016  3.9203005200000001
 17.0849926100000005 19.3741408300000018  6.1245488999999997
 17.0170977500000014 -0.2320262600000000  8.1803809100000002
 16.1766122800000005  2.0478198900000000 10.1906822199999993
 19.0105692899999994  4.1692718199999996 14.5939890600000002
 19.1843514699999993  6.3646792799999998 16.9680746999999990
 18.5286613299999985  8.6953661100000001 18.8520753700000014
 19.2065430200000016 10.6102337099999993  0.2307294400000000
 19.3347218500000011 13.1617534799999998  1.9550150799999999
 19.2057820399999990 14.7997475499999993  4.5780807499999998
 19.2090013599999985 16.3917487000000008  6.6250166899999998
 18.8251535799999985 18.9206367299999982  8.3700100099999997
 18.9107376900000013 -0.0425761800000000 10.2548171799999999
 19.0293965999999983  1.6148501799999999 12.6479605300000006
  0.0583571200000000  4.3486251800000000 16.5214510200000007
 -0.1705283600000000  6.7640252399999996 19.0493769399999984
 -0.0521330300000000  8.4452306200000002 -0.0017954000000000
  0.1860462500000000 10.9906982600000003  1.6800954600000000
 -0.0570231200000000 12.5485328200000001  4.2083997999999996
  0.2473870900000000 14.7017394600000006  6.7244924599999996
  0.3549402800000000 17.2809685199999983  8.6771290899999993
  0.0169242000000000 19.2865997699999987 10.1636529499999995
 -0.0860715000000000 -0.4717287400000000 12.7425386799999991
 -0.1779569200000000  2.1088916200000001 14.6381545099999997
  1.4940475900000001  4.4077960400000000 18.7388089600000001
  2.1876601700000000  5.9532301399999996 20.9585499700000000
  2.0994648200000001  8.6292977600000000  1.5119496400000001
  1.6471930699999999 10.6299289300000002  4.4800029500000003
  1.8919352100000000 13.1314498299999993  6.5048807499999999
  2.3302759800000001 15.1564651500000007  8.4124727000000004
  2.1938031100000002 17.1281993800000016 10.4570810800000000
  1.9994535700000000 19.4328218300000017 12.2158612400000006
  2.0865678299999999 -0.2212344000000000 14.7881408699999994
  1.7521633200000000  1.8513621899999999 16.5514628399999992
  6.1800202999999998  6.2272972500000003  0.4014316000000000
  5.9479763700000001  8.5663966800000004  2.1684179299999999
  6.0584618199999998 10.7443456699999995  4.5477048599999996
  5.9127124999999996 12.8287246100000001  6.5204921200000001
  6.5060573499999999 15.0180737600000000  8.0623998199999996
  6.5098734599999997 16.6955295799999988 10.1791662400000007
  6.5313050099999996 18.9251925900000018 12.7690532999999995
  6.8276142200000001 -0.0535596500000000 15.2464937500000008
  6.3553515999999997  2.5183691499999998 16.9967860100000010
  6.5496299100000002  4.2085371499999997 19.1088539399999995
  8.0972725499999996  6.8902475299999999  2.1563745100000000
  8.0696086600000001  8.5900976300000007  4.2683728399999996
  8.2857020400000003 10.4923111700000007  6.9526403800000001
  8.1591086700000002 13.2411770499999992  8.7939459899999992
  7.9550519800000004 14.8411879800000008 10.9440747399999996
  7.7438611399999999 17.2164931699999997 12.7339663099999996
  8.4977767899999996 18.9853545200000013 15.0683390199999998
  8.2913844999999995  0.0198678300000000 17.6831466000000006
  8.4286906100000003  2.0045444799999999 19.3921077000000004
  8.7239689299999998  4.3147947699999998 20.9341129099999996
 10.8470818500000004  6.7103873900000002  4.1860848500000003
 10.9950692199999995  8.4308842700000000  6.3568079600000003
 10.6413395899999994 10.6965708399999997  8.3232131799999998
 10.2467717700000005 12.8476018199999995 10.5673871800000008
 10.2542017500000000 15.2266141000000008 12.7236256900000004
 10.5527566400000001 16.7614622299999994 15.1460520800000005
 10.7061481700000005 19.1084952900000005 16.8320839400000004
 10.6005697500000000 -0.2587289100000000 19.1903225699999993
 10.6180442999999993  1.6286663900000000  0.0066518600000000
 10.1154272100000000  4.6023958399999998  2.2571342400000001
 12.3937428100000009  6.6971960599999996  6.6014205300000004
 13.1985246299999996  8.6931199800000005  8.5637746700000008
 12.9203671300000007 10.2861073899999997 10.9333804899999993
 12.5540132500000006 12.6539685899999998 12.8085632799999996
 12.4920811700000005 14.8404756800000008 14.7945492699999992
 12.8523976300000005 16.8602455700000000 17.4981696000000007
 12.9004297599999997 19.0577972100000004 19.0393841299999984
 13.0944269900000005 -0.0265778700000000  0.1109943700000000
 12.9669340000000002  2.6646838499999999  1.8493714500000000
 12.3678237600000003  4.5128939700000004  4.1875780599999999
 14.6689910000000001  6.3077570300000003  8.8218640900000000
 15.1696223499999991  8.4508081500000003 11.3635060800000005
 15.0681426700000003 10.5996397200000008 12.6499909000000006
 14.9213415400000002 12.9632788500000000 14.5492197300000008
 15.0646018900000005 14.5969772399999993 16.9256407300000014
 14.8170940499999997 16.8313994999999998 19.3150113800000014
 14.9806495000000002 19.1822791300000013 -0.0788469500000000
 15.4986089499999995  0.2865913200000000  2.1094980300000001
 14.7247425900000000  2.4138188000000000  3.9063357999999999
 14.2694024699999993  3.8083312800000000  6.5364055299999997
 16.8005121499999994  6.1353091500000003 10.1114429200000000
 17.1277049499999983  8.1874120900000005 13.1509868799999996
 17.0356752600000014 10.7695677300000003 14.5100995699999995
 17.2650700000000015 12.7233048499999999 16.7779430699999992
 16.9551664399999993 14.9228720900000003 19.1105105600000016
 16.5463040300000017 16.8254647900000016  0.1988302400000000
 17.6383715999999993 18.7806818900000003  2.1293170500000000
 17.0396310799999995  0.1828225300000000  4.2045660700000003
 16.8377330600000015  2.1284880600000000  6.6272653000000004
 16.4601925000000016  3.8753267400000002  7.9123768999999999
 18.9363097700000012  6.2175434699999999 12.6992794000000000
 18.9730803399999992  8.3837457700000009 15.3431604200000002
 18.8326644399999985 10.5883733299999996 16.7094502600000006
 18.9463850799999989 12.7054285999999994 18.7937851299999998
 19.0694536600000006 15.0814564900000008 -0.2578706400000000
 18.8684991900000014 16.8794710499999994  1.9553621800000001
 19.6069253100000012 18.9175338099999983  4.4073608399999999
 19.4740200600000009 -0.1825482200000000  6.3293753900000000
 19.4856115500000016  1.7051382900000001  8.5882274600000006
 18.8938311200000015  3.8064377999999999  9.9399152399999995
 -0.3544754800000000  6.4280023599999998 14.7593604799999998
 -0.2588736200000000  8.6751529800000000 16.4422721699999990
 -0.0546786800000000 10.5014200100000004 18.6155088599999985
 -0.2160847000000000 12.7898280700000004 -0.3490675400000000
 -0.4054423200000000 14.8736006300000003  2.2400611000000001
  0.1045665700000000 16.6260315299999988  4.0941011999999999
 -0.1121143400000000 18.8103218000000005  6.5243257100000003
  0.1629528000000000 -0.1452639000000000  8.4076590800000002
  0.2734793700000000  2.1193024500000002 10.7251271300000006
  0.0670615000000000  4.1713382599999997 12.4370929199999996
  1.7979078600000000  6.2636683499999997 16.5043330799999985
  1.9889887100000001  8.1850844899999995 18.9127462999999985
  2.0324852299999998 10.3195420599999999 -0.0620683000000000
  1.8186878799999999 12.6946753000000001  2.0051351199999998
  2.5180399000000002 14.8742027300000004  3.6821192599999999
  1.9560757499999999 16.8912614499999982  6.3253017199999997
  2.3293866500000000 19.3725148300000001  8.5181255599999997
  2.3897106699999999 -0.0602539400000000 10.6031002700000005
  1.8365127500000000  2.1596404900000001 12.9225238400000002
  2.1774918500000000  4.5646343800000002 14.6706620700000006
  4.0880959399999997  5.7671373299999997 18.6035280999999983
  4.4234099599999999  8.2606285400000008 20.7657580300000006
  3.6280581399999998 10.5621769200000006  1.9441584800000000
  4.0790264599999997 12.7085456400000005  4.1762006200000004
  4.2754605699999999 15.3982208200000006  6.5066689100000001
  3.9745916800000001 16.9173615300000009  8.6031768999999993
  4.6365116300000002 19.1653511399999985 10.5323070699999999
  4.3377461300000002  0.3604632500000000 12.8953676000000002
  4.3122883200000004  2.0082511699999999 14.6714535300000009
  4.0191159200000000  4.0522277799999999 16.8951513200000001
  8.2689871299999993  9.0498728199999992  0.1612011500000000
  8.1463096700000008 10.7855979699999995  2.4558893099999999
  7.9231280999999996 12.4029264500000007  4.5052409400000002
  8.5485786099999999 15.0046271200000003  6.1623017999999998
  9.1010948700000007 16.9477036199999986  8.2084244200000001
  8.8387164499999997 19.0196913599999995 10.3573527700000003
  8.6699078800000002 -0.2631498400000000 13.2330969899999999
  8.4427782800000006  2.3858223800000000 15.3563869200000003
  8.2904832800000001  4.5022954100000003 17.2910669199999987
  8.2573808700000004  6.7406908600000000 19.2530516499999997
 10.4608222600000005  9.0451752499999998  2.3251676400000001
 10.3767585400000009 10.5306605100000006  4.6166235499999999
 10.5724816300000004 12.9110512899999996  6.3440864399999999
 10.3382901999999994 14.9201887899999992  8.9439774700000001
 10.6064650900000004 17.1774438600000003 10.7043969899999993
 10.5346625300000003 19.2250013600000003 12.6939599500000000
 10.3181655800000005 -0.3299590100000000 15.2199056400000003
 10.4021715399999994  2.2990551199999998 17.2452556900000005
 10.4995379500000006  4.4917043600000000 18.8858982399999995
 10.4127161200000007  6.8512247000000004 21.3845783199999993
 13.0822971300000006  8.5128985700000008  3.9410979400000001
 12.6334519699999994 10.6297431200000005  5.8926492599999998
 12.7584654700000009 12.8073782299999994  8.6859623300000006
 12.7377924900000004 14.7659926099999996 10.6324393599999993
 12.8248745500000005 17.0766080400000000 13.0594336000000002
 12.4974293099999993 19.0183001400000009 14.8587693600000001
 12.7409669200000000  0.1128304700000000 17.1980508199999989
 12.7365077800000002  2.0576236400000001 19.2491063500000017
 12.4231786999999994  4.7040717599999997 -0.1246709200000000
 12.6093861900000004  6.5798098300000003  1.4849998900000001
 15.2493134900000005  8.5332390000000000  6.0798500600000001
 14.9711274900000006 10.5797691700000005  8.5274982999999995
 14.8633884799999993 12.8718579099999992 10.7838661800000004
 14.7529214000000000 15.1147295899999996 12.7089083100000000
 14.9352781300000004 16.7797753199999988 15.3347881600000004
 15.0595175500000007 19.1487661500000002 17.1618919699999992
 14.9840340300000001 -0.0819898900000000 19.4179989199999987
 15.0561503499999993  2.4239967299999998 -0.0186539000000000
 15.0121252100000007  4.6940006299999997  2.0927379799999999
 14.8935913800000002  6.1445109699999998  4.4666741900000000
 16.8930566099999986  8.8955383500000007  8.5102319099999999
 17.1367655799999987 11.2227402499999993 10.4893070999999996
 17.1069773500000011 12.7279997999999992 12.3665790399999995
 16.7371538899999983 14.6634494499999999 14.8914832100000005
 16.9232705800000005 17.0536554299999992 17.0563582599999997
 17.4404065499999987 18.7648969500000007 19.2733404800000017
 17.4660917799999993 -0.0068689700000000  0.2891062400000000
 16.7239902399999991  2.7262589899999998  2.4067786000000000
 16.6996026600000000  4.1501575099999997  4.8626389500000000
 16.9861446200000010  6.1987525400000001  6.6633473199999997
 18.8064211099999987  8.5418419399999994 10.9781518299999998
 19.1365766999999991 10.4264630599999997 12.8168948000000000
 19.1883288000000007 12.8643718200000006 14.6435349899999991
 19.2049344600000005 15.0035811599999995 17.0502072899999995
 19.1543284699999994 17.1147638399999984 19.2853370200000001
 19.1672713100000003 19.1980994199999984  0.2971706100000000
 19.2235146400000012  0.1384552000000000  2.4564436500000002
 19.0305484800000002  2.1903909800000001  4.2742981200000001
 19.4187381999999999  3.9456332299999999  6.4458100299999996
 19.0647202799999995  6.0030922100000002  8.5379355599999993
 -0.3340756500000000  7.8575557800000002 12.9998408300000001
 -0.0500261300000000 10.5430496900000001 14.8118379200000003
 -0.2661113400000000 12.6819700999999991 16.8927213899999984
  0.0428398500000000 15.3374165999999992 18.8547208799999986
  0.0820774800000000 17.2240071700000001 -0.1640955100000000
  0.0487642400000000 19.3052601099999990  2.3773274799999999
  0.1605670000000000 -0.0071845500000000  4.7689021699999996
  0.1395082600000000  1.8859348499999999  6.5661741500000002
  0.1730178100000000  3.8965696400000001  8.6238874100000000
 -0.1376996200000000  6.1941554099999996 10.6607494500000008
  2.0924442200000000  8.1998723099999999 14.9653870700000002
  2.2457449700000001 10.1241269400000000 16.8016406600000003
  2.0062395700000000 12.2639148099999993 18.5892133900000012
  1.6148002200000000 14.6848223900000008 -0.4108032200000000
  1.8434661299999999 17.0628621299999992  1.7379086399999999
  2.0327887200000001 19.1535124000000003  4.4600714899999998
  2.5110734799999999  0.0380371000000000  6.3689370099999998
  2.5410665300000002  2.1718619499999998  8.1824688699999992
  2.1531800799999998  4.1538183000000002 10.7506028699999998
  2.1243669100000000  5.9478410999999998 12.7745414999999998
  4.5486332200000001  7.8152866300000001 16.8322436599999996
  4.3265008099999998 10.0122510699999996 18.8501155999999988
  3.8165330399999999 12.7445460399999995 -0.1264856200000000
  4.1232826200000003 15.1971890500000004  1.5539713600000000
  3.8868456800000000 16.7972410399999994  3.6289868200000002
  4.5687179899999997 18.7616103099999982  6.1378862999999999
  4.6884506699999999 -0.4422421500000000  8.5207756299999993