Li                                      
   1.00000000000000     
    22.7325000000000017   -0.0000000000000006    0.0000000000000000
    -0.0000000000000006   22.7325000000000017    0.0000000000000000
     0.0000000000000006    0.0000000000000006   22.7325000000000017
   Li
   500
Direct
  0.0103876186077230  0.0000581572638296  0.0121755491037092
  0.0117252757065884  0.0942867396898706  0.0700154703618168
  0.9915477760915010  0.1680611186627061  0.1953081508852961
  0.9948449809743778  0.2818471633124346  0.2853290834707991
  0.0044008586825015  0.4005573130979840  0.3867382170900697
  0.0134162269877933  0.5037980406906399  0.4792101550643366
  0.0115870124271424  0.5872029143297013  0.5907923440008815
  0.9966750484988438  0.6978134714615649  0.7008410482788960
  0.9957470797316645  0.7996601456065093  0.8024541629825137
  0.0072058255801153  0.9082710243044119  0.8860259623886506
  0.0911228778181012  0.9891404350599373  0.1151249756955934
  0.0892358218409797  0.0893979381942174  0.1862551998240392
  0.1117218260200161  0.1788744717914881  0.2987079313757803
  0.0907778735290918  0.2980010966677682  0.3803121882766973
  0.1077740618057845  0.4107110634554019  0.4866579923017724
  0.1143373240954588  0.4906278068844188  0.6022534485868221
  0.1068136918508742  0.5947772554712429  0.7061162837347439
  0.1038410460794026  0.6879260041790403  0.8033912948421857
  0.1083870542175305  0.7836415304080049  0.8892606668866136
  0.0964302751567132  0.9027276740349706  0.9962045432750486
  0.1962331560541060  0.0117501994941165  0.2173415730781940
  0.2038076546794230  0.0973780719234583  0.2999743851314207
  0.2073498027053802  0.2123372739469929  0.4075385439348977
  0.1892066138788095  0.3094496729352230  0.4897368107335325
  0.2121486000219974  0.3903317716925088  0.6004171463763299
  0.2067553973386111  0.4978063741339511  0.7019236621577036
  0.2071112570108866  0.5917780666446717  0.7957061247113160
  0.2080503354228540  0.6958678095238113  0.9028548347080161
  0.2111181638623094  0.7978137090069310  0.0029874417683899
  0.1947953067194561  0.9054639348949749  0.1106092092818685
  0.3071590533377346  0.0045906437919285  0.2856038279995587
  0.3025213742439234  0.1096257956669930  0.3911814828989364
  0.2999509130100080  0.2053682925327180  0.4975125745078657
  0.3050156128890364  0.3061589490817127  0.6043569158693529
  0.2969961834378125  0.4112433771032684  0.7129322547014212
  0.3011143833718251  0.4952569748157956  0.8197448023754532
  0.3159625672495352  0.6066050306829425  0.9241124113054013
  0.3245980978774909  0.7091260129770163  0.0200874417683963
  0.2952174415484450  0.7969961196524764  0.1030417714725615
  0.2963839370944683  0.8924884746508326  0.1919850293632450
  0.3901712204992833  0.0086824185637298  0.3882775968327294
  0.3979793502694378  0.1053310106675482  0.5043245652699895
  0.3817528753986608  0.2032775871549575  0.5869754505663707
  0.3939305118222833  0.3104779659078432  0.7052315732981427
  0.4263222311668287  0.4038768336082725  0.8082169598592301
  0.3883629438029246  0.5039993282744959  0.9219178528538450
  0.4050116991092025  0.6100884931265824  0.0195242274276950
  0.4255517562960520  0.7037359802045557  0.1081743626965803
  0.4009866635873749  0.7947806255361272  0.2137979166391730
  0.4096454173540067  0.9043271875068726  0.2955714417683950
  0.4861820829209265  0.0161608907951205  0.4932857754316515
  0.4897968120532283  0.1136955394259331  0.6112871795886932
  0.4800428795776952  0.2178091221818974  0.7167900934785010
  0.5134944585945220  0.2909845951831045  0.8084304792697665
  0.4859300802815341  0.4047829591993874  0.9118140587264918
  0.5272686110194655  0.4967931503354208  0.0216163769932933
  0.5132257156054081  0.5861294129550174  0.1095952284174615
  0.5017919287363881  0.6937050271637517  0.2087834589244508
  0.4965220222148901  0.7929884231826705  0.3060564764104257
  0.4963109921917948  0.8994613091388999  0.4183675688991499
  0.5977777037281413  0.0079158900252949  0.5990183072693256
  0.6064021053557695  0.0947557299021256  0.7074055858352608
  0.6028777090069255  0.1931087447487059  0.7928301207522281
  0.5912004786099203  0.2959013944792730  0.8986710331023886
  0.6001736210271602  0.3858464431980622  0.0055673784229597
  0.6066191897063646  0.5124906459914200  0.1067399524909263
  0.6061085978224980  0.6077838060046190  0.2088659826239976
  0.6003462390850132  0.7026222289673356  0.2946599766853595
  0.5847839005828632  0.8057777270427806  0.4126000589464454
  0.5936728362476629  0.9129634246123359  0.5121374890575154
  0.7094532893434504  0.0060173839217015  0.7025887148355849
  0.7019677114263700  0.0988504040470701  0.8063753379522680
  0.6875584541955320  0.2131142931925680  0.9020200021994924
  0.7023795891345017  0.2931673405916655  0.9982812691081051
  0.6872453324535357  0.3974294173540116  0.1053486171780520
  0.6861901792587730  0.4955002221489053  0.2093827005388746
  0.6999961200923792  0.6035978590124245  0.3071725379962587
  0.7014714083360829  0.7123367152754838  0.4174425804464974
  0.6980159872429326  0.8124384761904793  0.5059991923457616
  0.7063054551853085  0.9056613654459440  0.6041635790168272
  0.7984131674914750  0.0077480827009779  0.7986942170900662
  0.8081990986473144  0.0995462575607604  0.8774907190146237
  0.8079492207192374  0.2011105298581342  0.9793743631364791
  0.7958423904102077  0.2772022892334789  0.0909797734521050
  0.7801709548003970  0.4025374855383248  0.1932457723523555
  0.7990938194215360  0.5038457917079100  0.2998241222918736
  0.7979665434949936  0.5981348034751974  0.4139040523479594
  0.8080525489937287  0.7060552622896736  0.5138924157043903
  0.8117138392169778  0.8044859425932032  0.6037047363906325
  0.8022692704278001  0.8924227981964137  0.7079604975255691
  0.8967528982733981  0.9944777041680410  0.8919371921258090
  0.8957784792697652  0.0858214296711779  0.9996416878917813
  0.9185140684042636  0.1789688674804779  0.0770612937424389
  0.9015008287693860  0.2822138075442666  0.2066991822280855
  0.8956292889035495  0.3996900195754947  0.2918842978115066
  0.9065452611899261  0.5094865056636948  0.3901092259980175
  0.9017676137688326  0.6005819918618727  0.4993316533597252
  0.9031018933245321  0.6956245846255342  0.5945147361706802
  0.8861331789288442  0.7819466086000233  0.7076434659628319
  0.9036486202573428  0.9115902188496676  0.7944769281865192
  0.1085504502364429  0.1037671320796250  0.0028266235565795
  0.0911241420873168  0.1961104234026152  0.1131712424942251
  0.1022481983943706  0.2784475592213767  0.1973754122951732
  0.0993530869899928  0.3915350682942957  0.2824613346530285
  0.1023282942923132  0.4986464801495671  0.3905015044539724
  0.1171666530298054  0.5930867612449120  0.4997065998020460
  0.1249250069284074  0.7013176452216001  0.5941309411635345
  0.1006253056197082  0.7901464744308839  0.7073217345210594
  0.1085994320906210  0.9007767948971761  0.8099220600461905
  0.1091453782030101  0.9938305738480153  0.9016747044979638
  0.1908451960849007  0.0941354765203997  0.1099005415154508
  0.2001529831738722  0.1889051578137000  0.1931480589464414
  0.1951312732871457  0.2943657085670282  0.3078875891345021
  0.1953080615858340  0.4022706807434275  0.3889865967227522
  0.2179594694820182  0.5135097059276390  0.5025898466952583
  0.1938733298141457  0.5958764931265819  0.5979751180028572
  0.2061467806004629  0.6861920554272487  0.7162681535246875
  0.1914451542945130  0.8041117906081610  0.8055547066974569
  0.2132407698229386  0.9015655647201157  0.9114740279335720
  0.1886247900582845  0.9998499399538119  0.0143362991312017
  0.2920324214230732  0.1156128516441228  0.1925932589904349
  0.2889628738590133  0.1827807715825358  0.2890401596832746
  0.3089086638073226  0.3005298783679748  0.3975366264159277
  0.3034332079621720  0.3815421880567484  0.4863980332123603
  0.3040216526998805  0.5023015040140777  0.5886815035741790
  0.2973327381502244  0.5935659478719870  0.7040853060596035
  0.3038735343670922  0.6951443787528859  0.8085055924337397
  0.2992898378972839  0.7947971186627072  0.8940193643461996
  0.2974569651380179  0.9007919665676880  0.0003543134279127
  0.2945389398438394  0.0144963994281326  0.1048156951501156
  0.3905443488397680  0.1146513713845820  0.2878500750027513
  0.3913576900912759  0.2039049242274302  0.4022117593753407
  0.4109257002089493  0.2937361297701528  0.5016449092708655
  0.4084492066424730  0.4051650342021347  0.5998028113933813
  0.3920911888265692  0.4897281816782169  0.6991412092818621
  0.4033896496205855  0.6124329910920494  0.7993473291542941
  0.4071470753326736  0.7161715574617844  0.9052235688991530
  0.4016209761354901  0.8136601737600344  0.0124116159683254
  0.3924413878807869  0.8995736377433161  0.1074439608490039
  0.4083284781700200  0.0214880426701853  0.1946361060156150
  0.4878388720994167  0.1110461739799860  0.3947493003409193
  0.4953453900802813  0.1792948294292316  0.5042594329704144
  0.5010941471461550  0.2824973707247338  0.6038491833278314
  0.4942251578137018  0.3977558926646836  0.6806154853183770
  0.4991754439678857  0.5025835768173295  0.7999975779170825
  0.5065785456944880  0.5982928692400762  0.9029705254591462
  0.5027675988122766  0.7002887033982148  0.9999286180578437
  0.5075847267128566  0.7994454644231794  0.0978833933795258
  0.5006452457934643  0.9079433669855916  0.2043647830199049
  0.4820837043879891  0.0132304053667625  0.2944670924887305
  0.5908381827779579  0.0940058475750547  0.5081823530188032
  0.6022741471461543  0.1927908703398202  0.6101904176839312
  0.5806754232926394  0.3030194831188808  0.7074345817661936
  0.5887068716595181  0.4071453271747529  0.8003359608490044
  0.6051626319146592  0.4927114712416127  0.9161488459254343
  0.6170768160123146  0.5948845956230073  0.0038478455955158
  0.6002271386781075  0.6886224330803898  0.0965607341911365
  0.5992866622676800  0.7853205555922145  0.1991397972066409
  0.5783505536126725  0.8915654239524926  0.3129768072143406
  0.6011037593753414  0.9969722353458721  0.3942685573518077
  0.6941197835697821  0.1127761614428664  0.6121349737160457
  0.6934975598812301  0.2049921926756824  0.7039761262509643
  0.6958628043549950  0.3190895158913420  0.7973560989772324
  0.6965918917848910  0.3934336597382568  0.8996021361486868
  0.7115614622236919  0.5012833533487324  0.0078031509952723
  0.7030579315957297  0.6027309270867676  0.0994706327944570
  0.6996253482898922  0.6880934217529955  0.2019217402397473
  0.7002539993401484  0.7952975308479040  0.3059447275926530
  0.7054487935774745  0.9131929761354911  0.4061106266358721
  0.7177673119982373  0.0122518451556175  0.5114372449136724
  0.7913387031782690  0.1118560695040145  0.6957074686022224
  0.7885522705377781  0.2049425712086190  0.7993897428791357
  0.7967927592653723  0.3029390902892359  0.8916026631474736
  0.7935381942153299  0.3826865751677104  0.9989702214890599
  0.8053930724733291  0.4956988021555020  0.0804936025514138
  0.7959661563840328  0.5875277272627315  0.1856440831408790
  0.8099746006818407  0.6802888058946408  0.2917748571428547
  0.8132884926866808  0.8034607249532613  0.4078420464093284
  0.8054794012977027  0.8969111985043412  0.5102034268118345
  0.8117148127130775  0.9967899518310759  0.6027360092378728
  0.9118826539096005  0.0952358860662059  0.7789594558451540
  0.9223544313207981  0.1913773315737402  0.8776982140107776
  0.8914873414714606  0.2854762753766664  0.9807602810953497
  0.8858702395249125  0.3816745993621495  0.1037270709336866
  0.9164380868800208  0.5075051186627064  0.2077719863631344
  0.8974869121302120  0.6102817182448064  0.2973704383591809
  0.9156942038931035  0.7089561882766944  0.3924173262949537
  0.9090485846255376  0.7884289620587239  0.5029465386561114
  0.8989334116353263  0.8884203435609805  0.5894840193555453
  0.9055433493896388  0.9904953590674168  0.6865723871109637
  0.0249119498515356  0.0818460072583278  0.9073364086660050
  0.0065783886506097  0.2078825140217759  0.9965094485868278
  0.9875165269987889  0.2930697292422764  0.1107665742879149
  0.9834711004069092  0.3892586173979993  0.2021990528978321
  0.0042582302870358  0.4955664286813999  0.3043389745958436
  0.0184653298141413  0.6018776122291882  0.3972370438799047
  0.0215791839876829  0.6945259852633896  0.4987112715275472
  0.0137789037721348  0.7895962582206124  0.6020824709116894
  0.9957069776751339  0.8998087935774777  0.6937132845045610
  0.0088635838557138  0.9997736724953228  0.7905162415044558
  0.1951005753876629  0.2026114567249522  0.0170790533377314
  0.1997607575057714  0.2976259637083487  0.0985672587704798
  0.1956782760365101  0.3985739540305744  0.2150113199164210
  0.1994275680193525  0.5094126730451976  0.3037581709006929
  0.1868302461233924  0.6001563703948065  0.4001012110414592
  0.2108542008138130  0.7020851384581519  0.4899242797756500
  0.2069923470801740  0.8121036740349723  0.6090820785219364
  0.1987109728362455  0.9077858071043678  0.7013094930166091
  0.1926812462333629  0.0047647957769712  0.7864945923237627
  0.1966700917189073  0.0966840074782809  0.9224152134609014
  0.2931288177719154  0.1911092757065873  0.0885533324535359
  0.2898650469591999  0.2892854120752233  0.1889350348619843
  0.2989216434620019  0.3861025558121653  0.2950710243044128
  0.2910994549653552  0.4880890434400058  0.3810974701418672
  0.2941158482349095  0.5995709438029238  0.4855783319036604
  0.2880091344990632  0.6855905729682163  0.5997041834378081
  0.2821401372484331  0.7960258783679777  0.7037424163642356
  0.2980616641372507  0.9056243813922791  0.8021220741229484
  0.2805640523479624  0.0102681913559906  0.9106173535686821
  0.2946661005168778  0.1099308553832614  0.0071274624436413
  0.3876269218079855  0.1975561156933878  0.1810257142857168
  0.3943440637853328  0.2972997101066781  0.2811258141427473
  0.4141282736170666  0.3852425619707489  0.3730284469372052
  0.3795206009017917  0.4915291283404812  0.4828456500604830
  0.3850590726932808  0.5989888556032099  0.5906401799186156
  0.3891941458264583  0.7087032182997888  0.7014930495985894
  0.4059578370174890  0.7972639085010442  0.7944381840976575
  0.3871378656109101  0.8978226121192137  0.9078728041350459
  0.4024237470581795  0.0054020010997462  0.0060696139887852
  0.4075215453645669  0.1089168358077615  0.0951927825800070
  0.5022593889805336  0.1860078689101528  0.2867170610359651
  0.5065727610249624  0.2770537318816650  0.3880210399208153
  0.4990753313537866  0.3950135506433554  0.4919607539865822
  0.4966486149785538  0.5135720017595986  0.5955226578686919
  0.4895962960519071  0.5926396467612420  0.6958550414604616
  0.5226947291322972  0.7097247509072915  0.8003924852084054
  0.5074931798086411  0.8102848753986578  0.9007787880787390
  0.5119685393159585  0.9031369013526884  0.0089101999340144
  0.4966438389970307  0.9890070194655252  0.1011546103596146
  0.5060458220609263  0.0861924654129567  0.1931916639172968
  0.6099573786429104  0.1982520787418878  0.3927945105025827
  0.6021063811723337  0.2950597259430339  0.4959050487187966
  0.5978143710546604  0.4088181396678792  0.6026519313757817
  0.5926059280765443  0.5224850460794030  0.6882499747058191
  0.5975840866600706  0.5960375150115453  0.8027926924007502
  0.6088970605960640  0.7084955385461313  0.9108167227537649
  0.6024007161552873  0.8024910841306507  0.0048116274056937
  0.6119178203013291  0.9005365217200065  0.1071627797206673
  0.6015971397778515  0.9973766127790640  0.2171182755966115
  0.6048141858572507  0.0966619021225128  0.2977426825030278
  0.6892714021774964  0.2026175466842659  0.5186192763664366
  0.6858296342241275  0.3022206264159237  0.6053534182338041
  0.6969768265698875  0.4295759326954780  0.7078099232376545
  0.6975954140547671  0.4983662122511845  0.7968301849774519
  0.7044349671175638  0.6061626363136483  0.9008815502034508
  0.7124644662927508  0.7125349820741249  0.9969656760145185
  0.7013813069394033  0.8055601662817580  0.1084207588254671
  0.6929639001429706  0.9072338524139454  0.2094681082151126
  0.7105290715935340  0.9918736333443334  0.3148472939623872
  0.7016701203123290  0.0890621972946235  0.4039675073133182
  0.8007190977675123  0.2144355878148048  0.5996309473221189
  0.8001515103926096  0.3218588329484220  0.7010367016386212
  0.7860781260310148  0.4063166646871252  0.8016144229627216
  0.8009061154734383  0.5064922533817224  0.9255030973276135
  0.7880095114923549  0.6141451591334004  0.0082169946112387
  0.8133653496095903  0.6916430546574261  0.1090565784669550
  0.7986364192235769  0.7971830845705483  0.2083952416144257
  0.8133232600901792  0.9082282239085018  0.2937071800285906
  0.8110671342791136  0.9911606184977444  0.4075325604311004
  0.8174368705597743  0.1171572422742742  0.5171310546574261
  0.8953018981634244  0.2147518293192547  0.7098158262399679
  0.9058539144396818  0.3175976566589682  0.7983387652040008
  0.8883272517321004  0.4089120633454328  0.8960088155724151
  0.8987375845155583  0.4878696047509052  0.0011387937974234
  0.9059287658638482  0.5977110845705482  0.1020689163092499
  0.9198053210161632  0.6839692475530654  0.1916360000000026
  0.8926648450456369  0.7978167539865808  0.2972342826349959
  0.9072662663587394  0.8926215422852763  0.3980978392169803
  0.9013730346420346  0.0020317967667438  0.5137833480699427
  0.9115694587044985  0.1039773834817979  0.6152004381392260
  0.0081332589904335  0.1846522199494132  0.7790605987023014
  0.9925358341581401  0.3021054622236861  0.8892299681073368
  0.9807209761354869  0.3915979421533038  0.0105346297151669
  0.9948438042450221  0.4981395873749008  0.0930978959639290
  0.0104887165951837  0.5750887720224327  0.1918174793797434
  0.0128920972176374  0.7090742562410668  0.2933767381502221
  0.0111146358737457  0.7850924931265837  0.3895920065984839
  0.9851664361596804  0.9096086189376464  0.4915592011437369
  0.0003237290223268  0.0057689295062104  0.6029568784779471
  0.0130980890795129  0.0971846356537966  0.6969822298471371
  0.0999899307159353  0.2074795737380413  0.9031100860002184
  0.0916601944352777  0.3059866596282887  0.0215333592873606
  0.0976235662597631  0.3978907445287589  0.1104369141097550
  0.0806821515451475  0.4976951923457591  0.2004670770922701
  0.0917795873749014  0.5917983081491229  0.2949670419003638
  0.1042228263499396  0.7008527051578142  0.4067155002749345
  0.0900244196634787  0.8120309028923316  0.4987245120422301
  0.1135786996590795  0.8938608063345441  0.5954061427471657
  0.1075734481469297  0.9939663591773922  0.6943291617727922
  0.1130678821071172  0.0908183886506109  0.7938758741889345
  0.3045557672935217  0.2975524359397355  0.9953720382711992
  0.2940649985703274  0.3851990436599593  0.1072682538216227
  0.2916025254591474  0.4883786468712188  0.1956327654239516
  0.2896674690421221  0.5909141761794814  0.2986644231826645
  0.2849113036401647  0.7034410174859786  0.3765831883866682
  0.2981760483888678  0.7998361178928874  0.4836788113933821
  0.3021328841966380  0.9147088736390643  0.6025863235455873
  0.2899286096997713  0.0218765190806138  0.6965362067524481
  0.2855822971516560  0.0916069508413031  0.8160316106895422
  0.2843307146156349  0.2011595587814767  0.9117089154294504
  0.3994354593643479  0.3051110594963191  0.0887892409545827
  0.4009809519410510  0.4041254855383229  0.2005991351589103
  0.4052029006928421  0.4971368644011847  0.2929312262179664
  0.3885398486748031  0.5895321139337923  0.4026347669636010
  0.3924374182338042  0.7091644504563916  0.4839993207962152
  0.4007395451446172  0.8073929827339725  0.6053632548113939
  0.3839881702408476  0.9098212906631460  0.7037358728692382
  0.3969253817222054  0.0052026011217450  0.7964816716155312
  0.4051932097217659  0.1014889044319816  0.8984590506983423
  0.4058461009567793  0.1986135739579922  0.0087245423952496
  0.4960819659078410  0.2876222012537113  0.2028829671175600
  0.5134053716045344  0.3898516995491050  0.2908663433410297
  0.5016906424722336  0.5064329497415585  0.4145317470581773
  0.4760216830528989  0.6130671250412405  0.4889191021664985
  0.4906360299131194  0.6909171635323901  0.6006059144396758
  0.4983061343890896  0.7964137600351933  0.7051703147476047
  0.4828260921588026  0.9128602503024297  0.8035950287033984
  0.4972785844055849  0.0074517527768592  0.9055254763004541
  0.4997091472561337  0.1023728709996732  0.0107792169800973
  0.4979635244693696  0.2179897529968073  0.1063517571758510
  0.6082765291982852  0.2938841882766994  0.2883822839546895
  0.5885197343011086  0.3929604843286043  0.3907919520510248
  0.5793626983393807  0.4832099848234890  0.5041763673155160
  0.5910300288133712  0.6135896988892569  0.5680949416034338
  0.5925083206862425  0.6928682168701172  0.6878484354998378
  0.6108285401957545  0.8063546688661631  0.7916782984713535
  0.5990996282854937  0.9003230251842069  0.8956926932805445
  0.6047770821511023  0.9892579641482442  0.0038967170350830
  0.5999749345650471  0.0949591364786073  0.1120677606950409
  0.6141916982294049  0.1748414842186321  0.2047219395139095
  0.7020879366545714  0.2935032922027929  0.3955950181458263
  0.7015927487077960  0.3870330271637528  0.4851378849664556
  0.6931106429121314  0.4998272702078523  0.5883325313977750
  0.6934695150115502  0.5993521530847872  0.6960072640492712
  0.7038058299791032  0.6970234171340621  0.7950350564170208
  0.6870794334103181  0.8005220455295259  0.9087972708677015
  0.7048965155614226  0.9052416117892861  0.9979396313647868
  0.6973616905311744  0.9926413355328307  0.0885569770152870
  0.7062618145826463  0.0912214336302668  0.2068498018255767
  0.7150090979874619  0.1777333601671600  0.3064705329374249
  0.7876248688001795  0.3174263745738486  0.4957995244693691
  0.7986009004728913  0.3932894670625728  0.5941636665566890
  0.7956188932145594  0.5146079819641471  0.6881118953040826
  0.8060798411965280  0.6028156709556782  0.7949731960849036
  0.8157542953920611  0.6973476713955762  0.9114996238865061
  0.8199654195535047  0.8196036018915649  0.0072051798086434
  0.7953439445727497  0.8955685943033131  0.1014123827119775
  0.8036831857472748  0.9916320686242130  0.2001090865500927
  0.8173307594853156  0.0889240233146396  0.3119663807324287
  0.7976774741009578  0.1994996076102495  0.4010243281645245
  0.9021362542615208  0.3148472372154387  0.5983673889805345
  0.8963822659188381  0.4166098110634522  0.7075447693830412
  0.8960680409105919  0.5059116691960881  0.8114607478280007
  0.8798665470141884  0.6077988193115615  0.9140076238865049
  0.9084486844825719  0.7036228008358094  0.0004964236225646
  0.9078956964698151  0.7877340811613323  0.1076469442428234
  0.8971331578137054  0.9034721346090393  0.1852453944792671
  0.9118268545034667  0.9960183279445758  0.2972863292642671
  0.8916602912130216  0.0978990775321691  0.4157925903442177
  0.8972350053887581  0.2102147924777285  0.5123368846365324
  0.9962310982074101  0.3237331516551194  0.6949113115583430
  0.0009417103266216  0.4153580230946901  0.8144815620807222
  0.0018141528648385  0.4988524548553812  0.9255866710656520
  0.0024476190476221  0.6070443092488702  0.9821317241834393
  0.0075844997250627  0.6902977169251088  0.1012492303970092
  0.0112817428791345  0.8093107801605655  0.1940354611239385
  0.9884697019685476  0.9072574872979189  0.2918860653249737
  0.9880226860222123  0.0067438385571350  0.4155005437149484
  0.0003234923567561  0.1103847909380846  0.5121749147696022
  0.9990120840206771  0.2165520171560544  0.5968430537776328
  0.0960927720224376  0.2963838957439791  0.8033219535906753
  0.0996539509512786  0.3922941810183644  0.9119119150995303
  0.0998935515231523  0.4785045371164642  0.0021791193225553
  0.1081525833058379  0.5717507212141228  0.0929225514131744
  0.1138808226108026  0.6978501062355633  0.1953793810623523
  0.0843043818321760  0.8055056038711115  0.2923029526008989
  0.0812878227207747  0.8946095686792006  0.3937758306389512
  0.1061996366435736  0.0112375572418344  0.5022809932915422
  0.0975789354448509  0.1025644442978120  0.6087268109534776
  0.0969673590674134  0.2164671377983041  0.6865906442318277
  0.1927341849774535  0.3051378185417377  0.9148529620587240
  0.2066741880567449  0.3850777142857140  0.9835398139227962
  0.2018809752556905  0.4893017842296246  0.1076515561420877
  0.1926712851644155  0.5954724051468148  0.1932869794347312
  0.2013580112174225  0.6915129897723489  0.2976834378093045
  0.1894279806444530  0.8036348109534828  0.3854340433300365
  0.1956560021994918  0.9042678904651922  0.4929897969866914
  0.2053031285604305  0.0043325916639176  0.6032421607830187
  0.2081321024964282  0.0989622588804551  0.6922575207302302
  0.1837885155614174  0.1977997765313972  0.8064439731661750
  0.4067271105245780  0.4146821101946543  0.0192097811503373
  0.4063795996920732  0.4937241310898486  0.1179266732651456
  0.4008982324865258  0.5961828144726695  0.2104811542945129
  0.3846952108215120  0.6993151562740536  0.3025213940393741
  0.3854802036731542  0.8006276458814483  0.3843092427141741
  0.3776352482129113  0.9090035447047171  0.4935416342241297
  0.3929835209501817  0.0102119494116337  0.6026491828879372
  0.3820853465302960  0.1144156608380058  0.6997584000879797
  0.4040790801715630  0.2167430265039059  0.8091168344880657
  0.4104687328714363  0.2927798979434755  0.9077931912460144
  0.5036430990872134  0.3981693196964713  0.1136604601341702
  0.4990872424942268  0.5054534560651049  0.2076892453535706
  0.5097547696029920  0.6043880765423921  0.3187458220609258
  0.5025848630814878  0.7162051604530930  0.3983478856263076
  0.4845519551303212  0.8018305012647104  0.5125085635103943
  0.4807303763334403  0.9092264832288564  0.6045551034861987
  0.4819768318486766  0.0088952222588787  0.6970076621577022
  0.4960857032882444  0.1161127658638534  0.7901385316177283
  0.5042627273727049  0.1849077083470831  0.8957185127020750
  0.4892828355878152  0.3026377648740777  0.9966167179148826
  0.6017789310458568  0.3951382250082460  0.2057928872759263
  0.6006456931705699  0.4856982487627874  0.2955413091388976
  0.6017245353568654  0.6205590744528777  0.4004169123501597
  0.6030304304409952  0.7035570627955536  0.5093802120312318
  0.5924300169361061  0.8035241170130902  0.6084276938304214
  0.5954296702958288  0.9111906552292979  0.7038465588914562
  0.5764071897063658  0.9952302324865272  0.7930757035081939
  0.5937836977895117  0.0972657129660206  0.8883269913119989
  0.5820208261299911  0.2032727751017234  0.0009899293962405
  0.5991193432310595  0.2948757611349393  0.1037875587814767
  0.7039948443857895  0.3895223543385029  0.3037474096557773
  0.6925520910590564  0.5022647575057704  0.3966389028923345
  0.7116489686572081  0.5868053064995067  0.5051836964698140
  0.7179403981084320  0.7003206048608845  0.6014158183217830
  0.6869429385241403  0.8025696614978557  0.7067058519740428
  0.7068843778730880  0.9125468254701445  0.8040019302760371
  0.6973400237545349  0.0071271443967902  0.8980467849994511
  0.7044880633454298  0.1106232640492664  0.9837052818651699
  0.6965112073023221  0.1807490896293871  0.0911077835697824
  0.7067332312768073  0.2776614828989352  0.1932245371164640
  0.8072523681953143  0.4044269921917945  0.3980205855053356
  0.8088321829979108  0.4920503780930403  0.4937057763114510
  0.7907144102056520  0.5929011982843946  0.5836196322445844
  0.8051020657648706  0.6963162978115065  0.6937900807214348
  0.7985486928406473  0.8003927579456729  0.7963163884306610
  0.8130771965248016  0.9080916027713641  0.8886577745518522
  0.8043244645331598  0.0089328987132973  0.9813993480699423
  0.7991783393819389  0.0941732022434820  0.0951334710216685
  0.8163977041680397  0.1912063336632599  0.1937631611129405
  0.8149128802375429  0.3097178005058865  0.3045952768063316
  0.9137287258330602  0.4079467498075431  0.4941116120092346
  0.9041076898713314  0.4890896887715854  0.5982874479269782
  0.9052456518200813  0.5997275935334869  0.6919627506873383
  0.9136335031342782  0.7024440510282659  0.8143275178708862
  0.9019138356977905  0.8152989262069710  0.8892774780600448
  0.9115139540305748  0.8937850755526213  0.9942586129990119
  0.9021412106015632  0.9933502395249079  0.0907868518640740
  0.9036537754316498  0.0971956964698109  0.1821273977785083
  0.9061756867920394  0.1838204566149813  0.3069445182008153
  0.8984066468712228  0.2954406554492479  0.3934208155724193
  0.0052979197184655  0.4120216601781621  0.5845861836577555
  0.0059066917408970  0.4989604284614515  0.6908232345760439
  0.0048122067524474  0.5994593458704500  0.8045704651930023
  0.0035011578137016  0.7031119155394236  0.9078812040030826
  0.9995919436929483  0.7844023455405278  0.9941965423952510
  0.9943505074232917  0.9086240391509932  0.0854146099197166
  0.9960112451336158  0.0031744286814046  0.1891619645881448
  0.9966299487517887  0.0941691103046267  0.3036535053337701
  0.9965667075772586  0.1906281544044859  0.4031949165291948
  0.9973227383701726  0.3047338396568762  0.4974472988012764
  0.0929544146046410  0.4183491463763360  0.6964507806004647
  0.1010536298251381  0.5059168472451319  0.8056108888155720
  0.1038572088419656  0.6138734534257111  0.9011988655009375
  0.0990150111074470  0.6962068883756700  0.0035095075332663
  0.0910069521610026  0.8101873581876191  0.0923823085890234
  0.0929677936874498  0.8941989877928052  0.1957276265259011
  0.0794219958209581  0.0002147977565130  0.3024647359507284
  0.1084880800615835  0.0979916683162898  0.3979649220279313
  0.0943840554272484  0.1997867414494650  0.4935336403827151
  0.1038133368525251  0.3199668355878131  0.5868604979654677
  0.1932584234026180  0.3931639159793221  0.8013767016386240
  0.2126439960409101  0.5024729202683389  0.9040858642912113
  0.2004218154624411  0.5986882388650585  0.0041674166941590
  0.2057997092268806  0.6922841777191238  0.0944264071263632
  0.1795167790608190  0.8051159762454603  0.2118311707907168
  0.1865974622236877  0.8993802520620235  0.3011945844055859
  0.2040737239634893  0.9973206853623680  0.3886193511492380