Li 
 1.0000000000000000
    22.7325000000000017   -0.0000000000000006    0.0000000000000000
    -0.0000000000000006   22.7325000000000017    0.0000000000000000
     0.0000000000000006    0.0000000000000006   22.7325000000000017
 Li 
 500
Cartesian
  0.2361365400000000  0.0013220600000000  0.2767806700000000
  0.2665448300000000  2.1433733099999999  1.5916266800000001
 -0.1921401800000000  3.8204493799999999  4.4398425399999999
 -0.1171864700000000  6.4070906399999998  6.4862433900000003
  0.1000425200000000  9.1056691199999999  8.7915265199999997
  0.3049843800000000 11.4525889599999999 10.8936448499999994
  0.2634017600000000 13.3485902500000009 13.4301869600000003
 -0.0755844600000000 15.8630447399999994 15.9318691300000008
 -0.0966795100000000 18.1782742599999985 18.2417892600000009
  0.1638064300000000 20.6472710600000013 20.1415851900000007
  2.0714508199999999 -0.2468650600000000  2.6170785099999998
  2.0285533199999999  2.0322386300000002  4.2340463300000000
  2.5397164100000000  4.0662639299999999  6.7903780500000002
  2.0636080099999998  6.7743099300000003  8.6454468200000001
  2.4499738600000001  9.3364892499999996 11.0629528100000005
  2.5991732200000000 11.1531966199999992 13.6907265200000001
  2.4281422500000001 13.5207739599999996 16.0517884200000012
  2.3605665800000000 15.6382778899999995 18.2630926100000011
  2.4639087100000001 17.8141310900000001 20.2151181099999988
  2.1921012300000000 20.5212568500000003 22.6462197799999991
  4.4608702200000003  0.2671114100000000  4.9407173100000001
  4.6330575100000004  2.2136470199999998  6.8191677100000003
  4.7135793899999996  4.8269570799999997  9.2643699500000007
  4.3011393499999997  7.0345646899999998 11.1329420500000005
  4.8226680499999999  8.8732170000000004 13.6489827800000008
  4.7000670700000002 11.3163833999999994 15.9564796500000003
  4.7081566500000003 13.4525948999999994 18.0883894800000000
  4.7295042499999997 15.8188149800000009 20.5241475300000005
  4.7992436600000001 18.1363001399999995  0.0679120200000000
  4.4281843099999998 20.5834589000000001  2.5144238500000000
  6.9824931799999996  0.1043568100000000  6.4924890199999998
  6.8770671400000003  2.4920684000000000  8.8925330599999999
  6.8186341300000004  4.6685347100000003 11.3097045999999999
  6.9337674199999997  6.9597583099999998 13.7385435900000008
  6.7514657400000004  9.3485900700000002 16.2067324799999994
  6.8450827199999997 11.2584291800000003 18.6348487200000008
  7.1826190600000004 13.7896488599999998 21.0073853899999996
  7.3789262600000001 16.1202070900000010  0.4566377700000000
  6.7110304899999997 18.1177142899999986  2.3423970700000001
  6.7375478500000003 20.2884942499999994  4.3642996800000002
  8.8695672699999992  0.1973730800000000  8.8265204700000002
  9.0470655799999999  2.3944372000000000 11.4645581799999992
  8.6781972399999994  4.6210077500000004 13.3434194300000009
  8.9550253600000005  7.0579403599999999 16.0316767400000018
  9.6913701200000002  9.1811301200000006 18.3727920400000002
  8.8284606199999995 11.4571647300000006 20.9574975899999991
  9.2069284499999995 13.8688366700000003  0.4438345000000000
  9.6738552999999996 15.9976781700000004  2.4590736999999998
  9.1154293299999996 18.0673505699999986  4.8601611399999998
  9.3122644500000007 20.5576177899999983  6.7190778000000000
 11.0521341999999994  0.3673774500000000 11.2136188899999993
 11.1343060299999994  2.5845838500000000 13.8960858100000006
 10.9125747600000000  4.9513458699999999 16.2944308000000007
 11.6730127800000005  6.6148073099999998 18.3776458699999985
 11.0464055499999994  9.2017286200000008 20.7278130900000015
 11.9861336999999999 11.2933502899999993  0.4913942900000000
 11.6669035799999996 13.3241868799999992  2.4913735300000002
 11.4069850200000005 15.7696495300000006  4.7461699800000003
 11.2871868699999993 18.0266093299999994  6.9574288500000003
 11.2823896300000008 20.4470042099999993  9.5105407599999996
 13.5889816499999991  0.1799479700000000 13.6171836699999993
 13.7850358600000007  2.1540346300000000 16.0810974800000004
 13.7049175200000004  4.3898445400000004 18.0230107199999985
 13.4394648799999992  6.7265784499999999 20.4290392599999997
 13.6434468399999993  8.7712542700000000  0.1265604300000000
 13.7899707300000003 11.6501936100000005  2.4264659700000002
 13.7783636999999999 13.8164453700000003  4.7480459499999998
 13.6473708800000004 15.9723598199999994  6.6983579200000003
 13.2936000199999995 18.3173421800000007  9.3794308399999995
 13.4956677500000009 20.7539410500000017 11.6421654700000001
 16.1276468999999985  0.1367901800000000 15.9715979600000004
 15.9574809999999996  2.2471168100000001 18.3309273700000013
 15.6299225600000007  4.8446206700000003 20.5051696999999997
 15.9668440100000009  6.6644265699999998 -0.0390710500000000
 15.6228045200000007  9.0345642300000009  2.3948374399999999
 15.5988182500000008 11.2639587999999993  4.7597922400000003
 15.9126618000000004 13.7212883300000001  6.9827997200000000
 15.9461987900000004 16.1931943800000013  9.4895134599999995
 15.8676484299999991 18.4687576600000014 11.5026266400000008
 16.0560887600000015 20.5879469899999989 13.7341485599999995
 18.1499273300000006  0.1761332900000000 18.1563162899999995
 18.3723860099999996  2.2629353000000001 19.9475577699999995
 18.3667056600000009  4.5717451200000001 -0.4688722900000000
 18.0914871400000017  6.3015010399999998  2.0681976999999998
 17.7352362300000017  9.1506833899999993  4.3929595199999998
 18.1654002500000011 11.4536744600000002  6.8157518599999998
 18.1397744500000009 13.5970994199999993  9.4090738700000003
 18.3690545699999994 16.0504012500000002 11.6820593400000003
 18.4522848500000016 18.2879766900000007 13.7237179200000003
 18.2375861899999983 20.2870012600000003 16.0937120100000008
 20.3854352600000013 -0.1255355900000000 20.2759622200000003
 20.3632842799999985  1.9509356499999999 22.7243546700000003
 20.8801210600000005  4.0684097799999996  1.7517958600000001
 20.4933675899999983  6.4154253800000003  4.6987891599999996
 20.3598928100000016  9.0859533700000004  6.6352598000000000
 20.6080401500000008 11.5819019900000004  8.8681579799999994
 20.4994322800000006 13.6527301300000001 11.3510568099999993
 20.5297637900000005 15.8132858699999996 13.5148062400000004
 20.1440224900000011 17.7756012800000001 16.0865050899999993
 20.5421922600000002 20.7227246500000000 18.0604467699999987
  2.4676231099999999  2.3588863299999998  0.0642562200000000
  2.0714795600000002  4.4580802000000004  2.5726652699999999
  2.3243571699999999  6.3298091400000001  4.4868365600000004
  2.2585440499999998  8.9005709399999997  6.4210522900000004
  2.3261779499999999 11.3354811099999999  8.8770754499999995
  2.6634909400000000 13.4823447999999999 11.3595802799999994
  2.8398577199999999 15.9427033700000003 13.5060816199999998
  2.2874647600000002 17.9620047300000003 16.0791913300000004
  2.4687365899999998 20.4769084899999996 18.4115532299999991
  2.4811473099999999 22.5922535199999999 20.4973202199999989
  4.3383884200000002  2.1399347199999998  2.4983140599999998
  4.5499776900000004  4.2942865000000001  4.3907382500000001
  4.4358216700000002  6.6916684699999998  6.9990546199999999
  4.4398405099999998  9.1446182500000006  8.8426378099999994
  4.9547636400000004 11.6733593899999999 11.4251236899999995
  4.4072254700000002 13.5457623799999993 13.5934693699999993
  4.6862316899999996 15.5988609000000000 16.2825658000000004
  4.3520269699999998 18.2794712799999992 18.3122723699999987
  4.8474957999999999 20.4948392000000013 20.7200833399999986
  4.2879130400000003 22.7290887599999998 23.0583999199999994
  6.6386270200000004  2.6281691500000002  4.3781262600000002
  6.5688485300000004  4.1550638900000001  6.5706054299999996
  7.0222661999999998  6.8317954600000004  9.0370013599999997
  6.8977953999999997  8.6734077900000006 11.0570432899999993
  6.9111722200000001 11.4185689400000001 13.3822022799999996
  6.7591164700000004 13.4932379099999995 16.0056192199999998
  6.9078051199999999 15.8023695899999996 18.3793533800000013
  6.8036062399999997 18.0677255000000017 20.3232952000000004
  6.7619404599999999 20.4772533800000005  0.0080544300000000
  6.6956064499999997 23.0620393999999997  2.3827227899999999
  8.8780494099999991  2.6063122999999999  6.5435518300000002
  8.8965386899999999  4.6352686900000002  9.1432788200000008
  9.3413684799999999  6.6773565699999997 11.4036428999999995
  9.2850715899999994  9.2104141399999993 13.6350174099999997
  8.9132129500000001 11.1327458900000007 15.8932275399999998
  9.1700552099999992 13.9221329699999998 18.1711631599999990
  9.2554708899999998 16.2803699299999991 20.5779947800000009
  9.1298488399999993 18.4965298999999987  0.2821470600000000
  8.9211738500000006 20.4495577200000014  2.4424698399999998
  9.2823271300000005 23.2209769299999991  4.4245652800000004
 11.0897971599999998  2.5243571500000002  8.9736384699999991
 11.2604390799999994  4.0758197100000002 11.4630775600000003
 11.3911227000000004  6.4218714800000001 13.7270015599999997
 11.2349733999999994  9.0419858299999998 15.4720915199999993
 11.3475057800000005 11.4249811599999997 18.1859449399999988
 11.5157967899999996 13.6006926499999992 20.5267774699999990
 11.4291644399999992 15.9193129500000001 -0.0016226900000000
 11.5386697999999992 18.1733940199999999  2.2251342400000000
 11.3809180500000000 20.6398225900000014  4.6457224300000002
 10.9589678100000008 23.0332601900000000  6.6939731800000004
 13.4312289899999993  2.1369879300000001 11.5522553400000003
 13.6911970499999995  4.3826184599999998 13.8711536700000000
 13.2002040600000008  6.8883903999999996 16.0817566300000010
 13.3827789599999996  9.2554311499999997 18.1936372300000002
 13.7568595299999998 11.2005635199999993 20.8263536400000007
 14.0276987200000001 13.5232140699999999  0.0874711500000000
 13.6446634299999996 15.6541094600000008  2.1950668900000001
 13.6232840500000005 17.8522995299999998  4.5269454400000004
 13.1473539600000002 20.2675109999999989  7.1147452700000002
 13.6645912099999993 22.6636713400000005  8.9627099799999996
 15.7790779800000003  2.5636840900000002 13.9153582900000004
 15.7649332799999993  4.6599850199999997 16.0031372900000015
 15.8187011999999996  7.2537024199999998 18.1258975199999988
 15.8352751800000000  8.9437306700000008 20.4502055600000006
 16.1755709400000001 11.3954238300000004  0.1773851300000000
 15.9822644300000007 13.7015808000000003  2.2612161600000000
 15.9042332300000009 15.6420837099999996  4.5901859600000003
 15.9185240399999994 18.0791011200000007  6.9548885199999999
 16.0366147000000012 20.7591593299999992  9.2319098200000003
 16.3166454200000004 23.0110150699999991 11.6262471699999992
 17.9891070699999993  2.5427681000000000 15.8151700300000009
 17.9257644899999988  4.6588570000000002 18.1721273299999986
 18.1130913999999983  6.8865628699999997 20.2683575400000002
 18.0391070000000013  8.6994225699999994 -0.0234094400000000
 18.3085980200000016 11.2684730200000001  1.8298208199999999
 18.0943006500000010 13.3559740599999994  4.2201541200000001
 18.4127476100000003 15.4646652800000002  6.6327719399999996
 18.4880806600000014 18.2646709300000012  9.2712693200000000
 18.3105604900000003 20.3890338200000016 11.5981994000000004
 18.4523069799999995 22.6595275799999989 13.7016963300000008
 20.7293724300000015  2.1649497800000002 17.7076958299999987
 20.9674221100000011  4.3504851899999997 19.9522746499999997
 20.2657359899999996  6.4895894299999997 -0.4373669100000000
 20.1380452199999986  8.6764178300000001  2.3579756399999998
 20.8329288099999985 11.5368601099999992  4.7231766799999999
 20.4021212299999988 13.8732291599999993  6.7599734900000001
 20.8160184900000012 16.1163465499999994  8.9206268699999995
 20.6649469500000009 17.9229613800000003 11.4332321900000000
 20.4350037799999988 20.1960154600000017 13.4004454699999993
 20.5852641900000002 22.5164357499999994 15.6075067900000004
 23.2988108999999994  1.8605643599999999 20.6260249100000017
 22.8820432199999999  4.7256892500000003 22.6531510400000009
 22.4487194499999987  6.6622076200000002  2.5180011499999999
 22.3567567899999986  8.8488215199999996  4.5964899700000004
 22.8293002200000004 11.2654638400000007  6.9183857399999997
 23.1522631099999998 13.6821828199999995  9.0301910999999997
 23.2230488000000008 15.7883119599999997 11.3369539800000005
 23.0457289299999992 17.9494969399999995 13.6868397700000006
 22.6349088700000003 20.4549033999999992 15.7698372399999993
 22.9339914200000017 22.7273550100000001 17.9704104600000001
  4.4351238300000002  4.6058649400000000  0.3882495800000000
  4.5410614200000001  6.7657822200000002  2.2406802099999998
  4.4482564099999999  9.0605824100000003  4.8877448299999999
  4.5334871899999998 11.5802235899999992  6.9051826199999997
  4.2471185699999996 13.6430546899999996  9.0953007800000005
  4.7932431199999996 15.9601504100000007 11.1372036899999998
  4.7054535299999998 18.4611467699999992 13.8459583500000001
  4.5171971900000001 20.6362408600000009 15.9425180500000003
  4.3801264299999998  0.1083157200000000 17.8789883200000013
  4.4708028600000000  2.1978692000000000 20.9688038399999996
  6.6635508500000000  4.3443916099999997  2.0130386300000001
  6.5893571800000004  6.5761806299999996  4.2949656799999998
  6.7952362600000003  8.7770763499999997  6.7077020599999999
  6.6174183600000003 11.0954841799999997  8.6632982399999996
  6.6859885200000004 13.6297464799999997 11.0384094299999997
  6.5471676499999996 15.5851877000000005 13.6327753499999993
  6.4137506699999998 18.0956582799999985 15.9978244800000002
  6.7756867800000000 20.5871062500000015 18.2342400500000004
  6.3779223199999997  0.2334216600000000 20.7006089899999992
  6.6984971299999998  2.4990031699999999 22.8945250400000013
  8.8117289999999997  4.4909444000000001  4.1151670500000002
  8.9644264299999996  6.7583656599999999  6.3906925699999997
  9.4141709799999997  8.7575265400000006  8.4798691700000006
  8.6274520599999995 11.1736859099999997 10.9762887399999993
  8.7533553699999995 13.6165141599999995 13.4267278900000004
  8.8473559200000000 16.1105959100000007 15.9466907500000001
  9.2284365299999997 18.1238017999999990 18.0595660199999983
  8.8006115299999994 20.4097525299999987 20.6382185199999988
  9.1480978299999993  0.1228009900000000  0.1379775000000000
  9.2639835300000009  2.4759519700000001  2.1639699299999999
 11.4176115599999992  4.2284238800000002  6.5177955900000004
 11.5156652899999994  6.2981239599999999  8.8206882899999997
 11.3452299700000001  8.9796455399999999 11.1834978399999994
 11.2900646400000007 11.6747755299999998 13.5377188200000003
 11.1297478000000005 13.4721807699999996 15.8185247300000000
 11.8821579300000000 16.1338179000000004 18.1949221700000017
 11.5365887100000002 18.4198009300000010 20.4769538000000004
 11.6383248199999993 20.5305596100000010  0.2025511200000000
 11.2899560700000006 -0.2498979300000000  2.2994971799999999
 11.5036866500000006  1.9593702200000001  4.3917295000000003
 13.8658561099999993  4.5067653800000000  8.9292012100000004
 13.6873833099999995  6.7074452200000003 11.2731615200000004
 13.5898151899999995  9.2934583600000007 13.6997850299999993
 13.4714142599999995 11.8773913100000001 15.6456425499999998
 13.5845802500000001 13.5494228099999994 18.2494848800000007
 13.8417524299999997 16.1058748300000012 20.7051411499999993
 13.6940742800000006 18.2426285700000008  0.1093803200000000
 13.9104218500000005 20.4714464800000009  2.4360778900000000
 13.6758069800000008 -0.0596361500000000  4.9356412000000001
 13.7489384799999996  2.1973666900000000  6.7684355299999996
 15.6688621500000007  4.6060033799999998 11.7895126999999995
 15.5906221600000006  6.8702303899999997 13.7611965800000000
 15.8440257100000004  9.7653348900000001 16.0902890800000016
 15.8580877499999993 11.3291099200000005 18.1139421799999987
 16.0135678900000009 13.7795921299999993 20.4792898399999999
 16.1960984799999999 16.1977014799999992 -0.0689777700000000
 15.9441505600000006 18.3123964800000003  2.4646748999999999
 15.7528018599999999 20.6236935499999987  4.7617337700000002
 16.1521021199999986 -0.1847326300000000  7.1572661100000001
 15.9507160100000007  2.0246064000000001  9.1831913600000004
 18.2023468900000012  4.8746570000000000 13.6311105099999992
 18.1894442100000013  7.3166559199999996 15.9363168200000000
 17.8695209999999989  9.2365935799999992 18.2226998699999996
 18.2065982700000006 11.5138351500000002 21.0389991599999995
 17.9134262200000016 13.9610548300000001  0.1867928300000000
 18.4898278100000013 15.7227757399999994  2.4791286700000001
 18.1550024000000008 18.1219644700000018  4.7373448299999996
 18.4888710100000004 20.6462980999999992  6.6766984699999998
 18.4375836299999989 -0.2009412400000000  9.2642339299999996
 18.5823836600000014  2.6632770099999998 11.7556817000000002
 20.3524503999999986  4.8818459599999997 16.1358882699999988
 20.5923241099999998  7.2197887300000003 18.1482359799999990
 20.1938992500000012  9.2955934800000009 20.3685204000000013
 20.4305521399999996 11.0904957900000003  0.0258876300000000
 20.5940256700000006 13.5874672299999997  2.3202816400000001
 20.9094744599999984 15.5483309199999997  4.3563653699999998
 20.2925035899999990 18.1363693599999998  6.7568783300000002
 20.6244304000000014 20.2915192100000006  9.0497591300000000
 20.4904625100000004  0.0461878200000000 11.6795799599999999
 20.7222527200000002  2.3636658700000002 13.9850439600000005
  0.1848893100000000  4.1976065900000004 17.7099950600000007
 -0.1696791500000000  6.8676124200000004 20.2144202499999999
 -0.4382604100000000  8.9020002199999997  0.2394784700000000
 -0.1172132200000000 11.3239581699999992  2.1163479199999999
  0.2384347500000000 13.0732055099999993  4.3604908499999997
  0.2930696000000000 16.1190305299999999  6.6691867000000000
  0.2526634600000000 17.8471150999999999  8.8564002899999998
 -0.3372039900000000 20.6776779300000015 11.1743695400000007
  0.0073591700000000  0.1311421900000000 13.7067172399999997
  0.2977523100000000  2.2092497299999998 15.8441485400000008
  2.2730210999999998  4.7165294099999997 20.5299500299999984
  2.0836653699999999  6.9558417400000003 23.2220070900000017
  2.2192277200000001  9.0450513499999996  2.5105071500000000
  1.8341070100000001 11.3138559599999997  4.5571178300000001
  2.0863794699999998 13.4530550400000006  6.7053382800000003
  2.3692454000000001 15.9321341200000006  9.2456601099999993
  2.0464801200000000 18.4594924999999996 11.3372549700000000
  2.5819277899999999 20.3196907799999984 13.5350701400000002
  2.4454134100000000 -0.1371597400000000 15.7838376700000005
  2.5703156300000001  2.0645290200000002 18.0467833099999986
  6.9233139799999996  6.7641107500000004 -0.1052051400000000
  6.6848325800000001  8.7565372600000000  2.4384755800000000
  6.6288544099999998 11.1020675900000008  4.4472218400000001
  6.5848657399999997 13.4329565100000003  6.7893889999999999
  6.4767462099999999 15.9909729299999999  8.5606773300000008
  6.7782870199999996 18.1822745499999989 10.9952285799999991
  6.8682357900000000 20.7936194699999994 13.6982935999999995
  6.5908021200000002  0.4973079700000000 15.8340093199999998
  6.4919995699999999  2.0824550099999999 18.5504385899999988
  6.4635479699999996  4.5728596699999997 20.7254229199999997
  9.0801665800000002  6.9359371599999999  2.0184014200000000
  9.1152994899999999  9.1867826000000008  4.5601198399999996
  9.2112749399999991 11.3011637700000005  6.6590591000000003
  8.8324821100000008 13.4015387799999992  9.1528948400000001
  8.9210836100000002 16.1210808700000001 11.0025145599999998
  9.1098117100000007 18.3540609799999999 13.7614201900000008
  8.7290110799999994 20.6825124900000006 15.9976757299999992
  9.0231062400000006  0.1182681300000000 18.1060195999999998
  9.2110546400000004  2.3070965200000000 20.4242203700000005
  9.2258964900000002  4.5149830700000004 22.9308306600000016
 11.2771832900000000  6.5383716900000000  4.6120370499999996
 11.6709876099999992  8.8623037599999996  6.6121191499999998
 11.4046825300000005 11.5124870300000008  9.4233429399999995
 10.8211629100000000 13.9365484199999994 11.1143534899999992
 11.1533835499999991 15.7062744199999997 13.6532739500000009
 11.3277441999999997 18.1044757999999995 16.0302841799999989
 10.9758441399999995 20.7515956400000015 18.2677239900000004
 11.3043854199999991  0.1693969700000000 20.5848578899999985
 11.3596381900000001  2.3271912900000000  0.2450385500000000
 11.3199558200000006  4.9554520599999998  2.4176413200000000
 13.8276462000000002  6.6807223100000002  6.5556502700000001
 13.3785248600000006  8.9329742099999994  8.8836780500000003
 13.1703625399999993 10.9845709800000009 11.4611892700000002
 13.4355901299999996 13.9484278300000000 12.9142182600000002
 13.4691954000000003 15.7506267399999995 15.6365145600000002
 13.8856597900000001 18.3304575099999987 17.9968269200000002
 13.6190323000000006 20.4665931699999994 20.3613341500000011
 13.7480950199999992 -0.2441933300000000  0.0885821200000000
 13.6389302000000008  2.1586585700000001  2.5475803699999999
 13.9621127800000000  3.9745840399999999  4.6538414899999996
 15.9602140200000004  6.6720635899999996  8.9928637499999997
 15.9489571600000009  8.7982282900000008 11.0283969699999993
 15.7561376899999992 11.3623234199999992 13.3742692699999992
 15.7642957500000005 13.6247728200000005 15.8219851299999998
 15.9992660299999994 15.8450848299999993 18.0731344199999988
 15.6190332200000004 18.1978673999999998 20.6592339600000017
 16.0240600399999984 20.5784049399999986 -0.0468373300000000
 15.8527746300000008 -0.1672808400000000  2.0131214800000001
 16.0550967000000000  2.0736912400000000  4.7022131199999997
 16.2539443199999987  4.0403236099999997  6.9668413899999999
 17.9046823300000000  7.2158950600000002 11.2707626899999998
 18.1541949699999989  8.9404528100000000 13.5068255500000003
 18.0864064900000017 11.6983259499999992 15.6425036599999991
 18.3242099899999999 13.7035072400000004 18.0717281800000009
 18.5441345200000001 15.8524559400000005 20.7206651999999991
 18.6398639000000017 18.6316388800000006  0.1637917500000000
 18.0801562199999992 20.3585130700000008  2.3053569899999999
 18.2697280199999987 -0.1902240000000000  4.5489798099999996
 18.5799714899999984  2.0214653600000001  7.0917757500000000
 18.1332031799999989  4.5351248300000000  9.1162855399999998
 20.5078123999999988  7.1572648200000000 13.6023866699999996
 20.3770098600000011  9.4705825299999997 16.0842614700000013
 20.3698667399999991 11.5006370199999992 18.4465314499999984
 20.0015662799999987 13.8167866600000000 20.7776783099999989
 20.6513097200000004 15.9951053200000004  0.0112849500000000
 20.6387389200000015 17.9071649999999991  2.4470841600000002
 20.3940795100000010 20.5381803000000005  4.2110909300000001
 20.7281039699999994 -0.0905133600000000  6.7580614800000003
 20.2696675699999993  2.2254907799999999  9.4520050599999994
 20.3963947599999997  4.7787077699999996 11.6466982300000002
 -0.0856765600000000  7.3592638700000004 15.7970713899999993
  0.0214074300000000  9.4421262600000002 18.5152021100000006
  0.0412402300000000 11.3401634300000005 21.0408989999999996
  0.0556405000000000 13.7996347600000000 -0.4061905800000000
  0.1724146400000000 15.6921928499999996  2.3016481299999998
  0.2564622200000000 18.3976573099999996  4.4109111199999997
 -0.2621125000000000 20.6242308299999983  6.6352999800000001
 -0.2722742900000000  0.1533043100000000  9.4453661100000001
  0.0073537900000000  2.5093222599999998 11.6430162500000005
 -0.0224578000000000  4.9227687299999996 13.5677347200000007
  2.1844289400000001  6.7375469099999998 18.2615163100000011
  2.2653834399999999  8.9178274700000006 20.7300376100000001
  2.2708301600000000 10.8776043900000001  0.0495368300000000
  2.4585786000000001 12.9973232700000008  2.1123618999999998
  2.5887958000000002 15.8638775400000007  4.4414617800000000
  1.9164493600000001 18.3111561400000014  6.6447768700000003
  1.8478754300000000 20.3367120200000002  8.9515090700000002
  2.4141832399999998  0.2554577700000000 11.4181026800000005
  2.2182131500000000  2.3315462299999998 13.8378822300000000
  2.2043104900000001  4.9208392099999996 15.6079218199999996
  4.3813298600000001  6.9365454599999996 20.7968949599999995
  4.6982209800000003  8.7537791400000007 22.3583188200000009
  4.5892592700000003 11.1230528100000008  2.4471889999999998
  4.3798999900000002 13.5365764500000001  4.3938962600000000
  4.5773709900000004 15.7198190400000009  6.7670887500000001
  4.3061715700000001 18.2686283399999994  8.7618793900000007
  4.4477500699999997 20.5562698200000007 11.2068905599999997
  4.6670533699999996  0.0984906400000000 13.7132024200000000
  4.7313630199999999  2.2496595500000001 15.7367440900000002
  4.1779724299999996  4.4964834199999997 18.3324876199999984
  9.2459240400000002  9.4267610699999995  0.4366863500000000
  9.2380242500000005 11.2235838099999992  2.6807680999999999
  9.1134190700000008 13.5527258300000000  4.7847628400000000
  8.7450838799999993 15.8971817899999994  6.8770675900000002
  8.7629287300000005 18.2002679600000015  8.7363098600000004
  8.5845932800000000 20.6639230800000000 11.2194351999999995
  8.9334978899999999  0.2321431400000000 13.6997225500000006
  8.6857551399999995  2.6009540100000001 15.9072578300000007
  9.1857276900000002  4.9271108500000000 18.3932484400000007
  9.3309804700000001  6.6556190300000004 20.6364087199999986
 11.4490667500000001  9.0513840600000002  2.5837864100000001
 11.3455007400000003 11.4902206899999992  4.7212957700000002
 11.5880002999999991 13.7392519499999999  7.2458894000000003
 11.4250103999999997 16.2811338100000000  9.0554433099999994
 11.0150773199999996 18.2276118700000005 11.6506009200000005
 10.9282032800000000 20.6689910300000008 13.7430488900000007
 10.9565383300000008  0.2022106400000000 15.8447266800000008
 11.2772682500000005  2.6395334500000001 17.9618241699999999
 11.4631524500000008  4.2034144800000002 20.3619210899999992
 11.1226220599999994  6.8797129899999998 22.6555895400000011
 13.6799395500000003  8.9824797000000007  4.6781868099999997
 13.6541782200000004 11.0411354399999997  6.7183928100000001
 13.6787030000000005 14.1068591600000008  9.1024774599999994
 13.7083892600000006 15.9936109299999991 11.5794856700000004
 13.4674153600000004 18.2661119899999989 13.8310825499999996
 13.5356049800000005 20.7136415700000001 16.0001919000000008
 13.1031764400000004 -0.1084287400000000 18.0285934300000008
 13.4981879100000004  2.2110928200000002 20.1938933300000016
 13.2307884300000005  4.6208983600000000  0.0225035700000000
 13.6194804699999992  6.7032632400000001  2.3593506799999999
 16.0035628000000010  8.8548169199999993  6.9049379899999996
 15.7434404099999998 11.4177336000000000  9.0165938600000004
 16.1775601800000004 13.3395516300000008 11.4840883799999993
 16.3205801000000008 15.9200381499999999 13.6716850900000004
 15.6159303499999993 18.2444148300000002 16.0651907799999982
 16.0692491199999985 20.7444707100000016 18.2769738799999999
 15.8522820899999992  0.1620178100000000 20.4148485400000013
 16.0147748999999990  2.5147433499999998 -0.3704196800000000
 15.8334410200000004  4.1088786800000001  2.0711076899999998
 16.0658131799999992  6.3119396600000002  4.3924767899999999
 18.3508644600000004  9.1936365999999996  9.0480029599999998
 18.3867775999999985 11.1855352200000002 11.2231665599999992
 17.9749153300000017 13.4781264899999993 13.2671332900000003
 18.3019827100000008 15.8290102400000006 15.7715830100000005
 18.1530081599999988 18.1949283699999995 18.1022622999999996
 18.4832773699999997 20.6431923600000005 20.2014128600000014
 18.2843058899999988  0.2030671200000000 -0.4228393200000000
 18.1673216000000011  2.1407923200000001  2.1626216299999999
 18.5587608099999990  4.3465979800000003  4.4047210600000000
 18.5250070499999993  7.0406598999999996  6.9242121299999999
 20.7713382600000003  9.2736494900000004 11.2323922199999995
 20.5526280600000000 11.1182313500000003 13.6005694100000003
 20.5784967799999983 13.6333075200000007 15.7300432299999997
 20.7691736099999993 15.9683093899999999 18.5117003000000011
 20.5027562699999990 18.5337828400000006 20.2155002699999997
 20.7209909600000017 20.3179692299999992 -0.1305160800000000
 20.5079250699999989 -0.1511656800000000  2.0638121100000002
 20.5423094500000012  2.2095011699999998  4.1402110700000003
 20.5996388000000010  4.1786985300000001  6.9776162599999996
 20.4230291000000008  6.7161046999999998  8.9434386900000007
  0.1204349600000000  9.3662823900000003 13.2891054200000003
  0.1342738700000000 11.3426179400000002 15.7041391800000003
  0.1093934900000000 13.6272095800000006 18.2898980999999985
  0.0795900700000000 15.9834916200000006 20.6384094699999991
 -0.0092761400000000 17.8314263199999985 -0.1319271000000000
 -0.1284270900000000 20.6552959700000009  1.9416876199999999
 -0.0906743700000000  0.0721627000000000  4.3001243599999999
 -0.0766096900000000  2.1406993000000001  6.9028033100000004
 -0.0780473200000000  4.3334545200000001  9.1656284400000008
 -0.0608608500000000  6.9273620100000004 11.3082207199999996
  2.1130862300000000  9.5101219700000001 15.8320673700000007
  2.2972016399999999 11.5007547300000006 18.3135495299999995
  2.3609339999999999 13.9548782800000009 20.4865032099999986
  2.2508587400000000 15.8265230900000002  0.0797798800000000
  2.0688155400000001 18.4175841200000008  2.1000808300000000
  2.1133903699999999 20.3273784900000010  4.4493782700000004
  1.8054605200000000  0.0048828900000000  6.8757796100000004
  2.4662052800000001  2.2275955999999999  9.0467375899999993
  2.1455855399999999  4.5416521000000003 11.2192534800000008
  2.3599366800000001  7.2736460899999997 13.3408062699999999
  4.3932471099999999  8.9375987200000004 18.2172958700000009
  4.8339296400000000 11.4224656600000003 20.5521319099999999
  4.5560889199999997 13.6096803899999994  0.0947358000000000
  4.6783418899999996 15.7373500699999997  2.1465483000000001
  4.0808651800000000 18.3022989299999992  4.8154520900000000
  4.2418268100000001 20.4451615800000006  6.8469058900000004
  4.6391059300000004 -0.0609075200000000  8.8342893999999994