Li                                      
   1.00000000000000     
    20.0207999999999977    0.0000000000000000    0.0000000000000000
     0.0000000000000000   20.0207999999999977    0.0000000000000000
     0.0000000000000000    0.0000000000000000   20.0207999999999977
   Li
   432
Direct
  0.9702254680132683  0.0053029948853194  0.9645924853152721
  0.9229983187485047  0.0920286292256023  0.0900142207104579
  0.8442412910573012  0.1957858971669495  0.1730157720970169
  0.7537426636298221  0.2452456280468311  0.2821560861703816
  0.6841211704826975  0.3352076780148678  0.3548532391313017
  0.5683283645009212  0.4324644140094307  0.4096245884280378
  0.4907183194477724  0.5005725865100317  0.5228159728881963
  0.4010727373531537  0.5868749170862273  0.5878210191400939
  0.3554017401902030  0.6834247842244068  0.6698877037880635
  0.2573140219172032  0.7559944312914553  0.7471775048949070
  0.2033199882122574  0.8332179073763299  0.8213844606609157
  0.0723037191321012  0.8966218872372735  0.9245681346399763
  0.0753326984935683  0.8984234566051299  0.0812553469391801
  0.0041193328937936  0.9974574922081061  0.1515198268800475
  0.9159112937544975  0.0704274604411381  0.2390414713697737
  0.8696064358067588  0.1934141367977276  0.3475109790817541
  0.7741642616678632  0.2499125279709133  0.4341473517541772
  0.6601715945416800  0.3397273405658083  0.5185502287620878
  0.5689851144809381  0.4072554962838666  0.5855909184448151
  0.4920111234316309  0.5183465750619334  0.6620095086110425
  0.4073560222368755  0.5698216065292101  0.7623605020778399
  0.3436673409653963  0.6461998072005102  0.8234602043874375
  0.2790526892032261  0.7448661851674245  0.9282246808319314
  0.1735141367977278  0.8141888411052491  0.0086605899864125
  0.2040832738951508  0.8400750149844143  0.1658892666626741
  0.0745174203828043  0.9233121933189494  0.2442275513465972
  0.0018763650803137  0.9917616958363311  0.3235454821985115
  0.9215035922640453  0.0714563159314281  0.4231675986973542
  0.8560672735355226  0.1935673214856521  0.5455051940981406
  0.7512992253056794  0.2631080940821562  0.6276379410413142
  0.6618940886478057  0.3630092423879177  0.6823618022256852
  0.5712080731039748  0.4149163015463913  0.7657579537281194
  0.5019402796092081  0.5056985565012369  0.8178232208503147
  0.4203379899904078  0.5754507312395134  0.9147491199152853
  0.3519925592383899  0.6451917106209564  0.0318027101814096
  0.2927811061496044  0.7437862418085217  0.0996677045872261
  0.2610827819068149  0.7573943973267774  0.2571531901822084
  0.1756895144050219  0.8495429478342515  0.3024845081115615
  0.0681764609805811  0.9268464142292032  0.3931336470071116
  0.0241956794933245  0.9957735170422737  0.5223374270758399
  0.9321676366578728  0.0787421077079813  0.5913229711100456
  0.8204760149444610  0.1513568428834020  0.6596400223767276
  0.7506722968113166  0.2347178434428230  0.7321993496763355
  0.6742232183529140  0.3103835675897102  0.8552081929793047
  0.5673197134979588  0.3960464491928377  0.9010304443378914
  0.5073025008990655  0.4809050867098250  0.9993235584991638
  0.4385050822144976  0.5766537960521063  0.1056704317509798
  0.3532581884839772  0.6675021113042447  0.1704047250859091
  0.3368745719451738  0.6766144195037143  0.3381154594221982
  0.2457629000839106  0.7531694597618497  0.4055435621953194
  0.1361031247502567  0.8296011118436795  0.4832684553064794
  0.0992602907975737  0.9042784813793645  0.6128876198753304
  0.0021919288939500  0.9920095096100070  0.6729348652401512
  0.8877495959202406  0.0640154184647983  0.7333909978622231
  0.8305750534444201  0.1604652501398576  0.8098549288739747
  0.7279581215535842  0.2483616563773694  0.8903026887037484
  0.6869585271317860  0.3492800112882577  0.9989298984056560
  0.6083795212978487  0.4102407451250727  0.1099320376808137
  0.5022819677535395  0.4810475685287301  0.1784311486054477
  0.4050674678334545  0.5723663949492561  0.2601934203428442
  0.4127463537920590  0.5779067794493713  0.3936452749140926
  0.3330116928394489  0.6771609795812381  0.4924829517302030
  0.2649667470830366  0.7755348527531396  0.5474749295732408
  0.1711315292096245  0.8207753880963793  0.6564528135738854
  0.0898679428394473  0.9368985525053972  0.7780078997842281
  0.9579787191321003  0.0065399904099763  0.8540783679972819
  0.8887651547390689  0.0978748856189569  0.9217415457923792
  0.8102898270798349  0.1590039204227622  0.9871537615879475
  0.7513890289099336  0.2571932320386807  0.1090451934987584
  0.6755082474226839  0.3363613736713802  0.2117278815032364
  0.5566313948493544  0.4062736763765713  0.2800279304523272
  0.4868084686925584  0.5172224226804119  0.3358766367977282
  0.0816543484775849  0.0709122852233648  0.9255851869056215
  0.9871569048189883  0.1374059068568698  0.9929157261448083
  0.9161457619076145  0.2575008900743256  0.0832156302445455
  0.8335782266442919  0.3434313089387047  0.1831044229001861
  0.7445758631023764  0.4208123171901192  0.2689012462039457
  0.6529504869935252  0.4993620414768642  0.3365150198793287
  0.5745484910692866  0.5753137117397884  0.4285837464037385
  0.4653171082074650  0.6547982907775918  0.4903467598697375
  0.4357040717653646  0.7524060931631098  0.5757561880644104
  0.3473233472188895  0.8320309428194648  0.6673786477063857
  0.2625638895548619  0.9164460576000977  0.7311234246383762
  0.1806001608327321  0.9879848467593675  0.8602028904938877
  0.1603205101694272  0.9895996333812818  0.9975852703188650
  0.0779272376728173  0.0580353112762708  0.0791860345240920
  0.0108863047430674  0.1690719941261065  0.1675284638975469
  0.9376394304922897  0.2859330166626677  0.2297047620474686
  0.8484151692240047  0.3234544448773278  0.3670916606728980
  0.7331693099176846  0.4308878181691043  0.4321236179373429
  0.6465568533724948  0.4981719726484428  0.5204960301286690
  0.5760788090385986  0.5959433649005064  0.5746525203788053
  0.4809339686725806  0.6570685267321963  0.6650182739950452
  0.4309983072604524  0.7480501263685753  0.7432809248381673
  0.3725369505714085  0.7971062669823397  0.8328851049908081
  0.2793621793334964  0.9022486683848783  0.9267148440621753
  0.2750049233796830  0.9063408904739063  0.0470122697394686
  0.1874837029489314  0.9676143580676069  0.1426340111284290
  0.0846772786302239  0.0849824132901773  0.2272953583273392
  0.9766933973667378  0.1566506168584638  0.3126446200950994
  0.9226303809038612  0.2626948338727715  0.4479132052665236
  0.8165716040318074  0.3429264704707080  0.5403290787580914
  0.7391378621233926  0.4302136263286158  0.6143674198833224
  0.6414546112043453  0.5078365969391854  0.6507541142212077
  0.5856988452009944  0.5999204202629258  0.7506376128825991
  0.4881752891992335  0.6763140049348664  0.8360889005434373
  0.4317734356269511  0.7335901652281649  0.9246868072204890
  0.3525378406457307  0.8186256423319733  0.9850043994245965
  0.3294791147206908  0.8318283130544231  0.1368491039319082
  0.2671362537960533  0.9304483137536934  0.2627709462159373
  0.1785674398625403  0.0031624160872710  0.3273374425597382
  0.0706133141532774  0.0790260678893944  0.4051961934588064
  0.0068229376448485  0.1583362957524201  0.4996736014544894
  0.9377885364221186  0.2748295637536984  0.5959992677615276
  0.8434383541117256  0.3568075751218700  0.6925098787261277
  0.7192835835730875  0.4022946340805547  0.7681099206824911
  0.6624218282985694  0.4907373231838861  0.8402264360065530
  0.5841364121313859  0.5788021667465841  0.8900946645488688
  0.5285004445376842  0.6645899429593243  0.0156457873811249
  0.4477306081675039  0.7488080995764435  0.0783800852113785
  0.4140033240429943  0.7613968213058442  0.2687891912411118
  0.3302129775033933  0.8513054068768469  0.3376969636577982
  0.2411294913290192  0.9075721454687127  0.4379366828498377
  0.1625053998841182  0.9870781362383099  0.5101020223967083
  0.0654672545552657  0.0846566061296272  0.5839328673179907
  0.9882876348597449  0.1704641732598091  0.6973320481699048
  0.9246970081115649  0.2384571930192578  0.7595172210900643
  0.8182484980620188  0.3231332863821592  0.8368957738951508
  0.7308548939103332  0.4406394239990377  0.9099863362103449
  0.6717632711979533  0.4972735789778611  0.0165675872093018
  0.5840284114520884  0.5775220575601381  0.1016280733037647
  0.4941454976824105  0.6700021317829439  0.1958001263685745
  0.5107772126987911  0.6687603322544575  0.3214779484336319
  0.4256545387796677  0.7400606359386259  0.3978810062534990
  0.3585778115759624  0.8410261023535526  0.4846718607648057
  0.2391068229041764  0.8983302984895687  0.5537245055142677
  0.1383530782985716  0.9849847483617040  0.6841445796371772
  0.0906323658395252  0.0729100335650941  0.7642200551426512
  0.9880368766482874  0.1526075886078502  0.8450538380084680
  0.8989552575321653  0.2355139559857733  0.9189431641093293
  0.8172518280987759  0.3239595510668920  0.9871899139894538
  0.7626401507432305  0.4130080186605909  0.1077745005194615
  0.6776548864181251  0.4872888306161585  0.1883580416366968
  0.5894393325941039  0.5684102008910727  0.2559773265803571
  0.1531019899304695  0.1612449102932985  0.8747844346879248
  0.0374487507991716  0.2590100475505466  0.9270540512866603
  0.9814994126108871  0.3589078443418856  0.9899990005394415
  0.9137720435746814  0.4030903510349262  0.0775223762287212
  0.8298194257971687  0.4910421521617536  0.1917500604371440
  0.7428771392751514  0.5925181491249134  0.2690091145208982
  0.6515592313993466  0.6922297940142244  0.3298871408734882
  0.5855501508431260  0.7287729436386172  0.4349666811516002
  0.5103121933189456  0.8392422750339676  0.4984930357428254
  0.4267212818668611  0.8949560042555760  0.5828163829617168
  0.3400838048429620  0.9913627667226095  0.6598536012546958
  0.2331037870614594  0.0746656342403895  0.7642286062495032
  0.2575198024054970  0.0674631488252189  0.9461861534004612
  0.1587021167985299  0.1715510988571864  0.0058604081755007
  0.0709849506513223  0.2342912271237907  0.1028820117078268
  0.0036605610165452  0.3426648095980198  0.1725460066530786
  0.9138507781906853  0.4103486603931898  0.2486174513505972
  0.8410475110884690  0.5132950511468053  0.3396620010189437
  0.7469123311755794  0.5875587369136070  0.4224099716295058
  0.6840817285023562  0.6727741448893170  0.5071617577719181
  0.5750017521777337  0.7232449802205707  0.6020423119955254
  0.5133991044313930  0.8304252112802715  0.6919701250699291
  0.4204496993127123  0.9468550862103413  0.7594689442979288
  0.3366190811555967  0.9945359306321393  0.8444229246583532
  0.3597746318828428  0.0164137666826534  0.9939508326340629
  0.2662564467953317  0.0749423409653929  0.0584460805762035
  0.1911040497882226  0.1424045837329189  0.1609752817070245
  0.1011321535603003  0.2180692260049568  0.2630436221329830
  0.0144667360944624  0.3123104791017326  0.3558279024814226
  0.9131067849436576  0.4321593542715547  0.3893592648645381
  0.8586061585950588  0.5138280498281773  0.4945364221209942
  0.7698248656397340  0.5760604466355019  0.5813051476464466
  0.6976378106768948  0.6599261263286209  0.6694602043874340
  0.6057852238671799  0.7413258491169188  0.7202975595380821
  0.4849758471189958  0.8160702304603191  0.8342898270798358
  0.4264024174858179  0.9176558094581608  0.9002209017621681
  0.4478516822504588  0.9060142366938351  0.0591714212219259
  0.3550038200271715  0.9916853322544554  0.1266535927635246
  0.2544083902741150  0.0574062509989588  0.2402558119555636
  0.1664502822065046  0.1048413774674373  0.3421324862143393
  0.1051858452209729  0.2523900508471186  0.4235735165427954
  0.0073282551146789  0.3627694292935359  0.4962851614321124
  0.9163888146327821  0.4524516652681214  0.5813571645488693
  0.8091301876048931  0.4968489041396964  0.6984660533045641
  0.7566366688643811  0.5429027676216762  0.7705392356948764
  0.6868256693039214  0.6744908140533852  0.8057289428993855
  0.5949436311236340  0.7277361299248781  0.8774703907935759
  0.5256470735435173  0.8361651557380299  0.9843618911332186
  0.5142401037920550  0.8312317624670342  0.1623488696755402
  0.4244988936506005  0.9287240959402254  0.2449104301526432
  0.3347281152601269  0.9925625144849377  0.3317924888116366
  0.2747608272396675  0.0775552695196993  0.4339904494325921
  0.1552858027651212  0.1637542555742044  0.5092895069128076
  0.0438400373611429  0.2602533125549442  0.5965600115879468
  0.9861352628266573  0.3509555177615269  0.6843614396028102
  0.8963727408495146  0.4373310961599941  0.7554399299728303
  0.8436711005554258  0.5000215400982952  0.8369753636218320
  0.7743297765324044  0.5836507332374339  0.9036745379804998
  0.6536645898265832  0.6549269234995592  0.9783117972308801
  0.6048004040797537  0.7402650338647803  0.0787058539119343
  0.5907970875289692  0.7686649324702302  0.2618838403060835
  0.5064460655917813  0.8347033365300121  0.3283337623871176
  0.4221734226404550  0.9318805567210120  0.3960585301286628
  0.3272476804123698  0.9922296376768145  0.5188072070047127
  0.2279792525773203  0.0770530763006505  0.5922749990010416
  0.1605211010549041  0.1565376673259777  0.6869374006033695
  0.0511062559937656  0.2528352942939378  0.7701195172021116
  0.9705312574922047  0.3482923639415034  0.8348376023935131
  0.8807447549548471  0.4337201280668097  0.9081099706305480
  0.8457269479741072  0.4785388560896635  0.0048581055702073
  0.7591488651802152  0.5566023745304918  0.0934338577879004
  0.6792742397906153  0.6646015788579902  0.1692812974506523
  0.2329994435786773  0.2362499120914237  0.7384807260449122
  0.1663378531327453  0.3259103587269223  0.8101158395268939
  0.0945359895708435  0.4033235440142278  0.9215903380484320
  0.9770048629425432  0.5075599401622313  0.9897022186925568
  0.9194532461240286  0.5836897671421752  0.0648670477703206
  0.8446760748821234  0.6521207234476165  0.1730587688803666
  0.7548591744585664  0.7296014035403147  0.2748717598697326
  0.6805104895908229  0.8207007317389881  0.3238812135379234
  0.5886467828458422  0.9128092114201252  0.4088716065292104
  0.5073286087469029  0.9834975215775614  0.4971462918564669
  0.4124801781147625  0.1082854900903030  0.5746393295972183
  0.3093423449612374  0.1700592658635003  0.6631710271317814
  0.2952726104850925  0.1612046871253909  0.8451272421681466
  0.2552984111524026  0.2728340291097240  0.9216452199712322
  0.1501598407656033  0.3098933918724498  0.0035715016382980
  0.0914022511587973  0.4077916346999118  0.0828554862942568
  0.9978728966874471  0.5026637626868080  0.1585899474546437
  0.9020174998002091  0.5630610789778601  0.2457220610565045
  0.8520086365180219  0.6558540547830276  0.3541633046631532
  0.7447034134500115  0.7321955895868300  0.4045474526492470
  0.6779920652521412  0.8217192040278078  0.5040134659953637
  0.5818213103372472  0.8982148066011320  0.5516860674898112
  0.4884468208063595  0.9883595430752052  0.6492714102333608
  0.3840068518740480  0.0848450231758946  0.7449330446335836
  0.4144776182769903  0.0850568323943079  0.8988714546871250
  0.3560131673060027  0.1929055082713944  0.9839950831135624
  0.2692202369535650  0.2474109915687706  0.0885707119595622
  0.1889557640054349  0.3360496129025847  0.1859162665827512
  0.0595279539279119  0.4248856424318674  0.2447199282745913
  0.0141091140214158  0.4953325756213545  0.3302419833373307
  0.9457787840645722  0.5878751358587095  0.3974590001398539
  0.8468529159673963  0.6620339611803701  0.4759553044833353
  0.7610601869056168  0.7308279454367437  0.5632677560337243
  0.6668053514345047  0.8205807809877754  0.6423912715775586
  0.5793969241988322  0.9206019864341073  0.7481752807080611
  0.4894113986454087  0.0038124665348036  0.8000978137736752
  0.5198565282106600  0.9974318978262602  0.0047057889794644
  0.4288628816031306  0.0945335246343788  0.0607922260848710
  0.3277902975905036  0.1411916771557600  0.1700997727363571
  0.2418804388436016  0.2361760798769268  0.2733593083193497
  0.1659710226364552  0.3448555841924374  0.3374056686046529
  0.0909329537281209  0.4356290058339312  0.4222784434188469
  0.0207872917166156  0.5269289673739337  0.4956908944697531
  0.9500886298249824  0.5891436081475234  0.5936341070286915
  0.8206400628346486  0.6527039563853592  0.6867034304323525
  0.7652625894070155  0.7568060057540151  0.7095258266402951
  0.6861296771357814  0.8106159374250765  0.8149857952729178
  0.5592003566291055  0.9293949252777125  0.8798396962159387
  0.6001996278870010  0.9268029813993479  0.0958472123991072
  0.5196355270518680  0.9968000529449341  0.1654244510708835
  0.4341338657795859  0.0674122397706398  0.2261253576280637
  0.3411651307640042  0.1418297046072112  0.3261791052305583
  0.2176537695796341  0.2514924508511172  0.4068013021457659
  0.1502526572364715  0.3269450756213530  0.5191204841964350
  0.0835481309438180  0.4278812455046719  0.5855055197594510
  0.0029584357268462  0.5260628476384568  0.6645828408455188
  0.9291310132462272  0.5922041197154968  0.7497830506273502
  0.8417257662031474  0.6918224316710635  0.8123698888156312
  0.7404974071965142  0.7161555732038707  0.9166854151682244
  0.6444096859266395  0.8341069567649626  0.9767831230520230
  0.6995752742148156  0.8279351239710735  0.1558463567889419
  0.6104711205346405  0.9057161252297590  0.2551536407136581
  0.4979436740789609  0.0210523810237362  0.3140555946815340
  0.4089999335690848  0.0818043170103095  0.4173406387357161
  0.3111526052904949  0.1805738841604736  0.5235314632781893
  0.2188278984855785  0.2442124325701300  0.6077347938144300
  0.1547163235235374  0.3362025408575064  0.6797766447894205
  0.0952203703148697  0.4283662825661310  0.7461540707664014
  0.9926871388755671  0.4970819962239261  0.8514850325661314
  0.9024245789379037  0.5931109985614995  0.9088490210181419
  0.8067971899224773  0.6375416247103018  0.0210456415328082
  0.7558700491488821  0.7285684463158333  0.0807782331375364
  0.3256764305122672  0.3422575621353801  0.6662461819707488
  0.2479387087429075  0.4274116848477618  0.7370826410533056
  0.1807334037600867  0.4979036042515759  0.8425646797330799
  0.0662906407336337  0.6095192674618417  0.9322140603772056
  0.9906976919004222  0.6803128281587121  0.9905154604211646
  0.9012504060776791  0.7498992547750376  0.0749703823024035
  0.8398160473107978  0.8327244980220598  0.1742452279629205
  0.7585086644889287  0.9040568933309387  0.2642317989291172
  0.6854838872572557  0.0048224746263870  0.3340207604091745
  0.5692468297970095  0.0726803204667164  0.4030648405658113
  0.4937011662870603  0.1788494181051732  0.5090289254175673
  0.4106321400743198  0.2728007622073036  0.5977811620914224
  0.3951177919963271  0.2440345820346863  0.7681010349236814
  0.3114767017302000  0.3186187594901284  0.8115402346559577
  0.2291851834092569  0.4015340460920669  0.9235006688044436
  0.1529263730720061  0.5172294169064173  0.0099341854471362
  0.0974210700871083  0.5886013590865531  0.0969325176816085
  0.9854680826939983  0.6495515179213598  0.1601370609566075
  0.9386995065132240  0.7337473472588485  0.2646598212858606
  0.8649321830296515  0.8378814447974108  0.3388784304323522
  0.7547038554902912  0.9177762072444651  0.4101962643850428
  0.6936512317190093  0.9949119056181601  0.4880654489331064
  0.5783555627147763  0.0770822574522469  0.5794922056061722
  0.4905496223927130  0.1736826185766773  0.6619684882721941
  0.4816077399504550  0.1548867362942516  0.8298047675417592
  0.4168677825061948  0.2564881063693747  0.8850016183169487
  0.3278491848477572  0.3630052085830755  0.9828910098497587
  0.2426626643290959  0.4134609421201958  0.0669759779828993
  0.1741265838527966  0.4847020848317740  0.1823581310437135
  0.0840684977623241  0.5907225820147062  0.2394369905298461
  0.0190687864620784  0.6343833867777491  0.3175497207903746
  0.9529388475984959  0.7356116568768485  0.4300630244545687
  0.8305783410253369  0.8256002332574113  0.4630776042915343
  0.7549524849156910  0.9008473622432689  0.5585264295133072
  0.6716594346879248  0.9793412970510644  0.6508422710381225
  0.5604891033325359  0.0755884879725102  0.7196830416366993
  0.5729796366778572  0.0772342368936307  0.9123790992367944
  0.5020209302325611  0.1839064293135166  0.9742848792256069
  0.4142167915368020  0.2609092079237598  0.0831001433509115
  0.3066994575641360  0.3372460516063285  0.1734734611004569
  0.2626995904259601  0.4267922515583820  0.2733750739231198
  0.1430268905338465  0.5042702189722661  0.3311671012147386
  0.1042483676975934  0.5647998806241503  0.4089256573163880
  0.0235970610564991  0.6638017851434483  0.4969908834811818
  0.9324659399224799  0.7317992477823054  0.5968539234196442
  0.8051889674738248  0.8193481913809606  0.6335231279469369
  0.7634791656677038  0.9204785163430032  0.7466555042755516
  0.6799111269279976  0.0183720290897469  0.8260212469032240
  0.6643145983177519  0.9882132622073030  0.9825505014784639
  0.5879337728762124  0.0994825531447319  0.0809980360425158
  0.4983204697115013  0.1669331220530665  0.1459561296251906
  0.4139523105969758  0.2539515498881144  0.2380354900903043
  0.3439443518740504  0.3109207758930737  0.3439211205346453
  0.2310745444737492  0.4249067869415839  0.4124855600175792
  0.1826228242627650  0.5122569697514621  0.5103897161951565
  0.0901961924598425  0.6181858916726597  0.5847706110644921
  0.0414268935307263  0.6867293639614829  0.6797644804403404
  0.9265042645648549  0.7596280568209082  0.7134703808039617
  0.8230550392591738  0.8016344271957152  0.8378167126188742
  0.7354257087628895  0.9082631188563894  0.8784017441860499
  0.7681838068408879  0.9217481604131734  0.0782425862103437
  0.6629386148405629  0.0268648435626915  0.1639010963597869
  0.6059753456405375  0.1015211999520531  0.2418692449852173
  0.4925589187245265  0.1810460541037315  0.3275328922920195
  0.3978567684607981  0.2262374105929865  0.4404450776192732
  0.3218091320027199  0.3412610455126668  0.5067779029809003
  0.2600654484336289  0.3953848347718392  0.5665940297091012
  0.1755011533005657  0.5069195127067871  0.6352940696675446
  0.0772356973747321  0.5838652596299880  0.7544552025893054
  0.9985238322144951  0.6955958732917793  0.8201840955406396
  0.9141522856229543  0.7294155248541543  0.9249776557380329
  0.8254757072644452  0.8473771237912544  0.9934677860025545
  0.4050032536162362  0.4117039204227595  0.5672949018021285
  0.3425389744665566  0.5008280877886975  0.6728306151602368
  0.2383154759050612  0.5811017591704655  0.7434011747782279
  0.1735136987532968  0.6660926871054116  0.8258623176896052
  0.1131693918324927  0.7521221704427390  0.8988662520978181
  0.9784070456724976  0.8094041591744556  0.9966703523335738
  0.9114011687844652  0.9200537560936652  0.0891562719771457
  0.8055919114121295  0.0028414204227616  0.1577736938583882
  0.7723003491368985  0.1254347618476785  0.2343424363661768
  0.6625031991728605  0.1906827629265564  0.3307518450811173
  0.5921381303444448  0.2553281971749399  0.4191598882162566
  0.4948279029809015  0.3346908045632517  0.5052044388835597
  0.4857413949492511  0.3382227083832845  0.6773790877487400
  0.4141619445776428  0.4139336020538664  0.7640639874530493
  0.2935090321066127  0.4891918444817378  0.8413155797970120
  0.2674616334012612  0.6043237992487818  0.9412795322864227
  0.1694509954647145  0.6797137317190121  0.0190679088747672
  0.0750719716494856  0.7642022386717784  0.0744523940102297
  0.9840306136617940  0.8269458473187896  0.1678393620634537
  0.9203896657476207  0.9244055801965985  0.2263570356828879
  0.8301752077839026  0.0043659559058611  0.3206383416247078
  0.7577937654838962  0.1036174678334518  0.4094965460920648
  0.6652096554583267  0.1844991019339872  0.5110187509989643
  0.6044039319108094  0.2443075896068123  0.5932850875089883
  0.5692211400143847  0.2495754630184592  0.7444377432470262
  0.5153479086749755  0.3351560736833719  0.8261999430592155
  0.3966367707584126  0.4242979096739390  0.8984544943259039
  0.3248296616518829  0.5079071505634118  0.9890620499680338
  0.2458081690042349  0.5489405093702544  0.0949314472948117
  0.1721620264924510  0.6819643545712495  0.1627154504315484
  0.0852946855270531  0.7808355280508295  0.2279702484416219
  0.9973976249700343  0.8338234021617552  0.3251867163150308
  0.9377829432390286  0.9166588218253011  0.4112120010189386
  0.8594928534324282  0.0160922595500708  0.5006685252337562
  0.7250332664029386  0.0931245544633583  0.5924950726244731
  0.6458954787021511  0.1794868237033498  0.6498856394349843
  0.6463090860505076  0.1491146692439855  0.8054223567489842
  0.5917356918804444  0.2253899015024388  0.9288843647606484
  0.4947493651602315  0.3414092698593478  0.0003660123471576
  0.4016557435267316  0.4237495449732265  0.1015818673579503
  0.3386197954127681  0.5143215985375207  0.1446633171501617
  0.2469356229521296  0.5800115055342445  0.2584188783664985
  0.1576141652681216  0.6877583762886630  0.3354670023175927
  0.0621085875689289  0.7432922680412375  0.4109411971549619
  0.0120724896108015  0.8317217308998650  0.5105620434747848
  0.8993130509270344  0.9079553534324276  0.5776355590186242
  0.8052454282546151  0.0018707564133322  0.6464868516742612
  0.7426653465395958  0.0922415812554931  0.7277893395868276
  0.7370488147326810  0.0836878970870316  0.9010392142172137
  0.6784480879884924  0.1972401302645252  0.0038578273595462
  0.5730132477223719  0.2875565941420888  0.0891194053184705
  0.4857502407496170  0.3589958438224272  0.1656230765004381
  0.3846243981259505  0.4211461075481466  0.2621288654799017
  0.3093826875049928  0.4969315242148156  0.3497510174418608
  0.2286926621313867  0.5992762901582367  0.4070091250099921
  0.1630489146287886  0.6642957748941072  0.5027052410493056
  0.1023174768241049  0.7475700826140823  0.5718680637137368
  0.0276010394190038  0.8524141687644828  0.6817276966954395
  0.8994058519140111  0.9264512811675871  0.7295174103931927
  0.8223398160912652  0.0159958403260632  0.8329529429393432
  0.8071515848517521  0.0221667675617354  0.0138314388036420
  0.7248136013545903  0.1104409139494891  0.0863299428594289
  0.6562686326220728  0.2021381253496344  0.2007981109645982
  0.5615092713577852  0.2632210625949014  0.2483430062734726
  0.4835794893310990  0.3188714931471281  0.3507230550227760
  0.4128214951450460  0.4069285268320968  0.4392250649324723
  0.3108860225365646  0.5164776657276420  0.4829962409094577
  0.2634391577759132  0.5982649409613998  0.5729187884600009
  0.1665311106449323  0.6915920232957760  0.6662994061176377
  0.1024702374530477  0.7771917730560247  0.7528244795412746
  0.9784750329657186  0.8322026417525805  0.8313700391592747
  0.8756321585551063  0.9237828658195468  0.9172489840565845
 
  0.00000000E+00  0.00000000E+00  0.00000000E+00
  0.00000000E+00  0.00000000E+00  0.00000000E+00
  0.00000000E+00  0.00000000E+00  0.00000000E+00
  0.00000000E+00  0.00000000E+00  0.00000000E+00
  0.00000000E+00  0.00000000E+00  0.00000000E+00
  0.00000000E+00  0.00000000E+00  0.00000000E+00
  0.00000000E+00  0.00000000E+00  0.00000000E+00
  0.00000000E+00  0.00000000E+00  0.00000000E+00
  0.00000000E+00  0.00000000E+00  0.00000000E+00
  0.00000000E+00  0.00000000E+00  0.00000000E+00
  0.00000000E+00  0.00000000E+00  0.00000000E+00
  0.00000000E+00  0.00000000E+00  0.00000000E+00
  0.00000000E+00  0.00000000E+00  0.00000000E+00
  0.00000000E+00  0.00000000E+00  0.00000000E+00
  0.00000000E+00  0.00000000E+00  0.00000000E+00
  0.00000000E+00  0.00000000E+00  0.00000000E+00
  0.00000000E+00  0.00000000E+00  0.00000000E+00
  0.00000000E+00  0.00000000E+00  0.00000000E+00
  0.00000000E+00  0.00000000E+00  0.00000000E+00
  0.00000000E+00  0.00000000E+00  0.00000000E+00
  0.00000000E+00  0.00000000E+00  0.00000000E+00
  0.00000000E+00  0.00000000E+00  0.00000000E+00
  0.00000000E+00  0.00000000E+00  0.00000000E+00
  0.00000000E+00  0.00000000E+00  0.00000000E+00
  0.00000000E+00  0.00000000E+00  0.00000000E+00
  0.00000000E+00  0.00000000E+00  0.00000000E+00
  0.00000000E+00  0.00000000E+00  0.00000000E+00
  0.00000000E+00  0.00000000E+00  0.00000000E+00
  0.00000000E+00  0.00000000E+00  0.00000000E+00
  0.00000000E+00  0.00000000E+00  0.00000000E+00
  0.00000000E+00  0.00000000E+00  0.00000000E+00
  0.00000000E+00  0.00000000E+00  0.00000000E+00
  0.00000000E+00  0.00000000E+00  0.00000000E+00
  0.00000000E+00  0.00000000E+00  0.00000000E+00
  0.00000000E+00  0.00000000E+00  0.00000000E+00
  0.00000000E+00  0.00000000E+00  0.00000000E+00
  0.00000000E+00  0.00000000E+00  0.00000000E+00
  0.00000000E+00  0.00000000E+00  0.00000000E+00
  0.00000000E+00  0.00000000E+00  0.00000000E+00
  0.00000000E+00  0.00000000E+00  0.00000000E+00
  0.00000000E+00  0.00000000E+00  0.00000000E+00
  0.00000000E+00  0.00000000E+00  0.00000000E+00
  0.00000000E+00  0.00000000E+00  0.00000000E+00
  0.00000000E+00  0.00000000E+00  0.00000000E+00
  0.00000000E+00  0.00000000E+00  0.00000000E+00
  0.00000000E+00  0.00000000E+00  0.00000000E+00
  0.00000000E+00  0.00000000E+00  0.00000000E+00
  0.00000000E+00  0.00000000E+00  0.00000000E+00
  0.00000000E+00  0.00000000E+00  0.00000000E+00
  0.00000000E+00  0.00000000E+00  0.00000000E+00
  0.00000000E+00  0.00000000E+00  0.00000000E+00
  0.00000000E+00  0.00000000E+00  0.00000000E+00
  0.00000000E+00  0.00000000E+00  0.00000000E+00
  0.00000000E+00  0.00000000E+00  0.00000000E+00
  0.00000000E+00  0.00000000E+00  0.00000000E+00
  0.00000000E+00  0.00000000E+00  0.00000000E+00
  0.00000000E+00  0.00000000E+00  0.00000000E+00
  0.00000000E+00  0.00000000E+00  0.00000000E+00
  0.00000000E+00  0.00000000E+00  0.00000000E+00
  0.00000000E+00  0.00000000E+00  0.00000000E+00
  0.00000000E+00  0.00000000E+00  0.00000000E+00
  0.00000000E+00  0.00000000E+00  0.00000000E+00
  0.00000000E+00  0.00000000E+00  0.00000000E+00
  0.00000000E+00  0.00000000E+00  0.00000000E+00
  0.00000000E+00  0.00000000E+00  0.00000000E+00
  0.00000000E+00  0.00000000E+00  0.00000000E+00
  0.00000000E+00  0.00000000E+00  0.00000000E+00
  0.00000000E+00  0.00000000E+00  0.00000000E+00