Li 
 1.0000000000000000
    20.0207999999999977    0.0000000000000000    0.0000000000000000
     0.0000000000000000   20.0207999999999977    0.0000000000000000
     0.0000000000000000    0.0000000000000000   20.0207999999999977
 Li 
 432
Cartesian
 -0.5961099500000000  0.1061702000000000 -0.7088867700000000
 18.4791647400000016  1.8424867800000000  1.8021567100000000
 16.9023860399999997  3.9197902899999999  3.4639141699999998
 15.0905311199999996  4.9100136699999997  5.6489905699999996
 13.6966531299999996  6.7111258800000000  7.1044457300000001
 11.3783885199999997  8.6582835399999993  8.2010119600000007
  9.8245733299999998 10.0218636399999994 10.4671940299999999
  8.0297970599999999 11.7497053400000002 11.7686470599999993
  7.1154271600000003 13.6827109199999999 13.4116877399999996
  5.1516325700000003 15.1356133100000001 14.9590913899999993
  4.0706288199999996 16.6816890800000017 16.4447740099999997
  1.4475783000000000 17.9510874800000018 18.5105937099999984
  1.5082208900000000 17.9871563399999985  1.6267970500000000
  0.0824723400000000 -0.0509030400000000  3.0335481500000001
 18.3372768300000004  1.4100140999999999  4.7858014899999999
 17.4102165299999996  3.8723057500000002  6.9574478099999997
 15.4993878499999997  5.0034487399999996  8.6919772999999996
 13.2171634600000001  6.8016131399999997 10.3817904199999997
 11.3915371800000003  8.1535808400000001 11.7239986599999995
  9.8504562999999994 10.3777131100000002 13.2539599700000004
  8.1555934499999996 11.4082844199999993 15.2630671400000004
  6.8804951000000001 12.9374371000000004 16.4863320599999987
  5.5868580799999998 14.9128169199999991 18.5838006900000003
  3.4738918299999999 16.3007119500000002  0.1733919400000000
  4.0859104100000003 16.8189738599999998  3.3212358300000000
  1.4918983699999999 18.4854487600000006  4.8896309599999999
  0.0375663300000000 -0.1649374400000000  6.4776393900000002
 18.4492391200000014  1.4306126100000001  8.4721538600000006
 17.1391516700000004  3.8753726300000002 10.9214503900000004
 15.0416115300000008  5.2676345299999996 12.5658136900000006
 13.2516491700000003  7.2677354400000000 13.6614291699999999
 11.4360425899999996  8.3069562900000005 15.3310868399999993
 10.0492459499999995 10.1244896600000001 16.3734751400000000
  8.4155028299999994 11.5209840000000003 18.3140091799999993
  7.0471726300000004 12.9172542000000004 20.6575157000000011
  5.8617119700000000 14.8911955900000006  1.9954271800000001
  5.2270861599999998 15.1636417500000000  5.1484125900000004
  3.5174446300000000 17.0085294500000010  6.0559818400000003
  1.3649472899999999 18.5562066899999998  7.8708501200000001
  0.4844168600000000 -0.0846175700000000 10.4576131599999993
 18.6627418200000008  1.5764799899999999 11.8387589400000000
 16.4265861999999991  3.0302850800000001 13.2065209600000006
 15.0290599199999999  4.6992390000000004 14.6592167399999997
 13.4984882099999997  6.2141273300000002 17.1219521899999982
 11.3581945199999996  7.9291667500000003 18.0393503200000005
 10.1566019099999991  9.6281045600000006 -0.0135429000000000
  8.7792225500000001 11.5450703200000007  2.1156065800000001
  7.0725115399999998 13.3639262700000003  3.4116389200000001
  6.7444984300000002 13.5463619699999995  6.7693419900000000
  4.9203698700000000 15.0790551199999996  8.1193065499999992
  2.7248934399999998 16.6092779399999984  9.6754210900000004
  1.9872704299999999 18.1043786199999985 12.2705004599999992
  0.0438841700000000 -0.1599760100000000 13.4726943499999994
 17.7734571099999989  1.2816398899999999 14.6830744899999992
 16.6287770299999984  3.2126426800000001 16.2139435600000006
 14.5743039599999999  4.9723990499999999 17.8245720699999985
 13.7534592799999995  6.9928652500000004 -0.0214242900000000
 12.1802447199999992  8.2133479099999995  2.2009273399999998
 10.0560868200000009  9.6309571599999995  3.5723343399999998
  8.1097747600000005 11.4592331200000004  5.2092804299999997
  8.2635121999999992 11.5701560499999996  7.8810933199999997
  6.6671604999999996 13.5573045400000005  9.8599026799999994
  5.3048462499999998 15.5268281800000008 10.9608860700000008
  3.4261901199999998 16.4325798899999995 13.1427104900000007
  1.7992281100000000 18.7574585399999982 15.5763405600000002
 -0.8412996600000000  0.1309358400000000 17.0993321899999984
 17.7937894099999987  1.9595335100000000 18.4540031400000011
 16.2226505699999990  3.1833856900000002 19.7636080300000003
 15.0434094700000003  5.1492142599999999  2.1831720099999998
 13.5242155200000003  6.7342237899999997  4.2389615699999998
 11.1442058300000006  8.1339240200000003  5.6063831899999998
  9.7462949900000009 10.3552066800000002  6.7245189700000001
  1.6347853800000001  1.4197206800000000 18.5309559099999994
 -0.2571290400000000  2.7509761799999999 -0.1418328300000000
 18.3419710699999996  5.1553738200000003  1.6660434900000001
 16.6889029600000001  6.8757695500000002  3.6658970300000000
 14.9070044399999997  8.4249992400000000  5.3836180699999998
 13.0725911099999994  9.9976275599999997  6.7372999099999999
 11.5029204299999996 11.5182407599999994  8.5805894699999996
  9.3160207600000007 13.1095856200000007  9.8171344099999995
  8.7231440800000009 15.0637719099999998 11.5270994899999994
  6.9536912700000002 16.6579250999999999 13.3614544300000002
  5.2567391199999998 18.3479832300000005 14.6376758599999999
  3.6157596999999999 -0.2405529800000000 17.2219500299999986
  3.2097448700000002 -0.2082236600000000 -0.0483448200000000
  1.5601656399999999  1.1619133600000000  1.5853677600000000
  0.2179525300000000  3.3849565799999999  3.3540538700000000
 18.7722915099999987  5.7246077399999997  4.5988730999999996
 16.9859504200000018  6.4758167499999999  7.3494687200000000
 14.6786361200000002  8.6267188299999997  8.6514605299999996
 12.9445854499999999  9.9738014300000000 10.4207469199999991
 11.5335586200000009 11.9312629200000000 11.5050031799999992
  9.6286828000000000 13.1550375600000002 13.3141978600000002
  8.6289309099999993 14.9765619700000006 14.8810787399999995
  7.4584877799999996 15.9587051500000001 16.6750261100000010
  5.5930543200000002 18.0637401400000002 18.5535725499999984
  5.5058185699999997 18.1456696999999991  0.9412232500000000
  3.7535737199999999 -0.6483864600000000  2.8556470100000002
  1.6953068600000001  1.7014159000000000  4.5506349100000003
 -0.4666168300000000  3.1362706700000000  6.2593954099999998
 18.4717983299999986  5.2593607300000000  8.9675806999999992
 16.3484167700000000  6.8656622799999996 10.8178204200000003
 14.7981313100000005  8.6132209700000004 12.3001272400000001
 12.8424344799999997 10.1672949399999997 13.0286179700000009
 11.7261594400000000 12.0108867499999992 15.0283655199999995
  9.7736598299999997 13.5403474300000006 16.7391686600000007
  8.6444495999999997 14.6870619799999993 18.5129696300000006
  7.0580895999999997 16.3895402600000004 19.7205760800000007
  6.5964354600000004 16.6538682899999984  2.7398285400000000
  5.3482815099999996 18.6283196000000011  5.2608845600000000
  3.5750630000000001  0.0633141000000000  6.5535574700000003
  1.4137350399999999  1.5821651000000001  8.1123519500000008
  0.1366006700000000  3.1700193099999998 10.0038652399999997
 18.7752767300000016  5.5023077300000001 11.9323821399999996
 16.8863106000000016  7.1435731000000002 13.8646017799999992
 14.4006327699999996  8.0542604099999995 15.3781751000000000
 13.2622149399999998  9.8249537999999994 16.8220054300000008
 11.6948782799999993 11.5880824199999992 17.8204072599999996
 10.5810016999999998 13.3056223300000003 20.3340411799999998
  8.9639249599999999 14.9917371999999993  1.5692320099999999
  8.2886777499999997 15.2437734799999998  5.3813746399999998
  6.6111279800000000 17.0438152900000013  6.7609633699999998
  4.8276053200000000 18.1703204099999986  8.7678427400000007
  3.2534881100000002 -0.2587060500000000 10.2126505699999992
  1.3107068100000001  1.6948929800000001 11.6908031500000007
 -0.2344909200000000  3.4128291200000000 13.9611454699999999
 18.5131738599999984  4.7741037700000000 15.2061423799999993
 16.3819895299999985  6.4693868999999999 16.7553229100000003
 14.6322996599999993  8.8219537799999994 18.2186544400000017
 13.4492381000000005  9.9558148699999993 20.3524963499999991
 11.6927160200000007 11.5624536100000004  2.0346753299999998
  9.8931881799999992 13.4139786799999996  3.9200751700000001
 10.2261684200000005 13.3891168599999997  6.4362457099999997
  8.5219443899999998 14.8166059800000003  7.9658960499999996
  7.1790146500000001 16.8380153899999989  9.7035183899999993
  4.7871098800000000 17.9852912399999987 11.0860075800000004
  2.7699393099999998 -0.3006173500000000 13.6971217999999997
  1.8145324700000001  1.4597172000000000 15.3002968799999994
 -0.2395113000000000  3.0553260099999999 16.9186538800000008
 17.9978034200000003  4.7151778100000001 18.3979773000000009
 16.3620353999999999  6.4859293800000000 19.7643318299999997
 15.2686659299999992  8.2687509400000003  2.1577317200000001
 13.5671929500000008  9.7559122200000008  3.7710786800000000
 11.8010469899999997 11.3800269499999995  5.1248708599999997
  3.0652243200000000  3.2282521000000002 17.5138842100000005
  0.7497539500000000  5.1855883599999997 18.5603637500000005
 -0.3703965600000000  7.1856221700000003 -0.2002280100000000
 18.2944473300000006  8.0701912999999994  1.5520599900000001
 16.6136487600000002  9.8310567199999994  3.8389896100000001
 14.8729946300000009 11.8626873600000007  5.3857776800000003
 13.0447370599999992 13.8589942599999993  6.6046044699999999
 11.7231824600000003 14.5906173500000005  8.7083809300000006
 10.2168583599999998 16.8023017400000008  9.9802293700000000
  8.5433014400000005 17.9177351700000003 11.6684502400000003
  6.8087498399999999 19.8478756800000014 13.2107969799999996
  4.6669242999999998  1.4948657299999999 15.3004680799999999
  5.1557524600000004  1.3506662100000000 18.9434037400000008
  3.1773433400000002  3.4345902399999999  0.1173300600000000
  1.4211754999999999  4.6906977999999997  2.0597801800000002
  0.0732873600000000  6.8604236199999997  3.4545090900000002
 18.2960236599999995  8.2155084600000006  4.9775202700000003
 16.8384440099999999 10.2765775599999998  6.8003049899999999
 14.9537823999999997 11.7633959600000004  8.4569855599999997
 13.6958634700000008 13.4694766000000001 10.1537841199999992
 11.5119950800000002 14.4799430999999998 12.0533687199999999
 10.2786607900000000 16.6257770700000016 13.8537954800000005
  8.4177393400000007 18.9567963100000014 15.2051758400000008
  6.7393833000000001 19.9114049599999987 16.9060224900000016
  7.2029759499999999  0.3286167400000000 -0.1211091700000000
  5.3306670699999996  1.5004056200000000  1.1701372900000000
  3.8260559600000001  2.8510536900000001  3.2228539199999999
  2.0247466200000002  4.3659203599999996  5.2663437499999999
  0.2896356300000000  6.2527056400000003  7.1239592700000003
 18.2811283200000005  8.6521760000000008  7.7952839699999998
 17.1899821800000012 10.2872486199999997  9.9010148000000004
 15.4125096700000004 11.5331909899999996 11.6381940999999998
 13.9672670799999992 13.2122489900000009 13.4031288600000007
 12.1283048099999995 14.8419365600000006 14.4209333799999992
  9.7096044399999997 16.3383788699999997 16.7031497699999996
  8.5369175199999994 18.3722034299999990 18.0231426299999988
  8.9663489599999995 18.1391298300000017  1.1846591900000001
  7.1074604800000003 -0.1664663000000000  2.5357062500000001
  5.0934594999999998  1.1493190700000000  4.8101135599999996
  3.3324678099999998  2.0990082499999998  6.8497660800000002
  2.1059047700000000  5.0530507299999998  8.4802806600000000
  0.1467175300000000  7.2629341900000002  9.9360259600000003
 18.3468371800000014  9.0584442999999997 11.6392355199999997
 16.1994336600000004  9.9473125400000004 13.9838491600000001
 15.1484714199999999 10.8693477299999994 15.4268119299999995
 13.7507993600000002 13.5038456900000003 16.1313380200000012
 11.9112474499999994 14.5698595100000006 17.5676592000000014
 10.5238749299999998 16.7406953499999993 19.7077125500000001
 10.2954982699999995 16.6419248700000004  3.2503542500000000
  8.4988074499999993 18.5937993800000001  4.9033027400000000
  6.7015246499999996 -0.1489044100000000  6.6427510600000002
  5.5009315699999997  1.5527185400000001  8.6888359899999994
  3.1089460000000000  3.2784911999999999 10.1963833600000005
  0.8777126200000001  5.2104795199999998 11.9436086800000005
 -0.2775831300000000  7.0264102299999998 13.7014635100000000
 17.9460993699999989  8.7557184100000001 15.1245117499999999
 16.8909703700000016 10.0108312500000007 16.7569163600000017
 15.5027015899999991 11.6851546000000006 18.0922871900000004
 13.0868880200000000 13.1121609499999998 19.5865848299999996
 12.1085879300000006 14.8206981899999999  1.5757541600000000
 11.8282303300000002 15.3892868800000002  5.2431239900000000
 10.1394553900000002 16.7114285600000017  6.5735045899999998
  8.4522496599999997 18.6569942500000003  7.9294086200000002
  6.5517603600000003 -0.1555688700000000 10.3869353300000000
  4.5643270200000003  1.5426642300000000 11.8578192999999992
  3.2137608599999998  3.1340093300000000 13.7530363100000006
  1.0231881300000001  5.0619648599999998 15.4184088300000006
 -0.5899878000000000  6.9730917600000000 16.7141166699999992
 17.6332145900000015  8.6834239400000008 18.1810881000000002
 16.9321300800000003  9.5807307300000009 20.1180631599999984
 15.1987676000000000 11.1436248199999994  1.8706205800000000
 13.5996137000000008 13.3058552900000002  3.3891469999999999
  4.6648352600000003  4.7299122400000000 14.7849749199999998
  3.3302168900000000  6.5249861100000004 16.2191672000000011
  1.8926861399999999  8.0748600100000001 18.4509758400000017
 -0.4603810400000000 10.1617560499999993 -0.2061698200000000
 18.4081895499999995 11.6859360900000002  1.2986901900000001
 16.9110907600000004 13.0559785799999997  3.4647749999999999
 15.1128845599999995 14.6072037800000007  5.5031525300000004
 13.6243644100000001 16.4310852099999991  6.4843609999999998
 11.7851795100000007 18.2751706600000006  8.1859366599999994
 10.1571246100000003 -0.3303928200000000  9.9532664799999999
  8.2581831500000007  2.1679621400000002 11.5047390899999993
  6.1932812200000003  3.4047225499999998 13.2772144999999995
  5.9115938799999999  3.2274468000000001 16.9201234900000017
  5.1112784299999996  5.4623555300000000 18.4520746200000012
  3.0063201400000001  6.2043136199999998  0.0715043200000000
  1.8299461900000000  8.1643147599999999  1.6588331199999999
 -0.0425863100000000 10.0637306599999992  3.1750976199999998
 18.0591119599999992 11.2729332499999995  4.9195522399999998
 17.0578945100000006 13.1307228600000006  7.0906326899999996
 14.9095580999999999 14.6591414600000007  8.0993636400000000
 13.5739435400000001 16.4514758400000005 10.0907528000000006
 11.6485280899999992 17.9829790000000003 11.0451964199999999
  9.7790961099999993 19.7877487400000014 12.9989330499999998
  7.6881243799999996  1.6986652400000000 14.9141554999999997
  8.2981735000000008  1.7029058300000000 17.9961256200000008
  7.1276684200000000  3.8621226000000002 -0.3204312400000000
  5.3900045199999997  4.9533659800000001  1.7732565100000000
  3.7830455600000001  6.7279820900000002  3.7221923900000000
  1.1917972600000000  8.5065504700000005  4.8994887399999998
  0.2824757500000000  9.9169544300000005  6.6117087000000003
 18.9352478799999986 11.7697305199999995  7.9574471500000001
 16.9546728599999987 13.2544495300000005  9.5290059599999992
 15.2370337899999999 14.6317601300000000 11.2770710899999997
 13.3499765799999999 16.4286837000000006 12.8611871699999991
 11.5999899400000004 18.4311882500000017 14.9790676600000001
  9.7984077299999992  0.0763286300000000 16.0185983100000016
 10.4079435799999995 -0.0514154600000000  0.0942136600000000
  8.5861779800000004  1.8926367900000001  1.2171090000000000
  6.5626239899999996  2.8267703300000000  3.4055335300000000
  4.8426398900000001  4.7284340599999997  5.4728720400000004
  3.3228726499999999  6.9042846800000000  6.7551314099999997
  1.8205504800000001  8.7216412000000005  8.4543522600000003
  0.4161782100000000 10.5495394699999991  9.9241282599999998
 19.0215344399999999 11.7951263500000003 11.8850297299999994
 16.4298705699999985 13.0676553700000007 13.7483520400000003
 15.3211692500000005 15.1518616799999997 14.2052746699999997
 13.7368650399999996 16.2291795599999986 16.3166676099999997
 11.1956384999999994 18.6072299200000018 17.6150945900000018
 12.0164767099999992 18.5553371300000016  1.9189378699999999
 10.4035189599999995 -0.0640655000000000  3.3119298499999998
  8.6917072999999991  1.3496469700000000  4.5272105600000003
  6.8303988499999999  2.8395441500000000  6.5303666299999996
  4.3576025899999999  5.0350800600000003  8.1444875099999994
  3.0081783999999998  6.5457019699999996 10.3932073900000006
  1.6727004200000000  8.5665248399999996 11.7222889099999996
  0.0592302500000000 10.5321990599999999 13.3054801400000002
 18.6019461899999996 11.8564002399999993 15.0112565000000000
 16.8520232199999995 13.8508385399999998 16.2642950699999993
 14.8253504899999999 14.3380074999999998 18.3527753599999990
 12.9015974399999998 16.6994885599999989 -0.4648204500000000
 14.0060566499999997 16.5759235300000007  3.1201687400000000
 12.2221202099999999 18.1331613999999988  5.1083800100000003
  9.9692307099999997  0.4214855100000000  6.2876442499999996
  8.1885058700000002  1.6377878699999999  8.3554934599999999
  6.2295240800000000  3.6152336200000001 10.4815187200000004
  4.3811095900000003  4.8893282700000000 12.1673367599999995
  3.0975445700000002  6.7310438300000000 13.6096722499999991
  1.9063879900000000  8.5762356700000009 14.9386014199999995
 -0.1464093300000000  9.9519792299999992 17.0474115399999988
 18.0672620100000003 11.8745566799999995 18.1958844800000001
 16.1527251800000009 12.7640933600000004  0.4213505800000000
 15.1331230800000007 14.5865231499999997  1.6172448500000001
  6.5203026800000004  6.8522702000000004 13.3387815599999993
  4.9639312999999996  8.5571238600000008 14.7569841400000001
  3.6184273299999998  9.9684284800000000 16.8688189400000006
  1.3271916600000000 12.2030633500000008 18.6636712600000010
 -0.1862396500000000 13.6204070700000006 -0.1898880700000000
 18.0437541299999999 15.0135830000000006  1.5009670300000000
 16.8137891199999991 16.6718106299999995  3.4885288600000002
 15.1859502699999993 18.0999422500000016  5.2901319999999998
 13.7239358100000004  0.0965498000000000  6.6873628399999996
 11.3967769299999997  1.4551181600000000  8.0696805600000001
  9.8842923099999993  3.5807084300000001 10.1911663099999998
  8.2211839500000004  5.4616895000000003 11.9680570900000003
  7.9105742899999996  4.8857675599999997 15.3779971999999994
  6.2360127500000004  6.3790024599999997 16.2476847299999996
  4.5884707200000001  8.0390328300000000 18.4892221899999996
  3.0617083300000001 10.3553467099999992  0.1988903400000000
  1.9504477600000001 11.7842700899999997  1.9406665500000000
 -0.2909406100000000 13.0045410300000004  3.2060720699999998
 18.7935150799999988 14.6902088899999992  5.2987013500000000
 17.3166342499999999 16.7750568300000005  6.7846172800000000
 15.1097749500000003 18.3746138899999991  8.2124573699999992
 13.8874525799999997 -0.1018677200000000  9.7714607400000002
 11.5791410500000005  1.5432484600000000 11.6018975500000003
  9.8211958799999994  3.4772649699999998 13.2531387100000000
  9.6421722400000007  3.1009563700000000 16.6133552900000012
  8.3460265000000007  5.1350970800000004 17.7184403999999986
  6.5638029600000003  7.2676546799999997 -0.3425356700000000
  4.8583006700000002  8.2778188299999993  1.3409126600000001
  3.4861535099999998  9.7041234999999997  3.6509556700000001
  1.6831185799999999 11.8267386699999992  4.7937200999999998
  0.3817723600000000 12.7008629099999997  6.3575994500000004
 19.0785980799999990 14.7275338599999994  8.6102057999999992
 16.6288428500000016 16.5291771499999989  9.2711840999999993
 15.1147527099999994 18.0356848700000008 11.1821459399999998
 13.4471592100000006 -0.4136037600000000 13.0303829400000009
 11.2214402399999997  1.5133420000000000 14.4086302400000008
 11.4715107100000004  1.5462912099999999 18.2665594700000007
 10.0508606399999998  3.6819538399999998 -0.5148372900000000
  8.2929515400000007  5.2236110699999996  1.6637313499999999
  6.1403685000000001  6.7519357500000003  3.4730774700000002
  5.2594559600000004  8.5447223099999992  5.4731876799999997
  2.8635127699999998 10.0958932000000008  6.6302303000000000
  2.0871357200000000 11.3077454500000005  8.1870188000000006
  0.4724320400000000 13.2898427800000007  9.9501550800000000
 18.6687140900000017 14.6512063799999996 11.9494930299999993
 16.1205272800000010 16.4040062700000000 12.6836398399999997
 15.2854636799999994 18.4287162799999997 14.9486405199999997
 13.6123646899999997  0.3678227200000000 16.5376061800000009
 13.3001097099999992 -0.2359799200000000 -0.3493529200000000
 11.7709044800000004  1.9917203000000001  1.6216454800000000
  9.9767744599999997  3.3421346500000002  2.9221584799999998
  8.2876564199999994  5.0843131899999996  4.7656609400000001
  6.8860410800000000  6.2248826700000004  6.8855759699999997
  4.6262972400000004  8.5069738000000008  8.2582909000000004
  3.6562550400000000 10.2557943399999996 10.2184104300000005
  1.8057999300000001 12.3765760999999994 11.7075754500000002
  0.8293995500000000 13.7488712500000005 13.6094287099999995
 18.5493565800000013 15.2083613999999994 14.2842477999999993
 16.4782203299999992 16.0493625400000006 16.7737608400000013
 14.7238110300000002 18.1841542499999989 17.5863056399999991
 15.3796543600000000 18.4541355699999983  1.5664791700000000
 13.2725614200000006  0.5378556600000000  3.2814310700000000
 12.1321112000000007  2.0325356399999999  4.8424157799999996
  9.8614236000000002  3.6246868399999999  6.5574705299999998
  7.9654107900000000  4.5294539499999997  8.8180628100000007
  6.4428762700000002  6.8323191400000001 10.1460990399999993
  5.2067183300000002  7.9159207000000000 11.3436657499999995
  3.5136734900000000 10.1489341799999995 12.7190955100000007
  1.5463204500000001 11.6894495900000006 15.1047967199999995
 -0.0295540600000000 13.9263858599999999 16.4207417400000004
 18.3020600800000004 14.6034823399999993 18.5187926500000017
 16.5266840399999992 16.9651679199999990 -0.1307801500000000
  8.1084891399999997  8.2426418500000000 11.3576977699999997
  6.8579043000000004 10.0269789800000009 13.4706071800000000
  4.7712664800000004 11.6341221000000008 14.8834862399999999
  3.4738830599999999 13.3357084700000001 16.5344242900000005
  2.2657417600000000 15.0580875499999998 17.9960214600000015
 -0.4323082200000000 16.2049187900000007 -0.0666622100000000
 18.2469805200000010 18.4202122400000015  1.7849798900000000
 16.1285945400000017 20.0776875100000005  3.1587555699999998
 15.4620708300000000  2.5113042800000001  4.6917230500000002
 13.2638440499999994  3.8176214599999998  6.6219165400000000
 11.8550790799999994  5.1118747700000000  8.3919162899999993
  9.9068504799999992  6.7007776600000000 10.1145970300000005
  9.7249313199999996  6.7714892000000004 13.5616712400000008
  8.2918534600000005  8.2872818600000002 15.2971722799999998
  5.8762856299999999  9.7940120799999999 16.8438109599999990
  5.3547958700000002 12.0990459200000000 18.8451692599999987
  3.3925444900000001 13.6084126800000007  0.3817547900000000
  1.5030009300000000 15.2999401800000001  1.4905964899999999
 -0.3197198900000000 16.5561174199999996  3.3602783000000001
 18.4269374200000016 18.5073392400000003  4.5318489399999997
 16.6207718000000000 20.1082099300000010  6.4194361100000004
 15.1716374199999997  2.0745046000000000  8.1984484500000008
 13.3180294700000008  3.6938196200000002 10.2310042100000000
 12.1006502400000002  4.8912333900000000 11.8780420800000002
 11.3962626000000000  4.9967004299999997 14.9042391700000003
 10.3176774099999999  6.7100927199999996 16.5411838200000005
  7.9409854600000003  8.4947835900000008 17.9877777399999985
  6.5033496900000003 10.1687074800000001 -0.2189865100000000
  4.9212761900000004 10.9902281500000001  1.9006035200000000
  3.4468215000000000 13.6534719500000001  3.2576934899999999
  1.7076678400000000 15.6329519399999999  4.5641467499999999
 -0.0521016300000000 16.6938115700000012  6.5104982099999997
 18.7751647499999983 18.3522429400000000  8.2327932300000004
 17.2077345199999989  0.3221799100000000 10.0237844099999993
 14.5157460199999999  1.8644280799999999 11.8622253499999992
 12.9313441999999998  3.5934697999999998 13.0112304099999996
 12.9396249500000007  2.9853949700000002 16.1251999200000000
 11.8470219399999994  4.5124861400000000 18.5970080899999992
  9.9052780899999995  6.8352867100000001  0.0073278600000000
  8.0414693100000001  8.4838048900000000  2.0337502500000002
  6.7794391999999997 10.2971298600000001  2.8962753399999999
  4.9438487200000001 11.6122943500000009  5.1737526799999998
  3.1555616799999999 13.7694729000000002  6.7163177599999999
  1.2434636100000001 14.8813058399999996  8.2273715200000002
  0.2417009000000000 16.6517344300000012 10.2218605599999997
 18.0049667299999996 18.1779925400000018 11.5647260000000003
 16.1216576700000012 20.0582540400000013 12.9431839600000007
 14.8687543699999996  1.8467502499999999 14.5709248099999993
 14.7563069099999993  1.6754986500000000 18.0395259000000010
 13.5830734799999995  3.9489052000000000  0.0772367900000000
 11.4721836300000000  5.7571130600000000  1.7842417900000000
  9.7251084199999998  7.1873839899999998  3.3159064900000002
  7.7004881500000000  8.4316819899999995  5.2480295899999998
  6.1940889099999996  9.9489666600000000  7.0022951700000000
  4.5786100500000000 11.9979907499999996  8.1486482900000006
  3.2643697100000000 13.2997328499999998 10.0645610899999998
  2.0484777400000000 14.9669511100000001 11.4492561300000002
  0.5525948899999999 17.0660135900000007 13.6487338699999992
 18.0068246800000011 18.5482958099999991 14.6055221700000004
 16.4639009899999991 20.3410495199999986 16.6763842800000006
 16.1598204500000016  0.4437964200000000  0.2769164700000000
 14.5113481499999999  2.2111154499999999  1.7283945199999999
 13.1390230399999997  4.0469669799999997  4.0201388199999997
 11.2418648200000000  5.2698962500000004  4.9720256599999999
  9.6816482399999995  6.3840623900000004  7.0217561399999999
  8.2650165900000001  8.1470346500000002  8.7936371799999993
  6.2241868800000004 10.3402960499999992  9.6699711399999995
  5.2742626899999996 11.9777427299999992 11.4702924799999995
  3.3340860600000002 13.8462255800000005 13.3398471500000007
  2.0515361300000001 15.5600010500000003 15.0721483400000000
 -0.4309470600000000 16.6613626500000009 16.6446932799999985
 17.5308563200000016 18.4948720000000009 18.3640584599999990
