Li                                      
   1.00000000000000     
   -10.8535000000000021   18.7988134399488125    0.0000000000000014
   -18.6059999999999981  -10.7421791085421763    0.0000000000000014
     0.0000000000000001    0.0000000000000001   22.7650000000000006
   Li
   504
Direct
  0.9941755164823789  0.0041976707437641  0.9855862187568647
  0.9510723780293660  0.0329409311543785  0.6704638023281362
  0.8652542293815628  0.0697759298832210  0.3374150076872411
  0.7831150657144192  0.1425340209754111  0.0304260597408330
  0.6958374924068593  0.1816194521209340  0.6985786575884063
  0.6375633283634556  0.2108188490598337  0.3392901537447841
  0.5708552382725216  0.2459490154471240  0.0055178308807413
  0.5082768873092931  0.3037031395027725  0.6906306448495485
  0.3943128720875961  0.3478793987314432  0.3179234179661776
  0.3598340265782625  0.3618879405854472  0.9950853775532593
  0.2731564190569244  0.4226996176376261  0.6852731306830648
  0.2019640684529804  0.4621863352168987  0.3251068029870439
  0.0959681873384071  0.0410227818296534  0.6614789312541163
  0.0175590583560847  0.0592941744669560  0.3214603562486289
  0.9221971423520188  0.1291722656929153  0.9975015216340850
  0.8616608295259169  0.1623169298473854  0.6630884405886235
  0.7812350869660065  0.1978738150926844  0.3160303474632116
  0.7003921870184655  0.2600686927977591  0.0141232339117039
  0.6580347078887812  0.2818219422728774  0.6927628556995415
  0.5635434384815241  0.3170722896076938  0.3299023540522725
  0.4975255098189564  0.3565735203256963  0.9848647682846448
  0.4249685409496635  0.4251765086962678  0.6757978818361536
  0.3375969499181366  0.4686512772258169  0.3531577803645973
  0.2636360312073194  0.4936625086150315  0.0030454083022207
  0.1698283466906076  0.0569606389978219  0.3362057461014700
  0.0576619982866617  0.1305719951411248  0.9875570125192183
  0.9944322715186757  0.1839322283710629  0.6569949048978714
  0.9321689128966426  0.1872429911789908  0.3189394759499251
  0.8428430507669091  0.2723126947490826  0.9993695405227356
  0.7781517834351561  0.2937193452911160  0.6617415146057510
  0.6914664251826252  0.3526208182457466  0.3384002631232121
  0.6351701646879633  0.3801374141437819  0.9848270726993178
  0.5663235907971824  0.4200457592864026  0.6719155572150228
  0.4769161580083932  0.4522989685615357  0.3253942828904002
  0.4122697294904327  0.4795427351916359  0.9886044462991421
  0.3636935094206919  0.5614297278029952  0.6468542960685255
  0.2181678777434257  0.1234568767554407  0.0024359411377119
  0.1230062497445843  0.1787286621733415  0.6589627208433981
  0.0843700260206575  0.2037857595713675  0.3210810472216110
  0.0044150602592836  0.2442455322732400  0.9874634610147126
  0.9057052094395601  0.3157232317181382  0.6721898089171958
  0.8573523830158862  0.3169840761548457  0.3403611851526449
  0.7456481797824068  0.3861410959223690  0.0020286066329902
  0.7112542897322101  0.4055342586472932  0.6624969492642236
  0.6097769503190094  0.4538340330921571  0.3442396138809585
  0.5593615112047914  0.4908950848188098  0.9951662495058216
  0.4984804852459561  0.5386298093831599  0.6679269716670291
  0.3990485475595733  0.5827022707224643  0.3214792088732707
  0.3010927264885410  0.1811675595537281  0.6598522077750957
  0.2077572820487248  0.2011796027778274  0.3296906325499691
  0.1491576077229340  0.2480902872503066  0.9898174961563839
  0.0489834458986991  0.3146456465623189  0.6467620180101008
  0.9926163774126451  0.3248519449506517  0.3248741427630151
  0.9111171177479207  0.3819756929228717  0.9940954113771170
  0.8480458669825452  0.4256471602012795  0.6336896643971031
  0.7692586614437715  0.4367661855326261  0.3404801568196802
  0.6907347472600947  0.5011787939703609  0.9878081656050952
  0.6478959993370523  0.5246786032030144  0.6574357601581369
  0.5625341777526245  0.5894501457466319  0.3319003905117484
  0.4806770412537276  0.6091949721999725  0.9935925460136161
  0.3443079654967747  0.1942651261141961  0.3484978409839670
  0.2849841798392561  0.2344786941908339  0.9975418660224022
  0.2009426889744006  0.2953833174898577  0.6658431377113985
  0.1301656486836507  0.3416036419441042  0.3168485135075798
  0.0644121167826270  0.3755947909545156  0.0004021629694719
  0.9817171736027817  0.4259634680373097  0.6733903703052917
  0.9207584065757217  0.4576391725373767  0.3116429558532801
  0.8397358913057360  0.4896390542681530  0.0146834741928430
  0.7846085756918768  0.5504548851837185  0.6574972738853475
  0.6981534235749649  0.5780948762350420  0.3294453749176398
  0.6210881535456565  0.6128634964792141  0.9898801620909268
  0.5601650455520826  0.6535430908363153  0.6668345925763219
  0.4343503171253928  0.2497278487089929  0.9883545007687218
  0.3665692148327082  0.3110041630018898  0.6492264247748736
  0.2738460929079167  0.3137940363658984  0.3328544098396691
  0.2113575425736727  0.3736282947262524  0.9993906031188260
  0.1138751837866323  0.4281860578722885  0.6706880408521840
  0.0616371335261476  0.4722478421624174  0.3315352598286836
  0.9904123584845834  0.4926227027403840  0.9967313173731611
  0.9302287021921885  0.5537255987722816  0.6415207502745446
  0.8449246575129692  0.5775329162465326  0.3243491750494201
  0.7771015103349583  0.6181382203364265  0.9971531781243144
  0.6884106129683971  0.6814468618804383  0.6647717368767871
  0.6653956963875842  0.7051949854486352  0.3273970806061968
  0.1406573587204818  0.5141582848074364  0.0145407230397510
  0.0797853378612814  0.5546039087134602  0.6594036797715788
  0.0020212316998283  0.5735644728445592  0.3387468802987073
  0.9252464821350159  0.6035486308796933  0.0025542644410308
  0.8604551054137985  0.6787395207670315  0.6664761396881147
  0.7909364721934509  0.6830490126329352  0.3445664933011230
  0.7015741930340269  0.7399531127542289  0.9814475862068974
  0.2203551693014063  0.5653033026973660  0.6719542688337370
  0.1408343408907982  0.6023569440579237  0.3464659090709432
  0.0847162903842431  0.6202550619324185  0.0026591126729656
  0.0068643472609438  0.6756894080943425  0.6573849312541213
  0.9291625175355804  0.6929837388975386  0.3233020641335358
  0.8526067694536081  0.7227734557527299  0.0058856507797032
  0.7991237184084241  0.7853091772683101  0.6689992154623354
  0.2835293692759819  0.5922396958273168  0.3632885288820589
  0.2076981846880486  0.6103167140969745  0.0146948640456870
  0.1420759497330266  0.6996051794890121  0.6810976178343964
  0.0621946670731006  0.7166051408643526  0.3349785464528878
  0.9842789250683239  0.7446317664608699  0.0104949330112021
  0.9435062321314476  0.7795426926562001  0.6669067498352703
  0.8551718474614134  0.8280189940652249  0.3338709013837047
  0.3505304350193725  0.6408442880531666  0.0109667871732952
  0.2892202482371005  0.6683918464881557  0.6794384177465389
  0.2137318612089203  0.7053808048139842  0.3390832936525356
  0.1437645243488888  0.7619847686219146  0.9985265670986152
  0.0977150169915930  0.8092871285113219  0.6848407603777744
  0.0006518980058630  0.8335303711164883  0.3189411030090028
  0.9387292460314924  0.8885366144360560  0.0047380795080159
  0.4253349024458970  0.6728917976084858  0.6617671640676477
  0.3610720000989289  0.7034543989533617  0.3318049703492179
  0.2794892092060621  0.7443953271999391  0.0178986773555891
  0.2430595027353348  0.7940208667667434  0.6762688390072498
  0.1521070408512486  0.8263769226121127  0.3236904801229983
  0.0694272026516529  0.8769020824476144  0.0080286852624667
  0.0143217564053657  0.9181230053130349  0.6657333362618019
  0.9367202558035004  0.9596525993570211  0.3280093678893010
  0.8448855653671430  0.0110207500960797  0.9970365684164264
  0.8065596069223346  0.0384282159662703  0.6762034289479431
  0.7105954588808743  0.0736768159215515  0.3404776661541860
  0.6387524670894891  0.1104430247470845  0.0113726545135080
  0.5680272058197602  0.1672143298739783  0.6796692132659814
  0.4974991954598380  0.1939303032396396  0.3176934878102315
  0.0855583353126548  0.9525626635324116  0.3216813296727423
  0.1469116732587992  0.0082647986824469  0.9989278620689674
  0.2363328831944713  0.0575930641862215  0.6751894307050321
  0.2955735819524961  0.0735393253938810  0.3317186092686129
  0.3588443195187736  0.1178329865690131  0.9982726553920500
  0.4424386377290688  0.1874812557996108  0.6744325429387246
  0.8731993951715893  0.9122846702410641  0.6668413050735751
  0.8013070254603889  0.9599341749524726  0.3270837241379283
  0.7175316294469951  0.9969782908630052  0.0023576468262689
  0.6342057829650329  0.0447644068896551  0.6853631016911947
  0.5883312038382016  0.0757173701570508  0.3342657869536581
  0.4936916216388099  0.1293102496260943  0.0149741699978065
  0.1848766820438499  0.9284295099127746  0.6692053617395146
  0.2293736247092042  0.9409742080091732  0.3231854706786734
  0.2841516451697927  0.9855750418762597  0.0066185679771564
  0.3719534893442145  0.0706432835323341  0.6587896380408509
  0.4387669320894574  0.0741578744795817  0.3447032571930606
  0.7740790623929001  0.8708787711662183  0.9907662705908180
  0.7315199050972438  0.9309193835336487  0.6816338001317845
  0.6728143290554129  0.9488649666557620  0.3349874460795093
  0.5715030703910600  0.0050999718107363  0.9961915576542921
  0.5044920834224911  0.0422366135963657  0.6736812514825417
  0.2212083974475192  0.8749212473558714  0.9978508583351626
  0.3138082943689326  0.9269229419040528  0.6489022802547737
  0.3862798232039211  0.9515046629504624  0.3430671873489999
  0.4264049486274644  0.0020809668962656  0.9963698524050102
  0.7355412297734958  0.8305465646916801  0.3321996973424106
  0.6241194799109806  0.8731191671926339  0.0149004722161195
  0.5783037747930209  0.9177962603613850  0.6622363246211265
  0.5327223766205762  0.9599483604938470  0.3418924801229934
  0.3131127427098974  0.8190749090077460  0.3342756859213694
  0.3732192783705699  0.8732518403850875  0.0165391135515023
  0.4495871139182910  0.9358115553632089  0.6587810221831774
  0.6437996046652188  0.8133488552491670  0.6701149523391194
  0.6025634040341572  0.8275505070576870  0.3142835497474223
  0.5005405475231228  0.8679778811919689  0.9932734447616980
  0.3700557032145042  0.8225771882812722  0.6526109202723447
  0.4575311196353340  0.8170193879951597  0.3505240874148896
  0.5829812798586289  0.7454238761181529  0.0051509070942259
  0.5144014683651505  0.7990519968342937  0.6592247884911018
  0.4420000330180898  0.7631417339373385  0.9987190823632801
  0.5153436019967472  0.7137577612452048  0.3447611741708769
  0.0094147017477866  0.9855873946350897  0.7816558251702190
  0.9143710695211311  0.0450561795631756  0.4438699253239591
  0.8542178156531151  0.0913428591749366  0.1222155154842994
  0.7905209810524312  0.1237077970626359  0.7924224274105001
  0.7149027444973086  0.1851742417821427  0.4522420417307274
  0.6446603159638542  0.2055893910935396  0.1126977671864680
  0.5733140631230285  0.2087383567609464  0.7863918049637633
  0.4995872428510921  0.2845405363708267  0.4432743474632090
  0.4296224535612154  0.3290237025837541  0.1248663826048784
  0.3441228770619631  0.3826551963779394  0.7997023992971677
  0.2538779473263304  0.4135909216754641  0.4479230731385897
  0.1878375106534520  0.4447691200753923  0.1182863237425877
  0.0717979693703015  0.0285700171686258  0.4442186997584017
  0.0059994731796493  0.1084240781384835  0.1001002490665499
  0.9301693522559091  0.1045836109475715  0.7546061423237447
  0.8529415432245955  0.1660591857794174  0.4342236898748055
  0.7677636931753753  0.2207591355541823  0.1289205003294498
  0.7417807416340452  0.2488625723247821  0.8034419920931271
  0.6218533158669572  0.2896242075802391  0.4599416679112664
  0.5721014551233097  0.3426381971847334  0.1212310748956753
  0.4932017966968090  0.3601653654493830  0.7775517764111584
  0.4067181527193995  0.4280703299720514  0.4323713577860744
  0.3282959877297813  0.4465095720291714  0.1205459789150041
  0.2603560094474915  0.5138902548350899  0.7726645627059057
  0.1181210914275042  0.0794047094588635  0.0835568065012069
  0.0643911561183472  0.1102555002187202  0.7790162077750935
  0.9907063937681713  0.1603945515015113  0.4192324230177888
  0.9049497892864480  0.2377592186380468  0.0888691341972319
  0.8535676773290675  0.2512367329952170  0.7854347594992319
  0.7695063831665436  0.2980700215146683  0.4324987256753801
  0.6931585465536685  0.3377051373202065  0.1104189782560923
  0.6309129616936175  0.3557916075598371  0.7858514390511715
  0.5601288157918631  0.4203872040096215  0.4492692879420161
  0.4810136594920422  0.4588837029293344  0.1199648240720421
  0.4212378724362367  0.4924858433576986  0.7880177654293874
  0.3432824242994954  0.5325312903292172  0.4469461432022825
  0.2189527773520439  0.1339949398586242  0.7663139090709450
  0.1494686526688369  0.1575070616069425  0.4338905262464294
  0.0509313582722797  0.2114310922816145  0.1092647937623568
  0.9859490784112666  0.2521548225015238  0.7706312602679546
  0.9220897932139067  0.2857073594191561  0.4427069514605719
  0.8389999070274570  0.3718901703255710  0.1134445490885128
  0.7898328027674921  0.3685220222059016  0.7522610643531706
  0.6900194574157936  0.4207185240749070  0.4521262029431128
  0.6363255996965833  0.4584369554817371  0.0867057851965711
  0.5587738406246743  0.4933728195625093  0.7670409321326588
  0.4854557102674661  0.5298833945292927  0.4457209795739061
  0.4171367715629444  0.5579904772568796  0.1068734052273257
  0.2685360616901207  0.1518378095477928  0.4453492883812871
  0.2179302106703389  0.1966812833757672  0.1164124032506066
  0.1249130646009107  0.2455256881303924  0.7683120250384334
  0.0618940943704374  0.2807293215495221  0.4317703852404975
  0.9825675116838397  0.3357284409297776  0.0934985266856998
  0.9235618907348950  0.3890284095941539  0.7640897280913705
  0.8512620437602365  0.4054906416235795  0.4458760043927086
  0.7558574645466507  0.4725771169807018  0.1242827054689215
  0.7157941914979560  0.4794688214864493  0.7522333687678469
  0.6391667215201338  0.5467115289681388  0.4373866259609045
  0.5837345773830904  0.5713910079744551  0.1008784383922716
  0.4940734633481227  0.6338909903015804  0.7684665824730956
  0.3490836922816669  0.2070090000978695  0.1045643764550874
  0.2519916277903604  0.2740801079102084  0.7598550177904713
  0.2001184323172822  0.3030942187920260  0.4293208504282902
  0.1313933660376847  0.3280344862791580  0.0889373476828439
  0.0538493135670848  0.3642952179511809  0.7746666022402806
  0.9822122285127222  0.4239827167492791  0.4327642218317607
  0.9225885754106500  0.4535258146178904  0.1187533946848234
  0.8475570729748654  0.5045679624028452  0.7609168838128682
  0.7853689270798299  0.5482193335450418  0.4502290199868213
  0.7215397700802768  0.5975103824268402  0.1051551021304604
  0.6451176682302204  0.6013142442149473  0.7585069668350570
  0.5764071463884690  0.6517539523096190  0.4400168622886014
  0.4167633285508501  0.2633331862610646  0.7954767959587059
  0.3434040567957766  0.2721775636658634  0.4516509866022389
  0.2771710457793262  0.3067287807499781  0.1030745442565362
  0.1934122579063313  0.3935321605295954  0.7879415572150208
  0.1357597667935053  0.4214335446149988  0.4436819283988598
  0.0533577166168726  0.4433774574168936  0.1191264269712278
  0.0152040835028160  0.5078931038214662  0.7582039516802084
  0.9124241975812524  0.5448208030501931  0.4354726430924671
  0.8516493705430292  0.5811238501994609  0.1320681555018695
  0.7829835250071113  0.6423318661364803  0.7561025275642450
  0.7316846295415189  0.6666235253827324  0.4596866650560045
  0.6403039841249125  0.7085437922337050  0.1124166294750708
  0.1270537210577345  0.4997082402719499  0.7719547397320454
  0.0622694156367984  0.5384935997735170  0.4479795633648109
  0.0099994609839484  0.5556245582183550  0.1096319828684358
  0.9398926953708653  0.6072103348808113  0.7636674030309649
  0.8606288980015862  0.6755641747575964  0.4250745038436179
  0.8001179674505536  0.7253191341650762  0.1018547436854789
  0.7249947614411383  0.7547029660700133  0.7707524282890432
  0.1992524526967401  0.5337772892967863  0.4738938695365675
  0.1551611887807738  0.5885874539163680  0.1404088899626643
  0.0830658092013934  0.6455467182539323  0.7962905095541402
  0.9901613563107858  0.6771370063033899  0.4358127067867343
  0.9413048532240609  0.6819014654161393  0.1091678756863601
  0.8698261716383158  0.7394148799378470  0.7731313815067011
  0.8029806363068062  0.8090471151157743  0.4607408508675590
  0.2863926285041885  0.5683881149376404  0.1158093222051377
  0.2119716625370671  0.6336778152560427  0.7756749786953634
  0.1482164352133566  0.6673922713324671  0.4528503263782113
  0.0820021815072849  0.6842435242938123  0.1223211970129583
  0.0133573099141202  0.7597466654222913  0.7745858282451152
  0.9279199433683658  0.7963498416989907  0.4516021972325959
  0.8764660632903869  0.8472815141394037  0.0903887186470484
  0.3604707055412675  0.6176277296252763  0.7742196446299161
  0.2747575037201955  0.6782370075982413  0.4594022495058212
  0.2237616356051007  0.6909471502719526  0.1258846681309009
  0.1873544243500547  0.7673948616208079  0.7949673494399292
  0.0635738797173033  0.7918054045194154  0.4442874702394022
  0.0142158360712656  0.8335135226916321  0.1172529321326579
  0.9422524033755550  0.8649584037387612  0.7686984094003932
  0.4238593010226595  0.6697946182065238  0.4532924309246624
  0.3799141446061185  0.7083510459807272  0.1294546211289287
  0.3015864839007776  0.7652760360627155  0.7906940658906194
  0.2192269809704257  0.8024761083541563  0.4537545969690342
  0.1551854441620861  0.8169898281085040  0.1177473041950350
  0.0721736261850907  0.8960126624852265  0.7823766264001790
  0.9987847737312237  0.9186933794640524  0.4324698387876111
  0.9217618400831995  0.9704270616283424  0.1050435725895014
  0.8538220951343192  0.0028455090003092  0.7813331855919188
  0.7652456685861537  0.0441783938514533  0.4478888297825634
  0.7233480082602313  0.0846695991802449  0.1112917171096015
  0.6342205120691489  0.1190509777629529  0.8054899956072887
  0.5584933053817878  0.1590244528667526  0.4482201581374952
  0.5005593941028224  0.2197255195154781  0.1159250779705658
  0.0577744658990511  0.9450680084039931  0.1017809576103659
  0.1446740597442613  0.0064583813052579  0.7624944730946623
  0.1929574850537605  0.0342469120697118  0.4405361805403061
  0.2789730371008119  0.0868717156737802  0.1190134803426304
  0.3533129429954940  0.1397687011285811  0.7803917219415766
  0.4208113710056693  0.1683065110604076  0.4621868965517208
  0.8790178272318414  0.9016732356303976  0.4457127120579827
  0.7962576887889909  0.9630993085417998  0.1138858207775115
  0.7227809142244013  0.0105473603926427  0.7886876257412681
  0.6175881431538457  0.0336365789680642  0.4548837979354303
  0.5761343309312252  0.0755444845339142  0.1078737970568824
  0.4790540078615351  0.1073489968652481  0.7954776130024186
  0.1571828277033447  0.9053790153456802  0.4402984032506012
  0.2087580840047849  0.9702171775370374  0.1010774965956500
  0.2965219271854238  0.9987973827417491  0.7815035207555425
  0.3412526034908510  0.0418004191127608  0.4473650331649495
  0.4360465305183254  0.0923692798570031  0.0940120061497893
  0.7989592045853229  0.8642964410960516  0.7783716424335623
  0.7260065928674706  0.9223094891063539  0.4558322934328984
  0.6537217572520078  0.9744364332830955  0.1191563426312285
  0.5503425703950953  0.9969189434707530  0.7763157021743936
  0.4813915533929105  0.0507187227372938  0.4633564151109155
  0.2466218449935553  0.8904952093605516  0.7837675655611704
  0.2947464133272462  0.9067664733393954  0.4187409277399539
  0.3722796672685718  0.9492508046490684  0.1100113406545162
  0.4225707326538597  0.0038183098538838  0.7577214513507613
  0.7188116323144698  0.8297086498266637  0.0887046334285060
  0.6386716188593766  0.8983410176668656  0.7884320891719767
  0.5822501315915503  0.9139569411357158  0.4404878906215686
  0.5054641568496905  0.9515221838993781  0.1160452448934777
  0.2849524157445771  0.8211393967384808  0.1087116626400189
  0.3557473132573747  0.8829962187230507  0.7791664559631002
  0.4475528603983960  0.9013272772044516  0.4444224559630996
  0.6522995234290789  0.7909710750544221  0.4591759995607276
  0.5795990554115349  0.8325355332737203  0.1177367010762111
  0.4975872920624695  0.8884951728259693  0.7675133112233681
  0.3592550270843233  0.7846823290089375  0.4434276472655370
  0.4512002509697055  0.8213279375524181  0.1382810555677594
  0.5803151939231199  0.7443205951174576  0.7615571811992083
  0.5316417743986150  0.7801403010622678  0.4446119705688574
  0.4553198715363891  0.7649826778608997  0.7666657461014736
  0.4920455702155024  0.6791473075172547  0.1104626167362213
  0.0166261122818057  0.9932096275582794  0.2123351469360841
  0.9224633470466799  0.0551291353772356  0.8874525069185140
  0.8833516716653236  0.0920064055455398  0.5593290898308823
  0.7993331930399350  0.1051537030711103  0.2355811719745233
  0.7197428616122394  0.1616706482581733  0.9215077021743880
  0.6271234990196319  0.2024359396641131  0.5633298954535491
  0.5732417015074844  0.2434165867294737  0.2256568218756883
  0.5097598076511076  0.2958473770643195  0.8860783202284210
  0.4325816257357218  0.3310031422700916  0.5570852629035770
  0.3643861779790427  0.3883273130874159  0.2185009971447371
  0.2734123081087318  0.4427820495507788  0.8708641352954061
  0.1898809224642477  0.4681899488355512  0.5763139182956323
  0.0579072806123122  0.0540578963707574  0.8888584036898735
  0.0144191711342714  0.1100842898040568  0.5486598352734475
  0.9404669800535146  0.1329776379656664  0.2130723869975810
  0.8601675088304717  0.1870767770024955  0.8983359508016662
  0.7823030391872194  0.2019739957100697  0.5633354803426300
  0.7107444940228049  0.2574296815072259  0.2228887700417275
  0.6290647931855489  0.2841418401139748  0.9074956925104303
  0.5691496196544676  0.3346617109040224  0.5715750419503607
  0.4975434361056301  0.3592966347537114  0.2302700922468688
  0.4134928138115299  0.4285668158280416  0.8926687577421504
  0.3286276284996177  0.4544995014554090  0.5632952558752464
  0.2680743696568157  0.5126700800241721  0.2285587999121432
  0.1475209828069666  0.1011589849029662  0.5382954926422130
  0.0795935537367924  0.1193081975984995  0.2268439543158323
  0.9854573281719681  0.1736883370249132  0.8719859714473941
  0.9365478702883721  0.2360239626908083  0.5442436055348097
  0.8484845594480390  0.2416380078485858  0.2099305389852830
  0.8023527419517151  0.2955215051718270  0.8903228693169325
  0.7060848414657741  0.3597363336101935  0.5457116766966834
  0.6355180236471014  0.3834764560005439  0.2235707581814168
  0.5693493701189212  0.4150456025698332  0.8787252826707643
  0.4777264879178134  0.4608269506279683  0.5472632053591013
  0.4195328832935630  0.4953956530782193  0.2269325455743498
  0.3489812453005641  0.5484765153246443  0.8845983426312287
  0.2165575077889343  0.1195824948518123  0.2157769536569276
  0.1332156318765385  0.1452533843613892  0.8842416696683486
  0.0785135056292887  0.2264167987021679  0.5394305064792420
  0.9923074472502122  0.2375486854385613  0.1921742631232135
  0.9250106943506182  0.3092311484932608  0.8856906527564234
  0.8280048147753476  0.3390922478144560  0.5345414544256499
  0.7871251231812550  0.3826498686204616  0.2281897689435510
  0.7153719932625435  0.4073829813568182  0.8832866312321528
  0.6168271635293294  0.4621131710541988  0.5578128218756859
  0.5557565848789991  0.4946688184465131  0.2160964577201838
  0.5033109259791786  0.5605083325209606  0.8752331060839040
  0.4173125930802826  0.5691255369774879  0.5498564195036266
  0.2818588616734559  0.1853804248536548  0.8784158603118826
  0.2069025379224669  0.2227875505029857  0.5459536138809611
  0.1472775604158656  0.2872876146418548  0.2097358273665719
  0.0740174963301214  0.2825643525519226  0.8880836468262672
  0.9946955682836602  0.3360867316797425  0.5545774724357599
  0.9366828708536445  0.3546793293125816  0.2279166914122541
  0.8438934283884549  0.4314106092113263  0.9002345974082999
  0.7666072007431239  0.4907105835071732  0.5526505350318445
  0.6959779890151978  0.5100309032690262  0.2278738225345904
  0.6288256202153377  0.5222618440821734  0.8755033301120108
  0.5499214823011229  0.5884289880600235  0.5535046628596518
  0.4803474902175680  0.6223434749502132  0.2125691491324417
  0.3577783472959410  0.2070839502108726  0.5451170770920299
  0.3141524284847037  0.2299448547479983  0.2271509945091168
  0.1956303718047820  0.2770946371932084  0.8767793999560709
  0.1379708631392234  0.3534975006405716  0.5367024691412254
  0.0755817633643332  0.3730985602131156  0.2083338181418810
  0.9756908089100307  0.4231892892343865  0.8749977733362613
  0.9302872563173139  0.4631495804342691  0.5438013872172220
  0.8587779175829340  0.4953752795610882  0.2308528688776619
  0.7711121750744994  0.5371353551450611  0.8650876846035587
  0.7132686268130044  0.5809360861488244  0.5602964375137276
  0.6268435902690257  0.6241777084281992  0.2362028838128722
  0.5755991117488719  0.6877758798577673  0.8894175936745015
  0.4365253898552623  0.2590693561864938  0.2393744748517435
  0.3531331380016169  0.3143055646941519  0.8946508227542296
  0.2999636430592787  0.3414300532116599  0.5498706162969498
  0.2291911917849347  0.3776916113061475  0.2158882503843600
  0.1292666213962264  0.4178412288872408  0.9110551688996296
  0.0742436987168418  0.4674903174232412  0.5528618792005275
  0.0044525462461280  0.4851891625990348  0.2216797166703302
  0.9077274752997511  0.5399090178885402  0.8749723623984167
  0.8434529192025906  0.5827334296159634  0.5487535980672078
  0.7656407591714967  0.6312266854956547  0.2262745301998663
  0.7146547720388199  0.6589521950809782  0.8766160720404130
  0.6403352576585064  0.6979301473182531  0.5784289760597403
  0.1196866405282293  0.4849584627016483  0.2312529764990146
  0.0609599562764345  0.5323150701146773  0.8835814566220108
  0.0020278707625820  0.5899987963387261  0.5476228679991237
  0.9355719257650463  0.6302025160544460  0.2153467537887082
  0.8577432336059232  0.6477991101826390  0.8877883285745654
  0.7833456392532270  0.7086121199809270  0.5515802789369673
  0.7034522321949979  0.7601589486118243  0.2239582697122771
  0.1920419718763995  0.5586269825991366  0.8886653011201417
  0.1433222289656868  0.6172269906439283  0.5553343290138386
  0.0628626969308996  0.6166966864914798  0.2434893340654511
  0.0113407444267679  0.6608410953651571  0.8919678682187566
  0.9014040420859928  0.6965687422992417  0.5472611838348342
  0.8656447330707309  0.7431600042790905  0.2233674768284644
  0.7934143192319496  0.7659755850916952  0.8809319270810434
  0.2780296553471473  0.5986440038530461  0.5795435334944017
  0.2242919660758389  0.6314130380627674  0.2372921686799927
  0.1229651715606792  0.6702491884588966  0.9038454083022174
  0.0736661701281065  0.7087404456903457  0.5501316736217845
  0.0263522179239004  0.7466149249039518  0.2310898409839695
  0.9351718356353871  0.7763004478088433  0.8753814715572119
  0.8898574834051090  0.8434532953812024  0.5609085653415349
  0.3393192358535657  0.6066922451716295  0.2234061471557212
  0.2804819132782086  0.6710022005930867  0.8942554794640927
  0.2113846986153831  0.7110372715026330  0.5736454043487811
  0.1669759212880351  0.7258921755509178  0.2424848359323519
  0.0689880263026126  0.7838733213224032  0.8968238304414697
  0.0111959240033528  0.8252573846517066  0.5507394430046091
  0.9341961905748306  0.8785275527032184  0.2321774236766956
  0.4310060665000890  0.6810792216081509  0.8958906597847545
  0.3611476159391458  0.7227932124263390  0.5801902846474860
  0.3126708750106886  0.7515504234156438  0.2135820874148919
  0.2303292002752499  0.8066474919280111  0.9023335045025291
  0.1572574849018835  0.8490486900794068  0.5551333569075325
  0.0924434268001377  0.8675739233163924  0.2228638392268820
  0.0088161196247896  0.9128875220709602  0.8890805477707033
  0.9608368729910381  0.9681142109530114  0.5430182727871724
  0.8597828156911476  0.9758609899976420  0.2219556318910634
  0.8056661743116393  0.0394148767660241  0.8990432334724332
  0.7414771712298815  0.0818221687657967  0.5673460724796868
  0.6605211023641289  0.1381257882129958  0.2135851245332745
  0.5601607679370844  0.1465872517034725  0.9032419218097942
  0.4990442340584806  0.2134145289501390  0.5575713801888895
  0.0950938015578870  0.9523732169618100  0.5459801203601984
  0.1671388898690083  0.9798725120287344  0.2166083369207144
  0.2320391397477408  0.0311469018998096  0.8848375620470037
  0.2771159604115994  0.0779999469887471  0.5657873674500351
  0.3737806581106611  0.1189844263783684  0.2434585714913240
  0.4501950947536102  0.1634424040143827  0.9029525837909063
  0.8736578141152265  0.8890517921369607  0.8664006944871545
  0.8234137216723454  0.9576513781484053  0.5665213244014922
  0.7385076568292561  0.9891283207891917  0.2335803224247783
  0.6512556643365599  0.0172759747996949  0.8804020404129176
  0.5652428121003581  0.0830214236734790  0.5718522763013425
  0.4990878901628477  0.1144552017691893  0.2156203667911285
  0.1435426924816028  0.9118352019322202  0.8866945416209120
  0.2273994888856450  0.9705751917327561  0.5488738502086505
  0.3128904871944869  0.9758160172651102  0.2208222982648778
  0.3734425585310319  0.0526330200464074  0.8862483878761225
  0.4362657792230920  0.0757291817264445  0.5838030133977625
  0.8027210297026528  0.8710285517640699  0.2080784594772709
  0.7317381467799606  0.9055777724348957  0.8955093929277425
  0.6606965114703414  0.9748013884100075  0.5441866224467375
  0.5789332986598481  0.0071179008381890  0.2129787520316242
  0.5139917932984446  0.0180909943800529  0.8961785310784123
  0.2368996999897917  0.8618076677502273  0.2215874047880533
  0.3098511040095104  0.9235178298738447  0.8955323751372717
  0.3644323365883650  0.9476349131913437  0.5432300601801003