Li                                      
   1.00000000000000     
    20.6400000000000006    0.0000000000000000    0.0000000000000000
     0.0000000000000000   20.6400000000000006    0.0000000000000000
     0.0000000000000000    0.0000000000000000   20.6400000000000006
   Li
   432
Direct
  0.9956068672480640  0.9874520949612418  0.9881459452519366
  0.9246146729651130  0.0774592611434102  0.0767970906007776
  0.8680299171511621  0.1656769525193766  0.1572242030038780
  0.7561693095930266  0.2325553154069766  0.2009809733527135
  0.6866291521317862  0.3216525392441838  0.3194086540697683
  0.6015119079457349  0.4061756831395371  0.4024127248062044
  0.5204323561046493  0.4818710915697650  0.4946476719961268
  0.4345459147286803  0.5777331279069742  0.5852716361434105
  0.3277818517441844  0.6400027102713182  0.6605045542635679
  0.2642077335271296  0.7414441967054231  0.7438533459302334
  0.1684179021317860  0.8283268415697691  0.8216207480620170
  0.0928739050387577  0.9219998963178284  0.9131964161821671
  0.0752100125968980  0.9095420135658898  0.0887012635658948
  0.9926077335271302  0.0012333638565920  0.1808469312015504
  0.9102793531976729  0.0841741031976753  0.2615245959302328
  0.8091422751937998  0.1825313071705423  0.3329828837209305
  0.7649219123061997  0.2548915343992277  0.4079958449612420
  0.6649417718023258  0.3270419781976770  0.4995995804263558
  0.5967106913759679  0.4283484355620146  0.5817307756782952
  0.5146009966085288  0.5091142572674414  0.6888350029069770
  0.4085786976744217  0.5764477863372122  0.7461597645348803
  0.3150889917635666  0.6558095697674418  0.8297588221899233
  0.2453740750968976  0.7520658522286823  0.9209575503875982
  0.1634266521317826  0.8276970121124023  0.0109641962209324
  0.1593478687015519  0.8431222592054297  0.1700001434108529
  0.0749549956395370  0.9063776283914748  0.2702155111434124
  0.0132929345930251  0.0068133909883699  0.3292382843992243
  0.9092943493217049  0.0881377708333346  0.4177348304263546
  0.8367703435077516  0.1751446656976725  0.5022642097868228
  0.7487480164728666  0.2400894142441885  0.5882286283914695
  0.6637861046511659  0.3120181845930219  0.6886047509689917
  0.5827241322674439  0.4107870038759671  0.7550244224806235
  0.5005063255813980  0.5086046138565905  0.8394338372092989
  0.3958067083333319  0.5707806303294589  0.8999981487403090
  0.3371685746124058  0.6733373236434090  0.0058504476744190
  0.2227200528100752  0.7294751976744180  0.0699086574612409
  0.2437441656976773  0.7193431598837208  0.2601537180232540
  0.1613156317829478  0.8087431371124012  0.3305178846899253
  0.0884855164728648  0.9091092708333335  0.4205177470930224
  0.0052640920542615  0.0086173769379840  0.4817194181201572
  0.9143659263565880  0.1029919137596877  0.5535809612403071
  0.8260058842054292  0.1743502931201562  0.6660277088178290
  0.7585326182170533  0.2508035411821723  0.7475135620155058
  0.6779302136627905  0.3409231453488388  0.8515303531976741
  0.5811169825581430  0.4423732034883727  0.9067300876937949
  0.5065113217054247  0.5049810978682174  0.9982794375000026
  0.4273050794573621  0.5979114287790708  0.0698727529069743
  0.3160685222868196  0.6694737906976727  0.1466346947674424
  0.3229548473837198  0.6472464258720905  0.3612325906007783
  0.2498104660852718  0.7678462131782950  0.4227406279069754
  0.1712023052325549  0.8323293449612379  0.4939507625968957
  0.0715418875969007  0.8948505973837229  0.5912276923449582
  0.9757155998062004  0.9998841046511657  0.6611980300387614
  0.8878352393410864  0.0894010373062031  0.7651186438953488
  0.8422247306201527  0.1899413788759716  0.8636098415697688
  0.7495482034883736  0.2344914786821732  0.9454750726744194
  0.6604135518410885  0.3188338609496100  0.9814291850775163
  0.5740922674418627  0.4178181225775219  0.0646210174418584
  0.5009591821705399  0.5202660668604651  0.1689206308139504
  0.4076362945736420  0.5887253871124045  0.2545915707364372
  0.4140764016472858  0.5928149026162757  0.4520117829457391
  0.3189743100775217  0.6851353454457367  0.4971413032945762
  0.2466867742248056  0.7477246472868231  0.5795060353682189
  0.1733996497093031  0.8336659365310055  0.6780616477713153
  0.0893936816860474  0.9243584757751933  0.7213803997093038
  0.0070202078488393  0.9941440760658935  0.8278707650193766
  0.9206721395348865  0.1010031908914755  0.9286291283914707
  0.8469169680232582  0.1733362068798456  0.9997439844961207
  0.7660128604651177  0.2645627088178273  0.0782898565891443
  0.6718548313953505  0.3371290557170568  0.1535849796511641
  0.5809509389534853  0.4055227078488386  0.2385321889534850
  0.4925115310077501  0.5139021540697684  0.3455499612403088
  0.0974989462209308  0.0778996090116308  0.9424046419573671
  0.9935265334302343  0.1872707737403090  0.9958465155038780
  0.9221455697674443  0.2783454723837195  0.0809678386627937
  0.8384104190891506  0.3529397131782943  0.1504703275193791
  0.7481397529069795  0.4319809462209321  0.2326275009689951
  0.6544778512596920  0.5068773052325568  0.3262136080426359
  0.5819210906007726  0.5881516845930221  0.4294674874031017
  0.5185233192829486  0.6970982131782932  0.5165789399224820
  0.4127633638565911  0.7442966724806226  0.5991044534883727
  0.3195354084302338  0.8340633202519356  0.6515032388565913
  0.2643162262596874  0.9159596240310108  0.7566162577519364
  0.1610303367248065  0.0081507921511630  0.8359518430232526
  0.1572579898255810  0.0027570024224772  0.0180894205426370
  0.0762420343992218  0.0902433149224819  0.0884731342054295
  0.9935188343023285  0.1670984728682186  0.1589507291666692
  0.9110564840116311  0.2556579287790726  0.2412951051356558
  0.8377615155038782  0.3306222863372099  0.3131583134689890
  0.7635748861434095  0.4149767839147316  0.4238021976744193
  0.6758754636627913  0.4950504685077490  0.5022105973837228
  0.5888514515503900  0.5878885188953475  0.5921733139534879
  0.5096673318798466  0.6512535208333361  0.6930654777131764
  0.3872935930232586  0.7429790043604640  0.7538792892441890
  0.3246801734496145  0.8262338580426345  0.8446161923449580
  0.2479333425387580  0.9149293716085296  0.9420448139534869
  0.2479070479651142  0.9238674282945709  0.0897489050387605
  0.1481643900193816  0.9957174825581419  0.1860417388565878
  0.0970573541666653  0.1087830838178263  0.2517220281007724
  0.0043174447674446  0.1499006787790691  0.3412125770348808
  0.9156067810077531  0.2490702567829430  0.4061211947674437
  0.8406919137596915  0.3071026996124004  0.4861652432170516
  0.7554730586240339  0.3760617088178293  0.5872967204457353
  0.6828771836240293  0.4942215222868214  0.6848490610465134
  0.6004303139534883  0.5963712688953464  0.7748178880813938
  0.5055626254844938  0.6577980373062005  0.8583521443798432
  0.4033597374031004  0.7480720876937994  0.8930876240310042
  0.3299126235465124  0.8097145450581422  0.0070857684108532
  0.3144734593023273  0.8148521598837206  0.1556880576550412
  0.2428592030038743  0.8910113997092992  0.2659310087209334
  0.1756898250968959  0.0069892616279077  0.3423089365310048
  0.0860022359496142  0.0836645465116277  0.4148162495155034
  0.0192070809108529  0.1609345305232566  0.4877563372093050
  0.9184343842054261  0.2465033454457384  0.5859917238372105
  0.8407000048449618  0.3239670339147267  0.6829803638565863
  0.7563420310077547  0.4127923057170548  0.7420300983527142
  0.6764546259689936  0.4916518187984522  0.8432647320736422
  0.6037702611434099  0.5758678265503860  0.9326999394379811
  0.4861001201550366  0.6824754350775208  0.9837782877906989
  0.4106338401162759  0.7564416022286835  0.0985000382751906
  0.4084097669573623  0.7390074064922487  0.2624069990310076
  0.3264051443798479  0.8292789660852691  0.3320593919573653
  0.2508568207364306  0.9226292214147307  0.4129776618217065
  0.1511969854651198  0.9896259273255836  0.4970238313953459
  0.0786378381782953  0.0779740532945752  0.5830076424418635
  0.9821156749030990  0.1787087102713159  0.6454732684108535
  0.9195892674418573  0.2463935489341083  0.7639569021317811
  0.8368168628875949  0.3374320348837188  0.8400292863372059
  0.7585911414728699  0.4182300111434074  0.9239800620155023
  0.6457112727713152  0.5009837126937953  0.9975406690891475
  0.5681985600775192  0.6089588590116293  0.0834175174418590
  0.4824400697674420  0.6568569118217056  0.1546922592054258
  0.4894516269379849  0.6454546560077503  0.3322510373062002
  0.4230898260658904  0.7570878536821724  0.4026630876937958
  0.3407201928294583  0.8276779898255811  0.4782413498062041
  0.2416521128875999  0.9130137543604633  0.5663029602713152
  0.1744520232558173  0.9761811763565902  0.6510633837209312
  0.0592247567829460  0.0786674447674400  0.7361736521317823
  0.9990631627906978  0.1534258052325583  0.8180862558139523
  0.9441105440891491  0.2549771947674415  0.9183908120155024
  0.8426301327519354  0.3479101216085283  0.9871254273255801
  0.7297661608527122  0.4114249336240334  0.0742662097868205
  0.6602774408914698  0.4998283851744176  0.1671082335271308
  0.6016659287790702  0.5932427635658897  0.2475513013565873
  0.1803181884689948  0.1384679186046540  0.8317719103682180
  0.0968765227713178  0.2322452228682153  0.9001190009689921
  0.9935884147286842  0.3565737500000026  0.9956022732558125
  0.9358733963178310  0.4363504689922451  0.0828416787790687
  0.8372833013565923  0.4884162805232535  0.1526736535852677
  0.7775080697674426  0.5787722955426347  0.2378362437015511
  0.6638694568798442  0.6644363047480653  0.3322158183139550
  0.5695631351744197  0.7587338168604632  0.3905613343023262
  0.5148785780038736  0.8336847524224780  0.4991424462209295
  0.4271253212209274  0.9117660339147307  0.5886066787790725
  0.3321448948643422  0.9840027761627894  0.6431235474806201
  0.2656994370155061  0.0558361148255813  0.7416903037790732
  0.2378209883720928  0.0747290954457398  0.9373204234496129
  0.1764968565891465  0.1857183255813979  0.0024232674418627
  0.0694293527131791  0.2627209563953485  0.0918060159883751
  0.0006182112403081  0.3471441564922486  0.1682589084302322
  0.9126501240310105  0.4253029534883694  0.2479613323643406
  0.8420088875968972  0.4885023759689915  0.3503759907945749
  0.7619819462209279  0.5750420101744211  0.4060171545542630
  0.6788357693798446  0.6507807650193769  0.4974946211240336
  0.6042586075581369  0.7517555111434078  0.6107913280038773
  0.4893857291666635  0.8219519195736424  0.6813129612403088
  0.4133225218023284  0.9393690794573644  0.7228451841085288
  0.3097316933139567  0.9803080469961216  0.8480263134689920
  0.3236418483527146  0.0100553885658883  0.0115579549418570
  0.2228142674418621  0.0697300843023285  0.0760072020348872
  0.1800119762596921  0.1920254011627875  0.1706553236434090
  0.0669982940891458  0.2506884205426374  0.2440844520348833
  0.9828938115310066  0.3639890823643412  0.3270632315891504
  0.9139197030038773  0.4089871002906946  0.4432520087209326
  0.8251562529069787  0.4963179282945731  0.5274792170542639
  0.7409153619186029  0.5856709060077492  0.5882146812015492
  0.6659088604651160  0.6671476492248090  0.6697517950581400
  0.5763113929263568  0.7340229379844985  0.7856206492248035
  0.4895671438953499  0.8378450876938004  0.8489398163759674
  0.4053402228682188  0.9222163987403107  0.9134114437984522
  0.3891150973837227  0.9154024215116294  0.0841889379844929
  0.3131231477713143  0.9993407063953512  0.1598717063953501
  0.2358281346899247  0.1048178512596891  0.2405541589147262
  0.1900889573643383  0.1833074607558132  0.3363863798449600
  0.1029531172480631  0.2611425799418612  0.4141165125968982
  0.9947496482558122  0.3225789525193790  0.4946500072674453
  0.9157133003875941  0.4097817509689889  0.5979726090116273
  0.8331800930232589  0.5054940043604645  0.6582411162790720
  0.7674924607558111  0.5927681545542640  0.7583931487403106
  0.6764430595930264  0.6593226894379853  0.8406172858527157
  0.6016759108527125  0.7558423968023220  0.9301753037790661
  0.4763240232558132  0.8257477664728654  0.9963273585271324
  0.4841962170542615  0.8339417059108527  0.1854329336240284
  0.3819772577519345  0.9045330625000005  0.2412523691860500
  0.3099748827519377  0.0024727422480595  0.3328850096899245
  0.2362692165697666  0.0802487771317857  0.4417633958333340
  0.1588435663759711  0.1604783091085267  0.4903801172480655
  0.1008942727713205  0.2379496690891472  0.5929403842054271
  0.0193609525193779  0.3272955029069777  0.6941168779069784
  0.9081888696705391  0.4160575155038728  0.7494485445736458
  0.8151826312984483  0.4989233541666636  0.8527884186046535
  0.7456139161821724  0.5881469108527142  0.9496986337209279
  0.6783243158914729  0.6737868522286803  0.0221831419573633
  0.5760185586240283  0.7610444723837233  0.0934797945736463
  0.5664934626937992  0.7451050978682190  0.2537796749031003
  0.5003468871123999  0.8586197349806213  0.3152635363372127
  0.3975758662790696  0.9240006874999978  0.4181840639534897
  0.3414427388565926  0.9922790930232566  0.5082412916666641
  0.2562777088178265  0.0820875576550364  0.5733633042635660
  0.1650554413759693  0.1359442718023232  0.6689705775193815
  0.0895274723837218  0.2323475150193772  0.7580142005813926
  0.0176969723837175  0.3306688817829482  0.8292721763565893
  0.9257942916666693  0.4358186366279071  0.9218301201550361
  0.8111747582364330  0.5034521269379866  0.0020555935077482
  0.7531150629844987  0.5656865673449616  0.0979956240310074
  0.6785636899224841  0.6768354282945737  0.1639966477713202
  0.2330354093992213  0.2425751269379859  0.7488929428294568
  0.1757791065891467  0.3362927117248091  0.8341504689922488
  0.0724343536821692  0.4288773691860470  0.9089936346899208
  0.0122974752906941  0.5214751419573673  0.9707118483527140
  0.9204763498062007  0.5891049016472891  0.0712299796511644
  0.8558159660852738  0.6733010334302350  0.1535142441860486
  0.7599305687984526  0.7259287170542663  0.2503601603682171
  0.6660684956395357  0.8497119011627916  0.3156500426356601
  0.5862012921511592  0.9216603280038740  0.4197355852713187
  0.4824703638565921  0.0094963333333311  0.5055140358527126
  0.4137706390503908  0.0701791327519388  0.5850165029069743
  0.3270063420542613  0.1697064932170562  0.6738790387596865
  0.3196727403100752  0.1588325760658904  0.8152055237403104
  0.2479850469961207  0.2654571419573628  0.9116704849806183
  0.1740809481589167  0.3389960625000015  0.9925363091085302
  0.0879632403100743  0.4389576734496146  0.0879355261627879
  0.0154916981589182  0.5166529927325598  0.1526462223837228
  0.9006145881782928  0.5693151094961237  0.2481190440891439
  0.8498266182170511  0.6495124835271326  0.3276092839147253
  0.7474994273255788  0.7518452698643401  0.3970287136627917
  0.6649860610465126  0.8063721312984526  0.4880471240310058
  0.5772688071705403  0.9186838168604652  0.5834850542635692
  0.5123907645348851  0.0056234307170513  0.6563201216085304
  0.4015889549418574  0.0801075867248073  0.7552715968992274
  0.4172635343992255  0.0934332122093053  0.9113561075581416
  0.3218510382751916  0.1662181385658883  0.0012015562015506
  0.2678272490310079  0.2670744384689954  0.0932498246123998
  0.1649942722868190  0.3318501758720913  0.1754893527131784
  0.0816195610465087  0.4207472049418612  0.2463520397286842
  0.9839004365310089  0.5149943851744183  0.3292102703488382
  0.9307500576550396  0.5765924263565907  0.4448461511627926
  0.8226642848837216  0.6623450377907005  0.5101171719961215
  0.7564546332364372  0.7360433241279054  0.5683794689922479
  0.6356060605620186  0.8291074215116296  0.6819887931201549
  0.5841993832364309  0.9490423672480617  0.7349325436046499
  0.4964936618217024  0.0032479132751959  0.8351460915697686
  0.4971259224806204  0.0071461187015487  0.0096657877906949
  0.4110264345930261  0.0961998338178276  0.0745211632751932
  0.3333108628875934  0.1617416453488403  0.1498588793604654
  0.2692027306201581  0.2664076608527139  0.2559693415697666
  0.1752915697674453  0.3367137732558163  0.3359870445736419
  0.0815405062984524  0.4333799195736461  0.4049733309108561
  0.0060708265503848  0.4906884040697648  0.5095403628875985
  0.9257913754844935  0.5829481104651180  0.5931198696705451
  0.8492852732558163  0.6634814641472886  0.6671376380813925
  0.7430748381782948  0.7436141327519366  0.7329201327519357
  0.6630743527131813  0.8402610615310095  0.8244831400193817
  0.5822154622093052  0.9199345203488392  0.9129126405038761
  0.5670278866279048  0.9026906385658933  0.0831053406007740
  0.4694510964147298  0.9946181787790707  0.1786597330426360
  0.4095850823643445  0.0596970222868194  0.2557403473837212
  0.3384968217054265  0.1711913895348829  0.3341201443798454
  0.2552924006782931  0.2505890130813953  0.4343633280038759
  0.1729104452519366  0.3317848866279078  0.4882363207364335
  0.0747491501937958  0.4069495750969025  0.5733617039728713
  0.0310249554263535  0.5049701211240318  0.6849301608527156
  0.9137108158914700  0.5791931395348868  0.7638094903100807
  0.8326832611434085  0.6664524098837177  0.8424272921511644
  0.7501703139534897  0.7758099680232533  0.9258163590116268
  0.6700901090116247  0.8698127422480653  0.0015248541666679
  0.6791281545542631  0.8295973706395330  0.1743119486434139
  0.5803217107558112  0.9298080135658893  0.2401980959302321
  0.4951684476744163  0.9967673231589131  0.3369144568798461
  0.4175417902131784  0.0868651855620186  0.4275412466085271
  0.3205159273255802  0.1709716245155022  0.4966830193798444
  0.2296195930232585  0.2539009515503849  0.5888072810077531
  0.1284437669573677  0.3349975193798471  0.6768652296511632
  0.0930398701550388  0.4080874704457358  0.7506217330426352
  0.9980206269379863  0.4903542475775211  0.8146201453488402
  0.9210766894379816  0.5920766589147277  0.8979105959302345
  0.8283979665697672  0.6752596346899224  0.0008258478682137
  0.7741433435077525  0.7509910334302319  0.0767835111434110
  0.3174315004844956  0.3246705939922450  0.6709652509689903
  0.2408524491279067  0.4224128018410838  0.7525671952519346
  0.1589684869186030  0.5103578037790726  0.8217707461240309
  0.0694934413759682  0.5927498531976738  0.9018141768410857
  0.0067116913759691  0.6619942131782963  0.0108765387596890
  0.9328430499030986  0.7489128081395364  0.0923982834302350
  0.8560040135658937  0.8330561913759666  0.1484501312984463
  0.7808798192829443  0.9134951007751937  0.2331111279069802
  0.6792647398255838  0.9893506942829475  0.3384888890503888
  0.5742813081395326  0.0828408609496094  0.4156653105620123
  0.5080855033914702  0.1723202819767451  0.5187455339147320
  0.4297772698643385  0.2597039520348829  0.6106980586240311
  0.4125790746124025  0.2225641768410824  0.7473123226744178
  0.3327828052325614  0.3214149060077531  0.8177351230620147
  0.2564857747093043  0.4282320426356563  0.9186196487403109
  0.1547270077519372  0.5008352582364353  0.9869815450581427
  0.0876586148255782  0.5913644990310090  0.0612125276162772
  0.9918726361434125  0.6497713095930209  0.1753793483527133
  0.9314145600775205  0.7550058880813921  0.2681859791666668
  0.8514295092054240  0.8373061002906965  0.3332063115310078
  0.7498073037790718  0.9163863100775202  0.4157749781976747
  0.6655356167635631  0.0038000968992264  0.5046004665697694
  0.5891819883720899  0.0863662562984473  0.5757123396317851
  0.5195584825581392  0.1625480082364348  0.6741305489341087
  0.5046733381782929  0.1745136763565895  0.8398066531007728
  0.4026938594961251  0.2493266298449583  0.9128259031007744
  0.3216781749030986  0.3605879665697671  0.0166422805232571
  0.2032426681201542  0.4077466356589170  0.0847780343992213
  0.1733893711240313  0.5044423609496107  0.1670070319767447
  0.0921191879844940  0.5726016690891456  0.2430619147286848
  0.9979796269379833  0.6544259031007726  0.3386443154069738
  0.9046913706395330  0.7198265198643412  0.4115889176356617
  0.8362774617248050  0.8246941031976718  0.4928051729651131
  0.7435238938953503  0.9077128439922504  0.5559845702519368
  0.6679424844961233  0.9968011264534908  0.6631556187015519
  0.5936240363372107  0.0997750683139529  0.7478467562984505
  0.6008664156976735  0.0920093667635626  0.9114342645348827
  0.5128686056201559  0.1540038585271333  0.9950951036821678
  0.4143944326550368  0.2416980886627940  0.0864502238372111
  0.3357572340116306  0.3449199559108536  0.1691914467054261
  0.2464936472868189  0.4217897742248056  0.2611068105620120
  0.1585760857558114  0.5025131099806188  0.3518927315891460
  0.0984538585271295  0.5819680479651197  0.4338335474806172
  0.0084423260658895  0.6672422650193823  0.4889947044573617
  0.9344999229651165  0.7431379418604678  0.5611350707364338
  0.8316434990310100  0.8298330184108522  0.6537596308139513
  0.7642270406976763  0.9050523057170565  0.7361917427325579
  0.6700437892441826  0.9786115581395336  0.8222406918604648
  0.6501288042635665  0.0023454985465108  0.0169507926356616
  0.5847739447674414  0.0864199195736433  0.0995799864341080
  0.5131765145348837  0.1643863905038785  0.1875872446705458
  0.4201782204457345  0.2209148861434116  0.2423026937984503
  0.3406028241279060  0.3373577529069749  0.3392435547480588
  0.2530446303294553  0.4084317509689939  0.4165969452519391
  0.1710180809108550  0.4942632340116262  0.5160524946705394
  0.0665088154069764  0.5805719854651130  0.5661163221899201
  0.0192654016472886  0.6579339016472900  0.6876735164728700
  0.9226104801356598  0.7610513977713182  0.7631852364341114
  0.8078087926356616  0.8500640174418592  0.8198678071705459
  0.7592341705426335  0.9299248914728651  0.9206979631782914
  0.7404472940891438  0.9249528531976736  0.0816853062015497
  0.6585541618217050  0.0093257388565888  0.1698352916666650
  0.5814782291666631  0.0710792858527114  0.2584992398255821
  0.5206044467054269  0.1510971603682165  0.3100857407945767
  0.4364837044573662  0.2385610571705428  0.4132790629844934
  0.3547609166666632  0.3492526482558134  0.5081642480620161
  0.2299966366279094  0.3870878289728665  0.5897153168604632
  0.1696713498062010  0.5145606070736406  0.6594844951550414
  0.0961679176356611  0.5862588570736449  0.7492311841085240
  0.9925094462209287  0.6586639772286844  0.8259199781976747
  0.9339527485465098  0.7604127422480644  0.9032713217054251
  0.8525921535852703  0.8433804103682192  0.9895661560077542
  0.4348206298449639  0.4359167911821729  0.6146488381782973
  0.3339674641472854  0.5124857335271287  0.6556684452519406
  0.2619194689922466  0.5633706700581413  0.7519395174418619
  0.1826970566860453  0.6668773837209301  0.8285524811046514
  0.0710543662790712  0.7506254350775166  0.9028399045542628
  0.9979365702519374  0.8468192422480598  0.0105149772286808
  0.9094645004844963  0.9479142451550402  0.0836179573643392
  0.8313334995155017  0.0173035721899240  0.1535454268410845
  0.7546013687015503  0.0953762887596881  0.2381742311046509
  0.6561671923449595  0.1680008536821731  0.3149839806201555
  0.5906786453488380  0.2508969791666686  0.4032003880813946
  0.5207046598837195  0.3274678565891449  0.5103271952519393
  0.5115995334302355  0.3134429888565862  0.6644761497093015
  0.4089102984496122  0.3996268842054249  0.7457393745155017
  0.3395785033914720  0.4984573468992224  0.8185737902131791
  0.2530310411821688  0.5669126928294546  0.9236692393410877
  0.1702667209302291  0.6553523173449634  0.9714746031976773
  0.0774192010658936  0.7366492800387618  0.0848930673449644
  0.0095376448643378  0.8464478817829431  0.1717093517441839
  0.9111590043604636  0.9283067073643423  0.2529857732558156
  0.8239158396317805  0.0115070843023233  0.3561121618217058
  0.7538619418604640  0.0837918527131762  0.4085565852713202
  0.6804451690891469  0.1755363987403129  0.4954734970930232
  0.5981493032945764  0.2427521041666694  0.5827162277131777
  0.5748549118217028  0.2358470460271320  0.7639643003875989
  0.5069649292635674  0.3265445392441890  0.8463146235465118
  0.4094710571705420  0.4180106802325554  0.9032684360465097
  0.3244604975775189  0.5065201841085241  0.0048906855620174
  0.2290100523255845  0.5678898580426335  0.0758532979651179
  0.1625291560077500  0.6446712771317848  0.1657516812015487
  0.0859291656976779  0.7385625038759684  0.2375194612403106
  0.0135432374030984  0.8173991104651179  0.3263075993217086
  0.9298423410852692  0.9113633531976717  0.3989438202519366
  0.8330493997093029  0.9808394035852714  0.5072803187984505
  0.7613211065891505  0.0816466792635637  0.5857054975775213
  0.6750547824612383  0.1618683943798445  0.6747018667635629
  0.6900531409883754  0.1662876017441874  0.8367730290697679
  0.5837416637596888  0.2424816254844941  0.9280761501937960
  0.4887604893410824  0.3379757722868248  0.9845665150193810
  0.4311344481589146  0.4207563163759716  0.0601375668604618
  0.3357457277131815  0.4902423391472865  0.1598000218023259
  0.2611398347868246  0.5733727330426390  0.2713358725775166
  0.1577677911821738  0.6665919781976726  0.3629836453488338
  0.0809078919573665  0.7301984995155024  0.4414423919573665
  0.0054562640503875  0.8255973905038729  0.4777072761627892
  0.9030017931201542  0.9050103551356585  0.5615408280038778
  0.8230274365310066  0.9884956593992271  0.6515335334302321
  0.7554845382751907  0.0765188376937971  0.7631778449612412
  0.7420696497093004  0.0780088241279060  0.9107097320736415
  0.6768131555232557  0.1795985809108558  0.0048500310077486
  0.5677134515503894  0.2607597306201583  0.0667507829457392
  0.4728700629844980  0.3214109961240297  0.1423483968023262
  0.4280141957364307  0.4305192063953456  0.2421607562984462
  0.3234944447674408  0.5132917979651168  0.3477800499031005
  0.2397745290697699  0.5824119781976762  0.4389618144379810
  0.1673122873062027  0.6870118173449598  0.5128357984496148
  0.0856196322674450  0.7566240024224840  0.5890046501938002
  0.9836270736434116  0.8443022853682152  0.6743651245155036
  0.8923042432170547  0.9171001177325593  0.7486123803294547
  0.8300590426356607  0.0144111676356573  0.8281548333333362
  0.8465024084302328  0.0013178076550417  0.0008446589147297
  0.7463766216085261  0.1147359922480646  0.0709124660852680
  0.6431962059108542  0.1570790479651194  0.1595294195736443
  0.5717974331395368  0.2776141206395337  0.2446866884689953
  0.4806449181201558  0.3459549539728712  0.3326260712209290
  0.4336222606589146  0.4278182533914716  0.4214357199612380
  0.3268928677325604  0.4737110266472868  0.5012151870155037
  0.2522654229651167  0.5971375581395364  0.5735725121124062
  0.1811359573643401  0.6650131036821705  0.6676611540697692
  0.0837559941860491  0.7668001627906946  0.7433785174418617
  0.9988211845930266  0.8503119946705411  0.8211404685077497
  0.9143240382751969  0.9276213900193824  0.8816122582364372
 
  0.00000000E+00  0.00000000E+00  0.00000000E+00
  0.00000000E+00  0.00000000E+00  0.00000000E+00
  0.00000000E+00  0.00000000E+00  0.00000000E+00
  0.00000000E+00  0.00000000E+00  0.00000000E+00
  0.00000000E+00  0.00000000E+00  0.00000000E+00
  0.00000000E+00  0.00000000E+00  0.00000000E+00
  0.00000000E+00  0.00000000E+00  0.00000000E+00
  0.00000000E+00  0.00000000E+00  0.00000000E+00
  0.00000000E+00  0.00000000E+00  0.00000000E+00
  0.00000000E+00  0.00000000E+00  0.00000000E+00
  0.00000000E+00  0.00000000E+00  0.00000000E+00
  0.00000000E+00  0.00000000E+00  0.00000000E+00
  0.00000000E+00  0.00000000E+00  0.00000000E+00
  0.00000000E+00  0.00000000E+00  0.00000000E+00
  0.00000000E+00  0.00000000E+00  0.00000000E+00
  0.00000000E+00  0.00000000E+00  0.00000000E+00
  0.00000000E+00  0.00000000E+00  0.00000000E+00
  0.00000000E+00  0.00000000E+00  0.00000000E+00
  0.00000000E+00  0.00000000E+00  0.00000000E+00
  0.00000000E+00  0.00000000E+00  0.00000000E+00
  0.00000000E+00  0.00000000E+00  0.00000000E+00
  0.00000000E+00  0.00000000E+00  0.00000000E+00
  0.00000000E+00  0.00000000E+00  0.00000000E+00
  0.00000000E+00  0.00000000E+00  0.00000000E+00
  0.00000000E+00  0.00000000E+00  0.00000000E+00
  0.00000000E+00  0.00000000E+00  0.00000000E+00
  0.00000000E+00  0.00000000E+00  0.00000000E+00
  0.00000000E+00  0.00000000E+00  0.00000000E+00
  0.00000000E+00  0.00000000E+00  0.00000000E+00
  0.00000000E+00  0.00000000E+00  0.00000000E+00
  0.00000000E+00  0.00000000E+00  0.00000000E+00
  0.00000000E+00  0.00000000E+00  0.00000000E+00
  0.00000000E+00  0.00000000E+00  0.00000000E+00
  0.00000000E+00  0.00000000E+00  0.00000000E+00
  0.00000000E+00  0.00000000E+00  0.00000000E+00
  0.00000000E+00  0.00000000E+00  0.00000000E+00
  0.00000000E+00  0.00000000E+00  0.00000000E+00
  0.00000000E+00  0.00000000E+00  0.00000000E+00
  0.00000000E+00  0.00000000E+00  0.00000000E+00
  0.00000000E+00  0.00000000E+00  0.00000000E+00
  0.00000000E+00  0.00000000E+00  0.00000000E+00
  0.00000000E+00  0.00000000E+00  0.00000000E+00
  0.00000000E+00  0.00000000E+00  0.00000000E+00
  0.00000000E+00  0.00000000E+00  0.00000000E+00
  0.00000000E+00  0.00000000E+00  0.00000000E+00
  0.00000000E+00  0.00000000E+00  0.00000000E+00
  0.00000000E+00  0.00000000E+00  0.00000000E+00
  0.00000000E+00  0.00000000E+00  0.00000000E+00
  0.00000000E+00  0.00000000E+00  0.00000000E+00
  0.00000000E+00  0.00000000E+00  0.00000000E+00
  0.00000000E+00  0.00000000E+00  0.00000000E+00
  0.00000000E+00  0.00000000E+00  0.00000000E+00
  0.00000000E+00  0.00000000E+00  0.00000000E+00
  0.00000000E+00  0.00000000E+00  0.00000000E+00
  0.00000000E+00  0.00000000E+00  0.00000000E+00
  0.00000000E+00  0.00000000E+00  0.00000000E+00
  0.00000000E+00  0.00000000E+00  0.00000000E+00
  0.00000000E+00  0.00000000E+00  0.00000000E+00
  0.00000000E+00  0.00000000E+00  0.00000000E+00
  0.00000000E+00  0.00000000E+00  0.00000000E+00
  0.00000000E+00  0.00000000E+00  0.00000000E+00
  0.00000000E+00  0.00000000E+00  0.00000000E+00
  0.00000000E+00  0.00000000E+00  0.00000000E+00
  0.00000000E+00  0.00000000E+00  0.00000000E+00
  0.00000000E+00  0.00000000E+00  0.00000000E+00
  0.00000000E+00  0.00000000E+00  0.00000000E+00
  0.00000000E+00  0.00000000E+00  0.00000000E+00
  0.00000000E+00  0.00000000E+00  0.00000000E+00