Li 
 1.0000000000000000
    20.6400000000000006    0.0000000000000000    0.0000000000000000
     0.0000000000000000   20.6400000000000006    0.0000000000000000
     0.0000000000000000    0.0000000000000000   20.6400000000000006
 Li 
 432
Cartesian
 -0.0906742600000000 -0.2589887600000000 -0.2446676900000000
 19.0840468500000000  1.5987591500000000  1.5850919500000000
 17.9161374900000006  3.4195723000000000  3.2451075500000002
 15.6073345499999991  4.7999417099999997  4.1482472899999996
 14.1720257000000007  6.6389084100000000  6.5925946199999998
 12.4152057800000009  8.3834660999999997  8.3057986400000008
 10.7417238299999998  9.9458193300000008 10.2095279500000000
  8.9690276799999999 11.9244117599999999 12.0800065700000001
  6.7654174200000003 13.2096559399999993 13.6328139999999998
  5.4532476200000000 15.3034082199999997 15.3531330599999993
  3.4761454999999999 17.0966660099999999 16.9582522400000002
  1.9169174000000000 19.0300778599999987 18.8483740299999987
  1.5523346600000001 18.7729471600000011  1.8307940800000000
 -0.1525763800000000  0.0254566300000000  3.7326806600000002
 18.7881658499999986  1.7373534900000001  5.3978676600000002
 16.7006965600000008  3.7674461799999999  6.8727667200000004
 15.7879882699999996  5.2609612700000001  8.4210342399999991
 13.7243981700000006  6.7501464300000000 10.3117353400000002
 12.3161086700000002  8.8411117099999998 12.0069232100000001
 10.6213645700000008 10.5081182700000006 14.2175544600000006
  8.4330643199999997 11.8978823100000000 15.4007375399999997
  6.5034367900000003 13.5359095200000006 17.1262220899999988
  5.0645209099999997 15.5226391899999996 19.0085638400000008
  3.3731260999999999 17.0836663299999998  0.2263010100000000
  3.2889400100000001 17.4020434299999991  3.5088029600000001
  1.5470711100000001 18.7076342500000017  5.5772481500000000
  0.2743661700000000  0.1406283900000000  6.7954781899999999
 18.7678353700000002  1.8191635900000001  8.6220469000000008
 17.2709398900000011  3.6149859000000002 10.3667332900000009
 15.4541590600000003  4.9554455099999997 12.1410388900000008
 13.7005452000000005  6.4400553299999999 14.2128020599999996
 12.0274260900000005  8.4786437600000006 15.5837040800000004
 10.3304505599999992 10.4975992300000005 17.3259143999999985
  8.1694504600000002 11.7809122100000003 18.5759617900000009
  6.9591593800000000 13.8976823599999992 20.7607532399999997
  4.5969418900000001 15.0563680800000004  1.4429146900000001
  5.0308795799999997 14.8472428200000000  5.3695727399999997
  3.3295546400000000 16.6924583499999990  6.8218891399999997
  1.8263410600000001 18.7640153500000011  8.6794863000000007
  0.1086508600000000  0.1778626600000000  9.9426887900000001
 18.8725127199999996  2.1257530999999998 11.4259110400000008
 17.0487614500000007  3.5985900499999999 13.7468119099999999
 15.6561132399999998  5.1765850899999997 15.4286799200000004
 13.9924796100000002  7.0366537200000003 17.5755864899999992
 11.9942545200000001  9.1305829200000002 18.7149090099999995
 10.4543936800000008 10.4228098599999992 -0.0355124100000000
  8.8195768399999999 12.3408918900000000  1.4421736199999999
  6.5236542999999996 13.8179390400000006  3.0265401000000001
  6.6657880499999997 13.3591662299999996  7.4558406699999997
  5.1560880200000003 15.8483458400000004  8.7253665599999994
  3.5336155800000002 17.1792776799999984 10.1951437400000007
  1.4766245600000001 18.4697163300000007 12.2029395699999998
 -0.5012300200000001 -0.0023920800000000 13.6471273400000008
 18.3249193400000010  1.8452374100000000 15.7920488100000007
 17.3835184399999996  3.9203900599999999 17.8249071299999997
 15.4706749200000004  4.8399041199999999 19.5146054999999983
 13.6309357099999993  6.5807308899999999 -0.3833016200000000
 11.8492643999999991  8.6237660500000004  1.3337778000000000
 10.3397975199999994 10.7382916200000000  3.4865218200000001
  8.4136131200000008 12.1512919900000007  5.2547700199999996
  8.5465369300000003 12.2356995899999994  9.3295232000000006
  6.5836297600000000 14.1411935300000007 10.2609964999999992
  5.0916150199999999 15.4330367200000005 11.9610045700000001
  3.5789687699999999 17.2068649299999983 13.9951924099999996
  1.8450855900000001 19.0787589400000002 14.8892914500000000
  0.1448970900000000 -0.1208662700000000 17.0872525899999985
 19.0026729600000017  2.0847058600000001 19.1669052099999995
 17.4803662200000005  3.5776593100000000 20.6347158399999984
 15.8105054400000000  5.4605743100000002  1.6159026400000001
 13.8670837200000001  6.9583437100000003  3.1699939800000001
 11.9908273800000007  8.3699886899999996  4.9233043800000003
 10.1654380000000000 10.6069404600000006  7.1321512000000000
  2.0123782499999998  1.6078479299999999 19.4512318099999995
 -0.1336123500000000  3.8652687700000001 -0.0857279200000000
 19.0330845599999989  5.7450505500000002  1.6711761900000000
 17.3047910499999986  7.2846756800000003  3.1057075599999999
 15.4416045000000004  8.9160867300000000  4.8014316199999998
 13.5084228500000005 10.4619475800000004  6.7330488700000002
 12.0108513099999996 12.1394507699999998  8.8642089399999993
 10.7023213100000003 14.3881071200000008 10.6621893199999995
  8.5194358300000008 15.3622833199999995 12.3655159200000000
  6.5952108300000001 17.2150669299999990 13.4470268500000003
  5.4554869100000003 18.9054066399999989 15.6165595600000007
  3.3236661500000002  0.1682323500000000 17.2540460399999986
  3.2458049099999999  0.0569045300000000  0.3733656400000000
  1.5736355900000001  1.8626220200000001  1.8260854900000001
 -0.1337712600000000  3.4489124800000002  3.2807430499999999
 18.8042058300000008  5.2767796499999999  4.9803309699999998
 17.2913976799999993  6.8240439899999998  6.4635875900000004
 15.7601856500000004  8.5651208200000006  8.7472773600000000
 13.9500695700000001 10.2178416700000003 10.3656267300000007
 12.1538939599999996 12.1340190299999993 12.2224571999999991
 10.5195337299999991 13.4418726700000004 14.3048714599999993
  7.9937397600000004 15.3350866499999992 15.5600685300000006
  6.7013987799999999 17.0534668300000014 17.4328782099999984
  5.1173441899999998 18.8841422299999984 19.4438049600000014
  5.1168014700000004 19.0686237200000015  1.8524174000000000
  3.0581130100000000 -0.0883911600000000  3.8399014899999999
  2.0032637900000001  2.2452828500000002  5.1955426600000001
  0.0891120600000000  3.0939500099999999  7.0426275900000004
 18.8981239599999995  5.1408101000000004  8.3823414599999992
 17.3518810999999999  6.3385997200000004 10.0344506199999994
 15.5929639299999998  7.7619136700000002 12.1218043099999999
 14.0945850700000008 10.2007322200000008 14.1352846200000002
 12.3928816800000003 12.3091029899999995 15.9922412099999995
 10.4348125899999999 13.5769514900000008 17.7163882599999987
  8.3253449800000006 15.4402078899999999 18.4333285599999996
  6.8093965499999998 16.7125082099999993 20.7862502599999992
  6.4907322000000001 16.8185485800000016  3.2134015100000002
  5.0126139500000004 18.3904752900000013  5.4888160199999998
  3.6262379899999999  0.1442583600000000  7.0652564499999997
  1.7750861499999999  1.7268362399999999  8.5618073900000002
  0.3964341500000000  3.3216887100000001 10.0672908000000003
 18.9564856900000009  5.0878290499999999 12.0948691799999999
 17.3520481000000011  6.6866795799999998 14.0967147100000005
 15.6108995200000003  8.5200331899999995 15.3155012300000006
 13.9620234799999992 10.1476935400000006 17.4049840700000011
 12.4618181900000007 11.8859119399999997 19.2509267500000014
 10.0331064800000007 14.0862929799999996 20.3051838599999996
  8.4754824600000003 15.6129546700000006  2.0330407899999998
  8.4295775899999992 15.2531128700000007  5.4160804599999999
  6.7370021800000002 17.1163178599999988  6.8537058499999999
  5.1776847799999999 19.0430671300000007  8.5238589400000002
  3.1207057800000002 -0.2141208600000000 10.2585718799999999
  1.6230849800000000  1.6093844600000000 12.0332777400000008
 -0.3691324700000000  3.6885477799999999 13.3225682600000006
 18.9803224800000017  5.0855628499999996 15.7680704600000006
 17.2719000499999993  6.9645972000000000 17.3382044700000009
 15.6573211600000004  8.6322674300000006 19.0709484799999984
 13.3274806699999999 10.3403038299999999 20.5892394100000011
 11.7276182799999997 12.5689108500000000  1.7217375600000000
  9.9575630400000001 13.5575266600000006  3.1928482300000001
 10.1022815799999996 13.3221840999999994  6.8576614100000004
  8.7325740100000004 15.6262933000000004  8.3109661300000006
  7.0324647799999997 17.0832737100000003  9.8709014600000007
  4.9876996100000000 18.8446038899999984 11.6884931000000005
  3.6006897599999999 -0.4916205200000000 13.4379482400000008
  1.2223989799999999  1.6236960600000001 15.1946241799999999
 -0.0193363200000000  3.1667086200000001 16.8853003199999989
 19.4864416300000016  5.2627293000000002 18.9555863600000016
 17.3918859400000017  7.1808649100000004 20.3742688200000011
 15.0623735599999993  8.4918106299999998  1.5328545700000000
 13.6281263799999994 10.3164578700000007  3.4491139400000002
 12.4183847699999994 12.2445306400000007  5.1094588600000002
  3.7217674100000000  2.8579778400000002 17.1677722300000006
  1.9995314300000000  4.7935413999999996 18.5784561799999999
 -0.1323351200000000  7.3596822000000000 -0.0907690800000000
 19.3164268999999997  9.0062736799999996  1.7098522500000000
 17.2815273400000002 10.0809120300000004  3.1511842099999998
 16.0477665599999995 11.9458601800000004  4.9089400699999999
 13.7022655899999997 13.7139653300000006  6.8569344900000004
 11.7557831099999994 15.6602659800000001  8.0611859399999997
 10.6270938499999996 17.2072532900000006 10.3023000899999992
  8.8158666300000004 18.8188509400000008 12.1488418500000002
  6.8554706300000001 20.3098172999999989 13.2740700199999999
  5.4840363800000000  1.1524574100000000 15.3084878700000004
  4.9086252000000004  1.5424085300000001 19.3462935400000013
  3.6428951199999999  3.8332262400000001  0.0500162400000000
  1.4330218400000001  5.4225605400000001  1.8948761700000001
  0.0127598800000000  7.1650553900000000  3.4728638699999999
 18.8370985600000012  8.7782529599999997  5.1179218999999998
 17.3790634399999995 10.0826890400000000  7.2317604500000003
 15.7273073700000001 11.8688670900000002  8.3801940699999999
 14.0111702800000000 13.4321149900000005 10.2682889799999995
 12.4718976599999998 15.5162337499999996 12.6067330099999992
 10.1009214499999995 16.9650876199999985 14.0622995199999998
  8.5309768500000001 19.3885778000000002 14.9195246000000008
  6.3928621500000000 20.2335580899999989 17.5032631099999989
  6.6799677500000003  0.2075432200000000  0.2385561900000000
  4.5988864800000000  1.4392289400000000  1.5687886499999999
  3.7154471899999999  3.9634042799999998  3.5223258799999999
  1.3828447900000000  5.1742090000000003  5.0379030900000004
 -0.3530717300000000  7.5127346599999996  6.7505851000000003
 18.8633026699999995  8.4414937499999994  9.1487214600000009
 17.0312250600000006 10.2440020399999998 10.8871710400000001
 15.2924930700000008 12.0882474999999996 12.1407510199999997
 13.7443588800000001 13.7699274799999998 13.8236770500000006
 11.8950671499999991 15.1502334399999992 16.2152102000000014
 10.1046658499999999 17.2931226100000011 17.5221178100000010
  8.3662221999999993 19.0345464699999987 18.8528121999999989
  8.0313356099999993 18.8939059799999995  1.7376596799999999
  6.4628617700000000 -0.0136078200000000  3.2997520200000001
  4.8674926999999997  2.1634404500000000  4.9650378399999999
  3.9234360800000001  3.7834659899999998  6.9430148799999998
  2.1249523400000001  5.3899828500000000  8.5473648200000003
 -0.1083672600000000  6.6580295800000000 10.2095761500000002
 18.9003225199999996  8.4578953400000003 12.3421546499999994
 17.1968371200000014 10.4333962499999995 13.5860966399999992
 15.8410443900000004 12.2347347099999997 15.6532345900000003
 13.9617847499999996 13.6084203099999996 17.3503407799999998
 12.4185908000000005 15.6005870699999996 19.1988182700000003
  9.8313278400000002 17.0434339000000001 20.5641966799999985
  9.9938099200000003 17.2125568099999988  3.8273357500000000
  7.8840105999999999 18.6695624100000011  4.9794489000000004
  6.3978815800000000  0.0510374000000000  6.8707466000000004
  4.8765966299999999  1.6563347600000000  9.1179964899999995
  3.2785312100000001  3.3122723000000001 10.1214456199999994
  2.0824577899999999  4.9112811699999996 12.2382895299999994
  0.3996100600000000  6.7553791800000003 14.3265723600000001
 18.7450182699999992  8.5874271199999992 15.4686179599999996
 16.8253695100000016 10.2977780299999999 17.6015529599999994
 15.3894712299999998 12.1393522399999991 19.6017797999999992
 14.0006138799999995 13.9069606300000004 21.0978600500000013
 11.8890230500000005 15.7079579099999993  1.9294229599999999
 11.6924250700000005 15.3789692200000001  5.2380124900000000
 10.3271597499999999 17.7219113300000011  6.5070393900000001
  8.2059658800000008 19.0713741900000002  8.6313190800000008
  7.0473781300000002 -0.1593595200000000 10.4901002600000002
  5.2895719100000003  1.6942871900000001 11.8342185999999998
  3.4067443100000001  2.8058897699999998 13.8075527200000003
  1.8478470300000001  4.7956527099999997 15.6454131000000007
  0.3652655100000000  6.8250057200000001 17.1161777199999996
 19.1083941800000012  8.9952966599999993 19.0265736799999985
 16.7426470099999989 10.3912519000000003 20.6824274499999987
 15.5442949000000006 11.6757707499999999  2.0226296800000001
 14.0055545600000002 13.9698832399999997  3.3848908099999999
  4.8098508500000001  5.0067506200000000 15.4571503400000001
  3.6280807600000000  6.9410815699999997 17.2168656800000015
  1.4950450600000000  8.8520289000000005 18.7616286199999998
  0.2538198900000000 10.7632469299999993 -0.6045074499999999
 18.9986318599999997 12.1591251699999994  1.4701867799999999
 17.6640415399999995 13.8969333299999995  3.1685340000000002
 15.6849669400000007 14.9831687200000001  5.1674337100000001
 13.7476537499999996 17.5380536400000011  6.5150168800000001
 12.0991946699999993 19.0230691699999994  8.6633424800000007
  9.9581883100000006  0.1960043200000000 10.4338096999999994
  8.5402259899999997  1.4484973000000001 12.0747406200000000
  6.7494109000000000  3.5027420199999999 13.9088633599999998
  6.5980453600000004  3.2783043699999999 16.8258420099999988
  5.1184113699999996  5.4790354099999998 18.8168788099999986
  3.5930307699999999  6.9968787299999997 -0.1540505800000000
  1.8155612800000001  9.0600863799999996  1.8149892599999999
  0.3197486500000000 10.6637177699999999  3.1506180300000000
 18.5886850999999993 11.7506638599999995  5.1211770699999999
 17.5404213999999996 13.4059376599999993  6.7618556200000004
 15.4283881800000007 15.5180863700000007  8.1946726499999993
 13.7253123000000006 16.6435207900000002 10.0732926400000000
 11.9148281800000007 18.9616339799999984 12.0431315199999993
 10.5757453800000008 20.7560676099999988 13.5464473099999996
  8.2887960300000003  1.6534205900000001 15.5888057599999996
  8.6123193499999999  1.9284615000000001 18.8103900599999996
  6.6430054299999997  3.4307423799999999  0.0248001200000000
  5.5279544200000004  5.5124164100000002  1.9246763800000000
  3.4054817800000001  6.8493876299999998  3.6221002400000000
  1.6846277400000000  8.6842223099999991  5.0847061000000000
 -0.3322949900000000 10.6294841099999999  6.7948999800000003
 19.2106811899999990 11.9008676799999993  9.1816245599999995
 16.9797908399999997 13.6708015799999991 10.5288184299999994
 15.6132236300000002 15.1919342099999994 11.7313522399999997
 13.1189090900000007 17.1127771799999984 14.0762486899999999
 12.0578752700000003 19.5882344599999989 15.1690076999999999
 10.2476291800000006  0.0670369300000000 17.2374153300000010
 10.2606790399999994  0.1474958900000000  0.1995018600000000
  8.4835856100000004  1.9855645700000000  1.5381168100000000
  6.8795362100000004  3.3383475599999999  3.0930872699999998
  5.5563443599999998  5.4986541200000003  5.2832072099999996
  3.6180180000000002  6.9497722800000004  6.9347725999999996
  1.6829960500000001  8.9449615399999995  8.3586495500000009
  0.1253018600000000 10.1278086599999995 10.5169130899999992
 19.1083339899999984 12.0320490000000007 12.2419941100000003
 17.5292480399999988 13.6942574199999996 13.7697208500000006
 15.3370646599999993 15.3481956999999998 15.1274715400000002
 13.6858546400000005 17.3429883099999991 17.0173320100000005
 12.0169271400000000 18.9874484999999993 18.8425168999999997
 11.7034555800000000 18.6315347799999991  1.7152942300000000
  9.6894706300000006 -0.1110807900000000  3.6875368900000001
  8.4538361000000002  1.2321465400000000  5.2784807699999998
  6.9865744000000003  3.5333902799999999  6.8962397800000002
  5.2692351500000001  5.1721572299999998  8.9652590900000000
  3.5688715900000001  6.8480400599999998 10.0771976599999995
  1.5428224600000000  8.3994392300000005 11.8341855700000007
  0.6403550800000000 10.4225832999999994 14.1369585200000003
 18.8589912400000017 11.9545463999999999 15.7650278799999999
 17.1865825100000009 13.7555777399999997 17.3876993099999986
 15.4835152800000007 16.0127177399999994 19.1088496499999998
 13.8306598500000000 17.9529350000000001  0.0314729900000000
 14.0172051100000008 17.1228897300000007  3.5977986199999998
 11.9778401100000007 19.1912373999999986  4.9576887000000003
 10.2202767600000008 -0.0667224500000000  6.9539143899999996
  8.6180625499999994  1.7928974300000000  8.8244513300000005
  6.6154487399999997  3.5288543300000002 10.2515375199999994
  4.7393483999999999  5.2405156399999999 12.1529822799999998
  2.6510793499999998  6.9143488000000000 13.9704983400000007
  1.9203429200000000  8.4229253899999996 15.4928325699999991
 -0.0408542600000000 10.1209116699999999 16.8137597999999997
 19.0110228700000015 12.2204622399999998 18.5328747000000007
 17.0981340300000006 13.9373588599999998  0.0170455000000000
 15.9783186100000005 15.5004549300000001  1.5848116699999999
  6.5517861699999997  6.7012010599999998 13.8487227799999992
  4.9711945499999999  8.7186002299999998 15.5329869100000000
  3.2811095699999999 10.5337850700000004 16.9613481999999998
  1.4343446300000000 12.2343569700000003 18.6134446099999984
  0.1385293100000000 13.6635605600000005  0.2244917600000000
 19.2538805500000016 15.4575603600000004  1.9071005700000001
 17.6679228399999992 17.1942797899999995  3.0640107099999998
 16.1173594700000002 18.8545388799999998  4.8114136800000002
 14.0200242300000006 -0.2198016700000000  6.9864106699999997
 11.8531662000000004  1.7098353700000000  8.5793320099999999
 10.4868847899999995  3.5566906199999999 10.7069078199999996
  8.8706028499999992  5.3602895699999999 12.6048079299999998
  8.5156320999999995  4.5937246099999998 15.4245263399999999
  6.8686370999999999  6.6340036600000003 16.8780529399999999
  5.2938663899999998  8.8387093599999993 18.9603095500000016
  3.1935654400000000 10.3372397300000003 -0.2687009100000000
  1.8092738100000001 12.2057632599999994  1.2634265700000000
 -0.1677487900000000 13.4112798299999998  3.6198297500000001
 19.2243965199999991 15.5833215299999992  5.5353586100000003
 17.5735050699999995 17.2819979100000012  6.8773782700000003
 15.4760227500000003 18.9142134400000010  8.5815955499999994
 13.7366551300000008  0.0784340000000000 10.4149536299999994
 12.1607162399999993  1.7825995299999999 11.8827026900000003
 10.7236870799999995  3.3549908899999998 13.9140545299999996
 10.4164577000000005  3.6019622800000000 17.3336093200000008
  8.3116012599999998  5.1461016400000004 18.8407266399999997
  6.6394375300000004  7.4425356300000001  0.3434966700000000
  4.1949286700000004  8.4158905599999994  1.7498186300000000
  3.5787566200000001 10.4116903300000008  3.4470251400000000
  1.9013400400000000 11.8184984499999999  5.0167979200000001
 -0.0417005000000000 13.5073506400000003  6.9896186699999996
 18.6728298899999992 14.8572193699999993  8.4951952599999991
 17.2607668099999998 17.0216862900000017 10.1714987699999995
 15.3463331699999994 18.7351931000000000 11.4755215300000000
 13.7863328799999998 -0.0660247500000000 13.6875319700000002
 12.2524001100000000  2.0593574100000001 15.4355570499999999
 12.4018828200000009  1.8990733300000000 18.8120032200000011
 10.5856080200000005  3.1786396400000001 -0.1012370600000000
  8.5531010900000002  4.9886485499999997  1.7843326200000000
  6.9300293100000001  7.1191478899999998  3.4921114599999998
  5.0876288799999996  8.7057409400000001  5.3892445699999998
  3.2730104099999999 10.3718705900000003  7.2630659800000004
  2.0320876399999999 12.0118205099999997  8.9543244200000007
  0.1742496100000000 13.7718803500000000 10.0928506999999996
 19.2880784100000007 15.3383671199999991 11.5818278600000006
 17.1651218199999995 17.1277535000000007 13.4935987799999992
 15.7736461200000004 18.6802795900000014 15.1949975700000000
 13.8297038099999998 -0.4414574400000000 16.9710478800000004
 13.4186585199999993  0.0484110900000000  0.3498643600000000
 12.0697342200000008  1.7837071400000000  2.0553309199999998
 10.5919632600000000  3.3929350999999999  3.8718007299999999
  8.6724784699999997  4.5596832500000000  5.0011276000000002
  7.0300422899999999  6.9630640200000000  7.0019869699999999
  5.2228411699999997  8.4300313399999993  8.5985609499999995
  3.5298131900000000 10.2015931500000008 10.6513234899999993
  1.3727419500000000 11.9830057799999992 11.6846408900000007
  0.3976378900000000 13.5797557300000005 14.1935813799999995
 19.0426803100000015 15.7081008499999992 15.7521432800000003
 16.6731734799999991 17.5453213199999993 16.9220715400000010
 15.6705932800000003 19.1936497599999996 19.0032059599999990
 15.2828321500000008 19.0910268899999984  1.6859847200000000
 13.5925578999999992  0.1924832500000000  3.5054004200000000
 12.0017106499999997  1.4670764599999999  5.3354243099999996
 10.7452757800000001  3.1186453900000002  6.4001696900000002
  9.0090236600000004  4.9239002200000002  8.5300798600000007
  7.3222653199999996  7.2085746600000000 10.4885100799999993
  4.7471305800000003  7.9894927899999999 12.1717241400000002
  3.5020166599999998 10.6205309299999993 13.6117599800000004
  1.9849058200000000 12.1003828099999993 15.4641316399999997
 -0.1546050300000000 13.5948244900000006 17.0469883499999995
 19.2767847299999993 15.6949190000000005 18.6435200799999983
 17.5975020499999992 17.4073716699999999 -0.2153545400000000
  8.9746977999999995  8.9973225699999997 12.6863520199999993
  6.8930884600000004 10.5777055400000002 13.5329967100000008
  5.4060178399999996 11.6279706300000001 15.5200316399999991
  3.7708672499999998 13.7643491999999998 17.1013232100000003
  1.4665621200000001 15.4929089799999993 18.6346156299999990
 -0.0425891900000000 17.4783491600000005  0.2170291300000000
 18.7713472900000014 19.5649500200000013  1.7258746400000000
 17.1587234299999984 20.9971457299999997  3.1691776100000002
 15.5749722500000001  1.9685665999999999  4.9159161300000003
 13.5432908500000000  3.4675376199999999  6.5012693600000002
 12.1916072399999997  5.1785136500000002  8.3220560100000007
 10.7473441800000007  6.7589365600000004 10.5331533099999994
 10.5594143700000007  6.4694632900000002 13.7147877299999994
  8.4399085599999992  8.2482988899999992 15.3920606899999992
  7.0089003099999996 10.2881596399999999 16.8953630299999986
  5.2225606899999999 11.7010779800000009 19.0645330999999985
  3.5143051199999999 13.5264718300000002 -0.5887641900000000
  1.5979323100000000 15.2044411400000001  1.7521929100000000
  0.1968569900000000 17.4706842800000004  3.5440810200000001
 18.8063218499999998 19.1602504399999987  5.2216263600000001
 17.0056229300000012 20.8775062200000008  7.3501550199999999
 15.5597104799999997  1.7294638400000000  8.4326079200000006
 14.0443882900000006  3.6230712700000001 10.2265729800000003
 12.3458016199999996  5.0104034300000002 12.0272629400000000
 11.8650053799999995  4.8678830299999998 15.7682231599999998
 10.4637561399999992  6.7398792900000002 17.4679338299999998
  8.4514826200000002  8.6277404400000002 18.6434605200000014
  6.6968646700000001 10.4545765999999993  0.1009437500000000
  4.7267674800000004 11.7212466699999993  1.5656120700000000
  3.3546017799999999 13.3060151599999994  3.4211147000000000
  1.7735779800000000 15.2439300800000002  4.9024016799999997
  0.2795324200000000 16.8711176400000014  6.7349888499999997
 19.1919459199999984 18.8105396099999993  8.2342004499999994
 17.1941396100000006 -0.3954747100000000 10.4702657800000001
 15.7136676400000006  1.6851874600000001 12.0889614699999992
 13.9331307100000004  3.3409636599999999 13.9258465299999994
 14.2426968299999999  3.4321761000000000 17.2709953200000008
 12.0484279399999998  5.0048207500000004 19.1554917399999987
 10.0880165000000002  6.9758199400000001 -0.3185471300000000
  8.8986150100000003  8.6844103700000002  1.2412393799999999
  6.9297918200000002 10.1186018799999999  3.2982724499999998
  5.3899261899999997 11.8344132099999992  5.6003724100000003
  3.2563272099999998 13.7584584299999992  7.4919824400000001
  1.6699388900000001 15.0712970300000002  9.1113709699999994
  0.1126172900000000 17.0403301399999982  9.8598781800000008
 18.6379570100000009 18.6794137300000003 11.5902026899999999
 16.9872862900000001 20.4025504099999999 13.4476521299999998
 15.5932008700000004  1.5793488099999999 15.7519907200000002
 15.3163175700000007  1.6101021300000000 18.7970488700000011
 13.9694235300000003  3.7069147099999999  0.1001046400000000
 11.7176056400000004  5.3820808400000004  1.3777361600000000
  9.7600380999999992  6.6339229599999996  2.9380709100000000
  8.8342130000000001  8.8859164199999991  4.9981980100000003
  6.6769253400000004 10.5943427099999994  7.1781802299999997
  4.9489462800000004 12.0209832300000006  9.0601718499999997
  3.4533256099999998 14.1799239099999994 10.5849308799999999
  1.7671892100000000 15.6167194100000000 12.1570559800000009
 -0.3379372000000000 17.4263991699999998 13.9188961700000000
 18.4171595799999999 18.9289464299999999 15.4513595299999995
 17.1324186400000009 20.9374465000000001 17.0931157599999999
 17.4718097099999987  0.0271995500000000  0.0174337600000000
 15.4052134699999996  2.3681508800000000  1.4636332999999999
 13.2755696899999993  3.2421115500000002  3.2926872199999999
 11.8018990200000005  5.7299554500000003  5.0503332500000004
  9.9205111099999996  7.1405102500000002  6.8654021099999998
  8.9499634599999993  8.8301687500000003  8.6984332599999998
  6.7470687900000001  9.7773955899999994 10.3450814599999994
  5.2067583300000004 12.3249192000000001 11.8385366500000000
  3.7386461600000001 13.7258704599999994 13.7805262200000005
  1.7287237200000001 15.8267553599999999 15.3433326000000001
 -0.0243307500000000 17.5504395700000018 16.9483392700000017
 18.8716481499999986 19.1461054900000001 18.1964770099999988
