Li                                      
   1.00000000000000     
    21.0527999999999977    0.0000000000000000    0.0000000000000000
     0.0000000000000000   21.0527999999999977    0.0000000000000000
     0.0000000000000000    0.0000000000000000   21.0527999999999977
   Li
   432
Direct
  0.0144242561559480  0.9946180698054405  0.0292561773255784
  0.9215923853359200  0.0854367784807692  0.0768535458466317
  0.8252249724502221  0.1638683030285790  0.1382294450144386
  0.7414466883264907  0.2395061208010318  0.2395316442468456
  0.6437146968574226  0.3360522101573196  0.3359850342947226
  0.5776374496504033  0.3919942444710429  0.4350673544611610
  0.5079959392574835  0.5004755353207173  0.4965764620383055
  0.3992535980962160  0.5786880889952855  0.5933384352675191
  0.3034120468536230  0.6788640465876270  0.6716856731646175
  0.2241318860199115  0.7513554448814403  0.7641258986928108
  0.1639577025383829  0.8192220588235273  0.8617951540887674
  0.0994494979290153  0.9267488348343207  0.9148669212646325
  0.0873532750987991  0.9026489839831271  0.0520198629160973
  0.0131612802097578  0.9822033491982083  0.1723865865823058
  0.9272207920086615  0.0932853273673828  0.2308075020899807
  0.8136065758473947  0.1619528376272967  0.2935522956566317
  0.7623271336829305  0.2519798240614080  0.4267810362517110
  0.6866903267023829  0.3387293433652516  0.5228788640940891
  0.5459872411270723  0.4321758697180442  0.5882410239968081
  0.4892797732368166  0.5082172475870195  0.6959372211772319
  0.3799185804263558  0.5986311407508751  0.7547328721120223
  0.3092176902834751  0.6599958205084349  0.8487645363087069
  0.2415864896830797  0.7438122691518458  0.9135382590439249
  0.1598365338577281  0.8376226387938885  0.9957275250798006
  0.2068938787239674  0.8441440411726688  0.1718607857387155
  0.1080332934336496  0.8921832174342583  0.2310306239550073
  0.9791541082421347  0.9877034137976892  0.2907253752469998
  0.9149772068323472  0.0739714299285623  0.3730251434488494
  0.8242020258587957  0.1625150170048641  0.5079756227200178
  0.7191313378742947  0.2152821686426520  0.5904557184792552
  0.6678861324859398  0.3429520092339260  0.6322430655304743
  0.5535164562433508  0.4299222407470751  0.7437914215686305
  0.4976783035985690  0.4949189936730534  0.7862032893486841
  0.4294247933766542  0.6103926161840718  0.9055981437148475
  0.3321640185628496  0.6586620112289125  0.0189661873954989
  0.2655138988638086  0.7566497587019327  0.0602249800501582
  0.2690959919820628  0.7458524519303822  0.2451081119851040
  0.1597923986358083  0.8266432526789771  0.3421432987536122
  0.0689258887178923  0.9291041500418018  0.4076560243768057
  0.9823242210062304  0.9853100114949100  0.4690125099749167
  0.9308793870649055  0.1185181562547513  0.5679102893676884
  0.8143773973058188  0.1617306752545957  0.6648260706414320
  0.7522824441404481  0.2610388209644299  0.7292662139952881
  0.6738575519645877  0.3654163218194242  0.8304069164196690
  0.5751248356513159  0.4434957834587294  0.8912331761095942
  0.4898028419022680  0.5181814770481807  0.0022193480202191
  0.4092651300539600  0.6022200495896044  0.0978465197028413
  0.3362104180916532  0.6808167388660920  0.1814186231760146
  0.3482199693152452  0.6628458632580916  0.3462232558139533
  0.2340603116925095  0.7604511333409363  0.4397264834131320
  0.1358647533819735  0.8322762378400981  0.5014843469752250
  0.0992685305517540  0.9223854057417569  0.6013286299209639
  0.0045027112783131  0.0105084026827811  0.6735725067449465
  0.9276952590629293  0.1084912306201531  0.7744156753495943
  0.8146460048069599  0.1716426883834927  0.8371321681676562
  0.7414487422100606  0.2761067601459217  0.9324355453906392
  0.6390795096139215  0.3333389910130720  0.9969646113581092
  0.5717210223818228  0.4158920841883287  0.1053387758397903
  0.5164976188440491  0.5280203322123427  0.1887440777473799
  0.4091254683462537  0.5977219191746457  0.2596933201284415
  0.4065618293053674  0.5558251724236172  0.4284041262919871
  0.3278153267023853  0.6665679733812127  0.5326441095721250
  0.2172623280513761  0.7367195907432773  0.5911224435704483
  0.1403800701094369  0.8360627849977220  0.6648487868597073
  0.1088058880528990  0.9187399001557992  0.7615523346063213
  0.9970616739816052  0.0147275735294130  0.8504642869357042
  0.8930929520063842  0.0949760516415878  0.9538676285339704
  0.8096545162638691  0.1580626320489458  0.0149819168946621
  0.7548892579609330  0.2564967348761229  0.0750952296131615
  0.6596304904810779  0.3183458038835667  0.1629952481380172
  0.6029930113809101  0.4311702338881318  0.2372060072769386
  0.5197999159256739  0.5223962090553300  0.3275424931600526
  0.0863543804149600  0.0956280157508758  0.9267465040279674
  0.9820617837057313  0.2025516173620616  0.0188790968422268
  0.9247954390864876  0.2539611011361913  0.0832767161612722
  0.8177871461278343  0.3449465130528964  0.1723909931220575
  0.7277481574897422  0.4167370102789150  0.2625498532261759
  0.6444553118825027  0.5209444691442471  0.3258590429776547
  0.5711177316081475  0.6008475005699978  0.4267991022571849
  0.4679921601877197  0.6997390233128158  0.5100691214470316
  0.4156194225946166  0.7656888081395365  0.6215386119661019
  0.2846766088121271  0.8418928223324187  0.6858980259157903
  0.2095651585537297  0.9078085100319200  0.7933370820033474
  0.1824256084701332  0.0370705811103491  0.8392815549475614
  0.1513430569805436  0.9842234538873669  0.9969465102029176
  0.0748933410282717  0.0974627180232588  0.0790094267745829
  0.0056273388812897  0.1569862312851527  0.1441830725604163
  0.9058530452006366  0.2488386338159287  0.2130881459948313
  0.8182478748669979  0.2941242157812738  0.3243186155760753
  0.7334984614873079  0.4220629246466032  0.3957805137558879
  0.6714299855601169  0.4912738134594932  0.4964316760715946
  0.5779601359439113  0.5798304843061288  0.5770576664386695
  0.4934252032983721  0.6745659090477290  0.6921357178142600
  0.4152355316157497  0.7626329034617711  0.7613987811597482
  0.3394989958580297  0.8499448396412816  0.8368911555707541
  0.2576647590819263  0.9296646479328174  0.9000751063991501
  0.2478910311217533  0.9051264145386853  0.0677644147096856
  0.1645126458238337  0.0056298620611059  0.1416181657546716
  0.0872960879312998  0.0979669735142110  0.2293966930764526
  0.9921092144512826  0.1706992689808473  0.3233170072389413
  0.9054290939922467  0.2349553465572285  0.4022010440416466
  0.7984365357577161  0.3111540764173881  0.4993480534655745
  0.7669769949840415  0.3938309897020815  0.6030231883644959
  0.6815099093707246  0.5092048796359663  0.6508457796587663
  0.5919831043851644  0.5879013128894996  0.7517923364113059
  0.5126332696838460  0.6263390727124190  0.8137196643676816
  0.4085605259157958  0.7104444829191365  0.9050287325201367
  0.3415393425102593  0.8392168485902118  0.9958056082801363
  0.3181263817639461  0.8138271693076433  0.1743329960860294
  0.2909458718080273  0.9410564585233345  0.2393446966674233
  0.1527099008207955  0.9856614626082987  0.3192702695128418
  0.0433667146412802  0.0661179890560888  0.3672859139876863
  0.9891549067107448  0.1471844324745391  0.4770601573187392
  0.9499715045029617  0.2254733688630495  0.5777170438136494
  0.8455953445622413  0.2963555275307783  0.6238899875551027
  0.7515474806201539  0.4031557289291712  0.7186357325391413
  0.6972005167958670  0.4889769930840586  0.8293584283325757
  0.5845916462418330  0.5724317012463871  0.9054988676090616
  0.4917602266681840  0.6265192810457521  0.9910114317335470
  0.4389307341541269  0.7411816803465570  0.1000874767251858
  0.3909526884784924  0.7496971101231225  0.2787505134708894
  0.3077392019113816  0.8221454134366937  0.3298114184336498
  0.2540144099597228  0.9424373613011099  0.4476558985028092
  0.1514520557835510  0.0063344115747057  0.4898372107273161
  0.0777624544003643  0.0871835185818526  0.5642763717890276
  0.0187761817905425  0.1790124164006670  0.6615569767441869
  0.9307432674038623  0.2394216617267091  0.7511655642004840
  0.8023274448054423  0.3352799622852984  0.8306442188212486
  0.7583207535339724  0.4342318746200036  0.9183481517897860
  0.6378052933576512  0.4827471110731096  0.9939411550957615
  0.5690096618977023  0.6070504336715317  0.0846528637520905
  0.4911193294953620  0.6626444083447325  0.1675570826683384
  0.4897888732140174  0.6597032518239843  0.3326040512425905
  0.4101132300691575  0.7627949360655109  0.4312275521545814
  0.3343783159484701  0.8460454243616056  0.5129500346747236
  0.2042446325429381  0.9274529787011687  0.5842752821477433
  0.1613194881440947  0.0033054857311114  0.6674378638470913
  0.0906174998100013  0.0880686455008330  0.7696755766453833
  0.0152979166666682  0.1884672171872595  0.8935473514211907
  0.8531231750646029  0.2471100632694956  0.9258753605221131
  0.8340781174000611  0.3432164666932636  0.0269728278423784
  0.7244912743198029  0.4437245525535829  0.0879541495668050
  0.6763016648616826  0.5264942587209305  0.1596236096861219
  0.6080855563155509  0.6108076032641705  0.2393510554415599
  0.1562258806429568  0.2064807469790253  0.8343775350547205
  0.1127651371789042  0.2706096048981621  0.9208316366469091
  0.9987986106361149  0.3554002830977367  0.9777209335575350
  0.9306339503533962  0.4225245725034199  0.0539828735370094
  0.8344750902492777  0.4902129004217954  0.1370080017859863
  0.7705473903708793  0.6267423202614353  0.2354939794231612
  0.6697243758549902  0.6740396384328946  0.3448519028347761
  0.5847175173848598  0.7513250489246062  0.4535215800273633
  0.5188990780323763  0.8273087066803484  0.5238576293889636
  0.4157059897020829  0.9292981403898750  0.6180649576303381
  0.3032583205084336  0.9745210784313727  0.7007394232596127
  0.2098707103093176  0.0985627845227270  0.7506258692430450
  0.2405085907812747  0.1012199108907126  0.9250591194520439
  0.1514026818285430  0.1834595037239737  0.9957372477770150
  0.0792212100053220  0.2711084102827144  0.0963167056163527
  0.9774240063079489  0.3503934897020855  0.1588707734838124
  0.9026716180270569  0.3981572726668219  0.2779606180650589
  0.8009577215382251  0.5203794459644300  0.3370554277815785
  0.7454173729860187  0.5773898559811528  0.4370647272571802
  0.6674681325049434  0.6694090287277703  0.5165316100471173
  0.5721587603549168  0.7584626947484452  0.5933337902796794
  0.4863267627108954  0.8413057061293543  0.6863866089071280
  0.3923452372130996  0.8951313848989173  0.7583993017555883
  0.3327555574555419  0.0152840254027993  0.8288254773711827
  0.3532000660244705  0.9981834188326459  0.9842624715002302
  0.2516958148084782  0.0906748123764984  0.0443780271507848
  0.1901020576835393  0.1719802586829289  0.1737887763147867
  0.0736544730392126  0.2695404445014447  0.2253174038607710
  0.0008275440796481  0.3120632927686557  0.3288689760981924
  0.8944186649756816  0.4038692477960169  0.3886666894664828
  0.8433223689960485  0.4917689138736918  0.4817390722374242
  0.7609882048943604  0.5842339741032063  0.6119390784123695
  0.6867418723400220  0.6847886756155930  0.6767129911460685
  0.5998951350889214  0.7672783064485458  0.7538234633872918
  0.5001850608945162  0.8259913032945718  0.8367732733888147
  0.4085572565169500  0.9089295024889807  0.9040519441594483
  0.4485212138052930  0.8795547038873721  0.0832562542749642
  0.3574771151580762  0.9926767052363559  0.1544162168452630
  0.2794898146564861  0.0619437789747650  0.2601708599331189
  0.1611551342339226  0.1460763489892116  0.3317774975300196
  0.1193478587171271  0.2570596481228122  0.4131528129274997
  0.9909693470702265  0.3071378609971092  0.5030981308899527
  0.9246394783591754  0.4304811336259320  0.5745429914310662
  0.8429958632580963  0.4905957658838744  0.6928750090249309
  0.7302279407014751  0.5811901324289437  0.7494769964090295
  0.6750094885240898  0.6718848599711222  0.8221428988068098
  0.5908228753419991  0.7316632267441889  0.9090703146374821
  0.5167177843327266  0.8535529473514245  0.9528396716826251
  0.4995362483850130  0.8147250384746911  0.1975366150820790
  0.4196219699992412  0.9059818817449496  0.2517760696914451
  0.3399699194406480  0.9792551432588539  0.3205900773293848
  0.2514548216864299  0.0426852912676665  0.4266017038113716
  0.1829706951094394  0.1257969452994345  0.4675642665108697
  0.0707404198016448  0.2452985422366609  0.5250809673772636
  0.9940747416020699  0.3167689998480014  0.6578183728530149
  0.9204135663664701  0.3925780167008668  0.7442318489702089
  0.8079138214394277  0.5061846633226921  0.8258035282717771
  0.7422626386988895  0.5744315264477891  0.9136055394056868
  0.6644839655532735  0.6764431391548840  0.9972481456148330
  0.5628840315777452  0.7551596424228606  0.0528231123651040
  0.5882181819045442  0.7195885597165201  0.2338838012045912
  0.4982810951512420  0.8077521840325304  0.3479752536479737
  0.4123281159750718  0.9094029036517739  0.4027856104651164
  0.3504568389952851  0.9922441480468152  0.5049132405190733
  0.2560265451626407  0.0657588867039038  0.5680971210480337
  0.1417181391548894  0.1653787277701753  0.6405805555555588
  0.0961722255471926  0.2526427852827169  0.7357823980658154
  0.0052193233204108  0.3430131754445966  0.8464654416514676
  0.8989676541837639  0.4155419217396243  0.9286747610769126
  0.8403406572997412  0.4995941713216325  0.9856325163398694
  0.7615836444558468  0.5884629977960145  0.0465994813041490
  0.6640568841199297  0.6734898678560555  0.1430112887596877
  0.2660804225566196  0.2382010288417717  0.7195858655380789
  0.1692156748746001  0.3379583922328635  0.8329078032375747
  0.1012094182246557  0.4160909223476210  0.9291178023825779
  0.0027443860199128  0.5005247900516778  0.9787499092757272
  0.9207718787999681  0.5788226183690526  0.0520814513983865
  0.8640395310837548  0.6721590178028549  0.1523228430422563
  0.7640425268847864  0.7159684878021011  0.2274024386304916
  0.6986239336335274  0.8213576384138932  0.3147989768581851
  0.5937884186426530  0.8830794668642667  0.4062991540317711
  0.4821659503723978  0.9974948686160516  0.4775848024965796
  0.4112371722526191  0.0815023616811033  0.5894622549019601
  0.3389359572123425  0.1384958513831904  0.6607319368445062
  0.3261120330787364  0.1576186716256274  0.8294271754825928
  0.2562446558177527  0.2601849915450671  0.9599181287049703
  0.1747594951740368  0.3507340344277239  0.0036911660206727
  0.0708137748897997  0.4156143605601130  0.0963776029791745
  0.9915412372700985  0.5365906354499188  0.1761719652492815
  0.9002407527739749  0.5941377826227381  0.2636487213102328
  0.8204369262045930  0.6786149015807865  0.3781275507295945
  0.7262675259347944  0.7663507723438201  0.4302559379274982
  0.6772160330217361  0.8382974369205058  0.5153050449346424
  0.5883197641168891  0.9235139572883426  0.5981770092339289
  0.4823102352181152  0.0111967101763213  0.6697852751177962
  0.4309192862707079  0.0849247610769126  0.7685359914120653
  0.4402650939542454  0.0834029193266446  0.8932456514097922
  0.3832194819691424  0.1748758573681428  0.0109178460822292
  0.2722053057075513  0.2457879274965791  0.0644163389192869
  0.1707154858261148  0.3686609443874431  0.1662918799399620
  0.0858281724996175  0.4339264682132509  0.2881521170580612
  0.9927875807493507  0.5101678318323479  0.3379014164386689
  0.8978741720816217  0.5836297737118130  0.4534599331205342
  0.8238001092491274  0.6758901053541564  0.5254400241298072
  0.7604006089451261  0.7862191133720913  0.5919822949916380
  0.6696602575429367  0.8264411417958684  0.6687603506421951
  0.5759211183310526  0.9181695285187743  0.7559953626120972
  0.4900294711392306  0.9736360298867623  0.8458815596975242
  0.4822679040317652  0.9823234120877018  0.9857854541913653
  0.4402542977656196  0.0701837285301750  0.0669427420580604
  0.3559283111985110  0.1391589836031315  0.1589993136304884
  0.2404800872092991  0.2543898626311005  0.2630294435894527
  0.1793399965800262  0.3363230667654662  0.3349372216522255
  0.0969257732938118  0.4071442525459830  0.4432296293129667
  0.9831348001215972  0.4916739374335037  0.4862060813763520
  0.8960427069083465  0.5713552520329870  0.5835130975452216
  0.8337922300121576  0.6732310025269825  0.6540429434564530
  0.7857623798259610  0.7418384153176802  0.7611961382808943
  0.6680889686882523  0.8293129469714273  0.8468703231874173
  0.6102559018277844  0.9301096818475472  0.9098063711240343
  0.5837260597165255  0.9242659964470263  0.0865771973324243
  0.5093089023787840  0.9731555964052276  0.1829045162638678
  0.4464939699232389  0.0737787158952727  0.2631616887064894
  0.3254310129768996  0.1490194610693081  0.3526206286099693
  0.2633007215192293  0.2516226530437748  0.4191740685324490
  0.2054926589337285  0.3368907142992867  0.5099769702842352
  0.0800338629540960  0.4136353857919133  0.5750435562015497
  0.9934801741336088  0.4829710147818815  0.6851916524167834
  0.9100321933424524  0.5908600371447008  0.7527547855867169
  0.8306967405760730  0.6666710328317365  0.8381851848685216
  0.7670937960746329  0.7402543333903324  0.9182367476060165
  0.6891883744680030  0.8386781663246694  0.0163902117533041
  0.6701725138698862  0.8177616198320408  0.1549104670162649
  0.5839936535757744  0.8675604470664240  0.2447694620193062
  0.5045091455768329  0.9789463088045309  0.3204974573453399
  0.4260993696800455  0.0516910976212159  0.4039864592833240
  0.3448569230696137  0.1450745140788854  0.4815451778385764
  0.2397716812015531  0.2178809137026931  0.5643777193532458
  0.1943911531957738  0.3227194624942982  0.6457556163550677
  0.0898021298829619  0.4072790669174680  0.7357446577177384
  0.0165878519721829  0.5048079519113813  0.8508783909978703
  0.9277448534161721  0.5865756293699675  0.9090466185020531
  0.8640223699460421  0.6686003282223751  0.9822521303579563
  0.7784996637026893  0.7424896094581257  0.0768717771507852
  0.3202183909028733  0.3374071515427843  0.6487445033439698
  0.2614346580977340  0.4095911930954586  0.7484915859173142
  0.1405546578127357  0.4894418718650257  0.8269989692582485
  0.1019340999771998  0.6089782556239527  0.9319805075809384
  0.9953268154354760  0.6941810870763021  0.0095124073757376
  0.9388002712228314  0.7660069244946044  0.0713022913816701
  0.8424268372853021  0.8140033102485162  0.1733540635924911
  0.7734696904924760  0.9055476601687218  0.2211516425368600
  0.6592566974464233  0.0089405680004546  0.2939320688934473
  0.5893332772837852  0.0729973680460532  0.4040180322807387
  0.5174838852789208  0.1525966778765735  0.4775437276751759
  0.4166957226592203  0.2455544635392926  0.5854081661346697
  0.4063449180156553  0.2304972963216301  0.7376873337513317
  0.3295134404924767  0.3211617803807556  0.8412526509537912
  0.2692392874106986  0.3968832554339556  0.9192199227656204
  0.1634446957174376  0.4965557431790515  0.0130584563573493
  0.0892952638128861  0.5685808016035878  0.0894664348685197
  0.9763643448852406  0.6634966318019480  0.1561632181942514
  0.9125725323947407  0.7472048777359817  0.2456227684678538
  0.8554946239930104  0.8166586420808599  0.3478220801983554
  0.7689387767897884  0.9145106475148168  0.3954427453830363
  0.6727979836411322  0.0036822816917450  0.5026826113391110
  0.5681247245022050  0.0703044839641294  0.5705501671986610
  0.5017612916096681  0.1707204281615731  0.6357402402530781
  0.5019337817297469  0.2008198918908661  0.8166942254711955
  0.4260473903708757  0.2591072645918828  0.9283240647324789
  0.3747509414424712  0.3572153305023562  0.0156720436236526
  0.2532368359553132  0.4435222184222525  0.0836048506611959
  0.1659797091123281  0.5001201075391393  0.1646282722488195
  0.0922892223362197  0.6060229261665881  0.2276386846405245
  0.9945403005775972  0.6768737616849094  0.3222304249316039
  0.9185435319767450  0.7398767513109874  0.4200572118673023
  0.8355659513223870  0.8256377289481662  0.5030414552933564
  0.7697013760639919  0.9232842847507214  0.5838431880794985
  0.6600445755433952  0.9779237550349578  0.6856675610845144
  0.5559113063345507  0.0774962860047097  0.7847953374373020
  0.5794472426470563  0.0991896132580905  0.8737382485940088
  0.5040750755243977  0.1920727033933716  0.0079155670504605
  0.4424458680080576  0.2649689528233807  0.1258139872130997
  0.3331184336525297  0.3456604565663497  0.1870428779069755
  0.2499293846899207  0.4186087841047268  0.2558681154050788
  0.1914498180764568  0.5120871698776384  0.3549388922138590
  0.0711434422024624  0.5829037168452658  0.4175635459416327
  0.9889954010867896  0.6453378320223422  0.5247412386950927
  0.9219755861453081  0.7544664719182279  0.5903841878514982
  0.8270273512311874  0.8454569358945108  0.6731093037505715
  0.7477886309659496  0.9031976022191799  0.7702392166362699
  0.6742264924380592  0.9958585399566786  0.8358885981912110
  0.6685743663550667  0.0100744309545533  0.9821679619813040
  0.5754460100319179  0.0849869114797102  0.0778904972260221
  0.5019831547347593  0.1823441603967169  0.1749797604119152
  0.3917011504407952  0.2274297105373151  0.2691346504977972
  0.3466322973666180  0.3450024068057473  0.3396439974730185
  0.2764406686996494  0.4197545499886033  0.4194003809469535
  0.1538907750988017  0.4842314057987522  0.5070868549551619
  0.0629629996960048  0.5647949137406911  0.5957933880528969
  0.9857065288227673  0.6542947004673962  0.6957497957516310
  0.9046416904164758  0.7357373052515612  0.7562342282261767
  0.8542207696838418  0.8421340800273569  0.8539097872967005
  0.7570347445470418  0.9239799708352336  0.8975027193532483
  0.7661989583333337  0.9105615856323155  0.0951309393524866
  0.6623260806163529  0.9880082663588681  0.1807776333789306
  0.5753108622131009  0.0885813369243067  0.2310351036441674
  0.5048341660016717  0.1514552800577604  0.3428468374752995
  0.4257970673734590  0.2338630837703306  0.3777576346139213
  0.3465305669554652  0.3407428845569243  0.4758018781349733
  0.2608294540393672  0.4271245326037416  0.6037216123270994
  0.1725275877792996  0.4812152440530468  0.6697266335119352
  0.0983445546435604  0.5871618967548287  0.7402905760753882
  0.0143868825049367  0.6891208741830042  0.8700094661992708
  0.9296939100737163  0.7358328678370540  0.9136215467776267
  0.8382833148084785  0.8335356883644920  0.9731715857273144
  0.4145475181448575  0.4213092253761985  0.5876595103739177
  0.3376400450296373  0.4777532138242861  0.6672624748252005
  0.2499126572237387  0.5593064328735338  0.7397979855411165
  0.1800157418490684  0.6393571724426224  0.8251987849597171
  0.0922765147628795  0.7612753044725622  0.9168513447142459
  0.9939359614873098  0.8481172209872341  0.9613896336829271
  0.9279394056847536  0.9095251168490677  0.0831219182246556
  0.8340819491944060  0.9847100276447804  0.1538976183690508
  0.7585033862479094  0.0739209858071135  0.2199712066803485
  0.6836121817525438  0.1513942796207601  0.3268044991640053
  0.6043646678826562  0.2375234719372230  0.4189392712608324
  0.5085442169212655  0.3196041115671093  0.4974805299057579
  0.5059305009309938  0.3188947223172249  0.6424319145196833
  0.3915774714052276  0.3669833471082242  0.7362145766833876
  0.3642325282147709  0.4726580606855180  0.8743937362251089
  0.2369700776143802  0.5626395277587761  0.9184525350547190
  0.1762343161004694  0.6700644109097098  0.9894684407774719
  0.0943678707820368  0.7440162705198361  0.1101223471462234
  0.0062140779373792  0.8302582331091344  0.1526114336335311
  0.8961139677382590  0.8934804795561604  0.2236042265161871
  0.8197192112213116  0.0089407085993329  0.3107791329419385
  0.7566148464812272  0.1065380723704195  0.4156895006839960
  0.6474874534503741  0.1664163241944081  0.4928530266757889
  0.5526412287201694  0.2567404003267981  0.5671929733812107
  0.6029533586981302  0.2794402231532160  0.7567542051413625
  0.4820427173582615  0.3422999829001370  0.8559192720208273
  0.4334873280513776  0.4318500983242117  0.9126832711088326
  0.3616630277207804  0.5311106327899395  0.0173223571211452
  0.2419182417540640  0.5867305460556338  0.0719007101193156
  0.1789552482330166  0.6974675924342577  0.1659205644854822
  0.0889686141510850  0.7281664714432310  0.2451421065131498
  0.9898359125626968  0.8328662809697533  0.3365350608945121
  0.8990645975832194  0.9150849136456927  0.4026673112365131
  0.8462815858223109  0.0264107054643574  0.5010132889686858
  0.7425657598989233  0.0981732045143673  0.5982432123043040
  0.6426219015997887  0.1545751002242000  0.6809757447940399
  0.6887880196458411  0.1688874681752566  0.8441774448054389
  0.5600752146982799  0.2701735583865315  0.8889296126881021
  0.4926167450410404  0.3743582948586379  0.9994152540279657
  0.4325894883340951  0.4486683543281629  0.1192152682778556
  0.3119078421872601  0.5253328360123106  0.2056701887634915
  0.2489600618445067  0.6147796991374079  0.2453306681296539
  0.1842729997909984  0.6672504920960662  0.3458452742628069
  0.0732554923810582  0.7268085746314057  0.4194038270443841
  0.0032342405760772  0.8367283263983865  0.4912447736168133
  0.9057620297537596  0.9138875422746651  0.5918321676926581
  0.8487905471006201  0.0271237768847854  0.6803986177610568
  0.7467322455920353  0.0773783434982533  0.7654589840781298
  0.7420469804491532  0.0735840068779439  0.9358873408762705
  0.6551887316651488  0.1973192829457346  0.9904652811027503
  0.5731241032071779  0.2554589812281520  0.0841748898008845
  0.5067792417160675  0.3416629768961883  0.2009378111225075
  0.4357139753381958  0.4465564594733209  0.2337218612251135
  0.3456962465800260  0.5129646640826877  0.3441118825049401
  0.2359513893638834  0.5814159627222963  0.4495464893030885
  0.1500386195660468  0.6563000000000017  0.5271897590819279
  0.0527512777397803  0.7193649296055611  0.6059362849597179
  0.9793584022077795  0.8490025483546120  0.6910607657888761
  0.9055969448244383  0.9315452063383489  0.7630022396070828
  0.8377572655418746  0.0206527331281379  0.8122826635886895
  0.8624412367951066  0.9962147229822165  0.0095845165488697
  0.7613922494870025  0.0825931496048042  0.0645103739170096
  0.6824807446040424  0.1581576179890547  0.1508695294687641
  0.5938595882732969  0.2375853853169190  0.2504561440758479
  0.4980253153974772  0.3054130889952873  0.3216011157660716
  0.4371929529563729  0.3972411926204558  0.4261265883872909
  0.3111168039405712  0.4913231456148353  0.4904523683310558
  0.2409845683234551  0.5679346628476978  0.6039757675938588
  0.1528534418224652  0.6562370069539440  0.6651351131440961
  0.0986666737916124  0.7601211838805284  0.7453162230202182
  0.0005603012425865  0.8294067359211112  0.8214033985978091
  0.9286875208998353  0.9385864227086174  0.9183271412828731
 
  0.00000000E+00  0.00000000E+00  0.00000000E+00
  0.00000000E+00  0.00000000E+00  0.00000000E+00
  0.00000000E+00  0.00000000E+00  0.00000000E+00
  0.00000000E+00  0.00000000E+00  0.00000000E+00
  0.00000000E+00  0.00000000E+00  0.00000000E+00
  0.00000000E+00  0.00000000E+00  0.00000000E+00
  0.00000000E+00  0.00000000E+00  0.00000000E+00
  0.00000000E+00  0.00000000E+00  0.00000000E+00
  0.00000000E+00  0.00000000E+00  0.00000000E+00
  0.00000000E+00  0.00000000E+00  0.00000000E+00
  0.00000000E+00  0.00000000E+00  0.00000000E+00
  0.00000000E+00  0.00000000E+00  0.00000000E+00
  0.00000000E+00  0.00000000E+00  0.00000000E+00
  0.00000000E+00  0.00000000E+00  0.00000000E+00
  0.00000000E+00  0.00000000E+00  0.00000000E+00
  0.00000000E+00  0.00000000E+00  0.00000000E+00
  0.00000000E+00  0.00000000E+00  0.00000000E+00
  0.00000000E+00  0.00000000E+00  0.00000000E+00
  0.00000000E+00  0.00000000E+00  0.00000000E+00
  0.00000000E+00  0.00000000E+00  0.00000000E+00
  0.00000000E+00  0.00000000E+00  0.00000000E+00
  0.00000000E+00  0.00000000E+00  0.00000000E+00
  0.00000000E+00  0.00000000E+00  0.00000000E+00
  0.00000000E+00  0.00000000E+00  0.00000000E+00
  0.00000000E+00  0.00000000E+00  0.00000000E+00
  0.00000000E+00  0.00000000E+00  0.00000000E+00
  0.00000000E+00  0.00000000E+00  0.00000000E+00
  0.00000000E+00  0.00000000E+00  0.00000000E+00
  0.00000000E+00  0.00000000E+00  0.00000000E+00
  0.00000000E+00  0.00000000E+00  0.00000000E+00
  0.00000000E+00  0.00000000E+00  0.00000000E+00
  0.00000000E+00  0.00000000E+00  0.00000000E+00
  0.00000000E+00  0.00000000E+00  0.00000000E+00
  0.00000000E+00  0.00000000E+00  0.00000000E+00
  0.00000000E+00  0.00000000E+00  0.00000000E+00
  0.00000000E+00  0.00000000E+00  0.00000000E+00
  0.00000000E+00  0.00000000E+00  0.00000000E+00
  0.00000000E+00  0.00000000E+00  0.00000000E+00
  0.00000000E+00  0.00000000E+00  0.00000000E+00
  0.00000000E+00  0.00000000E+00  0.00000000E+00
  0.00000000E+00  0.00000000E+00  0.00000000E+00
  0.00000000E+00  0.00000000E+00  0.00000000E+00
  0.00000000E+00  0.00000000E+00  0.00000000E+00
  0.00000000E+00  0.00000000E+00  0.00000000E+00
  0.00000000E+00  0.00000000E+00  0.00000000E+00
  0.00000000E+00  0.00000000E+00  0.00000000E+00
  0.00000000E+00  0.00000000E+00  0.00000000E+00
  0.00000000E+00  0.00000000E+00  0.00000000E+00
  0.00000000E+00  0.00000000E+00  0.00000000E+00
  0.00000000E+00  0.00000000E+00  0.00000000E+00
  0.00000000E+00  0.00000000E+00  0.00000000E+00
  0.00000000E+00  0.00000000E+00  0.00000000E+00
  0.00000000E+00  0.00000000E+00  0.00000000E+00
  0.00000000E+00  0.00000000E+00  0.00000000E+00
  0.00000000E+00  0.00000000E+00  0.00000000E+00
  0.00000000E+00  0.00000000E+00  0.00000000E+00
  0.00000000E+00  0.00000000E+00  0.00000000E+00
  0.00000000E+00  0.00000000E+00  0.00000000E+00
  0.00000000E+00  0.00000000E+00  0.00000000E+00
  0.00000000E+00  0.00000000E+00  0.00000000E+00
  0.00000000E+00  0.00000000E+00  0.00000000E+00
  0.00000000E+00  0.00000000E+00  0.00000000E+00
  0.00000000E+00  0.00000000E+00  0.00000000E+00
  0.00000000E+00  0.00000000E+00  0.00000000E+00
  0.00000000E+00  0.00000000E+00  0.00000000E+00
  0.00000000E+00  0.00000000E+00  0.00000000E+00
  0.00000000E+00  0.00000000E+00  0.00000000E+00
  0.00000000E+00  0.00000000E+00  0.00000000E+00