Li 
 1.0000000000000000
    21.0527999999999977    0.0000000000000000    0.0000000000000000
     0.0000000000000000   21.0527999999999977    0.0000000000000000
     0.0000000000000000    0.0000000000000000   21.0527999999999977
 Li 
 432
Cartesian
  0.3036709800000000 -0.1133047000000000  0.6159244500000000
 19.4021001700000006  1.7986834100000000  1.6179823300000000
 17.3732962999999998  3.4498866100000001  2.9101168600000000
 15.6095288399999994  5.0422744599999998  5.0428118000000000
 13.5519967700000006  7.0748399700000002  7.0734257300000003
 12.1608856999999997  8.2525764299999995  9.1593859999999996
 10.6947369099999996 10.5364113499999998 10.4543249399999993
  8.4054061499999992 12.1830046000000003 12.4914354099999994
  6.3876731400000004 14.2919889999999992 14.1408641399999997
  4.7186037699999996 15.8181359100000005 16.0869897199999983
  3.4517687200000000 17.2469181599999999 18.1432010199999993
  2.0936903899999999 19.5106578699999993 19.2605103200000016
  1.8390310299999999 19.0032885299999990  1.0951637700000001
  0.2770818000000000 -0.3746693300000000  3.6292203299999999
 19.5205938900000007  1.9639173400000001  4.8591441800000004
 17.1286965199999983  3.4095607000000001  6.1800977699999997
 16.0491206800000015  5.3048808400000000  8.9849358000000006
 14.4567541100000003  7.1312011200000001 11.0080641499999992
 11.4945601899999996  9.0985121499999995 12.3841206300000000
 10.3007092100000008 10.6993960700000006 14.6514271300000001
  7.9983498900000001 12.6028616800000002 15.8892402100000005
  6.5098981900000004 13.8947600100000006 17.8688700300000001
  5.0860720500000003 15.6593309400000003 19.2325382599999983
  3.3650065800000002 17.6343018899999997 -0.0899475600000000
  4.3556954499999998 17.7715956700000000  3.6181507499999999
  2.2744033199999998 18.7829548399999986  4.8638415200000003
 -0.4388643900000000 -0.2588775700000000  6.1205831799999997
 19.2628321400000004  1.5573057200000000  7.8532237399999998
 17.3517604100000007  3.4213961500000001 10.6943091900000002
 15.1397282299999993  4.5322924400000000 12.4307461499999992
 14.0608731700000007  7.2201000600000000 13.3104868100000004
 11.6530712500000000  9.0510669499999992 15.6588920399999996
 10.4775217900000008 10.4194305899999993 16.5517806100000016
  9.0405942899999996 12.8504736699999995 19.0653766000000005
  6.9929826500000001 13.8666795900000004 21.4520913499999999
  5.5898110100000000 15.9295960399999998  1.2679044600000000
  5.6652240999999997 15.7022825000000008  5.1602120600000001
  3.3640774100000002 17.4031550700000004  7.2030744400000000
  1.4510829500000000 19.5602438499999991  8.5823007499999999
 -0.3721246400000000 -0.3092653900000000  9.8740265699999998
 19.5976175599999998  2.4951390400000002 11.9561017399999994
 17.1449244699999994  3.4048835600000000 13.9964502999999993
 15.8376518399999995  5.4955980899999997 15.3530957499999996
 14.1865882699999997  7.6930367400000002 17.4823907299999988
 12.1079881399999998  9.3368280299999995 18.7629538099999991
 10.3117212699999996 10.9091710000000006  0.0467234900000000
  8.6161769300000000 12.6784182600000008  2.0599432100000001
  7.0781706900000003 14.3330986399999993  3.8193699900000002
  7.3310053699999997 13.9547613899999998  7.2889689600000001
  4.9276249300000003 16.0096256200000013  9.2574737099999993
  2.8603334800000000 17.5217451799999999 10.5576496599999992
  2.0898805199999999 19.4187954699999992 12.6596513799999997
  0.0947946800000000  0.2212313000000000 14.1805872700000002
 19.5305827500000007  2.2840441800000000 16.3036183299999990
 17.1505794099999989  3.6135591900000001 17.6239761100000010
 15.6095720799999995  5.8128203999999997 19.6303790499999984
 13.4544131000000000  7.0177191099999998 -0.0639034300000000
 12.0363283400000007  8.7556928700000007  2.2176761800000002
 10.8737210700000002 11.1163064499999997  3.9735913200000001
  8.6132366600000001 12.5837200199999995  5.4672715299999997
  8.5592648800000006 11.7016761900000006  9.0191063899999993
  6.9014305100000000 14.0331222300000000 11.2136499100000009
  4.5739803400000003 15.5100102000000000 12.4447825800000000
  2.9553935400000002 17.6014626000000014 13.9969285400000008
  2.2906686000000001 19.3420473699999995 16.0328089899999995
 -0.0618599900000000  0.3100566600000000 17.9046545399999992
 18.8021072999999994  1.9995118199999999 20.0815844100000014
 17.0454946000000014  3.3276609800000001 21.3682112999999987
 15.8925325700000002  5.3999744600000001  1.5809648500000000
 13.8870687900000007  6.7020705400000002  3.4315063600000002
 12.6946912699999999  9.0773407000000006  4.9938506299999998
 10.9432436699999993 10.9979029100000005  6.8956866000000003
  1.8180015000000000  2.0132374899999999 19.5106088000000000
 -0.3776496800000000  4.2642786900000003  0.3974578500000000
 19.4695334200000012  5.3465922700000004  1.7532080500000000
 17.2167092299999993  7.2620899500000000  3.6293131000000001
 15.3211364099999994  8.7734809299999998  5.5274095499999998
 13.5675887900000003 10.9673397200000000  6.8602452600000001
 12.0236273800000006 12.6495222599999995  8.9853161400000001
  9.8525453499999998 14.7314657100000002 10.7383831999999995
  8.7499525800000004 16.1198933400000008 13.0851280899999995
  5.9932397100000001 17.7242012100000004 14.4400739599999994
  4.4119333699999999 19.1119109999999992 16.7019669200000003
  3.8405698500000001  0.7804395300000000 17.6692267200000011
  3.1861951099999999 -0.3321404700000000 -0.0642845100000000
  1.5767145300000001  2.0518631100000002  1.6633696600000001
  0.1184712400000000  3.3049997300000000  3.0354573899999999
 19.0707429899999994  5.2387499899999996  4.4861021200000000
 17.2264088599999994  6.1921382899999999  6.8278149499999996
 15.4421964099999993  8.8856063400000007  8.3322880000000001
 14.1354811999999992 10.3426893399999997 10.4512767899999997
 12.1676791499999997 12.2070552200000009 12.1486796399999992
 10.3879821200000002 14.2015011700000002 14.5713948400000000
  8.7418706000000004 16.0555579900000005 16.0295762599999989
  7.1474044599999997 17.8937187199999990 17.6189021200000013
  5.4245646399999998 19.5720439000000006 18.9491012000000012
  5.2188002999999998 19.0554453799999983  1.4266306700000000
  3.4634518299999999  0.1185243600000000  2.9814589200000001
  1.8378270800000001  2.0624791000000000  4.8294427000000004
 -0.1661231300000000  3.5936975699999998  6.8067282899999997
 19.0618176300000002  4.9464679199999999  8.4674581399999997
 16.8093247000000012  6.5506645399999996 10.5126746999999998
 16.1470132799999995  8.2912450599999996 12.6953265799999997
 14.3476918199999997 10.7201884900000000 13.7021260300000005
 12.4629019000000003 12.3769687600000005 15.8273337000000005
 10.7923656999999995 13.1861912300000004 17.1310773500000018
  8.6013430399999997 14.9568456100000002 19.0533889000000016
  7.1903594699999998 17.6678644700000014 20.9644963100000012
  6.6974510900000004 17.1333406299999993  3.6701977000000001
  6.1252252499999997 19.8118734100000005  5.0388760300000000
  3.2149709999999998 -0.3018663600000000  6.7215331300000001
  0.9129907700000000  1.3919687999999999  7.7323968900000004
 -0.2283195800000000  3.0986444199999998 10.0434520799999998
 19.9995600899999992  4.7468457400000004 12.1625613799999996
 17.8021496699999986  6.2391136500000002 13.1346311300000007
 15.8221787999999997  8.4875569300000002 15.1292943500000003
 14.6780230399999994 10.2943348399999994 17.4603171199999991
 12.3072910100000001 12.0512901200000009 19.0632865600000017
 10.3529297000000007 13.1899851199999993 20.8635654700000011
  9.2407209600000009 15.6039496799999995  2.1071216300000000
  8.2306487599999993 15.7832233199999994  5.8684788100000000
  6.4787718700000001 17.3084629600000000  6.9434538300000002
  5.3477145699999999 19.8409452799999997  9.4244100999999993
  3.1884898399999999  0.1333571000000000 10.3124448300000005
  1.6371173999999999  1.8354571799999999 11.8795976000000003
  0.3952912000000000  3.7687126000000002 13.9276267199999992
 19.5947518599999988  5.0404963599999997 15.8141383900000001
 16.8912392300000000  7.0585819900000004 17.4873866100000015
 15.9647751600000003  9.1417968100000007 19.3337999700000012
 13.4275872799999991 10.1631783799999997 20.9252443499999998
 11.9792466100000006 12.7801113700000002  1.7821798099999999
 10.3394370200000001 13.9505201999999997  3.5275457499999998
 10.3114271899999999 13.8886006200000001  7.0022465699999996
  8.6340318099999998 16.0589692299999989  9.0785474100000005
  7.0395998100000003 17.8116251100000014 10.7990344900000004
  4.2999213999999997 19.5254820699999989 12.3006306599999995
  3.3962269200000001  0.0695897300000000 14.0514358599999998
  1.9077521000000000  1.8540915800000000 16.2038259800000013
  0.3220639800000000  3.9677626300000002 18.8116736799999984
 17.9606315800000012  5.2023587400000002 19.4922687900000007
 17.5596797900000006  7.2256676300000002 21.6206535500000001
 15.2525698999999992  9.3416442600000007  1.8516811200000001
 14.2380436899999996 11.0841783300000003  3.3605239299999998
 12.8019035999999993 12.8592103099999999  5.0390098999999999
  3.2889922199999999  4.3469978700000000 17.5659833700000014
  2.3740218799999999  5.6970898900000000 19.3860842799999986
 -0.0252926100000000  7.4821710799999996 -0.4690367300000000
 19.5924504299999995  8.8953253199999995  1.1364906400000001
 17.5680371800000010 10.3203541500000000  2.8844020600000002
 16.2221800999999992 13.1946807199999991  4.9578076500000003
 14.0995733399999992 14.1904216999999999  7.2600981400000002
 12.3099409499999997 15.8174959899999994  9.5478991200000003
 10.9242785100000006 17.4171647400000005 11.0286699000000006
  8.7517750599999999 19.5643278900000013 13.0119979400000005
  6.3844367699999998 20.5163973599999991 14.7525269300000001
  4.4183660900000001  2.0750225900000001 15.8027762999999997
  5.0633792599999996  2.1309625400000001 19.4750846300000013
  3.1874503800000000  3.8623362399999999 -0.0897428700000000
  1.6678282900000001  5.7075911399999999  2.0277363400000001
 -0.4752878800000000  7.3767640600000002  3.3446746200000002
 19.0037650400000011  8.3823254299999999  5.8518492999999996
 16.8624027199999986 10.9554443999999993  7.0959605100000003
 15.6931228699999998 12.1556731599999992  9.2014362900000002
 14.0520730999999994 14.0929344000000007 10.8744366800000005
 12.0455439500000008 15.9677634200000007 12.4913376199999995
 10.2385400700000009 17.7118407699999985 14.4503599999999999
  8.2599658100000006 18.8450220199999983 15.9664288200000009
  7.0054362000000001 21.3745715300000008 17.4490970099999991
  7.4358503499999999 -0.0382441200000000 -0.3313190400000000
  5.2989016500000004  1.9089586900000000  0.9342817300000000
  4.0021806000000000  3.6206659900000000  3.6587403500000000
  1.5506328899999999  5.6745810700000003  4.7435622400000002
  0.0174221200000000  6.5698060900000002  6.9236127800000000
 18.8300172699999990  8.5025785000000003  8.1825220800000000
 17.7542971700000010 10.3531125900000003 10.1419563400000001
 16.0209324799999990 12.2997610099999992 12.8830310299999997
 14.4578392900000008 14.4167190299999994 14.2467032600000003
 12.6294722999999998 16.1533567299999987 15.8700946100000007
 10.5302960500000005 17.3894297100000017 17.6164203700000002
  8.6012742099999997 19.1355110300000000 19.0328247700000013
  9.4426274100000001 18.5170892699999996  1.7527772699999999
  7.5258942099999997 -0.1541758600000000  3.2508937300000000
  5.8840431700000000  1.3040899900000000  5.4773250800000000
  3.3927668099999999  3.0753161599999999  6.9848452999999999
  2.5126065999999998  5.4118253599999999  8.6980235399999994
 -0.1901205300000000  6.4661119600000001 10.5916243300000001
 19.4662500099999995  9.0628332100000009 12.0957386899999992
 17.7474233099999985 10.3284145400000007 14.5869589899999994
 15.3733427900000006 12.2356796200000009 15.7785893099999992
 14.2108397600000007 14.1450575799999996 17.3084100200000002
 12.4384758299999998 15.4035595799999996 19.1384755200000001
 10.8783561700000000 17.9696794900000008 20.0599430400000003
 10.5166367300000001 17.1522432900000013  4.1586988500000004
  8.8342174100000008 19.0734553600000005  5.3005912400000001
  7.1573187200000001 -0.4367373200000000  6.7493187800000003
  5.2938280700000000  0.8986449000000000  8.9811603499999997
  3.8520454499999999  2.6483779300000001  9.8435369900000005
  1.4892839099999999  5.1642211500000004 11.0544245900000000
 -0.1247432800000000  6.6688744000000000 13.8489186400000008
 19.3772827300000010  8.2648664699999994 15.6681642700000001
 17.0088481000000016 10.6566044800000004 17.3854765200000010
 15.6267068800000004 12.0933920399999995 19.2339547000000017
 13.9892480300000006 14.2410221200000002 20.9948657599999997
 11.8502849399999999 15.8982249200000005  1.1120744199999999
 12.3836397399999996 15.1493540299999996  4.9239088899999999
 10.4902122400000000 17.0054451799999988  7.3258534199999996
  8.6806613600000002 19.1454774500000013  8.4797648999999993
  7.3780977400000003 -0.1632824000000000 10.6298374700000000
  5.3900756500000000  1.3844086900000001 11.9600350700000000
  2.9835636399999999  3.4816852800000002 13.4860143200000007
  2.0246946299999999  5.3188380300000002 15.4902796699999996
  0.1098813700000000  7.2213877799999997 17.8204676500000012
 18.9257862299999999  8.7483209700000000 19.5512040099999993
 17.6915237900000015 10.5178561699999999 20.7503242400000012
 16.0334681500000009 12.3887938000000002  0.9810495600000000
 13.9802567700000004 14.1788474900000008  3.0107880599999999
  5.6017379199999997  5.0147986199999997 15.1492973099999997
  3.5624637600000000  7.1149704399999996 17.5350414000000008
  2.1307416400000001  8.7598789700000008 19.5605312699999985
  0.0577770100000000 10.5374482999999994 -0.4473739100000000
 19.3848262099999999 12.1858368200000005  1.0964603799999999
 18.1904514400000004 14.1508293700000003  3.2068223499999999
 16.0852345099999994 15.0731413799999991  4.7874580599999996
 14.7079899500000000 17.2918780900000009  6.6273999000000003
 12.5009088199999994 18.5912953999999999  8.5537348299999998
 10.1509433199999997 -0.0527400300000000 10.0544973300000002
  8.6576939399999997  1.7158529199999999 12.4098309600000007
  7.1355509200000000  2.9157254600000000 13.9102573199999995
  6.8655714100000003  3.3183143700000000 17.4617644399999996
  5.3946674899999998  5.4776225900000002 20.2089643800000012
  3.6791767000000002  7.3839334799999996  0.0777093800000000
  1.4908282399999999  8.7498460100000006  2.0290184000000000
 -0.1780806400000000 11.2967353300000006  3.7089131499999999
 18.9525885199999991 12.5082639100000002  5.5505437999999998
 17.2724945199999986 14.2867438000000000  7.9606437000000003
 15.2899649699999998 16.1338295400000007  9.0580922099999999
 14.2572937000000000 17.6485082800000015 10.8486140500000001
 12.3857783300000008 19.4425546400000009 12.5933009400000007
 10.1539809200000004 21.2885221000000016 14.1008554400000001
  9.0720575500000002  1.7879040100000001 16.1798345200000000
  9.2688129700000008  1.7558649799999999 18.8053220500000009
  8.0678431100000001  3.6816264500000000  0.2298512300000000
  5.7306838600000001  5.1745240800000003  1.3561443000000000
  3.5940389800000001  7.7613451299999996  3.5009096899999999
  1.8069233499999999  9.1353671500000004  6.0664088899999999
 -0.1518416200000000 10.7404613300000005  7.1137709400000002
 18.9027653700000009 12.2870408999999992  9.5466012800000009
 17.3432989400000004 14.2293792099999994 11.0619837400000005
 16.0085619399999999 16.5521137500000002 12.4628848600000008
 14.0982234700000006 17.3989000699999998 14.0792779100000001
 12.1247521200000001 19.3300394500000010 15.9158191700000007
 10.3164924500000001 -0.5550353900000000 17.8081752999999985
 10.1530897299999996 -0.3721416700000000 -0.2992559900000000
  9.2685856799999993  1.4775640000000001  1.4093321599999999
  7.4932875499999998  2.9296862500000000  3.3473807500000001
  5.0627791799999997  5.3556188999999996  5.5375062699999997
  3.7756090800000002  7.0805422599999996  7.0513663400000004
  2.0405589200000001  8.5715265200000008  9.3312247399999997
 -0.3550596800000000 10.3511130700000002 10.2359993899999999
 18.8642079000000003 12.0286278499999995 12.2845845400000009
 17.5536610599999996 14.1733976500000001 13.7694352799999997
 16.5424982299999996 15.6177757899999996 16.0253100599999989
 14.0651434399999999 17.4593596099999999 17.8289915400000005
 12.8475954500000000 19.5814131099999997 19.1539715699999995
 12.2890679899999995 19.4583871700000017  1.8226924200000001
 10.7223784599999998 -0.5651498600000000  3.8506521999999999
  9.3999482499999996  1.5532485500000000  5.5402903999999999
  6.8512340299999996  3.1372769100000002  7.4236515699999996
  5.5432174300000003  5.2973613899999998  8.8247878300000000
  4.3261958500000004  7.0924928300000003 10.7364431600000003
  1.6849369100000000  8.7081830500000006 12.1062769800000005
 -0.1372605900000000 10.1678921800000008 14.4252028200000009
 19.1587257599999994 12.4392581900000003 15.8475959500000005
 17.4884923400000005 14.0352919200000006 17.6461450599999985
 16.1494722700000004 15.5844264300000006 19.3314546000000007
 14.5093450100000005 17.6565237000000010  0.3450598500000000
 14.1090078999999999 17.2161718300000004  3.2612990800000001
 12.2947015900000007 18.2645765800000000  5.1530825299999998
 10.6213301399999995 -0.4432391500000000  6.7473688699999999
  8.9705848100000001  1.0882423400000001  8.5050461300000002
  7.2602038300000000  3.0542247300000001 10.1378743199999999
  5.0478652500000001  4.5870033000000001 11.8817312499999996
  4.0924780700000003  6.7941482999999998 13.5949638400000001
  1.8905862800000000  8.5743647400000000 15.4894851300000003
  0.3492207300000000 10.6276208499999996 17.9133725900000016
 19.5316268499999985 12.3490594100000006 19.1379766499999988
 18.1900901499999996 14.0759089900000003 -0.3736423500000000
 16.3895977200000011 15.6314852500000008  1.6183661499999999
  6.7414937400000001  7.1033652800000002 13.6578882799999999
  5.5039315699999998  8.6230414700000004 15.7578436600000007
  2.9590690999999998 10.3041218400000005 17.4106439000000002
  2.1459982200000001 12.8206974200000001 19.6207992299999994
 -0.0983836200000000 14.6144555900000004  0.2002628100000000
 19.7643743500000006 16.1265905799999985  1.5011128800000000
 17.7354437199999992 17.1370488899999991  3.6495884300000001
 16.2837026999999992 19.0643137799999991  4.6558612999999998
 13.8791993999999992  0.1882239900000000  6.1880930599999999
 12.4071156200000008  1.5367989900000001  8.5057108299999999
 10.8944847399999993  3.2125873399999998 10.0536325899999994
  8.7726117099999996  5.1696090100000003 12.3244810400000002
  8.5546982899999993  4.8526134799999996 15.5303839000000004
  6.9371805599999998  6.7613547299999999 17.7107238100000011
  5.6682408700000000  8.3555037999999993 19.3521531899999992
  3.4409684899999999 10.4538887500000008  0.2749170700000000
  1.8799153300000000 11.9702178999999997  1.8835189600000000
 -0.4975967200000000 13.9684618900000004  3.2876729999999998
 19.2122070100000002 15.7307548500000003  5.1710470199999996
 18.0105572199999990 17.1929510599999986  7.3226286900000002
 16.1883142800000002 19.2530097600000012  8.3251770300000008
 14.1642813899999993  0.0775223400000000 10.5828764799999995
 11.9606162000000005  1.4801062400000000 12.0116785600000000
 10.5634801199999995  3.5941430300000001 13.3841121300000001
 10.5671115199999992  4.2278210200000004 17.1937001900000013
  8.9694904999999991  5.4549334199999997 19.5438208700000011
  7.8895566199999996  7.5203829100000004  0.3299404000000000
  5.3313444600000004  9.3373845600000003  1.7601161999999999
  3.4943376200000000 10.5289286000000004  3.4658860900000001
  1.9429465400000001 12.7584794600000002  4.7924316999999999
 -0.1149419600000000 14.2500879299999994  6.7838526899999998
 19.3379132700000014 15.5764772699999998  8.8433804699999996
 17.5910028599999997 17.3819859799999996 10.5904311500000006
 16.2043691299999999 19.4377193900000016 12.2915338700000003
 13.8957864400000002 -0.4647667700000000 14.4352220300000003
 11.7034895500000005  1.6315138100000000 16.5221392800000011
 12.1989869100000003  2.0882190899999999 18.3946365999999983
 10.6121917499999991  4.0436682099999999  0.1666448500000000
  9.3147243700000004  5.5783383700000000  2.6487367100000001
  7.0130757600000004  7.2771204599999999  3.9377762999999999
  5.2617133500000000  8.8128870100000007  5.3867402599999998
  4.0305547300000004 10.7808687699999997  7.4724575099999999
  1.4977686600000000 12.2717553699999993  8.7908818199999992
 -0.2316776200000000 13.5861683099999997 11.0472723500000001
 19.4101676199999993 15.8836317400000002 12.4292402299999996
 17.4112414199999996 17.7992357800000001 14.1708355499999996
 15.7430444900000008 19.0148384800000017 16.2156921800000013
 14.1943555000000003 -0.0871893300000000 17.5977954799999985
 14.0753624199999994  0.2120949800000000 -0.3754143300000000
 12.1147497600000005  1.7892124500000000  1.6398130600000000
 10.5681509600000005  3.8388551400000002  3.6838139000000001
  8.2464059800000005  4.7880322099999999  5.6660379699999996
  7.2975804300000000  7.2632666700000001  7.1504571500000003
  5.8198501100000000  8.8370085899999999  8.8295523399999993
  3.2398317099999998 10.1944269399999996 10.6755981400000000
  1.3255474400000000 11.8905143599999992 12.5431190400000006
 -0.3009175900000000 13.7747354699999995 14.6474813000000008
 19.0452405800000015 15.4893303400000004 15.9208479599999997
 17.9837390200000016 17.7292803600000006 17.9771919699999998
 15.9377010699999992 19.4523655300000016 18.8949452499999992
 16.1306334299999996 19.1698709500000000  2.0027726399999999
 13.9438185099999998 -0.2524595700000000  3.8058753599999999
 12.1119045199999995  1.8648851700000000  4.8639358300000000
 10.6281727299999993  3.1885577199999999  7.2178858999999997
  8.9642204999999997  4.9234727300000003  7.9528559300000001
  7.2954387199999999  7.1735917999999996 10.0169617800000008
  5.4911903300000002  8.9921673599999998 12.7100303599999993
  3.6321888000000002 10.1309282899999999 14.0996208700000007
  2.0704282400000000 12.3614019800000001 15.5851894400000006
  0.3028841600000000 14.5079239399999995 18.3161352899999983
 19.5726599499999985 15.4913422000000001 19.2342917000000000
 17.6482109700000009 17.5482601400000000 -0.5648132400000000
  8.7273859900000001  8.8697388600000000 12.3718781399999997
  7.1082683400000004 10.0580428600000005 14.0477434300000006
  5.2613611899999997 11.7749664700000007 15.5748190300000005
  3.7898354099999998 13.4602586800000008 17.3727449800000002
  1.9426790100000000 16.0269767300000012 19.3022879900000000
 -0.1276649900000000 17.8552422300000018 -0.8128563200000000
 19.5357227199999990 19.1480503800000008  1.7499491199999999
 17.5597604599999997 20.7309032699999989  3.2399757800000000
 15.9686200899999999  1.5562437300000000  4.6310098200000001
 14.3919505399999998  3.1872734899999999  6.8801497600000001
 12.7235684800000008  5.0005341500000000  8.8198446900000000
 10.7062796900000006  6.7285614400000000 10.4733581000000004
 10.6512536499999992  6.7136268100000001 13.5249906099999997
  8.2438021900000003  7.7260270100000001 15.4993782400000004
  7.6681145700000002  9.9507756199999999 18.4084364500000000
  4.9888836500000000 11.8451374499999993 19.3359975300000002
  3.7102258099999998 14.1067320299999999 -0.2217188100000000
  1.9867079100000000 15.6636257400000005  2.3183837500000002
  0.1308237400000000 17.4792605300000012  3.2128979900000001
 18.8657081399999988 18.8102658399999996  4.7074950600000003
 17.2573846099999990 21.2410269499999984  6.5427709299999997
 15.9288610399999992  2.2429247299999999  8.7514279199999994
 13.6314238599999999  3.5035295899999999 10.3759361999999999
 11.6346452599999992  5.4051042999999996 11.9410002300000002
 12.6938564700000001  5.8829991300000000 15.9317949300000006
 10.1483489200000001  7.2063730799999997 18.0194972500000006
  9.1261220200000004  9.0916537500000008 19.2145383699999996
  7.6140193900000002 11.1813659300000001  0.3646841200000000
  5.0930563600000003 12.3523208400000009  1.5137112699999999
  3.7675090500000001 14.6836457300000003  3.4930924600000002
  1.8730384400000000 15.3299430900000004  5.1609277400000000
 -0.2139825000000000 17.5341672399999986  7.0850053300000004
 18.9278271599999997 19.2650996700000015  8.4772743699999999
 17.8165969699999991  0.5560193000000000 10.5477325700000009
 15.6330884300000008  2.0668208400000001 12.5946946999999998
 13.5289903700000007  3.2542386699999999 14.3364461599999995
 14.5009164199999994  3.5555540899999998 17.7722989099999999
 11.7911514799999999  5.6879098900000002 18.7144573500000000
 10.3709618100000007  7.8812903099999998 -0.0123105400000000
  9.1072199800000000  9.4457251299999996  2.5098151999999998
  6.5665334199999998 11.0597271300000006  4.3299333500000001
  5.2413063900000001 12.9428340500000001  5.1648974900000004
  3.8794626100000000 14.0474911599999999  7.2810113899999997
  1.5422332299999999 15.3013555599999993  8.8296248899999998
  0.0680898200000000 17.6154741100000010 10.3420779700000001
 19.0688268600000015 19.2398916500000006 12.4597242599999998
 17.8694176300000009 21.6238314500000008 14.3242960200000002
 15.7208046199999991  1.6290307900000001 16.1150549000000005
 15.6221666700000004  1.5491493800000000 19.7030490100000009
 13.7935573300000005  4.1541233999999996 -0.2007325300000000
 12.0658671200000001  5.3781268400000002  1.7721171200000001
 10.6691220199999997  7.1929623200000004  4.2303035500000004
  9.1729991799999997  9.4012638299999995  4.9204996000000003
  7.2778739400000001 10.7993424800000000  7.2445186399999999
  4.9674374099999996 12.2404339800000006  9.4642123300000005
  3.1587330499999999 13.8169526400000002 11.0988205600000001
  1.1105621000000001 15.1446459900000008 12.7566554199999995
 -0.4345634300000000 17.8738808499999990 14.5487640900000006
 19.0653513600000011 19.6116349200000002 16.0633335499999994
 17.6371361600000007 21.4875978600000010 17.1008244599999983
 18.1568028699999999 -0.0796906800000000  0.2017809100000000
 16.0294387500000006  1.7388170599999999  1.3581240000000001
 14.3681306200000005  3.3296606999999998  3.1762260300000000
 12.5024071400000008  5.0018376000000000  5.2728031099999999
 10.4848273600000006  6.4298006799999996  6.7706039699999998
  9.2041357999999995  8.3630393800000000  8.9711578400000000
  6.5498798499999999 10.3437279199999992 10.3253956200000001
  5.0733999200000000 11.9566148699999992 12.7153810400000005
  3.2179929399999998 13.8156264600000007 14.0029565100000006
  2.0772097500000002 16.0026792600000007 15.6909933800000001
  0.0117959100000000 17.4613341300000009 17.2928414699999990
 19.5514726400000001 19.7598722400000000 19.3333576399999991
