Li                                      
   1.00000000000000     
    20.6400000000000006    0.0000000000000000    0.0000000000000000
     0.0000000000000000   20.6400000000000006    0.0000000000000000
     0.0000000000000000    0.0000000000000000   20.6400000000000006
   Li
   432
Direct
  0.9996410876937958  0.0124634006782927  0.9829962751937984
  0.9324803062015476  0.0934564641472875  0.1098835620155043
  0.8256265513565921  0.1757653604651139  0.1810262781007737
  0.7409213483527139  0.2563236569767469  0.2502242984496093
  0.6515472727713174  0.3586601279069797  0.3249841971899201
  0.5552069428294573  0.4255092267441825  0.4150475499031003
  0.4818564365310110  0.5275146816860499  0.5149452703488393
  0.4159607262596907  0.5960560726744220  0.5999949893410843
  0.3375284045542628  0.6476963507751918  0.6906704786821720
  0.2556752437015533  0.7724172824612410  0.7686477533914697
  0.1533420983527165  0.8276764491279067  0.8377426841085267
  0.0812090629844988  0.9195845571705448  0.9175747538759680
  0.0843076312984508  0.9085341884689910  0.0754614966085256
  0.0090985605620162  0.9747264975775209  0.1639096157945730
  0.9089110343992246  0.0664499728682202  0.2527891138565863
  0.8202832538759708  0.1681685499031005  0.3230499791666688
  0.7625966303294547  0.2578896792635632  0.3853521933139561
  0.6707347078488368  0.3391552107558127  0.5057388435077499
  0.5709951574612404  0.4376454399224841  0.5716362504844952
  0.5016403231589166  0.5278987727713158  0.6898831346899215
  0.4260360334302291  0.5872820116279058  0.7880594006782928
  0.3375969229651190  0.6366971225775160  0.8552466666666660
  0.2712318454457332  0.7666708750000026  0.9070892141472839
  0.1860713454457397  0.8364750925387625  0.9838852955426347
  0.1623628139534858  0.8359159302325594  0.1606747698643431
  0.1014657141472881  0.8988107403100756  0.2604937272286847
  0.0103519932170570  0.9896866531007760  0.3644343260658900
  0.9253966584302304  0.0965798570736425  0.4210841366279041
  0.8020701971899200  0.1408860968992229  0.4999312684108546
  0.7396437296511635  0.2375881187015523  0.5648248483527141
  0.6858817640503858  0.3290474428294559  0.6388217524224800
  0.5858318982558117  0.4235113473837231  0.7672773793604648
  0.4944730750968986  0.4920209539728688  0.8602129229651183
  0.4214886797480588  0.5740714525193766  0.9149028585271282
  0.3266136094961212  0.6673038919573671  0.9874620058139527
  0.2506477708333321  0.7729983968023220  0.0556615944767458
  0.2455603517441887  0.7455910009689930  0.2088932766472880
  0.1907817398255816  0.8337727359496157  0.3387486235465147
  0.0960521967054291  0.9056258720930259  0.4295252747092988
  0.0030715654069766  0.0059355586240315  0.5183722233527135
  0.9066961666666700  0.0763875087209271  0.5648675208333316
  0.8226846283914711  0.1388349539728679  0.6482828725775178
  0.7352438362403078  0.2237272713178271  0.7498248100775200
  0.6728134437984465  0.3391473551356583  0.8376046516472897
  0.5807147921511628  0.4071063323643429  0.9217085237403069
  0.5184768711240295  0.4820887233527102  0.9905487257751915
  0.4068068255813984  0.5683837228682194  0.0634692277131776
  0.3426242921511644  0.6428451933139527  0.1393991918604627
  0.3235313187984517  0.6631469689922511  0.3155317960271304
  0.2702444806201569  0.7451324660852734  0.4247468875968963
  0.1788725721899240  0.8250827669573653  0.5153649404069753
  0.0855069607558150  0.9117093687015512  0.5873744127906946
  0.0177797781007740  0.9895645615310045  0.6531152059108507
  0.9177565489341077  0.0694599738372119  0.7595388207364309
  0.8522238871124017  0.1654683556201562  0.8113594428294562
  0.7751781724806222  0.2578382194767457  0.9291262102713205
  0.6647327519379829  0.3433771676356585  0.0195501283914723
  0.5726654118217027  0.4080680426356622  0.0903682965116275
  0.4836817432170548  0.4871921904069794  0.1649580586240305
  0.4096022698643438  0.5889542151162814  0.2456872485465098
  0.4116468924418584  0.5924166332364322  0.4223358163759698
  0.3433930654069783  0.6625604733527126  0.5081361942829474
  0.2596607703488374  0.7453593803294609  0.5804059118217069
  0.1651061274224830  0.8385641841085274  0.6602550125968989
  0.0703895624999973  0.8926655290697667  0.7499085377906951
  0.9937250736434109  0.0169099258720919  0.8344557189922455
  0.8974527989341112  0.0844980266472888  0.9133829709302290
  0.8227820668604622  0.1610785591085246  0.0139011501937958
  0.7432020731589120  0.2597538217054236  0.0974211317829443
  0.6762954113372075  0.3408685053294604  0.1766768609496125
  0.5780223628875945  0.4284235048449645  0.2405131492248032
  0.4773986259689948  0.5128449573643437  0.3373032020348816
  0.0969412156007721  0.0826572950581408  0.9021287533914730
  0.0040280256782950  0.1442046157945711  0.9843958493217073
  0.9305250920542605  0.2332510101744205  0.0915929282945740
  0.8311617834302325  0.3297852582364342  0.1577776327519373
  0.7433669670542642  0.3973701719961227  0.2592318682170571
  0.6465939583333338  0.5032944297480597  0.3224496453488399
  0.5845743023255778  0.5950688221899227  0.4032482727713145
  0.4976008028100765  0.6699041937984518  0.4981762790697672
  0.4171896967054280  0.7445176051356555  0.5942484060077504
  0.3440271104651131  0.8327272073643428  0.6661626075581424
  0.2396360707364309  0.8857902151162804  0.7545298478682199
  0.1611710339147265  0.9829940048449615  0.8246121104651181
  0.1719249874031021  0.0062580465116255  0.0016320523255828
  0.1085221564922492  0.0780627093023227  0.0940091971899193
  0.0058499408914727  0.1738865290697689  0.1867316933139520
  0.9019180935077529  0.2402153614341103  0.2675097296511595
  0.8254163958333365  0.3110152650193783  0.3261931671511604
  0.7652160537790706  0.4283803546511606  0.4116575944767433
  0.6537689539728717  0.5064890896317849  0.4818340029069788
  0.5927161855620184  0.5919690789728662  0.5828348149224780
  0.5139650043604647  0.6667526303294551  0.6772412025193830
  0.4164500741279085  0.7317107151162787  0.7698283178294574
  0.3641674699612381  0.8404103187984475  0.8435693803294555
  0.2520876056201544  0.9334053168604655  0.9106592403100748
  0.2490583798449606  0.9190569442829428  0.0752581933139567
  0.1832746584302356  0.9930531458333363  0.1812370731589112
  0.0804631283914716  0.0810918929263593  0.2667017742248063
  0.9866439515503842  0.1759752175387632  0.3168731250000008
  0.9097172659883697  0.2503710358527158  0.4342167645348809
  0.8204902921511632  0.3163008003875944  0.4919865712209273
  0.7558200450581367  0.4363729820736424  0.5691205610465104
  0.6862644190891487  0.4847989234496097  0.6889443594961264
  0.6063730624999977  0.5672574563953461  0.7618119597868187
  0.5204298570736441  0.6618537194767455  0.8212885847868208
  0.4360760343992283  0.7328731438953469  0.9188613648255810
  0.3564940358527124  0.8556824951550368  0.9947090610465139
  0.3401932989341105  0.8291808885658938  0.1298994874031010
  0.2807773512596867  0.9300576492248069  0.2532635276162765
  0.1632432960271331  0.0003644801356586  0.3310217727713152
  0.1061474195736452  0.0942472180232556  0.4270944815891440
  0.0084506477713191  0.1664568454457367  0.4960643095930237
  0.8986900411821708  0.2498361826550379  0.5750974219961265
  0.8228372708333325  0.3417420256782933  0.6637419835271317
  0.7649345697674406  0.4151687703488349  0.7636242194767462
  0.6869119292635659  0.4986704631782928  0.8573415145348804
  0.6150523968023265  0.5811277039728679  0.9070465319767465
  0.4997181230620171  0.6497093750000005  0.9898759612403083
  0.4224110455426384  0.7443105445736435  0.0807891104651191
  0.3861228808139501  0.7417423478682181  0.2356782669573647
  0.3117445397286787  0.8295038687015506  0.3393813672480590
  0.2430480523255838  0.9217785862403076  0.4306071138565883
  0.1560302083333340  0.9902585818798428  0.5161447194767419
  0.0913378570736469  0.0940271705426383  0.5929400717054278
  0.9953829796511613  0.1608404215116295  0.6490147267441841
  0.9018079093992242  0.2318302824612388  0.7205132146317794
  0.8373144505813954  0.3053648260658903  0.8136932819767466
  0.7781712296511643  0.4091264815891478  0.9103720024224771
  0.6973328851744185  0.4834063609496155  0.9871286162790724
  0.5865513851744169  0.5482006187015500  0.0840288667635676
  0.5032456613372105  0.6637044084302346  0.1444016913759683
  0.4847117524224771  0.6619344854651175  0.3135142722868238
  0.4131348934108559  0.7415847175387569  0.4266577461240288
  0.3396253749999971  0.8284215353682143  0.4844635876937957
  0.2679971845930211  0.9116577596899234  0.5929973696705417
  0.1460193081395360  0.9980121531007740  0.6626156962209322
  0.0656773890503857  0.0887884292635661  0.7636885833333338
  0.9856873003875961  0.1873129278100762  0.8396029486434102
  0.9275895329457384  0.2394258798449584  0.9146317315891466
  0.8657049437984483  0.3339333541666676  0.0265338323643434
  0.7542701652131782  0.4372319607558168  0.0878587020348860
  0.6681137645348869  0.5074430048449585  0.1784300721899257
  0.5528773284883712  0.5867414176356576  0.2377457974806205
  0.1597597916666658  0.1808787480620140  0.8388523444767415
  0.0929490528100771  0.2489101206395361  0.9211901390503883
  0.9932817456395355  0.3209098406007769  0.9942024093992217
  0.9409914287790713  0.4203889481589158  0.0918872209302322
  0.8298061051356598  0.5015314922480627  0.1863754985465107
  0.7478980562015494  0.5795350004844977  0.2523905213178281
  0.6546568372093020  0.6673684127907009  0.3129757897286822
  0.5734895067829484  0.7655329622092992  0.3995019161821673
  0.4840746090116284  0.8441799714147251  0.5074981812015480
  0.4201531540697658  0.9306680736434103  0.5684903498062042
  0.3416902965116293  0.9924644951550405  0.6724434249031006
  0.2528388769379859  0.0714485092054247  0.7758181603682175
  0.2502378187984462  0.0959802374031042  0.8961605159883703
  0.1791594108527121  0.1713087800387569  0.0069310164728691
  0.0899778425387581  0.2527614607558135  0.0942637112403091
  0.9861054273255832  0.3206552223837207  0.1835980954457384
  0.9033352218992263  0.4250085862403097  0.2567667960271294
  0.8365736560077508  0.4972103473837208  0.3312667272286802
  0.7437458163759700  0.5929641182170542  0.4033449113372072
  0.6631987354651159  0.6875214559108542  0.4536283100775194
  0.5698973565891450  0.7490171065891502  0.5588894108527143
  0.5007506298449584  0.8317496380813978  0.6583121555232552
  0.4376164001937966  0.9064141162790662  0.7336469937015480
  0.3396058139534901  0.9709572737403107  0.8207517688953487
  0.3363508091085237  0.9994255566860488  0.9758172810077497
  0.2647587417635648  0.0828038643410878  0.0723571967054255
  0.1753187320736416  0.1894255033914760  0.1660782931201581
  0.0908343352713175  0.2553683837209277  0.2558657422480621
  0.0046783265503905  0.3370583740310096  0.3350259127906980
  0.9135632650193770  0.3982497126937972  0.4348916952519346
  0.8292774539728711  0.5137403633720936  0.4878929583333331
  0.7398510746124032  0.5977764074612395  0.5952292562984525
  0.6522072553294578  0.6786993672480648  0.6983928381782931
  0.6003285906007747  0.7450909641472876  0.7512610910852686
  0.5269745625000013  0.8293742630813981  0.8431099748062039
  0.4305555620155062  0.9360474045542659  0.9112738624030996
  0.3991563425387596  0.9394134563953500  0.0898818522286788
  0.3307214021317861  0.0187852233527153  0.1614808701550388
  0.2697131303294569  0.1009365789728704  0.2631206109496134
  0.1736916836240283  0.1841709186046501  0.3400628861434143
  0.0730576715116271  0.2580509888565885  0.4148558774224824
  0.9887767955426341  0.3161894437984500  0.4938327015503887
  0.9004211245155034  0.4257105872093021  0.5668086099806189
  0.8327617126937952  0.5185163987403101  0.6745879350775184
  0.7354336065891474  0.5862811749030996  0.7697348754844953
  0.6771403018410851  0.6496025780038792  0.8419062921511653
  0.5792664612403087  0.7505226303294563  0.9323303846899194
  0.4828834607558150  0.8277378236434103  0.0092471167635679
  0.4947564297480653  0.8296726802325551  0.1727751845930214
  0.3943160460271287  0.9176151303294589  0.2620450000000005
  0.3141143338178267  0.0123865421511624  0.3608288367248065
  0.2450133260658944  0.0722920295542622  0.4313141012596873
  0.1581650305232571  0.1798948696705409  0.5179867010658938
  0.0706340455426329  0.2524402892441842  0.5965023280038793
  0.9911486647286836  0.3269777146317807  0.6546632969961266
  0.9180407223837221  0.4082604786821733  0.7462625440891486
  0.8351379195736399  0.5141214641472871  0.8306423905038756
  0.7701311666666655  0.5899076908914722  0.9424567000968977
  0.6697179937015534  0.6617160479651147  0.0205846424418610
  0.5841201206395326  0.7334815218023252  0.0682098212209326
  0.5720204951550372  0.7362594956395370  0.2365511322674436
  0.4815529326550418  0.8316288217054293  0.3322920736434085
  0.3997974040697656  0.9214573963178267  0.4147494505813967
  0.3434961458333348  0.0087874772286796  0.4936656584302312
  0.2474267470930229  0.0782361104651130  0.6124792674418629
  0.1652989762596917  0.1583423280038758  0.6773800998062001
  0.0759778343023285  0.2541608139534901  0.7403734365310086
  0.0040109224806173  0.3260710402131792  0.8327194874031036
  0.9120232252906959  0.4151387151162780  0.9183205406976711
  0.8513104462209284  0.4770548541666670  0.0051683716085265
  0.7538800920542670  0.5662193798449593  0.0795384152131788
  0.6577437422480585  0.6642150363372110  0.1433267814922488
  0.2517423289728669  0.2470356598837213  0.7540539781976747
  0.1621825353682169  0.3382176187015489  0.8242219704457341
  0.0606155881782939  0.4133780411821704  0.9137808880813978
  0.0046766453488374  0.4954712243217045  0.9947751652131771
  0.9188098599806196  0.5695566695736431  0.0778856826550367
  0.8375200901162785  0.6734416923449587  0.1566500348837181
  0.7522086230620175  0.7689496022286804  0.2531530489341094
  0.6639606182170539  0.8301316104651164  0.2979571739341083
  0.5733570566860493  0.9120209941860438  0.4041991414728656
  0.5087894932170514  0.9877515256782914  0.5050238667635654
  0.4388624326550357  0.0907876792635633  0.5781001405038779
  0.3392213948643388  0.1553703313953463  0.6879772834302358
  0.3309566957364325  0.1696028522286852  0.8331532640503880
  0.2419940048449618  0.2757349394379816  0.9302344224806234
  0.1577132674418635  0.3420823512596911  0.0031011065891491
  0.0549759970930239  0.4145113657945743  0.0980752441860488
  0.9967073895348832  0.5126401758720931  0.1927939718992278
  0.9106560687984526  0.6058656332364336  0.2702861448643432
  0.8074491807170574  0.6874335295542622  0.3341924525193818
  0.7430216812015473  0.7698791196705415  0.4319115024224800
  0.6393688716085251  0.8421875266472867  0.4945377625968987
  0.5783602582364367  0.9202434651162790  0.5668597504844968
  0.5096805712209331  0.0114791099806197  0.6753562965116302
  0.4335519743217020  0.0848228643410849  0.7635294457364310
  0.4209154040697669  0.0802290048449592  0.8944479278100772
  0.3460608086240313  0.1693905014534849  0.9675397049418635
  0.2407656075581386  0.2637805571705414  0.0748110615310082
  0.1632083827519395  0.3438932073643386  0.1535427630813970
  0.0772154554263551  0.4096700760658933  0.2472967131782937
  0.9994207020348824  0.5028433081395320  0.3243596739341115
  0.9054510746124009  0.5831636719961253  0.3928910537790671
  0.8274471463178301  0.6593780048449602  0.4923848008720952
  0.7308477781007738  0.7638332359496118  0.5696772814922468
  0.6575273963178319  0.8373409113372077  0.6480712209302339
  0.5860458987403092  0.8937346768410848  0.7221164752906972
  0.5191549714147285  0.9802320266472861  0.8530910930232523
  0.5061812020348810  0.0117422727713148  0.9971273653100781
  0.4101959888565858  0.0900724394379822  0.0698365518410853
  0.3200774302325584  0.1585277911821734  0.1588539093992267
  0.2543711652131790  0.2648740678294601  0.2540478536821738
  0.1505120218023279  0.3247225469961208  0.3373698454457355
  0.0839132868217050  0.4018314583333336  0.4306317776162771
  0.0039904961240325  0.5182410799418591  0.4889193783914720
  0.9229684336240283  0.5947907747093026  0.5693660029069747
  0.8336994946705403  0.6647381075581364  0.6555610566860466
  0.7629490528100789  0.7667064723837242  0.7514507902131768
  0.6751451918604658  0.8223372364341088  0.8427135532945726
  0.5961959762596933  0.8951472630813981  0.9173410271317834
  0.5688212843992275  0.8876222587209313  0.0742865121124012
  0.5019058120155009  0.9818105532945722  0.1646101719961237
  0.4044073149224801  0.0617287000969000  0.2429716710271350
  0.3623917030038726  0.1759027926356609  0.3491165755813981
  0.2563348158914707  0.2470923212209328  0.4208049975775197
  0.1645218764534917  0.3034571254844991  0.4877023488372103
  0.0754822562984501  0.4122070668604678  0.5597700746124019
  0.9989828817829434  0.5279119292635670  0.6624995542635688
  0.9108587306201557  0.6081512281976771  0.7196066555232576
  0.8524047286821741  0.6757184912790706  0.8185288299418616
  0.7461520382751914  0.7336636182170508  0.9362632601744210
  0.6740759883720955  0.8294464326550397  0.0077822635658933
  0.6569565193798468  0.8232090014534919  0.1674570009689944
  0.5707673318798427  0.9243700247093045  0.2629406942829462
  0.4890240440891489  0.9999795421511593  0.3356515421511617
  0.4401403551356609  0.0803733924418637  0.3968340077519414
  0.3368140760658918  0.1828189956395363  0.5027389118217087
  0.2556747635658922  0.2522693192829450  0.6151392708333319
  0.1633811453488363  0.3420219937015503  0.6615762839147266
  0.0659084951550355  0.4195098803294570  0.7423782403100745
  0.9777756937984492  0.4967393527131776  0.8294591792635657
  0.9094445988372115  0.5797624956395353  0.9425722761627924
  0.8517770009689940  0.6886975053294577  0.0307747708333324
  0.7405157800387627  0.7545550838178272  0.0973715411821701
  0.3378461157945765  0.3253882175387588  0.6734278144379857
  0.2387191908914730  0.4064344544573615  0.7605636831395373
  0.1558215935077527  0.4903304801356612  0.8363321085271309
  0.0824118982558133  0.5833378716085278  0.9094546749031025
  0.0099710242248037  0.6566364394379818  0.0046308900193779
  0.9348032713178327  0.7781139694767418  0.0934395271317854
  0.8549009365310098  0.8499211686046522  0.1767082727713145
  0.7560585625000016  0.9274855135658910  0.2408407984496108
  0.6664349941860479  0.9996930072674388  0.3280452713178263
  0.5945637194767457  0.0685759607558154  0.3981406574612407
  0.5191832218992261  0.1595626531007781  0.4903011133720909
  0.4426864588178319  0.2441220368217074  0.5785898459302317
  0.4226469593023268  0.2456867485465111  0.7354784069767462
  0.3369154098837228  0.3079581482558140  0.8080550823643406
  0.2541490624999980  0.4017303759689952  0.8994663163759711
  0.1621413250968970  0.4998146022286818  0.9792096274224775
  0.0832134442829471  0.5702550760658909  0.0816903885658888
  0.0053232751937955  0.6713678110465082  0.1806314224806229
  0.9152190222868199  0.7618430465116290  0.2484178609496155
  0.8332709752906950  0.8433023003875988  0.3454531899224804
  0.7544987834302290  0.9040868372093058  0.4153087078488369
  0.6573233396317804  0.9900552747093059  0.4897378982558109
  0.5946482102713162  0.0671935780038737  0.5726634530038766
  0.5307837989341095  0.1753760281007786  0.6751516526162789
  0.5201741957364305  0.1866905750968968  0.8345687737403082
  0.4083936434108537  0.2573934990310107  0.9147767829457365
  0.3206578464147256  0.3325725193798448  0.9980695256782965
  0.2584082679263560  0.4322854675387617  0.0702951216085239
  0.1533206894379830  0.4847776201550360  0.1629816918604661
  0.0861433556201519  0.6068444622093025  0.2721805615310089
  0.9959584500969001  0.6735482790697702  0.3399712451550414
  0.8991615736434113  0.7676714670542637  0.4095802393410821
  0.8300652853682138  0.8413510082364368  0.5123558885658923
  0.7450770479651183  0.9105329433139531  0.5929924840116314
  0.6699063861434098  0.0026220436046529  0.6824249181201552
  0.5801101991279083  0.0968788875969011  0.7566268672480589
  0.5967963357558119  0.0845727185077507  0.9146609796511598
  0.5049871220930200  0.1715824573643445  0.9751627126938018
  0.4128087262596907  0.2435517940891501  0.0712816109496117
  0.3259467175387627  0.3261046792635653  0.1473464026162787
  0.2682615164728688  0.4249900847868204  0.2509222248062031
  0.1492347848837241  0.4971412984496126  0.3327993294573659
  0.1032870334302345  0.5917687369186027  0.4134302950581414
  0.9900441792635633  0.6540728352713145  0.4883051831395377
  0.9077599249031039  0.7439796172480584  0.5625053105620168
  0.8392931342054268  0.8384650697674445  0.6650629331395379
  0.7482413696705450  0.9047835489341054  0.7486988575581393
  0.6670151424418620  0.9577864123061985  0.8418155983527100
  0.6659064515503843  0.9922322369186034  0.0111388493217035
  0.5727971220930215  0.0776661065891489  0.0981464331395330
  0.5062820678294599  0.1759554384689892  0.1796185087209281
  0.3920683100775193  0.2669578997093041  0.2503902344961233
  0.3217060474806175  0.3391723837209284  0.3587927810077502
  0.2406724612403082  0.4286112122093044  0.4287326477713194
  0.1788844728682193  0.4994797800387616  0.4908597248061994
  0.0889085721899221  0.5881830484496149  0.5850025886627890
  0.9945533711240344  0.6788953343023252  0.6608180949612432
  0.9100579113372120  0.7441271497092998  0.7276988343023234
  0.8409449738372103  0.8365152950581418  0.8358917063953513
  0.7535877848837202  0.9069358575581390  0.9343858158914742
  0.7427921555232544  0.9034018221899203  0.0901387218992227
  0.6476384554263532  0.9965392456395321  0.1820758536821714
  0.5870735886627898  0.0643278473837228  0.2508690731589169
  0.5203146036821735  0.1849385746124028  0.3254218643410880
  0.4173155562015509  0.2615905227713213  0.4189948139534891
  0.3334671366279096  0.3318842553294559  0.5117729864341101
  0.2361441981589181  0.4035446681201549  0.5952330818798472
  0.1661712262596922  0.4945731041666690  0.6559676996124040
  0.0867458653100783  0.5799460765503852  0.7541169767441858
  0.9853021056201570  0.6690784074612424  0.8356457272286804
  0.9242640130813982  0.7330254108527114  0.9371107766472875
  0.8355283376938019  0.8309318701550410  0.0086550683139563
  0.4285703178294540  0.4193718861434093  0.5986390072674439
  0.3328884355620190  0.4956768081395353  0.7039395968992253
  0.2366074132751947  0.5748722853682153  0.7452742078488370
  0.1848136763565904  0.6569789641472852  0.8375991826550404
  0.0833850518410841  0.7497147243217057  0.9194182548449632
  0.9909285276162763  0.8353353120155020  0.9924767000969013
  0.9268394205426347  0.9122280251937980  0.0884549467054256
  0.8431826177325590  0.0038893464147307  0.1427278062015489
  0.7657645072674413  0.0612124573643413  0.2431467441860491
  0.6540004321705410  0.1636210765503847  0.3184842621124062
  0.5892796177325579  0.2491834864341058  0.4056403774224790
  0.4767682553294605  0.3463252621124013  0.4863037708333309
  0.5320947776162797  0.3355056080426380  0.6656939898255843
  0.4439727490310048  0.4197864559108524  0.7623707630813925
  0.3310285256782919  0.4850955426356620  0.8337318275193795
  0.2529197495155060  0.5708771124031031  0.8962909345930257
  0.1693284820736451  0.6754010862403135  0.9906430513565923
  0.0482512742248034  0.7704790639534878  0.0794874612403120
  0.0178757325581387  0.8434893488372097  0.1767452504844940
  0.9153386724806225  0.9319587839147303  0.2628866719961209
  0.8310017030038779  0.0009654864341115  0.3629595058139543
  0.7548194428294579  0.0805529544573673  0.3963697887596922
  0.6596974190891487  0.1629017500000032  0.4797407621123995
  0.5826151749031041  0.2634084617248078  0.5754542480620159
  0.6157071729651165  0.2623699680232576  0.7469629428294553
  0.5016619932170556  0.3396486419573677  0.8345055004844966
  0.3914152863372067  0.4045538042635641  0.9377488875968965
  0.3239137529069751  0.5002613144379850  0.9822976172480651
  0.2513942940891454  0.5845037437015534  0.0571796705426380
  0.1610600896317820  0.6522082708333343  0.1366715058139505
  0.0988019118217025  0.7458858202519352  0.2435937054263562
  0.0173254602713158  0.8309149927325592  0.3209696438953458
  0.9226357625968973  0.9018474718992238  0.4307615930232558
  0.8377517664728700  0.0009232960271319  0.4780925135658904
  0.7264147906976746  0.0440852204457371  0.5636370896317828
  0.6611795852713200  0.1556504530038794  0.6519469520348835
  0.6711564224806210  0.1855988372093051  0.8430709883720908
  0.6110306288759659  0.2777290901162814  0.9188808420542642
  0.5111325576550385  0.3155699941860490  0.9990806690891461
  0.4258005920542658  0.4330837766472868  0.0572386947674417
  0.3194472267441881  0.5128537054263589  0.1535194864341065
  0.2457491007751926  0.6012502374031001  0.2642481128876000
  0.1693311303294607  0.6855238381782911  0.3365301424418590
  0.1005244743217020  0.7504047994186038  0.4161401608527129
  0.0089588076550413  0.8245505116279048  0.5098464854651183
  0.9095444820736418  0.9232219055232562  0.5829444181201566
  0.8210232412790717  0.9949204786821682  0.6482673531976744
  0.7403590179263588  0.0781697136627884  0.7678504210271342
  0.7428569651162817  0.0805639244186054  0.9198350881782957
  0.6568429675387577  0.1744553541666676  0.0178552839147272
  0.5755589394379825  0.2454603798449639  0.1021634379844940
  0.4736482383720926  0.3276612897286810  0.1729187621124026
  0.3864735750969004  0.4237405823643385  0.2444733386627931
  0.3304911283914720  0.5205592984496121  0.3385985925387587
  0.2484199849806217  0.5880192790697691  0.4301811046511617
  0.1784526201550420  0.6827932567829436  0.5163043817829447
  0.0871334278100804  0.7482901933139559  0.5934899534883726
  0.9958725973837232  0.8276617877906958  0.6567510828488352
  0.9022272727713201  0.9328259297480628  0.7493066133720916
  0.8276345906007734  0.9799423687015505  0.8330684656007747
  0.8504951564922507  0.0031219811046483  0.0141172640503910
  0.7320515639534904  0.0820777456395376  0.1110991695736416
  0.6548830406976762  0.1644529699612391  0.1857749496124015
  0.5804572703488375  0.2838783745155027  0.2410619224806183
  0.4776344069767475  0.3494907374031015  0.3182317470930229
  0.4029605717054281  0.4248435683139533  0.4242179360465101
  0.3287608657945711  0.5029553769379831  0.5094855043604625
  0.2591098052325549  0.5751676264534851  0.6002188987403088
  0.1658990198643409  0.6693263963178282  0.6771582485465117
  0.0680539786821726  0.7383098023255812  0.7464455368217031
  0.9717665741279049  0.8296029544573642  0.8287719869186034
  0.9109018730620164  0.9444946007751938  0.9197576574612398
 
  0.00000000E+00  0.00000000E+00  0.00000000E+00
  0.00000000E+00  0.00000000E+00  0.00000000E+00
  0.00000000E+00  0.00000000E+00  0.00000000E+00
  0.00000000E+00  0.00000000E+00  0.00000000E+00
  0.00000000E+00  0.00000000E+00  0.00000000E+00
  0.00000000E+00  0.00000000E+00  0.00000000E+00
  0.00000000E+00  0.00000000E+00  0.00000000E+00
  0.00000000E+00  0.00000000E+00  0.00000000E+00
  0.00000000E+00  0.00000000E+00  0.00000000E+00
  0.00000000E+00  0.00000000E+00  0.00000000E+00
  0.00000000E+00  0.00000000E+00  0.00000000E+00
  0.00000000E+00  0.00000000E+00  0.00000000E+00
  0.00000000E+00  0.00000000E+00  0.00000000E+00
  0.00000000E+00  0.00000000E+00  0.00000000E+00
  0.00000000E+00  0.00000000E+00  0.00000000E+00
  0.00000000E+00  0.00000000E+00  0.00000000E+00
  0.00000000E+00  0.00000000E+00  0.00000000E+00
  0.00000000E+00  0.00000000E+00  0.00000000E+00
  0.00000000E+00  0.00000000E+00  0.00000000E+00
  0.00000000E+00  0.00000000E+00  0.00000000E+00
  0.00000000E+00  0.00000000E+00  0.00000000E+00
  0.00000000E+00  0.00000000E+00  0.00000000E+00
  0.00000000E+00  0.00000000E+00  0.00000000E+00
  0.00000000E+00  0.00000000E+00  0.00000000E+00
  0.00000000E+00  0.00000000E+00  0.00000000E+00
  0.00000000E+00  0.00000000E+00  0.00000000E+00
  0.00000000E+00  0.00000000E+00  0.00000000E+00
  0.00000000E+00  0.00000000E+00  0.00000000E+00
  0.00000000E+00  0.00000000E+00  0.00000000E+00
  0.00000000E+00  0.00000000E+00  0.00000000E+00
  0.00000000E+00  0.00000000E+00  0.00000000E+00
  0.00000000E+00  0.00000000E+00  0.00000000E+00
  0.00000000E+00  0.00000000E+00  0.00000000E+00
  0.00000000E+00  0.00000000E+00  0.00000000E+00
  0.00000000E+00  0.00000000E+00  0.00000000E+00
  0.00000000E+00  0.00000000E+00  0.00000000E+00
  0.00000000E+00  0.00000000E+00  0.00000000E+00
  0.00000000E+00  0.00000000E+00  0.00000000E+00
  0.00000000E+00  0.00000000E+00  0.00000000E+00
  0.00000000E+00  0.00000000E+00  0.00000000E+00
  0.00000000E+00  0.00000000E+00  0.00000000E+00
  0.00000000E+00  0.00000000E+00  0.00000000E+00
  0.00000000E+00  0.00000000E+00  0.00000000E+00
  0.00000000E+00  0.00000000E+00  0.00000000E+00
  0.00000000E+00  0.00000000E+00  0.00000000E+00
  0.00000000E+00  0.00000000E+00  0.00000000E+00
  0.00000000E+00  0.00000000E+00  0.00000000E+00
  0.00000000E+00  0.00000000E+00  0.00000000E+00
  0.00000000E+00  0.00000000E+00  0.00000000E+00
  0.00000000E+00  0.00000000E+00  0.00000000E+00
  0.00000000E+00  0.00000000E+00  0.00000000E+00
  0.00000000E+00  0.00000000E+00  0.00000000E+00
  0.00000000E+00  0.00000000E+00  0.00000000E+00
  0.00000000E+00  0.00000000E+00  0.00000000E+00
  0.00000000E+00  0.00000000E+00  0.00000000E+00
  0.00000000E+00  0.00000000E+00  0.00000000E+00
  0.00000000E+00  0.00000000E+00  0.00000000E+00
  0.00000000E+00  0.00000000E+00  0.00000000E+00
  0.00000000E+00  0.00000000E+00  0.00000000E+00
  0.00000000E+00  0.00000000E+00  0.00000000E+00
  0.00000000E+00  0.00000000E+00  0.00000000E+00
  0.00000000E+00  0.00000000E+00  0.00000000E+00
  0.00000000E+00  0.00000000E+00  0.00000000E+00
  0.00000000E+00  0.00000000E+00  0.00000000E+00
  0.00000000E+00  0.00000000E+00  0.00000000E+00
  0.00000000E+00  0.00000000E+00  0.00000000E+00
  0.00000000E+00  0.00000000E+00  0.00000000E+00
  0.00000000E+00  0.00000000E+00  0.00000000E+00