Li 
 1.0000000000000000
    20.6400000000000006    0.0000000000000000    0.0000000000000000
     0.0000000000000000   20.6400000000000006    0.0000000000000000
     0.0000000000000000    0.0000000000000000   20.6400000000000006
 Li 
 432
Cartesian
 -0.0074079500000000  0.2572445900000000 -0.3509568800000000
 19.2463935200000016  1.9289414199999999  2.2679967200000002
 17.0409320199999996  3.6277970399999999  3.7363823799999998
 15.2926166299999995  5.2905202800000000  5.1646295200000001
 13.4479357099999994  7.4027450400000001  6.7076738300000001
 11.4594713000000006  8.7825104399999994  8.5665814299999994
  9.9455168500000006 10.8879030300000004 10.6284703799999996
  8.5854293899999998 12.3025973400000002 12.3838965800000000
  6.9665862699999996 13.3684526800000008 14.2554386799999993
  5.2771370299999996 15.9426927099999993 15.8648896300000004
  3.1649809100000001 17.0832419100000017 17.2910089999999990
  1.6761550599999999 18.9802252600000010 18.9387429199999993
  1.7401095099999999 18.7521456499999992  1.5575252900000001
  0.1877942900000000 -0.5216450900000000  3.3830944700000001
 18.7599237499999987  1.3715274399999999  5.2175673099999997
 16.9306463600000008  3.4709988699999998  6.6677515700000001
 15.7399944499999993  5.3228429799999999  7.9536692699999998
 13.8439643700000001  7.0001635499999999 10.4384497300000003
 11.7853400500000003  9.0330018800000005 11.7985722099999997
 10.3538562699999996 10.8958306700000005 14.2391878999999992
  8.7933837300000004 12.1215007200000002 16.2655460299999994
  6.9680004899999997 13.1414286100000002 17.6522912000000005
  5.5982252900000002 15.8240868599999995 18.7223213800000003
  3.8405125700000000 17.2648459099999982 -0.3326075000000000
  3.3511684800000001 17.2533047999999987  3.3163272500000001
  2.0942523400000002 18.5514536800000016  5.3765905299999996
  0.2136651400000000 -0.2128674800000000  7.5219244900000000
 19.1001870300000007  1.9934082500000001  8.6911765800000005
 16.5547288700000017  2.9078890400000001 10.3185813799999995
 15.2662465800000007  4.9038187700000000 11.6579848699999999
 14.1565996100000007  6.7915392199999998 13.1852809700000009
 12.0915703800000003  8.7412742100000003 15.8366051100000007
 10.2059242700000006 10.1553124900000000 17.7547947300000004
  8.6995263499999993 11.8488347800000007 18.8835949999999997
  6.7413049000000003 13.7731523300000003 20.3812157999999997
  5.1733699900000003 15.9546869099999995  1.1488553100000001
  5.0683656600000004 15.3889982599999993  4.3115572300000000
  3.9377351100000002 17.2090692700000005  6.9917715899999999
  1.9825173400000000 18.6921180000000007  8.8654016700000007
  0.0633971100000000  0.1225099300000000 10.6992026899999999
 18.7142088800000010  1.5766381800000000 11.6588656299999993
 16.9802107299999996  2.8655534500000002 13.3805584900000003
 15.1754327799999995  4.6177308799999999 15.4763840800000008
 13.8868694799999997  7.0000014100000003 17.2881600099999986
 11.9859533099999993  8.4026747000000004 19.0240639300000005
 10.7013626199999994  9.9503112500000004 -0.1950743000000000
  8.3964928800000003 11.7314400400000007  1.3100048600000000
  7.0717653900000004 13.2683247899999994  2.8771993199999999
  6.6776864199999997 13.6873534400000008  6.5125762700000003
  5.5778460799999996 15.3795341000000008  8.7667757599999998
  3.6919298899999999 17.0297083100000002 10.6371323699999998
  1.7648636700000000 18.8176813699999990 12.1234078800000002
  0.3669746200000000 -0.2153874500000000 13.4802978499999995
 18.9424951700000008  1.4336538599999999 15.6768812600000000
 17.5899010300000000  3.4152668600000000 16.7464589000000004
 15.9996774800000008  5.3217808499999997 19.1771649800000006
 13.7200839999999999  7.0873047400000004  0.4035146500000000
 11.8198141000000003  8.4225244000000004  1.8652016400000000
  9.9831911800000004 10.0556468100000007  3.4047343300000001
  8.4541908499999998 12.1560150000000000  5.0709848099999997
  8.4963918599999992 12.2274793099999997  8.7170112500000005
  7.0876328700000002 13.6752481699999997 10.4879310500000003
  5.3593982999999996 15.3842176100000003 11.9795780199999999
  3.4077904700000001 17.3079647600000008 13.6276634600000008
  1.4528405700000000 18.4246165200000007 15.4781122199999999
 -0.1295144800000000  0.3490208700000000 17.2231660399999988
 18.5234257699999993  1.7440392700000000 18.8522245200000000
 16.9822218599999992  3.3246614600000002 20.9269197399999989
 15.3396907900000006  5.3613188799999998  2.0107721600000001
 13.9587372900000002  7.0355259500000003  3.6466104100000001
 11.9303815699999998  8.8426611400000006  4.9641913999999998
  9.8535076400000001 10.5851199200000003  6.9619380900000003
  2.0008666900000001  1.7060465700000000 18.6199374700000000
  0.0831384500000000  2.9763832699999999 -0.3220696700000000
 19.2060378999999983  4.8143008500000004  1.8904780400000001
 17.1551792100000000  6.8067677299999998  3.2565303399999999
 15.3430941999999995  8.2017203500000004  5.3505457600000002
 13.3456992999999997 10.3879970299999993  6.6553606800000003
 12.0656136000000007 12.2822204900000003  8.3230443500000000
 10.2704805700000001 13.8268225600000001 10.2823583999999997
  8.6107953399999992 15.3668433699999998 12.2652871000000001
  7.1007195599999999 17.1874895599999995 13.7495962200000008
  4.9460885000000001 18.2827100400000013 15.5734960600000001
  3.3265701399999998 -0.3510037400000000 17.0199939600000008
  3.5485317400000000  0.1291660800000000  0.0336855600000000
  2.2398973099999999  1.6112143200000000  1.9403498299999999
  0.1207427800000000  3.5890179600000001  3.8541421499999999
 18.6155894500000016  4.9580450599999999  5.5214008200000002
 17.0365944099999993  6.4193550699999999  6.7326269700000001
 15.7940593499999995  8.8417705200000007  8.4966127500000006
 13.4937912099999995 10.4539348099999998  9.9450538200000000
 12.2336620699999994 12.2182417900000004 12.0297105799999997
 10.6082376899999993 13.7617742900000000 13.9782584199999995
  8.5955295300000003 15.1025091600000003 15.8892564800000002
  7.5164165799999996 17.3460689799999983 17.4112720100000011
  5.2030881800000000 19.2654857399999990 18.7960067200000012
  5.1405649599999999 18.9693353299999998  1.5533291100000000
  3.7827889500000000 -0.1433830700000000  3.7407331899999998
  1.6607589700000001  1.6737366700000000  5.5047246200000002
 -0.2756688400000000  3.6321284899999999  6.5402613000000001
 18.7765643699999991  5.1676581800000001  8.9622340200000004
 16.9349196299999996  6.5284485200000004 10.1546028300000000
 15.6001257300000002  9.0067383499999991 11.7466483799999999
 14.1644976099999997 10.0062497799999992 14.2198115800000000
 12.5155400100000005 11.7081938999999995 15.7237988499999997
 10.7416722500000006 13.6606607699999998 16.9513963899999993
  9.0006093499999995 15.1265016899999996 18.9652985700000016
  7.3580369000000001 17.6612867000000016 20.5307950199999993
  7.0215896899999999 17.1142935399999985  2.6811254199999999
  5.7952445299999997 19.1963898800000017  5.2273592100000004
  3.3693416300000001  0.0075228700000000  6.8322893899999997
  2.1908827400000002  1.9452625800000001  8.8152301000000008
  0.1744213700000000  3.4356692899999999 10.2387673499999998
 18.5489624500000012  5.1566188100000003 11.8700107900000003
 16.9833612699999996  7.0535554100000004 13.6996345399999999
 15.7882495200000008  8.5690834200000001 15.7612038900000009
 14.1778622199999997 10.2925583599999992 17.6955288599999996
 12.6946814700000008 11.9944758100000008 18.7214404200000004
 10.3141820600000003 13.4100014999999999 20.4310398400000004
  8.7185639800000008 15.3625696400000002  1.6674872400000000
  7.9695762600000002 15.3095620599999993  4.8643994299999997
  6.4344073000000002 17.1209598499999984  7.0048314200000004
  5.0165118000000000 19.0255100199999987  8.8877308300000006
  3.2204635000000001 -0.2010628700000000 10.6532270100000002
  1.8852133700000000  1.9407208000000000 12.2382830800000004
 -0.0952953000000000  3.3197462999999998 13.3956639600000003
 18.6133152499999994  4.7849770300000003 14.8713927500000000
 17.2821702600000009  6.3027300100000003 16.7946293400000002
 16.0614541799999984  8.4443705799999993 18.7900781300000013
 14.3929507500000007  9.9775072900000001 20.3743346400000007
 12.1064205900000008 11.3148607699999992  1.7343558100000001
 10.3869904500000008 13.6988589899999997  2.9804509100000001
 10.0044505699999995 13.6623277800000000  6.4709345799999998
  8.5271042000000001 15.3063085700000006  8.8062158799999999
  7.0098677399999998 17.0986204899999983  9.9993284500000001
  5.5314618900000001 18.8166161599999988 12.2394657099999993
  3.0138385200000002 -0.0410291600000000 13.6763879700000004
  1.3555813100000000  1.8325931799999999 15.7625323599999998
 -0.2954141200000000  3.8661388300000001 17.3294048600000004
 19.1454479599999985  4.9417501599999998 18.8779989400000012
 17.8681500399999997  6.8923844299999999 21.1876582999999989
 15.5681362100000005  9.0244676699999999  1.8134036099999999
 13.7898680999999996 10.4736236199999997  3.6827966900000000
 11.4113880600000002 12.1103428599999994  4.9070732599999998
  3.2974421000000000  3.7333373600000002 17.3139123899999987
  1.9184684500000000  5.1375048899999998 19.0133644699999991
 -0.1386647700000000  6.6235791099999997 -0.1196622700000000
 19.4220630900000018  8.6768278900000002  1.8965522399999999
 17.1271980100000007 10.3516100000000009  3.8467902899999999
 15.4366158799999997 11.9616024099999994  5.2093403599999997
 13.5121171199999992 13.7744840400000008  6.4598202999999996
 11.8368234200000000 15.8006003400000008  8.2457195500000005
  9.9912999300000003 17.4238746099999986 10.4747624600000009
  8.6719611000000008 19.2089890399999987 11.7336408199999997
  7.0524877200000002 20.4844671799999993 13.8792322899999991
  5.2185944199999996  1.4746972300000001 16.0128868299999993
  5.1649085799999996  1.9810321000000000 18.4967530499999988
  3.6978502400000002  3.5358132200000001  0.1430561800000000
  1.8571426700000000  5.2169965500000002  1.9456030000000000
 -0.2867839800000000  6.6183237899999998  3.7894646900000000
 18.6448389799999994  8.7721772199999997  5.2996666699999997
 17.2668802600000006 10.2624215700000008  6.8373452500000003
 15.3509136500000007 12.2387794000000003  8.3250389699999996
 13.6884218999999998 14.1904428500000002  9.3628883199999997
 11.7626814399999997 15.4597130800000002 11.5354774399999993
 10.3354929999999996 17.1673125300000002 13.5875628899999992
  9.0324024999999999 18.7083873599999997 15.1424739499999994
  7.0094640000000004 20.0405581300000009 16.9403165099999988
  6.9422807000000004 -0.0118565100000000 -0.4991313200000000
  5.4646204300000001  1.7090717600000001  1.4934525400000001
  3.6185786300000000  3.9097423899999999  3.4278559700000000
  1.8748206800000000  5.2708034399999999  5.2810689200000001
  0.0965606600000000  6.9568848399999998  6.9149348399999999
 18.8559457899999998  8.2198740699999995  8.9761645899999998
 17.1162866499999993 10.6036011000000006 10.0701106599999992
 15.2705261799999992 12.3381050499999994 12.2855318499999999
 13.4615577500000008 14.0083549400000003 14.4148281800000007
 12.3907821100000000 15.3786775000000002 15.5060289200000003
 10.8767549700000004 17.1182847900000006 17.4017898799999990
  8.8866668000000004 19.3200184300000011 18.8086925200000010
  8.2385869100000004 19.3894937399999989  1.8551614299999999
  6.8260897399999996  0.3877270100000000  3.3329651600000001
  5.5668790100000001  2.0833309899999999  5.4308094100000002
  3.5849963499999999  3.8012877600000001  7.0188979700000003
  1.5079103400000000  5.3261724099999999  8.5626253099999996
 -0.2316469400000000  6.5261501199999996 10.1927069600000006
 18.5846920100000013  8.7866665200000007 11.6989297099999998
 17.1882017500000011 10.7021784699999998 13.9234949799999992
 15.1793496399999999 12.1008434499999993 15.8873278300000003
 13.9761758300000007 13.4077972100000000 17.3769458700000001
 11.9560597600000005 15.4907870899999995 19.2432991400000013
  9.9667146300000002 17.0845086799999990 20.8308604899999992
 10.2117727100000000 17.1244441199999997  3.5660798100000002
  8.1386831900000001 18.9395762900000015  5.4086087999999997
  6.4833198500000000  0.2556582300000000  7.4475071899999996
  5.0570750499999999  1.4921074900000000  8.9023230499999997
  3.2645262300000000  3.7130301100000001 10.6912455099999999
  1.4578867000000000  5.2103675699999998 12.3118080499999998
 -0.1826915600000000  6.7488200300000001 13.5122504499999998
 18.9483605100000005  8.4264962800000003 15.4028589100000008
 17.2372466600000003 10.6114670199999992 17.1444589399999998
 15.8955072800000003 12.1756947400000008 19.4523062899999992
 13.8229793900000004 13.6578192299999994 21.0648670200000012
 12.0562392900000006 15.1390586099999993  1.4078507099999999
 11.8065030199999992 15.1963959899999992  4.8824153700000004
  9.9392525299999992 17.1648188799999986  6.8585083999999998
  8.2518184199999993 19.0188806600000007  8.5604286599999995
  7.0897604500000000  0.1813735300000000 10.1892591899999996
  5.1068880600000002  1.6147933200000000 12.6415720799999995
  3.4117708699999998  3.2681856499999999 13.9811252600000007
  1.5681825000000000  5.2458792000000001 15.2813077300000000
  0.0827854400000000  6.7301062700000003 17.1873302199999998
 18.8241593700000003  8.5684630800000008 18.9541359599999986
 17.5710476100000008  9.8464121900000006 20.7466751900000013
 15.5600851000000002 11.6867680000000007  1.6416728899999999
 13.5758308400000001 13.7093983500000007  2.9582647700000000
  5.1959616700000000  5.0988160200000001 15.5636741099999991
  3.3474475300000002  6.9808116499999997 17.0119414700000000
  1.2511057400000001  8.5321227700000009 18.8604375299999987
  0.0965259600000000 10.2265260700000002 -0.1078405900000000
 18.9642355100000017 11.7556496599999996  1.6075604900000000
 17.2864146599999984 13.8998365300000000  3.2332567200000000
 15.5255859800000007 15.8711197899999998  5.2250789299999996
 13.7041471599999998 17.1339164400000001  6.1498360700000001
 11.8340896499999992 18.8241133199999986  8.3426702800000001
 10.5014151400000006 -0.2528085100000000 10.4236926099999998
  9.0581206099999996  1.8738577000000001 11.9319869000000001
  7.0015295899999996  3.2068436400000002 14.1998511300000008
  6.8309461999999996  3.5006028699999998 17.1962833699999997
  4.9947562599999999  5.6911691500000003 19.2000384799999999
  3.2552018399999998  7.0605797299999997  0.0640068400000000
  1.1347045800000000  8.5555145899999996  2.0242730400000002
 -0.0679594800000000 10.5808932299999991  3.9792675800000001
 18.7959412599999993 12.5050666699999997  5.5787060300000002
 16.6657510900000005 14.1886280500000002  6.8977322200000000
 15.3359675000000006 15.8903050300000004  8.9146534099999997
 13.1965735100000003 17.3827505500000008 10.2072594199999997
 11.9373557300000002 18.9938251200000003 11.6999852499999992
 10.5198069899999993 20.8769288300000007 13.9393539600000000
  8.9485127500000008  1.7507439199999999 15.7592477599999992
  8.6876939400000008  1.6559266600000000 18.4614052300000004
  7.1426950900000001  3.4962199500000000 -0.6699804900000000
  4.9694021399999997  5.4444306999999998  1.5441003099999999
  3.3686210200000000  7.0979558000000003  3.1691226299999999
  1.5937269999999999  8.4555903699999995  5.1042041600000001
 -0.0119567100000000 10.3786858800000008  6.6947836699999996
 18.6885101800000015 12.0364981899999997  8.1092713500000002
 17.0785091000000016 13.6095620200000003 10.1628222899999994
 15.0846981400000004 15.7655179899999993 11.7581390900000002
 13.5713654600000009 17.2827164099999990 13.3761899999999994
 12.0959873499999997 18.4466837300000002 14.9044840500000007
 10.7153586099999991 -0.4080109700000000 17.6078001600000000
 10.4475800099999994  0.2423605100000000 -0.0592911800000000
  8.4664452099999998  1.8590951499999999  1.4414264299999999
  6.6063981600000004  3.2720136100000001  3.2787446899999999
  5.2502208499999998  5.4670007600000003  5.2435476999999997
  3.1065681299999999  6.7022733700000003  6.9633136100000002
  1.7319702400000001  8.2938013000000002  8.8882398899999995
  0.0823638400000000 10.6964958899999996 10.0912959699999991
 19.0500684699999994 12.2764815899999995 11.7517142999999997
 17.2075575699999987 13.7201945399999996 13.5307802099999996
 15.7472684500000000 15.8248215900000009 15.5099443099999998
 13.9349967600000006 16.9730405600000012 17.3936077400000002
 12.3054849500000003 18.4758395100000001 18.9339188000000007
 11.7404713100000002 18.3205234200000007  1.5332736100000000
 10.3593359599999992 -0.3754301800000000  3.3975539499999998
  8.3469669799999995  1.2740803700000001  5.0149352900000004
  7.4797647500000002  3.6306336400000001  7.2057661199999998
  5.2907506000000000  5.0999855099999998  8.6854151500000008
  3.3957315299999999  6.2633550700000002 10.0661764799999993
  1.5579537699999999  8.5079538600000006 11.5536543399999996
 -0.0209933200000000 10.8961022199999995 13.6739908000000003
 18.8001241999999991 12.5522413499999992 14.8526813700000009
 17.5936336000000004 13.9468296600000006 16.8944350499999985
 15.4005780699999999 15.1428170800000004 19.3244736900000014
 13.9129284000000002 17.1197743699999982  0.1606259200000000
 13.5595825600000008 16.9910337899999995  3.4563125000000001
 11.7806377300000005 19.0789973099999983  5.4270959300000001
 10.0934562700000008 -0.0004222500000000  6.9278478300000002
  9.0844969300000002  1.6589068199999999  8.1906539200000008
  6.9518425300000004  3.7733840700000001 10.3765311400000009
  5.2771271200000003  5.2068387500000002 12.6964745499999996
  3.3721868399999999  7.0593339500000001 13.6549344999999995
  1.3603513400000000  8.6586839300000005 15.3226868799999991
 -0.4587096800000000 10.2527002399999994 17.1200374599999989
 18.7709365199999993 11.9662979099999998 19.4546917800000010
 17.5806773000000014 14.2147165100000006  0.6351912700000000
 15.2842456999999996 15.5740169300000009  2.0097486099999999
  6.9731438299999997  6.7160128099999996 13.8995500900000000
  4.9271640999999997  8.3888071400000008 15.6980344200000008
  3.2161576900000002 10.1204211100000006 17.2618947200000008
  1.7009815800000001 12.0400936699999992 18.7711444900000011
  0.2058019400000000 13.5529761099999995  0.0955815700000000
 19.2943395200000012 16.0602723300000001  1.9285918399999999
 17.6451553300000015 17.5423729199999983  3.6472587500000002
 15.6050487300000000 19.1433010000000010  4.9709540800000003
 13.7552182799999994 -0.0063363300000000  6.7708544000000002
 12.2717951700000008  1.4154078299999999  8.2176231699999995
 10.7159417000000001  3.2933731599999998 10.1198149799999992
  9.1370485099999996  5.0386788400000002 11.9420944200000001
  8.7234332400000003  5.0709744900000002 15.1802743200000005
  6.9539340599999999  6.3562561799999999 16.6782569000000009
  5.2456366499999998  8.2917149600000002 18.5649847699999988
  3.3465969499999999 10.3161733899999994 -0.4291132900000000
  1.7175254900000001 11.7700647699999994  1.6860896200000000
  0.1098724000000000 13.8570316200000008  3.7282325599999999
 18.8901206200000011 15.7244404800000002  5.1273446500000004
 17.1987129299999992 17.4057594800000004  7.1301538400000002
 15.5728548900000003 18.6603523200000012  8.5719717299999996
 13.5671537299999994 -0.2052591300000000 10.1081902199999991
 12.2735390599999992  1.3868754500000000 11.8197736700000000
 10.9553776099999993  3.6197612200000000 13.9351301099999993
 10.7363953999999993  3.8532934700000001 17.2254994900000007
  8.4292447999999993  5.3126018200000003 18.8809928000000014
  6.6183779500000002  6.8642968000000000 -0.0398449900000000
  5.3335466499999997  8.9223720499999999  1.4508913100000000
  3.1645390299999998 10.0058100799999998  3.3639421199999999
  1.7779988600000001 12.5252697000000008  5.6178067900000004
 -0.0834175900000000 13.9020364799999996  7.0170064999999999
 18.5586948800000009 15.8447390800000001  8.4537361400000002
 17.1325474900000003 17.3654848100000017 10.5750255400000004
 15.3783902700000006 18.7933999500000013 12.2393648699999993
 13.8268678099999995  0.0541189800000000 14.0852503099999993
 11.9734745100000008  1.9995802400000000 15.6167785400000003
 12.3178763700000005  1.7455809099999999 18.8786026199999988
 10.4229342000000003  3.5414619200000002 -0.5126416100000000
  8.5203721100000003  5.0269090299999997  1.4712524499999999
  6.7275402499999997  6.7308005800000004  3.0412297499999998
  5.5369177000000001  8.7717953499999997  5.1790347199999998
  3.0802059599999998 10.2609963999999998  6.8689781600000002
  2.1318443700000000 12.2141067299999992  8.5332012899999992
 -0.2054881400000000 13.5000633200000006 10.0786189799999999
 18.7361648500000015 15.3557392999999998 11.6101096100000003
 17.3230102899999991 17.3059190399999991 13.7268989399999999
 15.4437018699999999 18.6747324500000005 15.4531444199999992
 13.7671925399999999 -0.8712884500000000 17.3750739500000009
 13.7443091600000002 -0.1603266300000000  0.2299058500000000
 11.8225326000000006  1.6030284400000001  2.0257423800000001
 10.4496618800000007  3.6317202499999999  3.7073260200000000
  8.0922899200000007  5.5100110500000001  5.1680544399999997
  6.6400128199999999  7.0005179999999996  7.4054830000000003
  4.9674795999999999  8.8465354200000004  8.8490418500000008
  3.6921755200000002 10.3092626599999999 10.1313447199999995
  1.8350729299999999 12.1400981199999993 12.0744534300000002
 -0.1124184200000000 14.0123996999999996 13.6392854799999999
 18.7835952900000009 15.3587843700000004 15.0197039399999994
 17.3571042599999998 17.2656756899999984 17.2528048200000015
 15.5540518799999994 18.7191560999999993 19.2857232399999994
 15.3312300900000000 18.6462136100000002  1.8604632200000000
 13.3672577199999996 -0.0714299700000000  3.7580456199999999
 12.1171988699999993  1.3277267699999999  5.1779376700000004
 10.7392934199999992  3.8171321800000002  6.7167072799999996
  8.6133930799999998  5.3992283900000002  8.6480529599999993
  6.8827616999999996  6.8500910299999997 10.5629944400000007
  4.8740162500000004  8.3291619499999996 12.2856108099999997
  3.4297741099999999 10.2079888699999994 13.5391733199999997
  1.7904346600000001 11.9700870199999994 15.5649744000000005
 -0.3033645400000000 13.8097783300000003 17.2477278100000007
 19.0768092299999985 15.1296444799999996 19.3419664299999994
 17.2453048899999999 17.1504337999999983  0.1786406100000000
  8.8456913600000000  8.6558357299999997 12.3559091100000007
  6.8708173099999996 10.2307693200000003 14.5293132800000002
  4.8835770099999998 11.8653639700000006 15.3824596499999995
  3.8145542799999999 13.5600458199999991 17.2880471299999989
  1.7210674699999999 15.4741119099999995 18.9767927800000002
 -0.1872351900000000 17.2413208400000002 -0.1552809100000000
 19.1299656400000018 18.8283864399999992  1.8257101000000000
 17.4032892299999986 20.7202761100000004  2.9459019199999998
 15.8053794300000003  1.2634251200000000  5.0185487999999996
 13.4985689200000003  3.3771390200000000  6.5735151700000003
 12.1627313099999999  5.1431471599999998  8.3724173900000007
  9.8404967899999995  7.1481534099999999 10.0373098299999999
 10.9824362099999995  6.9248357499999997 13.7399239499999997
  9.1635975399999996  8.6643924499999994 15.7353325500000008
  6.8324287699999999 10.0123719999999992 17.2082249199999993
  5.2202636299999998 11.7829035999999991 18.4994448899999995
  3.4949398700000001 13.9402784200000003 -0.1931274200000000
  0.9959063000000000 15.9026878800000002  1.6406212000000000
  0.3689551200000000 17.4096201599999993  3.6480219699999998
 18.8925902000000008 19.2356292999999994  5.4259809099999998
 17.1518751499999986 20.6599276399999994  7.4914842000000004
 15.5794733000000001  1.6626129800000000  8.1810724399999994
 13.6161547299999999  3.3622921200000002  9.9018493299999992
 12.0251772100000007  5.4367506499999996 11.8773756800000001
 12.7081960499999997  5.4153161399999998 15.4173151399999995
 10.3543035400000001  7.0103479699999998 17.2241935300000009
  8.0788115099999995  8.3499905200000004 19.3551370399999989
  6.6855798599999998 10.3253935299999995 -0.3653771800000000
  5.1887782299999996 12.0641572700000008  1.1801884000000000
  3.3242802500000002 13.4615787099999995  2.8208998799999998
  2.0392714600000001 15.3950833300000003  5.0277740800000004
  0.3575975000000000 17.1500854499999988  6.6248134500000004
 19.0432021400000018 18.6141318200000008  8.8909192800000003
 17.2911964599999983  0.0190568300000000  9.8678294799999993
 14.9932012799999992  0.9099189500000000 11.6334695299999993
 13.6467466399999999  3.2126253500000002 13.4561850900000000
 13.8526685599999997  3.8307600000000002 17.4009852000000009
 12.6116721799999993  5.7323284200000000 18.9657005800000000
 10.5497759900000005  6.5133646799999996 -0.0189749900000000
  8.7885242199999993  8.9388491499999994  1.1814066599999999
  6.5933907600000001 10.5853004800000008  3.1686421999999999
  5.0722614400000001 12.4098048999999993  5.4540810500000001
  3.4949945300000000 14.1492120200000002  6.9459821399999999
  2.0748251500000001 15.4883550600000000  8.5891329200000008
  0.1849097900000000 17.0187225600000005 10.5232314599999999
 18.7729981099999996 19.0553001299999991 12.0319727899999993
 16.9459197000000010 20.5351586799999986 13.3802381700000002
 15.2810101300000003  1.6134228900000001 15.8484326899999992
 15.3325677599999999  1.6628394000000000 18.9853962199999984
 13.5572388499999992  3.6007585099999999  0.3685330600000000
 11.8795365099999994  5.0663022399999997  2.1086533599999999
  9.7760996400000000  6.7629290199999996  3.5690432500000000
  7.9768145900000000  8.7460056200000000  5.0459297100000002
  6.8213368900000004 10.7443439200000004  6.9886749500000001
  5.1273884900000004 12.1367179200000006  8.8789379999999998
  3.6832620800000000 14.0928528199999992 10.6565224399999998
  1.7984339499999999 15.4447095900000004 12.2496326399999997
 -0.0851895900000000 17.0829392999999996 13.5553423500000001
 18.6219709100000017 19.2535271899999998 15.4656885000000006
 17.0823779500000015 20.2260104900000002 17.1945331299999999
 17.5542200299999998  0.0644376900000000  0.2913803300000000
 15.1095442799999997  1.6940846700000001  2.2930868599999998
 13.5167859600000000  3.3943093000000002  3.8343949600000000
 11.9806380600000004  5.8592496499999998  4.9755180799999996
  9.8583741600000003  7.2134888200000002  6.5683032600000004
  8.3171061999999996  8.7687712500000004  8.7558582000000005
  6.7856242699999996 10.3809989799999993 10.5157808100000008
  5.3480263800000003 11.8714598099999993 12.3885180699999999
  3.4241557700000000 13.8148968199999995 13.9765462500000002
  1.4046341200000001 15.2387143199999997 15.4066358799999996
 -0.5827379100000000 17.1230049800000010 17.1058538099999993
 18.8010146599999999 19.4943685600000016 18.9837980500000008
