Li 
 1.0000000000000000
   -10.8535000000000021   18.7988134399488125    0.0000000000000014
   -18.6059999999999981  -10.7421791085421763    0.0000000000000014
     0.0000000000000001    0.0000000000000001   22.7650000000000006
 Li 
 504
Cartesian
  0.0982376800000000  0.1882727200000000 -0.0201769800000000
 -10.7919433900000001 16.8633244799999993 15.3718593000000006
 -10.7630052700000007 15.4506457899999994  7.8606434399999996
 -10.9985439199999995 13.5653311100000007  0.1583996400000000
 -10.6135067400000001 11.4640544099999993 15.5177146700000002
 -11.2143077800000004  9.6654514999999996  7.9220036299999999
 -10.8176297500000000  8.5069651999999998  0.1400055600000000
 -10.7840424499999994  6.6990383500000004 15.1898750800000002
 -11.0817624299999995  4.3196905399999999  7.6014495000000002
 -10.9202512299999999  2.8117972800000000 -0.2643149300000000
 -10.9655533399999996  0.9398032500000000 15.1870562499999995
 -10.8123950999999998 -1.0198813400000000  7.2405105399999998
 -1.7091162300000000  0.8429535800000000 15.5529558800000007
 -1.3489755200000000 -1.0367198799999999  7.5710292199999998
 -12.4899775799999997 16.2889224400000003  0.1312008600000000
 -12.3955690500000006 14.1920618399999992 15.2116457500000006
 -12.4538743099999998 12.9532554900000001  7.8990141200000004
 -12.6135564900000006 11.1993364399999997  0.2945396200000000
 -12.6127531099999999  8.9914535499999992 15.3823108499999996
 -12.5285636900000004  7.0457173099999997  7.8645469200000004
 -12.4162352400000007  5.8797482800000003  0.3374697100000000
 -12.0611969000000006  3.5355452399999998 15.1505013599999998
 -12.5280838800000005  1.8605521100000000  7.6432505500000003
 -12.7541821800000008  0.2422857800000000 -0.1543320100000000
 -3.1532980600000000  1.9727615300000001  7.3184585799999997
 -3.1950513699999998  0.0720997600000000  0.0828752300000000
 -3.4527975799999999 -1.6807725000000000 15.6849978799999992
 -13.9726777799999997 15.2358990799999994  7.6426970299999999
 -14.2211489899999997 13.9319256300000003  0.3025397000000000
 -13.9049510299999994 11.7207031300000004 15.5356392999999997
 -13.9523838599999994 10.2566303800000007  7.7296503000000003
 -14.1687518699999995  8.2339051199999993  0.3537077200000000
 -14.1665337400000002  6.1260622600000003 15.1438995300000006
 -13.8591715299999994  4.6003441000000000  7.7205021199999999
 -14.3403969100000008  3.1061870499999999 -0.0884736200000000
 -14.1960901100000001  1.0067898399999999 14.8638712399999999
 -4.8124496700000003  2.5257053599999999 -0.0074485600000000
 -4.5635510899999998  0.7207092899999999 15.3458974099999992
 -4.5583593799999997 -0.9424915100000000  7.4226745500000000
 -4.8813503799999998 -2.1783026200000002  0.1343979100000000
 -15.7891706400000000 14.3011058999999996 15.1668729700000000
 -15.7334402799999999 12.5648382200000004  7.7997980199999999
 -15.4387690299999996 10.7447180299999996  0.0150218800000000
 -15.7888597500000003  9.0689776000000002 15.2944666700000003
 -15.2889039199999992  7.2171515399999997  7.6594296300000000
 -15.5097265199999992  5.6178871399999997  0.0237630700000000
 -15.5244339700000005  3.4462645900000002 14.6839864299999991
 -15.5559175399999994  1.8449040900000000  7.5339195099999996
 -6.1131505600000002  3.7148634500000002 15.1333780299999994
 -6.3507336499999996  1.7356334000000000  7.7421040300000001
 -6.4263035400000001  0.3766794400000000  0.2177423400000000
 -6.2901482599999996 -1.6755485500000000 15.4769627799999991
 -17.0471514100000014 15.2677652599999991  7.7051905300000003
 -17.0988658099999995 13.6030427100000004  0.2234016500000000
 -16.9917562000000011 11.6736640699999992 15.4412995100000003
 -17.2025979599999985  9.7471385900000005  7.8521965800000002
 -17.1199158400000009  8.0515505699999999 -0.0270543900000000
 -17.2411976399999993  6.1762904499999998 15.2016418400000006
 -17.0109879900000003  4.6680256199999999  7.3721240200000002
 -17.3575093900000006  2.7511340299999998 -0.1723597000000000
 -7.8525111799999996  4.2886938600000004  7.5567907999999999
 -8.0347326799999994  2.8517590500000001  0.1516378000000000
 -7.8606430300000003  1.0837532100000000 15.2973040699999991
 -7.6957829300000000 -1.0906528300000000  7.7480638300000004
 -7.8831584499999998 -2.5332297100000001 -0.0833284000000000
 -18.5201583499999991 14.0594316799999994 15.2491771000000007
 -18.3997210600000010 12.5996778799999998  7.5541219699999997
 -18.4620992699999995 10.7445729300000004  0.2181202200000000
 -18.6793453300000003  8.8819005799999999 15.4765461000000002
 -18.4250656600000013  6.9399537200000001  7.7493566500000002
 -18.6612675599999989  5.4342204699999996  0.3990733200000000
 -18.7147392900000007  3.5311681099999999 15.1167177600000002
 -9.8116095199999993  5.4718067799999996 -0.0085463700000000
 -8.8534395700000008  3.5681278100000000 15.3681039100000003
 -8.9538810000000009  1.4985595100000000  7.4804880200000001
 -9.4865109600000004  0.0494915300000000  0.0419815200000000
 -9.4379076899999994 -1.7775706899999999 15.4908311800000007
 -9.0688566999999995 -3.7624154700000001  7.3846418600000003
 -20.0415035300000000 13.3426860400000002  0.2058153600000000
 -20.0159250299999982 11.7369874799999998 15.6631499999999999
 -19.7957501299999983  9.7945698100000005  7.4921702699999999
 -20.4221854100000009  8.1402282100000001  0.1350830900000000
 -20.2700419399999987  6.3884213299999999 14.9791333200000008
 -20.0413040000000002  4.5761319399999998  7.4660251700000000
 -11.1196880100000008 -2.4807310400000002 -0.2519518100000000
 -10.8962219999999999 -4.6416826799999997 15.2353324899999993
 -21.4708931900000017 12.2384173900000004  7.3349914500000004
 -21.8614843900000011 10.7363303299999995  0.3528442100000000
 -21.2589210400000006  8.8922936600000000 15.2134035799999996
 -21.6420877300000001  7.0303429700000004  7.0993009200000001
 -21.8148373500000012  5.2707576800000000 -0.2895210000000000
 -12.5035043199999993 -1.9065970800000001 15.3502185900000008
 -12.2582170200000000 -3.7923654999999998  7.4128791600000001
 -12.4121647300000006 -5.1818926300000001  0.0675469500000000
 -23.0893520000000017 11.5724625999999997 15.2224913199999996
 -23.2267942199999986  9.5809727799999997  7.5295186500000000
 -23.5420926799999997  7.7943126100000004  0.1339073800000000
 -23.2483034199999992  6.2668387200000000 15.1280707000000003
 -14.3239563400000005 -1.0665637500000000  7.6804225099999996
 -14.2031166500000001 -2.5417778599999998 -0.0659988400000000
 -13.9693082000000004 -4.6047960000000003 14.9662267599999996
 -13.6912438900000009 -6.5762174099999999  7.6465375299999998
 -24.7736939000000014 10.6705582499999991 -0.1202809400000000
 -24.6434691599999987  8.7191259700000003 15.0968188399999992
 -24.6982910099999984  7.1418634699999997  7.3784161499999996
 -15.6419164300000002  0.4323011900000000 -0.0922004300000000
 -15.4064036699999996 -1.9205028000000000 15.0324265300000004
 -15.5372946499999998 -3.5848280099999998  7.4356065800000000
 -15.4517628699999996 -5.3281499400000003  0.1270115100000000
 -15.1240428799999993 -7.3876942300000001 15.0692506300000009
 -26.5177664700000015  9.9516092500000006  7.7397236600000001
 -26.5092153999999987  8.2710507000000000 -0.0305074800000000
 -16.8280798500000017  0.6569239600000000 15.2188874500000004
 -17.4468500400000011 -0.7995531700000000  7.4230429800000000
 -16.7141636700000014 -2.7039712100000002 -0.1539537600000000
 -16.9720533700000011 -4.5004328800000000 15.2142867699999993
 -17.1924789800000006 -6.0639030199999997  7.5311419600000002
 -16.7303942100000000 -7.7290934199999999 -0.0510413600000000
 -27.8497790099999989  8.7269043300000000 15.2723572500000007
 -27.7867400899999986  7.1598331399999999  7.4326644999999996
 -9.3588362699999994 16.3093737400000016  0.0952973400000000
 -9.4323878800000003 13.9078548899999994 15.0285816099999998
 -9.4140143300000005 12.5536885799999993  7.7287436300000003
 -9.2078154899999998 10.9161707799999999  0.2753000200000000
 -8.8756536700000002  9.2656286500000000 15.0530060900000002
 -9.2737083400000007  7.4106379699999998  7.7006725400000002
 -18.7220121199999987 -8.6032313800000004  7.5673999500000004
 -1.2347528200000000  2.5328167599999998  0.3317052700000000
 -2.8808311700000000  3.5892737499999998 15.1339802900000002
 -4.9647831699999996  4.2695167200000004  7.3552122600000001
 -6.2976605499999998  5.3656443999999999  0.3442797900000000
 -7.3961239499999998  6.4909146700000004 15.3335011699999999
 -26.4301084499999988  6.0242626100000001 15.0017030899999995
 -26.1750718199999994  4.7161299100000003  7.5662257100000003
 -7.7404176700000002 13.3877711200000000  0.1326702400000000
 -7.1931731599999997 11.3486282799999998 14.9003619199999999
 -8.0318911600000007  9.7816524400000002  7.6102910499999998
 -7.6318192900000001  7.9768462800000002  0.3129760900000000
 -18.1860544699999984 -7.3593833699999998 15.3043270800000002
 -20.2429659700000002 -6.1589804600000004  7.5941611099999999
 -2.9213290399999998  5.2206434899999996 -0.0893888600000000
 -4.5357178400000002  6.0980869000000002 15.3852647900000008
 -6.2804599400000001  6.8998157899999999  7.5228324600000001
 -25.1740114300000002  5.1810679500000001 -0.1856119300000000
 -24.7804799100000004  3.6097469499999999 15.0113851399999998
 -25.0165987600000008  1.8891088500000000  7.3005080900000001
 -6.0980610999999998 10.7026684099999994 -0.2945458300000000
 -5.6706273300000003  8.8592733300000006 15.1078781899999992
 -18.6180833600000000 -5.4554761899999997  0.1047407700000000
 -19.9644948699999993 -4.5960964400000002 15.3112503899999997
 -21.6647111999999993 -3.3822689100000001  7.5568541500000004
 -4.5378404500000000  7.7560353099999997 -0.2684574200000000
 -23.2304487299999991  4.3842518799999999  7.4330837399999998
 -23.4140552299999989  2.7185371699999998 -0.3914889600000000
 -22.9429234000000015  0.6483328100000000 14.9580557100000000
 -23.4920022000000017 -0.8510246900000000  7.4504109200000004
 -18.5958790299999990 -3.5541203200000000  7.4453807300000001
 -20.1289857199999993 -2.5607921700000000 -0.0156308500000000
 -21.1485181400000002 -2.0859464499999998 15.2816454799999999
 -21.4793050500000007  3.5982227500000001 15.0334990099999999
 -21.9281754599999985  1.7663094900000000  7.1092657900000003
 -21.7359320199999999  0.2065484800000000  0.1814602300000000
 -18.5131915999999990 -1.9032211500000000 14.9553534799999994
 -20.4933551700000010 -0.9010837900000001  7.1188641099999996
 -20.3055698100000015  3.0730956500000000 -0.4079032500000000
 -20.0361837099999995  0.9186567400000000 14.8586524400000002
 -18.6941539699999986  0.2598166700000000 -0.0181072600000000
 -18.5883283800000001  1.7944163799999999  7.2588955000000004
  0.1987476700000000 -0.3054084300000000 17.6861503400000011
 -10.6777414700000008 17.2315010800000010 10.1465242799999995
 -10.9167303100000002 15.3650172600000001  2.9553588199999998
 -11.0671535100000007 13.3281561199999992 17.7925577799999992
 -10.8438692200000002 11.4298885400000003 10.1702292199999995
 -10.9401178100000003  9.9102265700000007  2.8054381799999999
 -10.8856521999999991  8.0762043400000003 17.7224804800000015
 -10.4060324499999997  6.3244481199999996 10.3897526599999992
 -10.8725458400000008  4.2174056799999997  2.6319720100000001
 -10.7735463800000009  2.6475373400000000 17.9134512599999987
 -10.8794394400000005  0.9103212899999999  9.9020917700000002
 -10.9008161099999992 -0.8358191800000000  2.4266930900000001
 -1.4765599400000000  0.8742426900000000 10.0045453900000005
 -1.4923996100000001 -0.7408496500000000  2.6013195800000002
 -12.4460369300000000 16.5160318199999985 17.6939172400000011
 -12.3999703500000003 14.5277191099999996 10.1765433099999996
 -12.4197491000000007 12.6430108499999996  2.7415824999999998
 -12.4486964400000009 10.7515940200000006 17.9558022299999998
 -12.8024624599999992  9.0616295099999995 10.3966414599999997
 -12.4770063699999998  7.2357534299999999  2.9182610000000002
 -12.3466777200000006  5.3481504700000002 17.5008763000000016
 -12.1204251099999993  3.8534714600000002 10.3244220500000008
 -12.3269705999999992  1.7580960900000000  2.3275016700000002
 -12.3919246699999999 -0.4654999800000000 17.5309193599999986
 -3.0607641700000001  1.9140073799999999  2.5671902599999998
 -3.2689547600000002  0.3125044900000000 17.6680169400000011
 -2.9259136300000002 -2.0485002400000001  9.9194742100000006
 -14.1992377399999992 15.1791840100000002  2.7624680800000001
 -13.9663256400000009 13.7793749200000004 17.5464620700000005
 -13.8769539999999996 12.1674926299999999 10.4956389199999993
 -13.9408589200000002  9.8018255799999991  2.8284749699999998
 -14.2260975100000007  7.8554588100000000 18.1034958300000000
 -13.8439681399999994  6.5983137400000000 10.1444474400000004
 -14.0074155900000008  4.4966437199999998  2.4848155500000000
 -13.6165028600000007  2.4054531099999998 17.3663601800000009
 -13.9488381100000005  1.1634002800000001  9.9710665899999995
 -4.4910419600000004  2.5328149299999998 17.6771302800000001
 -4.7450483200000004  0.6429035200000000 10.1051618699999999
 -4.5874065799999997 -0.9321158200000000  2.2660303900000001
 -4.7621349100000003 -2.5557778199999999 17.8733931300000002
 -15.1810741199999999 14.2842053999999994 10.4956208800000006
 -15.4833564399999997 12.4184123999999994  2.6461773300000000
 -15.4313236899999993 10.5457599000000002 18.1469333599999985
 -15.3894912900000005  9.1398909899999996 10.1525140399999998
 -15.4508556400000003  7.1338751900000004  2.8399630800000000
 -15.6396568600000005  4.9637770799999998 17.4461825099999999
 -15.1089324400000002  3.5098656300000002 10.2089001400000008
 -15.3299533900000000  1.7124070400000000  2.4568951900000000
 -6.1798093200000004  3.7267193399999998 10.3629694000000008
 -6.0352843700000003  2.1868936899999998  2.4893684700000001
 -6.2739946299999998 -0.0277812900000000 17.8639696100000016
 -5.9183916300000003 -1.8815100600000001 10.4852029299999998
 -17.1094882199999994 15.2009690800000001  2.6060588700000000
 -17.0078545900000009 13.4043202000000008 17.8986160000000005
 -16.9759385700000003 11.8685270000000003 10.6337061599999991
 -17.0175983899999999  9.7313874600000005  2.6792277800000002
 -17.0469238199999999  8.1100289799999992 17.6854177700000008
 -17.1041845799999983  6.6821141400000004 10.3950675300000004
 -17.0318665799999991  4.3307534800000003  2.6196381500000001
 -17.0147970400000013  2.2324477900000002 17.5806365900000010
 -7.6552675600000004  4.6310594700000003  2.9453000500000002
 -7.7585826500000001  2.5519140999999999 17.7031845600000004
 -7.7059514099999999  0.7809036700000000 10.5116518800000005
 -7.6605684199999997 -0.6965731300000000  2.6128752999999998
 -7.7270404800000003 -2.8106775700000002 17.6075044200000015
 -18.4835393100000012 14.1509048400000008 10.1688802299999992
 -18.7854064200000010 12.6431044900000007  2.7046587400000002
 -18.5765068800000002 10.5988335300000003 17.7901270700000005
 -18.7928534499999991  9.2189171000000005 10.3533962800000001
 -18.4933889200000010  7.4548550300000000  2.6761661399999999
 -18.4358849800000009  5.3121070599999998 17.3564646600000003
 -18.5383825100000017  3.6237579100000001 10.0107266900000003
 -9.2614979300000009  4.9897763900000003 17.8742684199999999
 -9.2161166699999999  3.6771349600000001 10.4276382499999993
 -9.2491286000000006  1.8407958499999999  2.3266987900000000
 -9.3531362100000006  0.1306242200000000 17.7471823899999990
 -9.4174482800000003 -1.8276747300000000 10.0884259800000002
 -9.5192174000000005 -3.5523503100000000  2.2748009599999999
 -20.2327083700000010 13.4402163300000002 17.5490102700000001
 -20.0963396000000003 11.7987735100000002 10.1390182499999995
 -20.0178544000000009  9.9505810199999996  2.6335751400000000
 -20.1113916999999987  7.8046362100000000 18.1219678000000002
 -20.2816014500000001  6.2483360200000000 10.2070112300000009
 -20.2129878699999992  4.6873932399999996  2.5736831100000002
 -10.9465228900000007 -2.9003677500000000 17.5249009999999998
 -10.5840431699999993 -4.4436371200000000 10.0190429699999992
 -21.7954884799999995 12.3354306299999994  2.8096858800000000
 -21.7015113299999989 10.5353926500000004 17.9403892999999997
 -21.5616953100000011  9.1578263999999994  9.9691831499999992
 -21.4176731099999991  6.9169517400000000  2.5127759699999999
 -21.2636893899999997  5.1356072800000003 17.7145210000000013
 -12.2931542700000005 -1.5028314899999999  9.9722896100000007
 -12.5310702700000007 -3.7760315599999998  2.5835395600000002
 -12.6499937800000009 -5.7593904699999996 17.7008456999999986
 -23.3439318299999989 11.9780762999999997 10.0719974899999993
 -23.0720708700000010  9.3536049000000006  2.3103367900000000
 -22.9428205900000002  8.0571653199999993 17.6957529600000001
 -23.0696905799999996  6.2637827399999999  9.4839409700000008
 -14.1063731800000003 -1.0384679200000000  2.2407939799999999
 -14.0191573700000003 -3.0169855700000001 17.5592614599999983
 -13.8250216600000009 -3.9049029599999998  9.7885159700000006
 -13.8375641500000004 -6.7279146900000004  2.2994993600000000
 -24.6355791599999989 10.3090233399999995 17.6399047099999997
 -24.9293401199999991  9.1734870700000002 10.2621867099999999
 -24.8446029899999985  6.9897856899999997  2.2113787500000002
 -15.3853714000000004 -0.1266327300000000 17.6658173199999986
 -15.4185329099999997 -1.5275799200000000  9.9647874800000000
 -15.1614505499999996 -3.7599582200000001  2.6225086700000002
 -15.3717383099999996 -5.7244489200000004 17.5158265899999996
 -15.2368974000000001 -6.8140574899999997 10.1683969100000002
 -25.9240032199999995  9.6963346500000007  2.1643172399999999
 -26.3007847099999985  7.6680211399999996 17.3870308099999988
 -16.6375690899999995  0.7571830800000000 10.0048851400000007
 -16.9882619699999999 -0.9123241900000000  2.4357852400000000
 -17.2943106799999988 -2.8223835199999998 17.6232695700000015
 -17.0467525100000010 -4.4446763100000002  9.9894151200000003
 -16.9023287800000013 -6.3112372600000004  2.4471605500000000
 -17.0689892900000011 -8.2693247900000006 17.4636460599999985
 -27.8232058199999983  9.3232115899999997 10.2927430900000001
 -27.9919896000000001  7.1727002999999998  2.2830836699999999
 -9.2573573600000003 16.0908526800000011 18.0140851799999986
 -9.2316232700000000 14.1874682700000001 10.0379597399999998
 -9.5880118900000006 12.6502585100000005  2.4672203900000000
 -9.1084932700000003 10.5335885800000000 17.8130409199999988
 -9.5839789900000003  8.6925290200000003 10.2891294799999997
 -9.3529131999999997  7.1549643200000004  2.6668893800000002
 -18.0512870099999994 -9.0404393299999999  2.5093463900000001
 -1.5167336000000000  2.6891620999999999 17.8359151400000009
 -3.1190851099999999  3.6699436799999998 10.0561258099999993
 -4.5652898600000000  4.2764903500000004  2.4252763700000002
 -6.5041310200000000  5.2923332199999997 17.7540946899999987
 -7.8095754399999997  6.2821255000000003 10.1302041900000006
 -26.4066331400000003  6.4068654699999996  9.9275154099999998
 -26.4563300599999991  4.4663685199999996  2.7099797799999998
 -7.8667745599999996 13.1050226300000006 17.7986091299999991
 -7.8559348399999998 11.1089168600000008  9.8578808099999993
 -7.8177033500000004 10.0798924400000001  2.4999595000000001
 -8.0201072000000000  7.8199151200000001 17.9900025399999990
 -18.6032211499999995 -6.7952964099999997 10.0038475299999998
 -20.0367704000000018 -6.0559497999999996  2.6072459299999999
 -2.9878027899999999  5.2900624499999997 18.0788359199999995
 -4.7365911399999998  6.3789578999999996 10.0522085699999995
 -6.2831206799999997  7.1249348799999996  2.7232683799999999
 -24.6193804900000011  5.3562926800000001 17.6832557100000010
 -25.0253266100000005  3.6398324999999998  9.7910147199999997
 -25.0262373499999988  1.7055805799999999  2.2444822300000000
 -6.3972558900000003 10.5962293600000006 17.4651087599999997
 -6.1284371599999998  8.7529842900000006  9.8709069300000003
 -18.3061187899999993 -5.7339378500000002 17.9199758600000010
 -20.1899362999999994 -4.2115062200000004  9.9474713399999999
 -21.6925834199999983 -3.7393673900000000  2.3367428000000001
 -4.8349647300000003  7.7924197399999997 17.4982579300000012
 -23.3724565300000009  4.2463068399999999  2.3108538900000002
 -23.3012683699999990  2.6354165300000001 17.3535079600000017
 -23.0461230499999985  1.1766238600000001  9.9274905899999997
 -23.5528105399999994 -0.9041635400000000  2.1992332299999999
 -18.5031022000000007 -3.4700260799999998  2.2299280499999998
 -20.2079110300000018 -3.2274392999999999 17.8670311999999996
 -21.6752465600000015 -1.6028043300000001 10.0544496300000006
 -21.8476233600000000  3.4321289099999999  9.8987594800000007
 -21.9336307499999990  1.7176544700000000  2.2449157899999999
 -21.7659099199999986 -0.0533065400000000 17.4065298099999985
 -18.5938848199999995 -1.5647994700000001  9.9899610499999998
 -20.1639188300000001 -0.9680180800000000  2.2592836200000002
 -20.1809575499999987  2.7563229900000001 17.6413518300000014
 -19.8803819600000011  0.9105272100000000  9.8388939200000003
 -18.9448022000000016 -0.1931600800000000 17.8633165699999985
 -18.7139392700000009  1.7072945799999999  2.2495797000000000
  0.1538832100000000  0.3260040400000000  5.1680353099999996
 -10.8106829599999994 17.1100019000000003 20.5774898999999998
 -10.6103601100000002 15.5407632200000005 12.6637716299999994
 -10.8581625699999993 13.6696350500000001  5.3184795400000002
 -10.8493090999999993 11.6081735699999999 20.5984564900000002
 -10.7704187999999998  9.5561346700000005 13.0018511599999993
 -11.0289086300000001  7.9456126800000000  5.3802974099999998
 -10.7345099600000005  6.4167834600000004 19.9658078600000017
 -10.5134200500000006  4.3063111400000000 12.9950326599999997
 -10.9941805899999991  2.8486167999999998  5.0519426599999999
 -11.3331861000000007  0.7837502200000001 19.9746355499999986
 -11.1419456199999996 -0.7456220099999999 12.5034179099999996
 -1.7065473900000001  0.9912455500000000 20.1292979199999991
 -1.7879967299999999 -0.6812001000000000 12.8155689099999996
 -12.6336808400000002 16.1301547300000010  5.3491616899999999
 -12.4656569699999995 14.5784567099999993 20.3406690999999995
 -12.2106610199999999 12.5663867000000007 12.7848247700000002
 -12.3894805300000002 10.8415166999999997  5.2373433800000004
 -12.4797213899999999  8.9013945799999998 20.3483149599999997
 -12.5089977200000000  6.9805823199999999 12.8760914999999994
 -12.3688678599999999  5.3179479299999999  5.1335490000000004
 -12.6683587699999993  3.5179728699999999 20.3099810400000003
 -12.3065597899999997  1.6883769399999999 12.7123376599999993
 -12.6263088700000008  0.1811186300000000  4.6362039800000003
 -3.3620039899999998  1.7623187400000000 12.6672273000000004
 -3.1318404499999999 -0.0379436400000000  4.9970853499999999
 -2.8215949199999999 -1.8019831399999999 20.0892126500000003
 -13.7939351299999995 15.5512805899999993 12.9141913899999992
 -14.2955329100000004 13.4118267499999995  5.2845512699999997
 -14.0347313099999997 11.8299418500000009 20.6100530000000006
 -13.7855631800000005 10.0221433799999993 13.0382985399999995
 -13.9454633399999999  8.2561576399999996  5.5562176200000000
 -14.2411103000000008  6.2722468500000002 20.3488681000000007
 -13.8743774299999991  4.3197586000000001 12.5055082700000000
 -13.8575294600000003  2.8581855900000002  5.0869621100000000
 -13.9145327600000002  0.8973861300000000 20.2724053300000016
 -4.7358043700000003  2.7400760000000002  4.8453469900000004
 -4.7509835699999998  0.5979649000000000 20.3868006000000008
 -4.7601813799999997 -0.7431748500000001 12.8249548400000002
 -4.8005279099999996 -2.5627873900000000  4.8514250399999996
 -15.5640770199999992 14.6057871000000006 20.5482717299999997
 -15.2593069600000000 12.6909676200000003 12.8076675000000009
 -15.5873364300000006 11.0039415199999997  5.3102145900000002
 -16.0171025000000000  9.0530512800000000 20.4165750199999998
 -15.4292672199999998  7.2988540000000004 12.7980151000000006
 -15.4036514499999999  5.4945676800000003  5.1190141799999997
 -15.7995687300000007  3.2376156599999999 20.0476329699999987
 -15.2324655199999999  1.7873659500000001 12.4730853699999997
 -6.3439687899999999  3.3089913399999999 20.2091016400000001
 -6.2253760800000002  1.8687802300000000 12.9971394399999998
 -6.0798204399999998  0.1910772200000000  5.0692166199999997
 -6.4590406700000003 -1.8847051399999999 20.3485162799999983
 -17.1085004800000000 15.4080958500000005 12.4999216799999999
 -17.5065113299999986 13.5248693400000004  5.1019352500000004
 -16.9885900099999994 11.8183336200000006 20.5364305099999989
 -16.7917849799999992 10.1960226800000004 12.8365378900000007
 -16.9292738800000002  8.4609311199999997  5.2856847900000004
 -16.8460099200000002  5.9385231500000000 20.3363762799999996
 -17.0009643100000005  4.4492744399999999 12.5748334499999999
 -17.0590571299999993  2.5679757599999999  5.0309117199999998
 -7.6614501300000004  4.5882405200000003 12.6892484799999998
 -7.8706785999999997  2.7035406900000001  4.9443123000000000
 -7.9652292500000001  0.9411347700000000 20.4094631000000000
 -7.9149050499999998 -0.9554269700000000 12.9936314199999998
 -8.1227154200000005 -2.5820044700000002  4.6350626899999998
 -18.7131802100000009 14.2528707800000003 20.3387431899999989
 -18.6834967899999995 12.5702192999999998 12.7701165200000002
 -18.7440647100000000 10.7688533700000004  5.0350392199999998
 -18.7635836000000005  8.8049601200000005 20.5278631500000017
 -18.7251353300000005  7.3308352000000001 12.6909176099999996
 -18.6572100600000006  5.4033056200000003  4.7251770000000004
 -18.6315557799999993  3.6063270900000002 20.0040312100000008
 -9.3763269499999993  5.5174530700000002  5.1574033200000002
 -9.1924314999999996  3.4746811100000001 20.1194227300000001
 -9.3735225599999996  1.6974376300000000 12.6203894800000000
 -9.5785696500000004  0.2087406000000000  5.1277434399999997
 -9.2761034700000007 -1.7839296800000000 20.0453792600000007
 -9.1146949100000008 -3.4171258600000001 12.9217125300000006
 -20.2187571599999991 13.4260757799999997  4.9863254599999998
 -19.6785811399999986 11.6773282799999993 20.3864094400000013
 -20.3874622400000014 10.0301653000000002 13.0273078800000004
 -20.1821473100000013  8.0605130900000006  5.0993103199999998
 -20.0298538300000004  6.0128945800000002 20.2600346900000012
 -20.3702201299999999  4.5766177700000004 12.5649349299999997
 -10.9826978799999999 -2.8658121099999998  4.8124796999999999
 -11.0411017099999995 -4.7163323300000002 20.3030729600000015
 -21.4656151100000017 12.5560416600000000 12.7094935200000005
 -21.7903573500000007 10.7563445499999997  5.0933825600000002
 -21.5997303299999999  8.8737681199999994 20.4672739700000008
 -21.8543229600000011  7.2898936799999996 12.4246013499999997
 -21.9425231300000014  5.1735593099999999  4.8000479399999998
 -12.4630309500000003 -1.9704970700000000 19.8807700599999997
 -12.3822947299999999 -3.3139201800000002 12.3477874300000003
 -12.5495681500000007 -5.5582234799999997  5.2285748600000002
 -23.1641694700000009 11.5542171899999992 20.4439300099999990
 -23.4210603299999995  9.9296092900000001 12.7238125199999992
 -23.0996546900000013  7.9049038899999999  4.8099600599999999
 -22.9280123899999992  5.9365792700000002 20.3472387499999989
 -13.9167878700000003 -0.8105683200000000 12.3874497100000003
 -13.9570451799999997 -2.5984113500000001  5.2671596300000001
 -13.6774068799999995 -4.7175938700000000 20.1986239699999999
 -13.8051118299999995 -6.1611453599999999 12.3959954299999993
 -25.0346196700000014 10.5676581400000007  5.0242309699999996
 -24.8968753800000009  8.8193149999999996 20.2398136599999994
 -24.9674883700000017  7.1334358800000004 12.5528131799999993
 -15.4958100099999996 -0.2648453000000000  5.0835414800000001
 -15.3113921099999999 -1.8250490699999999 19.9338862399999996
 -15.7697228599999999 -3.4319817399999999 12.5417901500000006
 -15.1735661600000000 -5.2994669400000003  4.8282644000000001
 -15.3589296100000006 -7.3044151900000003 20.1766944300000013
 -26.6297079799999992 10.0219790999999994 12.6866914200000007
 -26.5791672400000003  8.1997719399999998  4.8174558300000001
 -17.2251841399999996  0.8589996500000000 20.0094665399999982
 -17.0677531699999996 -1.0356871400000001 12.3680110400000007
 -17.1995369199999999 -2.7441123699999999  4.8563023400000001
 -16.9791128399999991 -4.8352200200000004 20.2260345800000003
 -16.9212539000000000 -6.0309400799999997 12.7866420200000004
 -16.9201911799999998 -7.8974045100000003  5.1189207200000002
 -27.7024741500000005  8.9318426399999993 19.9030109400000015
 -28.0099960900000013  7.2919405399999997 12.3774780599999996
 -9.3322824600000001 16.2872826599999989  5.0510780400000002
 -9.3146555499999995 14.2191091800000002 20.1727837000000001
 -9.4310856300000001 12.4128700799999994 12.6958584200000004
 -9.4908793599999992 10.9393310699999997  5.0047073900000001
 -9.2174660399999997  8.6115451699999994 20.3605525999999983
 -9.0082371999999999  7.0286033899999998 12.6571604099999995
 -18.6356480799999993 -8.7152385199999998 12.5195229799999996
 -1.4932562800000000  2.7580834599999999  4.8622962100000002
 -2.7598584100000001  3.2893423099999999 20.5191009300000005
 -4.3842817800000002  4.4257876600000001 12.6547426099999996
 -6.1967277100000002  5.1969763200000001  5.1184383599999999
 -7.7275083699999998  6.1055610299999996 20.2990131200000015
 -26.0692154000000009  6.1300736599999999 20.3353763799999996
 -26.5270199200000008  4.7533915499999999 12.4251264300000006
 -8.0253677400000001 13.9103918400000008  5.1062133699999999
 -7.5297349599999999 11.6099705800000006 20.1835759199999991
 -7.4060391399999999  9.7403003899999998 12.4592814500000006
 -7.8727062200000004  8.0830279300000001  5.1588576899999996
 -18.4406969799999985 -7.1262762999999998 20.4272028399999996
 -19.8911450999999992 -6.3748562599999996 12.6829192200000005
 -3.1006352599999998  5.2161967200000001  5.1376308499999999
 -4.7269381499999996  6.0119006700000002 20.0040188699999995
 -6.1977886499999997  7.2932616200000000 12.6339950699999992
 -24.9218688499999992  5.3829341800000003  5.2394879699999999
 -24.8024028600000008  3.3321703000000000 20.0907477099999987
 -24.8769977900000008  2.0942559300000001 12.2353772500000009