Li                                      
   1.00000000000000     
    21.6499999999999986    0.0000000000000006    0.0000000000000000
     0.0000000000000006   21.6499999999999986    0.0000000000000000
    -0.0000000000000006   -0.0000000000000006   21.6499999999999986
   Li
   500
Direct
  0.0149131256351041  0.9867015741339458  0.0021194221708996
  0.0057716170900690  0.0952563330254037  0.0922136304849914
  0.9964379570438808  0.2078150512702095  0.1785694863741369
  0.0014217879907648  0.2888746817551961  0.3122777819861398
  0.9894196032332587  0.4130046965357934  0.3950215288683623
  0.9949917353348710  0.5026085653579671  0.4958061898383406
  0.0059273616628204  0.5897567127020764  0.6003756817551960
  0.0124107769053126  0.7004332138568117  0.7027077182448025
  0.0089839090069290  0.7905592420323302  0.7991034554272503
  0.0084005796766746  0.8846726166281726  0.9035388494226311
  0.1015222170900714  0.9911728258660517  0.0898052914549652
  0.0972627154734411  0.1080719782909938  0.1846515362586629
  0.0926806129330231  0.1979001667436506  0.2990088706697449
  0.0998895912240201  0.3121522009237907  0.4010751755196296
  0.1148401870669744  0.4003323986143172  0.4951180563510391
  0.1039247464203257  0.4988296207852159  0.5925374545034643
  0.1172457528868378  0.5955255565819897  0.6992085219399513
  0.1115933168591212  0.7008131108545044  0.7983789371824486
  0.1072861658198647  0.7914507505773685  0.8780004244803692
  0.1051478055427282  0.8841295732101599  0.0010539344110825
  0.1971219958429558  0.9955312605080806  0.1939604078521953
  0.2011695926097019  0.1041552993071591  0.2930730055427233
  0.1892113565819855  0.1784218023094724  0.3945115122401859
  0.2043459242494237  0.2976995062355670  0.4936449759815247
  0.2180517270207858  0.3851343025404148  0.6014065542725149
  0.2088791533487324  0.4898423016166262  0.6838140882217090
  0.2109811122401837  0.5863597524249400  0.7950036563510423
  0.1991454859122399  0.6883133792147831  0.8975304073902990
  0.2106295122401818  0.8021971870669731  0.9991144452655902
  0.1916905260969983  0.8851967916859138  0.0912744803695134
  0.2887216909930714  0.9979677404157030  0.2845223251732136
  0.2909398406466508  0.0918649348729801  0.4036485824480351
  0.3101894563510399  0.1965913205542691  0.4824625949191699
  0.3112666886836024  0.2964415759815253  0.5931798609699754
  0.3226864762124677  0.3999122854503483  0.7036675676674378
  0.3118408877598142  0.4973500087759817  0.7950145251732081
  0.3082353584295632  0.5998040438799066  0.9016797528868352
  0.2926571233256325  0.6939263612009228  0.0188985690531212
  0.2951259524249394  0.8071627274826767  0.1018944891454936
  0.3029480748267872  0.9130317958429544  0.2053744715935366
  0.3922632484988426  0.9960050096997719  0.4088561921478089
  0.3987187113163984  0.0948244572748251  0.4887586198614287
  0.4123786406466508  0.1869037288683586  0.5982615621247120
  0.4110748702078553  0.2799862785219389  0.6974094628175536
  0.3982586272517352  0.3881627639722893  0.7967741053117763
  0.4021908420323328  0.5125087371824506  0.9005872715935368
  0.3978825713625866  0.6040612046189366  0.0021924766743666
  0.3844538193995390  0.7014090535796740  0.0998891999999998
  0.4017338092378751  0.7998794327944552  0.2010050046189349
  0.4007499325635138  0.8874792581986171  0.3021538549653613
  0.5008866240184773  0.0050992965357963  0.4944070448036939
  0.5164489713625855  0.1013319210161683  0.5925515228637437
  0.5119756535796753  0.1906531159353335  0.7091366863741371
  0.5021516771362613  0.3012122254041572  0.8024822254041553
  0.4971420720554249  0.4031059616628170  0.8977923030023121
  0.5002664036951501  0.4949837565819877  0.0021631732101639
  0.4996437648960708  0.6129293935334843  0.1085869875288665
  0.5086226230946878  0.7049430609699741  0.1977854327944542
  0.5095874965357936  0.8055350461893767  0.3142078720554267
  0.5028962845265568  0.9069991353348712  0.4156010267898367
  0.6003009815242493  0.0046779921478048  0.5995365847575087
  0.5927044651270208  0.0869367542725143  0.7034094290993096
  0.6109528933025388  0.1951743981524245  0.8135241653579683
  0.5977279284064636  0.2751722438799078  0.9188028203233287
  0.5927208170900684  0.4086803690531156  0.0015179404157024
  0.5926712933025371  0.4957203020785244  0.1029776411085450
  0.6089457598152421  0.5789727570438785  0.2111870341801421
  0.5950019196304837  0.6962646401847579  0.2940243547344110
  0.5920263972286364  0.7966797995381043  0.4052980508083124
  0.6034176055427238  0.9068963011547311  0.5044745150115446
  0.7160634461893736  0.0013419718244805  0.6894783154734441
  0.6936879168591190  0.0960393963048531  0.7995010092378720
  0.6979875177829129  0.1815022577367174  0.8951424064665119
  0.6956118840646681  0.2951405819861463  0.0181526226327975
  0.7118512392609730  0.4071854674364914  0.1073847916859094
  0.7018000060046177  0.4848528498845255  0.1997666226327937
  0.7061170739030018  0.5970748069284042  0.2985427796766729
  0.7016632854503442  0.6954763773672070  0.4077934725173193
  0.6817390909930694  0.8029066591223994  0.4990853450346435
  0.7128756956120128  0.8970448877598187  0.6179974073902983
  0.8119669501154760  0.9987746577367176  0.8142410508083131
  0.8081472642032352  0.0908126078521931  0.8934694993071588
  0.8115016771362562  0.2019163404157069  0.9828560678983820
  0.8087560346420304  0.3032958775981527  0.1091095210161654
  0.7998895247113182  0.4172526096997657  0.1958199727482679
  0.8000658332563546  0.4979223953810603  0.3027811695150149
  0.7854310457274849  0.5987338309468839  0.4078033879907608
  0.7988633607390270  0.7040465131639735  0.4998324314087768
  0.7980283796766727  0.7992282152424934  0.5880100896073870
  0.8183288734411107  0.9043253981524231  0.6923041330254023
  0.9124860923787494  0.9953022498845243  0.9061981838337161
  0.9107201436489589  0.0919285334872981  0.9908714595842980
  0.8948805519630483  0.2108768281755218  0.0901304369515046
  0.9010463242494211  0.3114992946882182  0.1905784905311805
  0.9006061699769035  0.4033118748267910  0.3153234217090102
  0.8891970387990753  0.5172209510392634  0.4050644983833749
  0.8932281976905330  0.5961096503464205  0.5135344720554258
  0.8978268078521907  0.6898756184757531  0.6076887672055449
  0.9119141418013825  0.7910399316397232  0.6808432489607412
  0.9026736494226313  0.8780582161662807  0.7988045690531180
  0.1048798900692844  0.0913365870669764  0.9985919464203263
  0.0961249357967660  0.2039860762124732  0.0985961579676697
  0.0893122637413413  0.2999811704387980  0.1980841769053114
  0.0842647542725175  0.3952371357967692  0.2981315011547352
  0.1071840762124694  0.5167352286374154  0.3979962489607374
  0.1090501648960753  0.5776474674364920  0.4876112060046225
  0.1122137076212439  0.6801492369515003  0.5862446614318699
  0.1100676905311744  0.7982666281755186  0.6885751685912211
  0.1025244448036986  0.8836454443418020  0.7865847140877591
  0.1159346309468816  0.9798904946882203  0.9030212720554260
  0.1798571205542743  0.1187827759815221  0.0948366983833751
  0.1842229972286376  0.2017833685912223  0.2039565621247093
  0.1968268785219394  0.3059794845265600  0.2972093699769047
  0.2095599625866029  0.4054321648960766  0.3922545006928431
  0.2196930651270179  0.4900111930715951  0.5026510877598156
  0.2260711759815237  0.5880672969976928  0.6085636886836028
  0.2019946554272494  0.6948413806004652  0.6817367210161649
  0.2185241806004612  0.8104560009237858  0.7898755736720560
  0.2089101113163991  0.8961645159353324  0.9070651690531193
  0.2032340318706716  0.0009411233256316  0.0004815367205566
  0.2916649242494245  0.0916185690531179  0.1817912087759836
  0.2966835672055410  0.1859289547344076  0.3126603681293290
  0.2954368692840674  0.2862829782909913  0.4088438780600470
  0.3160175145496567  0.3801950586605045  0.4867628706697431
  0.3177325990762156  0.4918738909930696  0.6036844189376467
  0.3141199870669737  0.5806432545034639  0.7050281279445727
  0.3014066997690534  0.7002473713625861  0.7952584110854488
  0.3085598420323308  0.7926675833718235  0.9085977459584313
  0.2971244568129308  0.9030161976905333  0.9883654702078530
  0.2757533819861422  0.0079543307159327  0.0945412078521954
  0.3839756235565801  0.1022241838337195  0.3002140383371810
  0.4172925833718253  0.2016228120092407  0.3999275907621254
  0.4124841884526589  0.2750627344110868  0.4916010069284056
  0.4043708096997705  0.3908768734411083  0.5980392812933033
  0.4271329769053125  0.4865400203233250  0.7086039431870645
  0.4096450822170894  0.6262772023094669  0.7936236286374125
  0.4111185265588944  0.7002128632794467  0.9031505057736737
  0.3945225935334875  0.8026632244803693  0.0078125066974621
  0.4009346406466534  0.9040566115473467  0.1043044304849872
  0.3975534762124724  0.0083192822170872  0.2095004503464182
  0.5010462304849881  0.0955116000000018  0.3983627002309476
  0.5195396272517314  0.1833938069284073  0.4990813722863763
  0.5068836683602740  0.2911843935334844  0.6163353685912227
  0.5120752928406489  0.3847016217090058  0.7127037205542734
  0.5053957912240179  0.4961787986143165  0.7914122896073934
  0.5029150896073915  0.6013626794457281  0.9148584771362565
  0.4840698073902985  0.7008049884526528  0.0128364826789849
  0.4901753325635099  0.8099354960739049  0.1040804909930699
  0.4998201260969992  0.9094894600461885  0.1996041801385715
  0.4996183773672058  0.9944138203233237  0.3057634424942250
  0.6064993524249402  0.0992890434180111  0.4903985672055455
  0.6160290314087788  0.1910718651270216  0.5995250669745928
  0.6053149838337148  0.2956046586605083  0.7013632937644374
  0.6056679357967667  0.3938110669745924  0.7949634919168602
  0.6062647450346432  0.5028813612009202  0.8780283408775986
  0.5918752448036955  0.5986153413394888  0.9895454817551936
  0.5866539136258666  0.7047356364896089  0.0972095879907613
  0.6094329976905328  0.8208852401847579  0.2027770406466516
  0.6025194161662810  0.9156535394919203  0.2997422660508064
  0.6117278521939937  0.0023627602771370  0.4032509621247087
  0.7056996217090088  0.1069058831408753  0.5919389196304863
  0.6924825972286399  0.2074698563510395  0.7114551127020761
  0.6924867127020775  0.2939666096997655  0.8017491450346412
  0.6863388272517312  0.3969906189376431  0.9050531732101632
  0.6953589528868349  0.5045342023094719  0.0101928032332594
  0.6848258036951478  0.6084857450346419  0.0934403357967639
  0.6794674360277142  0.7200411935334898  0.1954980230946859
  0.6887436484988427  0.8082293602771387  0.3087902665127018
  0.6901588484988466  0.8979648258660475  0.3867010628175507
  0.6992461113163984  0.9990156406466539  0.5091624281755216
  0.7946702120092368  0.1086481080831376  0.7069806092378741
  0.8027490475750554  0.1997153912240179  0.8084605265588891
  0.7975304720554277  0.2986657801385704  0.8948592789838301
  0.7836495145496514  0.4046701062355638  0.9972952836027744
  0.8002945454965342  0.5213282244803707  0.1060774378752853
  0.7903801182448049  0.6001670170900724  0.2034563279445720
  0.7953276586605114  0.7040909140877574  0.2915208318706703
  0.8014463963048470  0.8051201898383340  0.4198820933025402
  0.8052363168591228  0.8866765297921475  0.4960732013856841
  0.8118609394919147  0.9967781214780587  0.5968365875288697
  0.8982408461893741  0.1112627796766716  0.7971945099307192
  0.9112927076212500  0.1973264660508107  0.9035642757505755
  0.9023286448036956  0.3092378060046173  0.9933889422632802
  0.8838915297921446  0.4160674554272532  0.0863334138568135
  0.8888509182448061  0.5032644946882243  0.2063396147806031
  0.8868641020785191  0.6067241108545005  0.3012757321016153
  0.8958643764434200  0.6956482817551972  0.4176559265588935
  0.9047633782909941  0.7927812240184764  0.5065342036951535
  0.9099288078521965  0.9010313159353345  0.5917066249422618
  0.8967877302540401  0.9930868332563492  0.6928914166281785
  0.0138644286374117  0.0994777879907645  0.8878541861431870
  0.0036940845265576  0.1808977219399566  0.0009285122401863
  0.9980208900692844  0.3072873593533458  0.0959194129330285
  0.9941780429561220  0.4043919376443412  0.2017400175519626
  0.9914524124711335  0.5167918554272504  0.3118765006928399
  0.9857974521939923  0.6066004646651280  0.4146899381062354
  0.0070988004618968  0.6909662692840612  0.5049079685912261
  0.0033918360277170  0.7794139422632824  0.6045828133949200
  0.9975762914549620  0.8906603501154748  0.6971258064665093
  0.0020837662817570  0.9794902655889146  0.7977224757505752
  0.1870843177829116  0.2059753565819875  0.9863200143187072
  0.2019565856812946  0.2938640748267929  0.0934422374133916
  0.1964739145496566  0.3881961334872983  0.1787494665126985
  0.2028661510392595  0.5007281016166303  0.2774701593533493
  0.2327303150115441  0.6064736711316385  0.3933973963048487
  0.2171600189376477  0.6911897016166293  0.5016589034642038
  0.1859413778291028  0.7966341999999997  0.5977948775981545
  0.2099445006928420  0.9080917385681317  0.6899911321016177
  0.1955028702078536  0.9913042318706715  0.7861155773672053
  0.2081989113163942  0.1000374725173216  0.8986950863741328
  0.3046472475750548  0.1893512327944578  0.0936495385681297
  0.3024244346420346  0.2893531547344139  0.1959748069284046
  0.3052670092378733  0.4002978891454987  0.2936201099307141
  0.3060176969976922  0.4933549117782903  0.3913300277136287
  0.3174009722863715  0.6099647838337177  0.5024787995381033
  0.3040907824480357  0.7004546960739049  0.5912747921478072
  0.2855187773672085  0.8156339861431903  0.6953463200923764
  0.2945583200923778  0.9023467302540382  0.8045136489607358
  0.3021589695150126  0.9967571284064647  0.8875665565819872
  0.2978991667436475  0.1088106623556584  0.0017221228637396
  0.3980957062355657  0.1809705468822145  0.2089049667436456
  0.4008748027713622  0.2847110452655883  0.2952694161662848
  0.4101412471131667  0.3899887214780620  0.3852560161662808
  0.3845388780600487  0.4932504997690543  0.5004544198614340
  0.4069314221708993  0.6051203025404135  0.6134113002309505
  0.4143428535796758  0.7185742193995353  0.6949996166281736
  0.3962444872979205  0.7975789187066979  0.7927637080831431
  0.3921983953810653  0.9059104683602754  0.8983182993071566
  0.3917020896073922  0.0004468919168588  0.9958487704387977
  0.3952249173210163  0.0866003362586625  0.1146243722863716
  0.5023160757505778  0.2005720277136263  0.2828118669745976
  0.5085279612009259  0.2914982956120085  0.4056133612009205
  0.5068179020785237  0.3881046309468843  0.5015015695150140
  0.5038264378752899  0.4902704106235589  0.6044842226327916
  0.5031525898383364  0.6030456161662840  0.6960362558891475
  0.5035850323325661  0.7020987464203259  0.7934348956120090
  0.4938990789838371  0.8044931958429586  0.8923323099307154
  0.4799753916859117  0.9143464974595830  0.0030677838337212
  0.4975004859122407  0.0096391658198627  0.0937737676674359
  0.5036782637413424  0.0956206374133970  0.2081175584295636
  0.5984356254041572  0.2071128448036959  0.3782865889145484
  0.5941136826789872  0.2869084577367218  0.4868566207852183
  0.6001728332563516  0.3864160886836032  0.6030850115473427
  0.5929028840646637  0.4995761381062351  0.7009665551963025
  0.5957419681293317  0.6052474752886852  0.7913429579676645
  0.5832275362586614  0.7133643745958409  0.8824282739030025
  0.5855263870669773  0.7980443856812940  0.9822298503464211
  0.5950286919168590  0.9029409491916880  0.0922434688221685
  0.5903004540415679  0.0014918655889176  0.2009999547344137
  0.6050947819861463  0.1010177293302519  0.2964481815242479
  0.7021034535796744  0.2092857122401881  0.4984166157043859
  0.6996575228637383  0.2947922849884534  0.6054442424942295
  0.6924913487297886  0.3978276780600467  0.7128138401847579
  0.6978619150115506  0.5186318545034609  0.8089549210161664
  0.6867669944572725  0.6102484646651263  0.8905449528868346
  0.6708622646651250  0.7012471690531186  0.9983892752886803
  0.6812083621247140  0.8034030360277171  0.0933586036951510
  0.7049801884526588  0.9121367935334845  0.2035966184757498
  0.7115517584295645  0.0108083501154752  0.2977286651270177
  0.7216552443418038  0.1059189750577332  0.3863189644341816
  0.7970625792147814  0.2053471806004623  0.6119459057736734
  0.7824740752886825  0.3091080799076238  0.7146092678983820
  0.7821207413394902  0.4071693755196293  0.8280656674364906
  0.7870176203233257  0.5077635630484991  0.9166687233256354
  0.7797866535796771  0.6175556799076247  0.9922620448036952
  0.7923661136258673  0.6998343625866070  0.1073994674364869
  0.8014337736720520  0.8082375334873007  0.1958612900692813
  0.8056803127020800  0.8989043224018474  0.2947256725173233
  0.7929208826789846  0.9917254286374160  0.3994785127020819
  0.7878211963048471  0.0929821205542751  0.4978390572748239
  0.8994659459584327  0.2061313787528860  0.7047271094688199
  0.9078187713625852  0.2886985685912222  0.7968892512702084
  0.8897461482678963  0.3972741371824497  0.9034681408775995
  0.8905281099307132  0.5253084831408756  0.9919373736720587
  0.9021746535796780  0.6094962110854496  0.1105325478060024
  0.8980652406466518  0.6971469150115439  0.1980219690531158
  0.8958961796766758  0.7986208374133952  0.3099572489607425
  0.9119547819861396  0.8955612854503485  0.4022502161662800
  0.8966550096997707  0.0047124314087768  0.4867881519630473
  0.8883927639722842  0.1086632124711286  0.6005555912240155
  0.0048272886836003  0.2009553856812900  0.7764005302540440
  0.9927965168591228  0.2945061625866074  0.9130506129330271
  0.9868143219399528  0.4200634457274859  0.9992413117782917
  0.0110877491916881  0.4954935265588887  0.1139716152424910
  0.0021584083140880  0.5937689210161636  0.2011795260970004
  0.9912121570438828  0.6772608013856782  0.2954596143187089
  0.0200180900692857  0.7853303431870700  0.4039699847575093
  0.0055694226327958  0.8933738484988467  0.5042398517321018
  0.0072534332563521  0.0012717699769027  0.5932658110854518
  0.9997120092378751  0.1001467154734428  0.7022648919168617
  0.1024180623556603  0.1862501191685908  0.8923870272517291
  0.0738272378752853  0.2947369478060011  0.0028454554272486
  0.0953121796766752  0.4025250415704420  0.0997025801385689
  0.1117793284064632  0.4983555829099302  0.2124334896073918
  0.1099978143187101  0.6002774706697451  0.3070322083140908
  0.1144152503464184  0.6785198683602758  0.4003780351039268
  0.1032109371824461  0.7881092341801406  0.4939435824480398
  0.0883633644341799  0.8891348521939975  0.5924329090069307
  0.0874483210161685  0.9875727441108566  0.6963067117782913
  0.1033107926096974  0.0970368272517348  0.7917869385681300
  0.3015391200923787  0.2897415584295615  0.0113095136258679
  0.3033157935334856  0.3965718586605078  0.0948461561200915
  0.2968562087759850  0.4847369824480339  0.2022245879907629
  0.2931182974595856  0.6106961732101581  0.3035395260969977
  0.3057324951501172  0.7169472563510411  0.4071851884526581
  0.2962958674364913  0.8207186863741356  0.5056306785219391
  0.2816749260969971  0.9113281080831399  0.6059504669745976
  0.3099921856812955  0.0069894041570464  0.7101623625866083
  0.2844124521939975  0.1062840521939989  0.7923935357967693
  0.3061512946882203  0.2035979182448031  0.9000235819861402
  0.3997160471131664  0.2995902004618927  0.1034596489607367
  0.3921034702078501  0.3980202036951468  0.1944423316397206
  0.4001313080831395  0.4995712230946907  0.3055149709006955
  0.4099453935334907  0.6064725062355691  0.3898721810623584
  0.4022875505773698  0.7065203006928442  0.4964956314087772
  0.4023253173210151  0.8137480198614355  0.5907710198614353
  0.4091563685912263  0.9144703981524245  0.6982793898383406
  0.4070308785219368  0.9939192466512736  0.8058246221709027
  0.4011704235565787  0.1078746318706720  0.8997296591224000
  0.4052492387990796  0.1980638896073899  0.0118044424942241
  0.4976367103926123  0.2987060739030056  0.1945911154734432
  0.5070509311778295  0.4023346826789833  0.3022478928406471
  0.5035548290993077  0.5033468933025418  0.4034546438799111
  0.4813188267898383  0.5900024988452657  0.5161685879907623
  0.5080096152424929  0.7054088452655876  0.6071343011547370
  0.5080734475750575  0.8124787639722868  0.7003395602771363
  0.4770494688221731  0.8847551117782899  0.8158141727482686
  0.4940952272517336  0.0054149131639747  0.9106121219399554
  0.4852991745958448  0.0997400175519658  0.0182135838337203
  0.5016897713625852  0.1943485468822175  0.1044657999999998
  0.5951567468822176  0.3101786521939971  0.3029132960739034
  0.5976526526558885  0.4028361787528851  0.4015286535796747
  0.5877844203233238  0.5018396960739011  0.5065740859122414
  0.5985292942263314  0.5982728466512697  0.5969473496535826
  0.6003033219399541  0.6978051371824492  0.6922516452655856
  0.5981536600461865  0.8126113593533475  0.7973483593533501
  0.5887276424942272  0.9141943270207875  0.9054097247113191
  0.5948174309468826  0.0080734993071587  0.0012820720554245
  0.6103417140877596  0.0972365602771390  0.1023389168591251
  0.6027069773672054  0.2043228401847585  0.1957425505773642
  0.7121859842956155  0.3007840314087744  0.3889257806004593
  0.6895063755196276  0.3929051963048522  0.4982941459584325
  0.7002627815242519  0.4906837584295616  0.6065353265588911
  0.6855388637413427  0.5862233681293318  0.6936474762124689
  0.6892674752886805  0.7069628905311802  0.8072725219399572
  0.6885493565819871  0.7880246401847586  0.8968900180138561
  0.6960277265588886  0.8953499362586612  0.9874838124711331
  0.6941505565819881  0.9996112729792159  0.1090536512702087
  0.7150554106235560  0.0930207122401825  0.1945626789838357
  0.7121337103926066  0.1946596217090075  0.2840367427251707
  0.7907618632794424  0.2891806448036931  0.5066930766743667
  0.7912459191685883  0.3964538249422631  0.5952034096997707
  0.7922121930715917  0.4881190120092356  0.6937386415704410
  0.8007036032332593  0.6014760896073881  0.8016901879907650
  0.7876106157043878  0.6928565556581958  0.8921764083140857
  0.8009714046189345  0.7935581385681303  0.0062372392609689
  0.7970915944572781  0.8980934281755211  0.0988415990762093
  0.8079685621247137  0.0128634785219433  0.2205768711316409
  0.8190172323325626  0.1113733898383344  0.2926357718244788
  0.8058679718244832  0.2026453297921478  0.4047232503464215
  0.8813976411085420  0.3047284374133952  0.5999145399538079
  0.8917219644341827  0.3947282831408785  0.7075442424942295
  0.8954073755196319  0.4908155168591222  0.8169888706697463
  0.9017233921478081  0.6087836508083129  0.9008290221709032
  0.9036815404157039  0.6910400277136262  0.9965244715935313
  0.9155122217090081  0.7989539371824463  0.0956871741339498
  0.8958142951501173  0.9093926041570413  0.2040601030023126
  0.9101186341801366  0.0029922290993056  0.2978784914549664
  0.8926993519630457  0.1026313575057713  0.4075221884526528
  0.8965908064665129  0.2108279930715966  0.5000448540415690
  0.9856599450346408  0.3053908780600452  0.7147438822170926
  0.0074434235565803  0.4011129094688215  0.8151264558891427
  0.0044526452655873  0.5046521385681260  0.9035290568129355
  0.0119853127020804  0.5864077066974573  0.9951129856812955
  0.0025996863741327  0.6954948868360304  0.0988070494226321
  0.9906518748267885  0.8031479625866069  0.2136179353348737
  0.9983105879907654  0.9067318013856820  0.3051147561200906
  0.9873815630485012  0.0237339764434168  0.4166148096997659
  0.9908220521939981  0.1050854448036986  0.5034747598152407
  0.9934536360277164  0.2038139505773700  0.6086581884526581
  0.0926632909930731  0.3129705339491906  0.7902299916859121
  0.1042733270207847  0.3931736498845240  0.9119701736720529
  0.1087828064665146  0.5130350660508114  0.0066154203233282
  0.1061513764434210  0.6145278032332584  0.0970779685912220
  0.0921325999999993  0.6946015995381032  0.2116989648960725
  0.0999242452655906  0.7906986092378787  0.3101674882217083
  0.0771965085450361  0.9203551441108573  0.4063337274826821
  0.0865981699769023  0.0119333394919181  0.5005278748267870
  0.0996176484988425  0.1085321745958439  0.5952182221708995
  0.0970991390300213  0.2108380060046215  0.6917577565819855
  0.1989534341801402  0.3060275422632799  0.9041883454965358
  0.1892725699769073  0.4001885214780572  0.0185660891454944
  0.1982362692840667  0.5037344706697482  0.1065119099307168
  0.1986904794457303  0.6158542886836003  0.2065398221709032
  0.2217751039260989  0.7223528683602751  0.3118007159353340
  0.1964655117782925  0.8167516230946887  0.4022984545034660
  0.1768403025404126  0.9200000632794456  0.4960442258660507
  0.1934301625866084  0.0067441274826763  0.5974334203233269
  0.1852299205542707  0.1032225187066942  0.6789766217090047
  0.2126451695150138  0.2115468665127054  0.7946591999999981
  0.3905861390300203  0.3874705224018484  0.9968153168591201
  0.4040456314087777  0.5006602969976939  0.0935096979214762
  0.3979627593533479  0.6046648023094718  0.2013058249422599
  0.3963950817551947  0.7063954184757506  0.3040561228637415
  0.4090910267898380  0.8075078267898377  0.4138842272517351
  0.3915229182448030  0.9222985279445695  0.5019140240184754
  0.4078578665126997  0.0126952780600433  0.5810886563510422
  0.3994395048498873  0.1001178314087738  0.6980108457274810
  0.3909737976905276  0.2064874517321016  0.7932273547344124
  0.4115909953810615  0.2959932110854524  0.9107355136258661
  0.5133252535796800  0.3951519468822156  0.1074214161662823
  0.4868492831408773  0.4879186646651306  0.2016493907621282
  0.4892584254041594  0.5986739200923807  0.2926824498845235
  0.5084301607390316  0.7031592725173184  0.4052255528868329
  0.5023381935334896  0.8116298323325637  0.5050967496535819
  0.4891255094688205  0.9091468540415732  0.5955690443418007
  0.4980627750577398  0.9836464397228610  0.6890865676674380
  0.4894742674364920  0.0809968290993055  0.8073808318706668
  0.4874502129330267  0.1811283002309452  0.8881044420323292
  0.5133458466512693  0.2904691515011564  0.9957591644341832
  0.5924980387990786  0.4110362914549626  0.2032895357967632
  0.5978633995381060  0.5134621177829075  0.3178169524249412
  0.5912390397228648  0.5955918244803726  0.4261502854503476
  0.6031164240184737  0.7254158193995366  0.5061832175519640
  0.5912022891454995  0.8099947330254054  0.6133914480369498
  0.6024583205542697  0.9258178928406480  0.7016298849884492
  0.5927587612009262  0.9974792360277149  0.8058889819861434
  0.6021086965357938  0.0890252872979218  0.9057910064665151
  0.5968882249422620  0.1867656041570456  0.0000803454965350
  0.5965215330254026  0.3045994757505781  0.1022371381062328
  0.7030021501154735  0.4128827279445701  0.2931874720554291
  0.6940296743648986  0.4978306327944608  0.4066267713625891
  0.7003577099307137  0.5936027362586600  0.5212251491916859
  0.6917681963048494  0.7083275145496515  0.5927192309468836
  0.6937485551963078  0.8140918618937647  0.6963411561200914
  0.6993308545034651  0.9098001080831395  0.8019844600461923
  0.7122740295612005  0.0049266240184735  0.9105152023094689
  0.7084552129330248  0.0966021066974605  0.0186337159353371
  0.7033881935334847  0.2075635293302511  0.1084158420323291
  0.7056617722863763  0.3188920965357980  0.1982846161662835
  0.7969740642032335  0.4018085709006911  0.3957205473441121
  0.8002711154734428  0.4957921505773655  0.5006947741339474
  0.7974493570438810  0.6033929745958417  0.6182880180138568
  0.7801401441108524  0.7086973071593548  0.7094551200923789
  0.8014215593533507  0.8064826785219381  0.7985019187066982
  0.7969622471131643  0.9151190863741334  0.9111350891454961
  0.8115686780600484  0.0049101145496522  0.0150732614318727
  0.8070436928406437  0.1027000304849892  0.1041521482679002
  0.8025840411085454  0.2053609251732098  0.1891671741339493
  0.8051375274826782  0.2991346845265568  0.2823623801385651
  0.8878227551963036  0.3953157325635104  0.4963560678983825
  0.8843783690531168  0.5027585371824514  0.6056964545034660
  0.9062964240184783  0.6041284184757529  0.6972035459584305
  0.9025677898383364  0.7128769792147835  0.7903475796766770
  0.8958365542725204  0.7923606877598175  0.9061103949191676
  0.8949466586605084  0.8941770258660497  0.0066475103926109
  0.9074786651270230  0.9965794475750585  0.0884560180138578
  0.9035580415704416  0.1058065094688203  0.1940408489607393
  0.9055968665127025  0.2071691325635072  0.2949789838337153
  0.8936132766743654  0.2957507205542740  0.4083440942263294
  0.9863132300230930  0.4172198762124708  0.5992059154734406
  0.0039454115473418  0.5015241995381032  0.7150667690531165
  0.9937206734411106  0.5778461381062385  0.8006465773672033
  0.9965407464203224  0.6933741722863758  0.9037993154734423
  0.0147907270207881  0.8027894101616653  0.9966519667436486
  0.0024332960739031  0.8980967704387979  0.1009927833718223
  0.9966615745958407  0.0130647889145479  0.1958922069284057
  0.9923788605080830  0.1125725778290985  0.2942526286374161
  0.0049678138568154  0.1999859755196312  0.4109694009237899
  0.9961056036951490  0.3064073196304875  0.5089618748267881
  0.0938752166281773  0.3923653034642030  0.6825974508083164
  0.1157183006928406  0.4779138129330249  0.7968698859122370
  0.0916450752886817  0.5886556632794466  0.8941458729792160
  0.1000925159353372  0.6941503011547354  0.9827204235565787
  0.1081792009237859  0.7733778212471165  0.1103526503464209
  0.1002172863741322  0.8908614642032333  0.1961159450346415
  0.0902626697459610  0.0058156799076201  0.2889076475750585
  0.0902316692840657  0.0905296461893741  0.3924760475750588
  0.1049687630484968  0.2057835815242512  0.5179603944572762
  0.1004234762124696  0.2988077630485009  0.6058469108545026
  0.1953153879907603  0.3957545893764447  0.7909577085450366
  0.1983009062355663  0.4954605556581981  0.8975533782909935
  0.2057431390300266  0.5894934706697441  0.0010574692840635
  0.2131351824480348  0.7086497034642036  0.1001610775981518
  0.2025699662817573  0.7975253584295601  0.1916065575057715
  0.1839573565819848  0.8979629140877563  0.2954266609699800
  0.1967968836027723  0.0026458415704411  0.3948358739030056