Li 
 1.0000000000000000
    21.6499999999999986    0.0000000000000006    0.0000000000000000
     0.0000000000000006   21.6499999999999986    0.0000000000000000
    -0.0000000000000006   -0.0000000000000006   21.6499999999999986
 Li 
 500
Cartesian
  0.3228691700000000 -0.2879109200000000  0.0458854900000000
  0.1249555100000000  2.0622996100000002  1.9964251000000000
 -0.0771182300000000  4.4991958600000004  3.8660293800000001
  0.0307817100000000  6.2541368600000000  6.7608139800000000
 -0.2290655900000000  8.9415516799999999  8.5522161000000008
 -0.1084289300000000 10.8814754400000009 10.7342040099999991
  0.1283273800000000 12.7682328300000005 12.9981335100000006
  0.2686933200000000 15.1643790799999998 15.2136221000000003
  0.1945016300000000 17.1156075899999998 17.3005898100000017
  0.1818725500000000 19.1531621500000000 19.5616160900000011
  2.1979560000000000 -0.1911083200000000  1.9442845600000001
  2.1057377900000001  2.3397583300000000  3.9977057600000001
  2.0065352700000001  4.2845386100000002  6.4735420499999998
  2.1626096499999998  6.7580951499999999  8.6832775499999997
  2.4862900500000000  8.6671964300000006 10.7193059200000000
  2.2499707600000001 10.7996612899999995 12.8284358899999997
  2.5383705499999998 12.8931283000000008 15.1378644999999992
  2.4159953100000000 15.1726038499999998 17.2849039900000001
  2.3227454900000000 17.1349087500000010 19.0087091900000011
  2.2764499900000001 19.1414052599999991 21.6728176800000014
  4.2676912099999997 -0.0967482100000000  4.1992428300000002
  4.3553216800000003  2.2549622299999998  6.3450305699999996
  4.0964258700000000  3.8628320199999999  8.5411742400000001
  4.4240892599999997  6.4451943099999998 10.6874137299999994
  4.7208198899999996  8.3381576499999994 13.0204518999999994
  4.5222336700000003 10.6050858300000002 14.8045750100000006
  4.5677410800000002 12.6946886400000007 17.2118291600000006
  4.3114997700000002 14.9019846600000001 19.4315333199999998
  4.5601289400000002 17.3675691000000008 -0.0191722600000000
  4.1500998899999999 19.1645105399999984  1.9760925000000000
  6.2508246099999996 -0.0439984200000000  6.1599083400000003
  6.2988475499999996  1.9888758400000000  8.7389918099999999
  6.7156017300000004  4.2562020900000004 10.4453151799999997
  6.7389238100000002  6.4179601200000000 12.8423439899999998
  6.9861622099999998  8.6581009800000004 15.2344028399999996
  6.7513552199999998 10.7676276899999994 17.2120644700000014
  6.6732955100000000 12.9857575500000006 19.5213666500000009
  6.3360267199999996 15.0235057199999993  0.4091540200000000
  6.3894768700000002 17.4750730499999989  2.2060156900000001
  6.5588258200000000 19.7671383799999987  4.4463573099999998
  8.4924993299999993 -0.0864915400000000  8.8517365600000009
  8.6322600999999999  2.0529495000000000 10.5816241200000007
  8.9279975700000005  4.0464657300000004 12.9523628199999994
  8.8997709399999998  6.0617029300000000 15.0989148699999998
  8.6222992800000000  8.4037238399999996 17.2501593799999995
  8.7074317299999997 11.0958141599999998 19.4977144299999985
  8.6141576700000009 13.0779250800000000  0.0474671200000000
  8.3234251900000000 15.1855060099999992  2.1626011799999998
  8.6975369699999998 17.3173897200000013  4.3517583499999999
  8.6762360399999992 19.2139259399999993  6.5416309600000000
 10.8441954099999993  0.1103997700000000 10.7039125199999994
 11.1811202299999994  2.1938360900000000 12.8287404699999996
 11.0842729000000002  4.1276399599999998 15.3528092600000008
 10.8715838100000006  6.5212446799999997 17.3737401799999986
 10.7631258600000006  8.7272440699999994 19.4372033600000016
 10.8307676399999995 10.7163983300000005  0.0468327000000000
 10.8172875099999999 13.2699213700000005  2.3509082800000001
 11.0116797900000005 15.2620172699999994  4.2820546200000003
 11.0325693000000005 17.4398337499999982  6.8026004300000000
 10.8877045599999995 19.6365312799999998  8.9977622299999993
 12.9965162500000009  0.1012785300000000 12.9799670599999999
 12.8320516700000002  1.8821807300000000 15.2288141400000008
 13.2271301399999999  4.2255257200000003 17.6127981799999986
 12.9408096500000003  5.9574790799999997 19.8920810599999989
 12.8324056899999999  8.8479299900000008  0.0328634100000000
 12.8313334999999995 10.7323445399999997  2.2294659299999999
 13.1836757000000002 12.5347601900000001  4.5721992900000004
 12.8817915599999999 15.0741294600000000  6.3656272800000000
 12.8173715000000001 17.2481176599999984  8.7747028000000000
 13.0639911600000005 19.6343049200000017 10.9218732500000009
 15.5027736100000002  0.0290536900000000 14.9272055300000002
 15.0183433999999991  2.0792529300000000 17.3091968499999993
 15.1114297600000000  3.9295238800000001 19.3798330999999990
 15.0599972900000001  6.3897936000000000  0.3930042800000000
 15.4115793300000004  8.8155653699999998  2.3248807399999998
 15.1939701300000003 10.4970642000000005  4.3249473800000002
 15.2874346499999998 12.9266695699999996  6.4634511799999999
 15.1910101300000004 15.0570635700000004  8.8287286799999993
 14.7596513199999997 17.3829291700000006 10.8051977200000007
 15.4337588100000005 19.4210218200000000 13.3796438700000007
 17.5790844700000015 -0.0265286600000000 17.6283187499999983
 17.4963882700000006  1.9660929599999999 19.3436146600000001
 17.5690113100000005  4.3714887700000000 -0.3711661300000000
 17.5095681499999998  6.5663557499999996  2.3622211300000000
 17.3176082099999995  9.0335190000000001  4.2395024100000001
 17.3214252900000005 10.7800198599999995  6.5552123199999999
 17.0045821400000001 12.9625874400000001  8.8289433499999994
 17.2953917600000011 15.2426070100000004 10.8213721399999994
 17.2773144199999997 17.3032908600000006 12.7304184399999993
 17.7168201100000005 19.5786448700000015 14.9883844800000006
 19.7553239000000005 -0.1017062900000000 19.6191906799999991
 19.7170911099999984  1.9902527500000000 21.4523671000000000
 19.3741639499999998  4.5654833300000002  1.9513239600000001
 19.5076529200000017  6.7439597300000003  4.1260243200000000
 19.4981235800000015  8.7317020900000006  6.8267520800000003
 19.2511158900000012 11.1978335900000001  8.7696463900000001
 19.3383904800000010 12.9057739300000005 11.1180213200000004
 19.4379503900000010 14.9358071399999996 13.1564618099999997
 19.7429411700000017 17.1260145199999982 14.7402563400000002
 19.5428845100000004 19.0099603799999990 17.2941189199999990
  2.2706496199999999  1.9774371100000001 -0.0304843600000000
  2.0811048599999999  4.4162985499999996  2.1346068200000001
  1.9336105100000001  6.4945923399999996  4.2885224300000004
  1.8243319300000000  8.5568839899999993  6.4545469999999998
  2.3205352499999998 11.1873176999999995  8.6166187900000004
  2.3609360700000002 12.5060676700000002 10.5567826100000008
  2.4294267700000001 14.7252309799999992 12.6921969200000007
  2.3829655000000001 17.2824725000000008 14.9076523999999999
  2.2196542300000002 19.1309238700000002 17.0295590600000004
  2.5099847600000000 21.2146292099999982 19.5504105400000014
  3.8939066599999999  2.5716470999999999  2.0532145200000000
  3.9884278900000001  4.3686099299999999  4.4156595699999999
  4.2613019200000002  6.6244558400000004  6.4345828599999999
  4.5369731900000003  8.7776063700000009  8.4923099400000002
  4.7563548600000001 10.6087423300000001 10.8823960500000005
  4.8944409599999998 12.7316569800000003 13.1754038599999994
  4.3731842900000002 15.0433158900000006 14.7596000099999998
  4.7310485099999999 17.5463724200000009 17.1008061699999985
  4.5229039100000001 19.4019617699999998 19.6379609100000003
  4.4000167899999996 21.6703753200000016 21.6604252700000011
  6.3145456099999997  1.9835420200000000  3.9357796700000001
  6.4231992299999998  4.0253618700000002  6.7690969699999997
  6.3962082200000001  6.1980264800000002  8.8514699599999993
  6.8417791899999996  8.2312230199999998 10.5384161499999998
  6.8789107700000001 10.6490697399999998 13.0697676699999992
  6.8006977199999996 12.5709264600000008 15.2638589699999994
  6.5254550499999997 15.1603555900000000 17.2173446000000006
  6.6803205800000001 17.1612531799999992 19.6711412000000010
  6.4327444900000001 19.5503006799999994 -0.2518875700000000
  5.9700607200000002 21.8222112599999996  2.0468171499999999
  8.3130722499999994  2.2131535800000002  6.4996339299999999
  9.0343844299999994  4.3651338800000001  8.6584323399999992
  8.9302826799999995  5.9551081999999997 10.6431617999999997
  8.7546280299999992  8.4624843100000007 12.9475504400000005
  9.2474289499999998 10.5335914400000004 15.3412753700000000
  8.8688160299999996 13.5589014300000006 17.1819515600000017
  8.9007161000000004 15.1596084900000001 19.5532084499999996
  8.5414141499999996 17.3776588099999998  0.1691407700000000
  8.6802349700000008 19.5728256400000014  2.2581909200000001
  8.6070327599999992 21.8301124599999987  4.5356847499999997
 10.8476508900000006  2.0678261400000002  8.6245524600000003
 11.2480329300000008  3.9704759200000002 10.8051117100000003
 10.9740314199999993  6.3041421199999998 13.3436607299999999
 11.0864300900000003  8.3287901099999999 15.4300355499999995
 10.9418188799999996 10.7422709899999997 17.1340760699999990
 10.8881116900000006 13.0195020100000001 19.8066860300000016
 10.4801113299999997 15.1724280000000000  0.2779098500000000
 10.6122959500000000 17.5351034900000009  2.2533426300000001
 10.8211057299999993 19.6904468100000010  4.3214305000000000
 10.8167378700000008 21.5290592099999998  6.6197785299999996
 13.1307109799999999  2.1496077900000001 10.6171289800000004
 13.3370285299999995  4.1367058800000001 12.9797177000000001
 13.1050693999999996  6.3998408600000003 15.1845153100000001
 13.1127108099999994  8.5260096000000001 17.2109595999999989
 13.1256317300000003 10.8873814699999993 19.0093135800000006
 12.8140990499999994 12.9600221399999995 -0.2263403200000000
 12.7010572300000000 15.2575265299999998  2.1045875800000000
 13.1942243999999995 17.7721654499999993  4.3901229300000004
 13.0445453600000008 19.8238991300000009  6.4894200599999996
 13.2439079999999993 21.7011537600000004  8.7303833300000004
 15.2783968100000003  2.3145123700000001 12.8154776100000003
 14.9922482299999995  4.4917223899999996 15.4030031899999997
 14.9923373299999998  6.3643770999999996 17.3578689900000001
 14.8592356100000007  8.5948469000000003 19.5944012000000001
 15.0545213300000000 10.9231654799999998  0.2206741900000000
 14.8264786500000003 13.1737163800000001  2.0229832700000001
 14.7104699900000000 15.5888918400000005  4.2325321999999996
 14.9112999899999998 17.4981656500000007  6.6853092700000003
 14.9419390700000001 19.4409384799999998  8.3720780099999992
 15.1386783099999995 21.6286886199999984 11.0233665700000003
 17.2046100899999992  2.3522315400000000 15.3061301899999993
 17.3795168800000006  4.3238382199999998 17.5031703999999984
 17.2665347199999992  6.4661141400000002 19.3737033899999993
 16.9660119899999984  8.7611077999999996 -0.0585571100000000
 17.3263769100000005 11.2867560600000001  2.2965765299999998
 17.1117295600000006 12.9936159199999999  4.4048295000000000
 17.2188438099999992 15.2435682900000007  6.3114260099999999
 17.3513144799999992 17.4308521100000000  9.0904473200000009
 17.4333662599999997 19.1965468699999988 10.7399848099999993
 17.5767893400000013 21.5802463300000014 12.9215121199999992
 19.4469143200000012  2.4088391800000002 17.2592611399999996
 19.7294871200000017  4.2721179899999999 19.5621665699999987
 19.5354151599999994  6.6949984999999996 -0.1431294000000000
 19.1362516199999995  9.0078604099999993  1.8691184100000000
 19.2436223800000015 10.8956763100000007  4.4672526599999998
 19.2006078100000011 13.1355769999999996  6.5226195999999996
 19.3954637500000011 15.0607852999999992  9.0422508100000005
 19.5881271400000010 17.1637135000000001 10.9664655100000008
 19.6999586899999990 19.5073279900000003 12.8104484299999992
 19.4154543599999982 21.5003299400000003 15.0010991699999998
 21.9501648799999991  2.1536941100000000 19.2220431299999994
 21.7299769299999994  3.9164356800000002 21.6701022899999991
 21.6071522700000003  6.6527713300000002  2.0766552900000002
 21.5239546299999986  8.7550854499999993  4.3676713800000000
 21.4649447299999991 11.1885436699999996  6.7521262399999999
 21.3425148399999998 13.1329000600000008  8.9780371599999995
 21.8036890300000010 14.9594197300000005 10.9312575200000008
 21.7234332499999994 16.8743118500000016 13.0892179100000003
 21.5975267100000003 19.2827965799999994 15.0927737099999995
 21.6951135400000013 21.2059642500000010 17.2706915999999993
  4.0503754799999996  4.4593664700000000 -0.2961716900000000
  4.3723600800000000  6.3621572200000003  2.0230244399999999
  4.2536602500000003  8.4044462899999992  3.8699259499999998
  4.3920521700000004 10.8407634000000002  6.0072289500000000
  5.0386113200000002 13.1301549800000004  8.5170536299999995
  4.7015144099999997 14.9642570399999997 10.8609152600000005
  4.0256308299999999 17.2471304299999986 12.9422590999999993
  4.5452984399999998 19.6601861400000004 14.9383080100000001
  4.2326371399999996 -0.1882633800000000 17.0194022499999988
  4.5075064300000003  2.1658112799999998 19.4567486199999991
  6.5956129099999998  4.0994541900000003  2.0275125100000002
  6.5474890099999996  6.2644957999999997  4.2428545700000004
  6.6090307499999996  8.6664493000000000  6.3568753800000000
  6.6252831399999996 10.6811338399999993  8.4722951000000002
  6.8717310500000002 13.2057375700000001 10.8786660099999999
  6.5835654400000001 15.1648441700000003 12.8010992500000000
  6.1814815300000001 17.6584758000000015 15.0542478299999996
  6.3771876299999999 19.5358067099999992 17.4177205000000015
  6.5417416900000003 -0.0702081700000000 19.2158159499999996
  6.4495169600000004  2.3557508399999998 21.6872839599999985
  8.6187720399999996  3.9180123400000002  4.5227925300000003
  8.6789394800000004  6.1639941299999998  6.3925828600000001
  8.8795579999999994  8.4432558199999992  8.3407927500000003
  8.3252667099999993 10.6788733199999992 10.8348381899999993
  8.8100652900000007 13.1008545499999993 13.2803546499999996
  8.9705227799999996 15.5571318499999993 15.0467417000000001
  8.5786931499999994 17.2675835900000010 17.1633342800000008
  8.4910952599999998 19.6129616400000018 19.4485911800000011
  8.4803502399999999  0.0096752100000000 -0.0898741200000000
  8.5566194600000003  1.8748972800000001  2.4816176599999999
 10.8751430399999993  4.3423844000000003  6.1228769200000004
 11.0096303599999992  6.3109381000000004  8.7815292700000001
 10.9726075800000000  8.4024652599999996 10.8575089800000004
 10.9078423799999999 10.6143543900000008 13.0870834200000008
 10.8932535700000006 13.0559375899999992 15.0691849399999995
 10.9026159499999995 15.2004378599999992 17.1778654899999985
 10.6929150600000007 17.4172776899999988 19.3189945099999996
 10.3914672299999999 19.7956016699999999  0.0664175200000000
 10.7708855200000002  0.2086879400000000  2.0302020700000001
 10.9046344099999999  2.0701868000000001  4.5057451400000001
 12.9561312900000001  4.4839930900000002  8.1899046500000008
 12.8625612300000007  6.2115681100000000 10.5404458400000003
 12.9937418400000002  8.3659083200000008 13.0567905000000000
 12.8363474400000008 10.8158233900000003 15.1759259199999992
 12.8978136100000000 13.1036078400000005 17.1325750399999990
 12.6268761600000001 15.4443387100000002 19.1045721300000011
 12.6766462799999999 17.2776609500000013 -0.3847237400000000
 12.8823711799999998 19.5486715500000017  1.9970711000000001
 12.7800048299999993  0.0322988900000000  4.3516490200000000
 13.1003020299999999  2.1870338399999998  6.4181031300000004
 15.2005397700000007  4.5310356699999996 10.7907197299999993
 15.1475853699999998  6.3822529699999997 13.1078678499999999
 14.9924377000000000  8.6129692299999991 15.4324196400000009
 15.1087104599999993 11.2283796500000008 17.5138740400000010
 14.8685054300000008 13.2118792599999999 19.2802982299999996
 14.5241680300000002 15.1820012099999992 -0.0348721900000000
 14.7481610399999994 17.3936757299999982  2.0212137700000001
 15.2628210800000002 19.7477615799999988  4.4078667899999999
 15.4050955700000003  0.2340007800000000  6.4458256000000000
 15.6238360400000005  2.2931458100000000  8.3638055799999993
 17.2564048399999983  4.4457664599999998 13.2486288600000002
 16.9405637300000009  6.6921899299999996 15.4712906500000003
 16.9329140500000008  8.8152169800000006 17.9276216999999995
 17.0389314799999987 10.9930811399999993 19.8458778600000016
 16.8823810499999993 13.3700804699999996 -0.1675267300000000
 17.1547263600000015 15.1514139500000002  2.3251984700000001
 17.3510412000000009 17.4983426000000009  4.2403969300000002
 17.4429787699999999 19.4612785799999983  6.3808108099999998
 17.1667371099999997 -0.1791444700000000  8.6487098000000007
 17.0563289000000005  2.0130629099999999 10.7782155900000003
 19.4734377300000006  4.4627443500000004 15.2573419200000000
 19.6542764000000005  6.2503240099999999 17.2526522900000003
 19.2630041100000007  8.6009850700000001 19.5600852500000002
 19.2799335800000016 11.3729286599999995 -0.1745558600000000
 19.5320812500000009 13.1955929699999999  2.3930296599999998
 19.4431124599999983 15.0932307100000003  4.2871756300000001
 19.3961522899999999 17.2901411299999985  6.7105744400000003
 19.7438210299999994 19.3889018299999982  8.7087171800000007
 19.4125809599999997  0.1020241400000000 10.5389634900000004
 19.2337033400000017  2.3525585499999999 13.0020285500000004
  0.1045108000000000  4.3506840999999996 16.8090714800000001
 -0.1559554100000000  6.3760584199999997 19.7675457700000017
 -0.2854699300000000  9.0943736000000008 -0.0164256000000000
  0.2400497700000000 10.7274348499999999  2.4674854700000002
  0.0467295400000000 12.8550971399999998  4.3555367399999998
 -0.1902568000000000 14.6626963499999992  6.3967006499999997
  0.4333916500000000 17.0024019300000013  8.7459501700000004
  0.1205780000000000 19.3415438199999983 10.9167927900000006
  0.1570368300000000  0.0275338200000000 12.8442048100000008
 -0.0062350000000000  2.1681763900000002 15.2040349100000007
  2.2173510500000000  4.0323150800000001 19.3201791400000005
  1.5983597000000000  6.3810549200000004 21.7116041099999997
  2.0635086899999999  8.7146671500000004  2.1585608600000001
  2.4200224600000002 10.7893983700000007  4.5991850500000000
  2.3814526800000002 12.9960072400000008  6.6472473100000000
  2.4770901699999999 14.6899551499999994  8.6681844600000009
  2.2345167899999998 17.0625649199999998 10.6938785599999999
  1.9130668399999999 19.2497695499999999 12.8261724800000003
  1.8932561500000000 -0.2690500900000000 15.0750403100000003
  2.2366786599999999  2.1008473099999998 17.1421872200000003
  6.5283219499999996  6.2729047400000004  0.2448509700000000
  6.5667869300000001  8.5857807400000006  2.0534192800000000
  6.4269369200000002 10.4945556700000004  4.3781623300000003
  6.3460111399999999 13.2215721500000001  6.5716307399999998
  6.6191085200000002 15.5219080999999992  8.8155593299999992
  6.4148055299999998 17.7685595599999999 10.9469041899999997
  6.0982621500000000 19.7302535399999996 13.1188276100000003
  6.7113308199999997  0.1513206000000000 15.3750151499999994
  6.1575295900000002  2.3010497299999999 17.1553200500000003
  6.6281755300000000  4.4078949300000003 19.4855105500000008
  8.6538524199999998  6.4861278400000000  2.2399013999999999
  8.4890401299999994  8.6171374099999998  4.2096764799999997
  8.6628428199999998 10.8157169799999995  6.6143991199999999
  8.8753177700000006 13.1301297600000009  8.4407327199999997
  8.7095254700000009 15.2961645100000005 10.7491304200000002
  8.7103431199999992 17.6176446300000009 12.7901925799999994
  8.8582353800000000 19.7982841200000017 15.1177487900000003
  8.8122185200000001 -0.1316483100000000 17.4461030699999995
  8.6853396699999994  2.3354857800000000 19.4791471200000004
  8.7736460199999993  4.2880832099999999 21.9055661800000010
 10.7738347799999996  6.4669865000000000  4.2128976500000004
 10.9776526600000004  8.7105458799999997  6.5436668800000000
 10.9019620499999998 10.8974602399999991  8.7347930399999996
 10.4205526000000006 12.7735541000000001 11.1750499300000001
 10.9984081699999994 15.2721014999999998 13.1444576200000007
 10.9997901400000000 17.5901652400000010 15.1623514799999999
 10.3281209999999994 19.1549481700000008 17.6623768400000003
 10.6971616699999998  0.1172328700000000 19.7147524400000016
 10.5067271299999998  2.1593713800000001  0.3943240900000000
 10.8615835500000006  4.2076460400000002  2.2616845699999999
 12.8851435700000003  6.7153678200000000  6.5580728600000002
 12.9391799299999999  8.7214032699999997  8.6930953500000001
 12.7255327000000005 10.8648294199999995 10.9673289599999997
 12.9581592200000006 12.9526071300000005 12.9239101200000004
 12.9965669199999994 15.1074812200000004 14.9872481200000003
 12.9500267400000002 17.5930359299999992 17.2625919799999998
 12.7459534600000008 19.7923071800000017 19.6021205400000014
 12.8777973800000005  0.1747912600000000  0.0277568600000000
 13.2138981100000006  2.1051715299999998  2.2156375499999998
 13.0486060599999991  4.4235894900000003  4.2378262199999996
 15.4188265599999994  6.5119742799999996  8.4202431499999992
 14.9278130299999994  8.5063975000000003 10.7880682599999993
 15.1606892200000001 10.6233033700000004 13.1314898200000005
 14.8419164000000006 12.6917359199999993 15.0174678600000000
 14.9226408399999997 15.3057465799999992 17.4774500999999987
 14.9070935700000007 17.0607334600000016 19.4176688900000016
 15.0690002799999991 19.3843261200000008 -0.2709754600000000
 15.0283595499999993 -0.0084159400000000  2.3610115500000002
 15.4809496400000004  2.0138984199999999  4.2122820000000001
 15.4176948300000003  4.2143808099999998  6.1493954799999999
 17.1199943400000016  6.2607609599999998 10.9699051099999991
 17.1304741500000013  8.5832253099999996 12.8861538200000005
 17.1513939800000017 10.5677766099999992 15.0194415899999996
 17.3352330099999996 13.0219573400000002 17.3565925700000001
 17.0517698300000013 15.0003444300000002 19.3156192400000002
 17.3410309100000006 17.1805337000000016  0.1350362300000000
 17.2570330200000015 19.4437227200000002  2.1399206199999998
 17.4925193700000001  0.2784943100000000  4.7754892599999996
 17.7317230799999983  2.4112338900000001  6.3355644599999996
 17.4470415900000013  4.3872713900000004  8.7622583699999996
 19.0822589299999983  6.5973706700000001 12.9881497899999996
 19.3057805299999998  8.5458673300000001 15.3183328499999991
 19.3855696799999997 10.6261559400000003 17.6878090499999985
 19.5223114399999993 13.1801660399999996 19.5029483299999988
 19.5647053500000005 14.9610166000000007 -0.0752451900000000
 19.8208395999999993 17.2973527400000009  2.0716273200000002
 19.3943794899999986 19.6883498800000005  4.4179012300000000
 19.7040684299999995  0.0647817600000000  6.4490693400000003
 19.3269409699999990  2.2219688899999999  8.8228553800000000
 19.4111909599999990  4.5644260499999998 10.8259710899999995
 -0.3104621900000000  6.6117125100000003 15.4742050500000001
  0.1611501200000000  8.6840944899999997 17.6474877700000015
  0.0963997700000000 10.9257188000000003 19.5614040799999991
  0.2594820200000000 12.6957268499999998 -0.1058038600000000
  0.0562832100000000 15.0574642999999995  2.1391726200000001
 -0.2023869100000000 17.3881533899999994  4.6248282999999999
 -0.0365757700000000 19.6307435000000012  6.6057344699999998
 -0.2731891600000000  0.5138405900000000  9.0197106300000005
 -0.1987025700000000  2.2750998800000000 10.9002285499999996
 -0.1417287800000000  4.4125720299999998 13.1774497799999999
  2.0061602500000002  6.7758120599999998 17.1084793200000007
  2.2575175299999999  8.5122095200000008 19.7441542599999984
  2.3551477599999999 11.1072091799999999  0.1432238500000000
  2.2981772999999999 13.3045269400000006  2.1017380200000000
  1.9946707900000000 15.0381246300000004  4.5832825899999996
  2.1633599100000001 17.1186248899999995  6.7151261199999999
  1.6713044100000001 19.9256888699999983  8.7971252000000000
  1.8748503800000000  0.2583568000000000 10.8364284899999994
  2.1567220900000001  2.3497215800000002 12.8864745099999993
  2.1021963600000002  4.5646428300000004 14.9765554299999994
  4.3073418500000002  6.6254962900000001 19.5756776799999983
  4.0977511399999997  8.6640814899999992 22.0519558300000007
  4.2918152300000001 10.9058512899999993  2.3059828499999999
  4.3016488800000001 13.3332453500000003  4.4715871500000004
  4.8014310000000000 15.6389396000000005  6.7504854999999999
  4.2534783300000001 17.6826726399999998  8.7097615400000006
  3.8285925500000002 19.9180013699999989 10.7393574899999997
  4.1877630200000002  0.1460103600000000 12.9344335499999996
  4.0102277800000001  2.2347675300000001 14.6998438599999997
  4.6037679200000001  4.5799896599999999 17.2043716800000013
  8.4561899100000009  8.3887368099999993 -0.0689483900000000
  8.7475879200000008 10.8392954300000000  2.0244849600000001
  8.6158937400000006 13.0909929700000003  4.3582711099999996
  8.5819535200000008 15.2934608099999991  6.5828150599999997
  8.8568207300000008 17.4825444499999989  8.9605935199999998
  8.4764711800000008 19.9677631300000016 10.8664386200000003
  8.8301228100000007  0.2748527700000000 12.5805694100000007
  8.6478652799999995  2.1675510500000001 15.1119348099999993
  8.4645827199999992  4.4704533299999998 17.1733722299999982
  8.9109450500000005  6.4082530200000001 19.7174238700000011
 11.1134917400000006  8.5550396499999994  2.3256736600000001
 10.5402869799999994 10.5634390899999993  4.3657093099999997
 10.5924449099999993 12.9612903700000004  6.3365750399999996
 11.0075129799999996 15.2233982500000007  8.7731332200000001
 10.8756218899999997 17.5717858699999994 10.9353446299999995
 10.5895672800000007 19.6830293900000015 12.8940698099999995
 10.7830590799999992 -0.3540545800000000 14.9187241900000007
 10.5971178899999998  1.7535813499999999 17.4797950100000001
 10.5532971100000008  3.9214277000000002 19.2274611700000015
 11.1139375800000000  6.2886571299999998 21.5581859099999988
 12.8275825399999999  8.8989357099999999  4.4012184500000000
 12.9437426000000002 11.1164548500000002  6.8807370199999998
 12.8003252100000005 12.8945629999999998  9.2261536799999995
 13.0574705800000004 15.7052524899999995 10.9588666600000000
 12.7995295599999999 17.5363859700000013 13.2799248500000004
 13.0432226399999998 20.0439573799999984 15.1902870100000005
 12.8332271799999997 -0.0545745400000000 17.4474964600000000
 13.0356532800000000  1.9273974700000001 19.6103752900000003
 12.9226300700000003  4.0434753299999997  0.0017394800000000
 12.9146911899999992  6.5945786499999999  2.2134340400000001
 15.2199965499999994  8.9389110600000006  6.3475087700000001
 15.0257424499999992 10.7780331999999994  8.8034695999999997
 15.1627444199999992 12.8514992400000008 11.2845244800000000
 14.9767814500000007 15.3352906900000008 12.8323713500000007
 15.0196562199999999 17.6250888100000012 15.0757860299999997
 15.1405130000000003 19.6971723400000016 17.3629635600000007
 15.4207327400000000  0.1066614100000000 19.7126541300000007
 15.3380553600000002  2.0914356100000000  0.4034199500000000
 15.2283543899999998  4.4937504099999996  2.3472029800000000
 15.2775773699999995  6.9040138899999999  4.2928619399999999
 17.2544884900000000  8.6991555599999995  8.5673498499999994
 17.3258696500000013 10.7339000599999999 10.8400418599999995
 17.2647785800000015 13.0634578999999995 13.3859355900000008
 16.8900341199999993 15.3432966999999998 15.3597033500000002
 17.3507767599999987 17.4603499900000010 17.2875665400000003
 17.2542326499999987 19.8123282200000013 19.7260746800000000
 17.5704618799999999  0.1063039800000000  0.3263361100000000
 17.4724959499999990  2.2234556599999999  2.2548940100000001
 17.3759444899999984  4.4460640299999996  4.0954693200000003
 17.4312274699999996  6.4762659200000003  6.1131455299999997
 19.2213626499999997  8.5585856099999997 10.7461088700000005
 19.1467916900000006 10.8847223300000007 13.1133282399999995
 19.6213175799999995 13.0793802600000006 15.0944567700000007
 19.5405926500000007 15.4337865999999995 17.1110250999999991
 19.3948613999999999 17.1546088899999987 19.6172900500000011
 19.3755951599999996 19.3589326100000001  0.1439186000000000
 19.6469130999999990 -0.0740549600000000  1.9150727900000000
 19.5620316000000010  2.2907109299999999  4.2009843800000004
 19.6061721599999998  4.4852117199999997  6.3862949999999996
 19.3467274399999987  6.4030031000000003  8.8406496400000005
 -0.2963185700000000  9.0328103199999994 12.9728080699999992
  0.0854181600000000 10.8579989200000000 15.4811955500000007
 -0.1359474200000000 12.5103688900000005 17.3339983999999987
 -0.0748928400000000 15.0115508299999991 19.5672551800000001
  0.3202192400000000 17.3803907299999985 -0.0724849200000000
  0.0526808600000000 19.4437950800000010  2.1864937599999998
 -0.0722769100000000  0.2828526800000000  4.2410662800000001
 -0.1649976700000000  2.4371963100000000  6.3705694099999999
  0.1075531700000000  4.3296963699999997  8.8974875299999994
 -0.0843136800000000  6.6337184699999998 11.0190245900000008
  2.0323984400000001  8.4947088199999996 14.7782348100000007
  2.5053012099999998 10.3468340500000000 17.2522330299999993
  1.9841158800000001 12.7443951099999992 19.3582581500000011
  2.1670029700000000 15.0283540200000001 -0.3741028300000000
  2.3420797000000002 16.7436298299999997  2.3891348799999998
  2.1697042500000001 19.2871507000000015  4.2459102099999999
  1.9541868000000000  0.1259094700000000  6.2548505700000003
  1.9535156400000000  1.9599668400000001  8.4971064300000005
  2.2725737200000000  4.4552145400000001 11.2138425399999999
  2.1741682600000001  6.4691880700000004 13.1165856200000004
  4.2285781499999997  8.5680868599999993 17.1242343900000016
  4.2932146199999996 10.7267210300000002 19.4320306400000007
  4.4543389600000003 12.7625336399999991  0.0228942100000000
  4.6143767000000002 15.3422660799999999  2.1684873300000000
  4.3856397700000000 17.2664240100000015  4.1482819700000002
  3.9826767699999999 19.4408970900000000  6.3959872100000004
  4.2606525299999998  0.0572824700000000  8.5481966699999994