Li                                      
   1.00000000000000     
    21.6720000000000006    0.0000000000000000    0.0000000000000000
     0.0000000000000000   21.6720000000000006    0.0000000000000000
     0.0000000000000000    0.0000000000000000   21.6720000000000006
   Li
   432
Direct
  0.0260541177556277  0.0056950645994860  0.9921438455149527
  0.9252847342192680  0.0769311046511660  0.0800565669988913
  0.8267442483388692  0.1663308157991850  0.1672475609080806
  0.7741674617017367  0.2413015785345181  0.2521212527685464
  0.6819904517349542  0.3033546696197860  0.3176644582871901
  0.5890352482465886  0.3794167271133233  0.4114264645625667
  0.5116196590070103  0.4654674663159852  0.4916120191952729
  0.4330591592838715  0.5691259726836506  0.5744059403839046
  0.3669010829641906  0.6892567787929096  0.6701943387781455
  0.2331208185677340  0.7720333190291626  0.7500939659468457
  0.1714529332779620  0.8050995441122168  0.8439398191214451
  0.0831030089516460  0.9158490711517189  0.9458759279254352
  0.0890556196936103  0.9245747582133603  0.0672104475821342
  0.0192003991325223  0.9920234353082336  0.1480421825396832
  0.8990131487633803  0.0738877339424135  0.2712851250461412
  0.8361681141565143  0.1703457105943187  0.3306178206902928
  0.7836561489479479  0.2461254162052384  0.4544831967515677
  0.6874054245108923  0.3172091795865626  0.4966149520118108
  0.5811973283499441  0.4203753442229612  0.5734958448689582
  0.4864047337578441  0.4946464008859337  0.6534435677371704
  0.4397449944628988  0.5856928326873359  0.7705615628460691
  0.3613319061461766  0.6768783227205617  0.8223123629568079
  0.3083426319675127  0.7566696054817257  0.9052710382059814
  0.1732000738279780  0.8157968323181990  0.0095409274640090
  0.1544552320967156  0.8022878114617953  0.1464218475452199
  0.0944342068106323  0.9401184976005936  0.2228509523809521
  0.9906751135105196  0.9987921202473231  0.3282105869324496
  0.9220317995570326  0.0812308434846827  0.4154531695275026
  0.8585770819490577  0.1464844255260260  0.5183534228497564
  0.7715791920450386  0.2329371100959747  0.6121084639165773
  0.6628917894056841  0.3357625918235527  0.6661653308416362
  0.5983856118493875  0.4148637504614214  0.7160410022148369
  0.5302356981358400  0.4737810931155408  0.8176208914728704
  0.4269760880398650  0.5372044781284586  0.9270736120339578
  0.3816644670542644  0.6598312343115538  0.0253532262827605
  0.2702230800110712  0.7404708254891119  0.0973848380398650
  0.2580373352713181  0.7319047577519413  0.2524045210409724
  0.1571457456626035  0.8223152727021059  0.3412434754521954
  0.1008478714470300  0.9100212177002618  0.3786470205795496
  0.0321161872462170  0.9747026065891475  0.5048403105389454
  0.9047046945367327  0.0636029342008086  0.5793337569213719
  0.8241111821705402  0.1426730989294924  0.6975591057585859
  0.7472701822628238  0.2055445224252495  0.7450893138612003
  0.6489871479328144  0.3208308181063089  0.7686606746031757
  0.6136951005906255  0.3968521133259486  0.8934345251937970
  0.5216283600959741  0.4688812453857523  0.9990103419158345
  0.4494238196751539  0.5512179545035067  0.0893030227943896
  0.3493293618493922  0.6343800876707277  0.1827881390734589
  0.3547679951088938  0.6551206819859701  0.3232311143410840
  0.2741902911591012  0.7647079226651883  0.3979007761166500
  0.1949797914359550  0.8550127800849054  0.5162184952934652
  0.0750368484680664  0.9107310538944233  0.5929860105204838
  0.0261274912329270  0.0117839585640453  0.6860056644518266
  0.9237399358619385  0.0591544965854567  0.7509955384828331
  0.8598724386304895  0.1811933887043153  0.7982735991140615
  0.7434670602620912  0.2653315333148782  0.8845092174233997
  0.6660093447766684  0.3147195671834595  0.0019393263196719
  0.5775121530084917  0.3989296843853793  0.1043992386489450
  0.5130484325396836  0.4651469264488739  0.1721545321151723
  0.4191257410483544  0.5532226555001856  0.2527763247508332
  0.4044163062938324  0.5659631967515679  0.3924449949243254
  0.3460546566998914  0.6677957747323759  0.4771624732373567
  0.2649115079365103  0.7631446410114435  0.5468953779069778
  0.1812145694905851  0.8311775401439618  0.6595323698781854
  0.1015458347176050  0.8882678179217436  0.7568212481543029
  0.0251072503691390  0.0112944149132517  0.8291401338132118
  0.9175205435585099  0.0888310894241400  0.8930335635843463
  0.8703202597822042  0.1861441948135862  0.9834672466777405
  0.7353520690291617  0.2616568493909170  0.0643931856773747
  0.6663779129752641  0.3177361309523832  0.1923809837578432
  0.5885567451088960  0.3836824575489075  0.2459510663528945
  0.4808539788667403  0.4722119592100427  0.3468221982281250
  0.1120649423218865  0.0928321742340330  0.8913187393872306
  0.9829476130490988  0.1755041260612771  0.9708152459394626
  0.9321125489110358  0.2300941897379118  0.0971645007382804
  0.8378332378183799  0.3347154138981168  0.1933162744555190
  0.7747393710778852  0.4157059657622710  0.2688323181985979
  0.6635732488925825  0.4949086794019948  0.3241687029346636
  0.5362326638058335  0.5719828848283512  0.4054658619416784
  0.4938502371723885  0.6830609542266544  0.4848611138796599
  0.4353501504245116  0.7438647932816522  0.6153480357142840
  0.3295162583056452  0.8505477260981920  0.7013375299926139
  0.2464664876338105  0.9280870570321156  0.7718061789405652
  0.1526703050018483  0.9925682770394957  0.8301081778331465
  0.1641648500369115  0.0105472554448127  0.9818578571428560
  0.0798168083241038  0.1145116957364323  0.0816076725729076
  0.9743934671465482  0.1558354494278333  0.1822115374677011
  0.9174835294389041  0.2586312518456992  0.2574388759689938
  0.8498896686969388  0.3322596313215200  0.3591735991140652
  0.7446459934477687  0.4042217884828361  0.4338378400701330
  0.6841700507567339  0.4807322005352503  0.4863819273717240
  0.5701058960871137  0.5824075784422291  0.5672066306755283
  0.5135311466408297  0.6641738104466626  0.6949142100406078
  0.4309833914728713  0.7548317312661510  0.7555922591362148
  0.3528666089885562  0.8451337273901842  0.8326247932816528
  0.2349450687523102  0.8958545090439287  0.9139654157438173
  0.2451353405315615  0.9148436443337005  0.0894857678109986
  0.1660950396825385  0.0161974510889635  0.1486366315983787
  0.0788825466039142  0.0610652205610904  0.2524150502953120
  0.9865185026762617  0.1363459394610587  0.3474534916020673
  0.9362902404023643  0.2453504641934288  0.4202585986526373
  0.8593240992986324  0.3407509662237018  0.5397944988925829
  0.7372981418420110  0.4304499497046876  0.5920498477297897
  0.6779609703765246  0.5329598624953888  0.6456844315245505
  0.5623305809339243  0.5841900950535219  0.7732865134736073
  0.4803308259505386  0.6686052214839435  0.8717664322628309
  0.4245941989664104  0.7660235575858252  0.9367915637689208
  0.3346687813768909  0.8214434551494989  0.0042314216500543
  0.3444736904761925  0.8037631796788460  0.1989812643041731
  0.2437870519564385  0.8999680786267987  0.2248435755813958
  0.1723116938907339  0.0038720468807654  0.3242068327796233
  0.0878186997046910  0.0536357447397577  0.4525538053709823
  0.0177547148394268  0.1576728391472884  0.5257306732189022
  0.9158323338870460  0.2449458854743440  0.6065752800849040
  0.8134810428202286  0.3531840688445911  0.7013016191399046
  0.7538278469915127  0.4179232009043901  0.7361613478220761
  0.6698324796973054  0.5074649875415247  0.8260918069398286
  0.5697262278516035  0.5661756427648612  0.9371928612956779
  0.5139477971576198  0.6409886263381352  0.0083504166666657
  0.4535096654669601  0.7223368844592102  0.1064380652454773
  0.4262168692321922  0.7330227727021068  0.2608044970468839
  0.3625562260059070  0.8577786069582842  0.3181143641565143
  0.2683364770210375  0.9014620487264651  0.3867063948874119
  0.1927019855112562  0.9648989244186055  0.5002338625876703
  0.1402386443336994  0.0911884980620172  0.5859149326319653
  0.0016624178663704  0.1458878977482456  0.6761388016795848
  0.9279107908822439  0.2625812444629005  0.7207668512366183
  0.8452421470099694  0.3383189811738632  0.8292642474160203
  0.7429355943152487  0.3934923541897390  0.8885449081764492
  0.6731752902362516  0.4744591477482487  0.0133569296788494
  0.6068370155038778  0.5354219301402736  0.1066272651347333
  0.5052316154485084  0.6465804143595406  0.1938115047065310
  0.5092796004060531  0.6651534131598353  0.3279060792727932
  0.4195898015872999  0.7444258245662638  0.4201067797157592
  0.3519954609634581  0.8443393752307102  0.5104381446105606
  0.2837771493170891  0.9130557350498307  0.6114570791805107
  0.1718402445551845  0.9987126896456289  0.6763359348468043
  0.1029411623292731  0.0919114871723892  0.7432302782392028
  0.9783346636212613  0.1860038815060889  0.8182955274086368
  0.9039075161498715  0.2773610123661854  0.9147403363787348
  0.8386618364710259  0.3266963302879304  0.0236613556662988
  0.7158727210225209  0.4204282678109976  0.1067161955518614
  0.6868336872462137  0.4942922180693969  0.1942726112033952
  0.5585283139534880  0.5635680094130677  0.2625747452934633
  0.1724996668512375  0.2053206695275023  0.8128916555924661
  0.1016641177556323  0.2567275802879294  0.9049342603359136
  0.9941250692137302  0.3178546257844204  0.0196920916389800
  0.9227428040789931  0.4183046207087457  0.0893136101882632
  0.8405006469176826  0.5095228091546673  0.1638214664082653
  0.7836169892026561  0.5997952833148759  0.2676677796234799
  0.6553844892026603  0.6521564234957538  0.3258445976375057
  0.5840861355666291  0.7892043586194148  0.3861136854005167
  0.4954566643595442  0.8595415854558865  0.5245402523994116
  0.4042094430601679  0.9083629249723160  0.5896825526024330
  0.3136273385012913  0.0114689622554422  0.7025649326319652
  0.2677209186969378  0.0899005800110757  0.7688029305094162
  0.2397062301587312  0.0988460801956421  0.8903619153746760
  0.1562528391472853  0.1629989285714259  0.9821146340900668
  0.0582859754521934  0.2321320694905893  0.0769673080472515
  0.9658673343484665  0.3504381238464376  0.1577378257659632
  0.9090274617017329  0.4332805144887431  0.2869471936138765
  0.8419463145994825  0.4953213349021794  0.3612718886120305
  0.7449993410852684  0.6030832198228140  0.4222076790328515
  0.6554400401439651  0.6818420879475795  0.4882265305463278
  0.5524981875230708  0.7762719739756392  0.6019307092100377
  0.4973778866740517  0.8526080610926527  0.6714289036544869
  0.4364116786637169  0.9397659330011052  0.7680328908268734
  0.3655059966777401  0.9871221419342930  0.8411420953303832
  0.3044461221853112  0.9933160409745270  0.9646508550203023
  0.2389027404023594  0.0843158416389826  0.0943783942414171
  0.1470299312476939  0.1685451042820247  0.1640226628829851
  0.0644891791251396  0.2656627602436288  0.2576887776854946
  0.9983689221114815  0.3642754595791828  0.3310411064968619
  0.9067406930601720  0.4006724543189364  0.4334312283130330
  0.8111653373015884  0.4953664470284238  0.5065846276301187
  0.7340609754521950  0.6020168909191597  0.5728721451642684
  0.6571100747508325  0.7114393816906599  0.6738426781100060
  0.5595944896640859  0.7674679821889967  0.7630090203949820
  0.5108079046696190  0.8495735345145832  0.8587696124031012
  0.4414368923034360  0.9291919342930939  0.9452303492986331
  0.3947202916205228  0.9108630472499044  0.1091246520856402
  0.3340828631413828  0.9981063385935798  0.1737287458471783
  0.2441174303248417  0.0961018295496459  0.2150197951273540
  0.1329537435400496  0.1613284159283879  0.3535294638242874
  0.0825091325212242  0.2727507461240322  0.4276429891103746
  0.9875437753783700  0.3317169296788478  0.5165344222960471
  0.8914198357327408  0.4497564742524887  0.6302983873200461
  0.8101224400147657  0.4952678668327763  0.7006585931155414
  0.7550032373569593  0.6098912763012194  0.7547948338870398
  0.6548931229235890  0.6912671313215242  0.8500056349206346
  0.5743139193429343  0.7263479282022871  0.9351958956256894
  0.5142564202657809  0.7881739036544815  0.0388607784237749
  0.4856423975636801  0.8238720708748630  0.1830247471391644
  0.4146190979143611  0.9381175235326680  0.2470752214839393
  0.3058834219269073  0.0175315877630098  0.3365100184569982
  0.2269866528239177  0.0685212213916557  0.4180698588039888
  0.1676383587116987  0.1695555311000376  0.4753451596530098
  0.0963312024732375  0.2408966108342554  0.5801174741602040
  0.0151176102805479  0.3668788930417151  0.6848571377814707
  0.9373540490033250  0.4357413062938349  0.7734783199520123
  0.8164580763196767  0.5332931847545197  0.8307091449796999
  0.6924596663898086  0.5736477657807342  0.9249811392580298
  0.6720644310631201  0.6905680135658940  0.0129918443152448
  0.6102776162790704  0.7439432470468788  0.1098487352344009
  0.5831529858803961  0.7645822185308262  0.2633673749538588
  0.4592658517903274  0.8641572411406457  0.3213037075489140
  0.4078728013104467  0.9592578940568472  0.4228518240125538
  0.3209756003137656  0.9826366205241754  0.5007402048726490
  0.2555920801033622  0.0867108767072722  0.5961465074750834
  0.1822488039867096  0.1797820681063129  0.6743420201181252
  0.0707401725729042  0.2618261171096350  0.7440656925987454
  0.0205567188076756  0.3368743503137708  0.8440106113879651
  0.9217043470837964  0.4328287389257994  0.9322905449427807
  0.8159101522702130  0.4821706450719816  0.9881677971576224
  0.7366063944259906  0.5811685580472528  0.0871859523809491
  0.6774431607604257  0.6531462407715054  0.2108112476928738
  0.2523682539682568  0.2820031962901410  0.7371996447028408
  0.1734011581764463  0.3297549132521240  0.8091471073274263
  0.1004448380398699  0.4170515093207854  0.9476047951273543
  0.9780075761351057  0.4965114756367655  0.9778399903100805
  0.8975300193798432  0.6060159722222238  0.0621359768364727
  0.8373239673311161  0.6816787181616846  0.1761504812661485
  0.7579374653931339  0.7679333517903260  0.2633575341454417
  0.6881065928386860  0.8726948708010340  0.2947543470837957
  0.5583623523440409  0.9053051121262428  0.3869266089885599
  0.4800710414359557  0.0023555712440029  0.5072785506644522
  0.3909793115540765  0.0641649423218880  0.5703210931155382
  0.3121958402547094  0.1643754332779608  0.7064247305278712
  0.3594774164820933  0.1826584334625352  0.8146107152085662
  0.2651107253599108  0.2421857645810235  0.9069378492986360
  0.1871069652085637  0.3129577413252136  0.9985301642672582
  0.0768697042266524  0.4063599206349195  0.0693476393503119
  0.9797049058693261  0.4963457027500908  0.1725662933739400
  0.9098510806570701  0.5696247139165749  0.2592869504429700
  0.8244616514396483  0.6777516768180121  0.3071383614802485
  0.7856668277039489  0.7633763418235517  0.4062930352528582
  0.6450338958102648  0.8194226988741207  0.4907390919158345
  0.5665053396087103  0.9107664516426723  0.5677893899963067
  0.4810014945551870  0.9857841629752642  0.6443682332041334
  0.4168885008305665  0.0969974672388361  0.7377925461424866
  0.4056510040605374  0.0977267284975980  0.9124331178479110
  0.3388659426910294  0.1627293923034330  0.9695835968069417
  0.2613392990956100  0.2382424981542997  0.0767967437246213
  0.1631972069951999  0.3325440310077497  0.1594487292358835
  0.0747166846622349  0.4080684629937252  0.2597560631229214
  0.0024173209671474  0.5308209819121430  0.3714440919158335
  0.8954804461978583  0.6118270616463661  0.4267089770210433
  0.8371273126615009  0.6810580338685881  0.5097618447766692
  0.7301033923957192  0.7809350433739368  0.6072627413252150
  0.6164077994647457  0.8555978839055030  0.7040108314876363
  0.5836859007013686  0.9484167215762298  0.7312092414174955
  0.4994028917497246  0.0263875036913959  0.8377445016611276
  0.5087378377630145  0.0064303220745643  0.9999143793835330
  0.4069217580287940  0.1019930514027294  0.0667148278885179
  0.3302623569582863  0.1611868493909157  0.1333639096530064
  0.2371361272609818  0.2709805610926566  0.2386365051679604
  0.1508899944629007  0.3292527219453660  0.3369379955703238
  0.0825660861941699  0.3980295496493156  0.4291718493909187
  0.9525748218899963  0.5100410797342221  0.4941974178663742
  0.8954727025655203  0.5628249972314521  0.5562481626061242
  0.8099397236064974  0.6697826296603893  0.6704050682908829
  0.7395913759689918  0.7868270999446310  0.7575548495754916
  0.6207520994832052  0.8341227187153919  0.8452381404577309
  0.5485759136212636  0.9065168687707654  0.9172476098191211
  0.5845490356220040  0.9215973578811401  0.0940028363787349
  0.4954185506644535  0.0353901282761200  0.1651845593392380
  0.4232020279623470  0.0932063141380581  0.2277514433370271
  0.3143923394241384  0.1809772619047649  0.3365181293835349
  0.2226744675156880  0.2311641071428596  0.4000476555001811
  0.1649053649870780  0.3223461586378704  0.5115720939461070
  0.0806084851421218  0.4525784583794774  0.5965794066076029
  0.9823813210594281  0.5153583536360316  0.6745605223329676
  0.9170202625507571  0.6000884043927641  0.7503016352897731
  0.8028289737910654  0.6747702459394631  0.8509703755998501
  0.7490753202288687  0.7707654674234021  0.9356964857881138
  0.6501052653193042  0.8534114871723872  0.9979440356219982
  0.6810974413990394  0.8316316500553711  0.1565183273348083
  0.5777124810815764  0.9393263487449275  0.2110466477482476
  0.5150791828165353  0.0200154738833547  0.3233872185308257
  0.4140888981173845  0.0856472088409035  0.4227144850498306
  0.2903894490586936  0.1814110437430756  0.5055887550756708
  0.2209399400147660  0.2494552883905499  0.5850546793097067
  0.1476808702473207  0.3208083693244745  0.6561133393318599
  0.0840547319121470  0.4293222614433390  0.7818513653562178
  0.0167515277777781  0.5293442783314859  0.8416698002030287
  0.8799248149686250  0.5808808305647872  0.9316486715577668
  0.8301627099483184  0.6712731713732012  0.9913030315614648
  0.7403665526947236  0.7409554660391251  0.0781543447766708
  0.3252785589700977  0.3483679918789235  0.6337646405500195
  0.2749858056478374  0.4228928972868218  0.7357187218530825
  0.1883055666297508  0.4963121317829433  0.8312686171096360
  0.0882944905869323  0.5904208033407130  0.9176358088778116
  0.9862334519195244  0.6691496156330743  0.9709856870616491
  0.9277875110742002  0.7505865817644874  0.0633335492801805
  0.8625225641380609  0.8335171714654876  0.1708758757844251
  0.7627323897194529  0.9242864345699502  0.2167917049649333
  0.6619800507567390  0.0015868341638949  0.3311704258951664
  0.5731696087117015  0.1096951841085243  0.4084627399409371
  0.4833633808600979  0.1688268627722422  0.5019635894241432
  0.4294422688261363  0.2388654900332199  0.5898166417497208
  0.4296692118863064  0.2601698168143258  0.7466505195644118
  0.3371481741417526  0.3351948975636745  0.8111211780177214
  0.2751000069213703  0.4079037675341439  0.9343994555186441
  0.1918276541159116  0.5201863690476216  0.0067391136028050
  0.0512721460871148  0.5761997762089308  0.0486765462347734
  0.9777534413067528  0.6439710469730500  0.1756995247323729
  0.9190575876707285  0.7628452717792555  0.2450035529715748
  0.8459266311369475  0.8715433241048345  0.3324538722775898
  0.7288185843484669  0.8939438081395323  0.4322768332410476
  0.6395203040789994  0.9850804591177535  0.5011296949981556
  0.5733585598929523  0.0753810395902548  0.5759115314691741
  0.5026015093207832  0.1628075226098176  0.6796055001845716
  0.5319808679401987  0.1638821843853790  0.8526964368770749
  0.4232210529715772  0.2723148444998174  0.9225734279254354
  0.3287551398117401  0.3270703497600564  0.0154275918235527
  0.2284497743632343  0.4329165203949827  0.0994494532115198
  0.1246012393872249  0.4756432899593932  0.1649047277593212
  0.0527381801402740  0.5773858720930249  0.2589536392580314
  0.9908802288667431  0.6617824187892225  0.3280207295127369
  0.9211831593761559  0.7763762370801004  0.4074361060354406
  0.8656794707456612  0.8479252823920262  0.5019224040236239
  0.7090478663713569  0.8740934653008523  0.6031703903654488
  0.6735841269841245  0.0030137666112964  0.6458757027500894
  0.5931761826319644  0.0763142894056870  0.7541454614248835
  0.5603618503137682  0.0611655666297537  0.9177503216131413
  0.5097338639719453  0.1714372305278715  0.9789526601144303
  0.4042392446474707  0.2499030320228854  0.0398119928940588
  0.3371959740679245  0.3324092271133239  0.1405001947212980
  0.2243850415282367  0.3806941417497214  0.2432480430970827
  0.1372705892395700  0.4754630398671083  0.3383745062753789
  0.0898158024178670  0.6191946913067525  0.4160737421557741
  0.9805559666851238  0.7007485792727977  0.5070807470468779
  0.9050422416020680  0.7537305311000395  0.5765683384090039
  0.8352798265042480  0.8461139908637847  0.7017012440014767
  0.7221399007936498  0.9255100239940930  0.7750849155592476
  0.6614443613879644  0.0041307950350671  0.8628525055370986
  0.6834923306570673  0.0254641578995916  0.9567159911406407
  0.5974845367294179  0.1021350936692471  0.0365685068290915
  0.5032793152454786  0.1772483923957182  0.1333715227021059
  0.3727678280730871  0.2363196082502768  0.2451260114433396
  0.3295271765411556  0.3138440646917715  0.3289545155038738
  0.2240872106865979  0.3914899174049467  0.4160324183277950
  0.1741674584717643  0.5177215799187920  0.4927344033776322
  0.0792211890919177  0.5829812532299741  0.5756300581395379
  0.9984450230712412  0.6595146880767828  0.6392689857881138
  0.8804883716315999  0.7642772259136237  0.7661690822259146
  0.8196223564968648  0.8316380094130693  0.8210755906238489
  0.7570445390365421  0.9146726024363261  0.9162878880583207
  0.7565048135843497  0.8934117128091543  0.0588874395533381
  0.6637357816537488  0.0320704978774486  0.1752822056109267
  0.5920560880398682  0.0822408527131770  0.2451965217792562
  0.5149972545219654  0.1945821571613138  0.2936148606496829
  0.3758867584902177  0.2195863939645619  0.4326320814876325
  0.3248022406792188  0.3292512126245839  0.4964158282576605
  0.2333356847545218  0.4202114174972280  0.5786779240494653
  0.1767339627168667  0.5020272157622756  0.6894592990956099
  0.1033602810077525  0.5792662135474345  0.7487205167958635
  0.9690188575119976  0.6635719084533065  0.8470340485419001
  0.9103284486895546  0.7771181579918789  0.9212661632521204
  0.8154904351236638  0.8238088224437092  0.0175075941306773
  0.3993994204503508  0.4298453174603196  0.5552065314691745
  0.3797683204134401  0.5101964221114770  0.6522895957918067
  0.2804967321890004  0.5654389576411987  0.7612295999446275
  0.1945111655592484  0.6486929134366903  0.8382250290697684
  0.0709438625876686  0.7480420150424507  0.9052634943706153
  0.0116900825950523  0.8590920884090067  0.0172109376153529
  0.9405050526024397  0.9394743050941301  0.0410176287375421
  0.8426483476375068  0.9980151808785536  0.1301776135105186
  0.7566414133444042  0.0598918009413083  0.2420958047249897
  0.7087993844592120  0.1777606192321883  0.3326389844038360
  0.5711019425987445  0.2313019578257638  0.3926516085271317
  0.4610091989664085  0.3269178349944610  0.4782979660391291
  0.4860768221668508  0.3214720630306402  0.6411939627168692
  0.4164292377260992  0.4080207355112577  0.7211474967700227
  0.3640083550203030  0.4759942432631945  0.8289116961978564
  0.2662831395348846  0.5972491232927268  0.9156192635658940
  0.1824308734773012  0.7059157567368004  0.9775469859726869
  0.0431374773901823  0.7229426218161663  0.0638661046511615
  0.9857096839239574  0.8267724155592475  0.1635647406792202
  0.9126785995754858  0.9436200844407523  0.2262997443706141
  0.8009582751937998  0.9879288039867120  0.3459592843300143
  0.7569808416389776  0.0845660437430809  0.4438967746400877
  0.6643321128645283  0.1457892354189738  0.5346488893503150
  0.5758661475636799  0.2509687204688049  0.5736767866371366
  0.5802712384643769  0.2292297268364720  0.7551578737541504
  0.5123612546142482  0.3460518535437416  0.8018834579180520
  0.4281694882798064  0.3940366103728294  0.9271911295681079
  0.3297645764119608  0.4986678266888163  0.0044112306201569
  0.2622125779808044  0.5907251836471019  0.0815741708194935
  0.1605452607050566  0.6486800996677715  0.1563710068290902
  0.0886332691952774  0.7395738404392773  0.2266261124953886
  0.0028218055555556  0.8325269975083032  0.3048633813215176
  0.9610847222222247  0.9363397831303075  0.4210550941306721
  0.8301858813215190  0.9779963791989630  0.5188720519564427
  0.7624849358619414  0.0659703603728303  0.5930634496124014
  0.6636903779069740  0.1561662209302312  0.6743791888150596
  0.6607180541712836  0.1533490337763013  0.8661312666112977
  0.5815658480989327  0.2741494578257644  0.8895145514950187
  0.5293356146179420  0.3542322365263928  0.0034070150424483
  0.4095202846991484  0.4181905832410493  0.0857847845145798
  0.3199429175895148  0.4791056053894422  0.1859050941306748
  0.2485726748800303  0.5496230384828351  0.2491941957364361
  0.1598891080657054  0.6991127750092261  0.3037422822074589
  0.0984777025655248  0.7362331155407915  0.4420693429309708
  0.0110410299003334  0.8629160114433390  0.4812165203949803
  0.9067657636581785  0.9336245579549640  0.6068855223329663
  0.8297020279623482  0.0041678843669217  0.6908788662790712
  0.7405621303986720  0.0655203077703916  0.7919297374492444
  0.8005944596714656  0.1047720035068309  0.8934939364156520
  0.6869562906053872  0.1537761835548181  0.9407189382613481
  0.6047731316906635  0.2346944859726818  0.0467646913067554
  0.5057641200627572  0.2747345824104812  0.1677632530454076
  0.4108494545957910  0.3964947706718362  0.2542254102067147
  0.3163113542820213  0.4767780264857890  0.3166595011997018
  0.2464158430232573  0.5681399160206695  0.3782511526393506
  0.1944117824843090  0.6762879724990754  0.4917762320044261
  0.1066982032115149  0.7624176453488403  0.6013937873754145
  0.9805010894241448  0.8124498841823566  0.6699496474713911
  0.9115353123846432  0.8996320150424495  0.7630202251753389
  0.8497030398671086  0.0013466763565901  0.8384920404208174
  0.8515952164082705  0.0164231081579942  0.9774390263935047
  0.7663251112033933  0.0889324063307484  0.0469222088409040
  0.6653285502030286  0.1500778040789967  0.1550356755260225
  0.5886012333887010  0.2254713944259876  0.2250681713732021
  0.4666465836101850  0.2833654752676296  0.3147467746400920
  0.4042140393134019  0.4126921184016226  0.4051090060908109
  0.2976061401808749  0.5167589456441490  0.5143155795496526
  0.2691804941860454  0.6051468673864875  0.5746186272609819
  0.1843034579180483  0.6612771520856384  0.6824057742709471
  0.0650241929678828  0.7456027962347704  0.7584193729235906
  0.0026599732373569  0.8378262440014765  0.8397298011258769
  0.9254266625138428  0.9103051799557065  0.9062136115725394
 
  0.00000000E+00  0.00000000E+00  0.00000000E+00
  0.00000000E+00  0.00000000E+00  0.00000000E+00
  0.00000000E+00  0.00000000E+00  0.00000000E+00
  0.00000000E+00  0.00000000E+00  0.00000000E+00
  0.00000000E+00  0.00000000E+00  0.00000000E+00
  0.00000000E+00  0.00000000E+00  0.00000000E+00
  0.00000000E+00  0.00000000E+00  0.00000000E+00
  0.00000000E+00  0.00000000E+00  0.00000000E+00
  0.00000000E+00  0.00000000E+00  0.00000000E+00
  0.00000000E+00  0.00000000E+00  0.00000000E+00
  0.00000000E+00  0.00000000E+00  0.00000000E+00
  0.00000000E+00  0.00000000E+00  0.00000000E+00
  0.00000000E+00  0.00000000E+00  0.00000000E+00
  0.00000000E+00  0.00000000E+00  0.00000000E+00
  0.00000000E+00  0.00000000E+00  0.00000000E+00
  0.00000000E+00  0.00000000E+00  0.00000000E+00
  0.00000000E+00  0.00000000E+00  0.00000000E+00
  0.00000000E+00  0.00000000E+00  0.00000000E+00
  0.00000000E+00  0.00000000E+00  0.00000000E+00
  0.00000000E+00  0.00000000E+00  0.00000000E+00
  0.00000000E+00  0.00000000E+00  0.00000000E+00
  0.00000000E+00  0.00000000E+00  0.00000000E+00
  0.00000000E+00  0.00000000E+00  0.00000000E+00
  0.00000000E+00  0.00000000E+00  0.00000000E+00
  0.00000000E+00  0.00000000E+00  0.00000000E+00
  0.00000000E+00  0.00000000E+00  0.00000000E+00
  0.00000000E+00  0.00000000E+00  0.00000000E+00
  0.00000000E+00  0.00000000E+00  0.00000000E+00
  0.00000000E+00  0.00000000E+00  0.00000000E+00
  0.00000000E+00  0.00000000E+00  0.00000000E+00
  0.00000000E+00  0.00000000E+00  0.00000000E+00
  0.00000000E+00  0.00000000E+00  0.00000000E+00
  0.00000000E+00  0.00000000E+00  0.00000000E+00
  0.00000000E+00  0.00000000E+00  0.00000000E+00
  0.00000000E+00  0.00000000E+00  0.00000000E+00
  0.00000000E+00  0.00000000E+00  0.00000000E+00
  0.00000000E+00  0.00000000E+00  0.00000000E+00
  0.00000000E+00  0.00000000E+00  0.00000000E+00
  0.00000000E+00  0.00000000E+00  0.00000000E+00
  0.00000000E+00  0.00000000E+00  0.00000000E+00
  0.00000000E+00  0.00000000E+00  0.00000000E+00
  0.00000000E+00  0.00000000E+00  0.00000000E+00
  0.00000000E+00  0.00000000E+00  0.00000000E+00
  0.00000000E+00  0.00000000E+00  0.00000000E+00
  0.00000000E+00  0.00000000E+00  0.00000000E+00
  0.00000000E+00  0.00000000E+00  0.00000000E+00
  0.00000000E+00  0.00000000E+00  0.00000000E+00
  0.00000000E+00  0.00000000E+00  0.00000000E+00
  0.00000000E+00  0.00000000E+00  0.00000000E+00
  0.00000000E+00  0.00000000E+00  0.00000000E+00
  0.00000000E+00  0.00000000E+00  0.00000000E+00
  0.00000000E+00  0.00000000E+00  0.00000000E+00
  0.00000000E+00  0.00000000E+00  0.00000000E+00
  0.00000000E+00  0.00000000E+00  0.00000000E+00
  0.00000000E+00  0.00000000E+00  0.00000000E+00
  0.00000000E+00  0.00000000E+00  0.00000000E+00
  0.00000000E+00  0.00000000E+00  0.00000000E+00
  0.00000000E+00  0.00000000E+00  0.00000000E+00
  0.00000000E+00  0.00000000E+00  0.00000000E+00
  0.00000000E+00  0.00000000E+00  0.00000000E+00
  0.00000000E+00  0.00000000E+00  0.00000000E+00
  0.00000000E+00  0.00000000E+00  0.00000000E+00
  0.00000000E+00  0.00000000E+00  0.00000000E+00
  0.00000000E+00  0.00000000E+00  0.00000000E+00
  0.00000000E+00  0.00000000E+00  0.00000000E+00
  0.00000000E+00  0.00000000E+00  0.00000000E+00
  0.00000000E+00  0.00000000E+00  0.00000000E+00
  0.00000000E+00  0.00000000E+00  0.00000000E+00