Li 
 1.0000000000000000
    21.6720000000000006    0.0000000000000000    0.0000000000000000
     0.0000000000000000   21.6720000000000006    0.0000000000000000
     0.0000000000000000    0.0000000000000000   21.6720000000000006
 Li 
 432
Cartesian
  0.5646448400000000  0.1234234400000000 -0.1702585800000000
 20.0527707600000014  1.6672509000000000  1.7349859200000000
 17.9172013499999991  3.6047214400000001  3.6245891399999999
 16.7777572299999989  5.2294878100000002  5.4639717900000004
 14.7800970700000001  6.5743023999999997  6.8844241400000001
 12.7655718999999994  8.2227193100000004  8.9164343400000003
 11.0878212499999993 10.0876109300000003 10.6542156800000001
  9.3852580999999997 12.3340980800000004 12.4485255400000003
  7.9514802700000002 14.9375729100000001 14.5244517099999992
  5.0521943800000004 16.7315060899999999 16.2560364300000018
  3.7157279700000001 17.4481173200000015 18.2898637599999994
  1.8010084099999999 19.8482810699999987 20.4990231099999995
  1.9300133900000001 20.0373841599999984  1.4565848200000000
  0.4161110500000000 -0.1728681100000000  3.2083701800000002
 19.4834129599999990  1.6012949700000001  5.8792912299999998
 18.1214353700000004  3.6917322399999999  7.1651494099999997
 16.9833960600000005  5.3340300200000001  9.8495598399999995
 14.8974503600000006  6.8745573400000000 10.7626392400000004
 12.5957085000000006  9.1103744599999992 12.4288019500000004
 10.5413633900000008 10.7199767999999995 14.1614290000000000
  9.5301535200000007 12.6931350700000003 16.6996101900000014
  7.8307850700000001 14.6693070100000007 17.8211535300000001
  6.6824015200000000 16.3985436900000003 19.6190339400000013
  3.7535919999999998 17.6799489500000000  0.2067709800000000
  3.3473537900000001 17.3871814499999999  3.1732542800000001
  2.0465781299999999 20.3742480800000010  4.8296258400000003
 -0.2020889400000000 -0.0261771700000000  7.1129798400000004
 19.9822731599999983  1.7604348400000001  9.0037010899999999
 18.6070825199999987  3.1746104700000002 11.2337553799999998
 16.7216642499999999  5.0482130500000002 13.2656146300000000
 14.3661908599999997  7.2766468900000003 14.4371350500000002
 12.9682129800000006  8.9909271999999998 15.5180406000000009
 11.4912680500000004 10.2677838500000007 17.7194799600000010
  9.2534257800000006 11.6422954500000007 20.0915393199999990
  8.2714323299999997 14.2998625100000005 22.2214551200000017
  5.8562745899999999 16.0474837299999997  2.1105242099999999
  5.5921851299999998 15.8618399100000005  5.4701107799999997
  3.4056625999999999 17.8212165899999988  7.3954285999999998
  2.1855750700000001 19.7219798299999987  8.2060382300000008
  0.6960220100000000 -0.5482451100000000 10.9408992099999995
 19.6067601399999987  1.3784027900000000 12.5553211800000000
 17.8601375400000002  3.0920114000000001 15.1175009399999993
 16.1948393899999985  4.4545608899999998 16.1475756100000005
 14.0648494700000004  6.9530454900000001 16.6584141400000014
 13.3000002199999994  8.6005789999999998 19.3625130299999988
 11.3047298200000004 10.1615943499999997 -0.0214478700000000
  9.7399130199999995 11.9459955099999995  1.9353751100000001
  7.5706659299999997 13.7482852599999994  3.9613845500000000
  7.6885319900000004 14.1977754199999993  7.0050647100000001
  5.9422519899999999 16.5727501000000004  8.6233056200000000
  4.2256020400000001 18.5298369700000016 11.1874872300000003
  1.6261985800000001 19.7373633999999996 12.8511928199999996
  0.5662349900000000  0.2553819500000000 14.8671147599999998
 20.0192918900000016  1.2819962499999999 16.2755753100000007
 18.6351554899999989  3.9268231199999999 17.3001854399999999
 16.1124181299999982  5.7502649899999998 19.1690837599999995
 14.4337545200000008  6.8206024599999999  0.0420290800000000
 12.5158433799999997  8.6456041199999998  2.2625402999999999
 11.1187856299999996 10.0806641900000002  3.7309330200000002
  9.0832930600000008 11.9894413899999996  5.4781685099999997
  8.7645101899999993 12.2655543999999992  8.5050679299999992
  7.4996965199999996 14.4724700300000002 10.3410651199999997
  5.7411621999999998 16.5388706600000006 11.8523166300000007
  3.9272821499999999 18.0132796500000012 14.2933855199999993
  2.2007013299999998 19.2505401499999991 16.4018300900000007
  0.5441243300000000  0.2447725600000000 17.9691249800000001
 19.8845052200000012  1.9251473699999999 19.3538233899999987
 18.8615806699999986  4.0341169900000002 21.3137021699999991
 15.9365500400000002  5.6706272400000000  1.3955291200000000
 14.4417421299999997  6.8859774299999996  4.1692806800000000
 12.7552017800000002  8.3151662200000001  5.3302515100000001
 10.4210674300000008 10.2337775799999999  7.5163306800000003
  2.4286714300000001  2.0118588800000001 19.3166597200000005
 -0.3695593300000000  3.8035254200000002 -0.6324919900000000
 20.2007431599999983  4.9866012800000004  2.1057490600000000
 18.1575219300000015  7.2539524499999999  4.1895502999999996
 16.7901516499999985  9.0091796899999999  5.8261339999999997
 14.3809594500000006 10.7256608999999994  7.0253841299999999
 11.6212342900000003 12.3960130799999995  8.7872561600000001
 10.7027223399999993 14.8032970000000006 10.5079100600000004
  9.4349084600000008 16.1210377999999999 13.3358226299999991
  7.1412763500000001 18.4330703199999988 15.1993869499999992
  5.3414217199999996 20.1135027000000015 16.7265835100000011
  3.3086708499999999 -0.1610603000000000 17.9901044299999988
  3.5577806299999999  0.2285801200000000 -0.3931765200000000
  1.7297898700000001  2.4816974699999998  1.7686014800000001
 -0.5549447800000000  3.3772658600000001  3.9488884400000002
 19.8837030500000012  5.6050564899999999  5.5792153200000003
 18.4188088999999984  7.2007307300000001  7.7840102399999997
 16.1379679699999983  8.7602945999999999  9.4021336699999996
 14.8273333399999991 10.4184282499999998 10.5408691300000008
 12.3553349800000003 12.6219370400000006 12.2925021000000001
 11.1292470100000003 14.3939748200000004 15.0601807599999997
  9.3402720600000002 16.3587132799999999 16.3751954399999988
  7.6473251500000003 18.3157381400000006 18.0446445199999985
  5.0917295300000003 19.4149589200000001 19.8074584899999984
  5.3125730999999998 19.8264914599999997  1.9393355600000000
  3.5996117000000001  0.3510311600000000  3.2212530799999999
  1.7095425500000001  1.3234054600000000  5.4703389700000002
 -0.2921710100000000  2.9548892000000002  7.5300120699999997
 20.2912820899999993  5.3172352600000004  9.1078443500000006
 18.6232718800000008  7.3847549399999997 11.6984263800000008
 15.9787253299999996  9.3287113099999992 12.8309043000000003
 14.6927701499999994 11.5503061400000000 13.9932730000000003
 12.1868283500000008 12.6605677399999994 16.7586653199999986
 10.4097296600000000 14.4900123599999997 18.8929221200000015
  9.2018054800000009 16.6012625400000005 20.3021467700000002
  7.2529418300000001 17.8023225600000004 21.7637033700000018
  7.4654338200000003 17.4191556299999988  4.3123219600000002
  5.2833529900000000 19.5041082000000010  4.8728099699999996
  3.7343390300000001  0.0839150000000000  7.0262104799999996
  1.9032068600000001  1.1623938599999999  9.8077460700000003
  0.3847801800000000  3.4170857699999999 11.3936351499999997
 19.8479183399999997  5.3084672299999998 13.1456994700000003
 17.6297611600000010  7.6542051400000002 15.1986086900000004
 16.3369570999999993  9.0572316100000005 15.9540887300000005
 14.5166094999999995 10.9977812099999994 17.9030616400000007
 12.3471068099999997 12.2701585299999998 20.3108436899999987
 11.1382766600000007 13.8915055100000000 21.8529702300000004
  9.8284614700000006 15.6544849599999996  2.3067257500000000
  9.2369719900000007 15.8860695300000003  5.6521550600000001
  7.8573185299999997 18.5897779700000001  6.8941745000000001
  5.8153881299999997 19.5364855199999994  8.3807009899999994
  4.1762374299999996 -0.7607105100000000 10.8410682699999992
  3.0392519000000000  1.9762371299999999 12.6979484199999995
  0.0360279200000000  3.1616825199999998 14.6532801100000007
 20.1096826600000007  5.6906607300000003 15.6204592000000009
 18.3180878100000015  7.3320489599999998 17.9718147700000017
 16.1009002000000017  8.5277662999999997 19.2565452499999985
 14.5890548899999999 10.2824786499999998 21.9614713799999990
 13.1513717999999997 11.6036640700000007  2.3108260899999999
 10.9493795699999996 14.0126907400000000  4.2002829300000002
 11.0371074999999994 14.4152047700000008  7.1063805499999999
  9.0933501799999998 16.1331964700000015  9.1045541300000004
  7.6284456299999999 18.2985229400000016 11.0622154699999999
  6.1500183799999997 19.7877438900000016 13.2514978200000009
  3.7241217799999999 -0.0278985900000000 14.6575523800000003
  2.2309408700000000  1.9919057499999999 16.1072865900000011
 -0.4695311700000000  4.0310761199999998 17.7341006700000001
 19.5894836900000016  6.0109678600000001 19.8242525699999987
 18.1754793200000009  7.0801628699999997 22.1847889000000009
 15.5143936100000008  9.1115214200000008  2.3127533900000001
 14.8850596700000004 10.7123009499999995  4.2102760300000002
 12.1044256200000007 12.2136458999999995  5.6905198800000001
  3.7384127800000000  4.4497095499999997 17.6169879599999994
  2.2032647600000002  5.5638001199999998 19.6117352899999986
 -0.1273215000000000  6.8885454499999996  0.4267670100000000
 19.9976820500000017  9.0654977399999996  1.9356045600000000
 18.2153300199999997 11.0423783199999992  3.5503388199999999
 16.9825473900000006 12.9987633799999998  5.8008961200000000
 14.2034926499999994 14.1335340100000000  7.0617041199999999
 12.6583147300000007 17.1036368600000017  8.3678557900000001
 10.7375368299999998 18.6279852400000010 11.3678363499999993
  8.7600270499999997 19.6860413100000002 12.7796002800000004
  6.7969316800000001 21.9205553500000008 15.2259872200000004
  5.8020477499999998  1.9483253700000001 16.6614971099999991
  5.1949134199999998  2.1421922499999999 19.2959234299999984
  3.3863115300000000  3.5325127799999998 -0.3876116500000000
  1.2631736600000001  5.0307662100000003  1.6680355000000000
 -0.7397231300000000  7.5946950199999996  3.4184941599999998
 19.7004431500000017  9.3900553099999993  6.2187195800000001
 18.2466605299999998 10.7346039700000002  7.8294843700000003
 16.1456257200000017 13.0700195400000005  9.1500848200000000
 14.2046965499999995 14.7768817299999995 10.5808453700000005
 11.9737407200000003 16.8233662200000005 13.0450423299999994
 10.7791735600000003 18.4777218999999988 14.5512072000000003
  9.4579138999999994 20.3666072999999983 16.6448088100000007
  7.9212459600000003 21.3929110599999994 18.2292314900000001
  6.5979563600000004 -0.1448547600000000 -0.7660866700000000
  5.1775001899999999  1.8272929200000001  2.0453685600000000
  3.1864326699999999  3.6527094999999998  3.5546991499999998
  1.3976094900000000  5.7574433400000000  5.5846311899999996
 -0.0353487200000000  7.8945777599999998  7.1743228600000002
 19.6508843000000013  8.6833734299999996  9.3933215800000003
 17.5795751899999999 10.7355816399999995 10.9787020500000008
 15.9085694600000007 13.0469100600000001 12.4152851299999991
 14.2408895399999995 15.4183142800000006 14.6035185199999997
 12.1275317800000000 16.6325661099999991 16.5359314899999994
 11.0702289100000009 18.4119576400000007 18.6112550399999996
  9.5668203300000005 20.1374476000000016 20.4850321300000004
  8.5543781600000006 19.7402239600000016  2.3649494600000001
  7.2402438099999999 -0.0410394300000000  3.7650493799999998
  5.2905129500000001  2.0827188500000000  4.6599089999999999
  2.8813735299999998  3.4963094300000002  7.6616905400000004
  1.7881379200000000  5.9110541699999999  9.2678788599999997
 -0.2699513000000000  7.1889693000000001 11.1943339999999996
 19.3188506800000006  9.7471223100000000 13.6598266499999994
 17.5569735199999997 10.7334452099999993 15.1846730300000008
 16.3624301599999988 13.2175637399999992 16.3579136399999996
 14.1928437600000006 14.9811412700000002 18.4213221199999992
 12.4465312600000004 15.7414123000000004 20.2675654499999993
 11.1449651400000000 17.0813048400000014 22.5141907900000007
 10.5248420399999993 17.8549555200000007  3.9665123200000001
  8.9856250899999992 20.3308829700000011  5.3546142000000003
  6.6291055200000004  0.3799445700000000  7.2928451200000000
  4.9192547400000004  1.4849919100000000  9.0604099799999993
  3.6330585100000001  3.6746074700000002 10.3016802999999992
  2.0876898200000000  5.2207113500000002 12.5723058999999999
  0.3276288500000000  7.9509993699999999 14.8422238899999996
 20.3143369500000013  9.4433855900000001 16.7628221500000016
 17.6942794300000017 11.5575299000000005 18.0031285899999993
 15.0069858899999993 12.4320943800000006 20.0461912499999997
 14.5649803500000008 14.9659899900000006 21.9535592500000014
 13.2259364999999995 16.1227380499999988  2.3806417899999999
 12.6380915100000006 16.5700258399999996  5.7076977500000003
  9.9532095399999996 18.7280157299999992  6.9632939499999997
  8.8394193500000000 20.7890370799999999  9.1640447300000005
  6.9561832099999998 -0.3762991600000000 10.8520417200000008
  5.5391915599999999  1.8791981200000001 12.9196871099999999
  3.9496960799999998  3.8962369799999998 14.6143402600000005
  1.5330810200000000  5.6742956099999997 16.1253916900000007
  0.4455052100000000  7.3007409200000000 18.2913979699999985
 19.9751766099999983  9.3802644300000004 20.2046006899999995
 17.6824048199999986 10.4496022199999992 21.4155724999999997
 15.9637337800000001 12.5950849900000001  1.8894939600000000
 14.6815481800000001 14.1549853300000006  4.5687013600000004
  5.4693247999999999  6.1115732700000001 15.9765906999999991
  3.7579498999999998  7.1464484800000001 17.5358361100000018
  2.1768405300000002  9.0383403100000006 20.5364911200000009
 -0.4766198100000000 10.7603966999999994 -0.4802517300000000
 19.4512705799999992 13.1335781500000000  1.3466108900000000
 18.1464850200000001 14.7733411799999992  3.8175332300000000
 16.4260207499999993 16.6426516000000007  5.7074844799999997
 14.9126460800000000 18.9130432400000004  6.3879162100000002
 12.1008288999999998 19.6197723900000014  8.3854734700000009
 10.4040996099999994  0.0510499400000000 10.9937407500000006
  8.4733036399999992  1.3905826299999999 12.3599987299999992
  6.7659082499999998  3.5623443899999998 15.3096367600000001
  7.7905945699999997  3.9585735700000000 17.6542434200000002
  5.7454796400000001  5.2486498900000003 19.6551570700000013
  4.0549821499999998  6.7824201700000000 -0.0318542800000000
  1.6659202300000000  8.8066321999999992  1.5029020399999999
 -0.4398352800000000 10.7568040699999994  3.7398567100000002
 19.7182926199999997 12.3449068000000004  5.6192667900000002
 17.8677329100000009 14.6882343399999993  6.6563025700000003
 17.0269714900000011 16.5438920799999991  8.8051826599999998
 13.9791745899999995 17.7585287299999983 10.6352975999999995
 12.2773037200000008 19.7381305400000002 12.3051316600000007
 10.4242643899999994 21.3639143800000006 13.9647483500000007
  9.0348075899999998  2.1021291099999999 15.9894400599999997
  8.7912685600000007  2.1179336599999998 19.7742505299999998
  7.3439027100000001  3.5266713900000002 -0.6591842900000000
  5.6637452899999996  5.1631914200000004  1.6643390300000001
  3.5368098699999999  7.2068942399999996  3.4555728600000002
  1.6192599900000000  8.8436597300000006  5.6294333999999999
  0.0523881800000000 11.5039523199999998  8.0499363600000002
 19.4068522299999984 13.2595160799999991  9.2476369500000004
 18.1422231200000006 14.7598897099999995 11.0475586999999997
 15.8228007200000000 16.9244242599999986 13.1605981300000003
 13.3587898299999992 18.5425173399999998 15.2573227399999993
 12.6496408400000000 20.5540871900000006 15.8467666800000000
 10.8230594700000005  0.5718699800000000 18.1555988399999997
 11.0253664199999992  0.1393579400000000 -0.0018555700000000
  8.8188083400000004  2.2103934100000000  1.4458437500000001
  7.1574457999999996  3.4932414000000001  2.8902626499999999
  5.1392141499999999  5.8726907199999996  5.1717303399999999
  3.2700879600000001  7.1355649899999998  7.3021202399999998
  1.7893722200000000  8.6260963999999998  9.3010123199999999
 -1.0277984600000001 11.0536102799999991 10.7102464400000006
 19.4066844100000004 12.1975433399999993 12.0550101800000000
 17.5530136900000002 14.5155291500000008 14.5290186400000003
 16.0284243000000011 17.0521169099999987 16.4177287000000014
 13.4529394999999994 18.0771075600000017 18.3180009800000008
 11.8887371999999996 19.6460335800000010 19.8785902000000014
 12.6683467000000007 19.9728579400000008  2.0372294700000002
 10.7367108299999998  0.7669748600000000  3.5798797699999998
  9.1716343499999997  2.0199672400000002  4.9358292800000001
  6.8135107799999997  3.9221392200000000  7.2930209000000001
  4.8258010599999999  5.0097885299999998  8.6698327899999992
  3.5738290699999999  6.9858859500000001 11.0867904199999998
  1.7469470899999999  9.8082803500000004 12.9290689000000008
 -0.3818320100000000 11.1688462400000006 14.6190756400000001
 19.8736631300000006 13.0051158999999998 16.2605370399999991
 17.3989095200000001 14.6236207700000005 18.4422299800000005
 16.2339603399999994 16.7040292100000016 20.2784142400000000
 14.0890813099999992 18.4951337500000008 -0.0445568600000000
 14.7607437499999996 18.0231211199999990  3.3920651899999998
 12.5201848899999995 20.3570806299999987  4.5738029500000001
 11.1627960500000007  0.4337753500000000  7.0084477999999999
  8.9741345999999993  1.8561463100000000  9.1610683200000000
  6.2933201399999996  3.9315401400000001 10.9571194999999992
  4.7882103799999998  5.4061950100000002 12.6793050100000002
  3.2005398199999999  6.9525589800000001 14.2192882899999997
  1.8216341500000000  9.3042720499999998 16.9442827899999990
  0.3630391100000000 11.4719491999999992 18.2406679099999991
 19.0697305899999989 12.5888493599999993 20.1906900100000009
 17.9912862500000017 14.5478321699999995 -0.1884807000000000
 16.0452239299999988 16.0579868599999998  1.6937609600000001
  7.0494369299999997  7.5498311200000003 13.7349472899999991
  5.9594923800000004  9.1649348699999997 15.9444961400000000
  4.0809582400000002 10.7560765200000006 18.0152534700000011
  1.9135181999999999 12.7955996499999998 19.8870032499999994
 -0.2983486300000000 14.5018104700000006 -0.6287981900000000
 20.1070109399999986 16.2667123999999994  1.3725646800000000
 18.6925890099999990 18.0639841399999987  3.7032219799999999
 16.5299363499999998 20.0311356099999998  4.6983098300000004
 14.3464316600000004  0.0343898700000000  7.1771254700000000
 12.4217317600000001  2.3773140300000000  8.8522044999999991
 10.4754511899999994  3.6588157699999999 10.8785549100000001
  9.3068728499999995  5.1766928999999999 12.7825062599999999
  9.3117911600000003  5.6384002700000000 16.1814100600000010
  7.3066752299999997  7.2643438199999997 17.5786181699999986
  5.9619673500000001  8.8400904499999999 20.2503050000000009
  4.1572889200000001 11.2734789899999992  0.1460500700000000
  1.1111699500000001 12.4874015499999995  1.0549181100000000
 -0.4821274200000000 13.9561405300000008  3.8077600999999999
 19.9178160400000017 16.5323827299999984  5.3097170000000000
 18.3329219499999994 18.8880869199999992  7.2049403200000004
 15.7949563600000005 19.3735502100000012  9.3683035300000004
 13.8596840300000004 -0.3233362900000000 10.8604827499999992
 12.4258267100000008  1.6336578900000001 12.4811547100000002
 10.8923799100000007  3.5283646300000000 14.7284103999999996
 11.5290893699999994  3.5516546999999998 18.4796371800000010
  9.1720466599999995  5.9016073100000002 19.9940113299999993
  7.1247813899999999  7.0882686200000000  0.3343467700000000
  4.9509635100000002  9.3821668299999992  2.1552685500000002
  2.7003580600000001 10.3081413800000004  3.5738152599999999
  1.1429418400000000 12.5131066200000003  5.6120432700000000
 -0.1976436800000000 14.3421485799999999  7.1088652500000000
 19.9638814300000007 16.8256258099999982  8.8299552899999991
 18.7610054899999987 18.3762367200000014 10.8776623400000005
 15.3664853600000004 18.9433535800000001 13.0719086999999998
 14.5979151999999992  0.0653143500000000 13.9974182299999992
 12.8553142299999994  1.6538832800000001 16.3438404400000010
 12.1441620199999996  1.3255801599999999 19.8894849700000016
 11.0469522999999992  3.7153876600000002 -0.4561379500000000
  8.7606729100000003  5.4158985099999999  0.8628055100000001
  7.3077111500000003  7.2039727700000000  3.0449202199999998
  4.8628726200000001  8.2504034399999995  5.2716715900000004
  2.9749282099999999 10.3042350000000003  7.3332522999999998
  1.9464880700000000 13.4191873499999996  9.0171501400000000
 -0.4213910900000000 15.1866232100000005 10.9894539499999997
 19.6140754599999987 16.3348480699999996 12.4953890300000001
 18.1021843999999987 18.3369824100000010 15.2072693599999997
 15.6502159299999999 20.0576532400000005 16.7976402900000004
 14.3348221999999996  0.0895225900000000 18.6997394999999997
 14.8126457899999995  0.5518592300000000 -0.9380510399999999
 12.9486848800000001  2.2134717500000001  0.7925126800000000
 10.9070693199999997  3.8413271600000001  2.8904276400000000
  8.0786243700000000  5.1215185500000002  5.3123709200000002
  7.1415129700000000  6.8016285700000001  7.1291022599999998
  4.8564180300000004  8.4843694900000006  9.0162545699999992
  3.7745571600000001 11.2200620799999999 10.6785399900000009
  1.7168816099999999 12.6343697200000005 12.4750546199999999
 -0.0336994600000000 14.2930023199999994 13.8542374600000002
 19.0819439899999992 16.5634160399999999 16.6044163500000010
 17.7628557100000002 18.0232589400000016 17.7943502000000002
 16.4066692500000002 19.8227846399999983 19.8577911100000009
 16.3949723200000008 19.3620186399999987  1.2762085900000000
 14.3844818599999993  0.6950318300000000  3.7987159600000000
 12.8310395400000008  1.7823237599999999  5.3138990200000000
 11.1610204999999993  4.2169845099999996  6.3632212600000004
  8.1462178299999994  4.7588763299999997  9.3760024699999995
  7.0391141599999996  7.1355322799999996 10.7583238300000001
  5.0568509600000002  9.1068218400000003 12.5411079700000005
  3.8301784400000001 10.8799338199999998 14.9419619299999997
  2.2400240100000000 12.5538573800000002 16.2262710400000003
 -0.6714233200000000 14.3809304000000004 18.3569218999999997
 19.7286381400000010 16.8417047199999992 19.9656802900000017
 17.6733087100000006 17.8535848000000001  0.3794245800000000
  8.6557842399999991  9.3156077199999991 12.0324359500000000
  8.2303390400000005 11.0569768600000007 14.1364201200000004
  6.0789251799999997 12.2541930899999993 16.4973678899999996
  4.2154459800000001 14.0584728200000004 18.1660128299999997
  1.5374953899999999 16.2115665500000006 19.6188704499999993
  0.2533474700000000 18.6182437400000005  0.3729954400000000
 20.3826254999999996 20.3602871400000005  0.8889340500000000
 18.2618749899999990 21.6289850000000001  2.8212092400000000
 16.3979327099999992  1.2979751100000001  5.2467002799999998
 15.3611002600000006  3.8524281399999998  7.2089520699999996
 12.3769212999999993  5.0127760300000004  8.5095456600000006
  9.9909913600000007  7.0849633200000000 10.3656735199999996
 10.5342568900000000  6.9669425499999997 13.8959555600000009
  9.0248544400000004  8.8426253799999994 15.6287085500000007
  7.8887890699999996 10.3157472400000003 17.9641742800000017
  5.7708881999999999 12.9435830000000003 19.8433006799999987
  3.9536418900000001 15.2986062799999996 -0.4866017200000000
  0.9348754100000000 15.6676125000000006  1.3841062200000001
 -0.3096997300000000 17.9178117899999982  3.5447750600000001
 19.7795706100000004 20.4501344699999983  4.9043680600000004
 17.3583677399999985 21.4103930399999989  7.4976296099999997
 16.4052888000000010  1.8327153000000000  9.6201308999999995
 14.3974055500000002  3.1595443099999998 11.5869107299999996
 12.4801711500000003  5.4389941100000003 12.4327233199999991
 12.5756382799999997  4.9678666399999996 16.3657814399999992
 11.1038931099999996  7.4996357700000003 17.3784182999999999
  9.2792891500000003  8.5395614200000001 20.0940861599999998
  7.1466579000000001 10.8071291400000007  0.0956001900000000
  5.6826709900000001 12.8021961799999993  1.7678754299999999
  3.4793368899999999 14.0581951200000006  3.3888724600000000
  1.9208602100000001 16.0280442699999988  4.9114411100000002
  0.0611541700000000 18.0425250900000016  6.6069991999999997
 20.8286280999999995 20.2923557800000012  9.1251060000000006
 17.9917884199999989 -0.4768624700000000 11.2449951099999996
 16.5245735300000014  1.4297096499999999 12.8528710799999999
 14.3834978699999994  3.3844343399999999 14.6151457800000006
 14.3190816699999992  3.3233802600000000 18.7707968100000002
 12.6036950599999997  5.9413670500000002 19.2775593600000015
 11.4717614399999999  7.6769210299999999  0.0738368300000000
  8.8751236099999993  9.0630263200000005  1.8591278499999999
  6.9338029099999998 10.3831766800000000  4.0289352000000003
  5.3870670100000000 11.9114304900000008  5.4005366099999996
  3.4651167500000000 15.1511720600000004  6.5827027400000002
  2.1342087699999999 15.9556440800000008  9.5805267999999995
  0.2392812000000000 18.7011158000000002 10.4289244300000004
 19.6514276300000006 20.2335114199999992 13.1524230400000004
 17.9813023500000000 21.7623263899999984 14.9727267899999994
 16.0494624899999998  1.4199561100000000 17.1627012699999995
 17.3504831300000006  2.2706188599999999 19.3638005900000003
 14.8877167299999993  3.3326374500000000 -1.2847391699999999
 13.1066433100000008  5.0862989000000001  1.0134843899999999
 10.9609200100000006  5.9540478700000001  3.6357652200000001
  8.9039293799999992  8.5928346700000002  5.5095730900000000
  6.8550996700000004 10.3327333899999996  6.8626447099999996
  5.3403241499999998 12.3127282600000001  8.1974589800000004
  4.2132921500000000 14.6565129400000007 10.6577745000000004
  2.3123634599999998 16.5231152100000003 13.0334061600000002
 -0.4225803900000000 17.6074138900000001 14.5191487600000002
 19.7547932899999985 19.4968250300000001 16.5361743200000006
 18.4147642800000000 21.7011851699999987 18.1717994999999988
 18.4557715299999998  0.3559216000000000 -0.4889414200000000
 16.6077978100000010  1.9273431100000000  1.0168981100000001
 14.4190003400000002  3.2524861700000001  3.3599331600000002
 12.7561659299999999  4.8864160600000002  4.8776774100000004
 10.1131647600000001  6.1410965800000001  6.8211921000000002
  8.7601266599999992  8.9438635899999994  8.7795223799999995
  6.4497202700000003 11.1991998699999993 11.1462472399999992
  5.8336796700000004 13.1147429100000004 12.4531348899999994
  3.9942245399999998 14.3311984399999996 14.7890979399999996
  1.4092043100000000 16.1587038000000014 16.4364646500000013
  0.0576469400000000 18.1573703600000016 18.1986242500000017
 20.0558466300000013 19.7281338599999998 19.6394613900000010
