Li                                      
   1.00000000000000     
   -11.1791050000000016   19.3627778431472777   -0.0000000000000023
   -19.1641800000000018  -11.0644444817984429   -0.0000000000000019
     0.0000000000000000   -0.0000000000000001   23.4479499999999987
   Li
   504
Direct
  0.9930249108332276  0.9969633349394371  0.0048691484756631
  0.9389875054031549  0.0528317780051140  0.6712008683061867
  0.8644540464203985  0.0974492400609606  0.3203454566390675
  0.7912236497623653  0.1163573297069505  0.0179427659987326
  0.7395180679899198  0.1673977346561912  0.6633989687797879
  0.6468560214716774  0.2050672163424636  0.3367844719900859
  0.5659980848240025  0.2468868112256075  0.0010564650641101
  0.5140632857368317  0.2959561281569520  0.6344469631673562
  0.4155892438830051  0.3229584295159640  0.3163407709415935
  0.3534609398906525  0.3692010124912031  0.9632617904763521
  0.2798160044598887  0.4232606986295480  0.6657827404954375
  0.2147897132403287  0.4310184047930292  0.3361862811034655
  0.0752156470664289  0.0431735380173563  0.6854463878505399
  0.0134974516402622  0.0944453225173802  0.3294647719736687
  0.9271403960323354  0.1194417080727135  0.9942452077900228
  0.8601921687290002  0.1699382204509021  0.6475848937753597
  0.8138305397949281  0.2315157248275597  0.3058561294270916
  0.7201043131396148  0.2384376155128649  0.9913741678910100
  0.6653550094873779  0.2921069639642582  0.6578960143637289
  0.5729494125536405  0.3248446595353727  0.3353514281632286
  0.4901901656725798  0.3877066901886153  0.9918916067289487
  0.4332722807837825  0.4158992307277742  0.6681926982955844
  0.3470642667011248  0.4407638260964006  0.2962869717821803
  0.2881335611661200  0.5109679300497092  0.9926940990577009
  0.1495140749200559  0.0801434304776336  0.3226474131000785
  0.0692077433949621  0.1084302354587905  0.9921787708520355
  0.0024630636671290  0.1644316971894142  0.6718121515953399
  0.9413946648184535  0.2004953055938046  0.3327807019376934
  0.8560283969813369  0.2406467204526379  0.0018571030729788
  0.7789206117451357  0.2924019798727002  0.6455773349056102
  0.7163775696846031  0.3407040525006053  0.3430387449649146
  0.6370505864839657  0.3688443796386878  0.0004760228506129
  0.5802914647830235  0.4134306855073788  0.6704265191626533
  0.4910741937787151  0.4446216976128099  0.2967576777500796
  0.4304418691376952  0.5090842315462254  0.9939029019594443
  0.3588784451068534  0.5437104081632356  0.6834793310289413
  0.2092140736095018  0.1185069997068311  0.0134914804919006
  0.1352486142100773  0.1779877981025564  0.6471960286506899
  0.0755432742909221  0.1940133543234310  0.3451966585565032
  0.9959529638029139  0.2415242745886346  0.9968887727925022
  0.9279465455347946  0.2792400772211110  0.6755603743610834
  0.8612690014160620  0.3381900947457552  0.3337098484089225
  0.7944100028037937  0.3702948853332657  0.9931370277572213
  0.7164040380186734  0.4095654907522928  0.6533644182114031
  0.6400179370673769  0.4555361518019723  0.3464849989018219
  0.5814713650412671  0.4990491273673214  0.0012724434332227
  0.4935370167694089  0.5447812172578210  0.6435679417603666
  0.4426775630529463  0.5714970435200968  0.3307472623406298
  0.2820566973585699  0.1670110834001406  0.6511348817274012
  0.2032970538185381  0.2006537628623803  0.3303243882727500
  0.1545511492748730  0.2461897886779170  0.9893367036350753
  0.0703248137601449  0.2907390064625730  0.6616221213368334
  0.0136050594966122  0.3325118169082160  0.3141697815800555
  0.9347409618155851  0.3650592156858536  0.9760391138670954
  0.8611568248402293  0.4076568918495056  0.6540568970848213
  0.7971138207912603  0.4553092399686989  0.3338935062553432
  0.7100418491963580  0.4862288625675433  0.9761427442484347
  0.6389002663322714  0.5393135155349000  0.6702682579927028
  0.5721532975491925  0.5788203549852540  0.3341788906919376
  0.4987347472728914  0.6231699933463304  0.0159166865333660
  0.3385957701556777  0.1950109189578555  0.3195827221569445
  0.2854182460152330  0.2525252428687210  0.9927582726848172
  0.1983445355917794  0.3002928781948029  0.6629586479841549
  0.1419725711767938  0.3142685311708959  0.3033274115647657
  0.0653930779499063  0.3682302005786227  0.9829014672924501
  0.9916338387895891  0.4236872135733449  0.6497531647755963
  0.9563055530689866  0.4624933020958224  0.3066703093447387
  0.8629213633120258  0.4773398847637438  0.9671559577702951
  0.7872825904691751  0.5456538707355634  0.6698020931467354
  0.7234247670865699  0.5883391472600792  0.3504337458072015
  0.6447311141033580  0.6182375827544746  0.0131614102725379
  0.5702935653320793  0.6530893397123307  0.6812044298115580
  0.4303867786179936  0.2522697741942395  0.9820728153207412
  0.3623722456877019  0.3036658519368629  0.6696759558938012
  0.2724673815706140  0.3120859203131587  0.3313200983454863
  0.2165261745953799  0.3704972583721258  0.0029616128488854
  0.1473552989578337  0.4110865787445093  0.6386179990148406
  0.0842523058384472  0.4392222410006497  0.3130559805867890
  0.9966604237284926  0.4998329494815152  0.9905882642192623
  0.9353565297519850  0.5331458356927854  0.6572942815896496
  0.8627420884072805  0.5779294301021878  0.3130566045219325
  0.7858313506937407  0.6301737829796465  0.0055752251262930
  0.7239872470224213  0.6715796249500556  0.6719193818649387
  0.6417885040022995  0.7042825519258002  0.3333971762989947
  0.1392111201765829  0.4957860633942275  0.0109930616535792
  0.0736580641426912  0.5475876174640462  0.6566886567908909
  0.0059844386177730  0.5880252821840415  0.3286438434916477
  0.9415964084854878  0.6233380009954956  0.0034608117127490
  0.8656765839323626  0.6681637420530819  0.6585584599080079
  0.7875116195990302  0.6979762121720015  0.3558998432698814
  0.7200457522872625  0.7482750292669280  0.9860431112314743
  0.2179504107922057  0.5402451460464661  0.6512194673734797
  0.1460127750992726  0.5929973291747359  0.3383682936034944
  0.0847341650335451  0.6208768270806573  0.0018684912753599
  0.9846679185112990  0.6655260250545965  0.6316333705078705
  0.9142082700783476  0.7160700294469038  0.3452685744382791
  0.8727964508853177  0.7690527224188912  0.9951211385217036
  0.7958555475750444  0.7910300727099226  0.6733635665378017
  0.2833234229409314  0.5735149511215170  0.3450291181105385
  0.2172630825866335  0.6322164870680780  0.9955196245300755
  0.1395529142084229  0.6678031994589944  0.6671205150130390
  0.0675152382317421  0.7061116861095726  0.3354547706729178
  0.0026024032491634  0.7483916379842626  0.0215471992221055
  0.9339101788621065  0.7924348920711282  0.6704438208883943
  0.8577892522318677  0.8292807770240316  0.3457556093389798
  0.3609423828676128  0.6294207752678602  0.0068082962476481
  0.2796233881112755  0.6719831046174889  0.6839029028123988
  0.2146328909748831  0.7061239440110754  0.3382062576899045
  0.1377551566668203  0.7583112436498780  0.0136512078881097
  0.0867840018070396  0.7951477032400476  0.6683753304659916
  0.0031518994532078  0.8303703902313160  0.3530985391046997
  0.9308953225264176  0.8595062066557659  0.0041081672384990
  0.4199542211298279  0.6701773677139542  0.6755176243552228
  0.3556207938743654  0.7186811648134750  0.3550510300474059
  0.2846759914714028  0.7482349758957625  0.0153746809422586
  0.2106957657338455  0.7955854574422716  0.6847178955942823
  0.1411490290069892  0.8329875003304466  0.3461541072886973
  0.0657245933305290  0.8776023383247136  0.0114988691975171
  0.0197838573844749  0.9270030886264848  0.6612790529662504
  0.9211398417246812  0.9650353242182206  0.3558245181348454
  0.8602735989074617  0.9836046978835284  0.0180098294307172
  0.7869313345259528  0.0477163710393143  0.6662182659891371
  0.7070903807885713  0.0982585985246729  0.3281127949351657
  0.6282153750507860  0.1131422591362039  0.0044573325173403
  0.5769202023874911  0.1692735035304906  0.6789114916229337
  0.5058796702083725  0.1973326815640064  0.3339392714501699
  0.0679442953949874  0.9570282958951779  0.3779175872517655
  0.1427384856530551  0.0058378355527609  0.0197206024407279
  0.1929926914725471  0.0478302540362137  0.6805498229056255
  0.2795403974337347  0.0720946456016662  0.3218869768998971
  0.3592996761068008  0.1261897965024374  0.9628160077959933
  0.4411756869825183  0.1564959352174355  0.6605238048528790
  0.8664360792364931  0.9265158214140641  0.6873568972980593
  0.7784968298704555  0.9657945670887571  0.3276951788962350
  0.7278063566067345  0.9863783532520500  0.9914327614994036
  0.6555042642364768  0.0561593421765352  0.6881094543446196
  0.5652083676770090  0.0724000630791437  0.3417825421838572
  0.4968783178843950  0.1266932204846185  0.9946243509560517
  0.1549582742472992  0.9120115262730053  0.6843265940092849
  0.2058680055872344  0.9662415772237409  0.3440333713608226
  0.2772610340694612  0.0024942740951559  0.9989799594420816
  0.3501960837212508  0.0433646281495683  0.6791400045633011
  0.4238145789822525  0.0871768059487366  0.3354718084096930
  0.7993214912524991  0.8794021241989896  0.0013585861450593
  0.7142958817356515  0.9294198221374188  0.6966372454734824
  0.6279072037688849  0.9458351632478568  0.3384411797193394
  0.5628031175655295  0.0046782687497000  0.9980623380721951
  0.5075385089626252  0.0466324980647954  0.6682389982919617
  0.1992351892192730  0.8766411565755945  0.0124529056911129
  0.2774770228811647  0.9190969024567721  0.6965426295262489
  0.3633778291221930  0.9627800867854006  0.3249681810136948
  0.4276651565480734  0.0074340838015345  0.0175739874914456
  0.7160708201482819  0.8342443785294407  0.3426474941306168
  0.6446932527168414  0.8706077241544818  0.0091890092737330
  0.5651962491873661  0.9201780783069395  0.6729343473523244
  0.4879021277807212  0.9610238441621775  0.3148585710051393
  0.2877912939482599  0.8459027188675208  0.3426025119466729
  0.3563158474485491  0.8710743772083518  0.0257847261700945
  0.4182514409330622  0.9118382662554794  0.6736927914807040
  0.6445908469960386  0.7919644962316355  0.6875567898259760
  0.5605643575296568  0.8343798820465267  0.3183436675700833
  0.4896068969868423  0.8835079314564922  0.0074801285400241
  0.3513353652436777  0.8056396188998249  0.7009326295049263
  0.4248585764764243  0.8371507757399215  0.3469277544518832
  0.5782775974954006  0.7454090646430558  0.0141386172351972
  0.5040375565485746  0.8087605063926588  0.6898965687831975
  0.4328826711548714  0.7496115902939380  0.0022588844653768
  0.4967423565693281  0.6990126479694965  0.3304596687556938
  0.9934008937431997  0.0155308133064338  0.7951913476444616
  0.9377229991654090  0.0155863262302347  0.4438632844235855
  0.8703637880645445  0.0881893603080712  0.1424628451527781
  0.7778763835109288  0.1385439852741470  0.7811631908119878
  0.7375667653297882  0.1569151451232429  0.4157696165336446
  0.6241771875907531  0.2253891437733415  0.1251236845864980
  0.5690533482908862  0.2306942999311516  0.7579310050558803
  0.5104839463747055  0.2795951844880804  0.4274306841323039
  0.3997985712234069  0.3371550368157443  0.0816503562145101
  0.3591190087733409  0.3719002614996754  0.7532585381664489
  0.2654905576279489  0.4001411262975267  0.4434261639077164
  0.1967673207585676  0.4702175032102218  0.1034031955885268
  0.0322269171840333  0.0505589077629907  0.4360587752873926
  0.0009524424247118  0.0837544255025620  0.1158118731061748
  0.9213421348763404  0.1356849363392172  0.7872445595457194
  0.8756686238215181  0.1441690940647504  0.4351484679897411
  0.7696589449346689  0.2190187668027619  0.1096390179098847
  0.7149485847719319  0.2369502301289756  0.7815493815024368
  0.6385451443527188  0.3006674323681366  0.4353616640260682
  0.5451314719314411  0.3336785965522111  0.1246831347729795
  0.5031081676847933  0.3944472159567525  0.7465915288969853
  0.4323188890158676  0.4069142669401060  0.4094928797613449
  0.3518403357669726  0.4744001686075663  0.0897543708511819
  0.2739426175201132  0.5116113903526198  0.7743178094460319
  0.1340750156595831  0.1025129706601007  0.1135058659712271
  0.0641800683421678  0.1178906792305057  0.7751413637439555
  0.0060365424418336  0.1755267915562158  0.4481489166430350
  0.9169582603796442  0.2445815884947109  0.0984669205623518
  0.8545880950897171  0.2488043956611818  0.7709204578651878
  0.7997593273600501  0.2780758255616789  0.4294490140929170
  0.6906233796282919  0.3454014053134813  0.1005170383764877
  0.6386101085558948  0.3441772939093823  0.7573981243562855
  0.5643157978451043  0.4257844182600437  0.4155461876198103
  0.4817975149035973  0.4550615717528004  0.0999514260308487
  0.4288073959715391  0.4866509136137083  0.7707116084774981
  0.3730137353848448  0.5288971615634281  0.4517989828535107
  0.2136223335622702  0.1437000483590936  0.7656533547708833
  0.1477921399516546  0.1685673678344557  0.4207337528440647
  0.0879300077384073  0.2182316572293459  0.1243537085331567
  0.9935172384307549  0.2506857769167539  0.7798552888418797
  0.9210790479071918  0.3114802000474555  0.4391578526054545
  0.8489084283421491  0.3502739368017913  0.0830046059463641
  0.7700870097263106  0.3698415266989556  0.7679532432472769
  0.7164891072106627  0.4090208231782313  0.4459362055105061
  0.6282103669810510  0.4399244410890688  0.1087115056966610
  0.5881311877443878  0.5085284869183440  0.7773611961813316
  0.4912157745951546  0.5260108273948774  0.4548936602133651
  0.4189361032082672  0.5918884050318809  0.1223478692167106
  0.2884025581622538  0.1709777021524346  0.4258870144298328
  0.2100486155530632  0.2291795131139267  0.1328684797604893
  0.1364362476185690  0.2543691377385358  0.7554141116814037
  0.0820041870237418  0.2877267747861865  0.4456348209544956
  0.9941723168609187  0.3416774864209415  0.0998282301864322
  0.9166937815554519  0.4046587056239588  0.7684922187227485
  0.8254782617385601  0.4185354586946630  0.4456186421414259
  0.7785673626102678  0.4475454720111571  0.1005630543395029
  0.7086501504533658  0.5019612960124604  0.7642259587725135
  0.6545958055234635  0.5370310411138703  0.4496558419819223
  0.5583143834369722  0.5540251680242960  0.1322801694817670
  0.4928234284602482  0.6212970811578131  0.7895052987574616
  0.3584547100031656  0.1965278013006611  0.0845939001064053
  0.2870132191611532  0.2540743708632149  0.7862383274444014
  0.2194559783305507  0.2834208296605993  0.4319066737177479
  0.1446457918281183  0.3328028595716219  0.0983552493928030
  0.0846346131205635  0.3804337875813530  0.7703051140931265
  0.0159342361736208  0.4167297839365034  0.4293669071283404
  0.9406995952499670  0.4643866077882350  0.0807850443215727
  0.8573452549559448  0.5147992360537046  0.7736041112336025
  0.7900430232380060  0.5252964697004998  0.4318895728624454
  0.7187381475949977  0.5803009432456818  0.0935979452361480
  0.6491313744768590  0.6269190962477325  0.8156414820911877
  0.5810814991357134  0.6709787941672687  0.4576794069417573
  0.4369155396351729  0.2501941145557325  0.7523077245558767
  0.3609494067097714  0.2852128310579332  0.4254855912777060
  0.2758665751807143  0.3393418987957944  0.1019202233031038
  0.2063805320460048  0.3867093897209202  0.7845963374196927
  0.1564576032590566  0.4208882516819727  0.4458994688234981
  0.0747607493493874  0.4911809445092103  0.1011940920208403
  0.9960122824978512  0.5082615177203991  0.7513143797218973
  0.9352953887740014  0.5179377527699955  0.4655124938427448
  0.8643675853580532  0.5680608168304531  0.0867569706520186
  0.8144459617721225  0.6347982526006035  0.7928269968163519
  0.7281854188838750  0.6670476395456575  0.4415329050087564
  0.6311952983066718  0.7057876353031247  0.1209280090583604
  0.1513051116249002  0.5196324309262650  0.7641647282598285
  0.0644662935168157  0.5302899923615101  0.4478786520783302
  0.9845970697184043  0.5769980993147428  0.1092251787469678
  0.9175642037039253  0.6375881703549240  0.7689797321300986
  0.8648012781266701  0.6406245770853616  0.4340766770655833
  0.7914826069405905  0.6995281270232994  0.1088086647233553
  0.7260737999695124  0.7585928259070727  0.7836363375049871
  0.2202974064411407  0.5531064899289575  0.4773425514810441
  0.1444780643539616  0.5838920782621670  0.1101701155111670
  0.0523558899924836  0.6302120976950576  0.7526451625835122
  0.9984867566493776  0.6550351262776246  0.4429958819427711
  0.9270983680097800  0.7121034220451961  0.1216318287952660
  0.8389426085274820  0.7599439950103459  0.7474310705200224
  0.7967446270986898  0.7933298943903608  0.4412720719721790
  0.2921216949778795  0.6049633738080260  0.1037634083150110
  0.2039621908789400  0.6391527674095272  0.7850811674368146
  0.1426664832661686  0.6677339809784115  0.4350435812085891
  0.0364878011220853  0.7083036007821377  0.1099029987696127
  0.9763798943485398  0.7418720911194114  0.7871655756686593
  0.9274836885674631  0.7817257169217271  0.4524173128141271
  0.8561813074624638  0.8309398646245114  0.0950814228962429
  0.3610474687845340  0.6178456279618274  0.7759584210986432
  0.2935885091186279  0.6418069909471456  0.4525860665857806
  0.2272079126258433  0.7188259120883274  0.1248531197823297
  0.1350115862578960  0.7572023859620600  0.8006871457846003
  0.0857873711909676  0.8029700519292859  0.4613003887333420
  0.9922055770154685  0.8420346930032210  0.1348653374815285
  0.9146440104806288  0.9005349646692906  0.7903935158510649
  0.4470230683134488  0.6724091530084664  0.4481423531694659
  0.3705339631899633  0.6952970531185372  0.1090080480383122
  0.2796853888714708  0.7518555237343847  0.7838147838083955
  0.2357571381822439  0.7782863726891094  0.4646161024737765
  0.1405696558207126  0.8252914389118899  0.1228818783731640
  0.0583609342746882  0.8737684825463532  0.7659099256011714
  0.0127425324137391  0.9003523804400118  0.4560179371757442
  0.9307513706543205  0.9669927979470785  0.1054586968157167
  0.8390746719148723  0.0053842898482017  0.8158643710857447
  0.7917855052904912  0.0117495775389074  0.4419651445009052
  0.6985238179876276  0.0857585925260267  0.1115065415100247
  0.6503350117293891  0.1199986161005029  0.7776082979535559
  0.5759137723562873  0.1623640431201849  0.4326229043477170
  0.4858639325302505  0.2102531682822502  0.1253333860742600
  0.0742557898821730  0.9655305000291818  0.1512906885250089
  0.1219966026232484  0.0088619554622937  0.7990531321501422
  0.2087245377041924  0.0429613303010257  0.4494183981968547
  0.2746376134301300  0.0884124826898471  0.1002982328945592
  0.3532130853785631  0.1282711559367016  0.7752695749521834
  0.4336580414784592  0.1509443487912279  0.4495204595710902
  0.8713747643211534  0.9104168190500985  0.4450861734181473
  0.7770911051317526  0.9591464352331371  0.0971696732550171
  0.7031653580589747  0.9960003292546915  0.7942352990346677
  0.6497295665359673  0.0279472173654156  0.4610359259551444
  0.5654443470729120  0.0974380491320517  0.1262815521186269
  0.5046610236880440  0.1343134768502452  0.7728126168812182
  0.1531279127655338  0.9454512374003627  0.4721256250546446
  0.2256918095458289  0.9738659276549910  0.1095277868640991
  0.2752233084842644  0.0307268720084508  0.7761961732262321
  0.3632798501248828  0.0359689149793851  0.4237672794423375
  0.4238696907315997  0.0753443335949626  0.1197216366462754
  0.7914274828943988  0.8742312798584564  0.7967058356913910
  0.7139971570427193  0.9133899301570949  0.4513973413454053
  0.6416794513709689  0.9478122657364665  0.1169806644077624
  0.5730186732787672  0.9946914036737269  0.7805498143760943
  0.5072385589759421  0.0238177182200943  0.4495131054100696
  0.2070667781047533  0.9048470874076173  0.8096976874310968
  0.2789855569376769  0.9296723082078273  0.4648460517870419
  0.3344584925977543  0.9697267664522045  0.1043027693252512
  0.4256126804255160  0.0036121658318677  0.7907792600205994
  0.7199902056913743  0.8117688083499814  0.1062345556861075
  0.6376511184031415  0.8767310390532685  0.8057235741290825
  0.5792481767589024  0.8993923137308073  0.4319191238466473
  0.4872023616653323  0.9786363889660450  0.1102170338984862
  0.2951222204591559  0.8195815855233022  0.1214202171191943
  0.3475828380008821  0.8826263768024560  0.7924349425003072
  0.4466578802192487  0.9174493950668179  0.4385963856115325
  0.6557328604879800  0.8037466215958418  0.4512521192684247
  0.5599598487344295  0.8442254500434530  0.1208680050921274
  0.4890463458061944  0.8694155982862952  0.7968620459357822
  0.3434693229265164  0.7897339184210068  0.4709234913926394
  0.4150979040824794  0.8372726244995619  0.1003522499834730
  0.5661673554029605  0.7635059598886045  0.7986256342238889
  0.4981745394574091  0.7726197857189305  0.4541907782983188
  0.4247152718363267  0.7503436750770547  0.7990692367563028
  0.4984989421929811  0.7122334497398697  0.1316033299286303
  0.9927577596349906  0.9783139124906768  0.2599382700833104
  0.9167563503861444  0.0468671797914908  0.8944498504133591
  0.8827203010332951  0.0862019298043109  0.5575208143995525
  0.7787655458138545  0.1133177293766110  0.2340544230945554
  0.7146897288860572  0.1727010786979264  0.8959281092803408
  0.6581304995075072  0.2184878425428636  0.5327473898571071
  0.5791753740503935  0.2566590681196033  0.2358182024441362
  0.4860676825014991  0.2790008651666369  0.8724219869967342
  0.4217877578397591  0.3469840106591988  0.5574283005550598
  0.3520480304238021  0.3745160274454307  0.1976829236671023
  0.2847002965461485  0.4050796658860136  0.8727525792233450
  0.2116461877877285  0.4580681455648659  0.5389718661972580
  0.0749412008366122  0.0393631586126517  0.9098180723688003
  0.0261881657115737  0.0789242339485909  0.5674795613262589
  0.9253215636303338  0.1331538689060707  0.2238673491712504
  0.8661896211903368  0.1800232879676074  0.8800005953612171
  0.7953276051774552  0.2173586442165885  0.5511611573719648
  0.7236806634502670  0.2521848801680946  0.2074284425717394
  0.6489063571547504  0.2926658035042209  0.8881854025618452
  0.5737782701805756  0.3608424049937398  0.5312738589087758
  0.4927464110688859  0.3938812723679135  0.1981037502212359
  0.4076211731720747  0.4178519480033174  0.8861742310095337
  0.3481743226237981  0.4460281587359702  0.5744097974449787
  0.2689270120000629  0.5118742317967744  0.1946766646977665
  0.1503978778485262  0.0667785588401983  0.5507350983774728
  0.0629367924197979  0.1220202977208444  0.2221543572039337
  0.0064372728942033  0.1620708728681350  0.8779459696903160
  0.9300853982127180  0.2088759688342137  0.5474002055616793
  0.8576566581035223  0.2382172842830528  0.2151159308169781
  0.7824669432634295  0.2786179493319878  0.8725972816386971
  0.7276522797982636  0.3496727212250050  0.5339268908369377
  0.6409890000224294  0.3726198973764738  0.2239157354907348
  0.5578553306188354  0.4152036040259688  0.8800265528543036
  0.4783528399423602  0.4555469566261721  0.5416543996383467
  0.4228665734841996  0.5382676427600828  0.1761022298324590
  0.3391596850959857  0.5557995619194287  0.8796086617380183
  0.2350956802580413  0.1317827877503177  0.2148418642141436
  0.1436858479329004  0.1726290819092711  0.8857252463434975
  0.0897748702092471  0.2078552105839861  0.5390716126569686
  0.0044488586006324  0.2499088154344875  0.1992390221746447
  0.9104320705148226  0.2860737453075117  0.8745124861661679
  0.8674120172850337  0.3192638803491121  0.5581732432899287
  0.7844011334845291  0.3578538944352161  0.2027967353222806
  0.7063879672941908  0.4221778616607494  0.8518219865702576
  0.6388684640044744  0.4725402751229240  0.5698276361046481
  0.5733635227569422  0.5038434097326530  0.2419556020888791
  0.4876537212556400  0.5298825014397934  0.8787332299838582
  0.4414921219706684  0.5744311544671916  0.5666841485076546
  0.2938184427232358  0.1870603739821064  0.9126876055262798
  0.2283196546779962  0.1886884013190695  0.5472852300520969
  0.1405621887949877  0.2391791254533686  0.2145500915858349
  0.0592819436194247  0.3016784150260747  0.8727400783437389
  0.0222419635920801  0.3287848602756753  0.5642686273213684
  0.9182967876763897  0.3667778495820286  0.2002897711740275
  0.8396444805150125  0.4025887572362734  0.8495657449798415
  0.7821455297367805  0.4536036573332112  0.5642646815606511
  0.7275876559242818  0.5000154135328856  0.2084947643610633
  0.6433344175237536  0.5336485347344961  0.9008557519953797
  0.5731706363832458  0.5936014211385441  0.5636335692459227
  0.5210123230028429  0.6449000142378836  0.2460697933081590
  0.3584799640502609  0.2049921682788352  0.5605349128601844
  0.2902917402211784  0.2563111641319722  0.2257459560430632
  0.1915118074061084  0.2899983696806956  0.9038389355999144
  0.1661627219474298  0.3366653117568248  0.5516995498540354
  0.0849778946081798  0.3667336658023572  0.1918305429685745
  0.9900814652464405  0.4139044843795148  0.8791985815391143
  0.9284205506208778  0.4505712767491943  0.5630048230229079
  0.8427374150630556  0.5175985687663953  0.1988853196121596
  0.7836736390025720  0.5294939545473980  0.8905098083201324
  0.7057902888498404  0.5804548513407468  0.5417096334647624
  0.6470946310621670  0.6264826793747389  0.2226706155548754
  0.5616172015052214  0.6593164896471961  0.9152772899123391
  0.4409458038733831  0.2525660638331573  0.2013471267210960
  0.3529218266096095  0.2991170555452598  0.8644006503766875
  0.2689404756255840  0.3358118935551460  0.5550609558618120
  0.2162141515186917  0.3937103005548224  0.2201542019664799
  0.1343037610561595  0.4252297172776665  0.8703194791015818
  0.0900630240986189  0.4409131904930987  0.5468725176401321
  0.9960269295778659  0.4808740124242945  0.1985850707631158
  0.9307424663684074  0.5349591409863876  0.8604161647393482
  0.8330769327822907  0.5700364004798999  0.5653644092553947
  0.7881588940299125  0.6410244637107212  0.2220869129284253
  0.7312068948498265  0.6452490185204809  0.9045466588763631
  0.6287518179542246  0.7065550098229565  0.5571561176989874
  0.1461463400541874  0.4969834169355849  0.2194606611665435
  0.0691599643085254  0.5587221215412654  0.8863242479619728
  0.9821520565260258  0.5461603931986474  0.5325015351022131
  0.9498646188986228  0.6384022874731556  0.2139480999405095
  0.8530915453029309  0.6594675587709062  0.8939675720052307
  0.7788349321699144  0.7177072207422697  0.5699620252516766
  0.7264434877120749  0.7523910135628284  0.2112421934540123
  0.2026393457062241  0.5373377382814581  0.8884903430790345
  0.1360039407415385  0.5857474092831794  0.5509369407560172
  0.0738559172992552  0.6282361794577369  0.2183895867229353
  0.9810216471068216  0.6741797624380439  0.8758695305986208
  0.9210977937780456  0.6908969253099713  0.5437878833757352
  0.8749364117245477  0.7549518541888105  0.2396176633778211
  0.7740711250110763  0.7801690652056621  0.8750285790442263
  0.3020150951727558  0.5642063714429071  0.5582278186365954
  0.1962852649430005  0.6416821071002943  0.2276920161463991
  0.1338845883829833  0.6628850516215579  0.9033726747967279
  0.0638079498625217  0.6883397264402689  0.5598785932245676
  0.0062133857024094  0.7621063076441175  0.2372358103800138
  0.9199030359669536  0.8137461666038774  0.8826775594454972
  0.8438799061655331  0.8403493320134459  0.5674056960203373
  0.3504888170245195  0.6472120405442396  0.2198069157431704
  0.2813895757636473  0.6603172463748876  0.8996253164988843
  0.2132405688838546  0.6946126247085829  0.5731756456321335
  0.1454515861546923  0.7516023767236675  0.2330632827176800
  0.0432514247661828  0.7900856191675985  0.9011816111856277
  0.9836004433232546  0.7975164523628351  0.5502498700312799
  0.9346739384986549  0.8809957655772394  0.2209857706110796
  0.4254280853982593  0.6601120117523394  0.9041659155704451
  0.3745068341793569  0.7081932358958909  0.5846120185346706
  0.2888832348059509  0.7598082336611682  0.2530668894295687
  0.2113122701673831  0.7836779765171542  0.8969948268398724
  0.1533027758159946  0.8115328650827536  0.5613237656170398
  0.0979229842609612  0.8581534559283739  0.2422960194814507
  0.9881685240385281  0.9295888084999362  0.9002492072867767
  0.9362431035929077  0.9488800517115266  0.5695658230250444
  0.8596319814908213  0.0018308243585707  0.2094577461995613
  0.7870176470788124  0.0475852818358504  0.9108564373431349
  0.7267122983702947  0.0975866435050747  0.5533082474160835
  0.6342311713570297  0.1166652030573019  0.2547047656618204
  0.5779373439537068  0.1707067048274666  0.8996622139675310
  0.5147212458563573  0.2285901654462066  0.5351189366234550
  0.0719387005366201  0.9428120583890092  0.5779888344183632
  0.1522791347315291  0.0006280374911469  0.2282015225211609
  0.2177047800172716  0.0440120153946069  0.9241895201925985
  0.3008343402730560  0.0664296214334144  0.5519581890954228
  0.3609180903189397  0.1387322458839932  0.2116857251913302
  0.4344653172822817  0.1394438691998872  0.8724179098812499
  0.8403992478359186  0.9206727904100944  0.9000221290134078
  0.7856501414671868  0.9732077628822893  0.5613520955989770
  0.7124159057007802  0.9951952928067271  0.2196891958572067
  0.6668722324105190  0.0521053774436666  0.8896407946110401
  0.5740813699977849  0.0875714106343679  0.5581746668685312
  0.5101693023448988  0.1330637445123983  0.2200899434705406
  0.1279257116872827  0.8944327039741964  0.9014238941997093
  0.2071080127379616  0.9404091987896663  0.5772804799566700
  0.3059863310300912  0.9890631843809530  0.1997024132173593
  0.3415682806922291  0.0413993787092437  0.8833968355442607
  0.4297640251488772  0.0850904973569442  0.5553570606385634
  0.7749652050003135  0.8725400101624459  0.1909913966892631
  0.7101664529719329  0.9088040476946730  0.8879748302090391
  0.6465365803143470  0.9603695630246136  0.5564033162813828
  0.5602957003806353  0.0089950284539384  0.2189834962118198
  0.5063789318100689  0.0491060614911447  0.8907697530061256
  0.2440468119474559  0.8853823171314446  0.2264108597979799
  0.2997901755174368  0.9218852473688983  0.9184780200401335
  0.3671685002792913  0.9486644475623436  0.5587148659051238