Li 
 1.0000000000000000
   -11.0705700000000018   19.1747897087477881    0.0000000000000013
   -18.9781199999999970  -10.9570226907130195    0.0000000000000076
     0.0000000000000001    0.0000000000000001   23.2203000000000017
 Li 
 504
Cartesian
  0.5274890000000000 -0.3497624300000000  0.4182987900000000
 -11.0328546099999993 17.4281569999999988 15.4460063000000005
 -10.9916446800000003 15.7007143100000004  7.9434238700000002
 -11.0218826599999993 13.7093238399999997 -0.0063102200000000
 -10.9362892400000007 11.9091524000000000 15.3930623999999998
 -11.0443535900000001 10.1129689299999992  7.2200330599999996
 -10.7289490399999998  8.1962271999999992 -0.2192420600000000
 -11.0792365400000001  6.2204261499999998 14.9018066800000000
 -10.7727872799999993  4.9179130799999999  8.0655674899999994
 -11.5670312299999996  2.7030981999999999 -0.1716132500000000
 -10.7746641200000006  1.5304261299999999 15.4831957300000003
 -10.8471095000000002 -0.5240751299999999  7.6895856100000000
 -1.6534110000000000  0.6864692100000001 15.8264203600000002
 -2.0464274699999998 -1.0850900699999999  7.7902243899999997
 -12.1544468000000006 16.5956246299999997 -0.2235228500000000
 -12.7043574800000005 15.3955436399999996 15.4674054600000002
 -12.9250131800000005 12.3854513399999995  7.1348986200000004
 -12.1355061699999993 11.1076806999999995  0.2233568300000000
 -12.7627099899999994  9.8369465100000006 15.4870333099999993
 -12.3897632899999994  7.8958944400000002  8.0395336299999993
 -12.4979333700000002  5.8108992600000002 -0.0380983100000000
 -12.7293626799999995  3.7343316199999999 15.3791335799999995
 -12.6224590899999995  1.6820037000000001  7.3569606099999998
 -12.6934810400000000 -0.0665575700000000 -0.1454492300000000
 -4.0585510100000004  1.8633063200000000  7.7546367600000004
 -2.6514608800000001  0.0418494500000000  0.4822975000000000
 -3.1398783899999998 -1.7618404999999999 15.1830229299999999
 -14.6234995699999999 15.2990796400000004  8.2243232299999995
 -13.4585042200000000 13.9378395299999998  0.1432938900000000
 -14.0380488000000003 12.3942188400000006 15.3527258300000007
 -14.3111064999999993 10.1953940000000003  7.6723764499999998
 -14.2652215400000006  8.0608344800000005 -0.1128833700000000
 -14.0917153000000006  6.4182332700000000 15.4999432800000001
 -14.1243510400000005  4.6870046399999996  7.5152484199999998
 -13.9756530600000008  2.5005276400000001  0.2087332400000000
 -13.9325623400000005  1.4634136799999999 15.2604121100000008
 -4.5471804400000000  2.4662679199999999  0.1827947300000000
 -4.8417875600000002  0.5727182100000000 15.9378465400000007
 -4.8095372799999998 -1.2761100900000000  8.2616596300000005
 -4.3369540500000001 -2.4631860200000002  0.0925527100000000
 -15.9641656699999999 14.7701060500000008 15.1037952000000004
 -16.1728819600000016 13.0897165100000006  8.1694708800000004
 -15.4331001600000004 11.1161454600000003 -0.2344489900000000
 -15.5270697500000008  9.1079805599999997 15.2959499599999997
 -15.4803692799999997  7.4855941000000001  7.4982042299999998
 -15.6270312899999997  5.4944528600000000  0.1948466200000000
 -15.5227866300000006  3.6929374600000000 15.9169410899999999
 -16.3293533599999989  1.6664701900000001  7.6257971299999996
 -6.8127124200000004  3.5076294600000000 15.5233421200000006
 -6.8199997999999997  1.9448386499999999  7.6902307399999996
 -6.0215503100000003 -0.1393133400000000  0.1286841200000000
 -6.3070425700000001 -1.4052804999999999 15.7788564900000008
 -17.6134410000000017 15.4033754199999997  7.9371781099999996
 -17.1976231099999985 13.6676697800000007  0.1581624800000000
 -17.4165157800000010 11.6455945700000001 15.6993171599999997
 -17.1371434299999983 10.4018330799999994  7.4219657400000001
 -17.1269807000000007  8.4468210900000003  0.1141156100000000
 -16.8474781200000017  6.5764863699999996 15.3395340099999995
 -17.6124769999999984  4.5903796200000002  7.4844507199999999
 -16.9063749500000000  2.5813052500000002  0.4430969700000000
 -7.6844296900000000  4.7974030100000000  7.5563029700000000
 -7.9877989300000003  2.3673745300000002  0.4412412100000000
 -7.6927627100000002  1.0577936800000001 15.8483058700000008
 -8.3747229700000005 -0.9075431800000000  7.5005673000000002
 -7.9657063199999998 -3.5234979200000001 -0.0912429300000000
 -19.2552075500000015 14.6930562400000007 15.7624153499999995
 -18.8701674100000005 12.7919644500000000  7.4950047499999997
 -18.7938791099999989 11.2479717600000004 -0.0138650500000000
 -19.0793048499999998  8.8456500100000000 15.5935798499999994
 -18.2942173799999992  7.7205241899999999  7.5773555999999997
 -18.4893190300000008  5.4993059100000004  0.1429359600000000
 -19.3447355499999993  4.4161278900000003 15.6613120800000001
 -9.1188066699999997  5.0846859200000001 -0.3587113100000000
 -9.8687770399999994  3.7375751799999999 14.8719387300000001
 -9.9658119200000002  2.0680219599999998  7.3372264200000004
 -9.7065616699999993 -0.5596270300000000 -0.5140496100000000
 -9.7901805199999998 -2.0432842899999999 15.5773661699999995
 -9.7810045599999995 -3.5334073799999999  7.7627334000000001
 -20.9532175299999999 12.9480327899999992 -0.0772403600000000
 -20.3306597700000005 11.7138036400000001 15.5195495399999999
 -20.6124549700000017  9.9136191000000000  7.9345535199999997
 -20.7133738200000010  8.3362631199999999  0.0613853700000000
 -20.9170930800000008  6.7837290899999996 15.4951728200000005
 -20.4959293699999989  4.6124552400000001  7.2508144999999997
 -11.3069026699999995 -3.4511541200000000  0.1074044600000000
 -11.4299136400000005 -4.6804977299999999 15.3813148300000009
 -22.2380191499999995 12.7911457500000001  8.2084358900000005
 -22.7607405500000013 10.5201275400000007 -0.1485629100000000
 -21.6543185800000018  9.3638847700000003 15.2920955900000006
 -22.0669485999999999  6.8881402999999999  7.6557017700000003
 -21.7130743499999994  4.8589007500000001 -0.3169736200000000
 -12.4608702099999995 -1.5018872500000000 15.5644233199999995
 -12.5605469799999998 -3.6425357599999999  7.5758247799999996
 -12.8162274400000005 -5.7416074899999998  0.2261631600000000
 -23.7238104499999984 11.5765031300000008 15.5799420400000006
 -24.0837120300000009 10.2934277900000009  7.6993685100000002
 -24.0126499299999985  7.8688842699999997 -0.0301295900000000
 -23.9992705300000004  6.1579731100000004 15.1432774600000002
 -14.6038733300000008 -1.0768708800000000  8.1208544699999994
 -14.3084022199999996 -3.0566342799999999  0.4441430600000000
 -14.3451723500000003 -4.2397638100000004 16.1823168700000011
 -14.2749615999999993 -6.4211970500000000  7.9272136599999996
 -25.4928252300000011 10.5421264699999995  0.3158963300000000
 -25.5197850899999992  9.0822259400000007 15.6181760199999999
 -25.7330244800000010  7.9067589900000002  8.2100652800000002
 -15.6165692699999994 -0.2052791800000000 -0.1124186300000000
 -15.7887845200000001 -1.5453444599999999 15.5410462500000008
 -15.6496650299999995 -3.5262022399999999  8.2001899700000003
 -16.0197935200000003 -5.5471486099999998  0.1439933100000000
 -15.8468663599999999 -7.4508122099999996 16.3019321499999990
 -27.2474872599999998 10.0824073900000002  7.5290703900000002
 -26.5554275900000007  8.0705527000000004 -0.3004054000000000
 -17.7146823799999993  1.3217916300000001 15.4839531800000003
 -17.7533564900000016 -1.4433680300000000  7.9962260699999996
 -17.0154690899999999 -2.5646963100000000 -0.1228345300000000
 -17.4055586700000013 -4.3089501700000001 15.5633075600000002
 -17.2781992500000001 -6.5710722099999996  7.9530226900000001
 -17.5956870199999997 -8.6382522900000005  0.1822661000000000
 -28.2168459700000014  8.7793986200000003 15.4853671800000008
 -28.4733529200000000  7.4831894400000003  7.9439611799999996
 -9.0404680200000005 16.1123577000000004 -0.0402268400000000
 -9.3761978199999998 14.4863156899999996 15.3581769000000001
 -9.8316885500000009 13.2202990899999993  7.2632598499999999
 -9.3296324899999998 11.0392650099999994 -0.0892474600000000
 -9.3100216499999995  9.3336142199999994 15.4990891800000004
 -9.4885951300000002  7.3682707199999999  7.1010723100000002
 -19.1254330800000005 -9.1686891599999996  8.0185422099999997
 -1.5786243700000000  3.2309590699999999 -0.0270630100000000
 -3.0560512700000002  3.7844805799999999 15.7285063800000007
 -5.1442259999999997  4.8347502499999999  7.4642081200000003
 -5.8866919700000002  4.8715500399999998 -0.3881624300000000
 -8.4503062100000008  6.4331702599999998 15.4380342699999993
 -26.7551190299999995  6.1416933000000000 15.1479606100000002
 -26.7319551400000002  4.9299429899999998  7.3548861499999996
 -7.6208909499999997 13.5196159999999992  0.0284581400000000
 -7.6368737099999997 11.2575497200000001 15.5470048500000004
 -7.9061293800000003 10.7783541700000001  7.4582050899999999
 -7.5570371400000003  8.2276004399999998 -0.2097939400000000
 -18.8485392400000009 -7.7912439200000003 16.0087877499999998
 -20.8113822100000014 -6.6154818400000002  8.1739669100000008
 -2.7689643500000001  5.6132771600000000  0.3525337100000000
 -4.8888260199999998  6.3983687700000003 15.5620194600000001
 -6.4268933099999996  7.6293685800000004  8.1677997300000005
 -25.3660823999999998  5.3845768700000001 -0.1784578300000000
 -25.4941048099999996  3.2923783300000000 15.6172856899999992
 -25.1831046600000015  1.9882574799999999  7.8326411399999998
 -5.7422458599999997 10.8833379000000008 -0.2481330400000000
 -6.3269935799999999  9.2400916199999994 15.1268378000000006
 -18.7553658200000015 -5.8218371800000002 -0.2009443100000000
 -20.6224046100000002 -4.8048849000000002 15.1635545199999999
 -21.8474192299999999 -4.0575954799999998  7.4681892400000001
 -4.1403900000000000  7.8800995800000004 -0.1413494600000000
 -23.6327625599999998  5.0099012500000004  7.7083140600000002
 -23.6192097499999996  2.5567828200000000 -0.1947685100000000
 -23.5295079499999993  0.5927751400000000 15.0728979899999995
 -23.6539298199999983 -0.9854474000000000  7.9273607100000003
 -19.1669744800000004 -3.9135458600000002  8.3370124600000004
 -20.2132438000000008 -2.8154690499999999 -0.2338164500000000
 -21.8485167900000015 -1.4699800599999999 15.0697770500000008
 -22.5934667599999983  3.9497394899999998 15.3500702899999997
 -22.0609420100000015  2.0855211300000001  7.6579556599999998
 -22.0756923600000015 -0.2366235200000000 -0.3105433400000000
 -18.6652446000000012 -1.6154329199999999 15.4614295899999998
 -20.7552145099999983 -1.2348371300000001  7.8869551400000004
 -20.3078715099999982  2.7478831399999999 -0.4565909600000000
 -20.5069953299999987  1.2734044000000000 15.1577163099999996
 -18.9493550000000006  0.3540778300000000 -0.1049417500000000
 -19.1689340500000007  1.8871907200000000  7.8179379999999998
 -0.3815792000000000  0.4875612800000000 17.9362904900000011
 -11.6395286200000001 17.7897893899999993 10.7610453100000001
 -10.8405904399999997 15.7324196199999999  1.9936974599999999
 -10.9437807399999993 13.5094396499999991 17.7350244299999993
 -10.9030476099999998 11.8115369399999999  9.9477387200000003
 -11.4131888400000001  9.7063931500000002  2.5681692599999999
 -11.4368616000000003  7.8078537499999996 18.1239886800000001
 -10.7376889999999996  7.0625022000000000 10.5934768100000003
 -11.3288110000000000  4.4667640500000001  2.3991109599999998
 -10.6951794299999996  2.5121101800000001 18.0699223000000018
 -11.0250417899999995  1.4533506300000001  9.9703563600000003
 -11.2910245000000007 -1.7336317000000001  2.6114380300000000
 -1.6899109200000000  0.9862045400000000 10.2550625199999992
 -2.0511220600000000 -0.5681001700000000  2.9182515699999998
 -12.8369976599999998 16.7113848900000015 18.3020646300000003
 -12.5694159600000006 15.0777716599999998  9.9890048900000004
 -12.8915869300000008 12.8632052199999993  2.7339347500000000
 -12.4490508500000008 11.0763404899999998 18.7051788200000004
 -12.9090278400000003  9.6551621000000001 10.2369570599999999
 -12.2864279300000003  6.9856486300000000  2.4025669900000000
 -12.2422390799999992  5.2038837200000003 18.0067257199999986
 -12.1147705099999996  4.0126925099999999 10.0178746899999993
 -12.4028398000000006  1.3713127800000000  2.5422814300000001
 -13.2707616200000000 -0.0982066400000000 17.7178982599999983
 -3.3635512799999998  2.2429564499999999  2.5213713200000001
 -3.4382524499999998 -0.0038479100000000 18.1266934500000012
 -3.1750596099999999 -1.9745622700000001 10.3336199799999999
 -13.8333476300000004 16.0012239100000002  2.4779821900000001
 -14.1008552199999997 13.9408854600000005 17.9059521799999999
 -14.1154545000000002 12.6384192899999999 10.4911261000000007
 -14.1149744199999994 10.2290468400000005  2.4302215700000001
 -14.4259134000000007  8.1393493600000006 18.1402076100000009
 -13.8399659100000001  6.2514880499999999 10.1150690200000000
 -14.0316849000000001  4.2115583399999998  2.3057896900000001
 -13.7796022600000008  2.7707863599999998 18.2400495700000000
 -14.2874079300000005  1.2109977599999999 10.4720025799999998
 -5.2621650000000004  2.9979784700000001 18.0052605200000002
 -4.8755737500000000  0.7049226000000000 10.8474098199999993
 -5.4289759200000001 -0.6139194300000000  3.0485781200000002
 -5.2204426100000001 -2.8639501400000000 17.8262907199999994
 -16.5667815199999993 15.2877279999999995 10.7613938900000008
 -15.9459675599999997 12.6950033199999996  2.5126545000000000
 -15.4926094499999998 10.8712907899999998 18.1743399100000005
 -15.6216489700000007  9.4083119400000008 10.4275493899999994
 -15.5256168900000002  7.5175099300000001  2.8859880100000002
 -15.4788703200000004  5.4840252700000001 18.0383349899999992
 -15.9046671199999992  3.5107725200000002  9.8568127499999996
 -15.5297253899999994  1.6865026100000000  3.0357623600000001
 -6.3571824499999998  3.9658380200000001 10.4127532699999996
 -6.7879014399999997  1.9996081500000000  2.5437523299999998
 -6.5016983899999996 -0.2529198100000000 18.4135711099999995
 -7.1036990199999996 -1.6388309299999999 10.5216683700000004
 -17.3724342000000007 15.7460339400000002  2.6401045600000002
 -17.0418777400000003 13.7338989900000001 18.4087579400000010
 -17.3238133800000007 12.0947162499999994 10.4279326500000007
 -17.1426752799999988 10.7658229300000006  3.0607763399999999
 -17.4647047800000017  8.0961451400000009 18.1102747099999988
 -17.1208533500000009  6.4323329700000000  9.8888455200000003
 -17.2690224599999986  4.5412828999999997  2.6286466200000000
 -17.0846986500000000  3.1587994300000002 18.3085671199999993
 -7.7631729500000004  4.6220573099999998  1.9337772400000000
 -8.1573440399999999  2.8085550300000000 18.0661540699999996
 -7.7096940199999997  0.9854520300000000  9.7614794499999995
 -8.4929703399999994 -1.1490318200000000  2.4976331200000002
 -7.9365199100000003 -2.7222833899999999 18.1268509400000006
 -19.3336112100000008 14.1422600200000002 10.1452482499999999
 -19.1034487800000008 13.0974941600000001  3.2960664199999998
 -19.2838949100000008 10.8016202700000008 18.0348171800000010
 -18.3181149800000007  9.4390299899999999 10.2255227299999998
 -18.4542023600000000  7.9178724699999998  2.4390089700000002
 -18.8954815700000012  5.8925807900000002 18.1024798000000011
 -18.2841414899999997  3.9991268799999999 10.3678258400000001
 -9.7709880800000004  4.9875949799999999 18.1356887499999999
 -9.4263971400000006  4.2118486300000004 10.1884271700000006
 -10.1066981499999997  1.5622011099999999  2.5420632900000002
 -9.5925214400000005  0.0432481900000000 18.1406427699999995
 -10.2019331599999994 -1.4721876899999999  9.6141989700000003
 -9.6500032099999995 -4.1574225499999997  2.5144389100000000
 -20.2054854500000012 14.2204265599999999 17.5290926300000010
 -20.5018187999999988 11.9506362300000006 10.9645107300000006
 -20.4089905300000005 10.0609982200000001  2.7933293400000001
 -20.9323899299999994  7.9374426700000003 18.1254802300000009
 -19.8617695900000015  6.5106842499999997  9.9017977500000001
 -20.1443954000000005  4.2992412499999997  2.4724258200000002
 -11.1948547600000001 -3.2203783499999998 18.2161488300000016
 -11.2158155300000004 -4.2485801700000003 10.5628833400000008
 -22.5854887399999988 12.5915198099999994  2.5034242600000001
 -22.0595610700000009 10.8859251799999992 18.1766751500000012
 -22.4951513200000015  8.8899173900000008 10.3528492799999992
 -22.2299964999999986  6.9206535100000002  2.0304208699999999
 -22.1068019699999994  5.5186843600000000 17.8910766300000006
 -13.1141535800000000 -1.4129656500000001 10.4704992899999993
 -12.8868992200000001 -3.6823801800000000  3.1763752799999998
 -12.9811975700000009 -5.6798796500000002 17.9939252600000010
 -23.8926437999999983 12.0440601100000002 11.1017261600000001
 -23.8773973200000000  9.4991834300000004  2.5815120299999998
 -23.7010597800000014  8.1260591299999998 18.0722990699999997
 -23.4395160999999987  6.4830283299999998 10.4327000099999996
 -14.4712224999999997 -0.7765616400000001  2.6543133200000000
 -14.2304984599999997 -2.8069195400000000 18.3422887299999999
 -14.3252632099999992 -4.2001840200000000 10.8353715299999998
 -14.5055145400000001 -6.4691967899999998  2.8958866799999998
 -25.0292432900000001 10.6501914200000005 18.2534176499999994
 -25.5530919899999986  9.6700838099999995 10.6349011000000004
 -25.4620740999999988  6.8676162800000000  2.3848604999999998
 -16.0406596999999991  0.5291101000000000 18.2357867200000001
 -16.0286633800000011 -1.6888545200000000 10.6761394400000000
 -15.7448087900000004 -3.4412645199999998  2.7362124099999998
 -16.3004017999999995 -5.4250318499999999 18.6013656699999999
 -15.7512233399999992 -6.7545818000000004 10.7257592299999995
 -27.2324589999999986  9.3631058300000003  2.5797628200000000
 -27.0054007899999995  7.7949582099999999 17.8505292400000002
 -17.4644072699999988  0.9710227700000000 10.3985269200000001
 -17.8288644199999986 -0.8557984800000000  2.9371453100000000
 -17.4118281800000005 -2.4894387400000002 18.6146474499999997
 -17.7079781800000013 -4.4897173900000000 10.9047625600000000
 -16.8100672200000005 -6.6524557299999998  2.5103313900000002
 -17.2831361399999999 -8.1189719199999999 18.7853083400000003
 -29.0734364399999983  9.7622636899999993 10.6894638700000009
 -28.1591007699999984  7.3011034099999996  2.7907155299999999
 -9.7258420799999996 16.4998630599999991 18.0981529099999996
 -9.0133905999999993 14.7893901200000002 10.3103046000000003
 -9.8060234499999996 12.4734834800000005  2.4782536400000001
 -9.3436132399999998 10.4437031200000003 18.2600064700000004
 -9.9057333300000003  9.2527307000000008  9.9690474299999998
 -9.5086814999999998  7.0964374000000001  2.2301895699999998
 -19.4598146999999990 -9.3590374500000006  2.5795652400000000
 -1.6489358000000001  3.0004796100000002 18.5900308900000013
 -3.5078849900000000  3.6427446200000002 10.1539951599999991
 -4.4913527599999998  4.7981344500000001  2.7439699599999998
 -6.1715890800000004  5.1388846299999997 18.2874757599999995
 -8.1985454900000008  6.2968761300000002 10.1835110899999997
 -27.0926240500000013  7.1976988899999998 10.7486439100000002
 -26.4811543600000014  4.1939990700000003  2.5102035500000000
 -8.1220753200000004 13.0419604299999996 17.6651849900000002
 -8.0031480500000001 11.9620915599999993  9.9111339899999997
 -7.6754763400000003  9.3493592900000007  2.6706375000000002
 -7.4792869299999998  7.7307731100000003 18.0399663200000013
 -18.8940585600000013 -6.9656282100000002 10.2270322500000006
 -20.1826520199999990 -6.6602981200000002  2.6889629300000002
 -3.6279308499999998  5.5834200999999997 18.0681821599999992
 -4.5645127099999998  6.3754089399999998 10.7500948800000007
 -6.3165465200000002  7.2971578099999999  2.0324737599999998
 -25.5668663100000018  4.6661527500000002 17.5842645200000014
 -25.2597843299999987  3.9079961299999999 10.4651948400000006
 -25.2054639000000016  1.2641007600000000  2.3992768999999998
 -6.3559003100000000 10.2711609500000005 17.7928433800000008
 -6.1766596700000003  8.8798331299999997 10.2304230700000005
 -18.9600290399999984 -5.5272533499999996 18.3616426600000011
 -20.4566528199999986 -4.1959717599999999 10.2624912899999998
 -21.6113114400000015 -4.0441538299999999  2.3939333899999999
 -4.3939233399999997  8.4550674899999994 18.2274391700000002
 -23.4467888199999983  4.2934538699999996  2.0004114199999998
 -23.7407766799999997  2.0722165200000000 17.9687887900000014
 -24.1481753499999989  1.0778119300000000  9.9944610399999991
 -23.3140754200000018 -0.9701925700000000  2.6911235300000000
 -18.4548995699999985 -4.1176143100000004  2.1607612399999998
 -20.5351620799999992 -2.8556577299999999 17.5645497800000001
 -21.8734198000000006 -1.8850158800000001 10.1717148000000002
 -21.7201641800000012  3.5499476500000000 10.4140825600000007
 -22.3478703600000017  1.4654478000000000  2.1483778400000002
 -22.1136447199999999 -0.0010263800000000 17.5633181100000009
 -18.8081532600000010 -1.3901191200000000 10.6292574999999996
 -20.8074671199999983 -1.5390473700000000  2.2023502599999998
 -20.5852282500000001  2.6943934500000002 17.8847774500000014
 -20.4630338199999997  1.3982544600000000 10.2346334999999993
 -19.1519205499999998  0.0425796600000000 18.0649697899999993
 -19.2271416500000001  1.6730731200000000  2.3637682500000001
  0.4499394500000000 -0.4094207100000000  5.4377013900000000
 -10.9745246999999999 17.3825400700000010 20.7998150300000013
 -10.7700974499999997 15.6182113299999994 12.7107662900000005
 -10.9215272599999995 13.8984922700000002  4.5765238300000002
 -10.9150889899999992 11.9502300500000000 20.7539707000000000
 -11.4137970299999996 10.3401070199999996 12.8857696599999993
 -10.4610274099999998  7.7918294499999998  4.9318838300000003
 -11.1810851600000003  6.2502634600000002 20.5493901600000015
 -11.2716792699999999  4.6414461700000000 12.5292840299999995
 -11.2712310900000006  2.7941202999999999  5.1760412300000000
 -10.9564377700000009  0.4482218800000000 20.3834359800000016
 -11.4087355400000003 -0.5171639500000000 12.6030108500000004
 -1.6035177800000000  1.2087248799999999 21.5844257800000001
 -1.4488230799999999 -0.2494769600000000 12.8618409000000007
 -12.6979364500000003 16.3275445300000008  5.1751442000000001
 -12.0076288899999994 14.8740033799999996 20.2229607300000005
 -12.4629766699999998 13.4056482999999993 13.0887111300000001
 -12.6145115299999997 10.6699168699999998  4.7896658099999998
 -12.7133150799999992  8.9547431100000008 20.5174700399999992
 -12.8142812599999996  7.6217890600000002 12.9073754100000002
 -12.6743252099999992  5.3777332900000001  5.2029440899999999
 -12.5936304799999998  3.2089823300000000 20.3108434500000001
 -12.5539022599999992  2.1620381100000001 12.4404147300000005
 -13.1517870899999991 -0.2341766200000000  5.4081079000000001
 -3.2228053999999999  2.1936181499999998 13.3356855099999994
 -3.4672193500000001 -0.2226836100000000  5.4053809099999999
 -14.9615234200000007 17.3073730300000008 20.7323834500000004
 -14.0887522999999995 16.1423261199999999 12.8486236799999993
 -14.3752163100000008 13.8059574200000004  4.9069052500000003
 -13.7034041299999991 12.0059049000000009 21.2117964999999984
 -14.2006473700000004 10.5202426399999993 13.2261297500000001
 -13.9016877399999998  8.2682991099999992  5.5336517900000004
 -14.4914717700000004  6.3011998399999998 20.3545310599999993
 -13.9394120800000003  4.5392633499999997 13.1393819599999997
 -14.4031924500000006  2.9805484700000000  4.9088296500000004
 -14.0693044500000006  0.9715601500000000 20.4338298800000011
 -5.3318800299999998  2.6927957199999999  5.0110171399999999
 -4.7711249799999997  1.0312554000000000 20.9930507000000013
 -4.9837760199999996 -0.3759813200000000 13.2221971899999993
 -5.1732500000000003 -2.9932936799999998  5.2887493499999998
 -15.8831026499999997 14.3371202400000008 20.6488668100000012
 -15.8284201400000004 12.9834002999999996 12.7678834200000004
 -15.8559038000000001 11.3672228499999992  5.3908097599999998
 -15.8344485600000002  8.6910151300000003 20.3067794799999994
 -15.5530466599999997  7.2823078299999997 12.8264423900000004
 -15.8542136500000002  5.6593832300000004  5.2017265600000000
 -15.7208984800000007  3.2051099700000001 21.3487054500000006
 -16.0239904099999997  2.0910911300000001 12.6128801100000008
 -6.6084616499999997  3.3828850899999998 20.7437968400000017
 -6.1761540799999999  1.5810783399999999 12.8087214399999993
 -6.8557823200000003 -0.2963317500000000  5.0217798900000004
 -6.6025607900000001 -2.3139892600000000 20.3272675000000014
 -17.7203034799999983 16.2038548800000015 12.9439790499999994
 -17.7454556799999992 13.5634813699999999  5.2290601800000003
 -17.1021211400000013 11.4937317599999993 20.6553879699999996
 -17.3089196200000011  9.8642989500000002 13.3089094499999998
 -17.1247115000000001  8.1182060699999994  5.0434769299999997
 -17.2697440499999999  5.8064480400000003 20.3179071499999999
 -17.0951999699999995  4.7715961299999998 13.2903962199999999
 -17.8326711499999995  2.7651295500000002  4.7373796600000002
 -7.9998021399999999  4.3991802800000004 13.1813651000000007
 -7.9243343800000003  2.6893180399999999  4.6610344599999998
 -7.7074251100000000  0.5723658600000000 20.8629670599999990
 -8.4133771700000004 -0.3361170000000000 12.5623635799999995
 -8.2214994499999996 -2.9282664700000001  5.2407784800000004
 -18.8505977300000005 13.7722342700000002 20.1401541500000008
 -18.6953885399999997 12.7237374400000007 13.2275498099999993
 -18.8107252199999984 10.5124992699999993  5.4630381100000003
 -19.0894867300000008  8.5396924399999996 20.8677645100000007
 -18.3610231400000004  7.4541817699999999 13.0361441100000004
 -18.9859149000000009  5.2254956200000002  4.8574554799999996
 -19.0150629299999991  3.5290449800000001 20.6176827899999999
 -9.4076842999999997  4.8206448799999997  4.8956947199999998
 -9.0355246499999993  3.4531706199999999 20.3873106600000007
 -9.3397087100000000  1.7506063999999999 12.8397209100000005
 -10.1689407299999992  0.2041468100000000  5.1147142299999997
 -9.5872973699999999 -2.5560613900000000 20.4387111499999996
 -9.3445365099999993 -3.3949119300000001 12.6717849900000008
 -21.0163374400000009 13.6039687699999998  5.3502493600000003
 -21.2093778600000000 11.4197066800000009 20.3668838200000017
 -20.4505074600000007  9.8403867500000004 12.7637306200000005
 -20.8790475399999984  8.6423119400000008  4.8799985799999996
 -20.9556296700000004  6.2690123000000000 20.9511327399999985
 -20.7641608399999988  5.1027297999999996 12.6086717700000008
 -11.2009661400000002 -2.8105156700000000  4.9717032799999998
 -10.8495349900000004 -5.0896843499999997 20.0606838600000010
 -22.3058660300000007 13.0968175400000000 12.9356902500000004
 -21.7235024500000016 10.9969014800000000  5.2354189900000003
 -22.4175009600000017  8.7140744300000001 20.5601064800000017
 -22.1693971999999988  7.4071101900000000 12.8720521899999998
 -22.3246256500000015  5.3606886700000000  4.6842552900000003
 -12.5756034499999991 -1.7954626000000000 20.8765069499999996
 -12.7115556699999992 -3.0987719299999998 12.7799350900000004
 -12.7033949699999997 -5.8646865999999997  5.3740276199999997
 -23.8918527099999984 11.5150780099999999 21.0322290999999986
 -23.8435686000000011 10.2448279699999993 13.0532894000000006
 -23.5545478400000015  8.1105353200000003  5.5898146999999998
 -23.7121618199999986  5.8930714999999996 20.7090043699999988
 -14.4017290800000008 -0.9132088800000000 13.2738733199999999
 -14.2075039699999994 -2.4945365399999999  5.3974566700000004
 -13.9835184300000002 -4.2076856600000001 21.0565663399999998
 -14.5812745300000000 -6.0975413500000002 13.7864237400000000
 -25.5053546199999985 10.9911184800000008  4.6195605700000000
 -25.4094605499999986  9.1266256099999996 20.5177884599999985
 -25.4146938999999996  8.0303821000000006 12.7915074400000002
 -15.8286821000000000  0.0168530000000000  5.3874801699999999
 -15.5045472899999996 -1.7094773000000001 20.4964031200000001
 -15.8789386599999993 -2.8382414499999999 13.4530719899999998
 -15.8918786700000005 -5.4495256699999999  5.6574456199999998
 -15.8831703700000002 -6.9576886399999998 21.1347296799999995
 -26.4995663099999987 10.4861781500000006 12.9467048600000005
 -26.4902985800000010  7.9189534100000003  5.4199193100000000
 -17.4630470500000001  1.0185840399999999 20.5792221700000013
 -17.6874256099999982 -0.5440691900000000 13.0911882300000002
 -17.8780704999999998 -2.8471727100000002  5.4492310100000001
 -17.2292088300000010 -4.2745989199999999 20.8342243899999993
 -17.5768455699999997 -5.7694917900000000 13.1581989700000008
 -17.4091316200000001 -8.5714923899999995  4.7363734900000001
 -28.3591319199999994  9.2357765900000004 20.5054690800000010
 -28.6951579700000003  7.6959344999999999 12.4451718600000003
 -9.2553368400000000 16.2872767399999994  5.0157979800000003
 -9.3410491899999997 14.5438228400000007 20.9633761099999987
 -9.3457164000000006 13.2074397900000005 12.8334765900000001
 -9.5182387399999993 11.0135868000000006  4.5987662900000004
 -9.1853481600000002  9.0093352200000005 20.4768432199999992
 -9.4306575499999994  7.5675521200000002 13.1027363700000006
 -19.0456570999999997 -8.4904279400000000 13.0166723100000006
 -1.8013965400000000  2.2187287000000002  5.3403704300000001
 -3.2882971699999999  3.8054676500000002 21.0349412099999995
 -4.7905854799999998  4.4736457900000000 12.9587682500000003
 -6.0642038400000002  5.4508033300000003  4.7667975100000000
 -7.9538930099999998  6.3240268600000000 20.8878179000000017
 -26.3794677200000010  6.2456247200000004 20.6490892200000005
 -26.6404554800000000  4.7418532400000002 12.8682706699999994
 -26.7605563400000008  2.4076280799999998  4.9188122200000004
 -7.6351229800000002 11.9804426399999997 20.4114449899999997
 -7.8501486600000003 10.5367306000000003 12.5610362099999993
 -7.8650439600000004  8.3998652400000005  5.1198902700000000
 -18.7685939099999999 -7.1974598900000002 20.5511783200000018
 -20.8955847400000003 -6.4389184699999999 12.6694362100000006
 -21.9825544700000002 -5.5563893699999998  5.1959659399999998
 -4.7127897699999997  6.2575256299999999 20.7055019300000005
 -6.4541815299999996  7.0844575299999999 13.0441070299999993
 -24.9669017599999989  6.0280580600000002  4.8567180600000004
 -25.0380573800000015  2.8751627000000002 20.1616467899999989