Li                                      
   1.00000000000000     
    20.0207999999999977    0.0000000000000000    0.0000000000000000
     0.0000000000000000   20.0207999999999977    0.0000000000000000
     0.0000000000000000    0.0000000000000000   20.0207999999999977
   Li
   432
Direct
  0.0279628776072869  0.9939254385439114  0.9989329562255236
  0.9249741813513950  0.0741188379085784  0.0568001803124716
  0.8323337993486746  0.1784484491129206  0.1643109036601942
  0.7474341554783024  0.2452670742427898  0.2500860634939670
  0.6806016253096772  0.3357846769359867  0.3456925222768348
  0.5821256383361302  0.4132288435027576  0.4322112837648859
  0.5122018385878704  0.5180558134540050  0.5128081889834561
  0.4188503246623512  0.5954498716334982  0.5858074822184918
  0.3357154644170066  0.6711588967473858  0.6707860644929298
  0.2526026542395883  0.7582388091384971  0.7383922465635706
  0.1761680567210107  0.8353871193958256  0.8277567514784607
  0.0848784878726150  0.9042381822904204  0.9082840785582960
  0.0943010279309533  0.9232909254375414  0.0926152151762167
  0.0080678184687955  0.9965091439902523  0.1743578448413672
  0.9313757252457435  0.0862350025972987  0.2407808234436217
  0.8491270039159247  0.1741079946855280  0.3236996618516770
  0.7603939243187057  0.2533169089147265  0.4182028325541438
  0.6705132881802953  0.3389681386358205  0.5095063603852026
  0.5742722493606678  0.4144338737712800  0.5973596829297563
  0.4905545153040833  0.5069094281946747  0.6629990380004784
  0.4110701815112279  0.5945888630823930  0.7510143885359213
  0.3315037645848307  0.6733107408295353  0.8245204537281197
  0.2523666631702994  0.7643441410932610  0.9227563493966287
  0.1778043205066737  0.8428471145009198  0.0260542475825147
  0.1715675382602129  0.8508390319068155  0.1812047430672123
  0.0741821995125065  0.9183630239550880  0.2722567744545685
  0.9897347004115744  0.0063259255374390  0.3307383046631500
  0.9099604711100469  0.0895190496883274  0.4251597878206681
  0.8301979536282289  0.1729616363981492  0.5178068154119728
  0.7451432460241350  0.2595415148245834  0.5939740125269708
  0.6692681586150400  0.3281807290417973  0.6759594806401310
  0.5657157820866274  0.4043952089826561  0.7437381273475552
  0.4953931241508798  0.5030144055182575  0.8199807520178979
  0.4068119890314108  0.5941766048309773  0.9032346944178045
  0.3274463248221835  0.6605210910652914  0.0055694517701568
  0.2606852428474369  0.7473083303364518  0.0784648295772428
  0.2556556486254280  0.7625607857827887  0.2576273415647705
  0.1632264549868125  0.8333158954687150  0.3433508621034136
  0.0600620624550459  0.9143463967473835  0.4195395044154111
  0.9907231943778498  0.9950365409973614  0.4945294733477184
  0.9227116114241198  0.0893806835890700  0.5808385908654969
  0.8508222413689737  0.1622695456725012  0.6671580626148810
  0.7717800507472248  0.2392598962079404  0.7496401502437493
  0.6654312230280510  0.3287503391472839  0.8325844896307828
  0.5754896827299589  0.4175540452928956  0.9351978317549765
  0.4940246798329753  0.5110622757332379  0.0070324038000464
  0.3984769894309892  0.5829078493366922  0.0962033635019566
  0.3302428764085334  0.6721547540557822  0.1674613112363161
  0.3152665163230211  0.6779407551146832  0.3296005474306725
  0.2457734945656540  0.7459183479181632  0.4197990215176191
  0.1567610185407204  0.8307850865100264  0.4912583378286612
  0.0669771417725542  0.9011034544074192  0.5800117747542544
  0.0008240380004807  0.9819655218572692  0.6521285408175501
  0.9201814887517017  0.0650994211020546  0.7323382731958787
  0.8390177100815137  0.1566617517781523  0.8281691186166356
  0.7427946026132801  0.2468053883960692  0.9162304023815224
  0.6483550477503428  0.3369556935786804  0.0034842918364930
  0.5769719451770143  0.4049591384959612  0.0853408829816971
  0.5048637357148564  0.5029749255773979  0.1542910078518318
  0.4085190691680651  0.5837340830536277  0.2541135364221176
  0.4104794069168065  0.6020414868536719  0.4180132062654849
  0.3266618421841301  0.6794003211659856  0.4992155123671367
  0.2387978632222456  0.7648122442659613  0.5945758765883511
  0.1470594147086999  0.8368961060497071  0.6651608801846081
  0.0672937529968820  0.9045053824022986  0.7447889699712320
  0.9826764994405792  0.9910798824222837  0.8289378491368993
  0.9300113332134572  0.0821782476224726  0.9216380863901534
  0.8387839986414107  0.1694703258611057  0.0052160712858651
  0.7525929743067223  0.2529936381163580  0.0888083992647637
  0.6720769025213755  0.3255707164548838  0.1659506528210670
  0.5782712379125741  0.4095401817110229  0.2442117293015258
  0.5078732762926563  0.5048762017501787  0.3500021128026845
  0.0975946375769183  0.0887908904739092  0.9127616953368474
  0.0052166651682271  0.1722370150043986  0.9971037016502819
  0.9151354176656312  0.2670894509709925  0.0780346299848134
  0.8379121658475199  0.3363650238751674  0.1759671446695421
  0.7406431770958193  0.4261956200551396  0.2505123741309063
  0.6467084816790560  0.5050954237592933  0.3486985105490277
  0.5845692060257335  0.5931420812355128  0.4181586485055533
  0.5043072779309483  0.6674616693638598  0.5095201900023980
  0.4237749215815541  0.7608689303124763  0.5861438374090966
  0.3482857203508374  0.8453519469751427  0.6615398965076338
  0.2537548114960444  0.9284234770838324  0.7294628051826066
  0.1609483671981167  0.9858150618356873  0.8284799408615058
  0.1634365919443752  0.0079086659873724  0.9856517177135800
  0.0985355919843371  0.0934047355749996  0.0885963847598532
  0.9877355455326438  0.1618231993726553  0.1610412945536623
  0.9206484126508414  0.2683545837329149  0.2470619006233505
  0.8266642926356624  0.3424207649044959  0.3404969326900016
  0.7396235260329291  0.4169479526292648  0.4267220945217005
  0.6647316440901463  0.5139983676975959  0.5133160523056048
  0.5976889734675908  0.5898582164548856  0.5884563334132480
  0.5044621263885531  0.6673492003316568  0.6784953463398082
  0.4195187534963623  0.7670620075121874  0.7411633965675719
  0.3271159623991053  0.8418528120754445  0.8229233966674627
  0.2520469731479267  0.9243447909174449  0.9081185467114210
  0.2560719256972774  0.9413689817589699  0.0982792790497911
  0.1468148585471098  0.9932329811995544  0.1777487163350102
  0.0865533879765010  0.0879120714456931  0.2646829532286432
  0.0033740884480125  0.1787692045272919  0.3302012831655077
  0.9113857053664205  0.2675508096579549  0.4159856783944704
  0.8211941675657286  0.3450051491448889  0.5053228587269274
  0.7463942329976803  0.4196427210700904  0.5902940856509247
  0.6637864211220332  0.4959051846080058  0.6776794363861569
  0.5895347183928692  0.5853695037161373  0.7491127996883264
  0.4908428234635949  0.6753314303124753  0.8474650578398482
  0.4086519489730662  0.7631188943498728  0.9111311536002589
  0.3371901392551777  0.8549340610764773  0.9990038639814571
  0.3327168419843360  0.8179817424878095  0.1646397706385372
  0.2613905248541499  0.9147318663589843  0.2536340216175148
  0.1527063813633802  0.9908262751738164  0.3476239720690515
  0.0762575521457691  0.0811484506113658  0.4093392486813698
  0.0000612163350127  0.1695363471989140  0.4851964551866033
  0.9054601559378241  0.2609019160073558  0.5761884764844538
  0.8413303439423032  0.3433737722768342  0.6832927840046352
  0.7523883980660102  0.4103466779549265  0.7572879515304081
  0.6580065177215673  0.4877067185127473  0.8335181326420553
  0.5930224916087283  0.5818147656437276  0.9211439218213044
  0.4816054093742537  0.6677535128466374  0.9931007632062645
  0.4030043210061507  0.7524130843922308  0.0726548469591606
  0.4218749130903845  0.7456250869096124  0.2483325756213546
  0.3525211894629621  0.8359539808599052  0.3409490704667135
  0.2516024564452977  0.8949966000359595  0.4089661811715786
  0.1581671591544804  0.9827501663270226  0.4929398580476274
  0.0665373956085702  0.0862724231798921  0.5594027171741374
  0.9981689957444289  0.1679149914089351  0.6627475595380830
  0.9151315047350721  0.2603655463318120  0.7678568373891181
  0.8301800777191701  0.3416958148525566  0.8490310776792143
  0.7523195916247118  0.4233249910093519  0.9110149224806179
  0.6737797660433174  0.4931064697714405  0.0032451170782366
  0.5832453917925378  0.5781597768320950  0.0638559008631034
  0.4866593277990887  0.6545552060856679  0.1529018590665743
  0.5066854636178348  0.6777717443858364  0.3299493212059446
  0.4215339776632305  0.7424297775313704  0.4276598852193700
  0.3357862203308528  0.8335905078718113  0.5020134215415979
  0.2530076505434380  0.9162224531487269  0.5944163569887309
  0.1452779489331064  0.9905174583433194  0.6490752742148160
  0.0788366398945115  0.0776508651002956  0.7432652501398564
  0.0043807360345269  0.1588613921521613  0.8242475890074346
  0.9216714127307597  0.2558602603292570  0.9179834017621644
  0.8252462174338717  0.3512640998361718  0.9944570102093806
  0.7676393730520275  0.4101571860265310  0.0951781542196102
  0.6570504260568981  0.4960010374210810  0.1473207264444980
  0.5795191845480687  0.5780757432270462  0.2395496883241464
  0.1684352778110778  0.1613229471349769  0.8117170432749958
  0.0919014729681109  0.2472108207464245  0.8938857078638236
  0.0027841569767446  0.3207536522017094  0.9939054088747667
  0.9138990384999630  0.4162704282546130  0.0790634994605597
  0.8186425412570912  0.5047272161951568  0.1540669998201878
  0.7338986454087717  0.5730147012107381  0.2393065826540379
  0.6638497282825853  0.6626717084232396  0.3361905193598673
  0.6019671007152567  0.7381702059857744  0.4310667735555000
  0.4993275708263383  0.8400184907696016  0.5007251163789661
  0.4375092763525927  0.9161397191920386  0.5754595220970202
  0.3377833018660610  0.9990264774634383  0.6651177495404781
  0.2419157686006557  0.0508221444697483  0.7487891288060382
  0.2525979056780940  0.0866263720730416  0.9194571151002933
  0.1655474706305426  0.1784068713537934  0.0070482283425264
  0.0687969646567552  0.2424630154639189  0.0820075266722640
  0.0018226274674333  0.3390805911851658  0.1662211140413987
  0.9223293879365428  0.4361656262487017  0.2484511817709603
  0.8346936740789559  0.4931898690362004  0.3314383281387379
  0.7528027556341428  0.5782211185367245  0.4019168654599241
  0.6784280523255788  0.6539026212738719  0.5187818858387274
  0.5827299428594230  0.7599152890993395  0.5821040368017236
  0.4968264140294067  0.8449696390753587  0.6645633311356178
  0.4225809737872623  0.9500807989690756  0.7383054618197065
  0.3381471734396229  0.0039598797250875  0.8447937869615600
  0.3353882062654847  0.9966428219651533  0.9781904719092154
  0.2412950301686223  0.0692510943618672  0.0825166267082267
  0.1797516482857802  0.1763909983617040  0.1648938449013002
  0.0917474606409314  0.2555644774434569  0.2489149899104959
  0.0110313044433781  0.3413334257372327  0.3317367707584111
  0.9251187495005198  0.4153163350115889  0.4130447354751041
  0.8234574352673221  0.5054019259969635  0.4829437659833786
  0.7605016058299370  0.5659884225405563  0.5962868107168546
  0.6878474191840453  0.6615784988611821  0.6739946680452320
  0.5808811041516790  0.7477419069168079  0.7414122522576534
  0.5061915747622479  0.8322338787660826  0.8209666082274438
  0.4292950326660261  0.9162744440781623  0.8924929353472422
  0.4189589476943993  0.9202530483297338  0.0840200501478492
  0.3316645613561917  0.0107477223687340  0.1663204961839710
  0.2393679583233421  0.0663032715975405  0.2534331774954026
  0.1634043235035563  0.1668124006033693  0.3270624245784362
  0.0865024654359487  0.2514072469631614  0.4116812185327277
  0.0103738347118991  0.3342878611244302  0.4933705446335779
  0.9212344816390967  0.4316864990409996  0.5726959941660681
  0.8454057764924485  0.4976977028889991  0.6744749400623320
  0.7513538155318500  0.5695299663350113  0.7650642606689075
  0.6596562345161061  0.6793187445057143  0.8279725890074303
  0.5781008995644541  0.7575727778110775  0.9239153180692057
  0.4934783650003993  0.8448320946215944  0.9892647291816488
  0.5016994800407559  0.8225983701949957  0.1641867862423112
  0.4212301146807320  0.9162329417405886  0.2655678324542450
  0.3385803374490521  0.0055503291576784  0.3401043974266784
  0.2375100385598969  0.0848834721889205  0.4213633126548402
  0.1666051391552799  0.1716204172660412  0.4849142606689014
  0.0916270418764498  0.2568028300567420  0.5755275773195905
  0.9978906736993522  0.3508706670063120  0.6673520678494356
  0.9214781592144163  0.4351709002637278  0.7537795392791509
  0.8467017406896815  0.4990445531647083  0.8422213632821851
  0.7265763865579800  0.5806192599696303  0.9118201275673314
  0.6584183189482928  0.6743905363422016  0.9941131628106774
  0.5789578703148734  0.7426386513026486  0.0659189862542959
  0.5883045462718783  0.7383373346719395  0.2497074042995280
  0.5083168759490135  0.8247826325621332  0.3393943733517162
  0.4266074028010891  0.9320064587828654  0.4265709247382716
  0.3531967693598688  0.9916613576880025  0.4983300702269631
  0.2273664693718516  0.0732646707424252  0.5760036906617145
  0.1689745709462187  0.1528165442939340  0.6718972059058572
  0.0794790402980894  0.2428261368177118  0.7433446445696461
  0.0013981309438194  0.3338114351074850  0.8285312679812975
  0.9272062470031202  0.4275475740230164  0.9241557530168620
  0.8163096439702713  0.4983396302845051  0.0096581470270891
  0.7355920917246053  0.5825116229121718  0.0875711300247772
  0.6495402526372587  0.6638371898225870  0.1648854031806906
  0.2609036801726177  0.2501914858547138  0.7441982668025275
  0.1785466310037549  0.3225586350195826  0.8129623626428497
  0.0925180347438683  0.4158921956165571  0.9057366104251585
  0.0148088952489402  0.4979939487932583  0.0134823393670587
  0.9124377627267677  0.5788488511947563  0.0802714237193314
  0.8234744031207555  0.6645349106928791  0.1626103277591326
  0.7446431571165988  0.7302391063294209  0.2459066081275481
  0.6683474656357404  0.8243301416526805  0.3290225395588564
  0.5807528055821933  0.9188647816271072  0.4120104786022551
  0.5108563149324681  0.0169441550787184  0.4915254240589775
  0.4078124145888253  0.0957521832294432  0.5782356903820016
  0.3234143690561808  0.1509785528050855  0.6644173234835762
  0.3371340385998565  0.1589679293534729  0.8170266747582531
  0.2512763041436941  0.2533596259889705  0.9031390244146067
  0.1681613521937209  0.3324704687125362  0.9848982308399243
  0.0975907151562367  0.4017736064492894  0.0723189343083206
  0.0084691505833945  0.5078177015903478  0.1649556905817917
  0.8950764839566858  0.5831268805442349  0.2450788529928900
  0.8351969451770174  0.6603224556461313  0.3312027935946631
  0.7495337723767292  0.7312728707144558  0.4327787401102867
  0.6670710990569830  0.8337995559617966  0.4940542995284929
  0.5953770928234619  0.9106619800407572  0.5718932265443968
  0.5108292920362842  0.0141407191520813  0.6466070796371781
  0.4157461619915281  0.0784634415208174  0.7483497172940119
  0.4258104880923810  0.0875590161232296  0.9177350770198984
  0.3297032596100067  0.1588846369775467  0.0099269839367082
  0.2523371583553100  0.2612359331295480  0.0769043739510877
  0.1819225695276927  0.3363898515543866  0.1599246413729745
  0.0876801211739817  0.4163081330416389  0.2432297630464291
  0.0053669883321348  0.5092713547910179  0.3312504999800225
  0.9284505609166445  0.5909940766602730  0.4286059423199902
  0.8111698268800467  0.6502393450811184  0.5100221274874102
  0.7459149279749084  0.7441568678574271  0.5901414064373043
  0.6736472628466430  0.8301093772476591  0.6607251018940303
  0.5791302405498300  0.9327284953648203  0.7519035368217075
  0.5089659289339110  0.0223775883081601  0.8384715950411561
  0.5099319247982095  0.9949348547510581  0.9944235465116265
  0.4207739980420371  0.0911965780588204  0.0787983357308377
  0.3160780578198654  0.1579203508351341  0.1785227118796442
  0.2453988886557994  0.2544629800008025  0.2521949527491429
  0.1792053858986620  0.3419003736114448  0.3316769964237167
  0.0832570756413347  0.4256948283784894  0.4044936895628553
  0.9966388580875858  0.4969220131063707  0.4975092104211640
  0.9053405867897411  0.5757577514385019  0.5905488841604765
  0.8210191470870285  0.6673076105849916  0.6737739006433330
  0.7447478322544541  0.7309718907336347  0.7424530733037642
  0.6448544678534347  0.8218686296251931  0.8306673319747446
  0.5681369255973792  0.9219923549508522  0.9090876708223448
  0.5951008386278289  0.9195245110085537  0.0918486364181277
  0.4922962339167256  0.0028926796132041  0.1673913185287290
  0.4296129565252116  0.0783392097218893  0.2484089312115429
  0.3356951535403212  0.1641576939982414  0.3205212613881585
  0.2503816460880657  0.2533672675417549  0.4256428004874948
  0.1678557555142675  0.3347094991209119  0.4928339676736186
  0.0881312709781810  0.4107342718572653  0.5860743326939968
  0.0025332484216420  0.5094393670582562  0.6790041207144597
  0.9070238442020297  0.5902149999001054  0.7756291481858852
  0.8224250509470181  0.6568381188563919  0.8444485175417569
  0.7491172215895503  0.7591343677575324  0.9110290248141908
  0.6617298060017589  0.8289342274035008  0.9870340176216743
  0.6603482822864208  0.8203785523056055  0.1735134135499052
  0.5950383790857501  0.9149023690362057  0.2483397536561966
  0.5055422595500687  0.0067713562894625  0.3270185791776541
  0.4227165328058788  0.1007665003396454  0.4122088667785491
  0.3178438009470170  0.1632653150723229  0.4990882177535383
  0.2366595720450704  0.2450727643251014  0.5828317904379432
  0.1797212703788063  0.3417092473827239  0.6598825786182374
  0.0786099191840464  0.4230034738871566  0.7477523340725654
  0.9965958727922981  0.5019259275353605  0.8446911796731413
  0.9099131807919747  0.5840275053943884  0.9252092863422021
  0.8201529129705136  0.6543844416806550  0.0005211559977596
  0.7426425737233302  0.7566377497402712  0.0879517551746218
  0.3240788549908089  0.3146575851114832  0.6567608227443458
  0.2622431186565990  0.4215379490330022  0.7406785807759917
  0.1620280852912970  0.5027490305082694  0.8188551766163172
  0.0797111454087727  0.5815839886518006  0.9083224831175585
  0.0073644155078725  0.6723290532845851  0.0148333053624228
  0.9058792216095242  0.7532006238511926  0.0780900348637417
  0.8290644904299498  0.8305101824102934  0.1704227902980904
  0.7388415497882193  0.9104552345560606  0.2443186241309050
  0.6824796441700656  0.0058702484416173  0.3178932200511468
  0.6002686940581796  0.0817305112682831  0.4198717313993470
  0.5039172106009744  0.1796351239710674  0.4997222838248234
  0.4121658734915670  0.2295180552225702  0.5897015448933089
  0.4148995824342663  0.2356982707983732  0.7543670667505822
  0.3573546311835685  0.3403927405498308  0.8300956505234538
  0.2435184223407632  0.4146873186885642  0.9131260024574459
  0.1753707064652730  0.5021696775353632  0.9990811416127201
  0.0975556561176347  0.5972217778510327  0.0793239470950198
  0.9977990115280093  0.6692290008391240  0.1632494405817937
  0.9237750089906527  0.7477673599456551  0.2481410468113197
  0.8165868052225704  0.8075549743266990  0.3312443498761297
  0.7479544408814860  0.9151583902741152  0.4080144170063136
  0.6643600805162606  0.0124415682689971  0.5100828323543496
  0.5763779734076593  0.0939079981818907  0.5801744865340055
  0.5117453523335698  0.1590176066890407  0.6726372152960920
  0.5077536197354746  0.1590215850515477  0.8383296032126566
  0.4133154704107724  0.2306935512067483  0.9259341070286879
  0.3437326740190230  0.3265626982937775  0.9882608052625272
  0.2582873921122015  0.3997445147047074  0.0886429243586662
  0.1691727528370492  0.4787597393710570  0.1734936740789550
  0.0794768595660500  0.5808090900463512  0.2409583278390457
  0.9992649579437369  0.6617365384999587  0.3196550932030675
  0.9009579082753945  0.7350364106329437  0.4257636393151145
  0.8204795148046031  0.8373257462239252  0.4969872357747960
  0.7484822999080976  0.9162914843562717  0.5813113167305985
  0.6602040387996482  0.9912249620394817  0.6619272651442500
  0.5824844771437725  0.0876831635099506  0.7564428943898349
  0.6098748206864855  0.0828271153000912  0.9128439018420877
  0.5013397281826926  0.1516581759969640  0.9911871333812812
  0.4081337449052995  0.2413516732598069  0.0835105470310893
  0.3499321855270523  0.3204978167705619  0.1858377622272869
  0.2663991309038636  0.4148946136018523  0.2556754380444346
  0.1757277551346590  0.4987745389794611  0.3211586225325647
  0.0842155887876643  0.5909661367178103  0.4322125894070155
  0.9842850984975655  0.6721705945816367  0.5040686046511595
  0.8922000459522081  0.7439514454966840  0.5761066390953431
  0.8324073323743306  0.8289597208902748  0.6709979421401755
  0.7563785682889801  0.9121431526212760  0.7527853077799094
  0.6778590995364837  0.9903353262606913  0.8224391422920192
  0.6738469776432510  0.9798682495205000  0.9963989720690449
  0.5888130808958678  0.0749466030328492  0.0808838203268607
  0.5076560152441445  0.1624601938983474  0.1669014784623997
  0.4352013081395327  0.2318891692639653  0.2565226459482162
  0.3499704152681247  0.3304085366219098  0.3319352927954924
  0.2763336490050321  0.4257422265843545  0.4080298394669555
  0.1704663290178203  0.5055559787820698  0.5104617352952943
  0.0929786651882054  0.5734313369096142  0.5743047725365642
  0.9931938833613074  0.6601648515543843  0.6571584721889252
  0.9093109406217508  0.7367643216055271  0.7490210625948990
  0.8372155728042827  0.8178208188483964  0.8311462234276377
  0.7509264964436966  0.9040968128146716  0.9031508815831515
  0.7440847923159950  0.9110890279109753  0.0890207689003404
  0.6811271982138578  0.0065536517022267  0.1800083712938516
  0.5852351364580812  0.0910494710501055  0.2465727193718550
  0.5109321165987382  0.1733514410013584  0.3454019000239725
  0.4265899319707529  0.2389035647926150  0.4201475880084686
  0.3416816236114428  0.3305729855949835  0.5029295183009665
  0.2423509245384778  0.4091824992008313  0.5699758276392544
  0.1616955396387780  0.5012927265643725  0.6662569123111979
  0.0877890778590285  0.5933572719371867  0.7425493636617944
  0.9978998546511662  0.6604634130504294  0.8381413999440568
  0.9108673559498115  0.7506922670422753  0.9298684113521958
  0.8297882237473004  0.8341382117597718  0.0123850690282126
  0.4201293724526494  0.4264100520458740  0.5887262147366741
  0.3238847728362515  0.4931481074682296  0.6736519409813795
  0.2620669503716115  0.5755363491968382  0.7428370155038735
  0.1712975660313276  0.6776156477263626  0.8291594916287082
  0.0865411946575563  0.7544041052305630  0.9180660378206653
  0.0063723477583295  0.8394975215775560  0.0132987418085193
  0.9148385444138114  0.9359212264245187  0.0752312589906481
  0.8368585246343798  0.0013267272037112  0.1744885728842007
  0.7533366358986626  0.1001649764245158  0.2559120140054318
  0.6723385254335525  0.1781664993406835  0.3480026057899792
  0.5887028275593380  0.2497488112363158  0.4162652036881624
  0.4873399619395826  0.3232559088547902  0.5112910597978129
  0.4777275783185502  0.3263674513505919  0.6728439018420858
  0.4106949112922536  0.4237771542595681  0.7517397946135986
  0.3341813798649440  0.4994795577599263  0.8357721474666349
  0.2423425857108583  0.5824108477183714  0.9174042910373217
  0.1678593008271392  0.6644346025133885  0.9976416556780947
  0.0964871718412823  0.7614924988012461  0.0842065257132560
  0.0019125739231214  0.8273599331695038  0.1539782521177955
  0.9181701790138277  0.9071094901302672  0.2492888765683716
  0.8394131458283383  0.0086987887596877  0.3291034514105320
  0.7584248761288279  0.0911848477583348  0.4204999016023336
  0.6698599356669064  0.1807423674378654  0.5044482927755141
  0.5729906717014330  0.2393077519379858  0.5963313543914310
  0.5719382372332760  0.2534464911492051  0.7424372088028477
  0.5102228287580886  0.3271178654199645  0.8417993591664654
  0.4278214426995959  0.4116307914768669  0.9165362093422829
  0.3333004385439153  0.4926292690601741  0.9986794503716112
  0.2624531816910434  0.5834749280747999  0.0973245959202416
  0.1812470990170212  0.6593226814113322  0.1755388156317395
  0.0883909159474143  0.7470530698074000  0.2361863881563195
  0.9842219556661078  0.8125326545392824  0.3323257497202903
  0.9097784843762469  0.9015496149005031  0.4080007437265252
  0.8313841969351898  0.0049965930432379  0.5034783305362396
  0.7368688953488345  0.0863599276752183  0.5964293914329133
  0.6652003271597522  0.1627294363861580  0.6791338682769918
  0.6669680712059431  0.1770818428834033  0.8197431910812725
  0.5854734181451278  0.2452543754495338  0.9166275308678991
  0.4933155128666158  0.3174054258571104  0.0059514200231732
  0.4066086145408789  0.4096163909534098  0.0958247742347993
  0.3364583213458019  0.4981444437784717  0.1698405173619406
  0.2514707634060613  0.5711389479940863  0.2481009215415995
  0.1636640828538347  0.6587716769559648  0.3349562175337653
  0.0717971115040328  0.7418203443418818  0.4204028290577781
  0.9856137337169315  0.8181360684887693  0.4963960226364605
  0.9053664953448433  0.9181879385439160  0.5763515319068162
  0.8231014499920093  0.0070507287421080  0.6614081000759242
  0.7580704602213686  0.0804056306441296  0.7507003875969005
  0.7573378106768942  0.0825785113481956  0.9074088552904982
  0.6758359336290241  0.1583091939383010  0.0083522082034690
  0.5784623981059696  0.2445221279868903  0.0855115574802241
  0.5012431446295835  0.3208207479221628  0.1689431361384166
  0.4290024049987977  0.4155134430192575  0.2619852248661374
  0.3461031062694815  0.5138959377247687  0.3261850270718440
  0.2510901457484209  0.5790529079757079  0.4224347758331319
  0.1755215825541470  0.6628798289778643  0.5173286287261263
  0.0720358582074638  0.7498238407056661  0.5738224196835304
  0.9740779434388216  0.8120712434068551  0.6611225969991210
  0.9060052620274917  0.9202560921641521  0.7350021802325557
  0.8382566161192386  0.9839090136258264  0.8356774054982807
  0.8203890628746109  0.9972447774314688  0.9991011238312169
  0.7502662850635318  0.0851778095780418  0.0925449967034311
  0.6675721649484530  0.1621331650083917  0.1667171736394124
  0.5962297645448729  0.2672918394869370  0.2608621153999806
  0.5019026472468653  0.3394273940102295  0.3511580975785193
  0.4173491608726891  0.4367772796291831  0.4376760249340705
  0.3372418190082342  0.5064428744106095  0.5020686760768811
  0.2585223152920975  0.5909833987652817  0.5866704437385124
  0.1603637092423895  0.6752318004275537  0.6872351414528879
  0.0595469806401354  0.7623834207424309  0.7596028085790749
  0.9779413150323677  0.8335165422960102  0.8376865210181421
  0.9071294598617428  0.9148732328378486  0.9157214716694639
 
  0.00000000E+00  0.00000000E+00  0.00000000E+00
  0.00000000E+00  0.00000000E+00  0.00000000E+00
  0.00000000E+00  0.00000000E+00  0.00000000E+00
  0.00000000E+00  0.00000000E+00  0.00000000E+00
  0.00000000E+00  0.00000000E+00  0.00000000E+00
  0.00000000E+00  0.00000000E+00  0.00000000E+00
  0.00000000E+00  0.00000000E+00  0.00000000E+00
  0.00000000E+00  0.00000000E+00  0.00000000E+00
  0.00000000E+00  0.00000000E+00  0.00000000E+00
  0.00000000E+00  0.00000000E+00  0.00000000E+00
  0.00000000E+00  0.00000000E+00  0.00000000E+00
  0.00000000E+00  0.00000000E+00  0.00000000E+00
  0.00000000E+00  0.00000000E+00  0.00000000E+00
  0.00000000E+00  0.00000000E+00  0.00000000E+00
  0.00000000E+00  0.00000000E+00  0.00000000E+00
  0.00000000E+00  0.00000000E+00  0.00000000E+00
  0.00000000E+00  0.00000000E+00  0.00000000E+00
  0.00000000E+00  0.00000000E+00  0.00000000E+00
  0.00000000E+00  0.00000000E+00  0.00000000E+00
  0.00000000E+00  0.00000000E+00  0.00000000E+00
  0.00000000E+00  0.00000000E+00  0.00000000E+00
  0.00000000E+00  0.00000000E+00  0.00000000E+00
  0.00000000E+00  0.00000000E+00  0.00000000E+00
  0.00000000E+00  0.00000000E+00  0.00000000E+00
  0.00000000E+00  0.00000000E+00  0.00000000E+00
  0.00000000E+00  0.00000000E+00  0.00000000E+00
  0.00000000E+00  0.00000000E+00  0.00000000E+00
  0.00000000E+00  0.00000000E+00  0.00000000E+00
  0.00000000E+00  0.00000000E+00  0.00000000E+00
  0.00000000E+00  0.00000000E+00  0.00000000E+00
  0.00000000E+00  0.00000000E+00  0.00000000E+00
  0.00000000E+00  0.00000000E+00  0.00000000E+00
  0.00000000E+00  0.00000000E+00  0.00000000E+00
  0.00000000E+00  0.00000000E+00  0.00000000E+00
  0.00000000E+00  0.00000000E+00  0.00000000E+00
  0.00000000E+00  0.00000000E+00  0.00000000E+00
  0.00000000E+00  0.00000000E+00  0.00000000E+00
  0.00000000E+00  0.00000000E+00  0.00000000E+00
  0.00000000E+00  0.00000000E+00  0.00000000E+00
  0.00000000E+00  0.00000000E+00  0.00000000E+00
  0.00000000E+00  0.00000000E+00  0.00000000E+00
  0.00000000E+00  0.00000000E+00  0.00000000E+00
  0.00000000E+00  0.00000000E+00  0.00000000E+00
  0.00000000E+00  0.00000000E+00  0.00000000E+00
  0.00000000E+00  0.00000000E+00  0.00000000E+00
  0.00000000E+00  0.00000000E+00  0.00000000E+00
  0.00000000E+00  0.00000000E+00  0.00000000E+00
  0.00000000E+00  0.00000000E+00  0.00000000E+00
  0.00000000E+00  0.00000000E+00  0.00000000E+00
  0.00000000E+00  0.00000000E+00  0.00000000E+00
  0.00000000E+00  0.00000000E+00  0.00000000E+00
  0.00000000E+00  0.00000000E+00  0.00000000E+00
  0.00000000E+00  0.00000000E+00  0.00000000E+00
  0.00000000E+00  0.00000000E+00  0.00000000E+00
  0.00000000E+00  0.00000000E+00  0.00000000E+00
  0.00000000E+00  0.00000000E+00  0.00000000E+00
  0.00000000E+00  0.00000000E+00  0.00000000E+00
  0.00000000E+00  0.00000000E+00  0.00000000E+00
  0.00000000E+00  0.00000000E+00  0.00000000E+00
  0.00000000E+00  0.00000000E+00  0.00000000E+00
  0.00000000E+00  0.00000000E+00  0.00000000E+00
  0.00000000E+00  0.00000000E+00  0.00000000E+00
  0.00000000E+00  0.00000000E+00  0.00000000E+00
  0.00000000E+00  0.00000000E+00  0.00000000E+00
  0.00000000E+00  0.00000000E+00  0.00000000E+00
  0.00000000E+00  0.00000000E+00  0.00000000E+00
  0.00000000E+00  0.00000000E+00  0.00000000E+00
  0.00000000E+00  0.00000000E+00  0.00000000E+00