Li 
 1.0000000000000000
    20.0207999999999977    0.0000000000000000    0.0000000000000000
     0.0000000000000000   20.0207999999999977    0.0000000000000000
     0.0000000000000000    0.0000000000000000   20.0207999999999977
 Li 
 432
Cartesian
  0.5598391800000000 -0.1216175800000000 -0.0213630700000000
 18.5187230900000017  1.4839184299999999  1.1371850500000000
 16.6639885300000010  3.5726807100000002  3.2896357400000000
 14.9642297400000004  4.9104430399999996  5.0069230600000001
 13.6261890200000000  6.7226778600000001  6.9210408499999998
 11.6546209800000007  8.2731720299999996  8.6532156699999998
 10.2546905699999993 10.3718918299999991 10.2668301900000003
  8.3857185800000007 11.9213827899999991 11.7283344399999994
  6.7212921699999999 13.4371380400000007 13.4296736400000007
  5.0573072200000002 15.1805475500000000 14.7832034900000000
  3.5270254300000001 16.7251184399999993 16.5723523700000008
  1.6993352300000000 18.1035718000000010 18.1845738799999985
  1.8879820199999999 18.4850229599999984  1.8542307000000000
  0.1615241800000000 -0.0698897300000000  3.4907835399999998
 18.6468871199999988  1.7264937400000000  4.8206247099999997
 17.0002019199999985  3.4857813400000000  6.4807261900000004
 15.2236946799999995  5.0716071700000001  8.3727552700000007
 13.4242124399999998  6.7864133100000004 10.2007249400000006
 11.4973898499999994  8.2972976999999997 11.9596187399999998
  9.8212938399999992 10.1487322800000008 13.2737711399999991
  8.2299538900000009 11.9041447100000006 15.0359088700000001
  6.6369705699999999 13.4802196799999994 16.5075591000000017
  5.0525824899999998 15.3027811800000002 18.4743203200000004
  3.5597847400000000 16.8744735100000014  0.5216268800000000
  3.4349193699999998 17.0344780900000003  3.6278639199999998
  1.4851869799999999 18.3863624299999984  5.4507984299999999
 -0.2055195100000000  0.1266500900000000  6.6216454499999999
 18.2181366000000011  1.7922429900000001  8.5120390799999992
 16.6212271899999990  3.4628303300000001 10.3669066900000004
 14.9183638999999992  5.1962287600000003 11.8918349100000000
 13.3992839499999992  6.5704407399999996 13.5332495700000006
 11.3260825300000008  8.0963156000000005 14.8902322999999992
  9.9181666600000007 10.0707508099999998 16.4166706399999995
  8.1447014699999993 11.8958909700000000 18.0834811699999989
  6.5557373800000001 13.2241606600000008 20.1323048799999995
  5.2191271099999996 14.9617106199999998  1.5709286600000001
  5.1184306099999999 15.2670769800000006  5.1579054800000002
  3.2679242099999999 16.6836508799999983  6.8741589400000001
  1.2024905400000001 18.3059463399999984  8.3995165099999998
 -0.1857290700000000 -0.0993724200000000  9.9008756800000004
 18.4734246300000002  1.7894727900000000 11.6288532599999996
 17.0341419300000005  3.2487661200000000 13.3570381400000002
 15.4516540399999993  4.7901745299999998 15.0083955200000005
 13.3224654299999994  6.5818447899999999 16.6690075499999999
 11.5217638400000002  8.3597660299999994 18.7234087500000008
  9.8907693099999996 10.2318756099999995  0.1407943500000000
  7.9778281099999999 11.6702814700000008  1.9260683000000001
  6.6117265800000000 13.4570758999999995  3.3527094200000001
  6.3118878699999996 13.5729162700000003  6.5988666399999998
  4.9205819799999997 14.9338820600000002  8.4047122499999993
  3.1384810000000001 16.6329820599999998  9.8353849300000000
  1.3409359599999999 18.0408120399999987 11.6122997399999992
  0.0164979000000000 -0.3610646800000000 13.0561350899999997
 18.4227695500000017  1.3033424899999999 14.6619980999999999
 16.7978057700000001  3.1364936000000001 16.5806082900000007
 14.8713421799999992  4.9412413199999996 18.3436656400000011
 12.9805867399999997  6.7461225499999999  0.0697583100000000
 11.5514399200000000  8.1076059199999992  1.7085927500000000
 10.1077758800000002 10.0699603900000003  3.0890294100000002
  8.1788785799999992 11.6868233299999993  5.0875562900000002
  8.2181261100000000 12.0533522000000008  8.3689587999999997
  6.5400314100000001 13.6021379499999995  9.9946939300000004
  4.7809242599999999 15.3121529800000005 11.9038847099999998
  2.9442471299999999 16.7553295599999998 13.3170529500000008
  1.3472747700000001 18.1089213600000001 14.9112710100000001
 -0.3468303400000000 -0.1785878900000000 16.5959988900000006
 18.6195708999999994  1.6452742600000001 18.4519318000000005
 16.7931266800000003  3.3929315000000000 20.1252299199999989
 15.0675134199999992  5.0651350300000004  1.7780152000000000
 13.4555172499999998  6.5181861999999997  3.3224648299999999
 11.5774527999999997  8.1993220699999991  4.8893141900000003
 10.1680292899999998 10.1080254600000004  7.0073223000000002
  1.9539227200000000  1.7776646599999999 18.2742193499999992
  0.1044418100000000  3.4483228299999999 -0.0579862100000000
 18.3217431700000013  5.3473444800000003  1.5623157200000000
 16.7756718900000017  6.7342968699999997  3.5230030100000000
 14.8282689199999993  8.5327772700000004  5.0154581399999998
 12.9476211699999997 10.1124144600000001  6.9812231400000000
 11.7035431600000006 11.8751789799999994  8.3718706699999998
 10.0966351499999991 13.3631165900000006 10.2010018200000001
  8.4843129499999996 15.2332046800000001 11.7350685400000003
  6.9729587500000001 16.9246222599999996 13.2445579599999999
  5.0803743299999997 18.5877807500000003 14.6044289299999992
  3.2223150700000001 -0.2839938100000000 16.5868311999999989
  3.2721313200000002  0.1583378200000000 -0.2872640900000000
  1.9727613799999999  1.8700375300000001  1.7737704999999999
 -0.2455441900000000  3.2398299100000001  3.2241755500000000
 18.4321177399999989  5.3726734499999997  4.9463768999999997
 16.5504804700000001  6.8555376499999996  6.8170209899999996
 14.8078546899999992  8.3476315700000008  8.5433177100000002
 13.3084593000000009 10.2906585199999991 10.2769980200000006
 11.9662114000000006 11.8094333799999998 11.7813665600000004
 10.0997353400000005 13.3608648700000003 13.5840196300000002
  8.3991010599999996 15.3571950400000006 14.8386841300000007
  6.5491232600000000 16.8545667799999990 16.4755847399999986
  5.0461820399999997 18.5061221899999993 18.1812597999999994
  5.1267648100000001 18.8469601100000013  1.9676297899999999
  2.9393509199999999 -0.1354811300000000  3.5586715000000000
  1.7328680700000001  1.7600700000000000  5.2991644700000000
  0.0675519500000000  3.5791024899999999  6.6108938500000001
 18.2466709300000005  5.3565812499999996  8.3283660699999995
 16.4409641899999990  6.9072790900000003 10.1169678899999997
 14.9434096600000004  8.4015829899999996 11.8181598300000008
 13.2895351799999997  9.9284185199999992 13.5676844600000006
 11.8029566900000003 11.7195657600000001 14.9978375400000008
  9.8270660000000003 13.5206754999999994 16.9669284299999994
  8.1815389399999994 15.2782507600000006 18.2415745999999999
  6.7508163400000001 17.1164638499999988 20.0008565599999990
  6.6612573499999996 16.3766488700000004  3.2962199200000000
  5.2332474199999997 18.3136637499999999  5.0779560200000002
  3.0573039199999998 -0.1836653100000000  6.9597100200000002
  1.5267371999999999  1.6246569000000000  8.1952992299999998
  0.0012256000000000  3.3942532999999999  9.7140211900000004
 18.1280366899999983  5.2234650800000004 11.5357542500000001
 16.8441065499999993  6.8746176200000004 13.6800681700000002
 15.0634176400000008  8.2154687699999993 15.1615106199999996
 13.1738168899999994  9.7642786699999995 16.6876998299999997
 11.8727847000000004 11.6483970600000006 18.4420382300000014
  9.6421255800000001 13.3689595299999997 19.8826717600000009
  8.0684689100000000 15.0639118799999991  1.4546081600000000
  8.4462732599999999 14.9280107399999995  4.9718168299999999
  7.0577562299999999 16.7364674600000001  6.8260731500000000
  5.0372824600000001 17.9185479299999990  8.1878301199999992
  3.1666330600000001 -0.3453554700000000  9.8690503100000004
  1.3321318900000001  1.7272429300000001 11.1996899200000009
 -0.0366581700000000  3.3617924600000002 13.2687363400000002
 18.3216648299999996  5.2127265300000003 15.3731081700000001
 16.6208692999999990  6.8410235699999999 16.9982813999999998
 15.0620400799999992  8.4753049800000007 18.2392475599999990
 13.4896099399999994  9.8723860099999996 20.0857698400000011
 11.6770393400000003 11.5752212599999993  1.2784462200000000
  9.7433090700000005 13.1047188699999992  3.0612175399999999
 10.1442483299999999 13.5695325400000009  6.6058493699999996
  8.4394474600000002 14.8640380899999993  8.5620930299999998
  6.7227087599999997 16.6891488400000014 10.0507103099999995
  5.0654155699999999 18.3435064899999993 11.9006910000000001
  2.9085807600000000 -0.1898480700000000 12.9950062499999994
  1.5783726000000000  1.5546324400000000 14.8807649200000007
  0.0877058400000000  3.1805321599999998 16.5020961300000018
 18.4525990200000010  5.1225271000000001 18.3787620899999986
 16.5220894700000009  7.0325882899999996 19.9098249100000011
 15.3687543600000005  8.2116749900000006  1.9055427899999999
 13.1546751700000009  9.9303375700000007  2.9494788000000001
 11.6024376900000004 11.5735388399999994  4.7959763999999998
  3.3722090100000002  3.2298144600000001 16.2512245799999988
  1.8399410100000000  4.9493584000000004 17.8963069799999985
  0.0557410500000000  6.4217447200000004 -0.1220185900000000
 18.2969898700000009  8.3340669900000002  1.5829145099999999
 16.3898785899999986 10.1050426499999997  3.0845445900000001
 14.6932379999999991 11.4722127300000007  4.7911092300000000
 13.2908026400000008 13.2672177399999995  6.7308031499999998
 12.0518629300000004 14.7787580599999995  8.6303016600000007
  9.9969374299999991 16.8178422000000012 10.0249174100000005
  8.7592857199999994 18.3418500900000012 11.5211600000000001
  6.7626919299999999 20.0013092999999991 13.3161894400000005
  4.8433472200000001  1.0174999899999999 14.9913573899999992
  5.0572121499999998  1.7343292699999999 18.4082670099999994
  3.3143927999999998  3.5718482900000001  0.1411111700000000
  1.3773702699999999  4.8543035400000001  1.6418562900000000
  0.0364904600000000  6.7886647000000000  3.3278796800000001
 18.4657722100000008  8.7323847699999995  4.9741914200000004
 16.7112351100000005  9.8740557300000003  6.6356604800000003
 15.0717134099999992 11.5764493700000006  8.0466971800000007
 13.5826723499999993 13.0916536000000008 10.3864283799999999
 11.6667196400000002 15.2141120200000000 11.6541885000000001
  9.9468622700000004 16.9169681499999989 13.3050895400000009
  8.4604091599999993 19.0213776599999989 14.7814659899999992
  6.7699769300000003 20.1000799599999986 16.9134474499999996
  6.7147401999999996 -0.0672133900000000 -0.4366442000000000
  4.8309195400000000  1.3864623100000000  1.6520488799999999
  3.5987718000000002  3.5314888999999998  3.3013066900000001
  1.8368575599999999  5.1166052899999999  4.9834772300000001
  0.2208555400000000  6.8337682500000003  6.6416355400000002
 18.5216174600000016  8.3149652799999991  8.2694860400000003
 16.4862766200000017 10.1185508800000008  9.6689205499999993
 15.2258505500000005 11.3315410100000005 11.9381389799999997
 13.7712556100000008 13.2453308100000005 13.4939124499999998
 11.6297044100000004 14.9703911699999992 14.8436664199999999
 10.1343602799999992 16.6619880400000007 16.4364082700000012
  8.5948299899999991 18.3445473899999989 17.8684225599999991
  8.3878933000000000 18.4242022299999988  1.6821486200000000
  6.6401898499999996  0.2151780000000000  3.3298693899999998
  4.7923380199999999  1.3274445399999999  5.0739349599999999
  3.2714852799999998  3.3397177100000000  6.5480513900000004
  1.7318485600000000  5.0333742099999998  8.2421873399999992
  0.2076924700000000  6.6927104100000001  9.8776729999999997
 18.4438513099999994  8.6427090599999996 11.4658319599999992
 16.9256999700000001  9.9643061700000004 13.5035278800000000
 15.0427044700000003 11.4024455499999995 15.3171985500000005
 13.2068455399999998 13.6005047200000000 16.5766736100000003
 11.5740424900000001 15.1672130700000007 18.4975237999999997
  9.8798316499999999 16.9142143999999988 19.8058712899999989
 10.0444249499999998 16.4690774500000003  3.2871508100000000
  8.4333638799999999 18.3437164800000012  5.3168804600000001
  6.7786492200000001  0.1111220300000000  6.8091621199999999
  4.7551409800000002  1.6994350199999999  8.4360306099999995
  3.3355681700000002  3.4359780500000001  9.7083714299999997
  1.8344466800000001  5.1413981000000000 11.5225225200000008
 -0.0422304000000000  7.0247114499999999 13.3609222800000005
 18.4487299299999989  8.7124695600000006 15.0912693999999998
 16.9516462099999998  9.9912711900000009 16.8619454699999984
 14.5466405200000004 11.6244620800000007 18.2553684099999991
 13.1820614799999998 13.5018380499999999 19.9029408100000005
 11.5911997299999996 14.8682199100000005  1.3197508400000000
 11.7783276600000004 14.7821041100000006  4.9993420000000004
 10.1769105100000008 16.5128081299999998  6.7949468700000004
  8.5410214900000003 18.6595149099999986  8.5402911699999997
  7.0712818799999999 -0.1669462900000000  9.9769666699999995
  4.5520586099999996  1.4668173200000001 11.5320546900000007
  3.3830060899999999  3.0595094700000001 13.4519195800000002
  1.5912339700000000  4.8615735200000003 14.8823544600000002
  0.0279917000000000  6.6831719800000000 16.5878588100000002
 18.5634108299999987  8.5598444699999998 18.5023374999999994
 16.3431721199999984  9.9771580699999998 20.2141638300000004
 14.7271421500000006 11.6623487000000008  1.7532440800000000
 13.0043154899999998 13.2905516099999996  3.3011376800000001
  5.2235003999999998  5.0090336999999998 14.8994446600000003
  3.5746463899999998  6.4578819200000002 16.2761568700000012
  1.8522850700000000  8.3264944700000001 18.1335715300000011
  0.2964859300000000  9.9702372500000003  0.2699272200000000
 18.2677339600000010 11.5890170799999996  1.6070981200000001
 16.4866163300000004 13.3045205400000004  3.2555888500000001
 14.9083517200000006 14.6199711000000008  4.9232470199999998
 13.3808509400000002 16.5037489000000015  6.5872944599999999
 11.6271357700000006 18.3964080199999991  8.2487793899999993
 10.2277521100000008  0.3392355400000000  9.8407322100000005
  8.1647307900000001  1.9170353099999999 11.5767411100000004
  6.4750144000000001  3.0227114099999999 13.3021663500000003
  6.7496931599999996  3.1826651199999998 16.3575276500000015
  5.0307526300000003  5.0724624000000000 18.0815657799999983
  3.3667248000000001  6.6563247600000004 -0.3023495000000000
  1.9538441900000001  8.0438290200000004  1.4478829200000001
  0.1695591700000000 10.1669166400000002  3.3025448900000001
 17.9201472700000011 11.6746666500000007  4.9066746999999999
 16.7213110000000000 13.2201838200000008  6.6309448900000003
 15.0062657500000007 14.6406678899999996  8.6645766000000002
 13.3552970599999998 16.6933341499999983  9.8913623200000007
 11.9199257000000003 18.2321813699999993 11.4497599099999992
 10.2272110900000008 20.3039085099999994 12.9455910200000002
  8.3235707600000008  1.5709008700000000 14.9825600199999993
  8.5250666200000005  1.7530015500000000 18.3737904299999997
  6.6009230199999998  3.1809975399999999  0.1987461600000000
  5.0519917799999998  5.2301523699999999  1.5396870899999999
  3.6422353799999998  6.7347939400000003  3.2018192600000002
  1.7554261700000000  8.3348218700000007  4.8696544399999997
  0.1074514000000000 10.1960199399999993  6.6319000099999998
 18.5883229900000018 11.8321742099999998  8.5810338500000007
 16.2402688700000013 13.0183118800000006 10.2110510100000003
 14.9338135899999997 14.8986158199999998 11.8151030699999993
 13.4869571199999996 16.6194538200000004 13.2282451200000004
 11.5946507200000006 18.6739706599999984 15.0537103299999995
 10.1899050700000000  0.4480172200000000 16.7868721100000009
 10.2092450800000005 -0.1014082600000000 -0.1116450600000000
  8.4242320599999996  1.8258284499999999  1.5776057200000000
  6.3281355799999996  3.1616917600000001  3.5741675100000001
  4.9130820699999997  5.0945524300000002  5.0491447100000002
  3.5878351899999998  6.8451190000000004  6.6404388100000000
  1.6668732600000000  8.5227510199999994  8.0982872599999993
 -0.0672927500000000  9.9487762400000008  9.9605324000000000
 18.1256428199999995 11.5271307899999993 11.8232610999999999
 16.4374601399999989 13.3600322100000000 13.4894925099999998
 14.9104474000000007 14.6346420300000002 14.8645044899999998
 12.9105023299999999 16.4544674600000000 16.6306245200000014
 11.3745557599999998 18.4590245400000015 18.2006624399999986
 11.9143948700000006 18.4096163299999986  1.8388831800000001
  9.8561644400000006  0.0579137600000000  3.3513081100000002
  8.6011950800000001  1.5684136500000001  4.9733455299999996
  6.7208855300000003  3.2865683600000000  6.4170920699999998
  5.0128408599999998  5.0726153900000002  8.5217093800000008
  3.3606065100000002  6.7011519399999999  9.8669302999999999
  1.7644585500000001  8.2232287100000008 11.7336770000000001
  0.0507176600000000 10.1993836800000004 13.5942056999999998
 18.1593429800000017 11.8165764699999993 15.5287160499999999
 16.4656074600000011 13.1504246100000000 16.9065348799999988
 14.9979260700000001 15.1984773499999992 18.2395299000000009
 13.2483600999999993 16.5959263800000016 -0.2595893400000000
 13.2207008899999998 16.4246349199999990  3.4738773500000000
 11.9131443800000003 18.3170773500000017  4.9719605400000004
 10.1213604700000008  0.1355679700000000  6.5471735700000000
  8.4631231600000003  2.0174259499999998  8.2527512800000000
  6.3634871700000000  3.2687022200000002  9.9921453899999992
  4.7381139599999997  4.9065528000000000 11.6687587100000005
  3.5981636099999998  6.8412924999999998 13.2113771300000007
  1.5738334700000001  8.4688679499999999 14.9705999300000006
 -0.0681533500000000 10.0489586099999997 16.9113931700000002
 18.2171898100000007 11.6926978800000008 18.5234300800000007
 16.4201174399999985 13.1013000300000009  0.0104339600000000
 14.8682984400000002 15.1484930599999998  1.7608645000000001
  6.4883179400000000  6.2996965800000000 13.1488770800000001
  5.2503170299999997  8.4395269699999993 14.8289777300000001
  3.2439318899999998 10.0654377900000007 16.3941357200000013
  1.5958809000000000 11.6437767200000000 18.1853427699999983
  0.1474414900000000 13.4605655100000003  0.2969746400000000
 18.1364267199999993 15.0796790499999993  1.5634249700000000
 16.5985343500000013 16.6274782600000002  3.4120005999999998
 14.7921989000000007 18.2280421600000011  4.8914543100000003
 13.6637884599999992  0.1175270700000000  6.3644765799999998
 12.0178594699999994  1.6363102199999999  8.4061679599999994
 10.0888256900000002  3.5964388899999999 10.0048399000000003
  8.2518905199999999  4.5951350800000004 11.8062966899999999
  8.3066215600000000  4.7188679400000000 15.1030321700000005
  7.1545256000000004  6.8149349800000003 16.6191789999999990
  4.8754336299999999  8.3023718700000000 18.2815130699999990
  3.5110618400000000 10.0538386800000001 -0.0183962800000000
  1.9531422800000000 11.9568577699999992  1.5881288800000000
 -0.0440655500000000 13.3984999800000004  3.2683844000000000
 18.4947146999999994 14.9709007599999993  4.9679822700000003
 16.3487211099999996 16.1678966300000013  6.6317768800000003
 14.9746462699999991 18.3222030999999994  8.1687750399999999
 13.3010202999999994  0.2490901500000000 10.2122663700000000
 11.5395481300000000  1.8801132500000000 11.6155573600000004
 10.2455513499999995  3.1836597000000002 13.4667351600000007
 10.1656336700000001  3.1837393500000002 16.7840293199999984
  8.2749063700000001  4.6186694499999996 18.5379415700000010
  6.8818031199999998  6.5380464700000003 -0.2350280700000000
  5.1711202199999997  8.0032049799999996  1.7747022600000000
  3.3869738500000000  9.5851529899999992  3.4734821500000002
  1.5911903100000000 11.6282626300000000  4.8241784900000004
 -0.0147161300000000 13.2484948899999999  6.3997506900000003
 18.0378980899999988 14.7160169700000001  8.5241286699999996
 16.4266562699999987 16.7639312999999994  9.9500820500000007
 14.9852144299999992 18.3448885500000003 11.6383176099999996
 13.2178130199999995 -0.1756832800000000 13.2523133899999994
 11.6618052199999997  1.7554870800000000 15.1445919000000000
 12.2101818099999999  1.6582651100000001 18.2758651900000011
 10.0372224299999999  3.0363180100000000 -0.1764406400000000
  8.1711640800000005  4.8320535800000002  1.6719479600000000
  7.0059222999999999  6.4166226899999996  3.7206206700000002
  5.3335237199999996  8.3065220800000006  5.1188268099999998
  3.5182102400000002  9.9858652899999996  6.4298525499999997
  1.6860634600000000 11.8316148299999995  8.6532418100000008
 -0.3146249000000000 13.4573930399999995 10.0918567199999991
 17.8625586799999994 14.8945030999999997 11.5341158000000004
 16.6654607199999987 16.5964367800000012 13.4339156000000006
 15.1433040400000003 18.2618356300000002 15.0713640899999994
 13.5712814599999998 -0.1934945000000000 16.4658895799999989
 13.4909555700000006 -0.4030537500000000 -0.0720954600000000
 11.7885089300000008  1.5004909500000001  1.6193587899999999
 10.1636795499999995  3.2525830500000001  3.3415011200000002
  8.7130783500000000  4.6426066800000001  5.1357885899999998
  7.0066876899999997  6.6150432300000004  6.6456101099999998
  5.5324207200000002  8.5236999699999991  8.1690838100000001
  3.4128722800000002 10.1216351400000004 10.2198523100000003
  1.8615072600000000 11.4805541099999999 11.4980409899999998
 -0.1362639000000000 13.2170284599999999 13.1568383400000002
 18.2051324799999996 14.7506111299999993 14.9960008899999995
 16.7617255400000005 16.3734270500000001 16.6402123099999990
 15.0341491999999999 18.1007414699999991 18.0818031700000006
 14.8971728100000007 18.2407312099999999  1.7822670100000000
 13.6367114100000002  0.1312093500000000  3.6039116000000000
 11.7168756199999997  1.8228832500000001  4.9365831000000000
 10.2292697199999996  3.4706345299999999  6.9152223599999996
  8.5406717099999998  4.7830404900000003  8.4116908299999995
  6.8407394500000001  6.6183356299999998 10.0690512999999999
  4.8520593900000000  8.1921609800000006 11.4113720500000007
  3.2372740599999998 10.0362814199999999 13.3389963900000001
  1.7576075700000000 11.8794872700000003 14.8664322999999996
 -0.0420465900000000 13.2230059000000004 16.7802613399999991
 18.2362931599999989 15.0294597400000001 18.6167094900000016
 16.6130240700000016 16.7001143100000000  0.2479589900000000
  8.4113261399999999  8.5370703700000004 11.7867698000000001
  6.4844322600000002  9.8732196299999995 13.4870507800000006
  5.2467899999999998 11.5226981399999993 14.8721913200000007
  3.4295143100000001 13.5664073599999995 16.6004363499999990
  1.7326239500000000 15.1037737100000005 18.3804165300000015
  0.1275795000000000 16.8074119800000013  0.2662514500000000
 18.3157995299999996 18.7378916900000014  1.5061899900000000
 16.7545771499999994 20.0473621400000006  3.4934008200000002
 15.0824021199999994  2.0053829599999999  5.1235632500000001
 13.4607551500000007  3.5670358499999999  6.9672905700000003
 11.7863015699999991  5.0001709999999999  8.3339623899999999
  9.7569359099999993  6.4718419000000003 10.2364560499999993
  9.5644883000000007  6.5341374700000001 13.4708731900000007
  8.2224406800000001  8.4843576499999998 15.0504320800000002
  6.6905785699999996  9.9999803299999996 16.7328270100000012
  4.8518924400000003 11.6603311000000005 18.3671678299999996
  3.3606774900000000 13.3025122899999992 -0.0472159400000000
  1.9317503700000000 15.2456890200000004  1.6858820100000000
  0.0382912600000000 16.5644077500000009  3.0827677900000001
 18.3825015200000017 18.1610576799999990  4.9909627399999996
 16.8057227100000013 20.1949567099999996  6.5889143800000003
 15.1842727600000007  1.8255935999999999  8.4187444300000003
 13.4111317999999997  3.6186067899999999 10.0994583799999997
 11.4717316399999998  4.7911326399999998 11.9390307799999995
 11.4506610599999998  5.0742015100000000 14.8641868699999993
 10.2150692099999993  6.5491613600000003 16.8534966100000005
  8.5653275400000002  8.2411777500000003 18.3497881400000011
  6.6729414199999999  9.8628320699999996 -0.0264384600000000
  5.2545226600000001 11.6816348399999992  1.9485162700000001
  3.6287119200000002 13.2001675400000007  3.5144275199999999
  1.7696568500000001 14.9566000999999993  4.7286404400000004
 -0.3158890700000000 16.2675537699999992  6.6534273700000002
 18.2144930800000004 18.0497445300000017  8.1685012900000000
 16.6449767299999998  0.1000357900000000 10.0800389599999995
 14.7527047800000002  1.7289948399999999 11.9409935600000008
 13.3178427100000007  3.2579734999999999 13.5968033500000001
 13.3532343600000001  3.5453201600000002 16.4119144800000001
 11.7216462099999994  4.9101888000000002 18.3516164699999997
  9.8765712200000007  6.3547105500000001  0.1191521900000000
  8.1406297500000004  8.2008478399999998  1.9184886400000001
  6.7361647600000003  9.9732502800000002  3.4003430300000002
  5.0346458600000004 11.4346586499999994  4.9671789300000002
  3.2766858700000001 13.1891359900000005  6.7060914399999998
  1.4374356100000001 14.8518367500000004  8.4168009599999998
 -0.2880245600000000 16.3797385999999996  9.9382454899999999
 18.1261615300000010 18.3828570800000008 11.5390187500000003
 16.4791495099999992 20.1619612299999993 13.2419192900000002
 15.1771770700000008  1.6097850499999999 15.0296223199999996
 15.1625088399999992  1.6532878600000001 18.1670512100000003
 13.5307760600000009  3.1694767100000001  0.1672178900000000
 11.5812799799999997  4.8955286200000003  1.7120097900000000
 10.0352887499999994  6.4230880299999997  3.3823767400000002
  8.5889713499999996  8.3189115400000002  5.2451537899999998
  6.9292610699999999 10.2886077900000004  6.5304851900000003
  5.0270255900000000 11.5931024600000008  8.4574821599999996
  3.5140825000000002 13.2713844800000000 10.3573330099999996
  1.4422155100000000 15.0120731500000009 11.4883839000000005
 -0.5189803100000000 16.2583159500000001 13.2362032900000006
 18.1389501499999994 18.4242631699999997 14.7153316499999995
 16.7825680599999991 19.6986455800000009 16.7309301999999995
 16.4248453499999982 -0.0551617600000000 -0.0179962200000000
 15.0209312399999995  1.7053278900000000  1.8528248700000001
 13.3653288000000003  3.2460356699999999  3.3378111900000000
 11.9369968699999998  5.3513964600000001  5.2226682400000000
 10.0484925199999999  6.7956079699999998  7.0304660400000003
  8.3556640800000004  8.7446305599999992  8.7626241599999997
  6.7518510100000002 10.1393915000000003 10.0518165499999999
  5.1758235700000004 11.8319604300000005 11.7456116200000000
  3.2106097500000002 13.5186808299999992 13.7589973200000006
  1.1921781899999999 15.2635259899999998 15.2078559099999993
 -0.4416325200000000 16.6876679900000013 16.7711542999999992
 18.1614574900000001 18.3164940200000004 18.3334764399999983
