Li                                      
   1.00000000000000     
    21.6499999999999986    0.0000000000000006    0.0000000000000000
     0.0000000000000006   21.6499999999999986    0.0000000000000000
    -0.0000000000000006   -0.0000000000000006   21.6499999999999986
   Li
   500
Direct
  0.0171928110854509  0.0154211219399514  0.9834989205542755
  0.0039911219399542  0.1277305842956125  0.0863727662817553
  0.9982604101616630  0.2000641575057713  0.2077233242494216
  0.9857057260969952  0.2898542678983844  0.2913639099307161
  0.9879961214780622  0.4034571773672084  0.3926159117782930
  0.9748739921478062  0.4932667016166263  0.4934936785219435
  0.9997353556581956  0.5942904937644329  0.5639894674364925
  0.0165688697459601  0.7052389713625900  0.6650092175519617
  0.9805010780600441  0.8080278669745979  0.7906552739029991
  0.0101084272517298  0.9060308775981554  0.9026887782909938
  0.1036539237875260  0.0151002198614307  0.0700662642032341
  0.0915913519630465  0.1091197515011544  0.1952365302540429
  0.1101247847575024  0.2141968332563522  0.2903809256351053
  0.0859919935334901  0.2922434023094667  0.3908780143187087
  0.0771949487297903  0.3910268036951479  0.5193294249422635
  0.1025514327944563  0.5294008568129343  0.6119994789838330
  0.0975348600461885  0.6078815598152403  0.6853871150115509
  0.0816221048498846  0.7027978605080847  0.8057138378752882
  0.0945066678983864  0.7911060327944597  0.9158569981524280
  0.1123843427251714  0.9126574387990729  0.9948999635103917
  0.1951464923787540  0.9774347598152460  0.1853286572748303
  0.1992693704387989  0.0968715709006958  0.2932269011547319
  0.1894016674364920  0.2043850355658208  0.3916163080831438
  0.1816699635103944  0.3019912466512693  0.5140479903002344
  0.1877432614318693  0.4097595732101595  0.5930267431870675
  0.1941814055427287  0.4950654189376422  0.7158266332563485
  0.1748433066974613  0.6139164096997689  0.8028014558891456
  0.2104572609699744  0.6962190452655861  0.9204978452655865
  0.2388326877598175  0.8117071043879918  0.9791271870669718
  0.1939707510392594  0.9129007307159327  0.0864327284064643
  0.2956363237875266  0.0053825321016134  0.3139005801385650
  0.3025578849884525  0.1143140988452629  0.4034932549653547
  0.2909984785219422  0.2077857090069273  0.5078539353348717
  0.3013551099307179  0.2914416558891446  0.5916383353348706
  0.2965643487297953  0.4026420064665146  0.6764704161662820
  0.2913811792147811  0.5011270304849873  0.7801621431870700
  0.2578115237875309  0.5698602069284036  0.8692557348729792
  0.3013267861431856  0.6650924198614305  0.0252075584295639
  0.3308855251732084  0.8098087251732125  0.0943130577367199
  0.2957893819861397  0.8940256351039295  0.1812187080831436
  0.3692556360277166  0.9744752886835997  0.3914205219399562
  0.3877087214780630  0.0880895625866032  0.4928985117782929
  0.3963562184757521  0.1794746494226303  0.5883458840646654
  0.3964169242494222  0.2969416512702097  0.6738177907621221
  0.4002249136258627  0.3837188725173206  0.7728073519630456
  0.4119229981524271  0.4706906337182417  0.8842946748267906
  0.3783627260969951  0.5843969709006913  0.9646697288683583
  0.3998232434180125  0.7036323450346416  0.0608809385681326
  0.3947445630484978  0.8020681057736709  0.1643027898383380
  0.3875010960739047  0.8631768004618934  0.2869857265588891
  0.4820688133949176  0.9756881053117752  0.5053259584295589
  0.5277525247113175  0.0860986041570442  0.6127037556581953
  0.4953508729792162  0.2032910789838311  0.6735995736720568
  0.5059705533487318  0.2791018521939961  0.7794524217090100
  0.5279846803695136  0.4038945145496555  0.8886213745958429
  0.5067980055427270  0.4856693154734444  0.9842778420323341
  0.4860578628175531  0.5864892545034621  0.0894035662817529
  0.4960334859122426  0.7158436937644339  0.1635515662817539
  0.4965807602771335  0.7660349852193988  0.2936386272517311
  0.4763516535796768  0.8683858609699797  0.4041789588914568
  0.6079099233256358  0.9528483496535785  0.6312343237875311
  0.6228692073903019  0.0868809464203224  0.7072638078521933
  0.5896794147805977  0.1917351011547339  0.7795348868360250
  0.5900394106235538  0.3042078868360250  0.8834028133949161
  0.5724728318706696  0.4073929736720530  0.0062072203233257
  0.5995540697459560  0.5021966240184739  0.1130744905311758
  0.5814253815242481  0.5897097713625854  0.1770115053117749
  0.5930009644341823  0.6824601214780586  0.2800603025404129
  0.5972970226327945  0.7705518337182440  0.4190419464203217
  0.5945989912240179  0.8835118886836000  0.5162660969976898
  0.7042629551963060  0.9920111986143212  0.7134175538106220
  0.7061140517321007  0.0935611224018444  0.7922304129330229
  0.6954819824480367  0.2149532286374125  0.9022653796766775
  0.6650371321016166  0.3219783210161680  0.0206246660508071
  0.6819590346420341  0.4199457801385691  0.1217601801385655
  0.7058301750577343  0.5198015441108552  0.1936859353348694
  0.7065748341801381  0.5992288157043859  0.3055735916859135
  0.6780109907621252  0.6887011145496515  0.4256296688221681
  0.6670673159353342  0.8139294863741355  0.4999804845265601
  0.7081097237875298  0.8730988637413404  0.6065493321016149
  0.8294599053117793  0.0113327889145509  0.7974648572748251
  0.8020089353348752  0.1255120919168604  0.9195746383371812
  0.7962839764434193  0.2257833376443443  0.0197066083140882
  0.7888776697459576  0.2980751357967648  0.1219104951501180
  0.7786219016166314  0.4130341302540401  0.2092701912240216
  0.7989031810623572  0.5137750748267891  0.3338307893764423
  0.7812905907621257  0.6213413228637421  0.4244316198614300
  0.7985550087759847  0.6948252475750607  0.5185159903002301
  0.8071284812933044  0.8033752702078516  0.5656058494226315
  0.8204835085450313  0.9015238064665141  0.6874737020785204
  0.9033997048498819  0.0275059399538122  0.9158456540415685
  0.9131910383371817  0.1113645561200940  0.9931404637413408
  0.8963581357967669  0.1898838203233240  0.1155074443418016
  0.8825274355658195  0.3042831644341817  0.2117070318706666
  0.8744891810623585  0.3793759321016168  0.3043019524249431
  0.8921669418013849  0.4880958415704413  0.4023145598152453
  0.8848358799076195  0.6092118267898385  0.4618075796766732
  0.9235417321016186  0.6819320120092414  0.5814492295612013
  0.8990757016166313  0.8319818147805975  0.6715101625866069
  0.9141893501154712  0.9387060665127009  0.7940746531177822
  0.0998189491916861  0.1392099769053132  0.9787567182448029
  0.0918136586605058  0.2046606438799046  0.0960451533487330
  0.0860706937644338  0.3081175667436469  0.1950584267898350
  0.0907198078521958  0.3678506092378768  0.2933020434180165
  0.1009489053117818  0.4970084618937634  0.3802064096997668
  0.1259420235565827  0.5889926055427281  0.4728050212471118
  0.0884357944572756  0.7055732170900697  0.5637514069284038
  0.0992647030023122  0.8015624401847603  0.6966044549653603
  0.1158649251732129  0.8885596845265624  0.8140914258660530
  0.1078738332563489  0.0104120217090085  0.9043358046189383
  0.2072331413394934  0.1015415727482676  0.1046251838337184
  0.1799367043879911  0.2098790286374168  0.1970276503464206
  0.2149141561200949  0.3137604891454941  0.2747078129330234
  0.1895615136258684  0.3897415279445724  0.3927036161662798
  0.2142581584295584  0.5173943713625846  0.4785718138568100
  0.1916281801385651  0.6126336346420302  0.5873904882217076
  0.1690344133949182  0.7151432009237908  0.6949686831408783
  0.1919763593533474  0.7922412120092375  0.8285062946882249
  0.2078837644341789  0.9216831602771336  0.9121121404157009
  0.2225643630484981  0.0282715487297907  0.9895277418013890
  0.2943188600461895  0.0998973939953842  0.1909010457274860
  0.3137078152424948  0.1796613972286352  0.2861805551963030
  0.2842598401847596  0.3022065431870686  0.4146280073902986
  0.3018457773672054  0.4132910406466479  0.4991647404157078
  0.2651534110854499  0.5089690295612002  0.5875147260969982
  0.2706800027713641  0.5996264919168581  0.7092260277136262
  0.2933421551963065  0.6779768831408788  0.7932727454965374
  0.2921473441108517  0.7979682729792117  0.9004085408775993
  0.2996393990762130  0.9191057505773657  0.9854368508083127
  0.3029610115473460  0.0024229053117750  0.1169976785219404
  0.3996758946882224  0.0893426069284047  0.2938741510392617
  0.4018832872979203  0.2083511856812947  0.4024404027713615
  0.3894687108545014  0.2922259293302574  0.5021980009237907
  0.4046537085450339  0.3785763990762092  0.5781309274826825
  0.3861720900692873  0.4756455404157052  0.7005000129330270
  0.3885047699769046  0.5923646646651264  0.8018179695150138
  0.4040318184757510  0.6843913607390277  0.9178768060046210
  0.4043216415704407  0.7873888281755228  0.9950346974595874
  0.3959545926096979  0.9185807205542744  0.0672355556582005
  0.4033580757505746  0.9967563782909963  0.1814668078521962
  0.5065140702078494  0.0788508771362615  0.4034920739030028
  0.5162511094688256  0.1901511829099292  0.5100349145496565
  0.5006265200923821  0.2789900189376411  0.5872867454965345
  0.4987413071593565  0.3793686461893770  0.6967713556581998
  0.5094848766743638  0.5156554983833743  0.7703403381062373
  0.5487628974595822  0.5888257418013865  0.8850960434180166
  0.5309290591223998  0.6990982891454962  0.9952142517321008
  0.5269730960739025  0.8131714032332553  0.0708397893764428
  0.5079106637413418  0.8823833976905320  0.1702025159353369
  0.4849576766743624  0.9966021838337156  0.3058611810623546
  0.6020933076212458  0.0787453755196310  0.4983630254041600
  0.6064978697459580  0.1824409219399570  0.5689144836027680
  0.5803836706697467  0.2950847621247092  0.6686503916859152
  0.5961594332563536  0.4056981247113143  0.7840063598152440
  0.6160509136258696  0.4889935824480389  0.8942675759815231
  0.6521760702078510  0.5956385427251760  0.0114240706697473
  0.5938891381062348  0.6893655076212468  0.0823044678983820
  0.5888888050808347  0.7900275681293323  0.1784173953810608
  0.5857088549653611  0.8804195330254032  0.2829832337182481
  0.5897942083140890  0.9991711274826756  0.3898778706697428
  0.6894549565819830  0.0894039745958395  0.5823991769053123
  0.6969040000000035  0.1976306295612034  0.6832414863741363
  0.7068577131639699  0.2947442277136290  0.7772057020785255
  0.6888566692840641  0.3803121976905288  0.8720707685912217
  0.6937046023094666  0.4969522909930717  0.9940331976905341
  0.7042135399538125  0.6359392471131642  0.1102428494226331
  0.6945991681293293  0.7116202101616622  0.2159238212471166
  0.7080669972286344  0.8147721879907621  0.3253952863741318
  0.6678886230946901  0.8984051478060024  0.3938590822170909
  0.7136619043879904  0.9636426743648983  0.4761024614318714
  0.8102236577367208  0.1143088120092344  0.6984868521939944
  0.8200546355658176  0.2042414096997689  0.7956721237875257
  0.7938931648960761  0.2957364711316401  0.9049889099307151
  0.7775732170900724  0.4091233870669768  0.0126775963048473
  0.7727835755196324  0.5502418780600493  0.1119556323325668
  0.8126272461893791  0.6127741916859151  0.2455558558891440
  0.7780736974595825  0.7266538642032359  0.3086394221708986
  0.7874114771362599  0.8143511140877564  0.4190401339491885
  0.8058892124711292  0.9137264743648927  0.4963829122401862
  0.7768776429561228  0.9878269385681264  0.6083658900692868
  0.9243707270207864  0.1355684660508061  0.7976935408775958
  0.9188480050808323  0.2010038660508116  0.9148430277136228
  0.8870570794457251  0.3173088401847579  0.9965188651270225
  0.8521302743648960  0.4229109829099329  0.0931136046189351
  0.8687628046189388  0.4730810637413398  0.2085314281755188
  0.8953640729792127  0.6156866369515015  0.3159267237875270
  0.8982438351039264  0.7116469879907612  0.3923863307159365
  0.9158323454965327  0.8044354581986113  0.5035400720554293
  0.8978435676674366  0.9221207187067009  0.5881306771362560
  0.9153529136258669  0.0126580757505792  0.7255274461893748
  0.0238761995381083  0.1147041690531196  0.8882937556581965
  0.9898718369515009  0.2392695667436513  0.9936296300230936
  0.9627408203233259  0.3254134046189350  0.1232491787528858
  0.9767042046189403  0.3842849976905285  0.1767723879907592
  0.9730488803695181  0.4865251307159326  0.2713387224018504
  0.0057562110854477  0.5922265722863713  0.3977640226327921
  0.0156041778290970  0.7138717916859108  0.4700902387990737
  0.0038315930715953  0.8081958452655869  0.6018561265588929
  0.0097557570438767  0.9087787658198607  0.6781934521939945
  0.0186273986143206  0.9976825085450329  0.8157021667436481
  0.2282237662817579  0.2015142023094683  0.0098447260970005
  0.1836050863741363  0.2869254378752899  0.1051732494226343
  0.2042922651270231  0.3976856207852180  0.1902161473441097
  0.2120558055427253  0.4878939584295594  0.2916731062355638
  0.2035073704387997  0.5980671445727452  0.3606927829099291
  0.2089976198614352  0.6920317311778277  0.5013997736720555
  0.1888087399538136  0.7881446461893731  0.5987004175519601
  0.1839849006928418  0.8861499556581975  0.7089049847575026
  0.1847294993071600  0.0046280563510379  0.8068906013856818
  0.2289998420323300  0.1317768577367175  0.8667126258660502
  0.3153382290993036  0.2038187986143214  0.1073456392609700
  0.3059416794457306  0.2942697233256339  0.1945211556582009
  0.3134194725173245  0.4065004438799065  0.3032423510392590
  0.2932419538106217  0.5183451154734442  0.3885912942263303
  0.2813264157043847  0.6162948286374146  0.4939149325635128
  0.2920960286374168  0.6899481995381080  0.6445398032332577
  0.2941023103926099  0.8118538143187095  0.7197637685912213
  0.2924735621247123  0.8949503274826824  0.8017601224018449
  0.3332201926097014  0.0030004882217085  0.8821646508083134
  0.3178397030023064  0.0897329653579675  0.0131412540415710
  0.4244515053117794  0.1961738060046159  0.2035714290993056
  0.3841053039260984  0.3048579741339523  0.3003988660508057
  0.3896921792147836  0.3775978558891424  0.4104637810623544
  0.3714005265588938  0.4808330785219397  0.4976518480369521
  0.3714442928406498  0.5868960323325609  0.6041860581986143
  0.3999750923787531  0.6970123570438815  0.7438056993071598
  0.3983308683602758  0.7959527930715922  0.8194541690531167
  0.4207723177829124  0.8629191256351021  0.9267761501154723
  0.4243094914549630  0.0038856933025428  0.0071743662817525
  0.4033870295612019  0.1193509778291002  0.1087938036951499
  0.5091818235565810  0.1831866221709006  0.3142631519630470
  0.4998689921478032  0.2998152739030004  0.4069287330254028
  0.4874602203233280  0.4067387103926094  0.5224422531177808
  0.4840028572748238  0.4961106147805978  0.6029388545034635
  0.4577475339491883  0.6062433016166295  0.7044106812933038
  0.5212039801385657  0.7015364669745949  0.8277247330254056
  0.5211854475750570  0.7887801482678967  0.8922871528868370
  0.5192019986143208  0.9018650203233278  0.9949317127020763
  0.5333317852194028  0.9965028267898361  0.0910423551963078
  0.5145423251732097  0.0792756919168625  0.2178616942263290
  0.6180203593533520  0.1993517889145480  0.4052162281755187
  0.6135431685912209  0.2991421699769035  0.5191526452655921
  0.5795159921478046  0.4151287274826814  0.5915171588914561
  0.5886297884526570  0.5082880193995365  0.6941006688221734
  0.6175642803695141  0.5983805588914564  0.7921058549653566
  0.6269415981524276  0.7035767321016166  0.9087875200923818
  0.6397694254041539  0.8010396249422627  0.0026898826789861
  0.6267952739029994  0.9189930725173241  0.1236413468822164
  0.5986965478060071  0.0014747053117787  0.2222799459584266
  0.6178726286374143  0.0955015062355642  0.3223941681293283
  0.7177694198614333  0.2020666854503474  0.4855952535796746
  0.6956094281755227  0.3038905893764436  0.6033645302540407
  0.6814933482678995  0.4098804161662812  0.7023642540415693
  0.6969038110854484  0.5146705787528845  0.7721998831408783
  0.7078222217090087  0.6008916457274793  0.8925195057736701
  0.7467338729792132  0.6998976083140889  0.0017855713625892
  0.7155480808314110  0.7580248665126987  0.1094123842956094
  0.6922262766743614  0.8766605311778264  0.2115454161662811
  0.6901705307159318  0.9977630351039295  0.3200861085450342
  0.7128872346420323  0.0721700646651300  0.4076649376443413
  0.7962261782909934  0.1902514143187091  0.6045889547344103
  0.8134451681293271  0.3005480766743673  0.6812207011547358
  0.8145472757505772  0.4126527099307182  0.7831533103926063
  0.7710663408775957  0.5168902212471096  0.9023203187066997
  0.7865626872979234  0.5961939635103946  0.0141268087759840
  0.7991850341801410  0.6747538923787531  0.1188581334873007
  0.8101159824480391  0.8025157020785230  0.2009881916859158
  0.7926746609699791  0.8806492360277147  0.2941348013856810
  0.8271024374133944  0.9628144951501127  0.4003734041570439
  0.8335292535796768  0.0657598133949193  0.4620884023094689
  0.9254171806004621  0.2268358660508056  0.6982081801385647
  0.9085401228637409  0.2864172332563513  0.8001161478060013
  0.8773182415704355  0.4022156725173218  0.9091227182448023
  0.8665908309468833  0.4948931648960766  0.9902090466512732
  0.8900271621247100  0.5778889390300250  0.0866768424942279
  0.9033373062355636  0.6911852092378723  0.2131656766743646
  0.9012352355658209  0.7978147154734430  0.2831010720554303
  0.9386091796766749  0.9005143898383352  0.4020249090069257
  0.9201889099307152  0.0132486166281751  0.5165398854503493
  0.9103915196304868  0.0890581709006923  0.6106043801385681
  0.0063025053117798  0.2011071348729772  0.7859489842956151
  0.0103216189376454  0.3010136092378772  0.8986942346420292
  0.9983913404157079  0.3765635228637407  0.0028759293302514
  0.9854688595842944  0.5024338554272489  0.0793067681293280
  0.9976636263279417  0.5874523916859147  0.2081424438799075
  0.0185192581986158  0.6945028729792142  0.2995002032332579
  0.0265157551963071  0.8088814023094670  0.3905478004618956
  0.0087014711316371  0.9102538078521931  0.5036241551963059
  0.0142412489607366  0.0074225256351070  0.5936871709006937
  0.0412806886835995  0.0942705113163953  0.6955025210161665
  0.1001616609699738  0.2101327685912224  0.8916134401847557
  0.1023299778291005  0.2900318129330230  0.0153922092378735
  0.0910021247113164  0.3927460577367228  0.0896010281755224
  0.0884147658198629  0.4840706974595861  0.1896859621247131
  0.1003331163972305  0.5773838923787551  0.2867445879907606
  0.1075582138568123  0.6865250605080817  0.3889914651270203
  0.0866232882217091  0.8250787099307146  0.4764484295612021
  0.0940912535796770  0.9102116004618921  0.5775092660508108
  0.0934780351039279  0.9908762752886844  0.6976928526558908
  0.1072916046189363  0.1145839265588933  0.8111182110854500
  0.3042028129330276  0.3043565755196340  0.9846105787528856
  0.3262485154734378  0.3623284263279416  0.1015836637413372
  0.3185182475750565  0.4837080129330289  0.2047304836027735
  0.2940413053117794  0.6158623330254045  0.2909060739030025
  0.2973376632794427  0.7125872960739059  0.4091494655889178
  0.3093129838337205  0.7863272498845291  0.5488762096997704
  0.2930205399538082  0.8910908909930697  0.6051513006928388
  0.2994984683602766  0.9908704568129352  0.7289992905311777
  0.2965624822170909  0.0924879921478095  0.7809246101616623
  0.2974752794457274  0.1916064489607407  0.8638297903002297
  0.4051264956120093  0.2864806101616608  0.0830189556581971
  0.4037040046189375  0.3846206387990776  0.2044965307159359
  0.4047274244803702  0.5066746452655906  0.3007020702078549
  0.3884211602771330  0.6156296632794422  0.3926193653579659
  0.3811645796766712  0.6882560152424944  0.5233434387990741
  0.4127992489607379  0.8195916642032302  0.6390492411085447
  0.3916698129330243  0.9134215824480378  0.7134524203233283
  0.3995890554272492  0.0015547473441089  0.8118367270207827
  0.3983312785219368  0.1001743445727499  0.8916884406466536
  0.3864086706697449  0.1802477491916861  0.9880269939953834
  0.5189413889145484  0.2867178614318675  0.2219837057736740
  0.5005089935334865  0.4104218974595852  0.3254378341801356
  0.4773531893764442  0.4770883681293299  0.4121990775981530
  0.4878684628175520  0.6058739450346451  0.5276956614318706
  0.4798737556581969  0.6834088041570467  0.6301720928406453
  0.4981059556581968  0.7950796642032358  0.7374920290993074
  0.5044087690531143  0.9114114189376465  0.8035344009237875
  0.5134695782909944  0.0086855644341810  0.8992093732101623
  0.4915287150115475  0.1109839473441099  0.9865087870669740
  0.4804068960739016  0.1854716314087739  0.0974687090069253
  0.6050112138568124  0.2987356415704383  0.3271318549653586
  0.6115049648960706  0.4081345685912225  0.4207197381062358
  0.5737367459584277  0.4979945251732119  0.4926948073903006
  0.5829523676674384  0.5953150332563482  0.6317594877598154
  0.5905802364896076  0.7253896203233268  0.7145212387990796
  0.6208103976905335  0.8061695852194006  0.8039402060046186
  0.6102233177829106  0.8935028184757527  0.8688274133949179
  0.6260052189376424  0.9993302762124685  0.9850348411085434
  0.6039800087759843  0.0778957316397211  0.0771726327944577
  0.5993991071593499  0.1761505099307143  0.2216788859122403
  0.7019887847575035  0.3032617057736715  0.4085211034642029
  0.7005586392609686  0.3973966558891462  0.5146131427251746
  0.6940414401847548  0.5008703057736739  0.6022620087759805
  0.7052419464203226  0.6108986979214777  0.6963732882217073
  0.7213035256351006  0.7088433224018473  0.7817129769053111
  0.7115863330254015  0.7944975053117815  0.8795130969976910
  0.7276560572748281  0.8894573995381094  0.0103874540415703
  0.7212292508083138  0.9975701371824499  0.1164998318706694
  0.6881116110854535  0.0816398106235567  0.1822368351039287
  0.7163686055427263  0.1936591394919134  0.2971926198614341
  0.7961971445727514  0.3159159524249446  0.5144471806004631
  0.8111903824480393  0.4068763353348714  0.6124979085450377
  0.8149786674364918  0.5184913311778274  0.6802759150115492
  0.8180824942263314  0.6136865528868327  0.7936368886836007
  0.8142839496535785  0.6847492013856780  0.8896820032332542
  0.8295764974595841  0.7852731030023108  0.0117644217090103
  0.8100477353348765  0.9147864688221716  0.0988560184757503
  0.8110121103926105  0.9740547496535825  0.2094127501154759
  0.7920409173210174  0.0844898494226314  0.3277754041570446
  0.7999351796766732  0.2046185921478028  0.4113741787528866
  0.8916177501154721  0.3272881519630459  0.6003587930715923
  0.9102838009237857  0.4205392558891461  0.7092043274826807
  0.8782597963048531  0.5068552217090101  0.8029059819861430
  0.8964317588914525  0.6103124969976932  0.9150842064665099
  0.8932097408776016  0.7028534669745952  0.0239232715935316
  0.9091080129330251  0.8085545565819885  0.1049587293302565
  0.9204703297921455  0.9077682775981515  0.1977217866050793
  0.9253647265588896  0.9807470101616644  0.2929231039260998
  0.8833043011547375  0.0967367602771390  0.3919982669745963
  0.8676966443417982  0.1972535750577364  0.4998847066974577
  0.0005125667436516  0.3157669667436522  0.6837607898383382
  0.9964972646651304  0.3968506161662830  0.8012836877598133
  0.9947543787528872  0.4840688951501164  0.9156728207852183
  0.0005179385681302  0.5982812115473450  0.0042343704388017
  0.9907908771362557  0.6851227270207829  0.0994348406466514
  0.0176340526558860  0.7906733648960724  0.2000200217090082
  0.0314104642032333  0.9022779247113135  0.3122782023094715
  0.0025251866050837  0.0101181889145465  0.4054418503464206
  0.9925802780600463  0.1030502623556586  0.4979554212471129
  0.9728618720554252  0.1957701224018464  0.5915771986143170
  0.1143688558891469  0.3031489926096995  0.7845984055427238
  0.1208502886836058  0.4000920517321020  0.9180405930715949
  0.0953275210161664  0.4925455533487266  0.0101322230946863
  0.1018212221708978  0.5914323459584310  0.1233443076212453
  0.0825716739030042  0.6987115704387961  0.1890590355658190
  0.1141640221709039  0.8149289191685938  0.3011279741339479
  0.1277373930715910  0.9319903810623558  0.4024190577367222
  0.1053243958429562  0.0152813930715965  0.4845086711316426
  0.0923411025404164  0.1141183722863772  0.5945102535796778
  0.0901556304849862  0.2188092905311763  0.6853637939953785
  0.2011903736720555  0.2851287769053101  0.9043543704387957
  0.2100400831408749  0.3704628678983823  0.0204813390300203
  0.1982483602771339  0.4964075889145505  0.0939853676674360
  0.1982072254041540  0.6042810073902984  0.1944920092378766
  0.1923277898383375  0.7183320401847553  0.2848790055427273
  0.1985627376443446  0.7902754494226301  0.4191015870669759
  0.1968123454965394  0.9144462789838315  0.5261750919168620
  0.1988701685912275  0.0113909769053109  0.6269599321016130
  0.1793708780600483  0.0841822775981527  0.6903696489607398
  0.1968763986143216  0.2047907362586585  0.7575762369515004
  0.3969011237875293  0.3848958300230976  0.9861640623556553
  0.3840836854503493  0.4743950064665157  0.0840772060046220
  0.3798707390300251  0.5909091353348757  0.1924888766743678
  0.4114075140877631  0.7360844651270213  0.2874336642032347
  0.3773850420323299  0.8025476771362605  0.4163114794457243
  0.3823885233256377  0.8716231635103924  0.5067069921478051
  0.4085096503464172  0.0007146180138591  0.6299546946882231
  0.4199485727482681  0.0966762235565852  0.7141958494226301
  0.4304936909930746  0.2084242129330249  0.7848182517321050
  0.4165450868360310  0.3126509177829107  0.8902219621247127
  0.4714356096997676  0.4125243870669735  0.1152530997690562
  0.4662415732101621  0.4976569441108580  0.2006216618937628
  0.4933373117782907  0.6197077200923786  0.2979905607390307
  0.4702961593533459  0.6922452207852174  0.4135824831408783
  0.4842603394919180  0.7888297242494247  0.5219677505773674
  0.5057310933025434  0.8954212443418044  0.6235911875288664
  0.5228366822170898  0.9979344706697475  0.7349041265588880
  0.5057718193995413  0.0979247990762104  0.8004485524249390
  0.5120394133949162  0.2153023140877579  0.8944695431870642
  0.5108579321016151  0.3218148180138556  0.0054065099307152
  0.5975715094688212  0.4278998069284086  0.1947686632794472
  0.5947324189376459  0.4927303154734446  0.3284527653579659
  0.5688687990762133  0.6191576360277153  0.4052482692840655
  0.5754479394919159  0.6957562424942267  0.5362833224018502
  0.5677780739029998  0.7937058979214768  0.6151790041570422
  0.5975738725173230  0.8738325177829083  0.7284810896073921
  0.6056376198614331  0.9779439884526582  0.8059788706697475
  0.6024140170900694  0.1094822457274844  0.9021528286374121
  0.5993647210161654  0.2023159778291017  0.0147253584295584
  0.5682260739030056  0.2952503496535783  0.1341194877598184
  0.6967080812933020  0.4191103981524265  0.2961811094688187
  0.6927936060046207  0.5194125413394914  0.4104112743648969
  0.6640280946882200  0.5892926803695175  0.5142761436489636
  0.6994456064665115  0.7211642327944574  0.6157431778291027
  0.7222909071593548  0.7916814369514995  0.7240541076212494
  0.7346103852193977  0.8925443311778309  0.7859524923787546
  0.7100529080831421  0.0092361773672067  0.8871228799076221
  0.7222542886836010  0.1111735265588933  0.0188455986143197
  0.6804132595842987  0.1953618618937654  0.1225834244803679
  0.6751665459584331  0.2824721376443406  0.2072231376443412
  0.7870245510392593  0.4079309108545033  0.4121759903002342
  0.7958852817551971  0.5183693214780618  0.5256890508083174
  0.7779999173210186  0.6168515330254039  0.5917568364896084
  0.8209901593533502  0.7102429833718276  0.6979315727482671
  0.8349940933025408  0.7928320595842990  0.8014234290993087
  0.8199735048498837  0.9104419177829115  0.9167283842956095
  0.8181315454965343  0.0231978498845251  0.0359292143187062
  0.7914105418013833  0.1025727034642046  0.1139518138568150
  0.7897945930715906  0.1938900702078499  0.2223177464203232
  0.7725360309468812  0.3010332900692845  0.3018800766743652
  0.8939761510392614  0.4016629136258629  0.4792426503464213
  0.9036062729792178  0.5020890272517349  0.5634129898383406
  0.9207817163972294  0.5924414526558905  0.6877364309468845
  0.9226582475750575  0.7098223847575085  0.7751880438799077
  0.9089756780600453  0.8184587353348718  0.8749509542725207
  0.9235155478060051  0.9255513736720573  0.0117592618937650
  0.9397825579676677  0.0302705085450370  0.1094330060046218
  0.8975827732101607  0.0942804725173190  0.2104950161662842
  0.8768351639722880  0.2103833778290962  0.3057977020785216
  0.8835451496535782  0.3063049071593511  0.3976893496535823
  0.9886160050808286  0.4302204267898375  0.5934305501154711
  0.9971539274826782  0.4950299852193965  0.6981271690531159
  0.9763610152424960  0.6230556133949179  0.7963247926097026
  0.9919224203233270  0.7133933478060044  0.9087254120092396
  0.9804840886836033  0.7911830087759810  0.0062492281755198
  0.0059950383371827  0.9178844618937632  0.0864789699769020
  0.0401859247113165  0.0086000508083117  0.2019357071593504
  0.0020668711316389  0.1074949122401847  0.3211118036951532
  0.9742365357967699  0.1994262900692831  0.3871203524249438
  0.9753946124711348  0.2911308836027686  0.4983852637413406
  0.1069482438799056  0.4129939334873001  0.7046581006928392
  0.0788125468822187  0.5094300438799095  0.8111443297921497
  0.0873768212471120  0.5921915676674345  0.9084079491916839
  0.0953506609699772  0.6985692854503469  0.0167725362586637
  0.1056796235565827  0.7834340272517295  0.0933765145496537
  0.0932702401847578  0.8935645505773664  0.1919822826789854
  0.0990541334873001  0.0069026826789838  0.3323848854503453
  0.1036572046189406  0.1223732475750552  0.4006574263279461
  0.0871997427251756  0.2066519325635099  0.5007263367205539
  0.0793776083140898  0.2958665510392606  0.6012560586605105
  0.2112599353348728  0.3986262175519641  0.8022940300230914
  0.1891909588914515  0.5046701575057710  0.9165427224018501
  0.1944123741339467  0.5967435127020764  0.0161794891454932
  0.2263864549653576  0.7234242859122375  0.1180503750577344
  0.1919968826789855  0.8114603598152428  0.1772394364896073
  0.1849639986143217  0.9193571612009208  0.2762615140877571
  0.2161428896073900  0.0146123090069281  0.4169207819861427