Li 
 1.0000000000000000
    21.6499999999999986    0.0000000000000006    0.0000000000000000
     0.0000000000000006   21.6499999999999986    0.0000000000000000
    -0.0000000000000006   -0.0000000000000006   21.6499999999999986
 Li 
 500
Cartesian
  0.3722243600000000  0.3338672900000000 -0.3572483700000000
  0.0864077900000000  2.7653671499999999  1.8699703900000000
 -0.0376621200000000  4.3313890099999997  4.4972099700000001
 -0.3094710300000000  6.2753449000000003  6.3080286499999998
 -0.2598839700000000  8.7348478899999993  8.5001344900000007
 -0.5439780700000000 10.6792240899999999 10.6841381400000000
 -0.0057295500000000 12.8663891899999996 12.2103719700000006
  0.3587160300000000 15.2684237300000003 14.3974495600000001
 -0.4221516600000000 17.4938033200000014 17.1176866799999985
  0.2188474500000000 19.6155684999999984 19.5432120500000011
  2.2441074500000000  0.3269197600000000  1.5169346200000000
  1.9829527700000000  2.3624426199999999  4.2268708799999999
  2.3842015900000000  4.6373614400000003  6.2867470399999998
  1.8617266600000000  6.3270696600000003  8.4625090099999998
  1.6712706399999999  8.4657303000000006 11.2434820500000008
  2.2202385200000001 11.4615285500000006 13.2497887199999997
  2.1116297199999998 13.1606357700000007 14.8386310399999992
  1.7671185700000001 15.2155736800000003 17.4437045899999994
  2.0460693600000002 17.1274456099999988 19.8283040100000001
  2.4331210200000002 19.7590335500000016 21.5395842100000010
  4.2249215600000003 -0.4885374500000000  4.0123654300000000
  4.3141818699999996  2.0972695099999998  6.3483624100000000
  4.1005460999999999  4.4249360199999996  8.4784930700000007
  3.9331547100000002  6.5381104900000002 11.1291389899999995
  4.0646416099999998  8.8712947599999996 12.8390289899999992
  4.2040274300000000 10.7181663199999999 15.4976466100000003
  3.7853575899999998 13.2912902699999993 17.3806515200000007
  4.5563997000000001 15.0731423299999996 19.9287783500000018
  5.1707276899999997 17.5734588100000018 -0.4518964000000000
  4.1994667600000000 19.7643008199999990  1.8712685700000000
  6.4005264100000003  0.1165318200000000  6.7959475600000001
  6.5503782099999999  2.4749002400000002  8.7356289700000005
  6.3001170599999998  4.4985606000000002 10.9950376999999992
  6.5243381300000003  6.3097118500000002 12.8089699600000007
  6.4206181500000001  8.7171994399999999 14.6455845100000008
  6.3084025300000004 10.8494002100000007 16.8905104000000001
  5.5816194899999996 12.3374734799999999 18.8193866599999993
  6.5237249200000003 14.3992508899999994  0.5457436400000000
  7.1636716199999997 17.5323588999999984  2.0418777000000001
  6.4038401199999999 19.3556549999999987  3.9233850299999999
  7.9943845199999997 -0.5526100000000000  8.4742543000000001
  8.3938938200000006  1.9071390300000000 10.6712527799999997
  8.5811121299999993  3.8856261600000002 12.7376883900000006
  8.5824264100000001  6.4287867500000004 14.5881551700000003
  8.6648693800000007  8.3075135899999992 16.7312791700000005
  8.9181329100000006 10.1904522199999992 19.1449797100000012
  8.1915530200000006 12.6521944200000007 -0.7649003700000000
  8.6561732199999994 15.2336402700000004  1.3180723200000000
  8.5462197900000003 17.3647744899999985  3.5571554000000001
  8.3893987299999999 18.6877777300000005  6.2132409800000001
 10.4367898100000005 -0.5263525200000000 10.9403070000000007
 11.4258421600000002  1.8640347799999999 13.2650363099999993
 10.7243463999999999  4.4012518600000003 14.5834307699999997
 10.9542624800000006  6.0425551000000004 16.8751449300000012
 11.4308683299999991  8.7443162399999999 19.2386527600000008
 10.9721768199999996 10.5147406799999992 -0.3403847200000000
 10.5231527299999996 12.6974923600000000  1.9355872100000000
 10.7391249700000007 15.4980159700000009  3.5408914100000000
 10.7509734600000009 16.5846574300000000  6.3572762799999998
 10.3130132999999997 18.8005538899999998  8.7504744599999995
 13.1612498400000000 -1.0208332300000000 13.6662231100000007
 13.4851183399999996  1.8809724900000000 15.3122614400000003
 12.7665593299999998  4.1510649400000004 16.8769303000000015
 12.7743532399999999  6.5861007499999999 19.1256709100000002
 12.3940368099999993  8.8200578800000002  0.1343863200000000
 12.9803456100000005 10.8725569100000001  2.4480627199999998
 12.5878595099999995 12.7672165500000006  3.8322990899999998
 12.8384708799999991 14.7752616299999993  6.0633055499999999
 12.9314805400000008 16.6824471999999986  9.0722581400000006
 12.8730681600000008 19.1280323900000013 11.1771609999999999
 15.2472929799999992 -0.1729575500000000 15.4454900399999993
 15.2873692200000004  2.0255983000000000 17.1517884400000007
 15.0571849199999992  4.6537373999999998 19.5340454699999988
 14.3980539099999998  6.9708306499999999  0.4465240200000000
 14.7644131000000005  9.0918261400000002  2.6361078999999998
 15.2812232899999998 11.2537034299999998  4.1933005000000003
 15.2973451600000008 12.9733038599999997  6.6156682599999996
 14.6789379499999999 14.9103791300000008  9.2148823300000000
 14.4420073900000006 17.6215733800000010 10.8245774899999994
 15.3305755200000000 18.9025904000000011 13.1317930399999998
 17.9578069499999984  0.2453548800000000 17.2651141599999995
 17.3634934500000000  2.7173367900000001 19.9087909200000013
 17.2395480899999995  4.8882092600000000  0.4266480700000000
 17.0792015500000005  6.4533266899999999  2.6393622200000002
 16.8571641700000008  8.9421889199999995  4.5306996399999999
 17.2962538700000010 11.1232303699999999  7.2274365899999999
 16.9149412900000016 13.4520396400000006  9.1889445700000003
 17.2887159399999994 15.0429666100000006 11.2258711899999994
 17.4743316200000010 17.3930745999999985 12.2453666400000003
 17.7634679599999998 19.5179904099999995 14.8838056499999993
 19.5586036099999987  0.5955036000000000 19.8280584100000006
 19.7705859799999999  2.4110426399999998 21.5014910400000012
 19.4061536399999994  4.1109847100000003  2.5007361700000001
 19.1067189800000001  6.5877305100000001  4.5834572400000004
 18.9326907700000007  8.2134889300000005  6.5881372699999998
 19.3154142899999997 10.5672749699999997  8.7101102200000007
 19.1566967999999989 13.1894360499999994  9.9981340999999997
 19.9946784999999991 14.7638280599999998 12.5883758199999995
 19.4649889400000013 18.0124062900000013 14.5381950199999999
 19.7921994300000001 20.3229863399999999 17.1917162400000016
  2.1610802499999999  3.0138959999999999 -0.4599170500000000
  1.9877657099999999  4.4309029400000002  2.0793775700000001
  1.8634305200000001  6.6707453200000000  4.2230149399999997
  1.9640838400000000  7.9639656900000002  6.3499892400000002
  2.1855438000000000 10.7602332000000001  8.2314687699999993
  2.7266448099999998 12.7516899099999996 10.2362287100000007
  1.9146349499999999 15.2756601500000002 12.2052179600000006
  2.1490808200000000 17.3538268299999991 15.0814864499999999
  2.5084756300000000 19.2373171700000007 17.6250793700000017
  2.3354684899999998 21.8754202699999993 19.5788701699999983
  4.4865975100000002  2.1983750500000001  2.2651352299999998
  3.8956296500000001  4.5438809700000000  4.2656486300000003
  4.6528914800000001  6.7929145899999996  5.9474241499999998
  4.1040067699999998  8.4379040799999991  8.5020332900000000
  4.6386891300000004 11.2015881400000001 10.3610797699999999
  4.1487501000000000 13.2635181899999992 12.7170040699999998
  3.6595950500000001 15.4828503000000008 15.0460719899999997
  4.1562881799999998 17.1520222400000009 17.9371612800000015
  4.5006835000000001 19.9544404200000010 19.7472278400000008
  4.8185184599999999 22.2620790299999989 21.4232756100000010
  6.3720033200000001  2.1627785799999999  4.1330076399999998
  6.7917741999999999  3.8896692499999999  6.1958090199999996
  6.1542255399999997  6.5427716599999997  8.9766963600000000
  6.5349610800000004  8.9477510299999992 10.8069166299999999
  5.7405713499999997 11.0191794900000009 12.7196938199999998
  5.8602220599999999 12.9819135499999998 15.3547434999999997
  6.3508576600000000 14.6781995199999997 17.1743549400000006
  6.3249899999999997 17.2760131100000009 19.4938449100000000
  6.4871929899999996 19.8986395000000016 -0.3152921800000000
  6.5591058999999996 21.7024559000000004  2.5329997400000002
  8.6529831200000000  1.9342674399999999  6.3623753699999996
  8.7007731699999997  4.5108031700000000  8.7128347200000000
  8.4319975899999999  6.3266913699999998 10.8725867199999993
  8.7607527899999997  8.1961790400000005 12.5165345800000001
  8.3606257500000005 10.2977259500000002 15.1658252800000000
  8.4111282700000007 12.8246949899999994 17.3593590400000011
  8.7472888700000002 14.8170729600000008 19.8720328500000001
  8.7535635400000000 17.0469681299999998 -0.1074988000000000
  8.5724169299999993 19.8872725999999993  1.4556497799999999
  8.7327023399999995 21.5797755900000006  3.9287563900000002
 10.9660296200000005  1.7071214900000000  8.7356034000000005
 11.1768365200000002  4.1167731099999996 11.0422559000000007
 10.8385641600000007  6.0401339099999998 12.7147580399999995
 10.7977492999999996  8.2133311899999999 15.0850998500000006
 11.0303475800000008 11.1639415399999997 16.6778683200000017
 11.8807167299999996 12.7480773099999993 19.1623293399999994
 11.4946141300000004 15.1354779599999993 -0.1036114500000000
 11.4089675300000000 17.6051608799999997  1.5336814400000001
 10.9962658700000002 19.1036005600000003  3.6848844700000001
 10.4993336999999993 21.5764372800000004  6.6218945700000003
 13.0353201100000007  1.7048373800000001 10.7895594999999993
 13.1306788799999996  3.9498459600000002 12.3169985700000009
 12.5653064699999995  6.3885851000000002 14.4762809800000003
 12.9068517299999996  8.7833644000000000 16.9737376900000001
 13.3375022800000007 10.5867110600000007 19.3608930199999989
 14.1196119200000005 12.8955744499999998  0.2473311300000000
 12.8576998400000004 14.9247632400000008  1.7818917299999999
 12.7494426300000008 17.1040968500000012  3.8627366099999998
 12.6805967099999997 19.0610828900000016  6.1265870099999997
 12.7690446099999999 21.6320549100000008  8.4408559000000007
 14.9266998100000006  1.9355960500000000 12.6089421799999997
 15.0879715999999995  4.2787031300000002 14.7921781800000005
 15.3034694899999995  6.3812125300000000 16.8265034500000006
 14.9137468900000005  8.2337590800000005 18.8803321400000002
 15.0187046399999993 10.7590170999999994 -0.1291812700000000
 15.2462231399999997 13.7680846999999993  2.3867576900000000
 15.0380719900000006 15.4065775499999997  4.6747507300000004
 15.3296504900000006 17.6398178700000017  7.0448079500000000
 14.4597886899999999 19.4504714499999984  8.5270491300000000
 15.4507802299999994 20.8628639000000007 10.3076182900000006
 17.5413421900000017  2.4747857799999999 15.1222403500000002
 17.7541828600000002  4.4218265199999998 17.2263014800000001
 17.1877870199999983  6.4026946000000002 19.5930098999999984
 16.8344601500000017  8.8575213300000009  0.2744699600000000
 16.7307644099999990 11.9127366600000002  2.4238394400000001
 17.5933798800000005 13.2665612500000005  5.3162842799999996
 16.8452955499999995 15.7320561600000008  6.6820434899999999
 17.0474584799999995 17.6307016200000000  9.0722188999999993
 17.4475014500000007 19.7821781700000017 10.7466900499999998
 16.8194009700000002 21.3864532199999999 13.1711215199999998
 20.0126262399999995  2.9350572900000000 17.2700651600000015
 19.8930593100000017  4.3517336999999996 19.8063515499999987
 19.2047857700000009  6.8697363899999999 -0.0753665700000000
 18.4486204399999991  9.1560227800000007  2.0159095400000000
 18.8087147200000011 10.2422050299999992  4.5147054200000003
 19.3846321800000005 13.3296156900000007  6.8398135699999996
 19.4469790300000014 15.4071572900000007  8.4951640600000005
 19.8277702799999993 17.4160276699999983 10.9016425600000009
 19.4383132399999994 19.9639135600000017 12.7330291599999992
 19.8173905800000014 21.9240473400000013 15.7076692100000006
 22.1669197199999992  2.4833452600000001 19.2315598100000003
 21.4307252699999999  5.1801861200000001 21.5120814899999999
 20.8433387600000017  7.0452002100000000  2.6683447199999999
 21.1456460300000018  8.3197702000000007  3.8271221999999998
 21.0665082599999991 10.5332690800000002  5.8744833400000003
 21.7746219699999983 12.8217052900000006  8.6115910899999992
 21.9878304500000006 15.4553242900000001 10.1774536700000002
 21.7329539899999986 17.4974400500000016 13.0301851400000004
 21.8612121399999992 19.6750602800000003 14.6828882400000005
 22.0532831800000011 21.5998263100000010 17.6599519100000002
  4.9410445400000000  4.3627824799999999  0.2131383200000000
  3.9750501200000001  6.2119357300000004  2.2770008499999999
  4.4229275399999999  8.6098936899999998  4.1181795899999996
  4.5910081900000002 10.5629042000000002  6.3147227499999996
  4.4059345700000003 12.9481536800000008  7.8089987499999998
  4.5247984700000003 14.9824869799999991 10.8553051000000007
  4.0877092199999998 17.0633315900000007 12.9618640400000000
  3.9832730999999999 19.1851465400000016 15.3477929199999998
  3.9993936600000000  0.1001974200000000 17.4691815199999994
  4.9578465800000000  2.8529689700000000 18.7643283499999995
  6.8270726599999998  4.4126769899999996  2.3240330899999999
  6.6236373600000000  6.3709395100000004  4.2113830200000004
  6.7855315799999998  8.8007346099999992  6.5651969000000001
  6.3486883000000001 11.2221717499999993  8.4130015199999999
  6.0907169000000003 13.3427830400000005 10.6932582899999993
  6.3238790199999997 14.9373785199999993 13.9542867400000006
  6.3673150200000004 17.5766350799999991 15.5828855900000001
  6.3320526199999998 19.3756745899999991 17.3581066499999999
  7.2142171700000004  0.0649605700000000 19.0988646899999992
  6.8812295700000004  1.9427186999999999 21.9345081499999992
  9.1893750900000004  4.2471629000000002  4.4073214399999996
  8.3158798300000001  6.6001751400000002  6.5036354500000000
  8.4368356799999997  8.1749935800000006  8.8865408600000002
  8.0408214000000005 10.4100361499999998 10.7741625100000000
  8.0417689400000008 12.7062991000000007 13.0806281599999998
  8.6594607499999992 15.0903175300000001 16.1033933900000008
  8.6238633000000000 17.2323779700000017 17.7411827600000009
  9.1097206800000006 18.6821990699999994 20.0647036499999984
  9.1863004900000007  0.0841252600000000  0.1553250300000000
  8.7333291899999992  2.5839486699999998  2.3553858499999998
 11.0237864800000001  3.9659903700000001  6.8037972399999997
 10.8221636799999992  6.4910006800000000  8.8100070699999993
 10.5535137700000003  8.8058930800000006 11.3108747800000007
 10.4786618600000008 10.7407948100000006 13.0536262000000001
  9.9102341099999993 13.1251674800000000 15.2504912499999996
 11.2840661699999991 15.1882645099999998 17.9202404699999995
 11.2836649399999995 17.0770902100000015 19.3180168600000002
 11.2407232700000002 19.5253776899999991 -0.1097284200000000
 11.5466331499999999 -0.0757138000000000  1.9710669900000000
 11.1398413400000003  1.7163187300000000  4.7167056799999996
 13.3801407799999996  4.3159662299999999  8.7729313399999995
 13.2832095999999993  6.4764279800000004 11.2396547699999996
 12.5465212299999997  8.9875369500000009 12.8063464899999992
 12.7438349199999994 11.0044356200000006 15.0272794800000007
 13.3702666699999995 12.9549391000000007 17.1490917600000010
 13.5732856000000002 15.2324362499999992 19.6752498100000004
 13.8510080599999998 17.3425078799999994  0.0582359600000000
 13.5701176799999992 19.8962000199999984  2.6768351600000000
 12.9617802599999994  0.0319273700000000  4.8123608300000003
 13.3769424099999998  2.0676076100000000  6.9798337400000001
 15.5397079399999996  4.3747437400000004 10.5131372400000007
 15.0599441200000008  6.5792312600000002 13.0628420799999994
 14.7543309899999997  8.8739110100000005 15.2061861000000000
 15.0879675100000004 11.1426180299999995 16.7181274699999989
 15.3243510999999994 13.0093041300000003 19.3230472999999989
 16.1667883500000009 15.1527832199999999  0.0386576200000000
 15.4916159499999999 16.4112383599999987  2.3687781200000000
 14.9866988899999996 18.9797004999999999  4.5799582599999997
 14.9421919899999995 -0.0484302900000000  6.9298642499999996
 15.4340086299999992  1.5624819000000001  8.8259459000000007
 17.2382967600000008  4.1189431200000000 13.0893508700000005
 17.6110878900000003  6.5068658599999996 14.7484281799999994
 17.6349485199999982  8.9339311699999993 16.9552691700000011
 16.6935862800000017 11.1906732899999994 19.5352348999999990
 17.0290821799999996 12.9075993100000002  0.3058454100000000
 17.3023559899999988 14.6084217699999996  2.5732785900000001
 17.5390110200000002 17.3744649500000001  4.3513943499999996
 17.1614064100000014 19.0660559599999999  6.3680184500000001
 17.9067677699999983 -0.8050661800000000  8.6680841999999991
 18.0459083400000004  1.4236999600000000 10.0042139100000007
 20.0352819599999989  4.9109965000000004 15.1162071000000005
 19.6698936599999996  6.2009331000000003 17.3225146000000016
 18.9939399299999998  8.7079693099999993 19.6825068499999993
 18.7616914900000005 10.7144370200000001 -0.2119741400000000
 19.2690880600000014 12.5112955299999999  1.8765536400000000
 19.5572526800000013 14.9641597799999992  4.6150368999999998
 19.5117428500000010 17.2726885900000013  6.1291382099999998
 20.3208887400000009 19.4961365399999984  8.7038392800000004
 19.9220898999999996  0.2868325500000000 11.1830885200000001
 19.7099763999999986  1.9281094000000001 13.2195848300000005
  0.1364492400000000  4.3539694700000000 17.0157955100000002
  0.2234630500000000  6.5169446400000002 19.4567301800000010
 -0.0348274800000000  8.1526002700000006  0.0622638700000000
 -0.3145991900000000 10.8776929700000000  1.7169915300000000
 -0.0505824900000000 12.7183442800000002  4.5062839099999996
  0.4009419400000000 15.0359871999999992  6.4841794000000004
  0.5740661000000000 17.5122823600000004  8.4553598799999996
  0.1883868500000000 19.7069949400000013 10.9034629600000006
  0.3083230400000000  0.1606976800000000 12.8533272499999995
  0.8937269100000000  2.0409565700000001 15.0576295800000004
  2.1684999600000001  4.5493744400000002 19.3034309800000017
  2.2154440200000001  6.2791887500000003 21.9832413299999985
  1.9701960000000001  8.5029521500000005  1.9398622599999999
  1.9141796799999999 10.4801306000000007  4.1067010799999997
  2.1722119700000002 12.5003612700000009  6.2080203300000001
  2.3286353300000000 14.8632675600000006  8.4216652199999995
  1.8753941900000000 17.8629540700000007 10.3151084999999991
  2.0370756399999999 19.7060811499999993 12.5030756099999998
  2.0237994600000002 -0.1975286400000000 15.1050502600000005
  2.3228632400000002  2.4807420100000002 17.5607092700000003
  6.5859908999999996  6.5893198599999998 -0.3331809700000000
  7.0632803600000003  7.8444104299999999  2.1992863200000001
  6.8959200599999999 10.4722784799999999  4.4324149700000000
  6.3659942599999999 13.3334195100000006  6.2981164999999999
  6.4373604100000001 15.4275149599999999  8.8580859299999997
  6.6966260999999996 17.0239849599999999 11.8831699400000002
  6.3438946899999999 19.2921177899999989 13.1015256600000001
  6.4841418400000004 -0.1976546100000000 15.7828346400000008
  6.4205777399999997  2.0023650300000000 16.9070178099999993
  6.4403398000000003  4.1482796200000003 18.7019149599999999
  8.7709886299999997  6.2023052099999996  1.7973603899999999
  8.7401917000000005  8.3270368300000008  4.4273498900000003
  8.7623487400000002 10.9695060699999996  6.5101998200000004
  8.4093181200000000 13.3283822099999991  8.5002092600000001
  8.2522131499999993 14.9007427299999993 11.3303854499999996
  8.9371037399999995 17.7441595300000010 13.8354160700000008
  8.4796514500000004 19.7755772599999986 15.4462448999999999
  8.6511030499999997  0.0336602800000000 17.5762651400000003
  8.6238721799999993  2.1687745600000001 19.3050547399999992
  8.3657477199999999  3.9023637700000000 21.3907844199999992
 11.2350810699999997  6.2074417000000004  4.8059472300000001
 10.8360197100000004  8.8856340800000009  7.0457291099999999
 10.3346965500000003 10.3289631699999997  8.9241100299999996
 10.5623522199999993 13.1171709100000005 11.4246110699999992
 10.3892668100000005 14.7958006100000006 13.6432258100000006
 10.7839939400000002 17.2134747300000015 15.9667024299999998
 10.9204498500000007 19.7320572200000015 17.3965197799999984
 11.1166163699999991  0.1880424700000000 19.4678829299999983
 10.6415966799999993  2.4028024600000002 -0.2920847600000000
 10.4008093000000006  4.0154608200000004  2.1101975500000001
 13.0984927800000008  6.4676266399999998  7.0824046599999999
 13.2390824899999995  8.8361134099999994  9.1085823300000008
 12.4214005499999995 10.7815814700000008 10.6668425800000009
 12.6209187600000003 12.8885704699999994 13.6775929099999995
 12.7860621200000004 15.7046852799999996 15.4693848200000001
 13.4405451100000004 17.4535715200000006 17.4053054600000010
 13.2113348300000002 19.3443360200000001 18.8101134999999999
 13.5530129899999991 -0.0144995200000000 -0.3239956900000000
 13.0761671899999996  1.6864425900000000  1.6707875000000001
 12.9769906699999993  3.8136585400000000  4.7993478800000000
 15.1980571900000001  6.5656159299999999  8.8444818900000008
 15.1670945400000008  8.6036376000000008 11.1413745399999993
 15.0259971799999992 10.8438421199999997 13.0389724900000008
 15.2684881400000005 13.2259568099999996 15.0764816899999996
 15.6162213300000001 15.3464579299999997 16.9240859499999985
 15.4058441100000003 17.2008709899999985 19.0414585500000015
 15.7537536399999993 19.2567526999999998  0.2248883800000000
 15.6146132800000004 -0.0526065300000000  2.5222213600000001
 14.8976163800000005  1.7675019000000001  3.9454274800000002
 15.5093803099999992  4.1927203700000000  6.4342202200000003
 17.2376681800000000  6.8395803700000002 11.1377814599999994
 17.5622717799999997  8.8088726600000005 13.2605797200000008
 17.6442881500000013 11.2253373199999995 14.7279735600000006
 17.7114860000000007 13.2863138700000007 17.1822386400000013
 17.6292475099999990 14.8248202100000004 19.2616153700000012
 17.9603311699999999 17.0011626800000002  0.2546997300000000
 17.5375334699999996 19.8051270499999994  2.1402328000000002
 17.5584121899999985 -0.5617146700000000  4.5337860399999999
 17.1476858599999993  1.8292052400000001  7.0963374999999997
 17.3185966399999991  4.4299925199999999  8.9062509700000003
 19.3035242899999986  7.0857884899999997 12.9977678700000006
 19.7076442900000011  9.1046748900000001 15.3542736899999994
 19.0143245900000011 10.9734155500000004 17.3829145099999991
 19.4077475799999988 13.2132655600000000 19.8115730700000015
 19.3379908900000004 15.2167775600000006  0.5179388300000000
 19.6821884800000007 17.5052061499999994  2.2723564900000000
 19.9281826399999993 19.6531832100000017  4.2806766800000000
 20.0341463299999987 -0.4168272300000000  6.3417852000000003
 19.1235381199999992  2.0943508600000000  8.4867624799999994
 18.7856323500000002  4.2705399000000002 10.8225038999999992
  0.0110970700000000  6.8363548300000003 14.8034210999999996
 -0.0758342200000000  8.5918158400000006 17.3477918399999993
 -0.1135677000000000 10.4800915799999999 19.8243165700000006
  0.0112133700000000 12.9527882299999995  0.0916741200000000
 -0.1993775100000000 14.8329070400000003  2.1527642999999999
  0.3817772400000000 17.1180783500000011  4.3304334700000000
  0.6800365500000000 19.5343170700000002  6.7608230799999998
  0.0546702900000000  0.2190587900000000  8.7778160599999993
 -0.1606369800000000  2.2310381800000001 10.7807348699999999
 -0.5875404700000000  4.2384231500000000 12.8076463500000006
  2.4760857299999999  6.5631756899999996 16.9865554799999998
  2.6164087500000002  8.6619929199999994 19.8755788399999993
  2.0638408300000002 10.6636112300000008  0.2193626300000000
  2.2044294600000001 12.8045102899999996  2.6704042600000002
  1.7876767400000000 15.1271055000000008  4.0931281200000003
  2.4716510800000000 17.6432110999999985  6.5194206399999999
  2.7655145600000002 20.1775917500000013  8.7123726000000001
  2.2802731700000001  0.3308421600000000 10.4896127299999993
  1.9991848699999999  2.4706627600000002 12.8711469899999997
  1.9518694000000001  4.7372211399999999 14.8381261400000000
  4.3557715899999998  6.1730380199999999 19.5792721199999988
  4.5473678000000000  8.0205210900000008 22.0934209899999985
  4.2920769999999999 10.7472242999999992  2.0347832100000001
  4.2911864299999998 13.0826838100000007  4.2107520000000003
  4.1638966499999999 15.5518886700000003  6.1676304699999998
  4.2988832700000001 17.1094634799999987  9.0735493599999995
  4.2609872800000002 19.7977619400000009 11.3916907399999996
  4.3055391500000004  0.2466146500000000 13.5736825299999992
  3.8833795100000001  1.8225463099999999 14.9465029000000005
  4.2623740300000001  4.4337194400000000 16.4015255300000007
  8.5929093299999995  8.3329947200000003 -0.2995480500000000
  8.3154117900000006 10.2706518899999999  1.8202715100000000
  8.2242014999999995 12.7931827800000004  4.1673841800000000
  8.9069726800000009 15.9362286700000002  6.2229388300000004
  8.1703861599999996 17.3751572100000011  9.0131435300000007
  8.2787115300000007 18.8706414900000006 10.9702063800000005
  8.8442339299999997  0.0154714800000000 13.6385191399999997
  9.0918866000000005  2.0930402400000001 15.4623401400000002
  9.3201884100000001  4.5123842099999996 16.9913151499999984
  9.0182011299999996  6.7688923699999997 19.2733054800000012
 10.2065809499999993  8.9311529800000002  2.4952296100000000
 10.0941300599999995 10.7742728400000001  4.3434589800000003
 10.6807528000000005 13.4166721399999993  6.4514956400000001
 10.1819118500000005 14.9871090299999992  8.9540607600000008
 10.4842363499999998 17.0781635300000012 11.3006018000000008
 10.9490781699999999 19.3858699399999992 13.5007492100000004
 11.3194141699999999 -0.0447187100000000 15.9106743399999999
 10.9499598900000006  2.1200719000000001 17.3297111599999987
 11.0856533000000006  4.6612951000000002 19.3652656100000016
 11.0600742299999997  6.9672908099999997 21.7670509400000007
 12.9374231799999997  9.2640308200000003  4.2167415600000000
 12.8759568699999996 10.6676113299999997  7.1110023699999996
 12.3160094999999998 13.4047628200000002  8.7736250299999998
 12.4584478900000004 15.0631226500000004 11.6105339300000008
 12.2923953000000008 17.1837326899999994 13.3186254399999999
 12.9374743399999996 18.9184740100000006 15.7716155899999997
 13.1120544700000004 -0.4775126500000000 17.4494425500000006
 13.0422634700000000  2.3702906200000000 19.5316087399999994
 12.9762462099999993  4.3801409199999997  0.3188040100000000
 12.3020945000000008  6.3921700699999997  2.9036869099999998
 15.0837299599999994  9.0737401200000001  6.4123210200000003
 14.9989815699999998 11.2452815200000007  8.8854040899999998
 14.3762082499999995 12.7581865299999997 11.1340785100000002
 15.1429973800000006 15.6132056400000003 13.3308397999999997
 15.6375981399999997 17.1399031099999988 15.6757714299999993
 15.9043148399999996 19.3235847700000001 17.0158714599999996
 15.3726454599999993  0.1999632400000000 19.2062103499999992
 15.6368053499999995  2.4069068499999999  0.4080072100000000
 14.7309470699999991  4.2295843099999999  2.6539311400000001
 14.6173557200000008  6.1155217799999999  4.4863809300000002
 17.0390815300000007  8.8317042200000007  8.9236101899999998
 17.2309163500000011 11.2226958099999994 11.3811679500000000
 16.8436982099999994 13.3548356899999998 12.8115355100000006
 17.7744369499999983 15.3767605900000000 15.1102185500000008
 18.0776221200000009 17.1648140900000001 17.3508172400000014
 17.7524263799999993 19.7110675200000003 19.8471695200000013
 17.7125479599999984  0.5022334500000000  0.7778674900000000
 17.1340382300000016  2.2206990300000000  2.4670567700000001
 17.0990529400000000  4.1977200200000002  4.8131792100000004
 16.7254050700000008  6.5173707299999997  6.5357036600000002
 19.3545836700000002  8.6960020799999995 10.3756033799999994
 19.5630758100000008 10.8702274400000007 12.1978912299999998
 19.9349241600000013 12.8263574499999997 14.8894937299999999
 19.9755510600000008 15.3676546300000005 16.7828211500000002
 19.6793234300000002 17.7196316200000012 18.9426881599999994
 19.9941116100000009 20.0381872399999992  0.2545880200000000
 20.3462923800000013  0.6553565099999999  2.3692245800000000
 19.4326670399999983  2.0411722299999999  4.5572170999999999
 18.9834813000000011  4.5548001300000003  6.6205202500000002
 19.1287524900000001  6.6315012400000004  8.6099744200000004
 -0.2464634900000000  9.3142722399999993 12.8477714100000000
 -0.0616174700000000 10.7173991799999992 15.1144532100000006
 -0.5117840200000000 13.4891540299999999 17.2404317599999999
 -0.1748796000000000 15.4449659799999992 19.6739051700000012
 -0.4225194800000000 17.1291121400000002  0.1352957900000000
  0.1297925800000000 19.8721986000000008  1.8722696999999999
  0.8700252700000000  0.1861911000000000  4.3719080600000000
  0.0447477600000000  2.3272648500000002  6.9520705500000002
 -0.5577790000000000  4.3175791800000001  8.3811556300000003
 -0.5327066400000000  6.3029836299999999 10.7900409600000007
  2.3154294800000002  8.9413186600000003 15.2558478799999993
  1.7062916400000001 11.0291604499999991 17.5612747400000018
  1.8917081800000000 12.8209474399999994 19.6670321000000001
  2.0643418100000002 15.1240250300000003  0.3631254100000000
  2.2879638500000001 16.9613466899999992  2.0216015399999998
  2.0193007000000001 19.3456725200000008  4.1564164200000002
  2.1445219899999999  0.1494430800000000  7.1961327700000002
  2.2441784800000000  2.6493808099999998  8.6742332799999993
  1.8878744300000001  4.4740143400000001 10.8407251900000006
  1.7185252200000001  6.4055108299999999 13.0171936699999993
  4.5737775999999997  8.6302576099999992 17.3696657499999993
  4.0959842599999998 10.9261089100000000 19.8431499400000000
  4.2090278999999997 12.9194970500000004  0.3502859400000000
  4.9012667499999996 15.6621357900000007  2.5557906199999998
  4.1567325100000003 17.5681167900000013  3.8372337999999999
  4.0044705699999996 19.9040825400000010  5.9810617800000001
  4.6794935600000001  0.3163564900000000  9.0263349300000009