Li                                      
   1.00000000000000     
    21.0527999999999977    0.0000000000000000    0.0000000000000000
     0.0000000000000000   21.0527999999999977    0.0000000000000000
     0.0000000000000000    0.0000000000000000   21.0527999999999977
   Li
   432
Direct
  0.0049254341465286  0.9946414092187297  0.0086267950106418
  0.9235421568627444  0.0824840999772007  0.0897610503115942
  0.8428819857691110  0.1588056030551783  0.1674356517897877
  0.7635892555859556  0.2507533558481541  0.2504121057531563
  0.6539801988334091  0.3376544022647820  0.3263690340477297
  0.5900990908572723  0.4294267631858943  0.4160656458998346
  0.5096671468878213  0.5097358527131775  0.4799715619775071
  0.4235271773825815  0.5797798520861832  0.5776887544649654
  0.3328743891548882  0.6845903452272353  0.6574255823453399
  0.2552624263755874  0.7713228344923238  0.7638232700638383
  0.1699509328925402  0.8360125902492754  0.8446208846329242
  0.0869835884062908  0.9208003799969617  0.9191019588843261
  0.0988500061749491  0.9291432892536875  0.0918107463140316
  0.0011169830141355  0.0033058947028408  0.1636823899908819
  0.9196685557265525  0.0859029806011549  0.2577422760867947
  0.8359407271241821  0.1591493174304617  0.3452163650440809
  0.7468137335651335  0.2772384200676399  0.3997398707060356
  0.6544717833257323  0.3368304591313276  0.5116481370649026
  0.5808435832763337  0.4074187134252938  0.5879152678028561
  0.5058851867685092  0.5045409123727040  0.6636100376196978
  0.4119678503572004  0.5875369585043302  0.7526191708466357
  0.3331379369965006  0.6804457701588404  0.8257529962760302
  0.2543576816385453  0.7758143268353876  0.9160658743730039
  0.1700849122207018  0.8404472146222801  0.0049000968992274
  0.1613783107235136  0.8153177976326162  0.1585090819273418
  0.0879846181980568  0.9235253277473774  0.2610866526067781
  0.9895158268733866  0.0086770543585644  0.3424829177116564
  0.9203060927762579  0.0899899186806508  0.4326146322579447
  0.8236789913930664  0.1781666448168409  0.4915578136874927
  0.7374549869851066  0.2535103986168110  0.5665561721006256
  0.6709879493464044  0.3257604261665890  0.6725821966674275
  0.5728990196078456  0.4080574018657828  0.7611306847545194
  0.4911001671986597  0.5043709421074638  0.8323638879388966
  0.3931916229670165  0.5899544188896471  0.9055350086449323
  0.3112495421036598  0.6799959796321602  0.0102790127678958
  0.2464771669326637  0.7474308828279348  0.0820206271849813
  0.2363224578203358  0.7553780765503859  0.2568146370079063
  0.1470127289481695  0.8305432213292292  0.3367888983888108
  0.0860446235180135  0.9297624767251875  0.4305006559697517
  0.9970594818741461  0.0016759271925793  0.5041033715230299
  0.9171703122624990  0.0863440782223748  0.5752489664082674
  0.8346235104119160  0.1685141254369995  0.6599615652074817
  0.7519828483622106  0.2488003994718042  0.7470375147248802
  0.6633512226402161  0.3166579348115235  0.8323259832421357
  0.5837440292977689  0.4076942815207474  0.9241273051565599
  0.4963635801413560  0.5041324697902425  0.9930391259119915
  0.4149866131820943  0.5792599288455662  0.0584408715230254
  0.3213166253419999  0.6666880300957558  0.1509140826873363
  0.3270634134176902  0.6699645705084336  0.3357739972830203
  0.2537098290963655  0.7682685049019611  0.4164071111681125
  0.1550772723818241  0.8349131683196518  0.4930651443038485
  0.0794440706224364  0.9101148797309619  0.5799366160320716
  0.9988819548943582  0.9970358778879742  0.6678871323529378
  0.9126772229822180  0.0811159684222531  0.7475520695584450
  0.8324263451892406  0.1739815411726724  0.8317603031425733
  0.7437772690568494  0.2316741307569572  0.9082033791229662
  0.6714537063953472  0.3128539168186677  0.0015363329343359
  0.5786842443760420  0.4253968289253720  0.0671181543547661
  0.4882377845227239  0.4944509632922944  0.1526502807227530
  0.3951287686198484  0.5750502973476230  0.2295549831851318
  0.4144438758739923  0.5815032119243071  0.3908102318931483
  0.3383366568817436  0.6673673596861249  0.5025667716408293
  0.2520495093289270  0.7432427738828125  0.5859515418376660
  0.1770585409066712  0.8405067083713362  0.6604665004179964
  0.0888384390674872  0.9023440587475307  0.7632813464242290
  0.9913851763185875  0.0000767280361771  0.8304028110275112
  0.9139913123195029  0.0642458765579903  0.9240177662828728
  0.8279681600547164  0.1611379949460385  0.0002997140522893
  0.7544470312737488  0.2528457079343340  0.0883385316917469
  0.6689585233318098  0.3397005272457818  0.1618115324327434
  0.5761982292141639  0.4066442748707999  0.2381060847013217
  0.5151543728150187  0.5005524623802984  0.3095996143030888
  0.0791297751367992  0.0797361410358732  0.8932891501368019
  0.9860153970018217  0.1659960076569362  0.9849671245630063
  0.9094635027169815  0.2514088050045586  0.0833665920922613
  0.8361385896412799  0.3359606859895123  0.1515732653138784
  0.7549695413436694  0.3996890855373181  0.2406957858337151
  0.6779943399452790  0.4886050653594793  0.3224722174722601
  0.5925202395880831  0.5754379156216771  0.3977190862973075
  0.5195105458656357  0.6593466465268278  0.5013401020291823
  0.4213450400896761  0.7467468199004443  0.5804862792597660
  0.3540305750304000  0.8412100376196960  0.6489633716180236
  0.2538378600471205  0.9015709373574978  0.7509704210366337
  0.1766263779639772  0.0110529535263737  0.8432521251329987
  0.1631542345911257  0.0003291367419038  0.0003722849217240
  0.0828135768163847  0.0968840301527578  0.0779352537429716
  0.9826555151808805  0.1606212798297619  0.1676905889002853
  0.9138256274699827  0.2533120568285483  0.2465260316917437
  0.8532717253761959  0.3398760093669253  0.3326342310761490
  0.7419200567145481  0.4152618540051662  0.4063355178408585
  0.6627799793851636  0.4940890907622730  0.4977665493426073
  0.5927595060989503  0.5870046293129647  0.5796752099483200
  0.5001634737422123  0.6623089826531370  0.6625172708618337
  0.4185208941328469  0.7694134556923515  0.7407402093783233
  0.3422918115405054  0.8524396104081191  0.8327056586297275
  0.2519572641168892  0.9245736315359494  0.9230475271697856
  0.2442080070109469  0.9323681249050040  0.1005457530589737
  0.1520013565891460  0.0244734505623967  0.1776681842795256
  0.0662573272913818  0.0892919336145326  0.2444844994490012
  0.0036324664652696  0.1681699778651762  0.3453203939618490
  0.9200226938934506  0.2548191931714570  0.4320681382048974
  0.8363285862213132  0.3410282427990552  0.5115362198852438
  0.7509786237460077  0.4047953849369179  0.5882006849445176
  0.6650273270063849  0.4961062234002114  0.6704349962950289
  0.5817198990158090  0.5884718047005606  0.7382250132998962
  0.5033148977808182  0.6816582801337603  0.8299129331965318
  0.4181632390940848  0.7680867153062749  0.9304020557835528
  0.3339534817221477  0.8423510825163376  0.0075081533097716
  0.3286773270063819  0.8455104180916564  0.1745283230734174
  0.2271987916096663  0.9270943062205532  0.2522857244642012
  0.1570454690112513  0.0188142698358433  0.3517364792331676
  0.0819137164652659  0.0869416718916227  0.4306154573263399
  0.0121199864151080  0.1735723946458450  0.4912753339223315
  0.9061564323985394  0.2528618074555382  0.5887623133264910
  0.8220714812281500  0.3319310068019448  0.6794033843479284
  0.7347167550159597  0.4216807294041658  0.7573699963900324
  0.6559597739968055  0.5064828174874592  0.8259479551413591
  0.5681336055061550  0.6106764672632607  0.9110992243312026
  0.4854246147780827  0.6713923321363424  0.9896215334777310
  0.4129815896222837  0.7532218920998659  0.0937257091693269
  0.4083655570755411  0.7622004968460274  0.2459984738372114
  0.3259682750038024  0.8401329395614852  0.3359231978644175
  0.2320075723894206  0.9222832112593125  0.4212406772495854
  0.1839438126994963  0.0181872435020551  0.5192323011665891
  0.0928301066841470  0.1021596158230764  0.5957404815511467
  0.9793111600357207  0.1720141330369387  0.6759270738334067
  0.9106518078355350  0.2598311212760294  0.7497897666818645
  0.8198335209568341  0.3567138470892246  0.8326083803579607
  0.7385910149718811  0.4389734762121904  0.9115819482444110
  0.6609897049323621  0.5304511746656004  0.9986853748670015
  0.5636027103283183  0.5750026970284239  0.0866233113885073
  0.4851301969334259  0.6565927387330888  0.1791372800767590
  0.4951877460480318  0.6630158373233002  0.3289814561483482
  0.4136183970778262  0.7528413294193612  0.4081032014743897
  0.3405400331547312  0.8484057669288632  0.4961169749391985
  0.2399114687832480  0.9193598309963491  0.5667051836335304
  0.1613935148768775  0.0057429330065375  0.6639299817601483
  0.0808013423392637  0.0910264986130116  0.7490105667654632
  0.9946663431942540  0.1718345075239398  0.8307399205806334
  0.9085651253039941  0.2471621546777598  0.9001386328659393
  0.8230359548373585  0.3465100247948030  0.0054381773445797
  0.7378519626842959  0.4364465068779424  0.0743241060571549
  0.6599070665184712  0.4901574750152022  0.1616094481494130
  0.5873219186996508  0.5949747981266142  0.2427564661232680
  0.1784371542027685  0.1636772733318139  0.8333706509347891
  0.0797105553655584  0.2466952044383675  0.9251090163778670
  0.9916401880034940  0.3425389306885549  0.9983094457744315
  0.9203164187186488  0.4371780200258399  0.0683625645994823
  0.8313454656862760  0.5064960176318607  0.1606730791153694
  0.7564832464090259  0.5709193142954874  0.2473592861757083
  0.6679859553123606  0.6691738329343337  0.3313442530209727
  0.5907038222944223  0.7568309569273453  0.3940261817905437
  0.5105049010107905  0.8297615371827050  0.4897642608109152
  0.4172564380984980  0.9305101402188782  0.5772768339603260
  0.3301597402720802  0.9804052620079062  0.6669886119661044
  0.2417341465268308  0.0677596538227689  0.7568527345531209
  0.2537540232178159  0.0920945589185251  0.9355284826721402
  0.1503031169250661  0.1681028119775050  0.9871987768847816
  0.0715793395652824  0.2426628301223559  0.0761974122207008
  0.0002904483014134  0.3252139729632191  0.1572117347811215
  0.9257785539215675  0.4091704386114898  0.2372563302743558
  0.8299635041419648  0.4850497910016713  0.3159805313307515
  0.7403369233546115  0.5677880381706970  0.4172021968574242
  0.6730030404506735  0.6656743706300361  0.4744841622017049
  0.5888992742058079  0.7485626719486262  0.5753766810115550
  0.4897689889230890  0.8421772776067797  0.6516487797347637
  0.4275797309621510  0.9197167787657676  0.7385720744984070
  0.3215281060001516  0.9925387174152576  0.8289598780209744
  0.3273703716370235  0.9899610526865814  0.0158720279487738
  0.2501467823757437  0.0780671369129067  0.0920806942544488
  0.1565577861377108  0.1622802021583851  0.1580896355829182
  0.0816687485750123  0.2551679624562979  0.2443815587475271
  0.0025575096899217  0.3214938920238666  0.3372890556125583
  0.9158138637140922  0.4190943047955642  0.4309318883948947
  0.8234230496655996  0.4948198738410099  0.5208390043129683
  0.7304343996998028  0.5887975988942102  0.5781393168604652
  0.6696858698130441  0.6678169687642495  0.6609105691404480
  0.5763375764743870  0.7525438022495834  0.7553940801223575
  0.5033405836753317  0.8369468621751039  0.8470737859097142
  0.4164701863885085  0.9362425050349614  0.9351135839413303
  0.4182696192430484  0.9319460475566217  0.0911348267213867
  0.3186370463786261  0.0079066209720295  0.1792819045447658
  0.2479890190378455  0.0990902521279864  0.2590784997720021
  0.1540228952918383  0.1700612236852095  0.3420030129008964
  0.0933592633758948  0.2582013238144114  0.4237002949726403
  0.9953834288075711  0.3425903362023135  0.5116777697028425
  0.9111057488790095  0.4161983213634315  0.6079439836981280
  0.8168423677610548  0.5110585052819587  0.6659979936160525
  0.7429244846291212  0.5998563131744916  0.7513099464204274
  0.6528897377070990  0.6776416799665625  0.8333573534161758
  0.5787937718498242  0.7638511171910594  0.9166746413778668
  0.5038801489588067  0.8373445959682329  0.0262068679700533
  0.4959209881820925  0.8464264834131328  0.1658486942354429
  0.4019780965002298  0.9166211506307960  0.2500341403518789
  0.3294669070147407  0.0020869114797080  0.3434543618901031
  0.2586259357425149  0.0902111823605409  0.4200611191860446
  0.1890480392156846  0.1657867623309031  0.5095487317601481
  0.0824321600927220  0.2606366925064592  0.6002814328735369
  0.0062492533059739  0.3374629768961839  0.6850472559469551
  0.9025738039595694  0.4314387881896948  0.7487924713102316
  0.8120436778005811  0.5130796506877928  0.8413216721766190
  0.7358606403898733  0.6050585290317656  0.9131642128362998
  0.6575197337171304  0.6837830530855769  0.0058885217168267
  0.5723291652416762  0.7525181743046048  0.1048508939428459
  0.5721115590325283  0.7641668376653001  0.2592269769341868
  0.4934509894170844  0.8403537681448583  0.3251949579153361
  0.4159384661422720  0.9204448999658013  0.4135690402226757
  0.3339153005775941  0.9997905770253865  0.4843021279829784
  0.2637602475680225  0.0927993278803783  0.5862281938744474
  0.1807847027473812  0.1626109420124635  0.6726923715610269
  0.0835001985484141  0.2408918428902567  0.7580654487764065
  0.9984755557455571  0.3328848808709566  0.8481527535529736
  0.9075784266225853  0.4195266529867752  0.9120341308519500
  0.8342145624335018  0.5130889876881000  0.9869722331471351
  0.7514631056201537  0.5794670979632173  0.0851083703830398
  0.6781386409408725  0.6514458765579860  0.1773727100433220
  0.2465526647286822  0.2598784375474992  0.7416810538265679
  0.1767088772039855  0.3373590178028607  0.8475624615253068
  0.0974286964204296  0.4243751301489596  0.9152186284009716
  0.0053006246200056  0.5092666566917501  0.9739589959530335
  0.9206656121750996  0.5829696852675212  0.0770834886570881
  0.8340697470170255  0.6618069173696597  0.1812394745592059
  0.7616730928902555  0.7442306871295017  0.2501353895918825
  0.6751343636000939  0.8303632158192755  0.3317229147666794
  0.5876095032489772  0.9136960770063851  0.4096780352257170
  0.5088520443836444  0.9894331167350643  0.4874839598533214
  0.4109374943000432  0.0724322237422115  0.5757964337285273
  0.3416725095949218  0.1614943741450077  0.6820509651922819
  0.3387495174038619  0.1749621304529541  0.8255636798905641
  0.2622161066461501  0.2373605140408870  0.9151356631896945
  0.1671185889762867  0.3104901210290336  0.9943706214850252
  0.0935964123536976  0.4066330530855780  0.0679134770671865
  0.0093255927952569  0.4877348053465553  0.1507964950030427
  0.9275718560001494  0.5830461373309035  0.2414081955844338
  0.8330958865329094  0.6417392137862876  0.3310439703982340
  0.7538327186882512  0.7388164016187844  0.4105939599483222
  0.6652718550501575  0.8216064642232865  0.4808229888660875
  0.5890631854195192  0.9014989725832194  0.5673713268543850
  0.5140920932132573  0.0062967116013084  0.6672816884214896
  0.4152447208922325  0.0730594452994353  0.7452140627374959
  0.4114893201854386  0.0662143919098668  0.9271786189960451
  0.3336777678028611  0.1615244086297309  0.0199491830065384
  0.2486270952082350  0.2183614830331351  0.0794239901580767
  0.1769300772343811  0.3244725262197932  0.1522126448738419
  0.0717504531463717  0.4014138480392191  0.2476947669668661
  0.9950685357767171  0.5017043105905188  0.3327816518467870
  0.9139986177610595  0.5733422988866081  0.4150839631782972
  0.8384515233128127  0.6546691242970084  0.4977822764667863
  0.7586707924836631  0.7354872273521806  0.5656865652074785
  0.6704369922290638  0.8247694810191533  0.6581796259879908
  0.5855216755015960  0.8995178679320546  0.7453625997491997
  0.5133649980050166  0.9992172423620644  0.8319720355487163
  0.5111706808595500  0.0038639701132368  0.0147237559849529
  0.4171751614987045  0.0800560300767614  0.0945379602713174
  0.3315746328279374  0.1698243236054111  0.1876215862023116
  0.2430476744186052  0.2624789643182837  0.2682725053199562
  0.1536555945052456  0.3418038693190439  0.3392063421492608
  0.0773013874638977  0.4138509480924171  0.4209290417426672
  0.9843313535491731  0.4882636390408877  0.5287243036555722
  0.9349685348267229  0.5929950239398067  0.5853450818893435
  0.8360433229784192  0.6605254540963656  0.6603785667464663
  0.7527630391206870  0.7316542540659654  0.7489818850699166
  0.6618316955464323  0.8224575638394924  0.8308436350509183
  0.5916428194824448  0.9131682227542157  0.9182450381896956
  0.5885847678218568  0.9274757913436673  0.0959080716104239
  0.5046163754939954  0.9985805398806775  0.1667457820337432
  0.4141818798449606  0.0756084392574863  0.2707773954058368
  0.3406040768923830  0.1712571026181777  0.3435065031729749
  0.2472105349407201  0.2512886433158528  0.4128558581281325
  0.1936650260297910  0.3356157318741424  0.4882347141472891
  0.0880013964888278  0.4115618411802728  0.5859431272799824
  0.9934889696382427  0.4981971091731268  0.6778865827823353
  0.9136484315625495  0.5892117504559948  0.7591476098191237
  0.8231375313497509  0.6748378282223726  0.8434534536973715
  0.7373814062737480  0.7569568356703158  0.9114331214850253
  0.6761876154240767  0.8385120150288827  0.0151124971500209
  0.6639577809127530  0.8306518106855165  0.1855067767707865
  0.5839540768923825  0.9191366663816680  0.2516194121447057
  0.4955456096101258  0.0066188977238184  0.3283980933652515
  0.4119035909712707  0.0901202471880254  0.4296532180992543
  0.3378148844809274  0.1898434027777753  0.5033006265199873
  0.2491873708010317  0.2598042664158697  0.5928162823947432
  0.1792969386494931  0.3377875180498577  0.6772382922936586
  0.0820032304491534  0.4053607515389857  0.7620565250227997
  0.0035610883112938  0.5118001871485021  0.8378474231456181
  0.9181140760373907  0.6016201479138132  0.9142535719714218
  0.8257009561673527  0.6748191793965646  0.0100232102143210
  0.7526841360769083  0.7486356460898307  0.0976765546625629
  0.3504876078241352  0.3386339047537632  0.6705060367267066
  0.2502490243578066  0.4149726587437286  0.7543791671416642
  0.1567142950106373  0.5069079595113237  0.8466632504939966
  0.0827181838045306  0.6021897989816054  0.9146485598115248
  0.0023671525877802  0.6643259466674252  0.0068628358223108
  0.9204377341731274  0.7558705730354163  0.0904867594809247
  0.8356272172822585  0.8527408819729416  0.1594151105791184
  0.7450925672594622  0.9220707050843586  0.2617996960024342
  0.6671772837817329  0.0067106997644046  0.3271477542179682
  0.5746316722716216  0.0810183552781609  0.4097326873385043
  0.5141273032565721  0.1728647039823699  0.4989311459758312
  0.4291855382656919  0.2566146593327261  0.5967795243388068
  0.4287985574365436  0.2526036926204611  0.7425105278157744
  0.3374313910738707  0.3472082677838557  0.8241671103131196
  0.2446529858261144  0.4160365329077393  0.9099571344429265
  0.1585408477732173  0.4951616160320711  0.9871774082307354
  0.0848992537809679  0.5594291281919723  0.0712265689124507
  0.0077111443608473  0.6621147657318716  0.1613285767213881
  0.9234353682170564  0.7385210798563620  0.2604990566575438
  0.8560030893752852  0.8312515646374834  0.3419067249961998
  0.7558227081433344  0.9130135207668317  0.4153526842035262
  0.6714472089223307  0.9954900683044556  0.4969289310685525
  0.5907473271963823  0.0719110341617295  0.5810555104309145
  0.4979295480886137  0.1561156435248492  0.6520712071553447
  0.4807638413892690  0.1612372064523484  0.8377985118369082
  0.4199446790925663  0.2359617167312678  0.9313930603055169
  0.3307463995288060  0.3132716973514178  0.0037986600357200
  0.2416636589907313  0.4112962176052619  0.0669055037809727
  0.1693288583941310  0.4890129749962000  0.1643142128362953
  0.0844134533173744  0.5662536987954070  0.2568328056125537
  0.9934295072389432  0.6558494566043507  0.3505363642840891
  0.9150417502659991  0.7261510122169028  0.4082798501861973
  0.8251375674494597  0.8292115139078859  0.4858935600015215
  0.7538695893182847  0.9060466926014570  0.5899438060495541
  0.6548645263337889  0.9911562400250773  0.6645827357881160
  0.5874458637330875  0.0787270339337311  0.7391833789329709
  0.5813035306467569  0.0954516016871878  0.9220717766757858
  0.4975117081813352  0.1581632580939356  0.9932608807379566
  0.4141485222868226  0.2400296943874451  0.0766192159712702
  0.3366730273407796  0.3079379322465385  0.1507262549399613
  0.2655350195698460  0.4009861153860754  0.2328765793623617
  0.1743449864151074  0.4784979912410705  0.3196323353663146
  0.0929140926622622  0.5533096039481649  0.4152825514895895
  0.0068616131820960  0.6499745929282597  0.4994430693304466
  0.9206956043851662  0.7547527739778062  0.5694994841541288
  0.8316191000722029  0.8321546003381997  0.6647650839793258
  0.7569379654962773  0.9105401167540634  0.7397459497074053
  0.6761960632314938  0.9954212769797834  0.8427606427648584
  0.6814292545409657  0.0166534166476637  0.0034200956642323
  0.5911530931752580  0.0924406378249003  0.1024765066879496
  0.4816823334663312  0.1764051959834347  0.1708121646526806
  0.4130782518239826  0.2617115542825630  0.2618354565663452
  0.3283549166856687  0.3304043832649342  0.3412771436578481
  0.2715151642536853  0.4204036460708309  0.4127905471006201
  0.1691124164006723  0.4950866963064300  0.5031104062167486
  0.1021335570565469  0.5850820551185620  0.5836854237916071
  0.0081804719562228  0.6662915355677157  0.6705451692886442
  0.9028709368825076  0.7404504479214182  0.7539518315853471
  0.8343144299095613  0.8325037325201379  0.8241433652530787
  0.7448621855525133  0.9119097958466327  0.9217047689618454
  0.7461188597241204  0.9203823405912743  0.0829642114113085
  0.6697585789063680  0.9926896588577279  0.1803609386874925
  0.5819972953716359  0.0913888570641461  0.2441625897742838
  0.5037026395538859  0.1790828987118118  0.3370637273901806
  0.4292574873650992  0.2653917070413456  0.4040524595303268
  0.3397054847811205  0.3328333290583672  0.5016046905874774
  0.2683021113581106  0.4163886195660425  0.5838293015655864
  0.1689067810457487  0.4980518311103523  0.6806919103397178
  0.0775392764857870  0.5864106584397319  0.7608062628249002
  0.0000034413474665  0.6742051237840130  0.8417478050425586
  0.9136167882656920  0.7496134556923550  0.9165981289899676
  0.8286992580559343  0.8337443385202903  0.0169322451170402
  0.4270092040013651  0.4173631174950572  0.5871509172176630
  0.3363109847621217  0.4843680147058791  0.6617809270025816
  0.2744245178788560  0.5800299086107330  0.7534739355335134
  0.1760664020937810  0.6795593797499606  0.8356832459340353
  0.0733550682094517  0.7339500303997539  0.9181123912258684
  0.0064644085347325  0.8343168837399304  0.0123393064105457
  0.9219066223970174  0.9028076160890706  0.0921885858413134
  0.8445449075657407  0.9841150597545223  0.1708486757105945
  0.7638973537961675  0.0800862217852227  0.2505511984154154
  0.6715057042293680  0.1481025160548697  0.3272977907926702
  0.5878524357805119  0.2455115718574277  0.4067284954970347
  0.5132616678066597  0.3378088411042697  0.4994840724274212
  0.5097281026751759  0.3335971975224226  0.6623703588121259
  0.4335302135582921  0.4190266639116871  0.7430670200638403
  0.3305661769455810  0.4849012202652361  0.8314743050805617
  0.2436452196382461  0.5904675862593081  0.9106615618825060
  0.1653584573073417  0.6659207601839157  0.0082794507143973
  0.0867565810723505  0.7430698287163722  0.0874477570679417
  0.9976248043015659  0.8364120810533535  0.1678016700866394
  0.9326443123955031  0.9206487474350240  0.2501940060229515
  0.8479828208124331  0.0085962375550963  0.3309849483204133
  0.7486781444748445  0.0724230653404803  0.4133893786099705
  0.6725551850585205  0.1673882737688075  0.4909389311635479
  0.5965425663094663  0.2381455640104875  0.5966936246010022
  0.5663198277663781  0.2407014145386839  0.7379867689808464
  0.5003506108451106  0.3166804239816088  0.8296800439846450
  0.4097902654278798  0.4019704804111583  0.9273343526751816
  0.3301131977694212  0.4838011034161696  0.0003262435400515
  0.2432328336373288  0.5861917773407797  0.0605008587931266
  0.1654323914158695  0.6489451569387441  0.1652516757865925
  0.0755952300881617  0.7495140774623792  0.2361888404392758
  0.0037364939580513  0.8220614887330910  0.3419700006649933
  0.9263051774585804  0.9268176546587625  0.4085402060533525
  0.8346536246960028  0.9938730810153515  0.4839784964470297
  0.7591715790773677  0.0752557298791601  0.5816965957022333
  0.6833064404734728  0.1572990362327076  0.6662488652340812
  0.6625372482520149  0.1633277032033718  0.8271253386722890
  0.5914370463786298  0.2242025578545395  0.9210922817867484
  0.4961027359781127  0.3177646284579723  0.9998647747568015
  0.4101040398426790  0.4084598623460991  0.0723739212836279
  0.3237593284503717  0.4911657660738697  0.1416672798867609
  0.2466682868787018  0.5743070935932479  0.2566033658230751
  0.1632199270405863  0.6482476772685786  0.3338836026561793
  0.0770050040849668  0.7396967272761827  0.4226851592187231
  0.0048180422556641  0.8225636490158053  0.4793623342263231
  0.9226604926660613  0.9013373266263898  0.5758321173430616
  0.8398011836905326  0.0059760715914265  0.6472304216066291
  0.7606923900858789  0.0708273588311314  0.7532955549855629
  0.7552738761589879  0.0891558956528371  0.9172091669516647
  0.6754775070299459  0.1751727589679248  0.0098620183538500
  0.5759049608603135  0.2475589185286537  0.0956859942620483
  0.4940633188934456  0.3318593389002871  0.1521109728872148
  0.3969371561027515  0.4026454618863085  0.2423674751101998
  0.3340149723552202  0.4963509290925643  0.3189880942202450
  0.2373084392574825  0.5749437860997091  0.4287337366051105
  0.1628195555935577  0.6644541253419973  0.5010280632504944
  0.0900544207896345  0.7469757300691597  0.5804494357045158
  0.0032598960708299  0.8176418932398519  0.6677867238562101
  0.9206580915602700  0.9137214855031175  0.7324622273521797
  0.8458260682664545  0.9808348466712289  0.8352815421226651
  0.8258970711734293  0.0022009575923363  0.0073115367077037
  0.7481166519417854  0.0959974554453566  0.0974440307227553
  0.6736681125550987  0.1731221276979795  0.1590264278385760
  0.5649587950296393  0.2521686336259279  0.2342360797613594
  0.5119782304491594  0.3372757761437910  0.3362477523179805
  0.4299842586259288  0.4297634870421021  0.4075164277435803
  0.3421651842035232  0.4982223138964912  0.4980646308329568
  0.2582507281691733  0.5716725613695104  0.5941553489322118
  0.1712026219790275  0.6585427914576698  0.6833543186654509
  0.0883323192164482  0.7567490162828676  0.7500271602827198
  0.9978849625702964  0.8370813772989791  0.8316261988904117
  0.9132138580141387  0.9161641477618190  0.9355384157926707
 
  0.00000000E+00  0.00000000E+00  0.00000000E+00
  0.00000000E+00  0.00000000E+00  0.00000000E+00
  0.00000000E+00  0.00000000E+00  0.00000000E+00
  0.00000000E+00  0.00000000E+00  0.00000000E+00
  0.00000000E+00  0.00000000E+00  0.00000000E+00
  0.00000000E+00  0.00000000E+00  0.00000000E+00
  0.00000000E+00  0.00000000E+00  0.00000000E+00
  0.00000000E+00  0.00000000E+00  0.00000000E+00
  0.00000000E+00  0.00000000E+00  0.00000000E+00
  0.00000000E+00  0.00000000E+00  0.00000000E+00
  0.00000000E+00  0.00000000E+00  0.00000000E+00
  0.00000000E+00  0.00000000E+00  0.00000000E+00
  0.00000000E+00  0.00000000E+00  0.00000000E+00
  0.00000000E+00  0.00000000E+00  0.00000000E+00
  0.00000000E+00  0.00000000E+00  0.00000000E+00
  0.00000000E+00  0.00000000E+00  0.00000000E+00
  0.00000000E+00  0.00000000E+00  0.00000000E+00
  0.00000000E+00  0.00000000E+00  0.00000000E+00
  0.00000000E+00  0.00000000E+00  0.00000000E+00
  0.00000000E+00  0.00000000E+00  0.00000000E+00
  0.00000000E+00  0.00000000E+00  0.00000000E+00
  0.00000000E+00  0.00000000E+00  0.00000000E+00
  0.00000000E+00  0.00000000E+00  0.00000000E+00
  0.00000000E+00  0.00000000E+00  0.00000000E+00
  0.00000000E+00  0.00000000E+00  0.00000000E+00
  0.00000000E+00  0.00000000E+00  0.00000000E+00
  0.00000000E+00  0.00000000E+00  0.00000000E+00
  0.00000000E+00  0.00000000E+00  0.00000000E+00
  0.00000000E+00  0.00000000E+00  0.00000000E+00
  0.00000000E+00  0.00000000E+00  0.00000000E+00
  0.00000000E+00  0.00000000E+00  0.00000000E+00
  0.00000000E+00  0.00000000E+00  0.00000000E+00
  0.00000000E+00  0.00000000E+00  0.00000000E+00
  0.00000000E+00  0.00000000E+00  0.00000000E+00
  0.00000000E+00  0.00000000E+00  0.00000000E+00
  0.00000000E+00  0.00000000E+00  0.00000000E+00
  0.00000000E+00  0.00000000E+00  0.00000000E+00
  0.00000000E+00  0.00000000E+00  0.00000000E+00
  0.00000000E+00  0.00000000E+00  0.00000000E+00
  0.00000000E+00  0.00000000E+00  0.00000000E+00
  0.00000000E+00  0.00000000E+00  0.00000000E+00
  0.00000000E+00  0.00000000E+00  0.00000000E+00
  0.00000000E+00  0.00000000E+00  0.00000000E+00
  0.00000000E+00  0.00000000E+00  0.00000000E+00
  0.00000000E+00  0.00000000E+00  0.00000000E+00
  0.00000000E+00  0.00000000E+00  0.00000000E+00
  0.00000000E+00  0.00000000E+00  0.00000000E+00
  0.00000000E+00  0.00000000E+00  0.00000000E+00
  0.00000000E+00  0.00000000E+00  0.00000000E+00
  0.00000000E+00  0.00000000E+00  0.00000000E+00
  0.00000000E+00  0.00000000E+00  0.00000000E+00
  0.00000000E+00  0.00000000E+00  0.00000000E+00
  0.00000000E+00  0.00000000E+00  0.00000000E+00
  0.00000000E+00  0.00000000E+00  0.00000000E+00
  0.00000000E+00  0.00000000E+00  0.00000000E+00
  0.00000000E+00  0.00000000E+00  0.00000000E+00
  0.00000000E+00  0.00000000E+00  0.00000000E+00
  0.00000000E+00  0.00000000E+00  0.00000000E+00
  0.00000000E+00  0.00000000E+00  0.00000000E+00
  0.00000000E+00  0.00000000E+00  0.00000000E+00
  0.00000000E+00  0.00000000E+00  0.00000000E+00
  0.00000000E+00  0.00000000E+00  0.00000000E+00
  0.00000000E+00  0.00000000E+00  0.00000000E+00
  0.00000000E+00  0.00000000E+00  0.00000000E+00
  0.00000000E+00  0.00000000E+00  0.00000000E+00
  0.00000000E+00  0.00000000E+00  0.00000000E+00
  0.00000000E+00  0.00000000E+00  0.00000000E+00
  0.00000000E+00  0.00000000E+00  0.00000000E+00