Li 
 1.0000000000000000
    21.0527999999999977    0.0000000000000000    0.0000000000000000
     0.0000000000000000   21.0527999999999977    0.0000000000000000
     0.0000000000000000    0.0000000000000000   21.0527999999999977
 Li 
 432
Cartesian
  0.1036941800000000 -0.1128133400000000  0.1816181900000000
 19.4431483199999988  1.7365212600000000  1.8897214400000000
 17.7450258699999992  3.3433025999999999  3.5249892900000002
 16.0756918800000008  5.2790602499999997  5.2718759799999999
 13.7681143299999995  7.1085706000000002  6.8709819999999997
 12.4232381400000005  9.0406357600000007  8.7593468300000001
 10.7299205099999995 10.7313669600000008 10.1047452999999994
  8.9164329599999999 12.2059892699999999 12.1619658099999999
  7.0079379399999997 14.4125436199999992 13.8406493000000008
  5.3739888100000002 16.2385053699999986 16.0806185399999997
  3.5779429999999999 17.6004058599999986 17.7816345600000005
  1.8312480900000001 19.3854262400000010 19.3496697200000014
  2.0810694100000000 19.5610678399999998  1.9328732799999999
  0.0235156200000000  0.0695983400000000  3.4459726200000000
 19.3615981700000006  1.8084982700000001  5.4261965900000000
 17.5988929399999989  3.3505387500000001  7.2677710900000001
 15.7225201699999992  5.8366450099999998  8.4156435500000004
 13.7784635600000005  7.0912242900000004 10.7716259000000001
 12.2283837900000005  8.5773046900000001 12.3772625499999993
 10.6502996599999999 10.6219989199999993 13.9708494000000005
  8.6730767600000007 12.3692980800000001 15.8447408799999998
  7.0134863599999999 14.3252887100000006 17.3844126800000005
  5.3549414000000004 16.3330638599999993 19.2857516400000009
  3.5807636399999998 17.6937671200000004  0.1031607600000000
  3.3974652999999999 17.1647225299999988  3.3370600000000001
  1.8523225699999999 19.4427940200000009  5.4966050800000001
 -0.2207212000000000  0.1826762900000000  7.2102243699999997
 19.3750201100000012  1.8945397600000000  9.1077493300000008
 17.3407490700000011  3.7509067400000000 10.3486683399999997
 15.5254923500000004  5.3371037200000000 11.9275937800000005
 14.1261750999999993  6.8581690999999996 14.1597384700000006
 12.0611284800000007  8.5907508700000008 16.0239320800000016
 10.3390336000000005 10.6184205699999996 17.5235904600000012
  8.2777846000000004 12.4201923900000004 19.0640474299999987
  6.5526743600000001 14.3158193600000008 21.2692019999999999
  5.1890345000000000 15.7355128900000008  1.7267638599999999
  4.9752494399999998 15.9028235700000007  5.4066671900000003
  3.0950295799999998 17.4852603299999991  7.0903493199999996
  1.8114802500000000 19.5741034700000007  9.0632442100000006
 -0.0619061400000000  0.0352829600000000 10.6127874599999998
 19.3090031499999988  1.8177846099999999 12.1106014399999999
 17.5711618399999985  3.5476941800000001 13.8940388400000003
 15.8313445099999992  5.2379450500000004 15.7272313900000000
 13.9654006200000005  6.6665361699999997 17.5227924600000016
 12.2894462999999998  8.5831061700000006 19.4554673300000012
 10.4498431800000002 10.6134000600000000 -0.1465458900000000
  8.7366301699999998 12.1950434300000001  1.2303439800000000
  6.7646146500000004 14.0356497600000001  3.1771639999999999
  6.8856006299999999 14.1046301100000004  7.0689828099999996
  5.3413022899999998 16.1742031799999992  8.7665356299999999
  3.2648107999999998 17.5772599499999984 10.3804018700000000
  1.6725201300000001 19.1604665400000016 12.2092895899999991
 -0.0235379800000000 -0.0624030700000000 14.0608942199999998
 19.2144110400000017  1.7077182600000000 15.7380642099999992
 17.5249053600000018  3.6627985900000000 17.5108833100000005
 15.6585940899999994  4.8773891400000000 19.1202241000000015
 14.1359805900000008  6.5864509399999998  0.0323441100000000
 12.1829236600000002  8.9557943600000005  1.4130250799999999
 10.2787724300000001 10.4095772400000008  3.2137158299999999
  8.3185669400000002 12.1064188999999995  4.8327751499999998
  8.7252040300000004 12.2422708199999999  8.2276496500000000
  7.1229339700000001 14.0499515499999994 10.5804377299999999
  5.3063479100000004 15.6473414700000006 12.3359206199999996
  3.7275780500000000 17.6950196300000009 13.9046691399999993
  1.8702978900000000 18.9968690000000002 16.0692095299999984
 -0.1813661600000000  0.0016153400000000 17.4823042999999991
 19.2420763000000008  1.3525555899999999 19.4531612299999992
 17.4310480800000001  3.3924059799999999 21.0591098199999998
 15.8832224600000007  5.3231101199999999  1.8597734400000001
 14.0834499999999991  7.1516472599999998  3.4065858300000000
 12.1305860800000005  8.5610005900000008  5.0127997799999999
 10.8454419800000004 10.5380308800000009  6.5179387599999998
  1.6659033299999999  1.6786690300000000 18.8062378199999998
 -0.2944150500000000  3.4946807500000001 -0.3164841200000000
 19.1467532300000016  5.2928592900000000  1.7551001900000001
 17.6030584999999995  7.0729131299999999  3.1910416399999999
 15.8942227599999999  8.4145743799999995  5.0673202399999999
 14.2736792399999999 10.2865047199999999  6.7889431000000000
 12.4742101000000005 12.1145793499999996  8.3731003800000003
 10.9371516199999999 13.8810930799999994 10.5546129000000004
  8.8704928600000006 15.7211114500000004 12.2208615399999996
  7.4533348899999998 17.7098266799999990 13.6624960699999995
  5.3439977000000001 18.9805926300000003 15.8100300800000007
  3.7184798099999998  0.2326956200000000 17.7528183400000010
  3.4348534700000002  0.0069292500000000  0.0078376400000000
  1.7434576700000000  2.0396801099999999  1.6407553100000001
 -0.3651499700000000  3.3815276800000000  3.5303564299999999
 19.2385881699999999  5.3329280700000004  5.1900632399999997
 17.9637589800000015  7.1553416500000004  7.0028819400000000
 15.6194945700000005  8.7424247600000005  8.5545003899999994
 13.9533743500000007 10.4019588100000000 10.4793796100000005
 12.4792473299999997 12.3580910599999996 12.2037862599999993
 10.5298415799999994 13.9434585500000008 13.9478436000000006
  8.8110366800000008 16.1983075999999997 15.5946554800000001
  7.2062010499999998 17.9462406299999984 17.5307856899999983
  5.3044058900000000 19.4648637499999992 19.4327349799999993
  5.1412623300000000 19.6289596599999996  2.1167696299999998
  3.2000541600000001  0.5152346600000000  3.7404127500000000
  1.3949022600000001  1.8798452200000000  5.1470832700000004
  0.0764735900000000  3.5404489099999998  7.2699611900000001
 19.3690537700000007  5.3646575099999998  9.0962440999999998
 17.6070584600000011  7.1795993899999999 10.7692697299999995
 15.8102027700000001  8.5220762800000003 12.3832713800000001
 14.0006873100000000 10.4444251000000001 14.1145338900000006
 12.2468326899999997 12.3889792100000005 15.5417035600000002
 10.5961878800000004 14.3508154399999999 17.4719909999999992
  8.8035070399999995 16.1703760000000010 19.5875683999999985
  7.0306558600000004 17.7338488699999992 21.2108676500000009
  6.9195780300000003 17.8003617299999988  3.6743098800000000
  4.7831707200000002 19.5179310100000016  5.3113209000000001
  3.3062468500000000  0.3960930600000000  7.4050377500000000
  1.7245130900000001  1.8303656300000000  9.0656610999999998
  0.2551596500000000  3.6541849100000001 10.3427213499999997
 19.0771301400000013  5.3234490599999997 12.3950952300000008
 17.3069064799999985  6.9880770999999999 14.3033435699999991
 15.4678448999999993  8.8775600600000004 15.9447590600000009
 13.8097899300000009 10.6628814599999995 17.3885171099999987
 11.9608031700000002 12.8564495300000008 19.1811897500000015
 10.2195473299999993 14.1346884900000003 20.8343042199999999
  8.6944188100000002 15.8574298500000008  1.9731886100000000
  8.5972384000000002 16.0464546199999987  5.1789566699999998
  6.8625448999999996 17.6871507500000007  7.0721239000000002
  4.8844090199999997 19.4166439900000007  8.8682957299999998
  3.8725323000000000  0.3828924000000000 10.9312937899999998
  1.9543336700000000  2.1507459600000001 12.5420052099999992
 -0.4355580100000000  3.6213791400000002 14.2301575000000007
 19.1717703800000017  5.4701726300000004 15.7851739999999996
 17.2597911500000016  7.5098252800000003 17.5287377100000015
 15.5494089199999994  9.2416207999999997 19.1913524399999993
 13.9156840600000002 11.1674824899999994 21.0251234599999997
 11.8654151399999996 12.1054167800000005  1.8236632500000001
 10.2133490100000000 13.8231156100000003  3.7713413299999998
 10.4250885800000006 13.9583398200000008  6.9259807999999996
  8.7078253900000000 15.8494179400000004  8.5917150800000002
  7.1693212099999997 17.8613169300000010 10.4446514500000003
  5.0508081699999998 19.3550986499999986 11.9307308899999995
  3.3977853900000001  0.1209048200000000 13.9775851200000005
  1.7010945000000000  1.9163626700000000 15.7687696600000002
 -0.1122884100000000  3.6175975199999999 17.4894013999999984
 19.1278398699999990  5.2034554100000001 18.9504386099999991
 17.3272113499999989  7.2950062500000001 21.1672888599999993
 15.5338498000000005  9.1884210199999998  1.5647305400000000
 13.8928914900000002 10.3191872900000003  3.4023313900000001
 12.3647708900000008 12.5258854300000007  5.1107033299999998
  3.7566017199999999  3.4458649000000001 17.5447856400000006
  1.6781303800000000  5.1936248000000003 19.4761351000000005
 -0.1759974500000000  7.2114035999999997 -0.0355909000000000
 19.3752375000000008  9.2038214200000006  1.4392233999999999
 17.5021498199999996 10.6631593599999999  3.3826182000000000
 15.9260904900000000 12.0194501400000000  5.2076055800000001
 14.0629747199999997 14.0879828699999994  6.9757242899999996
 12.4359694300000001 15.9334107700000001  8.2953544000000008
 10.7475575800000005 17.4688036900000014 10.3109090299999995
  8.7844163399999999 19.5898438800000001 12.1532937299999997
  6.9507869800000002 20.6402758999999989 14.0419778500000003
  5.0891806400000004  1.4265304400000001 15.9338692500000008
  5.3422327000000003  1.9388483299999999 19.6954940399999998
  3.1643014599999999  3.5390348800000000 -0.2695015900000000
  1.5069455199999999  5.1087320299999996  1.6041688800000000
  0.0061147500000000  6.8466647299999996  3.3097472099999998
 19.4902307400000012  8.6141834100000008  4.9949100700000004
 17.4730556600000000 10.2116562399999999  6.6522749299999999
 15.5861651800000001 11.9535280099999994  8.7832744100000006
 14.1685984099999995 14.0143093899999993  9.9892201699999994
 12.3979786399999998 15.7593402200000003 12.1132901900000007
 10.3110085700000003 17.7301897900000007 13.7190314299999994
  9.0017505599999996 19.3626134000000008 15.5490101700000007
  6.7690669100000003 20.8957191100000017 17.4519265200000007
  6.8920629599999996 -0.2113479500000000  0.3341506300000000
  5.2662901800000004  1.6435318200000000  1.9385564399999999
  3.2959797599999998  3.4164526400000002  3.3282294800000001
  1.7193558300000000  5.3720000800000003  5.1449160799999998
  0.0538427400000000  6.7683466100000000  7.1008790299999998
 19.2804461099999997  8.8231085799999995  9.0723228599999999
 17.3353607799999985 10.4173438399999991 10.9651193899999999
 15.3776893300000008 12.3958380899999998 12.1714514099999995
 14.0987626800000001 14.0594170799999993 13.9140180299999994
 12.1335197299999997 15.8431541599999992 15.9031604899999994
 10.5967286400000003 17.6200748999999988 17.8332750000000004
  8.7678635400000005 19.7105262100000012 19.6867592599999988
  8.8057466400000006 19.6200737499999995  1.9186432800000000
  6.7082020099999999  0.1664565100000000  3.7743860800000002
  5.2208632200000000  2.0861272600000000  5.4543278400000004
  3.2426132100000000  3.5802649299999998  7.2001210300000000
  1.9654739000000001  5.4358608300000002  8.9200775700000001
 -0.0971917500000000  7.2124858300000003 10.7722497500000003
 19.1813271100000016  8.7621400200000004 12.7989230999999997
 17.1968190000000014 10.7592125000000003 14.0211225600000002
 15.6406405900000003 12.6286549899999994 15.8171780399999999
 13.7451570699999994 14.2662547600000007 17.5445056900000012
 12.1852295200000000 16.0812047999999983 19.2985678900000011
 10.6080880000000004 17.6284483099999996 21.6045279500000014
 10.4405253800000004 17.8196474699999996  3.4915793900000001
  8.4627644699999998 19.2974417600000017  5.2639187500000002
  6.9362009000000002  0.0439353300000000  7.2306759899999999
  5.4448001000000001  1.8991979800000001  8.8434627300000006
  3.9799905600000001  3.4902755499999998 10.7274275400000008
  1.7354277800000000  5.4871321599999998 12.6376049500000001
  0.1315642800000000  7.1045405600000002 14.4221628699999993
 19.0017057800000018  9.0829945199999997 15.7641781400000003
 17.0957931400000014 10.8017632700000004 17.7121768999999993
 15.4919268900000002 12.7381761999999998 19.2246635400000017
 13.8426314500000007 14.3955478600000006 21.1767698700000011
 12.0491314500000009 15.8426146200000009  2.2074048999999998
 12.0445502300000005 16.0878516000000005  5.4574537000000003
 10.3885249900000005 17.6917998099999991  6.8462644099999999
  8.7566693400000002 19.3779423900000012  8.7067862900000002
  7.0298520399999997 -0.0044089400000000 10.1959158399999996
  5.5528917399999997  1.9536856899999999 12.3417449200000000
  3.8060241900000000  3.4234156400000000 14.1620579600000003
  1.7579129800000000  5.0714477899999997 15.9594002800000005
 -0.0320938200000000  7.0081588200000002 17.8559902900000012
 19.1070670999999983  8.8322107200000008 19.2008721499999986
 17.5625523399999999 10.8019598400000003 20.7785290300000014
 15.8204024699999994 12.1994049199999992  1.7917695000000000
 14.2767171800000003 13.7147597500000007  3.7341921899999999
  5.1906239400000000  5.4711687700000002 15.6144628900000004
  3.7202166499999998  7.1023519300000002 17.8435629899999988
  2.0511468599999998  8.9342847400000007 19.2679147399999984
  0.1115929900000000 10.7214890700000005 -0.5482360500000000
 19.3825889999999994 12.2731441900000000  1.6228232700000000
 17.5595035700000004 13.9328886700000005  3.8155984100000002
 16.0353512900000013 15.6681398099999996  5.2660503299999997
 14.2134687300000007 17.4814707100000000  6.9836961799999999
 12.3708253500000005 19.2358607699999986  8.6248697399999994
 10.7127603199999992 -0.2224624800000000 10.2629023099999994
  8.6513848800000002  1.5249011200000000 12.1221271599999998
  7.1931630100000001  3.3999087600000002 14.3590825599999992
  7.1316258399999999  3.6834427399999998 17.3804270400000007
  5.5203832500000001  4.9971034300000001 19.2661680900000007
  3.5183142300000001  6.5366864199999997 -0.1185141800000000
  1.9704665500000000  8.5607643400000004  1.4297688500000001
  0.1963298400000000 10.2681833099999995  3.1746884500000001
 19.5279847699999998 12.2747537199999996  5.0823184599999998
 17.5390010799999985 13.5104073200000006  6.9694025000000002
 15.8702894600000004 15.5541539400000008  8.6441525200000005
 14.0058353100000001 17.2971165700000000 10.1226702199999998
 12.4014294300000003 18.9790775700000012 11.9447550699999994
 10.8230780200000005 21.1853634100000008 14.0481479300000007
  8.7420640600000006  1.5381058900000000 15.6888426200000008
  8.6630023600000001  1.3939983499999999 19.5197060299999983
  7.0248513099999998  3.4005410700000001  0.4199861600000000
  5.2342965100000001  4.5971206300000000  1.6720973800000001
  3.7248735300000000  6.8310551999999998  3.2045023700000002
  1.5105479399999999  8.4508854600000003  5.2146683899999999
 -0.1038211300000000 10.5622805100000008  7.0059855600000001
 19.2422301000000004 12.0704607500000005  8.7386796600000007
 17.6517522299999996 13.7826181400000003 10.4797107100000009
 15.9721444600000009 15.4840654999999998 11.9092861200000009
 14.1145759099999992 17.3637069299999993 13.8565240299999992
 12.3268707299999996 18.9373697700000001 15.6919697399999993
 10.8077706300000003 -0.0164792400000000 17.5153408699999993
 10.7615741099999997  0.0813473900000000  0.3099762900000000
  8.7827052400000003  1.6854035900000000  1.9902887700000000
  6.9805744299999999  3.5752775200000002  3.9499597299999998
  5.1168340800000003  5.5259171399999998  5.6478874000000001
  3.2348805000000000  7.1959284999999999  7.1412432800000003
  1.6274106500000001  8.7127212400000005  8.8617349300000008
 -0.3298688800000000 10.2793167400000005 11.1311270199999992
 19.6837055700000008 12.4842056400000008 12.3231529399999999
 17.6010528700000002 13.9059102800000005 13.9028178899999997
 15.8477697099999997 15.4033706800000001 15.7681658299999992
 13.9334103200000001 17.3150346000000006 17.4915848800000013
 12.4557379499999996 19.2247479599999984 19.3316291400000004
 12.3913574000000004 19.5259623399999995  2.0191334500000000
 10.6235876299999994 -0.0298836100000000  3.5104655999999999
  8.7196882799999997  1.5917693500000001  5.7006223499999997
  7.1706695099999997  3.6054415299999998  7.2317737099999997
  5.2044739499999997  5.2903295500000000  8.6917718100000005
  4.0771910599999996  7.0656508799999997 10.2787077900000003
  1.8526758000000001  8.6645291300000000 12.3357434700000006
 -0.1370754200000000 10.4884441000000006 14.2714106500000000
 19.2348576999999992 12.4045571399999996 15.9821828000000004
 17.3293498200000009 14.2072258300000005 17.7570568699999995
 15.5239432700000002 15.9360608700000004 19.1882192200000006
 14.2356426299999992 17.6530257500000012  0.3181603800000000
 13.9781703700000008 17.4875464399999991  3.9054370700000001
 12.2938683900000001 19.3504004099999989  5.2972931599999997
 10.4326226099999992  0.1393463300000000  6.9136993799999997
  8.6717239199999998  1.8972835400000001  9.0454032699999996
  7.1119491999999997  3.9967351899999999 10.5958874299999994
  5.2460918799999998  5.4696072600000001 12.4804426300000006
  3.7747025900000000  7.1113730600000000 14.2577623199999994
  1.7263976100000000  8.5339788300000006 16.0434236100000014
  0.0749708800000000 10.7748269800000003 17.6390342300000000
 19.3288720199999986 12.6657886499999996 19.2475975999999989
 17.3833170899999985 14.2068332200000000  0.2110166400000000
 15.8461085799999992 15.7608765300000009  2.0563649700000002
  7.3787455099999999  7.1291918699999997 14.1160294900000007
  5.2684426599999998  8.7363363900000000 15.8817937300000001
  3.2992747100000002 10.6718318900000000 17.8246320800000007
  1.7414493799999999 12.6777814000000006 19.2559131999999984
  0.0498351900000000 13.9859212900000003  0.1444819100000000
 19.3777915299999997 15.9131920000000004  1.9049996499999999
 17.5922926799999999 17.9525832399999992  3.3561344399999999
 15.6862847999999993 19.4121701400000006  5.5116166399999997
 14.0459499200000000  0.1412790200000000  6.8873762400000000
 12.0976056700000001  1.7056632300000001  8.6260203200000003
 10.8238192899999994  3.6392860400000000 10.5038976300000009
  9.0355573000000007  5.4024571000000003 12.5638799700000003
  9.0274102700000007  5.3180150199999998 15.6319256400000004
  7.1038755900000004  7.3097062199999998 17.3510253399999996
  5.1506303800000000  8.7587339199999992 19.1571455600000000
  3.3377287600000001 10.4245384699999999 -0.2699514600000000
  1.7873670100000001 11.7775495499999998  1.4995187100000000
  0.1623411800000000 13.9393697400000001  3.3964182599999999
 19.4409001199999985 15.5479365900000008  5.4842345400000001
 18.0212618400000011 17.5001729399999988  7.1980938999999999
 15.9121843100000007 19.2214910500000009  8.7443369900000008
 14.1358438000000000 -0.0949466900000000 10.4617453999999999
 12.4368853300000008  1.5139286199999999 12.2328454499999992
 10.4828111899999996  3.2866714199999998 13.7279247099999999
 10.1214250000000003  3.3944946599999999 17.6380045099999982
  8.8410113399999997  4.9676548299999999 19.6084318199999998
  6.9631378000000002  6.5952463899999998  0.0799724300000000
  5.0876966799999996  8.6589370100000007  1.4085481900000001
  3.5648465900000001 10.2950923599999999  3.4592742599999999
  1.7771395500000000 11.9212258700000007  5.4070496900000000
 -0.1383272700000000 13.8074674399999999  7.3797719700000002
 19.2641909600000005 15.2875120300000003  8.5954340299999998
 17.3714561799999991 17.4572241599999991 10.2294199399999997
 15.8710656900000000 19.0748198100000010 12.4199689600000003
 13.7867318999999995 -0.1861859100000000 13.9913274199999993
 12.3673802800000008  1.6574245000000001 15.5618798399999996
 12.2380669700000002  2.0095234799999999 19.4121926999999985
 10.4740144900000001  3.3297794399999998 -0.1418773300000000
  8.7189860100000001  5.0532971499999997  1.6130490300000000
  7.0879099099999996  6.4829556999999998  3.1732097000000001
  5.5902556600000004  8.4418804900000008  4.9027040499999996
  3.6704501299999999 10.0737225099999996  6.7291556300000002
  1.9561018100000001 11.6487164300000003  8.7428605000000008
  0.1444561700000000 13.6837851100000005 10.5146750499999992
 19.3832204200000007 15.8896592000000005 11.9895587399999997
 17.5079105900000016 17.5191843700000014 13.9951663600000007
 15.9356635999999998 19.1694189699999988 15.5737235300000005
 14.2358204799999992 -0.0963949400000000 17.7424712599999985
 14.3459938099999995  0.3506010500000000  0.0720025900000000
 12.4454278400000007  1.9461342600000000  2.1574173999999999
 10.1407618300000006  3.7138233100000000  3.5960743399999999
  8.6964538200000003  5.5097610100000001  5.5123695000000001
  6.9127903899999996  6.9559373999999998  7.1848394500000001
  5.7161544500000003  8.8506738800000004  8.6903968299999992
  3.5602898800000000 10.4229611999999996 10.5918827600000007
  2.1501973500000000 12.3176154899999997 12.2882124899999994
  0.1722218400000000 14.0273024399999997 14.1168533400000005
 19.0079612599999983 15.5885551899999992 15.8727971199999995
 17.5646548299999985 17.5265345799999999 17.3505254399999984
 15.6814346199999992 19.1982545500000015 19.4044661599999984
 15.7078911300000001 19.3766253400000004  1.7466289500000001
 14.1002934100000008 -0.1539031500000000  3.7971027700000000
 12.2526726600000000  1.9239913300000000  5.1403061699999997
 10.6043509300000007  3.7701964499999998  7.0961352399999997
  9.0370720299999991  5.5872385299999996  8.5064356199999995
  7.1517516299999997  7.0070735099999997 10.5601832299999998
  5.6485106900000002  8.7661463299999998 12.2912415199999998
  3.5559606800000001 10.4853855899999999 14.3304706500000005
  1.6324188799999999 12.3455863099999998 16.0171020900000016
  0.0000724500000000 14.1939056299999997 17.7211481900000010
 19.2341915199999995 15.7814621600000002 19.2969570899999994
 17.4464397399999989 17.5526528100000014  0.3564711700000000
  8.9897393700000006  8.7866622400000001 12.3611708300000007
  7.0802879000000001 10.1973029400000001 13.9323414999999997
  5.7774044900000003 12.2112536600000006 15.8627360700000004
  3.7066907499999999 14.3066277100000008 17.5934722400000005
  1.5443295800000001 15.4517032000000007 19.3288365499999983
  0.1360939000000000 17.5647064899999990  0.2597769500000000
 19.4087157400000017 19.0066281799999999  1.9408278600000000
 17.7800350300000005 20.7183775300000015  3.5968429999999998
 16.0821782099999986  1.6860392099999999  5.2748042699999997
 14.1370752900000003  3.1179726500000000  6.8905349300000003
 12.3759397599999996  5.1687060200000001  8.5627736700000003
 10.8055952400000006  7.1118219700000003 10.5155382799999995
 10.7312037999999994  7.0231550800000004 13.9447506899999993
  9.1270248800000005  8.8216845500000005 15.6436413600000002
  6.9593436100000003 10.2085284099999996 17.5048622499999986
  5.1294140800000001 12.4309960000000004 19.1719757299999998
  3.4812585299999999 14.0194965800000002  0.1743056200000000
  1.8264689500000000 15.6437004900000005  1.8410201399999999
 -0.0500045200000000 17.6088162600000011  3.5326949999999999
 19.6347741800000009 19.3822339499999998  5.2672843699999996
 17.8524127300000011 21.2337748700000013  6.9681599199999997
 15.7617712399999998  1.5247083100000001  8.7030039099999996
 14.1591698000000008  3.5239918499999998 10.3356391300000006
 12.5588913400000006  5.0136309299999997 12.5620715399999998
 11.9226180700000004  5.0674387400000001 15.5366878499999999
 10.5337813400000009  6.6670096299999999 17.4670880299999993
  8.6272324999999999  8.4626041300000008 19.5229846599999988
  6.9498071299999999 10.1853678700000003  0.0068683400000000
  5.1207322000000000 12.3409782499999992  1.2737124799999999
  3.4828150500000001 13.6621126000000004  3.4790104799999999
  1.5914912600000000 15.7793699699999994  4.9724364200000002
  0.0786636600000000 17.3066961100000007  7.1994260299999997
 19.5013176399999999 19.5121067199999985  8.6009152499999999
 17.5717958299999992 -0.1289888000000000 10.1891024899999998
 15.9826874199999995  1.5843438299999999 12.2463420900000006
 14.3855138300000007  3.3115851500000000 14.0264041099999996
 13.9482641800000007  3.4385054700000000 17.4133043299999990
 12.4514058500000004  4.7200916099999999 19.3915715900000016
 10.4443516800000005  6.6898351700000003 -0.0028468700000000
  8.6338383299999997  8.5992237899999999  1.5236736900000001
  6.8160403900000004 10.3404146400000005  2.9824929099999999
  5.1930581099999999 12.0907723800000007  5.4022193400000003
  3.4362364799999998 13.6474287000000007  7.0291847100000000
  1.6211709500000000 15.5726872600000004  8.8987061199999999
  0.1014332800000000 17.3172679900000013 10.0919193499999995
 19.4245868199999983 18.9756744700000013 12.1228783999999994
 17.6801663600000012 21.1786130399999983 13.6260126199999991
 16.0147047499999999  1.4911142200000000 15.8589806600000003
 15.9006298600000004  1.8769812400000001 19.3098211500000012
 14.2206928599999998  3.6878770599999999  0.2076231000000000
 12.1244119599999998  5.2118083999999998  2.0144581000000001
 10.4014162399999996  6.9865682900000001  3.2023618900000002
  8.3566385600000004  8.4768143800000004  5.1025139800000003
  7.0319504100000003 10.4495768400000006  6.7155925500000002
  4.9960071099999999 12.1041765399999992  9.0260456100000006
  3.4278075399999999 13.9886198099999994 10.5480436100000006
  1.8958977100000001 15.7259306500000005 12.2200858799999992
  0.0686299400000000 17.2136512500000016 14.0587803400000002
 19.3824306700000015 19.2363956899999984 15.4203807800000003
 17.8070070499999993 20.6493198599999985 17.5850152500000014
 17.3874458599999997  0.0463363200000000  0.1539283200000000
 15.7499502499999995  2.0210152300000002  2.0514696899999998
 14.1826000400000005  3.6447055300000000  3.3479515800000001
 11.8939645200000008  5.3088558099999998  4.9313253399999999
 10.7785752899999991  7.1005994599999998  7.0789566800000001
  9.0523726000000000  9.0477247399999996  8.5793618499999997
  7.2035351900000002 10.4889747300000007 10.4856550599999991
  5.4369009300000002 12.0353081000000000 12.5086337299999997
  3.6042945600000000 13.8641696799999998 14.3865218000000006
  1.8596426500000001 15.9316856900000001 15.7901717999999995
 -0.0445274600000000 17.6229068200000007 17.5080600400000002
 19.2257087099999993 19.2878205700000009 19.6957031600000008
