Li                                      
   1.00000000000000     
    21.0527999999999977    0.0000000000000000    0.0000000000000000
     0.0000000000000000   21.0527999999999977    0.0000000000000000
     0.0000000000000000    0.0000000000000000   21.0527999999999977
   Li
   432
Direct
  0.9804553175824609  0.9878835504065933  0.9915731650896760
  0.9237885255167981  0.0967614056087527  0.0663581732596157
  0.8417020695584441  0.1764423634860890  0.1534683410282724
  0.7322028281273774  0.2611718232254177  0.2582508540431689
  0.6628696928674600  0.3695992704058355  0.3412572104423148
  0.5867160178218569  0.4248688383492905  0.4388824621902998
  0.4879742789557682  0.5013323899908784  0.5103733612631132
  0.4199924884100952  0.5835497905266749  0.6099872748518038
  0.3355532993236068  0.6665415156178724  0.6854005001709993
  0.2406245715534254  0.7538106674646627  0.7628115590325280
  0.1814670067639454  0.8405223176964611  0.8454629935210534
  0.0867825538645661  0.9390860061369537  0.9221076132390920
  0.0661477793927645  0.9210249553503544  0.1061951279639786
  0.9922858085385329  0.0188637254901991  0.1608996736776120
  0.9099440178978568  0.0870034432474540  0.2374948244414057
  0.8197446059431499  0.1544211368559019  0.3060572522419847
  0.7422095170238663  0.2467539529183753  0.4113761784655736
  0.6511899676052622  0.3437092068513437  0.4938325714394267
  0.5771161774205780  0.4375699769151851  0.5917053280323756
  0.4893584421074664  0.4944128567221497  0.6688008549931581
  0.4018274652302765  0.5595519954590387  0.7688868297803637
  0.3520217120763007  0.6660981408648752  0.8517009048677622
  0.2540455545105615  0.7529571391928869  0.9135341517517830
  0.1560669834891328  0.8540926437338499  0.0171210969562239
  0.1582362217852236  0.8228900165298683  0.1557438506991957
  0.0805696078431382  0.9472192648958782  0.2273871214280305
  0.9871223077215348  0.0097953507371926  0.3232591854765161
  0.9437172794117643  0.0999605501406009  0.4164804548563623
  0.8384593389002859  0.1654039529183748  0.4836748052515603
  0.7534712356551125  0.2402155110009119  0.5836906534997723
  0.6823932978036140  0.3448404753761949  0.6755359092377233
  0.5774499273255813  0.4235743126805005  0.7392768767099867
  0.5044543481152175  0.5072270016339857  0.8561797703868379
  0.4167016377869004  0.5545980520405820  0.9286470041989645
  0.3451594785491707  0.6371405309507523  0.0039032722488201
  0.2592578630870932  0.7355425145348846  0.0917771607577151
  0.2315405955502357  0.7274183913778671  0.2272090947522400
  0.1485990105829131  0.8195258967928254  0.3413124140256869
  0.0586229461164294  0.9116128799969587  0.3826824265655873
  0.0031558505281950  0.9939365775573776  0.5147050007599958
  0.9053854237916070  0.0914378586221289  0.5768930987802108
  0.8306048169364644  0.1668407565739471  0.6569683728530151
  0.7312662258701934  0.2376535933462520  0.7316299185856536
  0.6739351387938868  0.3390601468688246  0.8473353325923370
  0.5887901561787530  0.4240703963368304  0.9342262492400053
  0.4915658814979480  0.4976997701018391  0.9900426418338668
  0.4229614089337304  0.5984470298487636  0.0619420879882995
  0.3640757799437608  0.6687008431182520  0.1742971010981904
  0.2998145063839459  0.6725689737232088  0.3090257818437436
  0.2112721053731548  0.7546104579913333  0.4175605121409021
  0.1728959136076895  0.8241113220094221  0.5070224378704964
  0.0944464817031445  0.9110910719714269  0.5890370140788903
  0.0032489901580774  0.9897977185932518  0.6409513570641465
  0.9504728259423914  0.0941094633492909  0.7288532052743548
  0.8365633469182256  0.1710855919402618  0.8133336905304773
  0.7407357144892828  0.2377745136038882  0.8818835708314339
  0.6839433320033450  0.3407229518163888  0.9986832264591854
  0.5795745041039666  0.4446733256383979  0.0781258122434991
  0.4748069919440638  0.4981966650516796  0.1818567344961224
  0.4047621689276468  0.6011497734268119  0.2565689376234985
  0.3748085114569051  0.5630842743008060  0.4075029416514653
  0.3430494708542327  0.6379209074327434  0.4805780974502198
  0.2673892147362835  0.7256665863923075  0.5830336786555677
  0.1845791096671192  0.7980084183576537  0.6619910130718978
  0.1033827486130079  0.9310556325049433  0.7496708019835836
  0.9823514691632482  0.9915138646640855  0.8180037600699208
  0.9258970393486834  0.0527538978188176  0.8969337095303231
  0.8423062215002304  0.1830007880186955  0.9885582768087886
  0.7689099734952123  0.2469903585271283  0.0494457563839461
  0.6822327676128594  0.3477083960328287  0.1644959544573652
  0.6055928646070825  0.4542745929282574  0.2560297751367955
  0.5021134091427299  0.4801945484686101  0.3264168086905315
  0.0470485113619077  0.0974486804605590  0.9175280105259134
  0.9700237502849944  0.2081182982786132  0.9973142836107343
  0.9225489787581722  0.2812837541799666  0.1035653414272701
  0.8204678750569983  0.3317126762235887  0.1604898042065699
  0.7640697745668064  0.4302074688402513  0.2789560647514833
  0.6783370815283476  0.5085131882694967  0.3919271460328346
  0.5677879830711348  0.5567923649110824  0.4366066998214038
  0.4822939984230104  0.6762008602181169  0.4782084250076011
  0.4000982463140303  0.7363801518087882  0.5865138888888879
  0.3593747349521195  0.8261069088197317  0.6479123874258974
  0.2494705744604033  0.9189767446610446  0.7451739298335625
  0.1763752892726842  0.0317299665602704  0.8688949203906375
  0.1616688103245139  0.0048842690758448  0.0012920134138952
  0.0715505761703881  0.0897281857995154  0.0612777060533531
  0.9972574089907269  0.1690975024699810  0.1545584729822167
  0.9291213857539162  0.2548670138888909  0.2577488182094569
  0.8454282389990908  0.3227617205312328  0.3609862892346882
  0.7648207188592480  0.4127118464052302  0.4488821577177404
  0.6886538826189366  0.4962209706072329  0.5292354356665143
  0.5593764881630960  0.5893256616697045  0.5875431705046381
  0.5005553413322659  0.6589669355145134  0.6875443522951841
  0.4100274296055630  0.7212277307531565  0.7627930859553089
  0.3482204571363425  0.8390912686198533  0.8229647386570917
  0.2452896655076771  0.8995836781805764  0.9313710318817456
  0.2256317387710922  0.9214158297233652  0.1198522605069172
  0.1534609467624293  0.0079981042901665  0.1826123005015958
  0.0650920157888706  0.1045790654924730  0.2509472036973719
  0.0157067663208679  0.1701537966446267  0.3005637962646333
  0.9338833466332304  0.2192861182360559  0.4363241431068516
  0.8524596566727496  0.3189606128400939  0.5015129512463901
  0.7850198719410244  0.4391796008131905  0.6013804919060632
  0.6369191627716972  0.5358917084663304  0.6591139648882773
  0.5864853183424543  0.5684290512425889  0.7592594462494304
  0.4829627588729295  0.6505941109971118  0.8526492974806175
  0.4249048406862741  0.7410698339413315  0.9206497216522251
  0.3317122330521372  0.8569066679966539  0.0055090030779752
  0.3444749700752396  0.8254043590401281  0.1681124121257014
  0.2442879241716085  0.9178044397894851  0.2543512378400976
  0.1624600993692056  0.0026550506345941  0.2969016586867284
  0.0894358356133154  0.1110565307227560  0.4017093336753277
  0.0281421834625348  0.1576089684032524  0.5053158396982838
  0.9481743364303057  0.2509836986054097  0.5880920404886751
  0.8338854608413158  0.3342973153214785  0.6769434398274825
  0.7427110707364335  0.4552685405266743  0.7255842329761393
  0.6665640822123393  0.5054763470892212  0.8256190658724734
  0.6019295599635228  0.5672732976136174  0.9357304667312647
  0.5101566931714530  0.6489843379502958  0.0025364564333472
  0.4120901728036159  0.7485816214470304  0.0856004450714423
  0.4041120273787797  0.7414919834891336  0.2659916595417258
  0.3070329181866569  0.8185404136266925  0.3250064285985701
  0.2138837717548228  0.9268502655228730  0.4020335964812247
  0.1618160159218718  0.9794292839907257  0.5046390750873968
  0.1109421544877662  0.0675340795523667  0.6160788237194126
  0.0401516544117655  0.1729871817525463  0.6524993787049738
  0.9441579286365709  0.2191057355791131  0.7246455155608729
  0.8123775573795413  0.3185150336297298  0.7797392190112475
  0.7451010169668635  0.4307863528841764  0.9114202329381342
  0.7018494708542349  0.5158857339641258  0.9789432070793467
  0.5819724901200800  0.5705086392308871  0.0608366659066704
  0.5149207967586236  0.6675216821515448  0.1557844927990573
  0.5167416856665170  0.6235986196610455  0.3459686075011419
  0.4174206081851324  0.7497704329115393  0.4032492917806678
  0.3138386262159898  0.8442411631706932  0.4765465980772134
  0.2399571534427736  0.9302969780741748  0.5945139720132246
  0.1875657176242598  0.9890668580901334  0.6522323405912758
  0.1005454713862264  0.0814077699878410  0.7640415004179957
  0.0159417968156248  0.1677343393752864  0.8223060671264619
  0.9223213962038272  0.2620512530399779  0.8788141928864590
  0.8465958689580475  0.3338407109743144  0.9641931610047152
  0.7742030969752278  0.4233673221614254  0.0600702101383206
  0.7075996333029337  0.4962259096177206  0.1735274452804347
  0.5928110507865938  0.5805630799703607  0.2650421924874635
  0.1679954447864418  0.1676950823643395  0.8327732767137874
  0.0639089418034686  0.2856243497301989  0.8794426964584261
  0.0346977071933452  0.3523321909674735  0.9836812537999720
  0.8800944900440797  0.4273203630870981  0.0672732187642495
  0.8493541324669422  0.4897273574061387  0.1922775459796355
  0.7442821529677772  0.5900722507219953  0.2807376524737819
  0.6771512250152014  0.6664318389952868  0.3359749653252777
  0.5831787956946357  0.7294115120079070  0.4181655955502350
  0.4520545376387020  0.8313026291039662  0.5048677368331056
  0.4078840002279946  0.9236570859933124  0.5709139059887534
  0.3267753552971584  0.9963296825125383  0.6775120554035539
  0.2587483170884610  0.0756452742628042  0.7228206495098064
  0.2669804121067045  0.0899427121333005  0.9302678228074157
  0.1487006730696123  0.1892987797347629  0.9852841422518637
  0.0683524030057754  0.2324720592985230  0.0986442644208836
  0.9958095640484856  0.3487138147894839  0.1629936754255965
  0.9067324987650096  0.4025755205958319  0.2683772795067654
  0.8423062490500044  0.4899805907052723  0.3421355639154910
  0.7730895757333940  0.5942370786783684  0.4358066941214460
  0.6548079918110687  0.6431208794079666  0.5048611253609963
  0.5632298767859822  0.7247887178902559  0.5844982857387109
  0.4765301888584901  0.8077385981912144  0.7005415631174969
  0.4237451065891449  0.9280810381516957  0.7485070413436716
  0.3153577267631889  0.9905944577443364  0.8495722815967497
  0.3559997520519858  0.9877962323301404  0.0029729632162940
  0.2549952509879887  0.0902636390408844  0.0844895885582915
  0.1612477641928862  0.1563540692924477  0.1310534812471502
  0.0843525906292726  0.2585050672594633  0.2206357539139674
  0.0135948714660259  0.3322268610351102  0.3546012069653415
  0.9180380025459769  0.4036595483736107  0.4307711544307651
  0.8517200339147308  0.4827888024395790  0.5094327794877671
  0.7579187177002567  0.5971943038455692  0.6028822261171882
  0.6333345787733720  0.6497027084283360  0.6720792379160940
  0.5876445133188923  0.7530564518733840  0.7767163987688122
  0.4917001705236359  0.8391104328165397  0.8540106451398373
  0.4338859738372065  0.9189075719144242  0.9191648854309165
  0.4342833946078457  0.9125972179472583  0.0995701369889019
  0.3688419141396864  0.0389909337475274  0.1713044478644150
  0.2645739754331942  0.0866908111985083  0.2336918291153651
  0.1875860940112446  0.1793484201626399  0.3196671601877199
  0.0905306120801015  0.2329342344011280  0.3842567800957610
  0.0342817382960945  0.3111734861871085  0.4921817658458707
  0.9311029867761036  0.3884102532679705  0.5718394441594441
  0.8455561003762000  0.5006893334853331  0.6442311569007444
  0.7710693090705263  0.5917434436274505  0.7272205929852547
  0.6824127797727613  0.6360842752507949  0.8025922632618929
  0.5807646688326500  0.7356840928522601  0.9025304900060789
  0.5208652877526987  0.8242934403024762  0.9864857928636539
  0.5138541234420160  0.8381247473020181  0.1711524476554160
  0.4064008397932781  0.8940228748669981  0.2814614141586844
  0.3097573999657968  0.0218235284617734  0.3260449232406160
  0.2615274281805711  0.0854206737346104  0.4036139715382276
  0.1800526761285894  0.1660888014895860  0.4916062215002270
  0.1103303370573059  0.2317482192392433  0.5949594091997241
  0.0251466033021757  0.3164778708770299  0.6648168647400823
  0.9095620767783856  0.4158536641206894  0.7310511703906357
  0.8388196420428642  0.5138614749581976  0.8237598727960176
  0.7555017004863984  0.5825176185590522  0.8960416443418424
  0.6814306833295305  0.6771924432854561  0.9939665175178618
  0.5872364398084784  0.7612791305669546  0.0783520325087395
  0.6067954704362393  0.7339126211240341  0.2387105548905595
  0.5006591992514089  0.8096464717282288  0.3349453388622905
  0.3903348689960495  0.9162856318399477  0.3880200685894479
  0.3330497373271015  0.9967037011703894  0.4999638575391430
  0.2467341156520746  0.0893778670770615  0.5441485408116762
  0.1836440520975842  0.1449987393600836  0.6748408990728052
  0.1107822223172192  0.2771009566423501  0.7496157874487039
  0.9998209634822928  0.3429957316841481  0.8208726449688371
  0.9034305650554799  0.4213415431676566  0.8865974540203680
  0.8238596894474810  0.5221713078545349  0.9575350670694647
  0.7632509362175099  0.5840799152606806  0.0706017437110518
  0.6795904910510728  0.6479918167654688  0.1618456086601299
  0.2443667982406126  0.2409670556885573  0.7760186027511793
  0.1668330046359614  0.3501007115443073  0.8483123869509015
  0.0940810286517717  0.4591809635772890  0.9260643054605566
  0.9821152654278791  0.5119483660130726  0.9904974573453416
  0.9169626320489428  0.5641790574175403  0.0805343208504326
  0.8096549214356301  0.6376350257447925  0.1632856308899520
  0.7550039652682798  0.7620007685438495  0.2437707122093045
  0.6646003225224177  0.8249755201208373  0.3596494238296088
  0.5582868231304161  0.9184526756535973  0.4305860089869284
  0.4575700609895108  0.0050481688896511  0.4888884789671692
  0.3988459734572132  0.0804077842377282  0.5889188269493815
  0.3185219695242409  0.1663191903214809  0.6641692164462683
  0.3296662439200517  0.1560870383036956  0.8321179771811842
  0.2508668414652675  0.2538901756535950  0.9001941081471330
  0.1406967690758449  0.3454731669896631  0.0251482220892214
  0.0576296777625771  0.4478511456908336  0.1149868473552189
  0.9552938312243526  0.4931871147780811  0.2016403841769261
  0.8952903561521524  0.5918800468346248  0.2743194472944239
  0.8408680251557996  0.6657088007295968  0.3468878571971459
  0.7333265879122948  0.7244787443950429  0.4387801437338510
  0.6379732078393374  0.8701450571895393  0.5006247549019633
  0.5426435101269220  0.9069725395196855  0.5922623366013084
  0.4623447612669125  0.0003808039785653  0.6582186160510730
  0.3993845065739450  0.0835685927762597  0.7848256911194724
  0.4021199522153793  0.0835977508929915  0.9320295642384835
  0.3543748698510427  0.1674350775193787  0.0378704633112932
  0.2538992922556602  0.2549859363125080  0.0937114198586428
  0.1684657959986353  0.3396174542103694  0.1477689879730946
  0.0464599525953773  0.4083634186426508  0.2226772443570439
  0.9915761509157903  0.4936742385810931  0.3328455735104114
  0.9302520092339250  0.5541366526067790  0.4302534988220117
  0.8304652027283765  0.6749209321325438  0.5149575918642668
  0.7147351858185118  0.7254993597051254  0.5699981864645096
  0.6555044103397165  0.8484338292293643  0.6629717063763465
  0.5639314931980550  0.9146682018543828  0.7582695669934623
  0.5125046088881291  0.0078375783743709  0.8302968992248054
  0.4952942582459343  0.0099483954628354  0.0290637188402485
  0.4346001363239083  0.0904502503229949  0.1176815777473763
  0.3554607653138788  0.1625629118217020  0.1553228093175250
  0.2528973043965621  0.2453835736814085  0.2185129669212671
  0.1597640627375014  0.3163665493426038  0.2916365647324852
  0.0930385815663470  0.4129036223210250  0.4224653205274365
  0.0349587513299880  0.4745572337171282  0.5004370810533487
  0.9503935277017774  0.5825815159978731  0.5977174318855418
  0.8565648654810758  0.6829484135126904  0.6571023118065042
  0.7340994138546861  0.7629047442620447  0.7296249306505516
  0.6615210323567382  0.8460712166552682  0.8350561274509829
  0.6036159061977528  0.9094049299855627  0.9166262226402182
  0.5987419716142242  0.9134911926204623  0.0566730914652709
  0.5424791723666189  0.0109958551831610  0.1870000783743748
  0.4652763190644507  0.1078250826493417  0.2545602466180270
  0.3430648802059579  0.1832784859971142  0.3337259632922951
  0.2561104983660130  0.2621360607615131  0.3952041144170835
  0.1482709468574228  0.3262488386342923  0.4924384946420446
  0.1025618321553452  0.4128620102789142  0.5959680033059769
  0.9933369252545958  0.4849983075885405  0.6827070826683368
  0.9272944539443699  0.5994558923278603  0.7459324769151863
  0.8491207373840979  0.6933083832079348  0.8220408928978600
  0.7572429083067362  0.7466965486776118  0.9040605715154300
  0.6758554596063249  0.8218487973096202  0.0046369171796599
  0.6674908539481663  0.8455786484458159  0.1673871095531254
  0.5856755020709841  0.9076959031577729  0.2647346490728069
  0.4853519650592801  0.0066564266985836  0.3258749672252605
  0.4205060680764561  0.0824310153518795  0.4018707169592659
  0.3495117267061829  0.1780446448928430  0.5034770154088761
  0.2576722388470927  0.2436117305061529  0.5776047162372677
  0.1901645733584161  0.3275148189314478  0.6771523013565925
  0.1088626933234522  0.4264876253989982  0.7572197645918806
  0.0282897510069944  0.5036834687072513  0.8174213653290749
  0.9167830834853348  0.5848638922138605  0.9120764159636749
  0.8176726791685667  0.6588311972754184  0.9869968289253706
  0.7548635649414805  0.7552627013983866  0.0715281150250817
  0.3264893904848734  0.3336474839451284  0.6731573842909242
  0.2413557085043294  0.4323270866583044  0.7715676627337018
  0.1845905152758789  0.5227376914234654  0.8593962337551275
  0.0752720298487617  0.5884595417236653  0.9385227152682774
  0.9836092719258218  0.6690819710442284  0.9915022533819737
  0.8837299584853326  0.7625123271013834  0.0799859486624115
  0.8263208936578508  0.8365365010829890  0.1835710223818197
  0.7405891957364332  0.9266171787125685  0.2513152744528071
  0.6624200472146242  0.9780250907242731  0.3399164339185319
  0.5894715154278742  0.0509473062965498  0.4066078203374346
  0.4861012278651771  0.1536803631820973  0.4814874995250022
  0.4166801380338967  0.2624944126197022  0.6100610422366657
  0.3777975366697035  0.2548650645044859  0.7411793267403866
  0.3387534456224373  0.3453619304795552  0.8615883440682452
  0.2521609714622315  0.4167347046473608  0.9721681500798027
  0.1700969153746783  0.5187187329001404  0.0132600618445053
  0.0438907385240910  0.5839284180726523  0.1062811345759229
  0.9761103045675625  0.6693457777587781  0.1795682180042562
  0.8924874425254572  0.7527351696686395  0.2618187129502942
  0.8052981465648301  0.8464339280285742  0.3451113752090009
  0.7538187552249553  0.9379807997036025  0.4186770909332722
  0.6389272044573673  0.9957403537771725  0.5265281786745675
  0.5456354237916088  0.0732720478986195  0.5775251111491144
  0.4766819031197755  0.1816027260031916  0.6787597663968654
  0.4709319430194583  0.1536073681410528  0.8497118141054898
  0.4216911683956539  0.2450733199384416  0.8870599421454628
  0.3539007585689333  0.3177653675520631  0.0223102347431237
  0.2640181268049844  0.4041907081243323  0.1266330906102766
  0.1490429078317348  0.4957971875475025  0.1950301717586242
  0.0517107002393971  0.5721753149224824  0.2428922941366451
  0.9699497967016271  0.6418062960746340  0.3343654625512968
  0.9327210893562849  0.7470157199992400  0.4169597131972935
  0.8116734676622599  0.8323337603549206  0.4739926774585825
  0.7591564276485769  0.9128708157584740  0.5903239379084937
  0.6290965976022207  0.0165515404126779  0.6567881645196820
  0.5596276362289103  0.0913243464052300  0.7427637492400052
  0.5860857995136044  0.0874747093023274  0.9228666994414070
  0.4901589479784150  0.1979430028309750  0.0171354233166170
  0.4259071686426523  0.2667829590363269  0.0986564295485621
  0.3495434802021578  0.3208330682854523  0.1679262582649343
  0.2557681629046940  0.4120484496124064  0.2482770871333031
  0.1606429035567700  0.5077993084055308  0.3203973143714833
  0.0909618635050933  0.5919620900782760  0.4150006697446429
  0.0182375973742239  0.6689569591693285  0.5144674428104565
  0.8974503415222657  0.7900461202310396  0.5676702115633105
  0.8149086582307348  0.8320733213634313  0.6594409489474060
  0.7304920955882324  0.9226029863011078  0.7072641753116002
  0.6577751923734638  0.0062112602599171  0.8364441846215200
  0.6963188658990731  0.0063829352865170  0.9805952020633839
  0.6135601473438186  0.0878351497187992  0.0671009922670649
  0.5489149585803332  0.1715831946344437  0.1713701783135733
  0.4368585086069317  0.2246387254901947  0.2430887900896792
  0.3477110308367557  0.3215052952576372  0.3012272201322403
  0.2574008967928236  0.3817421145880857  0.3805312424000604
  0.1817845740234105  0.4879193845949246  0.4754015864873082
  0.0846301271089800  0.5234848205464360  0.6042939585233285
  0.0094378557721555  0.6791939927230572  0.6786348822959383
  0.9185507595189222  0.7691242822807425  0.7437838567791459
  0.8228727651428756  0.8275010378666963  0.8110128448472409
  0.7619145272837784  0.9032252930726585  0.9091972754217963
  0.7666457383340912  0.9120418623651005  0.0837850665944657
  0.6642280618255043  0.9930573719410276  0.1527526272039808
  0.6093108417882647  0.0761568375703021  0.2752298687110510
  0.5161316309469512  0.1910736562357513  0.3414472811217522
  0.4254895752583963  0.2785993540051663  0.4353854218916240
  0.3229045043889656  0.3358813554491533  0.5035053228074204
  0.2469027977276212  0.4017572987916083  0.5793609600623171
  0.1914840206528368  0.4941015380376967  0.6626823766909880
  0.0950740067829443  0.5848001101991187  0.7533993668300667
  0.0049462484800102  0.6655487151352801  0.8305928513071876
  0.9262452490880051  0.7479870392536867  0.8984829029867782
  0.8216350984192147  0.8086870373536996  0.9824110902112793
  0.4226524904050777  0.4037577671378614  0.5895287990196110
  0.3053290507675968  0.4967817468460254  0.6552175088349301
  0.2398495064789472  0.5882417630908918  0.7576751239740105
  0.1743759214926257  0.6618754127716997  0.8553044839641260
  0.0606893420352606  0.7830964432284517  0.9066436987004138
  0.9754585993312048  0.8685445978682154  0.0356229665412684
  0.8929914215686239  0.9028476235940133  0.0949943128704973
  0.8478431914044720  0.0136279616013084  0.1443575619395077
  0.7499919815891474  0.0333693793699652  0.2429926218840279
  0.6670646512577889  0.1556143011855937  0.3375939067487437
  0.5615176955084351  0.2782354874411013  0.4291656900744769
  0.4972928665070668  0.3278390978872139  0.5261709368825080
  0.5141646845075272  0.3158528751519967  0.6469478164424700
  0.4193565231228149  0.4222892646108818  0.7423969885240922
  0.3157108009385894  0.5162156012501882  0.8541169711392342
  0.2370611681106567  0.5959752379730929  0.9463371005281971
  0.1404863300843573  0.6808307294041640  0.0193313046245649
  0.0536717158762698  0.7626730012159868  0.1019176138090927
  0.9684326939884471  0.8537686659256707  0.1880934056277539
  0.8818070912182705  0.9198838292293630  0.2587836872055007
  0.8534924399604833  0.0029278091275273  0.3383462988296060
  0.7543299727352206  0.0713274685552534  0.4154900402796784
  0.6603435614265081  0.1673779502013986  0.5003279012767905
  0.5730905323757440  0.2271931629046975  0.5958615162828664
  0.5807009737422106  0.2453574897400799  0.7489237583599362
  0.5062267199612407  0.3365280053009556  0.8337767764857915
  0.4005803418072631  0.4455565649224837  0.9380234196876458
  0.3347130604955169  0.4987827410130734  0.0373283539481690
  0.2544721804225532  0.5795370292787680  0.1049842643258856
  0.1684319458694361  0.6293695551185579  0.1556963577291413
  0.0624708319083425  0.7446850195698431  0.2402814703982372
  0.9611528509271920  0.8184465220778208  0.3093449013907872
  0.9431317192962467  0.8808433524281796  0.4288006322199394
  0.8464009305175537  0.0047621010031946  0.5008669711392315
  0.7457787747948004  0.0763311792255692  0.5643498883758937
  0.6720207307341539  0.1630393273103792  0.6607283111985112
  0.6545515556125565  0.1467033097735211  0.8197565544725620
  0.5888909508473930  0.2379316266719869  0.9141783344733270
  0.5171773388812895  0.3392165227428166  0.9826078787619679
  0.4187375517745835  0.4157642517859870  0.0954750565245490
  0.3402502189732459  0.5287909147476810  0.1748720274737821
  0.2479205103359163  0.5766711734306114  0.2494480990652050
  0.1367122762767892  0.6627534570223474  0.3055583281083756
  0.0795419749392039  0.7694228178674578  0.4329058381782929
  0.0092662804947565  0.8327837594049257  0.4891623503761977
  0.9028141596367263  0.9118942829457382  0.6006421853625170
  0.8194352337931292  0.0213412994946012  0.6679677724578212
  0.7396372382770906  0.0894765394626873  0.7369956115101104
  0.7579164077937364  0.1159991611567079  0.9195369528043784
  0.6732794853891164  0.1562374449004409  0.9756607805137563
  0.5883426014591890  0.2657084615823067  0.0801510934412519
  0.5461941575467364  0.3455151680536588  0.1691314167236655
  0.4282827723628202  0.3957709948320414  0.2409793794649673
  0.3363752351231213  0.4702564224236241  0.3147324203906336
  0.2480454889610897  0.5611509751672017  0.4077258008435933
  0.1484587727048208  0.6543525892042865  0.4950083575581417
  0.0963442544459667  0.7232165227428169  0.5823118345303229
  0.0158942572959404  0.8126678166324695  0.6682794212646286
  0.8994501491488052  0.9031547789367664  0.7338673587361271
  0.8324705217358286  0.0063043205654338  0.8030436089261315
  0.8500913745440002  0.9738244642042844  0.0025115761323917
  0.7735415963672310  0.0715358850129206  0.0731573895158846
  0.6921595972982217  0.1578989559583519  0.1857999221006210
  0.6148010540165672  0.2724876187490466  0.2593049242856083
  0.5117834478074172  0.3428227789177711  0.3391430042559662
  0.4160073291913662  0.4024843507751967  0.3882970331737354
  0.3381916082421341  0.4883667412410730  0.4991500299247633
  0.2504420181638523  0.5830012231152182  0.5722764083637344
  0.1573918880148995  0.6656892042863660  0.6838456224350224
  0.0920948462912321  0.7612250090249262  0.7662537173202608
  0.0042931282299747  0.8666181287049710  0.8141410771963820
  0.9112566964964302  0.9164747439770480  0.8916772757067974
 
  0.00000000E+00  0.00000000E+00  0.00000000E+00
  0.00000000E+00  0.00000000E+00  0.00000000E+00
  0.00000000E+00  0.00000000E+00  0.00000000E+00
  0.00000000E+00  0.00000000E+00  0.00000000E+00
  0.00000000E+00  0.00000000E+00  0.00000000E+00
  0.00000000E+00  0.00000000E+00  0.00000000E+00
  0.00000000E+00  0.00000000E+00  0.00000000E+00
  0.00000000E+00  0.00000000E+00  0.00000000E+00
  0.00000000E+00  0.00000000E+00  0.00000000E+00
  0.00000000E+00  0.00000000E+00  0.00000000E+00
  0.00000000E+00  0.00000000E+00  0.00000000E+00
  0.00000000E+00  0.00000000E+00  0.00000000E+00
  0.00000000E+00  0.00000000E+00  0.00000000E+00
  0.00000000E+00  0.00000000E+00  0.00000000E+00
  0.00000000E+00  0.00000000E+00  0.00000000E+00
  0.00000000E+00  0.00000000E+00  0.00000000E+00
  0.00000000E+00  0.00000000E+00  0.00000000E+00
  0.00000000E+00  0.00000000E+00  0.00000000E+00
  0.00000000E+00  0.00000000E+00  0.00000000E+00
  0.00000000E+00  0.00000000E+00  0.00000000E+00
  0.00000000E+00  0.00000000E+00  0.00000000E+00
  0.00000000E+00  0.00000000E+00  0.00000000E+00
  0.00000000E+00  0.00000000E+00  0.00000000E+00
  0.00000000E+00  0.00000000E+00  0.00000000E+00
  0.00000000E+00  0.00000000E+00  0.00000000E+00
  0.00000000E+00  0.00000000E+00  0.00000000E+00
  0.00000000E+00  0.00000000E+00  0.00000000E+00
  0.00000000E+00  0.00000000E+00  0.00000000E+00
  0.00000000E+00  0.00000000E+00  0.00000000E+00
  0.00000000E+00  0.00000000E+00  0.00000000E+00
  0.00000000E+00  0.00000000E+00  0.00000000E+00
  0.00000000E+00  0.00000000E+00  0.00000000E+00
  0.00000000E+00  0.00000000E+00  0.00000000E+00
  0.00000000E+00  0.00000000E+00  0.00000000E+00
  0.00000000E+00  0.00000000E+00  0.00000000E+00
  0.00000000E+00  0.00000000E+00  0.00000000E+00
  0.00000000E+00  0.00000000E+00  0.00000000E+00
  0.00000000E+00  0.00000000E+00  0.00000000E+00
  0.00000000E+00  0.00000000E+00  0.00000000E+00
  0.00000000E+00  0.00000000E+00  0.00000000E+00
  0.00000000E+00  0.00000000E+00  0.00000000E+00
  0.00000000E+00  0.00000000E+00  0.00000000E+00
  0.00000000E+00  0.00000000E+00  0.00000000E+00
  0.00000000E+00  0.00000000E+00  0.00000000E+00
  0.00000000E+00  0.00000000E+00  0.00000000E+00
  0.00000000E+00  0.00000000E+00  0.00000000E+00
  0.00000000E+00  0.00000000E+00  0.00000000E+00
  0.00000000E+00  0.00000000E+00  0.00000000E+00
  0.00000000E+00  0.00000000E+00  0.00000000E+00
  0.00000000E+00  0.00000000E+00  0.00000000E+00
  0.00000000E+00  0.00000000E+00  0.00000000E+00
  0.00000000E+00  0.00000000E+00  0.00000000E+00
  0.00000000E+00  0.00000000E+00  0.00000000E+00
  0.00000000E+00  0.00000000E+00  0.00000000E+00
  0.00000000E+00  0.00000000E+00  0.00000000E+00
  0.00000000E+00  0.00000000E+00  0.00000000E+00
  0.00000000E+00  0.00000000E+00  0.00000000E+00
  0.00000000E+00  0.00000000E+00  0.00000000E+00
  0.00000000E+00  0.00000000E+00  0.00000000E+00
  0.00000000E+00  0.00000000E+00  0.00000000E+00
  0.00000000E+00  0.00000000E+00  0.00000000E+00
  0.00000000E+00  0.00000000E+00  0.00000000E+00
  0.00000000E+00  0.00000000E+00  0.00000000E+00
  0.00000000E+00  0.00000000E+00  0.00000000E+00
  0.00000000E+00  0.00000000E+00  0.00000000E+00
  0.00000000E+00  0.00000000E+00  0.00000000E+00
  0.00000000E+00  0.00000000E+00  0.00000000E+00
  0.00000000E+00  0.00000000E+00  0.00000000E+00