Li 
 1.0000000000000000
    21.0527999999999977    0.0000000000000000    0.0000000000000000
     0.0000000000000000   21.0527999999999977    0.0000000000000000
     0.0000000000000000    0.0000000000000000   21.0527999999999977
 Li 
 432
Cartesian
 -0.4114702900000000 -0.2550851900000000 -0.1774084700000000
 19.4483350699999988  2.0370985199999998  1.3970253500000001
 17.7201853299999996  3.7146057899999998  3.2309382900000001
 15.4149197000000004  5.4983981599999998  5.4369035800000001
 13.9552630700000009  7.7810995199999997  7.1844197999999997
 12.3520149799999999  8.9446786800000009  9.2397047000000008
 10.2732249000000007 10.5544505399999995 10.7447882999999997
  8.8420178600000003 12.2853570300000001 12.8419401000000004
  7.0643364999999996 14.0325652200000004 14.4295996500000001
  5.0658209799999998 15.8698252199999992 16.0593191900000001
  3.8203885999999998 17.6953482499999986 17.7993633100000004
  1.8270157499999999 19.7703898699999989 19.4129471600000016
  1.3925959699999999 19.3901541799999997  2.2357047900000002
 -0.1624053300000000  0.3971342400000000  3.3873886500000001
 19.1568694199999996  1.8316660899999999  4.9999310399999999
 17.2579192399999997  3.2509973099999998  6.4433621199999997
 15.6255885200000009  5.1948616200000002  8.6606204099999999
 13.7093721500000001  7.2360411899999999 10.3965583600000002
 12.1499114600000002  9.2120732099999998 12.4570539300000007
 10.3023654100000002 10.4087749899999995 14.0801306400000001
  8.4595932600000001 11.7801362500000000 16.1872206500000004
  7.4110427000000003 14.0232309399999995 17.9306888099999995
  5.3483702500000003 15.8518560599999994 19.2324517899999989
  3.2856469900000000 17.9810416099999983  0.3604470300000000
  3.3313155299999999 17.3241389400000010  3.2788441399999999
  1.6962158400000000 19.9416177400000016  4.7871355900000001
 -0.2711114800000000  0.2062195600000000  6.8055109800000002
 19.8678911400000011  2.1044494700000000  8.7680797199999994
 17.6519167699999997  3.4822163399999999 10.1827089399999995
 15.8626792299999995  5.0572091099999996 12.2883225899999999
 14.3662896199999999  7.2598575600000004 14.2219223899999996
 12.1569378300000004  8.9174252900000006 15.5638482299999996
 10.6201764999999995 10.6785486200000008 18.0249814700000002
  8.7727362400000004 11.6758418699999993 19.5506196500000016
  7.2665734700000000 13.4135921699999994 21.1349748099999992
  5.4581039400000000 15.4852294500000003  1.9321662100000001
  4.8745778499999997 15.3141939100000002  4.7833876300000000
  3.1284252499999998 17.2533147999999983  7.1855819900000002
  1.2341771600000000 19.1920036399999994  8.0565365900000003
  0.0664394900000000 -0.1276520200000000 10.8359814399999994
 19.0608982500000010  1.9250229500000000 12.1452150299999992
 17.4865570900000016  3.5124650800000001 13.8310237600000008
 15.3952016000000000  5.0032735700000002 15.4028583500000007
 14.1882216900000007  7.1381654599999997 17.8387812900000000
 12.3956814000000008  8.9278692399999997 19.6680783800000007
 10.3488381900000004 10.4779737199999996 -0.2096302700000000
  8.9045219499999995 12.5989856299999996  1.3040543899999999
  7.6648145799999998 14.0780251100000005  3.6694420100000000
  6.3119348400000002 14.1594600899999996  6.5058579800000000
  4.4478693800000002 15.8866630499999992  8.7908179499999992
  3.6399430900000000 17.3498508399999984 10.6742419799999997
  1.9883628900000001 19.1810181200000009 12.4008784500000004
  0.0684003400000000 -0.2147865900000000 13.4938207299999995
 20.0101143099999987  1.9812677100000000 15.3444007599999992
 17.6120008299999995  3.6018307500000000 17.1229515200000009
 15.5945608500000006  5.0058192799999999 18.5661184400000003
 14.3989221799999996  7.1731721600000000 -0.0277217700000000
 12.2016661200000005  9.3616185900000009  1.6447670999999999
  9.9960166400000006 10.4884347499999997  3.8285934600000000
  8.5213769900000003 12.6558859500000001  5.4014945299999999
  7.8907686300000002 11.8545006100000005  8.5790779300000004
  7.2221519000000001 13.4300212800000001 10.1175145700000009
  5.6292916599999998 15.2773135100000008 12.2744914299999994
  3.8859070800000000 16.8003116299999995 13.9367643999999995
  2.1764963300000000 19.6013280200000004 15.7826694599999993
 -0.3715509900000000 -0.1786569100000000 17.2212695599999996
 19.4927251900000016  1.1106172599999999 18.8829659999999997
 17.7329044200000006  3.8526789899999998 20.8119196899999999
 16.1877078899999987  5.1998386200000004  1.0409716200000001
 14.3629100100000002  7.3202353200000001  3.4631004299999999
 12.7494254599999994  9.5637521499999991  5.3901436499999997
 10.5708931800000006 10.1094397899999997  6.8719877900000004
  0.9905029000000000  2.0515675799999999 19.3165337000000008
 -0.6310839900000000  4.3814729100000003 -0.0565418500000000
 19.4222391399999985  5.9218106199999996  2.1803404199999998
 17.2731460800000001  6.9834806299999999  3.3787597500000000
 16.0858081499999983  9.0570717999999992  5.8728062400000001
 14.2808949100000007 10.7056264500000005  8.2511638200000004
 11.9535268499999994 11.7220382999999995  9.1917935300000000
 10.1536390900000004 14.2359214699999992 10.0676263299999995
  8.4231883599999993 15.5028640600000003 12.3477595999999998
  7.5658444200000003 17.3918635299999984 13.6403699100000004
  5.2520541100000004 19.3470336100000004 15.6879977099999994
  3.7131936900000002  0.6680046400000000 18.2926709800000005
  3.4035811300000001  0.1028275400000000  0.0272005000000000
  1.5063399700000000  1.8890295500000001  1.2900672900000001
 -0.0577392200000000  3.5599759000000000  3.2538886200000001
 19.5606067099999983  5.3656642699999999  5.4263343199999996
 17.7986316299999991  6.7950379500000002  7.5997721499999997
 16.1016176299999998  8.6887399599999995  9.4502262899999998
 14.4980924600000005 10.4468408499999992 11.1418877799999994
 11.7764413300000008 12.4069552900000009 12.3694288599999993
 10.5380914899999993 13.8730990999999992 14.4747337399999996
  8.6322254699999998 15.1838631700000004 16.0589302799999984
  7.3310156400000004 17.6652206599999992 17.3257120499999999
  5.1640342700000001 18.9387552600000006 19.6079680600000010
  4.7501798700000002 19.3983831799999997  2.5232256700000000
  3.2307826199999998  0.1683824900000000  3.8445002399999999
  1.3703691899999999  2.2016821499999999  5.2831412899999997
  0.3306714100000000  3.5822138500000000  6.3277094900000002
 19.6608593200000001  4.6165867900000004  9.1858449199999992
 17.9466626600000012  6.7150139900000001 10.5582518600000004
 16.5268663599999996  9.2459603000000001 12.6607432200000005
 13.4089317500000007 11.2820209600000005 13.8761944800000006
 12.3471581100000005 11.9670231299999994 15.9845372700000006
 10.1677183699999993 13.6968277000000000 17.9506551300000012
  8.9454366299999997 15.6015949999999997 19.3822544599999986
  6.9834712999999997 18.0402847000000008 21.1687799400000003
  7.2521626499999998 17.3770728900000009  3.5392369900000000
  5.1429448100000004 19.3223533100000004  5.3548057399999998
  3.4202399799999998  0.0558962500000000  6.2506112399999996
  1.8828747600000000  2.3380509300000001  8.4571062599999998
  0.5924717600000000  3.3181100899999998 10.6383133099999991
 19.9617246699999988  5.2839096100000003 12.3809841100000000
 17.5556238299999983  7.0378945200000000 14.2515548499999998
 15.6361476300000000  9.5846775300000004 15.2755797399999995
 14.0330403100000005 10.6416924399999999 17.3815930700000010
 12.6723026399999998 11.9426912800000000 19.6997463699999997
 10.7402268299999992 13.6629374699999993 21.1061995099999997
  8.6756519900000004 15.7597391600000005  1.8021290500000000
  8.5076896899999994 15.6104824299999994  5.5998692099999996
  6.4639026199999998 17.2325676200000011  6.8422953399999997
  4.5028522700000000 19.5127932699999995  8.4639328999999996
  3.4066802200000001 -0.4330711700000000 10.6240655200000003
  2.3356429900000002  1.4217814700000000 12.9701842599999999
  0.8453047500000000  3.6418645399999998 13.7369389200000001
 19.8771680400000008  4.6127892299999997 15.2558171100000006
 17.1028222399999983  6.7056332999999997 16.4156938299999986
 15.6864626900000008  9.0692589300000002 19.1879478799999994
 14.7758965399999997 10.8608391799999993 20.6094955499999983
 12.2521504399999994 12.0108042800000003  1.2807821600000000
 10.8405245499999996 14.0532004700000002  3.2796997700000001
 10.8788593599999999 13.1284970199999993  7.2836078999999998
  8.7878725800000002 15.7847669699999997  8.4895266899999999
  6.6071818300000000 17.7736403600000017 10.0326402199999993
  5.0517699599999997 19.5853562200000013 12.5161837499999997
  3.9487835400000000 -0.2301732500000000 13.7313170200000005
  2.1167636999999999  1.7138614999999999 16.0852128999999984
  0.3356194600000000  3.5312774999999998 17.3118451700000016
 19.4174478899999983  5.5169126200000003 18.5014994399999999
 17.8232135099999986  7.0282817199999998 20.2989657799999996
 16.2991429600000011  8.9130675600000000  1.2646461200000001
 14.8969535600000000 10.4469448299999996  3.6532385999999999
 12.4803324900000003 12.2224784100000008  5.5798802700000003
  3.5367744999999999  3.5304510300000000 17.5322092400000002
  1.3454621700000000  6.0131923100000000 18.5147311999999999
  0.7304838900000000  7.4175791499999999 -0.3435553000000000
 18.5284532800000008  8.9962901399999993  1.4162896199999999
 17.8812826800000018 10.3101321099999996  4.0479807200000000
 15.6692233099999996 12.4226730799999991  5.9103136500000000
 14.2559293100000009 14.0302562200000001  7.0732137499999999
 12.2775465500000003 15.3561546799999995  8.8035566500000009
  9.5170137700000002 17.5012479899999995 10.6288794899999992
  8.5871002799999996 19.4455679000000003 12.0193362799999992
  6.8795362000000004 20.9755295400000001 14.2635258000000000
  5.4473765700000003  1.5925448300000000 15.2173985700000003
  5.6206852200000004  1.8935459299999999 19.5847424200000013
  3.1305655300000002  3.9852693499999998 -0.3098100100000000
  1.4390094700000000  4.8941877700000003  2.0767379699999999
 -0.0882204100000000  7.3414022000000001  3.4314732499999998
 19.0892579500000004  8.4753419200000000  5.6500931899999998
 17.7329049999999988 10.3154633800000006  7.2029116000000002
 16.2757002200000009 12.5103543699999999  9.1749511699999999
 13.7855416900000005 13.5394952499999999 10.6287403000000005
 11.8575659499999997 15.2588319200000004 12.3053255099999994
 10.0322947599999992 17.0051591600000016 14.7483614200000002
  8.9210209799999998 19.5387044799999998 15.7581690400000003
  6.6391631499999999 20.8547870000000017 17.8858753300000011
  7.4947915800000002 -0.2569234800000000  0.0625892000000000
  5.3683640199999996  1.9003023400000001  1.7787424100000000
  3.3947169300000000  3.2916909500000000  2.7590427300000000
  1.7758582199999999  5.4422554800000000  4.6450003999999998
  0.2862101100000000  6.9943056600000002  7.4653482899999997
 19.3272704600000012  8.4981637400000007  9.0689389600000005
 17.9310915299999998 10.1640560999999998 10.7249864200000005
 15.9563111800000001 12.5726122399999998 12.6923589299999993
 13.3334662200000000 13.6780611800000003 14.1491497800000001
 12.3715624099999992 15.8539468699999997 16.3520550000000000
 10.3516653499999993 17.6656241200000004 17.9793153100000005
  9.1345146300000000 19.3455773300000011 19.3509944999999988
  9.1428814500000009 19.2127267099999983  2.0962301800000001
  7.7651550499999997  0.8208683300000000  3.6064382799999999
  5.5700229900000000  1.8250843100000000  4.9198673399999997
  3.9492125200000001  3.7757864200000002  6.7298887900000004
  1.9059228699999999  4.9039178500000000  8.0896811399999997
  0.7217265800000000  6.5510731699999996 10.3618042799999994
 19.6023249600000007  8.1771233799999994 12.0388214500000004
 17.8013234699999998 10.5409123999999998 13.5628697000000003
 16.2331679499999986 12.4578563700000000 15.3100296999999994
 14.3666997700000003 13.3913550299999997 16.8968144000000002
 12.2267224199999998 15.4882100699999992 19.0007939000000015
 10.9656727299999996 17.3536849400000008 20.7682880999999995
 10.8180680900000006 17.6448726799999989  3.6032382500000000
  8.5558756000000002 18.8216847799999982  5.9255508600000004
  6.5212605899999998  0.4594463800000000  6.8641585599999999
  5.5058846399999997  1.7983443600000000  8.4972042200000004
  3.7906129800000001  3.4966343200000001 10.3496874600000002
  2.3227625199999999  4.8789489100000001 12.5255614499999997
  0.5294064100000000  6.6627453200000000 13.9962564900000004
 19.1488284899999996  8.7548840200000004 15.3906740800000001
 17.6595021599999988 10.8182228600000006 17.3424518499999998
 15.9054262000000008 12.2636269200000001 18.8641855300000003
 14.3460238899999997 14.2567970699999993 20.9257783000000011
 12.3629713199999998 16.0270572800000011  1.6495296699999999
 12.7747436800000003 15.4509156300000008  5.0255255700000001
 10.5402779899999999 17.0453252400000004  7.0515372300000001
  8.2176419299999992 19.2903781499999987  8.1689088999999999
  7.0116295099999997 -0.0693963200000000 10.5256390999999994
  5.1944439899999999  1.8816543600000000 11.4558503999999992
  3.8662215000000000  3.0526294599999999 14.2072904799999993
  2.3322759700000000  5.8337510200000002 15.7815112499999994
 -0.0037692200000000  7.2210205399999996 17.2816676200000003
 19.0197429999999983  8.8704192400000004 18.6653588799999994
 17.3445532699999987 10.9931681099999992 20.1587942600000005
 16.0685693100000009 12.2965176399999994  1.4863643900000001
 14.3072826899999992 13.6420421199999993  3.4073032300000001
  5.1446053300000001  5.0730312299999998 16.3373644400000018
  3.5123018799999999  7.3706002599999998 17.8593510199999983
  1.9806690800000000  9.6670449900000008 19.4962466100000000
 -0.3765237400000000 10.7779465600000002 -0.2000551300000000
 19.3046308999999994 11.8775488599999992  1.6954729500000001
 17.0455031300000002 13.4240026700000001  3.4376197300000002
 15.8949474800000008 16.0422497799999988  5.1320560500000001
 13.9916976700000006 17.3680446300000000  7.5716273899999997
 11.7535008300000001 19.3360004900000000  9.0650411299999991
  9.6331309800000007  0.1062780900000000 10.2924713699999995
  8.3968245100000001  1.6928090000000000 12.3983902799999992
  6.7057793200000004  3.5014846500000001 13.9826216799999994
  6.9403975000000004  3.2860692000000000 17.5184133499999994
  5.2814494400000003  5.3450990899999997 18.9516065199999986
  2.9620609400000002  7.2731774900000001  0.5294404900000000
  1.2132660799999999  9.4285206000000006  2.4207950999999999
 -0.9411900300000000 10.3829696899999995  4.2450946800000002
 18.8483688100000002 12.4607322499999995  5.7751924600000004
 17.7026263600000000 14.0150342400000003  7.3029606800000000
 15.4385779900000006 15.2523061099999993  9.2375506099999996
 13.4311223500000008 18.3189898599999985 10.5395528400000007
 11.4241652899999995 19.0943114799999982 12.4687805199999993
  9.7336517899999997 21.0608169899999993 13.8573448799999994
  8.4081621400000000  1.7593528700000001 16.5227783099999996
  8.4657509300000005  1.7599667299999999 19.6218320099999985
  7.4605832599999999  3.5249771999999999  0.7972792900000000
  5.3452910200000003  5.3681679200000003  1.9728877800000000
  3.5466767099999998  7.1498983400000000  3.1109509499999999
  0.9781120900000000  8.5971933800000002  4.6879794900000000
 -0.1773456100000000 10.3932250100000001  7.0073312899999998
 19.5844094999999996 11.6661281199999998  9.0580408600000002
 17.4836178199999992 14.2089753999999999 10.8412991900000009
 15.0471769200000001 15.2737929200000000 12.0000578200000003
 13.8002032499999991 17.8619077200000014 13.9574107400000003
 11.8723369400000003 19.2563267200000006 15.9636975400000001
 10.7896570300000008  0.1650029700000000 17.4800745599999985
 10.4273309600000008  0.2094415800000000  0.6118726600000000
  9.1495497500000003  1.9042310300000000  2.4775267200000002
  7.4834443999999998  3.4224044700000000  3.2699800400000001
  5.3241963700000001  5.1660113000000001  4.6003097899999998
  3.3634808600000001  6.6604016899999996  6.1397662700000000
  1.9587226499999999  8.6927773800000008  8.8940778999999992
  0.7359796000000000  9.9907585300000008 10.5356017800000004
 20.0084448600000009 12.2649721399999994 12.5836255500000007
 18.0330888000000016 14.3779763599999999 13.8338435499999992
 15.4548481399999993 16.0612810000000010 15.3606477399999992
 13.9268699900000001 17.8121681100000018 17.5802696400000009
 12.7078049499999999 19.1455201099999996 19.2975485400000011
 12.6051949800000003 19.2315473799999985  1.1931272600000000
 11.4207055200000003  0.2314935400000000  3.9368752499999999
  9.7953692900000000  2.2700198999999999  5.3592059599999997
  7.2224763100000002  3.8585253100000001  7.0258659600000000
  5.3918431000000000  5.5186980600000002  8.3201531800000001
  3.1215185900000000  6.8684515499999996 10.3672091399999999
  2.1592137400000002  8.6919013300000003 12.5467951800000002
 -0.1402763800000000 10.2105723699999995 14.3728956700000001
 19.5221446800000002 12.6202250100000004 15.7039672499999998
 17.8763690599999983 14.5960827299999991 17.3062625099999998
 15.9420835000000007 15.7200530999999994 19.0330064000000014
 14.2286498199999993 17.3022183600000012  0.0976200900000000
 14.0525514499999993 17.8017981700000014  3.5239673400000000
 12.3301092099999998 19.1095403099999999  5.5734056199999999
 10.2180178500000007  0.1401364200000000  6.8605805100000001
  8.8528301500000008  1.7354036799999999  8.4605038300000004
  7.3582004799999998  3.7483382999999999 10.5996009099999995
  5.4247221100000003  5.1287090400000004 12.1601965700000001
  4.0034967300000002  6.8951039800000000 14.2559519699999999
  2.2918645099999999  8.9787586800000003 15.9415962600000007
  0.5955784700000000 10.6039473300000004 17.2090085200000011
 19.3008509000000004 12.3130225499999995 19.2017623700000009
 17.2142993799999999 13.8702414300000001 -0.2737531600000000
 15.8919916600000004 15.9003946000000003  1.5058670999999999
  6.8735158399999996  7.0242137500000004 14.1718477800000002
  5.0812134599999998  9.1016956899999997 16.2436596900000012
  3.8861471999999999 11.0050920699999999 18.0926970300000001
  1.5846869900000000 12.3887210400000001 19.7585310199999995
 -0.3450707200000000 14.0860489199999996 -0.1789013600000000
 18.6049900699999995 16.0530195199999994  1.6839281800000001
 17.3963685099999985 17.6114356500000007  3.8646840199999999
 15.5914762200000006 19.5078861400000001  5.2908902099999997
 13.9457967699999994 -0.4626333700000000  7.1561927000000001
 12.4100259200000007  1.0725834500000000  8.5602331199999995
 10.2337919300000006  3.2354019500000000 10.1366600299999998
  8.7722836100000006  5.5262423700000003 12.8434931100000007
  7.9536959800000000  5.3656232299999997 15.6039001299999995
  7.1317085400000000  7.2708356500000004 18.1388470899999987
  5.3086944999999996  8.7734323900000000 20.4668616300000004
  3.5810163400000001 10.9204817399999996  0.2791614300000000
  0.9240229400000000 12.2933281999999995  2.2375154700000000
 -0.5029449800000000 14.0916027899999996  3.7804137799999999
 18.7893596299999999 15.8471829799999995  5.5120170000000002
 16.9537808199999986 17.8198042000000001  7.2655607599999996
 15.8699954900000009 19.7471221800000016  8.8143250599999998
 13.4512066499999996 -0.0896774800000000 11.0848924400000008
 11.4871534499999992  1.5425817700000000 12.1585206600000006
 10.0354887700000006  3.8232458700000000 14.2897936100000003
  9.9144360099999993  3.2338651999999999 17.8888128799999997
  8.8777798299999997  5.1594795900000001 18.6750955500000018
  7.4506018899999997  6.6898507299999999  0.4696929100000000
  5.5583208199999996  8.5093461399999999  2.6659811300000000
  3.1377705300000001 10.4379190299999998  4.1059311999999997
  1.0886550300000000 12.0458924700000001  5.1135628899999999
 -0.6326409200000001 13.5118195900000000  7.0393292100000000
 19.6363905500000016 15.7267725499999997  8.7781694500000000
 17.0879991800000006 17.5229561899999986  9.9788730399999999
 15.9823684400000001 19.2184867100000005 12.4279717999999999
 13.2442448499999994  0.3484562700000000 13.8272298700000000
 11.7817287000000004  1.9226331999999999 15.6372566600000003
 12.3387471200000007  1.8415875600000000 19.4289280499999997
 10.3192182999999993  4.1672544499999997  0.3607486400000000
  8.9665384400000008  5.6165282799999998  2.0769940800000000
  7.3588689799999996  6.7544344199999999  3.5353179300000002
  5.3846359799999997  8.6747736000000000  5.2269278600000000
  3.3819829200000000 10.6905972800000004  6.7452605800000001
  1.9150019199999999 12.4624594900000005  8.7369260999999998
  0.3839524900000000 14.0834170699999994 10.8309801799999992
 18.8938425499999987 16.6326829600000003 11.9510474299999991
 17.1561090000000007 17.5174732199999994 13.8830784099999995
 15.3789039899999995 19.4233761499999993 14.8898912299999999
 13.8480095700000003  0.1307644200000000 17.6094921299999996
 14.6594618200000006  0.1343786600000000 -0.4085253300000000
 12.9171590700000003  1.8491758400000000  1.4126637700000000
 11.5561968400000001  3.6123066800000001  3.6078220900000000
  9.1970948099999994  4.7292741600000001  5.1176996800000003
  7.3202907899999996  6.7685866800000003  6.3416764199999998
  5.4190095999999999  8.0367403900000003  8.0112481399999993
  3.8270742800000002 10.2720692200000006 10.0085345199999995
  1.7817011400000000 11.0208212299999992 12.7220798500000001
  0.1986932900000000 14.2989352899999993 14.2871644500000006
 19.3380654300000003 16.1922196900000017 15.6587327799999994
 17.3237757499999994 17.4212138500000009 17.0740912199999997
 16.0404341600000002 19.0154214500000016 19.1411483999999987
 16.1400393999999991 19.2010349200000014  1.7639102499999999
 13.9838605400000002 -0.1461617600000000  3.2158705099999998
 12.8276992900000000  1.6033146700000001  5.7943593800000004
 10.8660160000000001  4.0226354700000000  7.1884213199999998
  8.9577469300000008  5.8652964799999996  9.1660822100000008
  6.7980439500000003  7.0712429999999999 10.6001968600000005
  5.1979952200000001  8.4581160600000000 12.1971704200000008
  4.0312747900000003 10.4022208599999999 13.9513195400000001
  2.0015740499999999 12.3116797600000005 15.8611661900000005
  0.1041323800000000 14.0116639900000006 17.4863051799999987
 19.5000559799999991 15.7472215400000000 18.9155808599999986
 17.2977193999999983 17.0251264599999992 -0.3702958000000000
  8.8980183499999992  8.5002315199999998 12.4112319000000006
  6.4280314399999998 10.4586467600000006 13.7941631699999991
  5.0495036899999999 12.3841361899999995 15.9511828500000004
  3.6711014000000000 13.9343306899999995 18.0065542399999998
  1.2776805800000000 16.4863728000000016 19.0873884599999997
 -0.5166652000000000 18.2852957099999998  0.7499631900000000
 18.7999697999999995 19.0074704499999996  1.9998962700000000
 17.8494731400000006 21.3397067500000013  3.0391308800000001
 15.7894311900000002  0.7025188700000000  5.1156750700000000
 14.0435786900000004  3.2761167599999999  7.1072970000000000
 11.8215197399999994  5.8576360699999999  9.0351394400000000
 10.4694072600000005  6.9019309599999996 11.0773714999999999
 10.8246062700000003  6.6495874099999996 13.6200629899999992
  8.8286290100000002  8.8903714300000001 15.6295353200000005
  6.6465963500000003 10.8677838100000006 17.9815537700000014
  4.9908013599999999 12.5469474900000009 19.9230457100000002
  2.9576306099999998 14.3333931799999998  0.4069780900000000
  1.1299399000000001 16.0564021600000011  2.1456511400000000
 -0.6645801800000000 17.9742209700000011  3.9598928500000001
 18.5645083299999989 19.3661302800000001  5.4481212100000000
 17.9684056400000003 21.1144385800000016  7.1231369600000001
 15.8807580500000007  1.5016429300000000  8.7472287200000007
 13.9020809300000003  3.5237745100000000 10.5333032400000004
 12.0651603600000001  4.7830522200000001 12.5445533299999994
 12.2253814599999995  5.1654621599999997 15.7669420999999996
 10.6574898900000008  7.0848567899999999 17.5533357199999998
  8.4333378200000002  9.3802132500000006 19.7480194500000010
  7.0466471200000003 10.5007732899999997  0.7858663700000000
  5.3573519200000002 12.2008771700000000  2.2102127199999999
  3.5459640700000001 13.2499913700000000  3.2778442800000001
  1.3151859299999999 15.6777047799999991  5.0585977399999997
 -0.8178412600000000 17.2305909399999990  6.5125763399999999
 19.8555634599999991 18.5442189299999995  9.0274539499999999
 17.8191095100000005  0.1002555600000000 10.5446521700000009
 15.7007313899999996  1.6069850500000000 11.8811453300000007
 14.1479180400000004  3.4324343499999999 13.9101809900000006
 13.7801429899999999  3.0885154400000001 17.2581707900000012
 12.3978034099999999  5.0091269499999997 19.2460136400000010
 10.8880310799999993  7.1414576099999998 -0.3661528500000000
  8.8155979299999991  8.7530016400000008  2.0100172700000001
  7.1632198100000002 11.1325293700000003  3.6815458200000002
  5.2194209200000001 12.1405428799999999  5.2515809400000002
  2.8781762099999999 13.9528159800000005  6.4328583699999999
  1.6745812899999999 16.1985047000000009  9.1138800300000007
  0.1950811500000000 17.5324299299999993 10.2982371300000004
 19.0067659400000011 19.1979279600000012 12.6451998000000003
 17.2514060899999997 21.5020941100000016 14.0625919199999991
 15.5714348499999993  1.8837316900000001 15.5158212100000004
 15.9562625499999999  2.4421071400000001 19.3588275600000017
 14.1744183499999998  3.2892356800000000 -0.5124087200000000
 12.3862591200000001  5.5939071000000000  1.6874049400000000
 11.4989163600000008  7.2740617299999997  3.5606898899999999
  9.0165515500000009  8.3320875999999995  5.0732906800000004
  7.0816405500000004  9.9002144100000002  6.6259987000000002
  5.2220520700000002 11.8137992500000006  8.5837697399999993
  3.1254728500000000 13.7759541900000002 10.4213119499999998
  2.0283163200000001 15.2257328100000002 12.2592945899999997
  0.3346186200000000 17.1089330100000012 14.0691530000000000
 18.9359441000000004 19.0139369299999998 15.4499627299999993
 17.5258353999999983 21.1855235999999998 16.9063164899999983
 17.8968036899999987 -0.5510683199999999  0.0528757100000000
 16.2852165199999988  1.5060306800000001  1.5401678900000000
 14.5718975700000009  3.3242151400000002  3.9116086000000001
 12.9432836299999998  5.7366273400000001  5.4590947099999996
 10.7744745700000006  7.2173793999999996  7.1399098399999996
  8.7581191000000000  8.4734225399999996  8.1747397799999995
  7.1198802900000002 10.2814873299999991 10.5085057499999994
  5.2725057199999998 12.2738081500000007 12.0480207700000008
  3.3135399400000001 14.0146216799999994 14.3968651199999993
  1.9388543800000000 16.0259178700000007 16.1317862599999984
  0.0903823700000000 18.2447381399999990 17.1399492699999989
 19.1845049799999998 19.2943594900000015 18.7723033500000014
