Li                                      
   1.00000000000000     
   -10.5278949999999991   18.2348490367503473   -0.0000000000000021
   -18.0478199999999980  -10.4199137352859115    0.0000000000000046
    -0.0000000000000002    0.0000000000000000   22.0820499999999988
   Li
   504
Direct
  0.9946926057666872  0.9721373007494520  0.0223627534581254
  0.9231403995005891  0.0282068462451264  0.6792303748972586
  0.8639331966111712  0.0739024552030756  0.3209020335521373
  0.7941714845018168  0.1427280884434126  0.0108597557744901
  0.7353329616891102  0.1806166467361692  0.6659534680883326
  0.6305391621079153  0.1966188785094189  0.3279112813348419
  0.5729437579864012  0.2341511470645088  0.9830161905257881
  0.4992909352771093  0.2883081008648603  0.6632756523964005
  0.4493999811691651  0.3129434327940430  0.3227253456993324
  0.3502419712284137  0.3536822237984580  0.9975443688425685
  0.2845105658885174  0.4165352610971880  0.6606742716369212
  0.2175283894010676  0.4649732497812167  0.3459914025192390
  0.0579268330067038  0.0473705558024662  0.6756686901804869
  0.9923020537749636  0.0973122166318632  0.3583267758201814
  0.9282939197121749  0.1198949088661010  0.9996825797423696
  0.8859852906833652  0.1891867576328323  0.6633338227202614
  0.7681369224188188  0.1976791825911093  0.3188772953598047
  0.7157732664387311  0.2646581131198147  0.9758455881587054
  0.6432305263594600  0.3032243965028911  0.6498269771148983
  0.5799882324779801  0.3323695502967254  0.3328770417601632
  0.5016001861210242  0.3526442544605075  0.9918169255118983
  0.4177836941611375  0.4217510101031294  0.6874604839677474
  0.3631690251647584  0.4563574506955987  0.3374368915023709
  0.3016347568582347  0.5142958945427196  0.9881716620513075
  0.1529211054193951  0.1067079862753886  0.3139710131079312
  0.0627988931800445  0.1129628629099955  0.0238776191522092
  0.0022778277935771  0.1819403705356706  0.6662573687678446
  0.9049066250119182  0.2275530056854649  0.3361337439232344
  0.8885540343775347  0.2444343285918720  0.9927226127103239
  0.7947046849112454  0.3008955935534772  0.6725954709820883
  0.7395266249683772  0.3293056902511537  0.3247804479203680
  0.6490434563253444  0.3614235520616731  0.0065704325458924
  0.5570379882737129  0.4318520391073903  0.6799672684374869
  0.5293861149191201  0.4730664411365808  0.3366805799280428
  0.4283334062940298  0.4819801784118027  0.0064206393881037
  0.3785083531209850  0.5539030576390616  0.6392278706007843
  0.2110730116718642  0.0991992515320348  0.0136396883441563
  0.1689449885413197  0.1514000760125498  0.6769393770053043
  0.0536365504222545  0.2245344567372882  0.3159605783883279
  0.0116734619714762  0.2714098953822557  0.9822048817931304
  0.9350712493794049  0.3093613366608707  0.6515315421349044
  0.8716996583309680  0.3211132577538862  0.3115814813389122
  0.7782362175202309  0.3649192227509985  0.9892562651565413
  0.7170001376185269  0.4393101502656052  0.6751466172751179
  0.6349107058413352  0.4616897965807780  0.3675186995772606
  0.5539195980447573  0.4820802625105216  0.0349849669754363
  0.5093078553756527  0.5462152634462214  0.6846109514288727
  0.4348770673168616  0.5866206426803942  0.3463485740680809
  0.2983251717315412  0.1629520477350397  0.6641840676024202
  0.2069904474990452  0.2493115075796979  0.3334492436164211
  0.1494247154564121  0.2323019902276258  0.0036327600924722
  0.0665202422213156  0.2780803573240149  0.6563394752751677
  0.9948444948506818  0.3405997370809288  0.3318550922581949
  0.9408682266559865  0.3693886613967550  0.0095411390699667
  0.8702871542266308  0.4413369249279526  0.6725088721382306
  0.7674799282119835  0.4793215391762971  0.3311774885031085
  0.7401253951943119  0.4970987976697856  0.0046928441879288
  0.6429803573904422  0.5379063726439526  0.6655464198296812
  0.5713716823045019  0.6238107623372144  0.3444981992161047
  0.4942905513372153  0.6062101121370702  0.9936959797663718
  0.3467292039730694  0.2113447085098343  0.3490558752470889
  0.2921062500991454  0.2360903089742976  0.0016920367447781
  0.2036184718368617  0.2680845912936292  0.6710251285546391
  0.1300927710144606  0.3520636689916401  0.3399960941126423
  0.0976979466509746  0.3786635752097993  0.9855885264275770
  0.0296993154612508  0.4265366080364288  0.6532466279172482
  0.9311317781002941  0.4617896221813353  0.3457298869443761
  0.8748501493685694  0.4795911559796906  0.0235664510314919
  0.7934267566512645  0.5501053055596117  0.6721288290715748
  0.7040200539028234  0.5977563586414760  0.3554251054589557
  0.6464683007246208  0.6125713775482424  0.0235389082988249
  0.5794862249884503  0.6820372415823783  0.6689256382446374
  0.4437655610769511  0.2109799725598904  0.9923365416707242
  0.3569887618177248  0.3147479041459320  0.6746528773370244
  0.2878854724111761  0.3574545321501290  0.3379055123958139
  0.2239003577572944  0.3533063945157195  0.0214678940587518
  0.1494498120655834  0.4089664674627613  0.6605838986869443
  0.0597610546530589  0.4578562492047951  0.3571950199370093
  0.0257903066572709  0.5044060074565451  0.0102384479701811
  0.9579994030785883  0.5592836505642182  0.6747014652172254
  0.8135931170197352  0.5768296138422002  0.3535002506560758
  0.8154229579900090  0.5855856224015881  0.0137261495196341
  0.7128601479098080  0.6791658617562177  0.6713717336026335
  0.6183702062193319  0.7471674494645058  0.3484461650978972
  0.1632540447933621  0.5046876735301069  0.0001987156989500
  0.0986326743033175  0.5557444766938886  0.6540553358949950
  0.9805437121276199  0.5909047954717082  0.3637895023333400
  0.9458089049603586  0.6115423717940658  0.0023567195980476
  0.8414951103723780  0.7123144338200476  0.6825178423198963
  0.7566843712908096  0.7302644131484755  0.3383097044884877
  0.7485018647925941  0.7267479108368420  0.0243512875842598
  0.2345358481727473  0.5490788974347822  0.6268798703018987
  0.1446890646403816  0.6142209862364467  0.3568876050910106
  0.0844908888109046  0.6195165983560429  0.0054119961688315
  0.0021967783730403  0.6947696845353306  0.6605662150932545
  0.8954786926635023  0.7197076028518339  0.3418262493744919
  0.8593555432109738  0.7501689330571182  0.0193674663357797
  0.7929986144964261  0.8168817082304756  0.6623925328490756
  0.2676328281568559  0.5826259950848112  0.3364311058076552
  0.2029463671777876  0.5896229819291605  0.9792185322467830
  0.1219615781935417  0.6796867245320541  0.6716287686152356
  0.0569924874156840  0.7155229106173948  0.3128559160041746
  0.9969860909633681  0.7407956156409625  0.9977254851791386
  0.9311188985985055  0.8220740573121432  0.6508521432566283
  0.8546072637214053  0.8618613500857037  0.3248433922575131
  0.3572225336743529  0.6226219351612770  0.9926908833192556
  0.2791430291100170  0.6657319083162321  0.6552016099048785
  0.2095969662756048  0.7293314620121407  0.3322564136934716
  0.1539442634385253  0.7684128791547593  0.0259472942955910
  0.0688242128152865  0.8009495071439687  0.6656227737008109
  0.9817076916381851  0.8419987888698373  0.3236648635430157
  0.9367240691736143  0.8486963592149905  0.9970251656888749
  0.4271612942930147  0.6815813159494652  0.6706477618699367
  0.3441503304327895  0.6965891912146915  0.3023235945032283
  0.2849246125182958  0.7182716869124164  0.9764764815766682
  0.2225661885870807  0.7882450410080040  0.6580135345223823
  0.1278832603340589  0.8450352747836263  0.3350619842813529
  0.0597764258498188  0.8654626439746096  0.0040156624951067
  0.0164086596847000  0.9388618876822079  0.6886707325633239
  0.9393681787961228  0.9829297171233549  0.3417724839858636
  0.8652823710928033  0.0028295340813429  0.0256458440226339
  0.7956455944813570  0.0717253847881736  0.6414735090265609
  0.7246389462292129  0.0847136236502948  0.3215572440058807
  0.6463625407155291  0.1228003077055106  0.9672784727867239
  0.5883441578959889  0.1744513061304644  0.6357165367345843
  0.4776503014703479  0.1838725452382519  0.3196981385333331
  0.0783392598608330  0.9907669179882888  0.3495904709934052
  0.1268780883907965  0.9738065199908377  0.0297929349856574
  0.2123284411751811  0.0326298719620439  0.6809784757302850
  0.2931369196303777  0.1036839108273426  0.3282404495959383
  0.3655883330330454  0.0923396735230639  0.9747254747634386
  0.4387999456416836  0.1829667869182359  0.6557419238702948
  0.8568141799389792  0.9237813707744920  0.6792115442180418
  0.7915462686172319  0.9682075495187803  0.3375382131640876
  0.7565433227569827  0.9933663126662040  0.0103056247042304
  0.6809982058929975  0.0481871147412889  0.6793040578207155
  0.5811700770267763  0.0667550852080865  0.3189010698734975
  0.5013198093095212  0.1096168942381581  0.9658393310403710
  0.1358984825896599  0.9204234591566589  0.6650703268038995
  0.2182569680191833  0.9787055039154708  0.3152352766160718
  0.3006138215876817  0.0064946492582578  0.9844390973664119
  0.3545892543405813  0.0436824310179347  0.6574708770245508
  0.4301899551069042  0.0858222074787847  0.3285804678460593
  0.8049763925660542  0.8842732541429257  0.0086587146573791
  0.7353934889545783  0.9130612541903957  0.6896536087002758
  0.6669485986121089  0.9729791904736729  0.3347736482799348
  0.5967714679824496  0.9882186239714770  0.0093915601133077
  0.5202190649661418  0.0497194745425347  0.6592926014568405
  0.2039081686909796  0.8781110195236366  0.0075360145457495
  0.2850226849752673  0.9250006178010608  0.6669290641041030
  0.3484242874999310  0.9908824492792405  0.3244340914906019
  0.4318772800383073  0.9797453854743168  0.9860331807961700
  0.7088831337279302  0.8564913707495663  0.3178171714129832
  0.6515948764514476  0.8572671052892389  0.0091259692827421
  0.5851967629027399  0.9144579725318636  0.6759181489037474
  0.4937874602588792  0.9437358315895139  0.3378045969463912
  0.2760222120223261  0.8433431159088016  0.3185856163716707
  0.3595330822788227  0.8589181414011335  0.9737341709669138
  0.4569201823275861  0.9110254477867343  0.6338378601624370
  0.6595655686996906  0.7972521372173702  0.6440943594457949
  0.5810377774026065  0.8661375079356972  0.3310375535785823
  0.5046262287579495  0.8742591304318381  0.9984939002493007
  0.3504305702106549  0.8109756270858242  0.6619413347039824
  0.3982603482420188  0.8317328010277478  0.3428046974805312
  0.5768778795344360  0.7412013604102228  0.0219171014466468
  0.5254687792831945  0.7747252413825265  0.6710382455433290
  0.4374171393331210  0.7292024391810514  0.9759680523320995
  0.4933490991703877  0.7327953157550127  0.3430758394261417
  0.0259912767756276  0.9861482460036868  0.7948198826648820
  0.9335712615005392  0.0403312828865126  0.4439966470504331
  0.8596649885226597  0.0860491286846425  0.1249873476420902
  0.7997407570365382  0.1272439731058270  0.7610040806899718
  0.7181476557928335  0.1844683150273454  0.4311631017047759
  0.6595417662794745  0.1810358395914378  0.0808174354283224
  0.5799064425694525  0.2611478036020571  0.7593778575811569
  0.4865969527217473  0.2641511287471587  0.4276245778811330
  0.4300656024502345  0.3321725241215958  0.1139097660769721
  0.3827221366469189  0.3795241952327544  0.7911275606205024
  0.2944284368889143  0.4110148766676147  0.4421080751107809
  0.2067220304838244  0.4593983366899437  0.0849881587080930
  0.0935546280832469  0.0462709079975028  0.4438019214701541
  0.9960203612877621  0.0573548749101178  0.0996576133103559
  0.9544434968974898  0.1164011172114101  0.7764622768266563
  0.8354472329691518  0.1861228327443598  0.4148148500705346
  0.7938248059677946  0.2097809976149847  0.1070807637877849
  0.7172909437311503  0.2517000889829077  0.7655605892568857
  0.6461558905683944  0.3073149538539539  0.4387788765082945
  0.5563655686046758  0.3166807477088440  0.0885739408252419
  0.5109467011641158  0.3803474685334791  0.7950034389923033
  0.4426657785379717  0.4041997556191816  0.4089737103212769
  0.3335298367628567  0.4537562020894228  0.1190392151091046
  0.2934653642278207  0.4864557647002670  0.7482050855785616
  0.1115344951607895  0.0958832094994975  0.1340733953595787
  0.0679168030134250  0.1376250117265698  0.7772512778478458
  0.0091140739608306  0.1640285866280848  0.4511974454364491
  0.9256760473801364  0.2002070404717529  0.0952111742342794
  0.8654072658064322  0.2318292798439288  0.7789170901252405
  0.7994397758269827  0.2973304333304512  0.4407991626683199
  0.7140772901989294  0.3045702659324547  0.1003135125588415
  0.6642203835616627  0.3868924775958007  0.7831975622734291
  0.5773774612895366  0.3861545955232941  0.4437531556173440
  0.4888272216302241  0.4485702809278536  0.1506305207170513
  0.4318231300708248  0.5180825882595812  0.7618961273975913
  0.3590404078119178  0.5365550125056089  0.4593035950013729
  0.2099619786954392  0.1207266918831280  0.7844687667132320
  0.1258634634328217  0.1966336705841982  0.4293648221066420
  0.0489207308919717  0.2172506519815727  0.1112647756888521
  0.9893053699740975  0.2633871116831017  0.7688968759693964
  0.9281408738779220  0.2904570399419413  0.4405232358408782
  0.8591029833495085  0.3179266098126874  0.1150791923757097
  0.7911083616124586  0.3645833067551649  0.7681726094271113
  0.7362982318100322  0.4148915185777753  0.4563112559748745
  0.6514049688784738  0.4236018907086390  0.0889547718622126
  0.5459550828312061  0.4863771653992970  0.7991259887555699
  0.5216086275617258  0.5277742618186565  0.4546650360813445
  0.4048907996985562  0.5602226426409160  0.1119258207458103
  0.2628620230121967  0.1955555985287987  0.4406921236932249
  0.1847533276173934  0.2040264921715433  0.1114589859184250
  0.1278873776823772  0.2471912245320809  0.7760529452654978
  0.0550627384982505  0.2896178308891564  0.4515169900439489
  0.9903879908172755  0.3591971647220973  0.1107806086844292
  0.9331320438184392  0.3838229232973376  0.7705088313811430
  0.8635914552010391  0.4086427079140975  0.4433179424011797
  0.7920065690080165  0.4315596267124420  0.1034870698146264
  0.6941254257081013  0.5180950963227033  0.7819544833926173
  0.6380648266699609  0.5306658932561064  0.4653255349933545
  0.5582658992232155  0.5681250445149288  0.1334474412475259
  0.5333131292491586  0.6510773729538215  0.7666747281162785
  0.3284285745355362  0.1912092841290658  0.0782032379240150
  0.2739237276880075  0.2383152495366261  0.7839591423803469
  0.2076101779791699  0.3041978940007155  0.4428944907741794
  0.1469964845862606  0.3328125571346945  0.1290649459628952
  0.0892568298269296  0.3543070452580537  0.7813305426805925
  0.9912624791770455  0.4188356971525877  0.4470230934175063
  0.9276262074073287  0.4614550654410010  0.1168697783946655
  0.8620612400889840  0.4786226076486457  0.7782228185336066
  0.7782832912471207  0.5381494833999838  0.4643176711401367
  0.7125221566056865  0.5548940209998605  0.1224874148912818
  0.6447372505111204  0.6240689708801526  0.7863027046854825
  0.5695166976691297  0.6593238610642516  0.4381917199716483
  0.4295052686998488  0.2721795014124240  0.7755213601092308
  0.3423285912431950  0.2975043825732797  0.4678340398649610
  0.3045404204068234  0.3249218321493146  0.1087198516442101
  0.2151799219812602  0.3767199271309849  0.7609675550956538
  0.1381419103955537  0.4244513826188552  0.4523893895720761
  0.0846688790413523  0.4667583725726985  0.1114692064369009
  0.0212906473888168  0.4901084901006598  0.7788729379745121
  0.9093023819520383  0.5607807945535299  0.4537502029929286
  0.8688069975970265  0.5718278082357457  0.1335027735196661
  0.7964937767396378  0.6234365391682601  0.7787274306506902
  0.6917211666423739  0.6951202210744327  0.4535381705955714
  0.6266772195863837  0.7011749664670077  0.1521577964908118
  0.1496968435079253  0.4771646636389946  0.7622105194037658
  0.0531589321097243  0.5493373157775636  0.4547273957807363
  0.9764847288428840  0.6095991635354707  0.1041720990578341
  0.9185906769215606  0.5947396962841438  0.7787804637703459
  0.8285886007784242  0.6725062574209986  0.4521223591106818
  0.7907046719196344  0.6585192094125816  0.1317415516222482
  0.7370800207898753  0.7647480861692131  0.7615888606356762
  0.2126739121835115  0.5541370782339783  0.4432042640968561
  0.1328364588521964  0.5782343046989737  0.1094620789283596
  0.0481186064196990  0.6209117568807230  0.7981408510532333
  0.9723561617143162  0.6807516135948077  0.4552408784510504
  0.9187908856197780  0.6873418578663788  0.1103657798981530
  0.8559967668136892  0.7664295033220654  0.7903449222332171
  0.7715481439987144  0.8159493884877307  0.4379987016603977
  0.2581874535006747  0.5897193627389612  0.1098310981090975
  0.2027638615791147  0.6012985975868830  0.7516807357106785
  0.1447184634111949  0.6760189088014883  0.4393956054804704
  0.0610441716544869  0.6963960517369756  0.1042188560391821
  0.9874359979732148  0.7547463468783349  0.7616096046336267
  0.9317338564275630  0.7902917705066628  0.4484871395545227
  0.8331419223576972  0.8234747770822182  0.1265716203885034
  0.3697296204108795  0.6506638955798749  0.7577235129890596
  0.2863306983650986  0.6933483225306745  0.4165194535833407
  0.2147295634652124  0.7012354390969335  0.1286933196872582
  0.1176014234369447  0.7422055834003913  0.7750090987929141
  0.0696631314089444  0.7860879977280035  0.4487110177723537
  0.9685249689680901  0.8408992339144419  0.1139865827674527
  0.9154586895475205  0.8652146824162728  0.7713359239744477
  0.4376868129739151  0.6813145809369772  0.4316461379265064
  0.3634782532898555  0.6708961594575413  0.0951875944488876
  0.2807408471032815  0.7355014350478655  0.7649384432151933
  0.2159479343321635  0.8084098723216471  0.4548448649468710
  0.1272261527718115  0.8500161483417017  0.1277686582541051
  0.0778808038793741  0.8653767958812963  0.8080394587459026
  0.0127636696732338  0.9236783941697979  0.4557815841373412
  0.9386605886333896  0.9390733607842634  0.1047039821936835
  0.8719076236698484  0.9938075899640140  0.7719181982651051
  0.7997411912984518  0.0513742009192768  0.4446524638790308
  0.7114257032766318  0.0724004669595857  0.0796777296491982
  0.6567896473246080  0.1099658948216202  0.7835590567904731
  0.5744910125042892  0.1608962922896566  0.4370333465416465
  0.4927342739690417  0.1751886721361728  0.0854975135913563
  0.0712819090565233  0.9522138688247850  0.1343751223278602
  0.1625977022363330  0.9902414531846304  0.7850896818909447
  0.2277280119705196  0.0539677596194821  0.4276292305288649
  0.2614864915938213  0.0782744704114862  0.0996204718311944
  0.3515845062706120  0.1451596139786488  0.7755741156278546
  0.4051917247276720  0.1658369507895188  0.4471705004743640
  0.8553903763015214  0.9351963209011984  0.4282787349906343
  0.8061613122396594  0.9705219462338732  0.1292507471000235
  0.7437075813851806  0.9805274466651852  0.7901730106579805
  0.6639100001417333  0.0451423484419635  0.4224221134360278
  0.5301481006732089  0.0592461395150821  0.0901153742519369
  0.5129519506574951  0.1354363758854404  0.7766461927221400
  0.1498340961182691  0.9411669580396378  0.4423933629350500
  0.2213837108910255  0.9576803091469728  0.1010845247610632
  0.2989610625104433  0.9860055821036369  0.7754637391003101
  0.3518973871852111  0.0517922312467505  0.4417557409751325
  0.3939185685363640  0.0784763473870456  0.1114461383793639
  0.7885739127730034  0.8951598257621498  0.7930192178715316
  0.7023002291473546  0.9401555699835598  0.4476512370907599
  0.6549530781332322  0.9613184802090515  0.1057115476144617
  0.6147802559954769  0.9840106482005311  0.7638421962634823
  0.5250986068509675  0.0588753468522327  0.4298955490998324
  0.2225713751930414  0.8755522529569859  0.7953185895331245
  0.2951902948086698  0.9422593250173890  0.4089488625376703
  0.3523547879601310  0.9273201162028712  0.1039165181674733
  0.4343070079153648  0.9989284363930295  0.7515898926956481
  0.7004624468460818  0.8378037540357397  0.1113809591953654
  0.6731705774348384  0.8714024238759421  0.7937842713878496
  0.5877553014668564  0.9251101590365849  0.4375099472195743
  0.5018483325780849  0.9462203367882012  0.1130494673275351
  0.2732406797875626  0.7991776609844266  0.0990515119746576
  0.3597716519212284  0.8671237315419091  0.7567133187362600
  0.4382721964917380  0.9331282145940989  0.4465052936661209
  0.6535892232234843  0.8016285786744106  0.4600609227857007
  0.5415342427278418  0.8411445849779540  0.1341148131627250
  0.5068036163893481  0.8679242540668426  0.7791615773897789
  0.3557331970135138  0.7801653143608149  0.4265017727067928
  0.4212798669458238  0.8237763261812461  0.0990812524199498
  0.5828509587493826  0.7592264326460025  0.7893342325554045
  0.5086745212341128  0.8044162021380998  0.4381050722192938
  0.4457973746728285  0.7458990780143395  0.7628670372542388
  0.4926345048886631  0.6956912025471880  0.1015994706107435
  0.9835218140502064  0.0203010746710603  0.2263532244515361
  0.9421163419796770  0.0501686831902077  0.8942650999341097
  0.8690798194100608  0.0883171637700215  0.5263217867000591
  0.7613860906865071  0.1279589348071895  0.2227593756014485
  0.7207388596674207  0.1725686782670550  0.8558587255259340
  0.6690943479450553  0.2178684079152475  0.5559374102494985
  0.5662577529365151  0.2347471430980832  0.2054799341546669
  0.5060073889734014  0.2818362871340625  0.8757394462923500
  0.4164732984658315  0.3334882220372393  0.5508381092335171
  0.3693977783802396  0.3801604873042592  0.2353254009478292
  0.2782871048692712  0.3975149901806603  0.9076436943128030
  0.2154301894696999  0.4537847100332826  0.5561967557359964
  0.0739469488593585  0.0327319186936919  0.8995970247327563
  0.0116881871269143  0.0737051617972426  0.5865459760303082
  0.9084937497216856  0.1328144437817897  0.2112340810748989
  0.8486516001310562  0.1603007151134150  0.8887312726852841
  0.7961378898193630  0.2226186293114694  0.5514659816457268
  0.6745153557493424  0.2348280290241860  0.2075536016810062
  0.6499186622969617  0.2725480176994850  0.8615554167298782
  0.5829707232973291  0.3403365346646652  0.5643326004605527
  0.5283144161250632  0.3664989383786548  0.2441114257960635
  0.4154489277772484  0.4240628447368451  0.9071671968861565
  0.3726947760031081  0.4496095252053038  0.5386706143677813
  0.2649001057129468  0.4847159463893789  0.2329167477657208
  0.1525577349467895  0.0971889366717065  0.5675385632221648
  0.0636157423989374  0.1305238213632975  0.2334811704529258
  0.9987435585908244  0.1774581646553131  0.8828831195473228
  0.9357855199249769  0.1861530619049532  0.5518251697645837
  0.8472794737351705  0.2282187862501317  0.2218080798657738
  0.7915505002875349  0.2788496835504475  0.8801233105621975
  0.7152304752272087  0.3357678653714302  0.5640274675584891
  0.6556556710100097  0.3761100332035738  0.2105762666962505
  0.5606337071520642  0.4271260211838523  0.9122704101294943
  0.4966659869411245  0.4550905078515015  0.5644464467746459
  0.4214434641246143  0.4820084919541401  0.2247184219762204
  0.3653152632190171  0.5471164781637228  0.8894100810386689
  0.2065150993689073  0.1214141069630301  0.2335465063252755
  0.1502857362733181  0.1554916033358467  0.8839273414379534
  0.0931233448675641  0.2083326580820000  0.5861858604613275
  0.9547211819852279  0.2493961615188809  0.2039833914876539
  0.9178160439591210  0.3065146061897224  0.8883302329267408
  0.8728192382846984  0.3398277861458467  0.5474524339905003
  0.7786347640976672  0.3480592642341307  0.2128919285120716
  0.7268899816465222  0.4056234263569536  0.8810940750519052
  0.6477375696284824  0.4694537567083543  0.5698422112077424
  0.5934059914499912  0.5039559486765484  0.2444585303447795
  0.5065924334840233  0.5329516624437574  0.8852009482815220
  0.4585286245978253  0.6005467317238171  0.5602060841271523
  0.2836175398651832  0.1567601704882406  0.9200860599446159
  0.1956495936291560  0.2096697313847073  0.5734512149007926
  0.1118123154812238  0.2419432221125248  0.2136201439630838
  0.0708852611045572  0.3285429555505104  0.8886665422820812
  0.0083104563890117  0.3361172206800802  0.5576829592361250
  0.9131412399194119  0.3753242079075818  0.2223565860053753
  0.8753578155907391  0.4253416988883600  0.8994511184423573
  0.7781268413042568  0.4654157880601133  0.5666173127042100
  0.7203275497707651  0.4820674829650429  0.2056517814242795
  0.6212500285831908  0.5340025039217551  0.8964437771855387
  0.5718670444651011  0.5960753133570194  0.5870989310322159
  0.4783843839169748  0.6115862246233874  0.2271298316958763
  0.3657175303989888  0.2040916077565100  0.5734555709275213
  0.2665802148914693  0.2483722476479215  0.2040154415011273
  0.2031978368247778  0.2962796830687324  0.8874902891715237
  0.0978773817045848  0.3569541940544170  0.5613611652903572
  0.0617569222485841  0.3813635251816407  0.2262926050796921
  0.0117956355460223  0.3909097573841720  0.8819850842652741
  0.9264729228510760  0.4647122958828689  0.5597608478379499
  0.8293275467397834  0.4986126151145100  0.2354943884286129
  0.7739275035721533  0.5277581477862796  0.8956076220278462
  0.7289951568218811  0.6100539202779416  0.5665567676008365
  0.6408005663498386  0.6296359544547983  0.2465314968492507
  0.5898837794611111  0.6652659555353679  0.8960015383535520
  0.4176842068075928  0.2408615742827322  0.1851984399093354
  0.3492290671453659  0.2863158625332929  0.8903463455612126
  0.2822295882875707  0.3292989590219335  0.5679824871332144
  0.2057377352136598  0.3631568253746309  0.2401572263444720
  0.1301611173211867  0.4250604800890017  0.9045850964923972
  0.0694592757840340  0.4807874916621273  0.5512960970562091
  0.9783228270607651  0.4926943947025819  0.2234276627396454
  0.9467451155857418  0.5267043881948368  0.8756120337559210
  0.8672121875724201  0.5848755947542301  0.5787626257525886
  0.7651829759337332  0.6249386930710799  0.2382925530011946
  0.7104493791749746  0.6604146984638959  0.8939550059890280
  0.6200719968147936  0.7203966371059494  0.5577521973729773
  0.1203939802626266  0.5007604340669971  0.2178760884972206
  0.0557460193528101  0.5404778206778218  0.8952083398054071
  0.0186826823627726  0.6140854724707125  0.5630655763391559
  0.9134745333880971  0.6132250043116656  0.2531374396851760
  0.8598961141256325  0.6374817495729346  0.9226503875319523
  0.7873065325404696  0.7428834780377827  0.5589443095183668
  0.6727531660830692  0.7733614007985352  0.2374972061017857
  0.2389656823428936  0.5267726117442848  0.8561229514469915
  0.1501006525006758  0.6026254456793936  0.5414166963665039
  0.0386608494450016  0.6325428598264082  0.2192066271021034
  0.0011134327134741  0.6737781187591096  0.8881859392583564
  0.9054279085308465  0.7103990957865065  0.5605815035288870
  0.8363607785468545  0.7215238118144143  0.2167136506800773
  0.8076166467835932  0.7960467614598485  0.8986107032635076
  0.3035158499048123  0.6096869306856121  0.5301616122597324
  0.1831641420705168  0.6020398449517188  0.2438587608487452
  0.1598884394761129  0.6460965827164529  0.8987138281998241
  0.0573161504070683  0.7317839958903747  0.5601197628843337
  0.9308424264262598  0.7563554807749142  0.2128159052261935
  0.9090078726266668  0.7908545953368957  0.8956632549967054
  0.8425670722045240  0.8506248180319460  0.5377954429049865
  0.3186243855008186  0.5954690524954174  0.2182749151460115
  0.3087285021242820  0.6414372747582959  0.8671184618275944
  0.2128885119149970  0.7275258230552311  0.5379578671364271
  0.1113880420007405  0.7657120311240107  0.2214866713009016
  0.0772040905352256  0.7669091874406249  0.9028399614166247
  0.9965710204163045  0.8358568202150849  0.5635911058982330
  0.9017231356404594  0.9094781158559044  0.2342772722641229
  0.4362582761386875  0.6531372878237320  0.8762894695012449
  0.3680578616222903  0.7139083827806303  0.5528848349677702
  0.2607521921662794  0.7471433197945032  0.2036383252460681
  0.2138196308495992  0.7726425500407643  0.8837574496027329
  0.1458699129521293  0.8394235349632737  0.5435534128398416
  0.0581128182153137  0.8808090518231637  0.2422335471570776
  0.9933541609221876  0.9210148181884676  0.9014518407484786
  0.9392198122447581  0.9407758862160307  0.5658077279962654
  0.8685815363023934  0.9931876307980545  0.2347831442280039
  0.8055387525996807  0.0324025241940333  0.8910342952760288
  0.7148230424322222  0.0879033886471063  0.5282595909347165
  0.6501353818273898  0.0907994840560420  0.1958183818984196
  0.5808433807256890  0.1518528052847898  0.8780778818089843
  0.4908719712489997  0.2117925837163455  0.5432091377385717
  0.1030544555191923  0.9580591109071221  0.5705496758679587
  0.1350983688068155  0.9779808762792754  0.2323601386646601
  0.2123951852543584  0.0360091147372117  0.8778753480768344
  0.2831596822509468  0.0670023713129169  0.5540918429221904
  0.3522855081696221  0.1250656140170179  0.2297322807438604
  0.4187447392244223  0.1527772508614831  0.8774331187548228
  0.8618854885213381  0.9058706117871154  0.9133313238580669
  0.7674139061028526  0.9697973613992872  0.5521986024848218
  0.7381382343801448  0.0129395862193036  0.2208642073539338
  0.6681204926045510  0.9880526986922007  0.9027505340310356
  0.5712301959199166  0.0822670503432406  0.5672140992344481
  0.4922024934227949  0.1097331074061358  0.2159713088232280
  0.1335990015606541  0.9285784825793115  0.9079430532944173
  0.2169278103966690  0.9720848772629580  0.5467021200477333
  0.2886945088089448  0.9920929715712390  0.2108507430243094
  0.3624197687906374  0.0362752093187950  0.8733222563122567
  0.4359980187371875  0.0726756133719633  0.5850369032766451
  0.7733975465368843  0.8865164732805439  0.2200771422943077
  0.7181409374489007  0.8965869160561439  0.9311838610998535
  0.6417144332613844  0.9691728522691179  0.5670144850681922
  0.5737752069115771  0.0111242503544275  0.2015095636501130
  0.5128803089849612  0.0204623976435272  0.8701981333254807
  0.2018174379234949  0.8674666089517942  0.2087181036180965
  0.2771342094499900  0.8979798796753613  0.8980072841968934
  0.3503906632431111  0.9437182262675563  0.5568034802022481