Li 
 1.0000000000000000
   -10.5278949999999991   18.2348490367503473   -0.0000000000000021
   -18.0478199999999980  -10.4199137352859115    0.0000000000000046
    -0.0000000000000002   -0.0000000000000000   22.0820499999999988
 Li 
 504
Cartesian
  0.5587366700000000  0.1935473900000000  0.4938154400000000
 -10.2277972800000008 16.5394129200000002 14.9987990999999994
 -10.4291761899999997 14.9836342100000000  7.0861747499999996
 -10.9368848500000002 12.9943827600000006  0.2398056700000000
 -11.0012449399999994 11.5266756699999995 14.7056177800000007
 -10.1867922199999992  9.4490346800000005  7.2409533100000001
 -10.2578094800000006  8.0077081799999998 -0.3750373300000000
 -10.4598152500000001  6.1003492899999996 14.6464861200000005
 -10.3791825600000003  4.9338972400000003  7.1264372199999997
 -10.0705038099999999  2.7012712099999998 -0.0542253700000000
 -10.5128507800000008  0.8477457300000000 14.5890422999999991
 -10.6818695600000009 -0.8783838100000000  7.6401994499999999
 -1.4647828800000000  0.5626899500000000 14.9201498000000008
 -1.6752301999999999 -1.1543557900000001  7.9125897800000002
 -11.9368226499999999 15.6780048799999996 -0.0070092900000000
 -12.7419686599999995 14.1844983300000003 14.6477706399999992
 -11.6545431700000002 11.9470607900000001  7.0414643799999999
 -12.3120877800000006 10.2943027499999999 -0.5333789300000000
 -12.2444027700000007  8.5696394900000001 14.3495118000000002
 -12.1046010299999995  7.1127358200000002  7.3506074799999999
 -11.6452541200000006  5.4720809600000004 -0.1806990600000000
 -12.0100691800000003  3.2236134500000002 15.1805367800000006
 -12.0596624899999991  1.8671270799999999  7.4512983100000003
 -12.4574987799999999  0.1413454000000000 -0.2611939500000000
 -3.5357838699999999  1.6766052600000001  6.9331236100000000
 -2.6998735699999998 -0.0319349500000000  0.5272667800000000
 -3.3076077900000000 -1.8542671200000000 14.7123285300000006
 -13.6335976199999998 14.1297530099999999  7.4225221399999999
 -13.7661103399999991 13.6556640599999994 -0.1606996300000000
 -13.7970769900000008 11.3560138300000002 14.8522868199999998
 -13.7289084799999994 10.0538194799999996  7.1718180900000004
 -13.3559685699999999  8.0692072100000001  0.1450886200000000
 -13.6584253199999992  5.6576426299999998 15.0150712199999994
 -14.1111394099999998  4.7239643800000000  7.4345974000000004
 -13.2081406300000008  2.7884031199999999  0.1417808800000000
 -13.9816388800000002  1.1304206000000001 14.1154618000000003
 -4.0124847399999997  2.8152368600000002  0.3011922800000000
 -4.5110764200000002  1.5031106299999999 14.9482091700000002
 -4.6170374299999999 -1.3615752699999999  6.9770572900000003
 -5.0212539200000004 -2.6152038800000001 -0.3929526900000000
 -15.4276296500000001 13.8273646299999999 14.3871520900000007
 -14.9725567500000007 12.5493392299999993  6.8803578500000002
 -14.7791856300000006 10.3885931199999995 -0.2372436900000000
 -15.4770926800000002  8.4968153999999991 14.9086213599999997
 -15.0167675900000006  6.7667330200000002  8.1155662999999993
 -14.5321051699999995  5.0774055000000002  0.7725397899999999
 -15.2199343799999998  3.5956359299999998 15.1176132600000006
 -15.1655638699999997  1.8173811799999999  7.6480865299999996
 -6.0816653100000000  3.7419681900000001 14.6665457900000007
 -6.6787029100000002  1.1766351600000000  7.3632428699999997
 -5.7656722199999999  0.3041704300000000  0.0802187900000000
 -5.7190623599999997 -1.6845867600000000 14.4933211100000001
 -16.6207011300000005 14.5918192999999992  7.3280407399999996
 -16.5720219700000015 13.3075920900000000  0.2106879100000000
 -17.1274611599999993 11.2708621900000008 14.8503745400000007
 -16.7306569600000010  9.0003915400000007  7.3130778599999999
 -16.7635120700000009  8.3163482599999998  0.1036276200000000
 -16.4772670800000007  6.1197117499999996 14.6966293199999996
 -17.2737654300000010  3.9188220399999998  7.6072264599999997
 -16.1446100100000010  2.6966565100000000 -0.1392056900000000
 -7.4646399099999998  4.1203610599999996  7.7078692899999997
 -7.3361793300000002  2.8664727200000000  0.0373636400000000
 -6.9820163400000004  0.9195337800000000 14.8176104399999993
 -7.7235847599999996 -1.2962510199999999  7.5078107500000000
 -7.8626057700000000 -2.1641344800000000 -0.3182348800000000
 -18.5386221999999989 14.3319369099999996 14.4250246999999998
 -18.1371535699999988 12.1672393799999998  7.6344246499999997
 -17.8659053700000001 10.9554619300000002  0.5203955500000000
 -18.2813151199999986  8.7359673000000004 14.8419824100000000
 -18.2000483700000011  6.6091297100000004  7.8485149500000002
 -17.8615283500000004  5.4053109600000004  0.5197873500000000
 -18.4100554999999986  3.4600746099999999 14.7712493899999995
 -8.4796458000000001  5.8936048999999997 -0.1692248700000000
 -9.4388537199999991  3.2299901700000002 14.8977185700000003
 -9.4821030799999999  1.5249027399999999  7.4616464200000001
 -8.7336096699999999  0.4013670700000000  0.4740551100000000
 -8.9543451199999993 -1.5362005500000000 14.5870466800000003
 -8.8924652799999997 -3.6810888099999999  7.8875982899999997
 -19.9028414699999985 13.4492642999999994  0.2260859200000000
 -20.1795677799999993 11.6412870999999996 14.8987914900000007
 -18.9759399500000008  8.8252328500000008  7.8060102100000002
 -19.1532311899999996  8.7673628699999995  0.3031015200000000
 -19.7623800100000011  5.9220474899999997 14.8252641900000004
 -19.9948802400000005  3.4904669899999998  7.6944056400000003
 -10.8272337299999997 -2.2818891600000000  0.0043880500000000
 -11.0683707200000008 -3.9922575800000000 14.4428826299999997
 -20.9876046299999999 11.7228895699999995  8.0332179799999999
 -20.9943834900000006 10.8744638400000007  0.0520412000000000
 -21.7148948500000003  7.9222813500000004 15.0713931199999998
 -21.1459742900000016  6.1887330900000004  7.4705718100000000
 -20.9963645200000002  6.0761679700000002  0.5377263500000000
 -12.3788458899999991 -1.4446289600000000 13.8427926400000008
 -12.6086210800000007 -3.7617464400000000  7.8808099399999998
 -12.0704352600000000 -4.9146309099999996  0.1195079700000000
 -23.0901006600000009 11.0354667800000001 14.5866561899999994
 -22.4166589199999997  8.8296276400000000  7.5482243300000000
 -22.5861188000000013  7.8535230299999998  0.4276733600000000
 -23.0915401799999991  5.9483730899999996 14.6269850300000002
 -13.3327393999999995 -1.1906683899999999  7.4290884999999998
 -12.7780074900000002 -2.4431242399999999 -0.4588974100000000
 -13.5508623499999992 -4.8583260700000004 14.8309400500000006
 -13.5136396199999993 -6.4164376000000001  6.9084999800000002
 -23.8659108099999990 10.4608644500000008 -0.0502259500000000
 -24.6393666099999997  8.4128717900000005 14.3721495699999995
 -24.5519340499999998  6.6031135200000000  7.1732080299999996
 -14.9977699399999995  0.0262321200000000 -0.1614002800000000
 -14.9537981500000008 -1.8467380600000001 14.4681947100000006
 -15.3694577999999993 -3.7776018800000002  7.3369027400000002
 -15.4888863699999995 -5.1996455099999999  0.5729694500000000
 -15.1799666200000001 -7.0908256400000003 14.6983153699999995
 -25.5315580799999999  9.1277368100000000  7.1471837000000003
 -25.1788517700000014  8.2376791399999991 -0.0656904400000000
 -16.7981661600000010  0.6872032000000000 14.8092774100000000
 -16.1950948799999992 -0.9828699600000000  6.6759247300000002
 -15.9628945200000008 -2.2887717200000002 -0.5194475100000000
 -16.5692580800000009 -4.1549844800000004 14.5302877699999993
 -16.5973860699999989 -6.4732627200000001  7.3988554899999999
 -16.2490339500000012 -7.9280319900000000  0.0886740600000000
 -27.6450539999999982  8.7511985899999996 15.2072615500000001
 -27.6293081600000008  6.8871940699999996  7.5470370800000000
 -9.1606688700000003 15.7488099100000003  0.5663128100000000
 -9.6709601099999993 13.7611049800000007 14.1650501000000002
 -9.1578189699999992 12.3309731399999993  7.1006431399999999
 -9.0211148100000003 10.5067547399999999 -0.7225584000000000
 -9.3424912899999999  8.9105993399999992 14.0379243500000008
 -8.3471508199999995  6.7939450800000003  7.0595902800000001
 -18.7059305000000009 -8.8952012400000005  7.7196742599999997
 -0.8630239800000000  2.5865365900000001  0.6578890800000000
 -2.8242695900000001  3.5317766200000000 15.0374007499999998
 -4.9573832700000002  4.2649300700000001  7.2482220200000000
 -5.5154053899999997  5.7042766299999998 -0.5581133300000000
 -7.9217913900000001  6.0949526299999999 14.4801259499999997
 -25.6926896199999995  5.9981550300000004 14.9983832800000005
 -25.8073515799999988  4.3450875699999996  7.4535356999999998
 -7.8450850699999997 13.8645757300000003  0.2275693200000000
 -8.0391499799999995 11.9157939000000006 15.0004261700000008
 -7.3232813099999996  9.9019663900000001  7.0419893699999996
 -7.2561882899999999  7.9992924600000004 -0.7543376000000001
 -18.0423618700000006 -7.1126447300000004 14.6861162099999998
 -19.9612872099999983 -6.2181440600000002  6.9610411399999998
 -3.2820450100000000  5.4139739699999998 -0.3436166300000000
 -4.5214510900000002  6.0107143599999997 14.5183047799999994
 -6.0778984300000003  6.9501888899999997  7.2557303199999996
 -24.4339114600000009  5.4645719699999997  0.1912021700000000
 -24.2209105999999998  3.8957697499999999 15.2289654700000003
 -24.5817181100000006  2.0233477799999999  7.3924884400000002
 -6.0701191999999997 11.0047985500000003  0.2073849000000000
 -6.3741398199999999  8.9680434800000004 14.5585321899999993
 -17.9947134099999992 -5.4316063999999997  0.1664106500000000
 -19.6949335499999982 -4.4410810100000004 14.7271609399999992
 -21.5514423999999991 -3.9714453600000001  7.1641698299999996
 -4.1812070200000004  8.0862683400000002 -0.3084160000000000
 -22.9208492899999996  4.0018107299999999  7.0180546699999997
 -22.3317248500000005  2.9490849200000002  0.2015201100000000
 -22.6648629600000007  1.1424014400000000 14.9256583599999999
 -22.2309169500000010 -0.8295061600000000  7.4594180000000003
 -18.1264376200000008 -3.7543391499999998  7.0350235100000003
 -19.2867265500000009 -2.3938214599999998 -0.5800033500000000
 -21.2524310000000014 -1.1609360300000000 13.9964393200000004
 -21.3325001199999988  3.7197800800000000 14.2229238500000008
 -21.7489985499999996  1.5700580399999999  7.3099878100000000
 -21.0911233699999983  0.0920783800000000 -0.0332577700000000
 -18.3256383900000017 -2.0602475299999998 14.6170216499999999
 -19.2038070099999985 -1.4043667099999999  7.5698304700000003
 -19.4503784800000012  2.7960268099999999  0.4839745300000000
 -19.5141818399999991  1.5092736800000000 14.8179000900000002
 -17.7655960800000017  0.3780089900000000 -0.5306746700000000
 -18.4192854699999984  1.3604823699999999  7.5758178400000000
 -0.0236394700000000  0.6182810900000000 17.5512523899999984
 -10.5564319500000003 16.6032825300000013  9.8043561599999993
 -10.6034619200000009 14.7792367900000006  2.7599768600000001
 -10.7160630399999999 13.2572807499999996 16.8045301599999988
 -10.8898340600000001 11.1731701599999997  9.5209651700000002
 -10.2108887100000008 10.1402667100000006  1.7846146500000000
 -10.8183426899999997  7.8533688499999998 16.7686198200000014
 -9.8901936500000005  6.1205900000000000  9.4428273100000002
 -10.5226754299999996  4.3809722899999999  2.5153611499999999
 -10.8788428300000000  3.0242710100000001 17.4697183500000008
 -10.5176341799999999  1.0861185400000000  9.7626526200000008
 -10.4674863200000008 -1.0173460200000000  1.8767127699999999
 -1.8200223200000001  1.2238156499999999  9.8000562200000001
 -0.9932332400000000 -0.6702009600000000  2.2006443999999998
 -12.1490673299999994 16.1912434800000007 17.1458788200000001
 -12.1546121300000003 13.2948703100000003  9.1599622600000004
 -12.1433938900000005 12.2893755999999996  2.3645627800000000
 -12.0942016399999996 10.4569988600000006 16.9051472099999991
 -12.3490263400000000  8.5803598099999991  9.6891370899999991
 -11.5727554200000000  6.8454560799999999  1.9558941900000000
 -12.2436358700000003  5.3538481500000001 17.5553056900000009
 -11.9552632699999997  3.8602170600000001  9.0309779199999998
 -11.7006773600000002  1.3537657400000001  2.6286299000000000
 -11.8690386199999995  0.2824695100000000 16.5219021099999992
 -2.9047063600000000  1.0347199100000000  2.9606154199999999
 -3.1988524100000002 -0.1955881000000000 17.1633015799999988
 -3.0563104200000000 -1.5429699600000000  9.9633645499999997
 -13.3587208600000000 14.7934228900000004  2.1024579100000000
 -13.2949299399999994 13.3649297499999999 17.2000861299999990
 -13.7825841600000008 11.4795061599999997  9.7337491499999995
 -13.0145600699999999  9.8474956900000006  2.2151280000000000
 -13.9754082499999992  8.0805721800000008 17.2946077299999992
 -13.0478179200000000  6.5046932699999997  9.7989793699999996
 -13.2420373500000004  4.2396269599999998  3.3262306900000000
 -13.8964498699999996  2.4758537100000000 16.8242283800000010
 -13.4635879999999997  0.9561906900000000 10.1423649499999993
 -4.3893112700000003  2.5706632699999998 17.3226785300000010
 -4.8738864199999998  0.2461953700000000  9.4812554700000007
 -4.4359329799999996 -1.3716709100000000  2.4569543399999998
 -15.1688662399999998 15.2953630900000004 16.9788192600000016
 -15.0134860400000001 13.8979714199999993  9.7276561200000007
 -14.7824282300000007 12.3528453599999999  2.5411844800000001
 -14.9086396600000004 10.6268149399999992 16.9628259700000008
 -15.2395579199999993  9.1031532700000000 10.0762879699999992
 -14.5030137900000007  7.4643761099999999  1.9643037200000000
 -14.5258053199999999  4.8874004099999997 17.6463400399999983
 -15.0166157400000007  4.0120922999999999 10.0399360600000005
 -14.3734452400000006  1.5456510000000001  2.4715515699999999
 -6.2967360200000000  2.7555768399999998  9.7313855100000008
 -5.6272970400000002  1.2430105899999999  2.4612428999999998
 -5.8076476100000001 -0.2437042100000000 17.1368399400000015
 -5.8066652100000002 -2.0137320900000000  9.9704207500000006
 -16.9094265499999992 14.3167720299999992  2.4462629400000000
 -16.7510832100000009 13.0161201999999996 17.0144145400000006
 -16.4669102000000009 11.4894380500000004  9.7893689699999999
 -16.1268724600000013  9.9453061399999996  2.2852066500000001
 -16.6581666400000010  7.2587661399999996 17.2671579999999985
 -16.2948420200000008  6.1055229600000001 10.2753417299999992
 -16.1307833100000018  4.2600804400000003  2.9467930700000000
 -17.3651918599999995  2.9407143400000000 16.9297496800000005
 -6.9085722900000004  3.9964612300000000  1.7268878100000000
 -7.1849109699999998  2.5117334800000002 17.3114249800000017
 -7.6758069899999999  0.6160244400000000  9.7800182899999992
 -7.5541046800000000 -0.7874194300000000  2.8500185899999999
 -7.3341563100000000 -2.0642640299999999 17.2533801099999984
 -17.9949785700000007 13.7112898300000001  9.8711862999999997
 -18.0942092700000003 12.1068018800000008  2.5807242900000000
 -17.7137848899999995 10.7323502899999994 17.1847551900000006
 -17.9061097800000013  8.5844071300000007 10.2530860300000004
 -17.5159858600000007  7.2107861299999998  2.7047732199999999
 -18.0508105299999997  5.2539415900000002 17.3631756400000015
 -17.8951703600000016  3.5149532500000000  9.6761714699999999
 -9.4340330199999993  4.9958768100000004 17.1251014499999989
 -8.9733050100000007  3.1423401800000001 10.3307346599999992
 -9.0703003100000004  2.1675911299999999  2.4007572000000001
 -9.0643650600000001 -0.0016157500000000 16.8037236000000014
 -9.1147656799999996 -1.9037499099999999  9.9896851200000008
 -9.3153561600000003 -3.3196577500000002  2.4614685900000000
 -19.5974305099999988 13.5161925899999993 17.1991111600000011
 -19.6939108400000009 10.7377041599999998 10.0197346700000001
 -19.4669542000000000  9.8841680099999998  2.9480149199999999
 -19.6370732900000000  8.0277888199999996 17.1958980600000011
 -19.8277724400000004  5.3703383100000002 10.0150525600000009
 -19.2522715499999997  4.1211818300000003  3.3599560700000000
 -10.1877746100000000 -2.2423152900000001 16.8311707999999989
 -10.4739926499999996 -4.7547023399999997 10.0413130899999992
 -21.2822646700000000 11.4540809200000009  2.3003334999999998
 -20.4045811800000010 10.5532259899999996 17.1970691400000000
 -20.8605656699999997  8.1017308600000000  9.9837885400000008
 -20.2092919199999983  7.5566669700000002  2.9091235300000000
 -21.5619368700000003  5.4719338200000003 16.8174433000000008
 -12.2399748600000002 -1.8959838700000000  9.7868587199999997
 -11.8343569399999993 -3.6028988000000002  2.4171471000000002
 -11.7126912599999997 -5.5924114200000004 17.6245861800000014
 -22.5229461600000000 10.6373947300000005 10.0526518399999993
 -22.0779561000000015  9.5919702299999994  2.4371026699999998
 -22.8442258000000002  7.6228425099999999 17.4524360899999991
 -22.8488855400000013  5.5669416900000002  9.6719092300000007
 -13.3613193100000007 -1.4368156500000000  2.4252957999999998
 -12.9868054999999991 -2.5681111099999998 16.5986515899999993
 -13.7242483699999998 -4.4051393799999996  9.7027557299999998
 -13.2110972199999992 -6.1432555300000002  2.3013659899999999
 -24.0171487200000016 10.1413545299999992 16.8179013700000013
 -24.0722398300000009  8.7552541399999999  9.9035154399999996
 -23.6331552299999998  6.6116810399999997  2.7949608499999998
 -15.6355394899999993 -0.0378978500000000 16.7320884999999997
 -15.5278852500000006 -2.0034326500000001  9.1976034000000002
 -14.9164212799999998 -3.3912516099999999  2.8418123199999998
 -14.6332882099999999 -5.5892739499999999 17.1137896699999992
 -14.9205808199999996 -6.9206724399999997  9.9084591300000007
 -25.3729271899999986  8.8988091199999992  2.5170574200000000
 -25.2530918100000008  7.6777886500000001 17.0326784400000015
 -16.9041637300000005  0.8819138000000000  9.5316316000000008
 -15.9348740099999997 -0.3627090300000000  2.1019372199999999
 -16.2298076699999996 -2.5445945399999998 16.8914089499999989
 -16.8635130400000008 -4.4857831499999996 10.0439070499999996
 -16.6803620200000005 -6.5371452500000000  2.8213938999999999
 -16.4380855699999984 -7.5970068599999996 17.8431677300000011
 -27.3326509699999995  8.8429434400000009 10.0645917300000001
 -26.8303471000000009  7.3312707200000000  2.3120785700000002
 -9.0675924099999996 15.9636282699999992 17.0455362500000014
 -9.3467836200000001 14.0478451500000006  9.8188379399999999
 -8.7964856999999999 12.2183336800000006  1.7594476100000001
 -8.8992571199999997 10.8306249300000008 17.3025902699999996
 -8.9520083800000005  8.7992314000000000  9.6505922099999992
 -8.3492283199999999  7.1594842500000002  1.8879603700000001
 -17.9358329599999990 -8.6221715200000002  2.9672781700000002
 -1.5356910399999999  3.0666277700000002 17.3363896100000012
 -3.3714970100000001  3.5902465200000000  9.4429300499999993
 -4.1655858800000001  3.9525534699999998  2.1998242399999999
 -6.3212593500000001  4.8985397400000004 17.1262663999999987
 -7.2588113700000001  5.6606032099999997  9.8744413499999997
 -25.8837149300000000  5.8532493900000002  9.4572724400000006
 -26.0029870400000007  4.5874748700000003  2.8541214600000000
 -7.4782381899999999 13.7642977999999996 17.4486399299999988
 -7.8042957499999996 11.6359192500000006  9.3279462300000002
 -6.6506071999999996  9.0498309199999998  1.9899321999999999
 -7.8446356100000001  7.9423660299999996 17.1499400599999987
 -18.5634494799999992 -7.0746763899999996  9.7689523600000001
 -19.6147463000000002 -5.9420476600000001  2.2321535300000002
 -2.8948619400000002  5.5973304700000002 17.1238290599999985
 -4.6394756099999999  5.8771251500000004  9.7548723600000002
 -5.5634603199999999  6.3653288600000000  2.4609592000000000
 -24.4577067600000007  5.0520380899999999 17.5114900200000001
 -24.3615015700000015  3.0099987200000000  9.8850569999999998
 -24.2449801299999983  1.9261148699999999  2.3343276799999999
 -24.2315890399999994  0.9571190900000000 16.8672015699999989
 -6.5907546600000000  8.9616177900000000  9.4929750100000003
 -18.1450175300000005 -5.0646235199999996 17.5622648599999991
 -20.1134591200000017 -4.4355104200000000  9.0304292299999993
 -20.4456607499999983 -3.2374592500000001  2.2946897499999999
 -22.6008191899999993 -2.4892254100000000 16.5966455900000014
 -22.4949264400000004  4.0429841299999998  2.4595199100000000
 -22.8139832499999997  3.1952257700000000 17.5283839700000001
 -22.8840477299999989  1.0780611400000000  9.6611165299999993
 -22.3606208700000018 -0.7084057000000000  2.4963639899999999
 -17.3000637600000005 -3.3448597400000000  2.1872604400000002
 -19.4373311999999991 -2.4749727199999998 16.7097813399999993
 -21.4550137200000002 -1.7312881600000001  9.8597522200000007
 -21.3485670100000000  3.5652001800000002 10.1590883000000005
 -20.8820417099999993  1.1101411500000000  2.9615300100000002
 -20.9997159700000005  0.1977915800000000 17.2054849099999991
 -17.8254049099999996 -1.6425141299999999  9.4180334699999992
 -19.3025570600000016 -0.9017034800000000  2.1879171700000000
 -19.8385756899999990  2.7171253100000001 17.4301179899999994
 -19.8732307699999993  0.8936556700000000  9.6742581100000002
 -18.1551602500000016  0.3568437800000000 16.8456680600000013
 -17.7421139399999994  1.7340735100000000  2.2435245899999998
 -0.1929095300000000 -0.5120126800000000  4.9983432199999998
 -10.8239372899999999 16.6565959200000009 19.7472066499999990
 -10.7435133599999997 14.9272820799999995 11.6222640100000003
 -10.3251726399999999 12.5504393600000004  4.9189836700000003
 -10.7023514800000008 11.3444135599999996 18.8991151700000017
 -10.9762048500000002  9.9306644100000003 12.2762376900000003
 -10.1981763500000007  7.8795796600000001  4.5374181800000004
 -10.4137232399999995  6.2902585499999999 19.3381222400000006
 -10.4033225599999994  4.1194092199999996 12.1636346700000004
 -10.7500490699999993  2.7746732399999998  5.1964672700000003
 -10.1040564100000001  0.9324514400000000 20.0426334399999995
 -10.4578511800000005 -0.8000605500000000 12.2819645699999995
 -1.3692454900000000  1.0073476800000001 19.8649464800000004
 -1.4532695000000000 -0.5548691000000000 12.9521375699999997
 -11.9615379799999992 15.1823313300000002  4.6644815399999997
 -11.8275933900000005 13.8047141900000003 19.6250083999999987
 -12.3994370600000003 12.1977873199999998 12.1774993800000004
 -11.3393608399999994  9.8527978800000007  4.5832090100000000
 -11.7611729999999994  9.0112418600000002 19.0249097899999988
 -12.2797870800000002  7.0841057999999997 12.4616206999999992
 -12.1765455700000000  5.8148463000000001  5.3904807100000003
 -12.0272125800000005  3.1569502200000001 20.0321114000000016
 -12.0381632500000002  2.1111405099999998 11.8949514399999998
 -11.5369066500000006 -0.2202849100000000  5.1432792699999998
 -3.3601602499999998  1.7691669299999999 12.5324149299999998
 -3.0254102899999999 -0.2000235000000000  5.1557428800000000
 -13.7174003300000003 16.3628392500000004 19.4958691900000005
 -13.2115086500000007 15.1242088399999997 12.1854309900000004
 -13.0389209099999999 13.0719932300000004  4.8979771100000002
 -13.3659894500000007 11.5282142299999997 19.4349269500000013
 -13.5897493399999991  9.5434475499999998 12.4548827400000004
 -13.6906402400000005  8.0367480800000006  4.6499556499999999
 -13.6109863499999992  5.7724547199999998 20.1448008099999996
 -13.4422389300000003  4.3146254600000002 12.4641346599999991
 -13.1361150400000000  2.6624710399999998  4.9622434300000000
 -13.7202604499999996  0.9605621700000000 19.6399978799999992
 -4.3654292300000002  2.5006471399999999  5.1571856299999999
 -4.3884769199999996  1.1202286200000000 19.5189277499999996
 -4.7403431100000004 -0.4727181900000000 12.9441854799999998
 -4.0243663900000000 -3.4243389000000000  4.5043714499999998
 -15.1945913800000003 13.5423812500000000 19.6161526200000011
 -15.3221000099999998 12.3747508300000000 12.0888720200000002
 -14.4790959899999994 10.5715398700000005  4.7010902100000003
 -14.9732399899999997  9.0281679700000002 19.4563634199999989
 -15.2919300200000006  6.9197291500000002 12.5832841999999996
 -15.3426222200000009  5.5694911600000001  5.3981454900000001
 -14.9519676199999996  3.6843262000000001 19.5470515999999996
 -15.6659005300000000  2.1035551099999998 12.3704987600000003
 -5.8150750200000001  3.5382955699999998 20.3173863799999985
 -5.8438599499999997  1.3829002900000000 12.6629784000000001
 -5.5436960400000004 -0.4821468100000000  4.7171706999999996
 -6.6757567099999999 -2.1308072199999999 19.6235790200000011
 -16.6815697100000015 14.8840765099999999 12.3147829899999994
 -16.3872388399999984 12.7401467900000007  4.9100892500000004
 -16.8921655900000012 11.5299938100000006 19.8617245699999998
 -16.5917780499999985  9.3394331200000007 12.5120718300000000
 -16.2837999700000005  8.1119625400000004  4.5412129200000004
 -16.1780361399999997  5.7641404600000001 19.7953163100000005
 -16.7784161599999990  4.2168558799999998 12.9643479500000005
 -16.0741786600000012  2.3505913199999999  5.0154923000000000
 -7.5336443600000003  4.5421870100000001 12.6630745900000008
 -7.2891061300000004  2.2730325800000002  4.5050791800000001
 -7.4864478800000001  0.6180731400000000 19.5976049400000001
 -7.4726878399999999 -1.9346526300000000 12.3960053200000004
 -7.5329506500000001 -2.8476468800000001  4.9970046200000002
 -17.7071471500000008 14.3766947199999997 19.4760387299999991
 -18.1408535200000003 12.0518318499999992 12.3606670300000001
 -17.7299440600000011  9.9271621799999998  5.2001988600000004
 -17.6727115499999989  8.6132568200000001 19.7768522900000008
 -18.6849278100000014  6.9364074100000002 12.5107348700000003
 -18.1098374500000006  5.1241492600000003  5.4439208399999997
 -18.2168347100000005  3.8244278000000000 19.7855507700000004
 -8.7443618099999991  5.1066516300000000  4.0895612100000003
 -8.8440241000000004  3.3847527300000002 19.6606725199999985
 -8.9144118100000007  1.7151471899999999 12.5422176800000003
 -8.7201742899999992 -0.0324662500000000  5.3031638799999996
 -9.0417376100000002 -2.0556252100000001 19.9750933300000000
 -9.4084260700000009 -3.7431847800000000 12.1737479799999999
 -19.1917397500000000 12.7057359699999992  4.9337408199999997
 -19.4730991600000003 11.7755399700000005 19.3353087099999996
 -19.6856483100000013  9.7191300799999993 12.7802652400000003
 -19.3345470699999993  7.4411887800000001  5.2619880700000001
 -19.3985820699999998  6.0734729900000000 19.7403591399999989
 -19.5296417099999999  3.8004484399999998 12.3163119099999996
 -10.3051293600000005 -3.0225144700000000  4.8111506799999999
 -10.3413346599999993 -4.6152120200000004 19.7680353199999992
 -21.8074883899999996 12.1768072800000002 12.4336422100000004
 -20.6843384700000001 10.2673185700000005  5.5897936000000001
 -20.5580518699999999  9.0375709900000007 20.3740119899999996
 -21.6961078000000001  6.6156340100000000 12.3426361900000003
 -21.0401620499999993  4.2091933399999997  5.2444251800000004
 -12.0229028899999992 -1.1314220300000000 18.9049498199999988
 -12.4563194799999994 -3.5422424200000000 11.9555905599999992
 -11.8230370400000009 -5.8860672799999998  4.8405316999999997
 -22.6998433099999986 11.2344424400000005 19.6129663200000017
 -22.3534049599999989  9.1080439299999991 12.3787887899999998
 -21.8270503399999996  7.7326966600000002  4.7854816700000002
 -22.8694119200000010  6.4320290499999997 19.8431664800000007
 -14.1989029799999997 -0.8183195200000000 11.7070552299999999
 -12.7938396099999991 -2.9332327700000000  5.3849013499999998
 -13.3439235299999996 -3.8167290999999999 19.8454436899999997
 -13.8105242500000003 -6.5799747599999998 12.3685926100000003
 -23.4503789000000005  9.0926122599999992  4.6994114600000003
 -23.8431408199999986  8.3349846700000008 19.7780807799999998
 -24.2223812699999996  6.5006461399999997 11.8756258599999995
 -14.1013623500000005 -0.3946685900000000  4.8199575899999996
 -14.8268057300000002 -1.0541034400000000 19.1477532299999993
 -15.3715229999999998 -3.6987664400000000 11.8792125199999994
 -14.9921145199999994 -5.9475091800000000  4.8908797499999999
 -14.6538355300000003 -6.5833226399999996 19.9365571700000004
 -25.5771884999999983  9.4627661500000002 12.4452469800000003
 -25.9073438200000012  6.9661017400000000  5.1733224399999997
 -16.3805855300000012  1.1494696099999999 19.3502678800000005
 -16.7593645100000010 -0.7273842200000000 12.2088305699999999
 -16.2294798500000006 -3.0303920799999999  4.4967516800000000
 -16.1955842899999993 -4.1519000300000002 19.5151761899999983
 -16.6854679899999994 -6.0868049800000001 12.0027736399999991
 -16.5084888700000008 -8.1182758699999997  5.3490133000000002
 -27.0802379600000016  8.5167682100000004 19.9059046200000012
 -26.8669614199999991  7.3237279099999997 12.4941945400000005
 -9.0213868000000002 15.9094374900000002  5.1844931299999999
 -9.0654223300000005 14.3512460399999995 19.6758638599999998
 -9.1120464699999992 12.1187445399999998 11.6650547000000007
 -8.4832897799999998 10.9089977499999993  4.3240713000000000
 -8.8556702200000004  9.0092982300000006 19.3897596900000018
 -8.9902429999999995  6.7441158400000001 11.9951713400000006
 -18.3758248699999989 -8.1037108500000006 12.5989064699999993
 -1.0249042600000000  2.6929357299999999  5.1309882000000000
 -2.8859602299999998  3.4977822700000001 19.3852873300000006
 -4.1903221400000001  4.4652151299999998 12.2354837799999991
 -5.9659865300000003  5.1207001500000002  5.0729597100000001
 -7.1657969699999997  6.0438213300000001 19.3755220000000001
 -25.4228296699999987  6.2772581399999998 20.1682279599999994
 -25.5819812400000011  3.8884718800000000 12.1936771499999992
 -8.0045731500000006 13.3250098999999995  4.8771344699999997
 -6.8182796500000000 12.3075661699999994 19.9345824299999990
 -7.4985924400000004  9.5590808200000001 12.5252500999999992
 -7.1622995400000002  7.8318286500000003  4.7690892399999996
 -18.1653335700000014 -7.2395500600000000 20.0492439000000005
 -19.8278061000000001 -6.1733946900000003 12.0723035500000009
 -2.8966408499999998  5.3466913399999996  4.6560166499999998
 -4.4702057200000000  6.2306852199999998 19.2847457300000009
 -5.9017777499999999  7.1930844299999999 12.9188141499999993
 -24.1419378999999985  4.8653623300000000  4.8597544600000004
 -23.7419516600000016  3.7528332600000001 20.5624485800000016
 -24.2473593600000008  1.6028682999999999 12.5208422099999996