Li                                      
   1.00000000000000     
    22.7325000000000017   -0.0000000000000006    0.0000000000000000
    -0.0000000000000006   22.7325000000000017    0.0000000000000000
     0.0000000000000006    0.0000000000000006   22.7325000000000017
   Li
   500
Direct
  0.0067727240734641  0.0149856711756300  0.0033927957769748
  0.9805487957769685  0.1027936900912820  0.1079827559661268
  0.0058407429891147  0.2292131573738061  0.2103199846035437
  0.0188768947542073  0.3088210205652686  0.3240464220829224
  0.0228587172550334  0.3905499223578559  0.4121511703508176
  0.0056643787528898  0.5071541955350298  0.4953509218079830
  0.0029644231826680  0.5843395838557157  0.5985594549653612
  0.9885638161222943  0.6833391131639743  0.7119189398438337
  0.0049395222698791  0.7772629750357396  0.8208922863741321
  0.0089763374023946  0.8892275279885595  0.9183750392609724
  0.0897781774991770  0.0270626930605928  0.1053607720224363
  0.1062090579566686  0.1163125696689775  0.2005192460134140
  0.0989649875728560  0.1976485855053340  0.3372177024084451
  0.1248107383701722  0.3082927755416236  0.4267686642472199
  0.0848731732101626  0.4107642709776727  0.5069188342681201
  0.1249549354448476  0.5299634879577724  0.5970982126910798
  0.1037608208512069  0.6125713300340934  0.6988948228307521
  0.1040423398218380  0.6834561469262042  0.8245298040250759
  0.1115095075332704  0.7949942144506750  0.9160314558451574
  0.1076072966017847  0.9017596221269102  0.0170996216870094
  0.2095982232486548  0.0016832402947315  0.1785503160673017
  0.1827841882766990  0.1032026314747583  0.2993207663037509
  0.2050939478719869  0.1960942927526688  0.4001894609039951
  0.2013684104256015  0.2855381761794789  0.5023838702298491
  0.1954475433850220  0.3922982558011654  0.5861609682173068
  0.1829102531617721  0.5053737758715471  0.6972659826239962
  0.2007819623886533  0.5996615625206232  0.7812291710106649
  0.1895613680853430  0.6873752490927103  0.8997917791707906
  0.2113956476410408  0.7852684781700177  0.9959561759595275
  0.2103580881997118  0.9084504827889575  0.0840829336852522
  0.2841930755526221  0.0056130799516083  0.2819968463653382
  0.2819610993071606  0.0915660085780274  0.3863094384691550
  0.2906716155284315  0.2081838376773320  0.5099616896513766
  0.2858924152644917  0.3101091630924913  0.6035007293522483
  0.2917726061805794  0.4219516845925426  0.7007678130430008
  0.3035220811613328  0.5106066561090969  0.8077540046189355
  0.2863837545364589  0.6184262333663284  0.9179677083470779
  0.3032146037611341  0.6827053500494884  0.9965906209171891
  0.3037013856812933  0.7757595882547008  0.0990768529638189
  0.3034227467282520  0.9106303024304410  0.2048417978664929
  0.3960552099417143  0.0099840558671502  0.4135586926206969
  0.3886027621247123  0.1005462505223775  0.5162193133179400
  0.3979177846695237  0.2132884025074233  0.6085359832838435
  0.3926110687341904  0.3022668531837667  0.7104561640822595
  0.3839822610799501  0.4030407856593001  0.8102776192675663
  0.4098123901902540  0.4941590775321671  0.9175437518970639
  0.4018089493016603  0.5809583134279137  0.0091274664027239
  0.4006790181458300  0.7190271501154726  0.1097388786978968
  0.3958727148355905  0.7979359991201989  0.1958041280105576
  0.3773586064005272  0.9342740640052796  0.2966174485868223
  0.5011600061585852  0.0120873590674151  0.5172607170350787
  0.5069666358737521  0.1159524838887052  0.5968572537116472
  0.4838517919278544  0.1912794373694027  0.7103849277466168
  0.4905529075112725  0.3028213597272611  0.8060908003959071
  0.5001853518090869  0.3964492563510404  0.9294103926096966
  0.5076668914549671  0.5012861423072721  0.0146337314417693
  0.4990122133509303  0.6019333130979874  0.1048867709226897
  0.4965594835587837  0.6967338075442626  0.1731125322775782
  0.4709102623996486  0.8160459456724922  0.2930466433520280
  0.4771008305289755  0.9184152139008006  0.4050847487078002
  0.6298747933575299  0.9994265826459880  0.5809824453975594
  0.5967546943802944  0.0918390894094330  0.7024452150005516
  0.6286911501154719  0.1997372449136705  0.7898935211701286
  0.6133407702628375  0.2907604671725537  0.9109724803695158
  0.6004911039260961  0.3644159516111287  0.0153753577477147
  0.6056777494776213  0.4837760026393951  0.1042149649180715
  0.6110109886726036  0.5832397079071825  0.2136717109864747
  0.5738278922247915  0.7164517237435390  0.2880941603431211
  0.5815992376553396  0.8109601029363276  0.3949835284284617
  0.6116318719894451  0.9054731622126937  0.5166632468932164
  0.7171441856373022  0.9905349244473740  0.6872180679643662
  0.7037107630045085  0.0945599247773004  0.7754890531177807
  0.7196183314637636  0.2105238601121755  0.8785743112284194
  0.7240517712526113  0.2918425175409638  0.9877586864621151
  0.7048806924007494  0.3807177886286155  0.0947992328164489
  0.6910677914879599  0.4757470190256257  0.1995900697239605
  0.6800540842406235  0.5989550810513578  0.3033793449906526
  0.6932178590124281  0.7101862025734107  0.3972852418343749
  0.6847888146926238  0.7841102483228823  0.4823817208841987
  0.6967266424722283  0.8760414050368439  0.5967739175189735
  0.8046592306169558  0.9928998398768272  0.8018602991311994
  0.8020580591663915  0.0965425298581337  0.8788789649180657
  0.8104600527878603  0.1931888353678630  0.9963614239524929
  0.8150285441548419  0.2972284830089080  0.0891884610139684
  0.8135876322445839  0.3868692031232825  0.2093215343670920
  0.8021692132409513  0.4884782813152952  0.3066559978005046
  0.7858467220939218  0.5917698238205205  0.3874526167381518
  0.7957778466952590  0.7043923831518768  0.4923019074012984
  0.8065405366765646  0.7786669882327075  0.5795728578027024
  0.8031415062135707  0.8897530205652728  0.6883774512262164
  0.8879077140657614  0.9939905676894298  0.9149725063235437
  0.9083378546134355  0.1181720857802731  0.9921284420983199
  0.8934933496095923  0.1952318196414851  0.1093680523479605
  0.9003758227207754  0.2899692422742746  0.2092196128890365
  0.9245921583635734  0.3933908655009333  0.3009836216870099
  0.9172703706147587  0.5030806805234818  0.4046247390300266
  0.9129262043330044  0.6151313797426567  0.4768287812603091
  0.9018962749367674  0.7022564055867164  0.5907593920598231
  0.9164468571428586  0.7841913630265012  0.7084704308808938
  0.9068294732211584  0.8925531525349157  0.8064766880017586
  0.1131330605960628  0.1095608028153521  0.9905634558451553
  0.1089564456175083  0.1908371595732987  0.1005040307929193
  0.0970830229847124  0.2938403554382489  0.2054769818541757
  0.1057773812823015  0.4006381774991752  0.3229506547894019
  0.1102753251952038  0.5038924882876969  0.4133891648520844
  0.1064083211261391  0.6160680800615879  0.4980702773562058
  0.1143718618717671  0.7033283893104567  0.5988666737050465
  0.1179569075112710  0.7886604020675279  0.7043597835697781
  0.1052778189816337  0.9137871342791186  0.8341244922467865
  0.1085648894754172  0.9786916476410426  0.9206883906301542
  0.2093398258000647  0.1040150542175269  0.0848570069284094
  0.2012532317167057  0.2109502368855161  0.1932586437919284
  0.1954727922577817  0.2997765639502887  0.3072657164852117
  0.1937286215770371  0.4012044350599382  0.4203587396898740
  0.1977693619267598  0.5165340028593448  0.5129699813043018
  0.2075758332783479  0.6320846844825709  0.5981834188936546
  0.2251994149345649  0.7002219047619036  0.7043199129000328
  0.1842039120202372  0.7930508839766830  0.8132124535356837
  0.2056810284834469  0.8912918433960186  0.9229606281755167
  0.2037949952710889  0.9973535484438543  0.0082880519080604
  0.3009846976795316  0.1128146393929370  0.2115529237875293
  0.3043143970086888  0.1598559555702224  0.2857876168481255
  0.2945262175299703  0.2849979496315882  0.3944029706367544
  0.2977652726272950  0.4013832310568546  0.5056328186517121
  0.2819073419113636  0.4995728503244266  0.6020051045859418
  0.3014047689431436  0.5881840404706935  0.6963027687231929
  0.2953290232046655  0.7095369941713372  0.8038022474430875
  0.3060561469262097  0.7723922230287030  0.9157949064115272
  0.3189585500934768  0.9125469011327425  0.0031439419333523
  0.3147345879247752  0.0258149411635316  0.1090734952161014
  0.4112199098207441  0.0692698308589001  0.3259855022544826
  0.3801965247992953  0.1915570861101941  0.4164341959749223
  0.3607839208182142  0.2931774912570120  0.5257123259650314
  0.3951764702518403  0.3913453896403851  0.6236295669196110
  0.4055947150555355  0.5039322784559559  0.6983853271747478
  0.3843567874188949  0.5826956982294078  0.8282562058726484
  0.4179432878038085  0.6826051147036196  0.9116631690311223
  0.4055281658418579  0.8119699346750266  0.9845745989222507
  0.3860531243813909  0.9101378176619406  0.0791781374683822
  0.3848946640272715  0.0039017626745874  0.1891099791048063
  0.5193144832288539  0.0873293201363694  0.4069070313427900
  0.4963229438029231  0.1984845160013222  0.5049997026283961
  0.5074184427581656  0.3022448767183548  0.6011611617727937
  0.5045676815132509  0.4104487711426401  0.7191507075772563
  0.4956531538546116  0.4967444618937620  0.8248792442538218
  0.4952720998570328  0.5917166255361295  0.9097401961948748
  0.4735897406796425  0.7115391672715248  0.0389589873529061
  0.5057844165841843  0.8258308369075138  0.0956247597052666
  0.4742172501924529  0.9115066129990126  0.1901102909930685
  0.4753000717035079  0.9970227066974573  0.2931138370174864
  0.6010650575167702  0.1165040769822951  0.4924527209941729
  0.6262694855383231  0.2064968089739381  0.5941418942043342
  0.6160991131639690  0.3062139725063204  0.6996332449136702
  0.5821205133619287  0.4031926497305633  0.8241851063455385
  0.6017259452325945  0.5106826094798222  0.9157848573628087
  0.6166114892774672  0.6070183077092253  0.0100085551523179
  0.6010613034202166  0.7077377200043955  0.1095427440888628
  0.5758073639062999  0.8129389530407991  0.2051747546464284
  0.5654274404486941  0.9144611410975472  0.3042632574507849
  0.6206627044979669  0.0006926972396357  0.4056351567139558
  0.7185848938744073  0.1004939549103696  0.5922580032992428
  0.7165356397228635  0.1936548734191135  0.6969293478499949
  0.7265977090069313  0.3139730733531252  0.7863949860332156
  0.6921354219729494  0.4128288036951488  0.9156448476850301
  0.7005009686572095  0.5075543578576927  0.0109119036621550
  0.7074388052347942  0.6004993634664046  0.1128643673155167
  0.7002956608380089  0.6924061418673730  0.2027210060486055
  0.6891802533817213  0.7979841939953829  0.2897685780270507
  0.6924705478939828  0.8829166730452016  0.3920526435719793
  0.6950412739469911  0.9782135466842590  0.4842339923017676
  0.8152374010777521  0.0969256113493913  0.6929399617288041
  0.8077781585835240  0.2103243483998654  0.7797368731991625
  0.8158086532497535  0.3209129449026733  0.8729067053777655
  0.8199820807214309  0.4145274303310273  0.9952169576597356
  0.7980000461893795  0.5066036027713636  0.1042327825800058
  0.7951778546134420  0.5943744590344195  0.2200456465412941
  0.8119497499175168  0.6918370456395024  0.2997273779830607
  0.7783999516111280  0.7798255867150559  0.3938310665346947
  0.8018928929946085  0.8828408753986565  0.5002138185417380
  0.8019208437259451  0.0050463376223462  0.5876662412845022
  0.9016401662817586  0.0889998618717698  0.7857458647311120
  0.9040846699659113  0.2124655519630494  0.8728045309578789
  0.8987279102606394  0.2877187801605601  0.9881194140547649
  0.9009521530847877  0.4017163923897513  0.1020664370394826
  0.9034675671395576  0.4947218466952634  0.2062564121851977
  0.9244288991531917  0.5976182082920900  0.3084627374903803
  0.8877179610689510  0.6978682415044517  0.3890921363686317
  0.9363489462223669  0.7870241829979108  0.4831421546244385
  0.8936929347850011  0.8787661603431189  0.6143229961508823
  0.9159037466182767  0.9959523857912700  0.6937315108325066
  0.0100359788848579  0.1055205652699911  0.8873252435939705
  0.9876756260860020  0.1999119392939619  0.9940324825690112
  0.9983204874078950  0.2960493346530271  0.0922419373144194
  0.0008872398548334  0.3894165269987937  0.2019491129440212
  0.0144042265478959  0.4937693834817978  0.3203327451886082
  0.0216162885736253  0.6284797329814111  0.3914215198504323
  0.0059739139997816  0.6947160307929181  0.5005771644121850
  0.9993210689541385  0.7871284354998380  0.6149660151765062
  0.0094304115253507  0.8863470265039055  0.7075247654239547
  0.0112163831518757  0.9915501906961381  0.8117977890685140
  0.1799395425052239  0.1903277782909925  0.9996713053997581
  0.2106419483118884  0.2837707854393514  0.0827919665676902
  0.2137902157703735  0.3909302870339815  0.1851064867480474
  0.1910483686352151  0.4940288248102931  0.3107750938084237
  0.2058568283294875  0.6124067533267379  0.3951095374463875
  0.2062264269218090  0.7016201821181127  0.5027233982184072
  0.2118283158473560  0.7827994488067773  0.6078230898493331
  0.1842791259210372  0.8934013408116144  0.7012393903002305
  0.1913255286484130  0.9763784695919924  0.7985435077532159
  0.1906260318926627  0.0792006792037796  0.8703968877158275
  0.2973208010557542  0.1973631751897074  0.0934229314857618
  0.3002843220059361  0.2895490808314065  0.1904404636533599
  0.3017189358847432  0.3866291498955263  0.3174697318816655
  0.2986160651050227  0.5079736333443279  0.4191601610029707
  0.3171430678543956  0.6150333606070575  0.5160892598702276
  0.3213641324095491  0.6864296399428156  0.6017200950181447
  0.2895797571758507  0.7998875732981432  0.6764416852523922
  0.2813300274936736  0.8852054987352886  0.7770970478389998
  0.2878209796546827  0.9850768652809876  0.8793430867700422
  0.2898614521060168  0.1024182184097668  0.9784134094358308
  0.3797798565929824  0.1838128622016910  0.1874388157923690
  0.3770099689871316  0.2721077387001003  0.2909967412295202
  0.3882336373034221  0.3971871443967885  0.3948634593643447
  0.4092397888485664  0.4958244922467827  0.5034205806664431
  0.4049816790938081  0.5907451846475311  0.6053550577367233
  0.4102376548993760  0.6886281038161215  0.7250068281095352
  0.3616866794237339  0.7754060257340782  0.8122782791158016
  0.3968430339821865  0.8919498968437267  0.9032183543384988
  0.3891694274716784  0.0051196749147664  0.9866068549433606
  0.4070236911910285  0.1122534340701620  0.0688361988342692
  0.4879413614868611  0.1700978374573836  0.2854682771362604
  0.4899514527658653  0.2675961055757199  0.4180604205432772
  0.4919783477400230  0.3850231791487957  0.4854032592103792
  0.5028394017376030  0.4912171833278336  0.5966868272297390
  0.4831825417354025  0.5848718323985480  0.7295504511162463
  0.4999737494776184  0.6925137763114506  0.8116167284724511
  0.5046279951611155  0.7985911092048852  0.9060144638733121
  0.5096670234246119  0.9236054538656120  0.9910918407566243
  0.4734865236995489  0.0195553023204695  0.0741987247333142
  0.4819317862091737  0.1144061167931341  0.1920816109094901
  0.5917706050808320  0.2112727636643541  0.3888436832728459
  0.6063863028703409  0.2963065954030597  0.5108001310898516
  0.5888603448806791  0.3996587440888604  0.5886582179698649
  0.6188630053887607  0.4983486004618953  0.7195401165731852
  0.6025219628285470  0.5817237976465393  0.8081812840646663
  0.5862537525569138  0.6977430427801607  0.9124971679313774
  0.5909216324645357  0.8134049985703271  0.0136013909600763
  0.5913898220609255  0.9192614657428777  0.1155572981414252
  0.5728546543494986  0.0040611472561309  0.2070023512592130
  0.6058603831518781  0.0685035090729116  0.2973396806334563
  0.7131493210161679  0.2282197219839404  0.5017363721544044
  0.7245857802705373  0.3034645450346432  0.6161600602661395
  0.6965613249752565  0.4314045987023007  0.7025701647421059
  0.7159468193115615  0.4983462971516559  0.8178065386561073
  0.7037273612669068  0.6044285696689755  0.9056275227097785
  0.7092365916639167  0.7113879445727491  0.0188468355878157
  0.6861003734740976  0.8206598671505532  0.1046873326734854
  0.6832082252281992  0.9229610795117154  0.2088614644231797
  0.6932051138238222  0.9949224867480453  0.3118632240184738
  0.7188538009457801  0.0944626662267680  0.3865601403277239
  0.8142362032332571  0.2110710282634969  0.6006898378972849
  0.8243618035851767  0.3199113238755089  0.6981729295062138
  0.8020844047069176  0.4196506547894003  0.7950064229627216
  0.7934844658528561  0.5002832574507892  0.9141137604750895
  0.7989877928076510  0.5947744431980624  0.0055636586385148
  0.8037884135048969  0.6936060772022401  0.1061229028923378
  0.8074592891235000  0.8056057446387328  0.2011670476190446
  0.8081595772572285  0.8994929264269231  0.2833035680193561
  0.8023629121302065  0.9898586561090923  0.4026310867700431
  0.8169965379962605  0.1000255079731645  0.5169114017376018
  0.9107560048388876  0.2115578308589008  0.6864176980094570
  0.9137883444407819  0.2971516318046881  0.7896575194105324
  0.9110988382272041  0.4193834144946678  0.8838721112944015
  0.9155853342131337  0.5099411384581529  0.0042360879797627
  0.8848690979874618  0.6001528525239195  0.0974221119542520
  0.9090839172990215  0.6971829921917987  0.2049384348399883
  0.9092867581656208  0.7877507467282499  0.2986708589024545
  0.9109460125371172  0.8947338581326321  0.4022055348069955
  0.8932862175299690  0.9724695933135408  0.5018348888155728
  0.9170507110964508  0.0882153040800588  0.5987055581216296
  0.9986061189926332  0.2018347414494670  0.7960342694380316
  0.0232664550753299  0.3128482335862728  0.8903851287803803
  0.9906076335642808  0.3945564755306279  0.9986309169690983
  0.0048265272187393  0.5072982808753963  0.1040609369844958
  0.0089288731991672  0.5938395403057299  0.2089693874408880
  0.0252803052897832  0.7261890262839543  0.2848989266468678
  0.0304280941383510  0.8033082195095105  0.3771815818761652
  0.0052693478499961  0.8886271355988100  0.5066764896073934
  0.0018220494886165  0.9677941757395772  0.6097344220829228
  0.9926877474980742  0.0794320153964563  0.6841292660288119
  0.1013578766083825  0.1956019047619080  0.8985401068954175
  0.1058082986913007  0.3039078570328826  0.9939251410975487
  0.0971423451006288  0.4169888630814924  0.0917739069614001
  0.1064871452765885  0.4806091600131950  0.2212729686572104
  0.1158502909930732  0.6054339122401871  0.2933491133839183
  0.1208762067524489  0.7022579804245055  0.3874364627735645
  0.1054634334103142  0.7964633762234712  0.5041548914549665
  0.1121379650280403  0.8736891802485403  0.6138033612669105
  0.0727017983063902  0.9871094494666224  0.6898044838887074
  0.0800757866490684  0.0828720699439103  0.7850431980644430
  0.2976685058836495  0.2866166224568332  0.9783020890795129
  0.3075951760695048  0.4058816812933017  0.1001695981524264
  0.2944197730122085  0.4922565146816211  0.2068569620587297
  0.3010355741779378  0.5930780257340800  0.2889353709446851
  0.3252982742769177  0.6996377266028802  0.3931997844495783
  0.2994261515451413  0.7758711848674835  0.4961240866600676
  0.2888043013306927  0.8962975246893237  0.5892456043110101
  0.2923236494006360  0.0026290342021369  0.6898354140547696
  0.2918180930386001  0.0951321253711654  0.8194797131859701
  0.2696036124491386  0.1908187286923990  0.8924270058286581
  0.3921382012537151  0.2919325705487736  0.1095680070383835
  0.3745315293082569  0.4022006664467170  0.2098531292202779
  0.3841076062905557  0.4900951131639744  0.2874433225558093
  0.4199526105795641  0.5876742962718566  0.3942723800725858
  0.4040719546904228  0.6958730161662814  0.4882610421203140
  0.3987756674364888  0.8065768063345402  0.5998656949301662
  0.4075685234795969  0.9014758332783472  0.6851725692290742
  0.3958062276476397  0.9968472583305825  0.7877350322225922
  0.3911485419553529  0.0971376601781557  0.8741404460574103
  0.3887556832728478  0.1904781792587684  0.9755259654679449
  0.4755834545254558  0.3025955508633018  0.1930553441108529
  0.4837103873309161  0.3861904568349246  0.3326998649510600
  0.4929429952710862  0.4948559485318356  0.3893515099527107
  0.4894608890355201  0.5910776610579589  0.4858508087539875
  0.4927838394369317  0.7031334155944151  0.6210993801825566
  0.4882406884416568  0.8034552614098729  0.7104498651710074
  0.4780686822830731  0.8775059280765447  0.8032633612669073
  0.5192161104146038  0.9857452268778175  0.8833023732541534
  0.5066434136148672  0.1133770104476000  0.9632809902122546
  0.4869130592763682  0.2054720703838129  0.0873596375233703
  0.5835915337072493  0.3024118948641785  0.2833954523259621
  0.5873140657648719  0.3887726294952145  0.4103134380292559
  0.5789375172110383  0.5027975088529644  0.4820459342351242
  0.5854329981304289  0.5873918957439770  0.6024613166171804
  0.5916109895524002  0.6914263310238624  0.7095108052347925
  0.5921366444517773  0.7799639722863745  0.8108603404816890
  0.5977849515011542  0.8748538194215314  0.8824192754866402
  0.5919462175299657  0.0084409642582202  0.9956113898603292
  0.5978172752666921  0.1014962173100216  0.0906886910810485
  0.5894844020675265  0.2148298572528304  0.1878273533487302
  0.7173392011437372  0.3019808666006796  0.3963619835037946
  0.7059489405036814  0.4081691727702648  0.4802542038931037
  0.6832316071703488  0.5152514822390870  0.5954268395469029
  0.7259356340041805  0.5920469996700746  0.7060320131969675
  0.7025740952380986  0.6833003118882672  0.7949244847685009
  0.7006997862091708  0.8041763233256347  0.9026592992411722
  0.6837110163862334  0.9066625905641672  0.9928975075332644
  0.6932596445617492  0.0143796933905236  0.1096618484548557
  0.7018128454855415  0.1003821854173523  0.1947370913889799
  0.7350798975035744  0.2003934828989316  0.3049261796986684
  0.8149252466732619  0.3285018027053752  0.5111089919718452
  0.7898012779060792  0.4189226908611019  0.6112487553062778
  0.8073212647091168  0.5119878715495432  0.6959100156164055
  0.8036192697679567  0.6173026877818089  0.8181009004728921
  0.8072753326734841  0.7059497116463191  0.9107011837677348
  0.7878996291652953  0.8113890069284082  0.0243178260200168
  0.7935560263939294  0.9249257076872297  0.1159900380512511
  0.7972484328604423  0.0201360307929193  0.2107930425602120
  0.8203722463433394  0.1061245085230382  0.3138001548443867
  0.8138820833608236  0.2095318389970302  0.4153836476410433
  0.8896471567139557  0.3352700235345836  0.6054978405366782
  0.9191414107555289  0.4134069873529072  0.6786546913009985
  0.8946279780050617  0.5143508118332818  0.7922119494116373
  0.9000440958979468  0.5927900789618405  0.9049368001759603
  0.8888133377323229  0.6984362766963628  0.0198475425052251
  0.8793958887055950  0.7993191549543610  0.0978171015066565
  0.9191280470691723  0.9050725872649323  0.2060663327834575
  0.9153571894864214  0.0089650280435478  0.3097186600681852
  0.8905262030133088  0.0845000149565607  0.4205411749697561
  0.9061977758715472  0.2098778915649433  0.5109483857912664
  0.9976879076212484  0.3052344304409971  0.6649504757505795
  0.0019820367315546  0.3963469209281882  0.7858928173320123
  0.9933282569009094  0.5196538708896981  0.8742651930056056
  0.0031890218849639  0.6018480686242142  0.9981175612009210
  0.0008279784449599  0.6862389376443403  0.0889511012867032
  0.0036583939293990  0.7928933623666552  0.1908549064115235
  0.9864278165621911  0.9108390159463298  0.2935323149675568
  0.0181822153304765  0.9796287416694156  0.4244673995381092
  0.9867678623116660  0.0859411780490476  0.5101916230067118
  0.0018168424062495  0.1930524394589241  0.5798030709336857
  0.0901242868140315  0.3280785624106457  0.7690938093038611
  0.0804204913669864  0.4007118411965251  0.8928173764434177
  0.0976683206862390  0.4839756696359814  0.9749571762894504
  0.0954183217859921  0.5945209193885432  0.0832050588364694
  0.1154521649620577  0.7023237954470503  0.1931290469592000
  0.1226248547234121  0.8058475169910935  0.2732348769383037
  0.1059410680743440  0.8960278359177423  0.3711331371384574
  0.1171265351369186  0.9841218312988005  0.5163980574067963
  0.1081514435279871  0.0813946926206981  0.6032045454745401
  0.0850696597382594  0.1919236498405397  0.6848937947872002
  0.1753863244253822  0.2973417943472967  0.8908319181788187
  0.2042978559331345  0.4145112724073456  0.0129096095897978
  0.2110010020895174  0.4923368868360285  0.0962752658088633
  0.1901161108545040  0.5922595068734182  0.1864869152094997
  0.2104448221708992  0.7007548976135496  0.3002211032662458
  0.2118588501044769  0.7926851199824014  0.4025338268998127
  0.2102170685142397  0.8878656953700670  0.4731020310128642
  0.2072466099197214  0.9922018053447701  0.6184082547014214
  0.1830638442758143  0.0845951158033671  0.7042759621687011
  0.1814197417793935  0.2080854085560304  0.8054708558231596
  0.3900429130100065  0.4058700257340817  0.9955647891784878
  0.4003568415264454  0.4850069156494001  0.1169854094358271
  0.3994942509622774  0.6006995134719020  0.1896357211041462
  0.4063143670955682  0.6774713045199618  0.2761840642252267
  0.3972095299681087  0.7888395521829992  0.3919946635873757
  0.3791330399208164  0.8910654507863214  0.4878736122291869
  0.3881778361376860  0.9989715662597618  0.6114785346970208
  0.3858615000549861  0.1165681988342655  0.7095032754866395
  0.3835030638953043  0.2214183675354633  0.8166171309798713
  0.4097213799626118  0.3004179562300635  0.8952530909490832
  0.4995755403057274  0.4028125463543404  0.1018489400637819
  0.4964347819201578  0.5013533623666575  0.2115046708457058
  0.4930033837017476  0.5892914747608060  0.2872718016056339
  0.5081723413614867  0.6944737873089224  0.3692488358077668
  0.5011943899703084  0.8048827467282536  0.5089585769273057
  0.4914899830638930  0.9181097494776225  0.5992005278785868
  0.5035496777741102  0.0042753102386470  0.6924412757065852
  0.4887271109644757  0.0955957681733182  0.8012089189486389
  0.5151879520510292  0.1956258585725266  0.9002527196744765
  0.4749694969756959  0.3076062540415734  0.9825644768503210
  0.5732834985153445  0.3799692431540720  0.2081395609809746
  0.5827413720444312  0.4777812180798406  0.2990788201913546
  0.5888886677664118  0.6173423433410292  0.3829692440338732
  0.5908227405696707  0.7161920998570324  0.5062229574397890
  0.5941478385571344  0.8219183974485844  0.6241260481689181
  0.6115480818211836  0.8987445569119075  0.6922219914219738
  0.6028385698889238  0.0046229235675810  0.8012823147476098
  0.6226714017375983  0.1115427801605620  0.8706169097107690
  0.6090024146046389  0.2089821049158687  0.0053994932365526
  0.6069349020125401  0.3013930988672584  0.0829312314967581
  0.7211732871439551  0.3825690421203092  0.2979509015726407
  0.6736421972946189  0.5087385047838993  0.3987889356647969
  0.6867217441988345  0.6059034861981729  0.4911931965247973
  0.6721090887495862  0.7075005313977769  0.5794633251952064
  0.6825706569888936  0.7796203343231056  0.6870295405256783
  0.7113918667106560  0.8805802942923151  0.7717366198174389
  0.6896008248102916  0.9796439014626657  0.8923991303200296
  0.7172773702848332  0.0764877646541322  0.9954130311228440
  0.7168909099307186  0.2102998077642155  0.1086426011217441
  0.7248549565599944  0.3227558526338967  0.1955176755746209
  0.8121291982843957  0.4107550440998580  0.3995877888485637
  0.7956627216540184  0.5090047517870886  0.4982084218629694
  0.7855760325525125  0.6033762089519428  0.5898723871109652
  0.7957880668646240  0.7213164632134621  0.7008902914329695
  0.8066962234685988  0.8091161522049930  0.7970509741559439
  0.7941157343011085  0.9126570610359650  0.9248432213790849
  0.8130555882546986  0.0010254067964368  0.9984378990432177
  0.7991623085890254  0.1137726316947081  0.1042127513471911
  0.8198877488177700  0.1954205991421958  0.2128287487077998
  0.8152935189706341  0.2928360554272516  0.3123309068514217
  0.8898820710436581  0.4281963426811828  0.5177582654789390
  0.8840023112284143  0.5234216689761340  0.5846149134499043
  0.8764944568349264  0.5947951932255577  0.6862860266138782
  0.8839018409765771  0.7022083400417927  0.8168950586165167
  0.8882612743868918  0.8197967539865800  0.9187992803255227
  0.9166645344770714  0.8995686092598731  0.0118107317716891
  0.9032247249532617  0.0107046044209866  0.0967800646651256
  0.9118234369295095  0.1134701299901053  0.1993590366215798
  0.8996627911580362  0.1976156841526446  0.3352635710986505
  0.8967689013526865  0.3144679854833399  0.4190941673815018
  0.9889868808973930  0.4490416263059487  0.5912665822060958
  0.0045929189486387  0.5249532682283089  0.6900783151875061
  0.9962625351369212  0.6094657314417660  0.7943670462993495
  0.9956066503904069  0.6922590704937832  0.9189389930715919
  0.0077160664247202  0.8082567165951815  0.0031577895084141
  0.9892197404596956  0.9214997831298817  0.1050821537446396
  0.0045273810623527  0.0033896588584597  0.2016804381392276
  0.0214185316177264  0.1067079533707229  0.2997314905971606
  0.0061935458044644  0.2029974125151242  0.4086873010007679
  0.0134150559771271  0.3073263530188086  0.4991111505553718
  0.0797052726272938  0.4054573698449389  0.6822005283184893
  0.0933862610799494  0.4947125723083658  0.7899013738040281
  0.1000619249972488  0.6092193115583413  0.9055219359947202
  0.1066115156713963  0.7142684957659711  0.9892198746288372
  0.1097962208292103  0.8052841196524767  0.1031183846915198
  0.1028660684042677  0.9015170649950477  0.1922468254701428
  0.0929956260860010  0.0175897604750901  0.2916044552952854
  0.0922611103046265  0.0847603453205750  0.4011855035741760
  0.1038878068844156  0.1794853707247341  0.4933879115803350
  0.0955203752336971  0.2994752095018143  0.5859967249532616
  0.1799886902012560  0.4110850016496173  0.8003870071483590
  0.2093676054107547  0.5172071294402301  0.8950783587374929
  0.1904644456175077  0.6009613698449385  0.0027927394699248
  0.1976098022654824  0.7040766193775454  0.0781953546684235
  0.2099701225118196  0.7996014934565068  0.1985644812493135
  0.2028490526778839  0.9041688072143401  0.3020134916969113
  0.2041942289673386  0.0191435169910932  0.3975174692620698