Li 
 1.0000000000000000
    22.7325000000000017   -0.0000000000000006    0.0000000000000000
    -0.0000000000000006   22.7325000000000017    0.0000000000000000
     0.0000000000000006    0.0000000000000006   22.7325000000000017
 Li 
 500
Cartesian
  0.1539609500000000  0.3406617700000000  0.0771267300000000
 -0.4421745000000000  2.3367575600000001  2.4547180000000002
  0.1327746900000000  5.2105880999999998  4.7810990499999999
  0.4291190100000000  7.0202738499999997  7.3663852900000002
  0.5196357900000000  8.8781761100000001  9.3692264800000000
  0.1287654900000000 11.5288827499999993 11.2605648299999999
  0.0673887500000000 13.2834995899999999 13.6067528099999997
 -0.2599730500000000 15.5340063900000001 16.1836972999999986
  0.1122876900000000 17.6691305800000009 18.6609338999999999
  0.2040545900000000 20.2143647800000004 20.8769605799999987
  2.0408824200000000  0.6152026700000000  2.3951137500000002
  2.4143974099999999  2.6440754900000001  4.5583037600000003
  2.2497215800000001  4.4930464700000003  7.6658014200000002
  2.8372601099999999  7.0082655200000001  9.7015186599999996
  1.9293794099999999  9.3376987899999992 11.5235324000000006
  2.8405380700000000 12.0473949900000008 13.5735351200000007
  2.3587428600000000 13.9252777600000002 15.8876265599999993
  2.3651424900000002 15.5366668600000004 18.7436237699999992
  2.5348898800000002 18.0722059799999997 20.8236850699999998
  2.4461828699999999 20.4992506100000007 23.1212171499999997
  4.7646916099999999  0.0382642600000000  4.0588950600000002
  4.1551415599999997  2.3460538199999998  6.8043093199999998
  4.6622981699999997  4.4577135099999996  9.0973069199999994
  4.5776073899999998  6.4909965900000000 11.4204413299999992
  4.4430112800000003  8.9179200999999999 13.3249042099999997
  4.1580073300000002 11.4884093600000003 15.8505989500000002
  4.5642759599999998 13.6318064700000008 17.7592921299999986
  4.3092037999999997 15.6257578499999994 20.4545166199999997
  4.8055515599999996 17.8511156799999995 -0.0919262300000000
  4.7819652399999999 20.6513506000000007  1.9114152900000001
  6.4604190900000003  0.1275993400000000  6.4104933099999997
  6.4096806900000001  2.0815242899999999  8.7817793099999992
  6.6076924999999997  4.7325390900000004 11.5927041099999997
  6.4990493300000001  7.0495565500000001 13.7190803300000006
  6.6327207699999997  9.5920166699999996 15.9302043100000006
  6.8998157100000004 11.6073658099999992 18.3622679099999999
  6.5102187000000002 14.0583743499999994 20.8677009300000016
  6.8928259799999996 15.5195993699999999 -0.0775037100000000
  6.9038917499999997 17.6349548399999989  2.2522645600000000
  6.8975575899999999 20.7009033500000008  4.6565661699999996
  9.0033250599999999  0.2269625500000000  9.4012229800000000
  8.8339122900000007  2.2856676399999998 11.7349555399999996
  9.0456660400000004  4.8485786099999997 13.8335442400000002
  8.9250311199999999  6.8712812400000001 16.1504447499999984
  8.7288767499999995  9.1621246599999999 18.4196359799999989
  9.3160601599999993 11.2334712299999993 20.8580633400000011
  9.1341219400000000 13.2066348599999994  0.2074901300000000
  9.1084357800000006 16.3452846899999997  2.4946390599999999
  8.9991764900000000 18.1390801000000010  4.4511173399999997
  8.5783045199999997 21.2383851600000000  6.7428561499999997
 11.3926198400000001  0.2747758900000000 11.7586292500000003
 11.5246190500000001  2.6358898399999999 13.5680575200000000
 10.9991608599999999  4.3482598100000001 16.1488253700000008
 11.1514939700000006  6.8838865599999997 18.3244591200000002
 11.3704635100000004  9.0122827200000000 21.1278217499999990
 11.5405376099999994 11.3954872300000005  0.3326613000000000
 11.3437951399999992 13.6834490399999993  2.3843385200000000
 11.2880384599999992 15.8385012799999991  3.9352806400000002
 10.7049675400000002 18.5507644599999999  6.6616828200000002
 10.8456946300000006 20.8778738500000003  9.2085890500000005
 14.3186287399999994 -0.0130352100000000 13.2071834399999997
 13.5657260900000001  2.0877321000000002 15.9683358500000008
 14.2917215700000000  4.5405269199999996 17.9562544700000011
 13.9427690599999998  6.6097123199999999 20.7086819099999992
 13.6506640200000007  8.2840856200000008  0.3495203200000000
 13.7685694400000003 10.9974379800000008  2.3690666899999999
 13.8898072999999993 13.2584966600000005  4.8572921700000000
 13.0445425600000000 16.2867388099999992  6.5491004999999998
 13.2212046700000005 18.4351505399999986  8.9789630599999999
 13.9039215299999999 20.5836686600000007 11.7450472599999998
 16.3024802000000015 -0.2151648300000000 15.6221847300000007
 15.9971049200000000  2.1495834899999999 17.6288048999999987
 16.3587237200000004  4.7857336500000001 19.9721905299999989
 16.4595068900000001  6.6343100300000000 -0.2782756600000000
 16.0237003400000013  8.6546671300000000  2.1550235600000001
 15.7096985700000005 10.8149191099999999  4.5371812599999997
 15.4593294700000001 13.6157463799999991  6.8965709600000000
 15.7585749800000006 16.1443078500000006  9.0312867600000004
 15.5669617299999992 17.8247862200000000 10.9657424700000004
 15.8383383999999996 19.9146112399999993 13.5661630800000008
 18.2919159600000008 -0.1614043900000000 18.2282892499999996
 18.2327848299999999  2.1946530599999998 19.9791160699999999
 18.4237831499999984  4.3916652000000003 -0.0827139300000000
 18.5276363800000006  6.7567464900000003  2.0274766899999999
 18.4948808500000013  8.7945041600000007  4.7584017799999998
 18.2353116399999990 11.1043325300000006  6.9710574699999999
 17.8642606099999988 13.4524075199999995  8.8077666099999998
 18.0900199000000015 16.0125998500000009 11.1912531099999999
 18.3346827499999989 17.7010473099999999 13.1751399899999999
 18.2574142899999998 20.2263105400000001 15.6485404100000007
 20.1843621099999986 -0.1366094200000000 20.7996124999999985
 20.6487902800000001  2.6863469400000000 22.5535598099999994
 20.3113375699999992  4.4381073400000002  2.4862092499999999
 20.4677933900000006  6.5917257999999999  4.7560848499999997
 21.0182912399999999  8.9427578499999996  6.8421101799999997
 20.8518487000000015 11.4362815700000002  9.1981318800000000
 20.7530949400000004 13.9834740899999996 10.8395102699999999
 20.5023570699999986 15.9640437399999993 13.4294378800000000
 20.8331281799999992 17.8266301600000006 16.1053040699999990
 20.6145010000000006 20.2899645399999997 18.3332313099999986
  2.5717973000000001  2.4905909500000001 -0.2145162400000000
  2.4768523999999998  4.3382057300000003  2.2847078800000000
  2.2069398200000001  6.6797258800000003  4.6710054899999998
  2.4045843200000001  9.1075073700000004  7.3414757599999998
  2.5068338300000002 11.4547359899999996  9.3973691899999992
  2.4189271600000000 14.0047676299999999 11.3223825799999993
  2.5999583500000001 15.9884126099999992 13.6137366600000007
  2.6814553999999999 17.9282225900000007 16.0118587800000007
  2.3932280200000000 20.7726660299999999 18.9617350199999990
  2.4679513499999999 22.2481078799999992 20.9295488399999989
  4.7588175899999996  2.3645222200000000  1.9290119100000001
  4.5749890899999999  4.7954262600000002  4.3932521199999996
  4.4435852499999999  6.8146707400000004  6.9849179000000001
  4.4039358899999996  9.1203798200000001  9.5558050500000000
  4.4957920199999997 11.7421092199999997 11.6610900999999991
  4.7187176300000004 14.3688650899999999 13.5982045700000000
  5.1193457000000002 15.9177944500000006 16.0109524199999989
  4.1874154299999997 18.0280292200000005 18.4863521000000013
  4.6756439800000003 20.2612918300000011 20.9812024800000003
  4.6327697299999997 22.6723395399999994 22.9209081400000017
  6.8421346400000003  2.5645587900000000  4.8091268400000002
  6.9178270299999998  3.6339255100000001  6.4966670000000004
  6.6953172399999996  6.4787158900000001  8.9657655300000005
  6.7689490599999997  9.1244443000000004 11.4942980499999994
  6.4084586500000000 11.3565398200000001 13.6850810400000000
  6.8516839100000002 13.3708936999999999 15.8287026900000001
  6.7135670200000002 16.1295497200000000 18.2724345899999996
  6.9574213599999997 17.5584062100000011 20.8183077099999991
  7.2507252400000004 20.7444724299999983  0.0714696600000000
  7.1547040199999996 23.3193381500000001  2.4795132299999998
  9.3480565999999996  1.5746764300000000  7.4104654300000004
  8.6428174999999996  4.3545714599999998  9.4665903599999996
  8.2015204799999992  6.6646573199999999 11.9507554500000008
  8.9833491100000007  8.8962590699999993 14.1766591300000009
  9.2201818600000003 11.4556405199999993 15.8760444500000002
  8.7373906699999999 13.2461299599999993 18.8283342000000005
  9.5008957899999995 15.5173207699999995 20.7243829899999987
  9.2186690299999992 18.4581065399999993 -0.3506579300000000
  8.7759526500000007 20.6897079400000017  1.7999170099999999
  8.7496179499999993 22.8211968200000008  4.2989426000000002
 11.8053164899999992  1.9852137700000001  9.2500140900000005
 11.2826613200000008  4.5120492600000004 11.4799057399999995
 11.5348897499999996  6.8707816599999996 13.6658961100000003
 11.4700848200000003  9.3305266899999992 16.3480934600000012
 11.2674353200000006 11.2922434799999998 18.7515674200000007
 11.2587730100000005 13.4511981899999995 20.6806690099999990
 10.7658787799999995 16.1750641199999983  0.8856351800000000
 11.4977442500000002 18.7731995000000005  2.1737898499999999
 10.7801436400000004 20.7208240799999999  4.3216821899999998
 10.8047588799999996 22.6648186799999998  6.6632103000000003
 13.6637114200000003  2.6484289300000001 11.1946814799999999
 14.2366710800000007  4.6941887099999997 13.5063306099999991
 14.0054730900000006  6.9610091299999999 15.9044127399999997
 13.2330545700000002  9.1655769100000004 18.7357879300000008
 13.6787350500000002 11.6090924199999996 20.8180792699999984
 14.0171206799999997 13.7990436800000005  0.2275194800000000
 13.6636260800000002 16.0886477200000009  2.4901804300000001
 13.0895408999999994 18.4801347500000013  4.6641351100000001
 12.8535792900000008 20.7879878900000001  6.9166645000000004
 14.1092149300000003 22.7482467399999990  9.2211011999999997
 16.3352311000000014  2.2844788299999998 13.4635050599999992
 16.2886464300000000  4.4022594100000001 15.8429464000000007
 16.5173824200000006  7.1373928900000001 17.8767240200000010
 15.7339684799999997  9.3846307800000002 20.8148964999999997
 15.9241382700000003 11.5379794400000009  0.2480548500000000
 16.0818526400000010 13.6508517800000000  2.5656892299999998
 15.9194711099999999 15.7401226199999993  4.6083552699999997
 15.6667901100000009 18.1401756899999995  6.5871642000000001
 15.7415867299999999 20.0709032699999987  8.9123367200000008
 15.8000257600000005 22.2372394500000006 11.0078492299999997
 18.5323842200000009  2.2033614600000000 15.7522576799999996
 18.3628169899999989  4.7811982500000001 17.7253684699999994
 18.5453702100000015  7.2951535200000004 19.8433516800000014
 18.6402426500000011  9.4232448099999999 -0.1087305100000000
 18.1405360500000015 11.5163664000000008  2.3694717299999999
 18.0763805799999986 13.5116173899999996  5.0021876599999997
 18.4576476900000017 15.7271856400000001  6.8135526200000003
 17.6949769000000003 17.7273851499999999  8.9527647199999993
 18.2290301899999996 20.0691802000000017 11.3711106300000004
 18.2296655799999989 22.8472158699999994 13.3591228300000004
 20.4965350800000010  2.0231893599999999 17.8619678700000009
 20.5521047599999989  4.8298731600000000 19.8410289999999989
 20.4303322200000004  6.5405671700000001 -0.2700754200000000
 20.4808948199999996  9.1320178900000002  2.3202252799999998
 20.5380764700000000 11.2462643799999995  4.6887238900000003
 21.0145799500000017 13.5853559199999996  7.0121291799999996
 20.1800485499999986 15.8642897999999999  8.8450369900000005
 21.2855524199999984 17.8910272399999997 10.9830290300000009
 20.3158746400000005 19.9765517400000014 13.9650975099999997
 20.8207819200000017 22.6404876100000010 15.7702515699999992
 22.9606428899999990  2.3987462499999999 20.1711211000000006
 22.4523361699999988  4.5444981599999998 22.5968434100000017
 22.6943204799999982  6.7299414999999998  2.0968898399999998
 22.7526691800000016  8.8524112000000006  4.5908082099999996
 23.0599440800000011 11.2246125100000000  7.2819641300000004
 23.2238922800000012 14.2869155299999999  8.8979897000000001
 22.8683019999999999 15.7926321699999992 11.3793703900000001
 22.7170662000000014 17.8933971599999992 13.9797149399999991
 22.9468768300000008 20.1488837799999985 16.0838067299999992
 22.9874764300000010 22.5404147100000003 18.4541932399999986
  4.0904756500000001  4.3266262199999996 -0.0074720500000000
  4.7884180900000004  6.4508193800000004  1.8820683800000000
  4.8599860799999997  8.8868227500000003  4.2079332100000002
  4.3430070399999998 11.2305102600000009  7.0646948199999997
  4.6796403499999997 13.9215365200000001  8.9818275599999993
  4.6880422499999996 15.9495807900000006 11.4281596499999996
  4.8153871900000000 17.7949884699999998 13.8173383899999997
  4.1891252300000001 20.3092459800000000 15.9409244399999999
  4.3493075799999996 -0.5369764400000000 18.1528902899999984
  4.3334062700000002  1.8004294400000000 19.7862972500000005
  6.7588451100000002  4.4865583800000000  2.1237367900000002
  6.8262133499999997  6.5821744799999999  4.3291878400000003
  6.8588257099999996  8.7890471500000000  7.2168806800000000
  6.7882897000000000 11.5475106200000006  9.5285583599999999
  7.2094547899999997 13.9812458700000004 11.7319990999999995
  7.3054101400000002 15.6042617900000007 13.6786020599999993
  6.5828718300000002 18.1834442600000017 15.3772106100000006
  6.3953348500000002 20.1229340000000008 17.6653586400000009
  6.5428904200000000 -0.3392401600000000 19.9896667199999989
  6.5892754599999996  2.3282221500000002 22.2417828299999982
  8.6333455899999993  4.1785258900000004  4.2609528799999996
  8.5703791200000001  6.1856891699999998  6.6150834200000004
  8.8255211599999992  9.0290567599999996  8.9762335899999997
  9.3030434999999994 11.2713302700000000 11.4440083500000007
  9.2062460200000000 13.4291149099999991 13.7612338500000000
  9.3257274900000002 15.6542383699999998 16.4812177200000001
  8.2220424399999992 17.6269174799999995 18.4651159800000002
  9.0212342700000008 20.2762510300000010 20.5324112399999983
  8.8467940100000000  0.1163830100000000 -0.3044596700000000
  9.2526660599999992  2.5518011899999999  1.5648188900000000
 11.0921269999999996  3.8667490899999999  6.4894076099999998
 11.1378214000000000  6.0831284700000001  9.5035585099999995
 11.1838977899999996  8.7525394199999997 11.0344295900000002
 11.4307967000000001 11.1665946199999997 13.5641832999999998
 10.9839471300000007 13.2955989300000006 16.5845056299999989
 11.3656532600000002 15.7425694200000006 18.4500772799999986
 11.4714559000000005 18.1539723899999998 20.5959737999999994
 11.5860056100000008 20.9958609799999998 -0.2025047300000000
 10.7635324000000008  0.4445409100000000  1.6867225100000001
 10.9555143299999997  2.6007370500000002  4.3664952200000000
 13.4524252799999999  4.8027581000000001  8.8393890299999995
 13.7846766299999999  6.7357896799999999 11.6117639799999992
 13.3862677899999998  9.0852424000000003 13.3816729399999996
 14.0683032699999995 11.3287095600000001 16.3569457000000007
 13.6968305200000007 13.2240362299999994 18.3719810400000014
 13.3270134299999992 15.8614437200000005 20.7433418699999983
 13.4331260100000005 18.4907291299999983  0.3091936200000000
 13.4437691299999997 20.8971112699999999  2.6269062800000000
 13.0224184300000001  0.0923200300000000  4.7056809499999996
 13.7727211599999997  1.5572560200000001  6.7592742899999996
 16.2116669400000006  5.1880048299999997 11.4057220800000003
 16.4716462499999992  6.8985077700000001 14.0068585700000003
 15.8345803200000006  9.8069050400000002 15.9711762700000008
 16.2752610699999991 11.3286572000000003 18.5907871399999998
 15.9974822400000001 13.7401724600000001 20.5871776599999983
 16.1227208200000014 16.1716264500000015  0.4284356900000000
 15.5967767399999993 18.6556504300000014  2.3798047900000001
 15.5310309800000006 20.9812127400000001  4.7479432399999997
 15.7582852500000001 -0.1154245700000000  7.0894307400000001
 16.3413440299999984  2.1473725600000000  8.7874783900000004
 18.5096244900000002  4.7981721500000001 13.6551817399999997
 18.7398047000000005  7.2723841699999996 15.8712161199999997
 18.2333837299999999  9.5397085100000005 18.0724835100000014
 18.0378856200000008 11.3726891499999994 20.7800910600000002
 18.1629900000000006 13.5207100300000000  0.1264758700000000
 18.2721201099999995 15.7674001500000003  2.4124388899999998
 18.3555682900000008 18.3134325900000015  4.5730299099999998
 18.3714875900000010 20.4477229499999993  6.4401983600000001
 18.2397148999999992 -0.2305381000000000  9.1528111800000005
 18.5723738000000012  2.2738298600000002 11.7506884399999993
 20.7037608800000008  4.8092383900000000 15.6039903199999994
 20.7726935399999988  6.7549994699999996 17.9508895600000002
 20.7115543399999993  9.5336334699999998 20.0926227699999984
 20.8135436100000000 11.5922369300000003  0.0962968700000000
 20.1152867700000009 13.6429747199999998  2.2146481599999999
 20.6657501500000009 15.8487123699999994  4.6587629699999997
 20.6703612300000010 17.9075438499999997  6.7895352999999998
 20.7080802300000002 20.3395374300000000  9.1431373199999992
 20.3066289399999995 -0.6258349700000000 11.4079616099999992
 20.8468552900000006  2.0053543999999999 13.6100741000000003
 -0.0316864000000000  4.5882082600000000 18.0958490300000001
  0.5289046900000000  7.1118224699999999 20.2406799399999997
 -0.2135119700000000  8.9692550799999999 -0.0311226800000000
  0.1097190300000000 11.5321581700000007  2.3655652500000000
  0.2029756100000000 13.4994573500000001  4.7503966000000002
  0.5746845400000000 16.5080920400000011  6.4764648500000002
  0.6917066500000000 18.2612041000000005  8.5742803100000007
  0.1197854500000000 20.2007163600000013 11.5180232999999994
  0.0414197400000000 -0.7321189000000000 13.8607877500000001
 -0.1662257800000000  1.8056882900000000 15.5519685400000007
  2.3041179299999999  4.4465203000000004 20.4260629800000011
  2.4052871499999999  6.9085853600000000 22.5944032700000008
  2.2082883600000001  9.4791993300000001  2.0862503399999999
  2.4207190299999999 10.9254477300000001  5.0300877599999998
  2.6335667400000000 13.7630264100000002  6.6685587200000001
  2.7478183700000001 15.9640795400000002  8.8073993900000005
  2.3974475000000002 18.1056036999999996 11.4607010700000007
  2.5491762900000001 19.8611392900000006 13.9532849100000007
  1.6526936299999999 -0.2930344400000000 15.6809804300000000
  1.8203228199999999  1.8838893299999999 17.8459944999999998
  6.7667493099999998  6.5155123699999997 -0.4932477600000000
  6.9924073399999997  9.2267053200000007  2.2771053900000000
  6.6928974900000000 11.1902212199999997  4.7023758899999999
  6.8432911900000004 13.4821462200000006  6.5682233200000004
  7.3948430199999997 15.9045146200000005  8.9384140999999993
  6.8067049900000001 17.6374917099999990 11.2781407999999992
  6.5652437800000003 20.3750834800000007 13.3950256999999997
  6.6452473599999999  0.0597645200000000 15.6816835500000007
  6.6337548000000002  2.1625910400000001 18.6288225800000014
  6.1287641199999996  4.3377867500000002 20.2870969099999989
  8.9142816600000003  6.6363571600000002  2.4907547200000000
  8.5140379900000003  9.1430266499999995  4.7704862600000002
  8.7317261599999991 11.1410871599999997  6.5343053299999996
  9.5465727200000003 13.3593059400000005  8.9627968800000009
  9.1855657100000005 15.8189333399999992 11.0993941399999994
  9.0651678600000007 18.3355072499999991 13.6364469100000001
  9.2650514600000005 20.4927993800000010 15.5756854300000001
  8.9976650700000000 -0.0716697000000000 17.9071866200000009
  8.8917842300000007  2.2081818599999998 19.8713976899999984
  8.8373885699999999  4.3300452099999998 22.1761440100000016
 10.8112008799999995  6.8787533600000001  4.3886306099999999
 10.9959463799999995  8.7790745599999997  7.5630996799999997
 11.2058266399999997 11.2493128500000008  8.8509332000000001
 11.1266696599999992 13.4366729300000003 11.0446035100000000
 11.2022086299999994 15.9839803699999994 14.1191416600000004
 11.0989314500000003 18.2645467299999993 16.1503015599999991
 10.8676963200000003 19.9479035099999997 18.2601843600000002
 11.8030802300000008 -0.3240466300000000 20.0796711999999999
 11.5172714000000003  2.5773428900000002 -0.8347148900000000
 11.0687511199999999  4.6708938399999997  1.9859029600000000
 13.2664945400000001  6.8745783999999999  6.4422871199999996
 13.3511170000000003  8.8377738000000008  9.3274502300000002
 13.1606971099999992 11.4298443699999996 10.9581092000000009
 13.3083556299999994 13.3528862700000008 13.6954518800000002
 13.4487968200000001 15.7178490699999998 16.1289543799999997
 13.4607462699999996 17.7305309999999992 18.4328826899999996
 13.5891464099999997 19.8876144500000009 20.0595961799999998
 13.4564173900000004  0.1918842200000000 -0.0997640800000000
 13.5898812099999997  2.3072627600000000  2.0615806700000001
 13.4004541699999997  4.8836197300000004  4.2697853099999996
 16.3069133899999983  6.8647800500000002  9.0102987900000002
 16.0479842899999987  9.2787057199999996 10.9173786899999996
 15.5315625100000005 11.7129543199999997 13.5355406299999999
 16.5023318000000003 13.4587084200000007 16.0498727400000014
 15.9712656200000005 15.5331243400000005 18.0706208500000010
 15.9286578900000002 18.2809382700000000 20.5197025199999992
 15.5424606799999996 20.6107073400000012 -0.1614574100000000
 15.7595248699999999  0.3268863800000000  2.4928879700000000
 15.9539605099999999  2.2819380300000001  4.4268609300000001
 16.7102037699999997  4.5554448499999998  6.9317343800000000
 18.5252881699999996  7.4676672300000000 11.6187851599999998
 17.9541575500000015  9.5231600699999994 13.8952123299999997
 18.3524306499999987 11.6387642899999992 15.8197744300000007
 18.2682750499999997 14.0328333500000006 18.5974787200000016
 18.3513865000000003 16.0480018199999996 20.7025146599999985
 17.9109283200000000 18.4449006000000004  0.5528049800000000
 18.0395123700000006 21.0258736500000012  2.6367435399999999
 18.1234499999999983  0.4577423200000000  4.7918528399999998
 18.6491120899999991  2.4124753900000000  7.1334620199999996
 18.5015744600000005  4.7631825299999999  9.4427087699999994
 20.2239039900000002  7.6215258099999996 13.7644796599999992
 20.8943821199999995  9.3977743399999998 15.4275177699999997
 20.3371305100000015 11.6924798299999999 18.0089581400000007
 20.4602524099999989 13.4756004699999998 20.5714758099999990
 20.2049492000000015 15.8772026600000000  0.4511842600000000
 19.9908670400000013 18.1705226899999985  2.2236272600000002
 20.8940783299999993 20.5745625899999993  4.6844029100000002
 20.8083573100000017  0.2037975000000000  7.0406794399999999
 20.2438869100000005  1.9208965899999999  9.5599522599999993
 20.6001409399999993  4.7710491700000004 11.6151341800000001
 -0.0525596400000000  6.9387416899999996 15.1159866899999997
  0.0450566500000000  9.0099563800000002 17.8653084699999987
 -0.1516654000000000 11.8130316200000003 19.8742334999999990
  0.0724944400000000 13.6815112200000009 -0.0427925400000000
  0.0188220200000000 15.5999266500000004  2.0220809100000001
  0.0831644400000000 18.0244483600000009  4.3386091599999999
 -0.3085296600000000 20.7056479300000014  6.6727233500000001
  0.4133272100000000 -0.4630896300000000  9.6492051599999993
 -0.3007995700000000  1.9536578300000000 11.5979310699999996
  0.0413013700000000  4.3885645799999997 13.1803733100000002
  2.0487503500000002  7.4580459200000000 17.4834250199999985
  1.8281588200000001  9.1091819300000001 20.2959710099999988
  2.2202451000000001 11.0019769099999998 -0.5692859900000000
  2.1690969999999998 13.5149468000000006  1.8914590000000000
  2.6245163400000000 15.9655756800000006  4.3903060600000003
  2.7875695100000000 18.3189286799999991  6.2113118399999996
  2.4083053300000001 20.3689527800000008  8.4367840399999992
  2.6625789599999998 -0.3609504700000000 11.7390188400000000
  2.4585526899999999  1.8503048499999999 13.7123473300000001
  1.9338460399999999  4.3629043699999999 15.5693481899999995
  3.9869696200000000  6.7593223399999998 20.2508365800000014
  4.6442010099999997  9.4228775000000002 23.0259676999999989
  4.7965802799999997 11.1920482799999998  2.1885774800000002
  4.3218144900000004 13.4635392399999994  4.2393137999999997
  4.7839369200000004 15.9299107099999997  6.8247762300000003
  4.8160813100000004 18.0197144899999984  9.1506002199999994
  4.7787595100000004 20.1834069199999995 10.7547919200000006
  4.7112335600000002 -0.1772724600000000 14.0579656499999999
  4.1614988400000001  1.9230584700000000 16.0099533100000002
  4.1241242800000002  4.7303015500000001 18.3103662299999996
  8.8666505200000003  9.2264403599999998 -0.1008234300000000
  9.1011118999999994 11.0254197099999995  2.6593708199999999
  9.0815030599999993 13.6554016899999997  4.3108940300000000
  9.2365413499999995 15.4006164299999995  6.2783542399999996
  9.0295656399999995 17.9322951199999991  8.9110186900000006
  8.6186418299999996 20.2561453600000014 11.0905868900000009
  8.8242526600000009 -0.0233788700000000 13.9004357899999995
  8.7715965499999999  2.6498865800000000 16.1287832100000017
  8.7179833999999996  5.0333930400000000 18.5637489299999991
  9.3139912700000007  6.8292511899999999 20.3513408899999995
 11.3566009700000006  9.1569362099999996  2.3152810300000000
 11.2852036800000004 11.3970153100000005  4.8080299300000000
 11.2071994200000002 13.3960684499999996  6.5304062299999996
 11.5520277500000006 15.7871253700000000  8.3939491600000000
 11.3934014700000006 18.2969970400000008 11.5699008499999998
 11.1727960399999997 20.8709298799999985 13.6213259999999998
 11.4469430499999998  0.0971884900000000 15.7409213000000001
 11.1099890499999994  2.1731308000000000 18.2134817499999997
 11.7115101199999998  4.4470648300000004 20.4649949500000012
 10.7972440899999995  6.9926591699999996 22.3361469700000015
 13.0321671299999995  8.6376508199999993  4.7315325699999997
 13.2471682400000006 10.8611615399999994  6.7988092800000004
 13.3869116399999992 14.0337348199999994  8.7058483399999993
 13.4308779499999993 16.2808369100000014 11.5077133800000002
 13.5064657399999994 18.6842599699999994 14.1879453899999994
 13.9020167699999995 20.4307106400000009 15.7359364199999998
 13.7040277899999996  0.1050906100000000 18.2151502200000017
 14.1548776400000005  2.5356462500000001 19.7912989000000010
 13.8441473899999998  4.7506857000000000  0.1227439800000000
 13.7971476600000003  6.8514186199999996  1.8852342200000001
 16.3940717499999984  8.6967507499999996  6.7731688700000001
 15.3135712500000007 11.5648980600000009  9.0654694800000009
 15.6109020500000000 13.7737010000000009 11.1660493400000007
 15.2787198600000007 16.0832558299999988 13.1726500400000006
 15.5165374600000003 17.7227192500000008 15.6178990300000002
 16.1717156099999997 20.0177915400000010 17.5435027099999985
 15.6763507499999992 -0.4627450100000000 20.2864632299999990
 16.3055078199999990  1.7387581100000000 -0.1042732700000000
 16.2967226099999998  4.7806403800000004  2.4697179299999998
 16.4777653000000015  7.3370474200000002  4.4446055600000003
 18.4617269999999998  9.3374890399999995  9.0836294100000003
 18.0874028200000012 11.5709505200000002 11.3255229499999999
 17.8581071599999994 13.7162496699999998 13.4092740399999997
 18.0902522300000008 16.3973264999999984 15.9329885499999993
 18.3382219000000006 18.3932329299999999 18.1189612699999998
 18.0522359299999984 20.7469766399999997 21.0239985300000001
 18.4827861599999999  0.0233100600000000 -0.0355104600000000
 18.1669571800000007  2.5863363499999998  2.3690163700000002
 18.6380982499999988  4.4423987699999996  4.8381295299999998
 18.5336599200000016  6.6568956300000002  7.1000623400000000
 20.2292441799999985  9.7339733600000002 11.7699397700000006
 20.0955825399999988 11.8986830900000005 13.2897585199999995
 19.9249102399999991 13.5211817300000003 15.6009971000000007
 20.0932986000000007 15.9629510900000007 18.5700669199999986
 20.1923994200000010 18.6360297099999990 20.8866046400000016
 20.8380765299999986 20.4494434100000007  0.2684874600000000
 20.5325560600000010  0.2433424200000000  2.2000528199999998
 20.7280262800000017  2.5794597300000000  4.5319292999999998
 20.4515844000000016  4.4922985400000002  7.6213791300000002
 20.3857990499999993  7.1486434799999996  9.5270581599999993
 -0.2503557300000000 10.2078387700000004 13.4409675800000006
  0.1044085300000000 11.9335001700000003 15.6872053000000005
 -0.0849619200000000 13.8546797399999999 18.0579488800000014
 -0.0998718200000000 15.7367793200000001 20.8897806599999996
  0.1754054800000000 18.3736958100000010  0.0717844500000000
 -0.2450622500000000 20.9479938200000007  2.3887800600000002
  0.1029186900000000  0.0770554200000000  4.5847005599999999
  0.4868967700000000  2.4257385500000002  6.8136461099999996
  0.1407947800000000  4.6146386799999997  9.2904840699999998
  0.3049577600000000  6.9862963200000001 11.3460442300000004
  1.8119001100000001  9.2170596600000003 15.5081235100000008
  2.1229031799999998 11.2460535499999992 17.9564329799999989
  2.2746577100000001 13.8490780000000004 20.5847774100000009
  2.4235462800000001 16.2371085800000010 -0.2450592000000000
  2.4959425899999998 18.3061212500000003  2.3441386799999999
  2.3384029000000002 20.4937366800000014  4.3702509599999999
  2.1140230700000000  0.3998592300000000  6.6288982799999996
  2.0973256899999999  1.9268145500000000  9.1199494600000008
  2.3616295699999998  4.0801511899999996 11.2159407000000009
  2.1714169299999999  6.8078202000000001 13.3211705499999997
  4.0915929000000002  9.3449898000000005 18.1947976400000009
  4.7594490900000004 11.7574110699999999 20.3473687900000009
  4.3297330100000000 13.6613543400000008  0.0634859500000000
  4.4921648300000001 16.0054217500000000  1.7775759000000000
  4.7731458099999999 18.1769409499999988  4.5138670699999999
  4.6112660900000000 20.5540174100000002  6.8655217000000004
  4.6418453099999999  0.4351800000000000  9.0365658700000004