Li                                      
   1.00000000000000     
    20.0207999999999977    0.0000000000000000    0.0000000000000000
     0.0000000000000000   20.0207999999999977    0.0000000000000000
     0.0000000000000000    0.0000000000000000   20.0207999999999977
   Li
   432
Direct
  0.9943209631982768  0.9706939607807854  0.0208791002357529
  0.9198129405418385  0.0852668524734241  0.0866174223807263
  0.8418081190561821  0.1766780653120748  0.1899517946335791
  0.7558399654359462  0.2252745070127062  0.2798789204227603
  0.6858700975984959  0.3259486259290370  0.3171592423879162
  0.5880187250259752  0.4031488272196881  0.4260431611124460
  0.4963569213018459  0.4789091215136239  0.5055311555981774
  0.4172770863302162  0.5733859640973407  0.5731647072045050
  0.3484520563613813  0.6603385194397831  0.6858864261168378
  0.2372019899304689  0.7333439762646847  0.7596882931750955
  0.1765506817909355  0.8439861788739691  0.8613778600255770
  0.0839424723287792  0.9067188493966256  0.8978891702629284
  0.0790032061655879  0.8921661646887245  0.0872715805562194
  0.9938398575481528  0.9929415882482218  0.1492189378046831
  0.9039407151562386  0.0724670542635693  0.2488972443658568
  0.8504800687285226  0.1519871668464816  0.3737798834212427
  0.7476693154119687  0.2336528745105113  0.4092681231519251
  0.6504517007312387  0.3073060442140161  0.4751692170143045
  0.5909843582673986  0.3960527606289475  0.5968946215935418
  0.4869784554063799  0.5128174698313757  0.6455248596459668
  0.4344040457923768  0.5819962508990670  0.7999461904619167
  0.3137644484735844  0.6613619980220591  0.8751712558938678
  0.2357963328138766  0.7358185197394675  0.9441574657356355
  0.1694530158635033  0.8252892341964326  0.9980783335331225
  0.1722584681930783  0.8435226469471786  0.1424377986893646
  0.0959060242347931  0.9325851429513321  0.2469877877007889
  0.0236253945896294  0.0083029933868772  0.3334465126268711
  0.9189491583752911  0.0760352318588673  0.4239511587948499
  0.8390965595780386  0.1484616304043769  0.5264169613601837
  0.7515126773155885  0.2438258431231546  0.5850110619955231
  0.6720324512507005  0.3278878266602732  0.6387242258051629
  0.5885639330096666  0.4231969511707803  0.7325573263805651
  0.5270014839566883  0.5091073793254992  0.8384140114281138
  0.4286414633780851  0.5865982767921381  0.9376476009949641
  0.3277455171621497  0.6409592893390865  0.0104528305562184
  0.2352032491209144  0.7536410792775499  0.0706648795252960
  0.2412157795892256  0.7790467698593488  0.2536200061935574
  0.1877782506193526  0.8602344801406545  0.3218366239111319
  0.0898550332654011  0.9114548834212428  0.4053593682570096
  0.0023855435347215  0.9878526617318002  0.4948266407935762
  0.9082229935866692  0.0499999680332479  0.5727416956365374
  0.8651148660393204  0.1641755469311903  0.6690433409254410
  0.7688725185806788  0.2392666586749783  0.7086451460481129
  0.6532286886637877  0.3351642007312421  0.7823570281906811
  0.6017460081515225  0.4061028480380386  0.9336755773995051
  0.5201899114920465  0.5284381643091152  0.0207545767401882
  0.4234203133740877  0.5847863491968326  0.1154975445536621
  0.3463222603492397  0.6922063968472756  0.1869554907895790
  0.3464194822384741  0.6657175007991682  0.3415872117997267
  0.2759785822744334  0.7595557105610169  0.3816144499720266
  0.1865343068209029  0.8134854586230347  0.4764516677655237
  0.0920017556740973  0.8892673374690290  0.5703128541317000
  0.0030352098817232  0.9769212983497155  0.6610849286741782
  0.9435084407216507  0.0890436875649314  0.7314446585551053
  0.8363992842443864  0.1576053584272330  0.8124029169663558
  0.7416835096499668  0.2604774564452939  0.9024327579317486
  0.6560399304723106  0.3083704507312390  0.0059656672061053
  0.5735134799808179  0.3946231024734246  0.1067175692280031
  0.5159230015783578  0.4993075141852472  0.1935902771118023
  0.4245949347678390  0.5579598317749515  0.2734926186765776
  0.4378394429793033  0.5646361653879950  0.4405196700431517
  0.3725576120834333  0.6883462399104943  0.4808349471549604
  0.2480771792335972  0.7350952514385014  0.5801441046311808
  0.1766068034244412  0.8277446315831511  0.6558617482817866
  0.1183775962998510  0.9241695816350983  0.7592481359386269
  0.0180710720850286  0.0073806955766003  0.8391331155598181
  0.9136036152401488  0.0814658360305316  0.9027776961959546
  0.8357120709462151  0.1601315861504062  0.9861533215455935
  0.7725702099816161  0.2241452789099370  0.0792718972268815
  0.6779641587748770  0.3181649169863334  0.1840402636258318
  0.5805009270358852  0.4122431870854300  0.2614728637217283
  0.5250034504115746  0.5088798304763031  0.3362838667785510
  0.0899641078278606  0.1062426676256720  0.9539746288859590
  0.9593652441460847  0.1688956779948825  0.0089040707664054
  0.9131752377527391  0.2537351629305533  0.0985356948773273
  0.8399264909494093  0.3086110674898137  0.2002648305762023
  0.7526466175177831  0.4120514959442190  0.2824106084671953
  0.6657994845360804  0.5194043674578452  0.3628052939942492
  0.5539582504195621  0.5917668454806986  0.4181739440981360
  0.4788076750179826  0.6865914583832833  0.5042107443259027
  0.4408869725485474  0.7584279179653137  0.5903545173020035
  0.3310688513945479  0.8262753486374166  0.6879267891392971
  0.2460974996004168  0.9232155763006489  0.7945557060656938
  0.2060785293294956  0.0110257926756177  0.8664691510828746
  0.1451663779669161  0.0025089052385496  0.9949745634540079
  0.0685954762047487  0.0880720001198725  0.0866632312395126
  0.0119860415168205  0.1780530393390904  0.1872548754295522
  0.9491745444737489  0.2397316420922238  0.2827856119635612
  0.8572128940901464  0.3259275758211473  0.3428488666786578
  0.7690127587309235  0.4110009210421168  0.4267835341245103
  0.6560360460121473  0.5038888565891497  0.4875218857388290
  0.5877487053464421  0.5840870669503744  0.5699868506752992
  0.4944923849196812  0.6713269869335861  0.6923424848157893
  0.3851881518221063  0.7376196865260098  0.7640126533405294
  0.3181866978342498  0.8334135539039380  0.8617021427715201
  0.2341200681291440  0.9062001368576702  0.9295421276872062
  0.2499217838448047  0.9170279714097376  0.0513617752537385
  0.1684472858227437  0.9758000294693545  0.1659735774794200
  0.1050713477982868  0.0629727673219875  0.2414021262886621
  0.0151288270199004  0.1372044263965506  0.3351528100775170
  0.9362066595740401  0.2338794513705764  0.4150374045992180
  0.8584614316111256  0.3019964586829715  0.5047432440262156
  0.7505752657236471  0.4186782681011749  0.5797643805442334
  0.6430523820226952  0.5073896867258085  0.6490011173379671
  0.6127275123871172  0.5929085221369803  0.7373926136817701
  0.5197423979061782  0.6851973992048244  0.8493333088587889
  0.4273631558179503  0.7304716874450605  0.9357347243866414
  0.3301325186805713  0.8331556506233539  0.9949190666706613
  0.3374224801206722  0.8397428174698334  0.1586196285862727
  0.2576699602413512  0.9087754630184577  0.2437929458363328
  0.1706586789738651  0.0004665133261383  0.3269261533005690
  0.0941640239151269  0.0509641742587732  0.4197640638735720
  0.9949543859386267  0.1490417585710873  0.4998398390673700
  0.9560503990849512  0.2457153435427131  0.6042877412491023
  0.8399352253656218  0.3383888545912228  0.6804616793534706
  0.7681187155358415  0.4203215470910280  0.7178975615360059
  0.6784567085231359  0.4998376368576700  0.8252188538919540
  0.6056387497003115  0.5742474676336613  0.9451754430392398
  0.5335796871253891  0.6647657691001356  0.0186296406737014
  0.4135592259050611  0.7446983866778538  0.0824128471389756
  0.4061328303564267  0.7485433624030975  0.2695880234556043
  0.3411854481339418  0.8537300687285239  0.3168975580396420
  0.2524940072324782  0.9200820032166561  0.4204316550787155
  0.1599723212858635  0.9767406831894831  0.5189838932510185
  0.0852471809318303  0.0660957019699495  0.5744340450931062
  0.0319143975265703  0.1448153455406356  0.6611515154239598
  0.9564662476024921  0.2471362597898192  0.7281300297690407
  0.8069964841564783  0.3419187769719514  0.8005703093782444
  0.7232031941780548  0.4234163135339273  0.8907453648205887
  0.6662260019579662  0.4916755279509317  0.0269435477103812
  0.6048053574282761  0.5891990010389208  0.1218862163350138
  0.4880168809438175  0.6798398935107457  0.1729366084272357
  0.4906855645129085  0.6820582054663120  0.3315410118476763
  0.4257728582274467  0.7590393680572234  0.3780015863501944
  0.3277746578558265  0.8121004040797573  0.5000899139894486
  0.2465109446175973  0.8933058893750498  0.5811775738232257
  0.1622977748141921  0.9986123441620691  0.6539559248381650
  0.1244537570926241  0.0880450596379774  0.7617611109446187
  0.0273217498801230  0.1549817459841734  0.8305681371373765
  0.9123180372412705  0.2481386138416042  0.8904714042395909
  0.8232192130184615  0.3303383051626341  0.9789979446375767
  0.7599132312395085  0.3864867078238632  0.0956472653440414
  0.6816384090545853  0.4564134739870553  0.1866642546751365
  0.5955567679613196  0.5635359760848715  0.2519947154958828
  0.1652080731039689  0.1562844996203978  0.8381626658275394
  0.0982765294094108  0.2714637731758955  0.9156219536681860
  0.9830375734236370  0.2964639804603237  0.9989069692519763
  0.8918829287540930  0.4165784648965101  0.0857014315112252
  0.8065280503276568  0.4990309588028481  0.1724883361304279
  0.7478103197674386  0.5925599271757349  0.2505510519060152
  0.6581125449532479  0.6557745994166098  0.3484635708862811
  0.5847776827099835  0.7619419883321328  0.4373281931790913
  0.4774400203788076  0.8465243042236068  0.5082267227083861
  0.4085033405258542  0.9034792615679663  0.6252184038599893
  0.3176615000399607  0.9766468253016853  0.7093561476064920
  0.2442455441341025  0.1083287790697653  0.7355564343083216
  0.2519957604091729  0.0879635039558835  0.9484408799848154
  0.1729189218213065  0.2002414973427662  0.0228083048629415
  0.0691848622432687  0.2585342668624619  0.0980034893710524
  0.0075837374130927  0.3361181870854324  0.1918802899984016
  0.9371047430672093  0.4397353507352335  0.2552060177415498
  0.8482844711500022  0.5311582234476120  0.3148632527171742
  0.7569852947934166  0.5937369265963426  0.4120955666107236
  0.6706483731918809  0.6587954177655249  0.4807817494805420
  0.5607916891432936  0.7694073014065381  0.5685170727443492
  0.4997905847918176  0.8468374430592220  0.6872933374290753
  0.4207818893350890  0.9114653745105059  0.7951536966554755
  0.3395097793294966  0.0302651437504977  0.8381674408615041
  0.3334698029049790  0.9887249615400009  0.9846396572564515
  0.2262506872852228  0.0704389360065534  0.0712942459841770
  0.1684691950371615  0.1732551881043705  0.1712473277791062
  0.1048224721289870  0.2531807909773818  0.2676683853792028
  0.9973020873291745  0.3579470560616969  0.3473545492687578
  0.9042866793534756  0.4182064977423465  0.4101820796371740
  0.8113067769519731  0.5137818483776897  0.5102755813953479
  0.7474239915487928  0.5700040467913396  0.5718769909294323
  0.6581863556900842  0.6677519065172248  0.6352579447374751
  0.5651168279988781  0.7446662231279504  0.7549826245704452
  0.4834343008271418  0.8128770513665771  0.8440548559498140
  0.4210953303564295  0.9204988337129407  0.9363157066650700
  0.4249129730080696  0.8965947874210798  0.0364267117198125
  0.3308350135858689  0.9810578148725355  0.1300653440421939
  0.2650126977942975  0.0846794034204450  0.2393207853831996
  0.1851210451130854  0.1540212439063353  0.3363107073643405
  0.0772990514864560  0.2453896467673644  0.4358136008551128
  0.9914124435587013  0.3538585890673716  0.4861792725565408
  0.9395110295292923  0.4187302660233385  0.5490438558898774
  0.8472150598377652  0.5066517376927990  0.6322754535283295
  0.7533896712419050  0.5737298194877312  0.7142431895828310
  0.6559774104930867  0.6910582254455377  0.8245025668304962
  0.6007911437105378  0.7743142232078668  0.9429038305162649
  0.5124881728002890  0.8359168145129061  0.9925178933908754
  0.4829876313633790  0.8484890069327875  0.1654692230080741
  0.4090248017062237  0.9178107133581079  0.2551944717493839
  0.3045243801446489  0.0115493551706223  0.3337876453488349
  0.2472991289059365  0.0799910592983295  0.4456945816351023
  0.1514868311955553  0.1687383566091256  0.5179925907056671
  0.0721703028849987  0.2781812165348043  0.5764561830696096
  0.0158511927595271  0.3422106339407023  0.6550623141932377
  0.9217119580636108  0.4251418744505742  0.7480478422440697
  0.8367843612642858  0.5034793304962832  0.8389018700551460
  0.7460510294293954  0.5918373596459716  0.9161157725964983
  0.6720786507032699  0.6827562015503901  0.0138508890753641
  0.5732088253216645  0.7529638366099292  0.0967388605849919
  0.5630604945856277  0.7383907186526031  0.2730640913449989
  0.4857156417325967  0.8561918709542056  0.3296446240909461
  0.3792629275553452  0.9193955326460497  0.4227737008511170
  0.3394242547750324  0.9832324257771887  0.5031508431231515
  0.2567961604930886  0.0860151252697179  0.6027070521657478
  0.1518628301566380  0.1812541811516013  0.6456286397146940
  0.1067916501838084  0.2557998571485669  0.7387829637177319
  0.9827805667106233  0.3414311481059684  0.8267339426995903
  0.9035253351514427  0.4087207379325477  0.9035963697754354
  0.8327230420362852  0.4926167815471914  0.9939070901262710
  0.7099433324342712  0.5803115380004797  0.0898065631742995
  0.6657187794693513  0.6787777945936213  0.1733031402341538
  0.2226327059857738  0.2779188723727302  0.7456827214696702
  0.1367291821505603  0.3388817384919705  0.8375307170542641
  0.0697141987333154  0.4093273130943800  0.9341673334731908
  0.9770195092104217  0.4827376438503990  0.0350270723447608
  0.8805599666346993  0.5899683014664774  0.0656097973107990
  0.8009989076360569  0.6921460675897038  0.1554793125149843
  0.7201496683449236  0.7660171461679823  0.2614763306161620
  0.6139236114441005  0.8544189917485809  0.3258731074682331
  0.5623675517461848  0.9242247277831055  0.4191329287540952
  0.4905586195356832  0.9944709017621705  0.5266079297530553
  0.3872197529569235  0.0647733282386298  0.6171900603372507
  0.3092856848877190  0.1976091464876504  0.6770006668065207
  0.3203966030328473  0.1732356384360259  0.8385453533325347
  0.2345145463717699  0.2651706680052754  0.9044314118316947
  0.1887048639415028  0.3387602478422451  0.0179046186965550
  0.0828900268720503  0.4277325901062881  0.1072759330296478
  0.9883120095101106  0.5061714132302413  0.1581243147127012
  0.9176317055262544  0.6100515508870785  0.2062900618356878
  0.8291492832454281  0.6723785712858614  0.3404071555582178
  0.7340312255254560  0.7583105720051151  0.4065837464037401
  0.6310255684088517  0.8736416541796501  0.4875562310197381
  0.5745033400263750  0.9062756583153515  0.6063282171541573
  0.5192759195436736  0.9976688044433786  0.6637871288859571
  0.4239585336250329  0.0927386892631645  0.7476339491928385
  0.4168026047910161  0.0937369530688059  0.9187780797970078
  0.3121847913170299  0.1932833518141166  0.0094381263485985
  0.2590416701630289  0.2737692439862514  0.0876947544553630
  0.1687112378126727  0.3285518600655308  0.1728539409014616
  0.0766511013545923  0.4417815596779349  0.2374744830376443
  0.0058532326380529  0.5214747472628432  0.3107696011148420
  0.9315454876928015  0.6027662086430112  0.3967036132422308
  0.8299028805042781  0.6726031142611717  0.4982001543394858
  0.7281191805522269  0.7478687739750640  0.5716626203748092
  0.6760515773595444  0.8419835885678921  0.7117075016982355
  0.5576184637976525  0.9436536786741812  0.7821827923959077
  0.4778090955406356  0.0327273710341274  0.8602488536921626
  0.5023758351314598  0.0010069442779539  0.9876951080875855
  0.4209923494565686  0.0926543574682341  0.0710471774354673
  0.3424889120314845  0.1546333722928139  0.1556534743866393
  0.2651521627507378  0.2375076090865491  0.2373859606009745
  0.1622655797970083  0.3386619705506249  0.3460842014305143
  0.0885295432749942  0.4455051866059279  0.4029932665028397
  0.0023387651842057  0.5111533749900090  0.4651293509749834
  0.9348221734396205  0.5895253516343004  0.5635787131383339
  0.8478426096859266  0.6645880049748243  0.6571214606808908
  0.7399808124550447  0.7558927825061943  0.7257836040517844
  0.6561500744225981  0.8581236194357871  0.8010829382442282
  0.5820488691760559  0.9225289593822410  0.9052464531886812
  0.5756125749220828  0.9210874435586973  0.0865728462399105
  0.4808625469511725  0.0069217398905153  0.1601770738432009
  0.3838545048149911  0.0845983362303215  0.2392053154719065
  0.3239204412411070  0.1543370419763477  0.3300979451370551
  0.2597993496763351  0.2226715500879095  0.4216117327978921
  0.1726038310157421  0.3584890663709714  0.5023244250978962
  0.0769696720410806  0.4282466354990788  0.5599081725005988
  0.9804449937065485  0.5183155528250651  0.6580444163070425
  0.9306801786142387  0.5600538959482151  0.7308657281427315
  0.8361139255174592  0.6422580790977364  0.8159359835770772
  0.7367730769999170  0.7586660058539110  0.8979107468233067
  0.6610319542675640  0.8506883815831543  0.0123607892791497
  0.6640446310836765  0.8223505709062593  0.1696428069807396
  0.5739146612522958  0.9368469896307872  0.2371057929753064
  0.4770151167785528  0.9960853572284805  0.3238530947814269
  0.4047505749021028  0.0760196270878311  0.4142561276272687
  0.3300186326220711  0.1774082748941126  0.5149727018900379
  0.2369780033764854  0.2771680752017929  0.5861445446735374
  0.1732130883880743  0.3645077394509713  0.6564291546791310
  0.0947500839127287  0.4118677790098317  0.7567779938863595
  0.0075407526172810  0.5079665842523795  0.8413997452649227
  0.9012831774954080  0.6053673134939643  0.9374254005833933
  0.8032249945057117  0.6874315057340397  0.0019938783664983
  0.7202102528370489  0.7724044838368087  0.0744887162351162
  0.3378337758730936  0.3664323093982276  0.6830267516782556
  0.2528105675097905  0.4182307270438770  0.7412422255853883
  0.1321292296012118  0.5036044613601831  0.8529534484136505
  0.0554567724566439  0.5699727198713305  0.9240803184687891
  0.9845026887037491  0.6838976064892535  0.0226654389434984
  0.9087050232757932  0.7725805637137384  0.0875680652121815
  0.8350655243546683  0.8434182575121909  0.1691548669383849
  0.7248925407576152  0.9108272601494463  0.2495656996723383
  0.6645313503955919  0.9946066216135208  0.3441575176816087
  0.5431879370454737  0.0898440861504071  0.4401925432550158
  0.4576439213218251  0.1635309038599857  0.5197153375489520
  0.3928584362263265  0.2660833987652822  0.6147896058099604
  0.4097341649684338  0.2504246878246619  0.7563488971469638
  0.3566403765084303  0.3498760004595241  0.8422244016223104
  0.2277675227763112  0.4151050587389093  0.9005697499600416
  0.1562991423919158  0.5035399349676339  0.0140203768081193
  0.0724360959601995  0.5924480794973235  0.0996509664948420
  0.0056146167985318  0.6858402811076516  0.1538620719451771
  0.9140154474346716  0.7657527336569956  0.2520793050227752
  0.8408884010628981  0.8160928054822989  0.3410702099816163
  0.7416688753696121  0.8997872757332388  0.3829221090066355
  0.6741362243267019  0.9639308294373876  0.4835145593582695
  0.5835052760129500  0.0818580985774773  0.5613453917925355
  0.4809294248981075  0.1901558179493321  0.6515778765084335
  0.4889154823983048  0.1482160188404080  0.8206663974466579
  0.4148589297130982  0.2574428244625580  0.9151381653080790
  0.3398352188723734  0.3509236813713770  0.9771633151522394
  0.2605489111324246  0.4240529564253208  0.0848649664349068
  0.1974683414249156  0.5209625973987073  0.1633309113521904
  0.0859494330895885  0.6010669174058947  0.2200138655797943
  0.0093629904898904  0.6637710635938632  0.3022068443818426
  0.9373742367937368  0.7104303918924302  0.4054830835930616
  0.8377464332094604  0.8170765928434420  0.4703275818149137
  0.7548527881003793  0.9089369390833539  0.5737792176136836
  0.6546858676975944  0.9693181341404937  0.6665233966674649
  0.5987101564373063  0.0787064847558554  0.7542511418125173
  0.6055403230640124  0.0983783974666324  0.9183770353832017
  0.5019487438064445  0.1788055767002348  0.9990589322105023
  0.4046004395428753  0.2532634884719869  0.0809394220011157
  0.3280138645808393  0.3252973197874240  0.1624441066291027
  0.2388177880004818  0.4143080761008520  0.2177887337169366
  0.1971483681970767  0.5167100964996436  0.3463117692599695
  0.1044543839406984  0.5987685836729781  0.4123237582913788
  0.0160241608726892  0.6540372367737532  0.5006761038519940
  0.9176043794453790  0.7505535992567758  0.5564870294893325
  0.8539364745664528  0.8167012152361579  0.6434957104611172
  0.7797136587948543  0.9309100565411939  0.7319661232318424
  0.6821366144210046  0.9957861054503283  0.8238964177255639
  0.6534276437504971  0.0022685182410314  0.0002947779309537
  0.5814563818628642  0.0904737547950134  0.0732010773795224
  0.4919035737832687  0.1728012696795318  0.1754304378446392
  0.4127724136897655  0.2259426001957934  0.2734539508910743
  0.3219105844921302  0.3027786002557349  0.3287534159474177
  0.2482441765563834  0.4087904469351855  0.4230934907696025
  0.2145586045512644  0.5441769274954069  0.5040524059977614
  0.0937089456964770  0.5783446370774428  0.5680174014025425
  0.0021222498601432  0.6770180422360781  0.6683373416646674
  0.9014491658674970  0.7467446630504284  0.7394732583113566
  0.8348287056461317  0.8150197974106916  0.8132398335730855
  0.7394140558818805  0.9149228037840658  0.9022778530328495
  0.7438940337049473  0.9335007212498994  0.0862957474226818
  0.6769266917405901  0.0196702644249953  0.1591802020898285
  0.5832609820786416  0.0582313563893564  0.2383862338168328
  0.4889061920602558  0.1542089911492042  0.3248986558978686
  0.4035337748741341  0.2212148960081493  0.4042553314552890
  0.3340195521657492  0.3388495170023162  0.4942267351953973
  0.2684470900263705  0.4452215535842754  0.5827276447494611
  0.1701991014345055  0.5077709177455461  0.6677803009869763
  0.0857353632222484  0.5822841854471363  0.7481471609526125
  0.9859475510469125  0.6602063359106509  0.8362152381523202
  0.9124739056381372  0.7508816306041695  0.9019750509470157
  0.8121131273475584  0.8312683723927137  0.9899496833293355
  0.3999185701870047  0.3963566630704065  0.5974470610564993
  0.3338626263685782  0.5081369800407600  0.6718638176296636
  0.2238699402621265  0.5742590445936244  0.7677725740230130
  0.1597715995364837  0.6488324732278414  0.8480488781667077
  0.0720636483057646  0.7432834936665884  0.9281839576840056
  0.9800723437624868  0.8285168055222556  0.9710815267122186
  0.9015906287461064  0.9064138051426482  0.0758734061575979
  0.8401876148805272  0.0105267686605899  0.1628852768121121
  0.7830460975585396  0.1049099926076877  0.2505216080276540
  0.6543206510229354  0.1091060846719429  0.3538401597338776
  0.5710260519060171  0.2199391852473411  0.4138166926396565
  0.4730348307759940  0.3358830910852717  0.4865106269479753
  0.4955097118996221  0.3355158280388366  0.6924977658235463
  0.4371423114960464  0.4295906612123375  0.7491943144130104
  0.3367895074122913  0.5169305612163342  0.8252021392751558
  0.2478453618237069  0.5593790997362760  0.9307716819507732
  0.1568627027890983  0.6240399574442606  0.9818426995924270
  0.0862358157516212  0.7440943533724962  0.0649856269479727
  0.9971435232358346  0.8346917530767968  0.1611682595101129
  0.9084980755014769  0.9468310941620715  0.2463164493926300
  0.8494968372892160  0.9962223857188519  0.3352460635938641
  0.7489403969871304  0.0672415637736776  0.4305806176576397
  0.6664234051586320  0.1629019379844934  0.4836602962918590
  0.5785338078398468  0.2355367982298375  0.5702730854910882
  0.5831845690481927  0.2191435701870077  0.7175220300887091
  0.5161182954727082  0.3121064383041627  0.8312611534004617
  0.4536427185726879  0.4253698278790026  0.9043220705466339
  0.3500983317349977  0.4939921216934380  0.0018959302325570
  0.2675895753416455  0.5914221524614405  0.0838073074003063
  0.1831696635499114  0.6837727163749676  0.1473975650323638
  0.1140858282386290  0.7574652216694631  0.2460080800967006
  0.0008661172380755  0.8336646028130730  0.3318977398505538
  0.9475963233237437  0.9076302500399578  0.3701043814432978
  0.8403634849756259  0.9815355030767989  0.4683042415887471
  0.7474271492647659  0.0590591345001172  0.5916274634380230
  0.6582333448213831  0.1506081829896928  0.6510323548509547
  0.6604628711140421  0.1670976629305514  0.8163686905618164
  0.5933710326260666  0.2355456090665697  0.9280395733437246
  0.5076905603172719  0.3337688114361086  0.0037469656557150
  0.4292255544233967  0.3970147067050291  0.0887389969431780
  0.3629095260928636  0.5046717583712947  0.1477552655238554
  0.2471404599216811  0.5994862932550120  0.2394472518580670
  0.1801162251258717  0.6729820411771783  0.3303497952129817
  0.1080383046631468  0.7452187410093529  0.3833288999440612
  0.9834446340805556  0.8155530857907749  0.4753518136138410
  0.9098537176336592  0.9073336300247732  0.5656423394669545
  0.8427098587469004  0.9821465011388142  0.6406137956525200
  0.7504837214297098  0.0799995170023209  0.7383307005714030
  0.7348633501158801  0.0945153220650496  0.9142044273955108
  0.6568829961839668  0.1797994016223114  0.0024770443738547
  0.5798878346519629  0.2421441226124799  0.0947727418484803
  0.4782993986254311  0.3203195511667900  0.1902268370894262
  0.4038852688204244  0.4127718487772682  0.2792993701550373
  0.3082015384000627  0.4853068743506768  0.3387361074482556
  0.2977653600255721  0.5994939502916949  0.4300573823223814
  0.1819523390673723  0.6975639449972064  0.5068543969271957
  0.0894955471309871  0.7518338817629697  0.5711543399864141
  0.0089489545872325  0.8378451775153835  0.6813502951929991
  0.9047710790777614  0.9240253521337820  0.7532385569008255
  0.8265090111284294  0.0139459686925605  0.8268611259290353
  0.8325021512626876  0.9867357807879813  0.9972709492128189
  0.7554488906537173  0.0886697429673120  0.0953435871693458
  0.6660771612522964  0.1579364131303436  0.1761568763485997
  0.5851244315911472  0.2355448858187472  0.2507963408055645
  0.5168403655198617  0.3252558139534898  0.3341716295053132
  0.3932752462439097  0.3954063389075344  0.4023771947174950
  0.3416093582674051  0.5022839786621915  0.5143156821905208
  0.2738303164708711  0.6056102648245840  0.5809186750779176
  0.1370656087668820  0.6585745629545272  0.6661693338927535
  0.1117302045872322  0.7513481379365459  0.7763223043035268
  0.0135539119315879  0.8199983452209736  0.8191258051626278
  0.9098156187564967  0.9050448443618606  0.8904938059418228
 
  0.00000000E+00  0.00000000E+00  0.00000000E+00
  0.00000000E+00  0.00000000E+00  0.00000000E+00
  0.00000000E+00  0.00000000E+00  0.00000000E+00
  0.00000000E+00  0.00000000E+00  0.00000000E+00
  0.00000000E+00  0.00000000E+00  0.00000000E+00
  0.00000000E+00  0.00000000E+00  0.00000000E+00
  0.00000000E+00  0.00000000E+00  0.00000000E+00
  0.00000000E+00  0.00000000E+00  0.00000000E+00
  0.00000000E+00  0.00000000E+00  0.00000000E+00
  0.00000000E+00  0.00000000E+00  0.00000000E+00
  0.00000000E+00  0.00000000E+00  0.00000000E+00
  0.00000000E+00  0.00000000E+00  0.00000000E+00
  0.00000000E+00  0.00000000E+00  0.00000000E+00
  0.00000000E+00  0.00000000E+00  0.00000000E+00
  0.00000000E+00  0.00000000E+00  0.00000000E+00
  0.00000000E+00  0.00000000E+00  0.00000000E+00
  0.00000000E+00  0.00000000E+00  0.00000000E+00
  0.00000000E+00  0.00000000E+00  0.00000000E+00
  0.00000000E+00  0.00000000E+00  0.00000000E+00
  0.00000000E+00  0.00000000E+00  0.00000000E+00
  0.00000000E+00  0.00000000E+00  0.00000000E+00
  0.00000000E+00  0.00000000E+00  0.00000000E+00
  0.00000000E+00  0.00000000E+00  0.00000000E+00
  0.00000000E+00  0.00000000E+00  0.00000000E+00
  0.00000000E+00  0.00000000E+00  0.00000000E+00
  0.00000000E+00  0.00000000E+00  0.00000000E+00
  0.00000000E+00  0.00000000E+00  0.00000000E+00
  0.00000000E+00  0.00000000E+00  0.00000000E+00
  0.00000000E+00  0.00000000E+00  0.00000000E+00
  0.00000000E+00  0.00000000E+00  0.00000000E+00
  0.00000000E+00  0.00000000E+00  0.00000000E+00
  0.00000000E+00  0.00000000E+00  0.00000000E+00
  0.00000000E+00  0.00000000E+00  0.00000000E+00
  0.00000000E+00  0.00000000E+00  0.00000000E+00
  0.00000000E+00  0.00000000E+00  0.00000000E+00
  0.00000000E+00  0.00000000E+00  0.00000000E+00
  0.00000000E+00  0.00000000E+00  0.00000000E+00
  0.00000000E+00  0.00000000E+00  0.00000000E+00
  0.00000000E+00  0.00000000E+00  0.00000000E+00
  0.00000000E+00  0.00000000E+00  0.00000000E+00
  0.00000000E+00  0.00000000E+00  0.00000000E+00
  0.00000000E+00  0.00000000E+00  0.00000000E+00
  0.00000000E+00  0.00000000E+00  0.00000000E+00
  0.00000000E+00  0.00000000E+00  0.00000000E+00
  0.00000000E+00  0.00000000E+00  0.00000000E+00
  0.00000000E+00  0.00000000E+00  0.00000000E+00
  0.00000000E+00  0.00000000E+00  0.00000000E+00
  0.00000000E+00  0.00000000E+00  0.00000000E+00
  0.00000000E+00  0.00000000E+00  0.00000000E+00
  0.00000000E+00  0.00000000E+00  0.00000000E+00
  0.00000000E+00  0.00000000E+00  0.00000000E+00
  0.00000000E+00  0.00000000E+00  0.00000000E+00
  0.00000000E+00  0.00000000E+00  0.00000000E+00
  0.00000000E+00  0.00000000E+00  0.00000000E+00
  0.00000000E+00  0.00000000E+00  0.00000000E+00
  0.00000000E+00  0.00000000E+00  0.00000000E+00
  0.00000000E+00  0.00000000E+00  0.00000000E+00
  0.00000000E+00  0.00000000E+00  0.00000000E+00
  0.00000000E+00  0.00000000E+00  0.00000000E+00
  0.00000000E+00  0.00000000E+00  0.00000000E+00
  0.00000000E+00  0.00000000E+00  0.00000000E+00
  0.00000000E+00  0.00000000E+00  0.00000000E+00
  0.00000000E+00  0.00000000E+00  0.00000000E+00
  0.00000000E+00  0.00000000E+00  0.00000000E+00
  0.00000000E+00  0.00000000E+00  0.00000000E+00
  0.00000000E+00  0.00000000E+00  0.00000000E+00
  0.00000000E+00  0.00000000E+00  0.00000000E+00
  0.00000000E+00  0.00000000E+00  0.00000000E+00