Li 
 1.0000000000000000
    20.0207999999999977    0.0000000000000000    0.0000000000000000
     0.0000000000000000   20.0207999999999977    0.0000000000000000
     0.0000000000000000    0.0000000000000000   20.0207999999999977
 Li 
 432
Cartesian
 -0.1136988600000000 -0.5867303500000000  0.4180162900000000
 18.4153909200000001  1.7071106000000000  1.7341500900000000
 16.8536719899999987  3.5372362100000001  3.8029868900000001
 15.1325207800000001  4.5101758500000004  5.6033998900000004
 13.7316680499999997  6.5257522500000000  6.3497817599999999
 11.7726052899999996  8.0713620400000003  8.5297249199999996
  9.9374626500000005  9.5881437399999996 10.1211381599999992
  8.3542210899999994 11.4796457099999998 11.4752159700000007
  6.9762889299999999 13.2205054299999993 13.7319949599999998
  4.7489736000000002 14.6821330799999998 15.2095673799999993
  3.5346858900000000 16.8972784900000015 17.2454738600000006
  1.6805954500000000 18.1532367400000005 17.9764595000000007
  1.5817073900000000 17.8618803499999999  1.7472468600000000
 -0.1233309800000000 -0.1413150500000000  2.9874825100000000
 18.0976162699999996  1.4508483999999999  4.9831219500000001
 17.0272913599999995  3.0429046700000000  7.4833722900000001
 14.9689378299999998  4.6779174699999997  8.1938752400000006
 13.0225634100000001  6.1525128499999999  9.5132678599999991
 11.8319796400000001  7.9292931099999997 11.9503078400000007
  9.7496982600000006 10.2670159999999999 12.9239241099999997
  8.6971165199999998 11.6520305400000002 16.0155626899999994
  6.2818152700000001 13.2409962900000000 17.5216286799999992
  4.7208312200000000 14.7316754200000002 18.9027877900000014
  3.3925849399999999 16.5229506999999991 -0.0384733000000000
  3.4487523400000000 16.8879982099999992  2.8517186799999998
  1.9201153300000000 18.6711006300000015  4.9448930999999998
  0.4729993000000000  0.1662325700000000  6.6758659400000004
 18.3980973100000007  1.5222861700000001  8.4878413599999991
 16.7993844000000010  2.9723206100000001 10.5392887000000002
 15.0458850099999992  4.8815884399999998 11.7123894699999997
 13.4546273000000003  6.5645765999999997 12.7877699800000002
 11.7835207900000007  8.4727415199999996 14.6663837200000007
 10.5509913100000006 10.1927370199999991 16.7857192399999988
  8.5817450100000006 11.7441667800000005 18.7724550900000011
  6.5617274500000002 12.8325177400000001 20.2300740300000008
  4.7089572100000003 15.0884973200000001  1.4147674200000000
  4.8293328799999999 15.5971395699999995  5.0776754200000003
  3.7594707999999999 17.2225824799999998  6.4434266800000000
  1.7989696500000001 18.2480559299999996  8.1156188399999998
  0.0477604900000000 -0.2431994300000000  9.9068252099999992
 18.1833509100000015  1.0010393600000000 11.4667469400000002
 17.3202917099999993  3.2869257900000002 13.3947829200000008
 15.3934429200000000  4.7903099200000003 14.1876427399999994
 13.0781609299999992  6.7102554300000001 15.6634135899999993
 12.0474364800000000  8.1305039000000008 18.6929319999999990
 10.4146181799999997 10.5797547999999999  0.4155232300000000
  8.4772134099999992 11.7078905399999993  2.3123532400000002
  6.9336487099999999 13.8585258299999996  3.7429984900000002
  6.9355951700000000 13.3281969399999998  6.8388492500000000
  5.5253119999999996 15.2069129699999994  7.6402265800000002
  3.7345660500000002 16.2866296699999999  9.5389435500000008
  1.8419487500000000 17.8038435100000001 11.4181195899999999
  0.0607673300000000 -0.4620540700000000 13.2354491400000001
 18.8897937899999988  1.7827258600000000 14.6441072200000004
 16.7453827900000007  3.1553853599999999 16.2649563199999996
 14.8490972100000000  5.2149670600000002 18.0674257599999990
 13.1344442400000005  6.1738231199999998  0.1194374300000000
 11.4821986799999998  7.9006702100000004  2.1365711100000002
 10.3291912299999993  9.9965358799999997  3.8758322199999999
  8.5007302700000000 11.1708022000000007  5.4755410199999996
  8.7658959200000002 11.3044677399999998  8.8195562100000000
  7.4589014400000000 13.7812424000000000  9.6267003100000004
  4.9667035899999998 14.7171950099999993 11.6149490899999996
  3.5358094900000001 16.5721097200000003 13.1308768899999997
  2.3700141800000001 18.5026143599999990 15.2007550800000004
  0.3617973200000000  0.1477674300000000 16.8001162800000010
 18.2910752599999995  1.6310112100000000 18.0743316999999983
 16.7316242300000013  3.2059624599999998 19.7435784199999986
 15.4674736599999996  4.4875677999999999  1.5870868000000000
 13.5733848300000002  6.3699161699999998  3.6846333100000002
 11.6220929599999998  8.2534384000000003  5.2348959099999997
 10.5109890799999999 10.1881813099999992  6.7326720399999997
  1.8011534100000000  2.1270631999999998 19.0993352499999993
 -0.8135403200000000  3.3814265899999998  0.1782666200000000
 18.2824987999999991  5.0799809500000004  1.9727634400000000
 16.8160002900000016  6.1786404599999996  4.0094621200000002
 15.0685874000000002  8.2496005900000000  5.6540863100000003
 13.3298383200000004 10.3988909599999992  7.2636522299999999
 11.0906873400000006 11.8476456599999995  8.3721768999999995
  9.5861126999999993 13.7461102700000009 10.0947024699999996
  8.8269099000000004 15.1843336600000001 11.8193697199999992
  6.6282632599999998 16.5426934999999986 13.7728446600000005
  4.9270688199999997 18.4835144100000015 15.9076408800000006
  4.1258570199999998  0.2207451900000000 17.3474055800000002
  2.9063470200000001  0.0502302900000000 -0.1006132600000000
  1.3733363100000000  1.7632718999999999  1.7350672199999999
  0.2399701400000000  3.5647642899999998  3.7489924100000001
 19.0032337200000008  4.7996192600000001  5.6615941799999998
 17.1620879100000003  6.5253308099999998  6.8641085899999998
 15.3962506399999999  8.2285672400000003  8.5445477800000003
 13.1343664699999998 10.0882580199999996  9.7605781700000005
 11.7671992799999998 11.6938903500000002 11.4115927399999997
  9.9001331399999994 13.4405033399999994 13.8612504199999993
  7.7117749499999997 14.7677362199999997 15.2961445299999994
  6.3703522399999999 16.6856060799999995 17.2519662599999997
  4.6872710599999996 18.1428517000000014 18.6101770299999991
  5.0036340499999996 18.3596336099999995  1.0283038300000000
  3.3724494200000001 -0.4845027700000000  3.3229237999999999
  2.1036124400000000  1.2607651799999999  4.8330636900000004
  0.3028912200000000  2.7469423800000001  6.7100273799999997
 18.7436062899999989  4.6824537199999998  8.3093808700000000
 17.1870846300000011  6.0462106999999996 10.1053635400000008
 15.0271172800000006  8.3822738700000006 11.6073467099999998
 12.8744231300000003 10.1583474400000000 12.9935215700000004
 12.2672949800000008 11.8705029399999997 14.7631900399999996
 10.4056586000000006 13.7182000899999998 17.0043323099999988
  8.5561522700000001 14.6246275600000004 18.7341577699999995
  6.6095171300000004 16.6804426499999998 19.9190756499999999
  6.7554679899999996 16.8123229999999992  3.1756918600000001
  5.1587587399999997 18.1944117900000002  4.8809298099999996
  3.4167232799999998  0.0093399700000000  6.5453231299999999
  1.8852390900000000  1.0203435400000000  8.4040123700000002
 -0.1010172300000000  2.9839352400000001 10.0071934500000008
 19.1408938299999996  4.9194177500000000 12.0983240100000007
 16.8161751600000002  6.7748155800000003 13.6233871900000008
 15.3783511799999992  8.4151736300000000 14.3728835000000004
 13.5832460699999995 10.0071493599999997 16.5215416300000015
 12.1253722800000006 11.4968936999999993 18.9231685100000000
 10.6826922000000000 13.3091425099999991 20.3937803100000004
  8.2797865500000007 14.9094574600000005  1.6499711300000000
  8.1311041700000004 14.9864369499999999  5.3973678999999999
  6.8308056199999996 17.0923589599999985  6.3445426300000003
  5.0551320200000003 18.4207777700000008  8.4173780800000007
  3.2027738499999998 -0.4656701300000000 10.3904727300000008
  1.7067167599999999  1.3232888300000001 11.5006291300000001
  0.6389517700000000  2.8993190700000002 13.2367822600000000
 19.1492194500000004  4.9478656299999999 14.5777456999999995
 16.1567152100000015  6.8454874500000003 16.0280580499999985
 14.4791065099999994  8.4771333299999991 17.8334347999999991
 13.3383775399999998  9.8437374099999992 20.5602313800000012
 12.1086870999999991 11.7962353600000007  2.4402595599999999
  9.7704883700000007 13.6109385399999994  3.4623292499999998
  9.8239175500000009 13.6553509200000001  6.6377162900000002
  8.5243132399999997 15.1965753800000005  7.5678941599999998
  6.5623108700000001 16.2588997699999993 10.0122001500000000
  4.9353463199999998 17.8846985499999995 11.6356399699999997
  3.2493312900000002 -0.0277819800000000 13.0927207800000005
  2.4916637800000001  1.7627325300000001 15.2510668500000008
  0.5470032900000000  3.1028585400000002 16.6286385599999988
 18.2653369599999991  4.9679335599999996 17.8279498899999993
 16.4815072200000010  6.6136371399999998 19.6003220499999991
 15.2140708199999999  7.7377730800000002  1.9149347699999999
 13.6469462600000000  9.1377628800000004  3.7371677100000000
 11.9235229399999998 11.2824410700000008  5.0451357999999997
  3.3075977900000000  3.1289407100000002 16.7806871000000015
  1.9675747400000001  5.4349219099999999 18.3314840100000005
 -0.3396013500000000  5.9354460600000003 -0.0218833500000000
 17.8562097400000006  8.3402341300000007  1.7158112200000000
 16.1473367900000007  9.9909990200000003  3.4533544799999998
 14.9717608500000008 11.8635237900000003  5.0162325000000001
 13.1759396399999993 13.1291320999999996  6.9765194599999996
 11.7077170299999995 15.2546881600000006  8.7556602899999998
  9.5587311600000007 16.9480937900000015 10.1751055699999995
  8.1785636799999999 18.0883776000000012 12.5173726199999997
  6.3598373600000002 19.5532507600000010 14.2018775599999998
  4.8899911899999999  2.1688288199999999 14.7264282600000005
  5.0451567199999996  1.7610997200000000 18.9885451699999983
  3.4619751499999998  4.0089949699999998  0.4566405100000000
  1.3851362899999999  5.1760628500000001  1.9621082599999999
  0.1518324900000000  6.7293550000000000  3.8415969099999998
 18.7615866400000009  8.8038535099999997  5.1094286400000000
 16.9833337399999991 10.6342125599999999  6.3038142099999996
 15.1554511900000008 11.8870882600000005  8.2504829199999996
 13.4269169500000007 13.1896112999999993  9.6256352500000002
 11.2274982500000000 15.4041496999999996 11.3821666100000005
 10.0062073399999996 16.9543630800000003 13.7601624499999993
  8.4243900499999995 18.2482659699999985 15.9196131300000001
  6.7972573900000004 20.6267323900000008 16.7807826999999996
  6.6763322299999999 -0.2257352900000000 -0.3075263500000000
  4.5297197599999999  1.4102438500000001  1.4273678400000001
  3.3728880600000002  3.4687074700000000  3.4285085000000000
  2.0986297500000002  5.0688819799999996  5.3589352100000003
 -0.0540143700000000  7.1663864200000003  6.9543159599999997
 18.1045427500000002  8.3728286500000006  8.2121733799999994
 16.2430107200000009 10.2863236300000001 10.2161253599999995
 14.9640262499999999 11.4119370199999999 11.4494348600000002
 13.1774173900000005 13.3689273699999998 12.7183722600000007
 11.3140909900000004 14.9088135200000007 15.1153561300000003
  9.6787414500000004 16.2744488700000005 16.8986534599999985
  8.4306653899999997 18.4291230500000012 18.7457895000000008
  8.5070976500000004 17.9505449199999987  0.7292919100000000
  6.6235816400000003 -0.3792377000000000  2.6040122399999999
  5.3057662199999998  1.6953494000000000  4.7913935800000003
  3.7062714200000002  3.0836285200000000  6.7332094099999997
  1.5475888499999999  4.9128970399999998  8.7253369400000000
 -0.1719297500000000  7.0845320400000000  9.7336979800000005
 18.8097624199999984  8.3833149099999993 10.9922972300000001
 16.9619232699999998 10.1435731100000002 12.6586604000000005
 15.0834639300000006 11.4865299699999994 14.2997200499999995
 13.1331925399999996 13.8355385200000001 16.5072009900000012
 12.0283193300000004 15.5023902000000007 18.8776890100000010
 10.2604232100000008 16.7357233600000015 19.8710022399999993
  9.6697987699999999 16.9874287099999997  3.3128262199999998
  8.1890037499999995 18.3753047299999999  5.1091974799999997
  6.0968217100000004  0.2312273300000000  6.6826956900000001
  4.9511263999999997  1.6014850000000000  8.9231620800000009
  3.0328875499999999  3.3782768900000000 10.3706260599999993
  1.4449072000000001  5.5694105000000000 11.5411139499999997
  0.3173535600000000  6.8513306600000003 13.1148715800000009
 18.4534107700000014  8.5116804399999992 14.9765162400000005
 16.7530923399999985 10.0800589800000004 16.7954865600000005
 14.9365384500000005 11.8490574100000003 18.3413706599999990
 13.4555522500000002 13.6693253600000002 20.2981058800000014
 11.4760992500000008 15.0749383800000007  1.9367893800000000
 11.2729215499999995 14.7831729000000003  5.4669615599999997
  9.7244157199999997 17.1416462100000011  6.5997490900000004
  7.5931472199999996 18.4070340799999990  8.4642677099999997
  6.7955451199999999 -0.3357002500000000 10.0734823999999996
  5.1412645699999997  1.7220916200000000 12.0666773500000009
  3.0404153500000000  3.6288537100000000 12.9260018700000003
  2.1380542700000000  5.1213177800000000 14.7910259600000007
 -0.3447468300000000  6.8357247299999999 16.5518749199999995
 18.0893000300000004  8.1829161500000005 18.0907221999999983
 16.6717814799999999  9.8625820599999994 19.8988150700000013
 14.2136334699999995 11.6183012399999992  1.7979992400000000
 13.3282225400000005 13.5896744700000003  3.4696675099999998
  4.4572848799999996  5.5641581599999999 14.9291646300000007
  2.7374276100000001  6.7846835099999998 16.7680349799999995
  1.3957340300000001  8.1950602700000008 18.7027773500000016
 -0.4600878100000000  9.6647938199999999  0.7012700100000000
 17.6295149799999997 11.8116373699999997  1.3135606300000000
 16.0366389299999987 13.8573179900000003  3.1128202200000001
 14.4179724799999995 15.3362760799999993  5.2349653199999997
 12.2912418399999996 17.1061517499999987  6.5242403099999997
 11.2590482800000000 18.5037184299999993  8.3913765399999996
  9.8213760099999998 -0.1106969700000000 10.5431120400000005
  7.7524492299999999  1.2968138499999999 12.3566387599999992
  6.1921468400000004  3.9562932000000002 13.5540949499999996
  6.4145963100000003  3.4683160700000002 16.7883488099999987
  4.6951688300000001  5.3089289099999997 18.1074404099999988
  3.7780223400000001  6.7822511700000003  0.3584647900000000
  1.6595246500000000  8.5635486400000005  2.1477499999999998
 -0.2340029200000000 10.1339566300000001  3.1657752800000001
 18.3717208499999991 12.2137200900000007  4.1300920699999999
 16.6002319699999994 13.4615568999999997  6.8152235799999996
 14.6958923600000002 15.1819842999999999  8.1401318699999994
 12.6336367000000003 17.4910048300000014  9.7612657899999995
 11.5020164699999992 18.1443636999999995 12.1391759700000001
 10.3963193300000007 19.9741275999999992 13.2895493499999997
  8.4879890099999997  1.8567027500000000 14.9682297700000007
  8.3447215900000007  1.8766887900000000 18.3946721800000006
  6.2501892699999999  3.8696873300000001  0.1889588400000000
  5.1862214699999996  5.4810792800000003  1.7557191400000001
  3.3777339500000001  6.5778710800000004  3.4606741799999998
  1.5346163700000000  8.8448202499999997  4.7544291300000001
  0.1171864000000000 10.4403416199999999  6.2218560299999996
 18.6502859000000001 12.0678617100000007  7.9423237000000002
 16.6153195899999986 13.4660524299999995  9.9743656499999993
 14.5775284900000006 14.9729311500000009 11.4451429900000008
 13.5350934200000008 16.8571850300000001 14.2489535499999995
 11.1639677400000004 18.8927015699999998 15.6599252500000006
  9.5661203399999994  0.6552281500000000 17.2228702499999997
 10.0579661199999997  0.0201598300000000 -0.2463537800000000
  8.4286036299999996  1.8550143600000000  1.4224213299999999
  6.8569020099999998  3.0958838200000001  3.1163070799999999
  5.3085584199999998  4.7550923400000000  4.7526568400000002
  3.2486867199999998  6.7802835799999999  6.9288825799999998
  1.7724322800000001  8.9193702399999992  8.0682475900000004
  0.0468239500000000 10.2336994899999993  9.3122617099999996
 18.7158877699999984 11.8027691600000004 11.2832966999999993
 16.9744873200000015 13.3055835299999998 13.1560973400000005
 14.8150078500000006 15.1335782200000004 14.5307683799999996
 13.1366494100000004 17.1803213600000007 16.0383212899999990
 11.6530839999999998 18.4697677899999988 18.1237581900000002
 11.5242242400000006 18.4409074900000007  1.7332576399999999
  9.6272528800000003  0.1385787700000000  3.2068731599999998
  7.6850742700000003  1.6937263700000000  4.7890817800000001
  6.4851463699999998  3.0899510499999998  6.6088249399999999
  5.2013908200000003  4.4580625700000001  8.4410041800000002
  3.4556667800000000  7.1772378999999997 10.0569368499999996
  1.5409944099999999  8.5738402399999991 11.2098095400000002
 -0.3915068700000000 10.3770920199999992 13.1745756499999995
 18.6329617200000008 11.2127270400000008 14.6325165699999999
 16.7396696799999987 12.8585205499999997 16.3356911400000016
 14.7507864200000007 15.1891003700000002 17.9768914799999990
 13.2343885500000003 17.0314619500000006  0.2474728900000000
 13.2947047499999993 16.4641163100000014  3.3963847100000000
 11.4902306500000009 18.7564262100000008  4.7470476599999998
  9.5502242499999994 -0.0783742800000000  6.4837980399999999
  8.1034303100000002  1.5219737499999999  8.2937390799999999
  6.6072370400000002  3.5518555900000002 10.3101654699999994
  4.7444892100000002  5.5491266000000001 11.7350826999999995
  3.4678646000000000  7.2977365499999998 13.1422368200000008
  1.8969724800000001  8.2459224300000002 15.1513008599999992
  0.1509719000000000 10.1698973899999991 16.8454960199999988
 18.0444102400000013 12.1199379100000009 18.7680064599999987
 16.0812069700000002 13.7629286900000007  0.0399190400000000
 14.4191854300000006 15.4641556900000001  1.4913236900000000
  6.7637024600000002  7.3362679799999997 13.6747419899999993
  5.0614698100000002  8.3733137400000004 14.8402623499999997
  2.6453328800000002 10.0825642000000002 17.0768103999999994
  1.1102889499999999 11.4113098300000004 18.5008272399999996
 -0.3102685700000000 13.6921771999999997  0.4537802200000000
 18.1930015300000001 15.4676809500000001  1.7531827200000001
 16.7186798500000009 16.8859082500000000  3.3866157600000002
 14.5129285800000005 18.2354904100000006  4.9965049600000002
 13.3044492600000002 -0.1079797500000000  6.8903088300000004
 10.8750570500000006  1.7987504800000000  8.8130068700000006
  9.1623974199999996  3.2740195200000000 10.4051168300000008
  7.8653401799999996  5.3272025100000002 12.3085797400000008
  8.2032057700000003  5.0137025900000003 15.1427099999999992
  7.1402256499999996  7.0047974300000000 16.8620063000000009
  4.5600880200000002  8.3107353600000007 18.0301268499999985
  3.1292338700000002 10.0812723299999991  0.2806991600000000
  1.4502285900000000 11.8612845100000008  1.9950920700000001
  0.1124091200000000 13.7310710999999994  3.0804417700000002
 18.2993204700000014 15.3309823299999994  5.0468293500000003
 16.8352584999999983 16.3388308400000000  6.8284984599999996
 14.8488042199999999 18.0144610900000011  7.6664069599999998
 13.4967465200000003 -0.7221336500000000  9.6803482899999995
 11.6822424300000005  1.6388646200000001 11.2385838200000006
  9.6285918299999995  3.8070716000000000 13.0451103499999999
  9.7884790899999992  2.9674032700000001 16.4303978099999988
  8.3058076599999993  5.1542113000000001 18.3217981799999983
  6.8037729499999999  7.0257728400000001 -0.4572087000000000
  5.2163976400000003  8.4898794300000002  1.6990645200000001
  3.9534741699999998 10.4300879700000007  3.2700155099999999
  1.7207764100000000 12.0338405399999999  4.4048536000000000
  0.1874545600000000 13.2892277100000005  6.0504227899999998
 18.7669821200000015 14.2233847900000008  8.1180957199999995
 16.7723537900000004 16.3585270499999993  9.4163344500000008
 15.1127567000000003 18.1976446699999990 11.4875189599999992
 13.1073348200000002 -0.6142755000000000 13.3443316200000002
 11.9866562999999999  1.5757667900000001 15.1007112600000006
 12.1234017000000005  1.9696142200000000 18.3866429499999988
 10.0494154099999999  3.5798306900000001 -0.0188409300000000
  8.1004244799999991  5.0705376500000003  1.6204719800000000
  6.5670999800000001  6.5127125799999996  3.2522609700000000
  4.7813231700000003  8.2947791300000002  4.3603046799999996
  3.9470680499999999 10.3449495000000002  6.9334386700000001
  2.0912603299999999 11.9878260599999997  8.2550515000000004
  0.3208165200000000 13.0943487100000002 10.0239361400000000
 18.3711737600000014 15.0266835000000007 11.1413155199999991
 17.0964913699999990 16.3510116900000000 12.8832989199999997
 15.6104912200000001 18.6375640599999990 14.6545473600000005
 13.6569207299999995 -0.0843655400000000 16.4950654000000014
 13.0821441699999994  0.0454175500000000  0.0059016900000000
 11.6412219300000004  1.8113569500000000  1.4655441300000001
  9.8483030700000000  3.4596196600000000  3.5122577100000001
  8.2640339399999991  4.5235516100000002  5.4747668599999999
  6.4449074299999998  6.0618698000000002  6.5819063900000003
  4.9700470100000000  8.1843117799999998  8.4706701599999992
  4.2956349100000004 10.8948574300000001 10.0915324099999992
  1.8761280600000001 11.5789223099999994 11.3721627900000009
  0.0424891400000000 13.5544428200000002 13.3806482500000001
 18.0477334599999999 14.9504255500000003 14.8048462099999991
 16.7139385500000017 16.3173483600000004 16.2817120600000003
 14.8036609299999995 18.3174864699999986 18.0643244400000000
 14.8933536699999998 18.6894312400000011  1.7277099000000000
 13.5526139099999998  0.3938144300000000  3.1869149900000000
 11.6773514699999996  1.1658383400000001  4.7726831100000000
  9.7882930899999998  3.0873873700000001  6.5047310100000004
  8.0790690000000005  4.4288991900000001  8.0935151399999992
  6.6873386500000001  6.7840384100000000  9.8948146200000000
  5.3745254999999998  8.9136916799999995 11.6666736300000000
  3.4075221700000000 10.1659799900000003 13.3694958499999998
  1.7164905600000000 11.6577952200000006 14.9785046800000003
 -0.2813412700000000 13.2178590099999997 16.7416980399999993
 18.2684575699999989 15.0332509499999993 18.0582621000000003
 16.2591545000000011 16.6426578300000010 -0.2012153800000000
  8.0066897099999998  7.9353774799999997 11.9613681199999995
  6.6841968700000001 10.1733088499999997 13.4512511200000002
  4.4820552999999999 11.4971254799999993 15.3714211499999998
  3.1987552400000001 12.9901451800000007 16.9786169800000017
  1.4427718899999999 14.8811301700000005 18.5829853800000002
 -0.3989676200000000 16.5875692599999986 -0.5789709700000000
 18.0505656600000002 18.1471295099999992  1.5190462899999999
 16.8212282000000002 20.2315543300000016  3.2610935500000000
 15.6772093100000003  2.1003819799999999  5.0156430099999998
 13.1000228900000000  2.1843911000000000  7.0841630699999998
 11.4323983800000004  4.4033584399999999  8.2849412400000002
  9.4705357400000008  6.7246481899999999  9.7403319600000007
  9.9205008400000008  6.7172952900000000 13.8643592699999996
  8.7519387900000005  8.6007487099999995 14.9994695300000007
  6.7427953699999996 10.3493633799999998 16.5212069899999996
  4.9620624199999996 11.1992170800000004 18.6347936899999986
  3.1405167999999999 12.4937791800000007 -0.3635236800000000
  1.7265100200000001 14.8973642300000009  1.3010642400000001
 -0.0571889500000000 16.7111966500000015  3.2267174900000000
 18.1888582700000008 18.9563159699999986  4.9314523699999997
 17.0076062800000010 19.9451691400000009  6.7118943900000003
 14.9943858999999993  1.3462299000000000  8.6205684300000005
 13.3423297099999996  3.2614271200000000  9.6832660599999993
 11.5827096600000008  4.7156351299999999 11.4173233900000000
 11.6758216200000007  4.3874295900000000 14.3653650600000002
 10.3331011700000008  6.2486205799999999 16.6425133000000010
  9.0822901399999996  8.5162442499999997 18.1052513099999999
  7.0092486799999998  9.8901174699999999  0.0379580400000000
  5.3573573699999999 11.8407446299999997  1.6778893399999999
  3.6672031999999999 13.6896768000000009  2.9510171700000001
  2.2840895500000000 15.1650597099999995  4.9252785699999997
  0.0173403600000000 16.6906322799999991  6.6448582700000003
 18.9716364700000000 18.1714837100000004  7.4097857999999999
 16.8247492600000008 -0.3696740000000000  9.3758255599999991
 14.9640894699999993  1.1824111200000000 11.8448551200000001
 13.1783581499999993  3.0152963100000001 13.0341885699999995
 13.2229950499999998  3.3454288900000000 16.3443542800000010
 11.8797627699999993  4.7158115299999999 18.5800946899999992
 10.1643711700000008  6.6823186200000002  0.0750172500000000
  8.5934389800000002  7.9485520400000000  1.7766257100000000
  7.2657390399999997 10.1039323400000001  2.9581786200000000
  4.9479497200000004 12.0021951799999993  4.7939255400000000
  3.6060709200000001 13.4736388500000004  6.6138671799999997
  2.1630132899999999 14.9198753699999997  7.6745512400000004
 -0.3314516700000000 16.3280252200000007  9.5169235899999993
 18.2159993100000008 18.1655451399999990 11.3246121500000001
 16.8717255399999999 19.6633586700000009 12.8256006800000009
 15.0252844900000007  1.6016543299999999 14.7819712899999995
 14.7125521599999995  1.8922723600000000 18.3031040000000012
 13.1513230900000000  3.5997278599999998  0.0495924100000000
 11.6098183600000002  4.8479190499999998  1.8974261100000001
  9.5759366000000004  6.4130536700000000  3.8084934600000002
  8.0861061900000006  8.2640226299999995  5.5917968299999998
  6.1704413599999999  9.7162318699999997  6.7817678600000004
  5.9615007200000001 12.0023484800000002  8.6100928400000001
  3.6428313900000000 13.9657882299999994 10.1476305100000008
  1.7917724500000001 15.0523157800000007 11.4349668100000006
  0.1791652300000000 16.7743307299999991 13.6411779899999992
 18.1142408199999991 18.4997267699999988 15.0804384999999996
 16.5473716099999990 20.3000094500000010 16.5544212299999991
 16.6673590699999998 -0.2655602800000000 -0.0546377800000000
 15.1246911500000003  1.7752391900000000  1.9088548900000000
 13.3353976299999992  3.1620133400000001  3.5268015899999998
 11.7146592199999997  4.7157970499999999  5.0211433799999998
 10.3475575899999992  6.5118815999999997  6.6903833600000002
  7.8736850499999997  7.9163512300000001  8.0559133400000000
  6.8392926400000000 10.0561270799999996 10.2970114099999996
  5.4823019999999998 12.1248019899999999 11.6304566099999995
  2.7441631399999999 13.1851896100000001 13.3372430000000008
  2.2369280800000002 15.0425907999999993 15.5425935899999992
  0.2713601600000000 16.4170228700000003 16.3995539199999989
 18.2152365399999994 18.1197218199999988 17.8283983900000003
