Li                                      
   1.00000000000000     
    21.6499999999999986    0.0000000000000006    0.0000000000000000
     0.0000000000000006   21.6499999999999986    0.0000000000000000
    -0.0000000000000006   -0.0000000000000006   21.6499999999999986
   Li
   500
Direct
  0.9953133436489594  0.0025469542725176  0.0056481094688223
  0.9906305926096977  0.1116744692840612  0.0959495482678960
  0.9925767510392589  0.2167375538106242  0.2051944909930725
  0.9840257367205538  0.3163449695150149  0.2928150457274796
  0.9869820175519664  0.4030726969976897  0.3961939034642015
  0.9847903085450369  0.4869201903002320  0.4964015967667450
  0.9928318110854519  0.5793506133949222  0.6085711819861430
  0.0048231381062322  0.6843479191685944  0.7019602872979220
  0.0055096286374123  0.7869094521939957  0.8010006757505792
  0.0145778027713632  0.9003949025404125  0.9008293653579642
  0.0903068549653554  0.0058552595842940  0.1052945030023125
  0.0960428794457258  0.1104172240184766  0.1998512503464198
  0.0874853963048494  0.1968735570438795  0.2876129889145531
  0.0855452184757510  0.2958205371824505  0.4004895330254072
  0.0926303515011568  0.3915344036951467  0.4838459030023117
  0.1092250794457286  0.4792818152424942  0.6036999131639718
  0.0912348443417983  0.5806425002309439  0.6978824083140864
  0.1072937145496553  0.6915649976905343  0.8033240143187044
  0.1001896147806036  0.7963585709006935  0.8991143408775955
  0.0963156660508062  0.8946303722863718  0.0084905251732081
  0.2004628290993082  0.9921649792147775  0.2092917639722884
  0.1997192540415682  0.0861692591223999  0.3114716434180167
  0.1934414868360292  0.2046872387990746  0.3986168360277134
  0.2089326475750610  0.3014822374133956  0.4944587579676707
  0.1940767570438808  0.3943052572748300  0.6150538323325634
  0.1894329168591256  0.4948080660508083  0.7018152933025377
  0.1957676281755170  0.5970310595842960  0.8007103108545053
  0.1998959478060058  0.6965050397228651  0.9008170290993078
  0.1941570628175526  0.8025385588914560  0.9949930683602801
  0.1854114226327965  0.9082360983833695  0.1051295122401825
  0.2963604554272550  0.9967361621247122  0.3047767704387994
  0.3021374623556596  0.0898572263279434  0.4021724655889116
  0.2984590785219368  0.2035242739029997  0.4943057722863742
  0.3006331191685945  0.3017939062355666  0.6030051630485005
  0.3013406184757486  0.3999467967667414  0.6943881293302567
  0.2929234337182436  0.5009243782909962  0.7949286720554269
  0.3067985334872958  0.5891095565819882  0.9020869824480400
  0.3067710050808330  0.6964040073902993  0.0007695270207861
  0.2861765066974584  0.8171100919168595  0.1005839316397257
  0.2920698886835993  0.9070853884526571  0.1906764143187090
  0.4112858064665161  0.9839484568129322  0.3926650004618963
  0.4186711311778311  0.1021441889145507  0.5049621311778267
  0.3977319810623570  0.2116035348729781  0.6118547588914538
  0.4052826646651297  0.2929639233256367  0.7030916577367208
  0.3992800360277116  0.4096827496535766  0.7998831884526538
  0.4026708697459611  0.5017439727482653  0.8960848521939937
  0.4005148281755169  0.5869102785219411  0.0103735801385696
  0.3987899043879892  0.6974033330254059  0.1148167025404163
  0.3966284655889112  0.8092131551963035  0.1949148230946918
  0.3873122882217075  0.8918405801385703  0.3061010374133915
  0.5022781173210191  0.9810906914549662  0.5095320023094700
  0.4842848605080832  0.1085879986143183  0.5878110272517318
  0.4980745819861454  0.2093568443417979  0.6987405122401853
  0.5055040138568145  0.3104628290993077  0.8084059205542715
  0.5050321085450378  0.3918486702078496  0.9006779829099330
  0.5008358803695145  0.5000074415704390  0.9894114859122425
  0.4907039963048518  0.5967490087759799  0.1190686896073885
  0.4871360161662821  0.7046356609699771  0.1898826027713625
  0.4973410203233257  0.8020159713625858  0.2956746198614297
  0.5065609168591223  0.8948068997690513  0.3896010212471097
  0.5959257043879873  0.0034492055427222  0.5942043210161643
  0.5935028734411105  0.0919962554272544  0.6906925690531196
  0.5937518702078535  0.1962909588914528  0.7744134919168602
  0.5903315247113170  0.2990535034642008  0.8926922720554273
  0.5947152489607390  0.3969995648960705  0.9999508087759850
  0.5914065362586598  0.5169035690531203  0.1046295390300216
  0.6040074420323336  0.6111492545034665  0.2063915210161653
  0.6123583898383345  0.7155534937644319  0.2969454230946909
  0.6026582401847591  0.8040212678983849  0.4044994018475734
  0.5964471173210129  0.8847657769053114  0.5048875131639718
  0.7007174027713603  0.9866272383371850  0.6929312235565845
  0.6899549759815216  0.1051966720554276  0.7826998508083136
  0.6894979653579654  0.1990216448036932  0.8946433588914573
  0.6918943667436466  0.2890710078521934  0.9982419450346427
  0.6833967279445758  0.4044383658198640  0.0995287565819893
  0.6912982956120075  0.5126456341801386  0.2086880106235540
  0.7114910023094723  0.6214474166281789  0.3018451995381071
  0.7121930831408747  0.7201320808314122  0.4041945177829120
  0.6974345025404176  0.8003857307159379  0.5098908655889147
  0.6961114766743677  0.8941169163972305  0.6066004558891436
  0.8074615852194000  0.9874098905311754  0.7917844882217082
  0.7944632808314083  0.0855673233256340  0.8925811690531162
  0.8092053972286379  0.1838768609699741  0.9974814267898395
  0.7967822568129321  0.2997981422632776  0.1021976364896062
  0.7898376983833728  0.4054510826789866  0.1864578471131608
  0.7930835039260984  0.5002912909930686  0.2809210909930684
  0.8026269519630489  0.6067804189376460  0.3931104323325627
  0.8131571265588917  0.6989642960739033  0.5035209339491900
  0.8059618434180109  0.7964094498845284  0.6143166572748271
  0.8274056905311795  0.9080546341801394  0.7030233177829075
  0.9082743367205524  0.9915942942263314  0.8931960618937609
  0.8990938702078495  0.1002190392609705  0.9926225635103947
  0.8902669616628174  0.2024419408775984  0.1095368646651238
  0.8841210073902985  0.3100963491916886  0.1975228314087758
  0.8820003616628185  0.4041915681293275  0.2900035362586593
  0.8930777986143212  0.5002915972286388  0.4021983006928380
  0.9002810591223991  0.6008982175519648  0.5088200882217109
  0.9071825741339481  0.6896441551963051  0.6044849653579689
  0.9019090170900697  0.7934187053117796  0.6963267454965347
  0.9201535685912248  0.8959498249422637  0.7830548960739065
  0.0968857875288691  0.1063479367205531  0.0084999145496525
  0.1067645357967635  0.1880171487297915  0.1023067907621282
  0.0985134032332553  0.3080436762124705  0.2111093427251731
  0.1059754027713637  0.4077380674364903  0.3044416960739014
  0.0890657334872955  0.4958934988452626  0.3961985995381028
  0.0919282702078519  0.5865158882217116  0.5052918212471127
  0.1063157990762136  0.6925336554272548  0.5998613995381064
  0.1021868346420334  0.7870031394919152  0.6851858041570438
  0.1019137016166312  0.8904958036951527  0.7983304046189375
  0.0846825011547310  0.0030602157043873  0.9075487464203249
  0.2118092212471154  0.0974541819861443  0.1027767681293312
  0.2143927066974598  0.2058389884526548  0.1990257981524266
  0.2036321745958460  0.2945250180138572  0.3003200083140882
  0.2060450240184792  0.4022446471131644  0.3831183025404172
  0.1924939053117782  0.4906086974595851  0.5076398642032345
  0.2103727621247131  0.5953361579676653  0.6060732637413366
  0.2011183612009262  0.6928098692840621  0.6994747939953783
  0.1900159057736701  0.7906569376443429  0.7969817251732110
  0.1896649524249412  0.8926720471131659  0.8839357935334888
  0.1978650272517299  0.9975056609699777  0.0010733856812948
  0.3025831127020808  0.0927176729792123  0.2029389399538104
  0.2914318549653601  0.1876941953810629  0.3076069681293276
  0.3009122323325641  0.3059529889145480  0.3929457173210196
  0.2908663445727484  0.3949821699769061  0.5152576706697474
  0.3029929233256325  0.4905374762124737  0.6123189653579644
  0.2905877519630451  0.5954479921478040  0.6855492757505743
  0.2982492928406444  0.6807475043879876  0.8065684706697454
  0.2843534000000005  0.7987708249422667  0.9046995662817565
  0.2862734655889128  0.8961830397228638  0.0020803935334897
  0.3021198854503453  0.0048712170900700  0.0965901787528836
  0.3950600092378735  0.0883146364896064  0.3057708794457241
  0.3971069006928403  0.2018962521939969  0.3817893612009229
  0.4030686314087788  0.3117116581986110  0.4949720762124699
  0.4086194217090053  0.4073575866050803  0.5920314050808315
  0.4078036812933021  0.5081554230946850  0.7092872905311793
  0.4053261861431849  0.6130042411085483  0.8012946586605096
  0.3975464392609709  0.6894876073902978  0.8922418646651238
  0.3997603173210180  0.8037058157043901  0.0113015515011554
  0.3918229274826786  0.9067832974595831  0.0879288923787556
  0.3958009473441138  0.9933553214780630  0.2084284124711289
  0.5102903727482655  0.0794455898383362  0.3972505200923777
  0.4881953949191669  0.2255388997690559  0.4845475159353327
  0.4972045852194000  0.3047391210161692  0.5848718734411094
  0.5148688905311758  0.4005433357967689  0.7075890055427223
  0.5127719228637417  0.5079147676674367  0.8055464526558893
  0.4940289325635092  0.6128794669745972  0.9046070942263285
  0.4987976036951522  0.7061948050808340  0.9979935020785220
  0.5035667879907635  0.8167204531177816  0.0941927422632816
  0.4884432549653610  0.8974643016166297  0.1941802678983819
  0.4967292101616607  0.9763512840646627  0.2833007658198596
  0.5973082688221680  0.0952321907621254  0.4962088443418011
  0.6019220799076237  0.1990671616628177  0.5933715413394935
  0.6006426175519621  0.3020380905311768  0.6927315016166276
  0.6143902618937673  0.4156306993071581  0.8032328956120125
  0.5982861214780613  0.4966631491916829  0.9148667598152400
  0.5982446549653559  0.6089343108545009  0.9979097755196307
  0.6018718822170896  0.7079386217090047  0.0889252198614301
  0.5967080327944601  0.7979412346420318  0.1892449625866064
  0.6032619875288674  0.8937468863741316  0.2953014605080853
  0.6073124161662804  0.9935834812932995  0.3960156018475729
  0.6981085875288713  0.1041742212471135  0.5963123644341835
  0.6941456041570433  0.1974662203233279  0.6960085334873014
  0.6920678175519654  0.3111051745958449  0.8039999926096968
  0.7063384789838310  0.3871320475750579  0.9084674618937640
  0.6977174207852173  0.5003499875288711  0.0033380351039227
  0.7073989219399550  0.6021923376443397  0.0894700803695159
  0.7155930933025374  0.7014002207852172  0.1859715270207829
  0.6942587995381047  0.7932635695150125  0.2835008443418019
  0.7080389214780567  0.8914043422632787  0.4180955667436521
  0.7055495884526550  0.9944548036951488  0.5009044452655900
  0.8050412715935309  0.1079822877598176  0.6974126300230949
  0.8006131131639691  0.2005198849884522  0.7962328969976937
  0.7914791709006934  0.2958434157043897  0.9088645815242486
  0.7870559893764408  0.4044184064665117  0.0002798743648995
  0.7889371787528887  0.4899955408776009  0.1035238715935307
  0.7916058780600466  0.6042201542725181  0.1861752794457274
  0.8041638942263276  0.7170737639722873  0.2998211057736739
  0.8109355353348704  0.8052213515011530  0.4204274540415724
  0.8073516822170888  0.9037053311778322  0.5123470055427219
  0.7980920692840670  0.9946862531177842  0.6020309782909905
  0.9012631575057739  0.0953849801385687  0.8148405048498830
  0.9031287727482677  0.2010007454965361  0.8853473039260962
  0.8985922655889169  0.3027018055427249  0.0045976198614284
  0.8962074036951506  0.4030914217090071  0.1029621602771371
  0.9041965588914564  0.4979915616628148  0.1877676272517306
  0.8790309806004615  0.6079231381062371  0.2911964812933050
  0.9033675053117776  0.6957522290993055  0.3927181473441124
  0.9103037653579662  0.8016701445727463  0.5134843796766759
  0.9116548471131622  0.9077805140877615  0.6132242374133980
  0.9082056295612020  0.0213617357967664  0.6946073935334880
  0.9967066845265578  0.1119118817551978  0.8921467191685934
  0.9935533519630511  0.2000458891454997  0.9982753519630521
  0.0039771122401859  0.3167369796766764  0.1133964369515041
  0.9947376420323337  0.4126308064665096  0.1991677870669761
  0.9947806618937634  0.4910766651270180  0.3096522392609700
  0.9800399676674374  0.5947569852193979  0.3917379709006923
  0.0085405284064635  0.6935016535796734  0.4979205833718225
  0.0142251612009261  0.7851455519630477  0.6075387796766734
  0.0150607903002324  0.8814448355658229  0.6880440508083154
  0.0087476937644340  0.9935735588914554  0.7837013718244776
  0.1912237607390281  0.2013814041570470  0.0019987030023074
  0.1926841076212469  0.2883486337182433  0.1020978942263255
  0.2173584189376427  0.4009902752886845  0.1930096711316409
  0.2128798263279421  0.5042798055427227  0.3007658512702065
  0.2017449995381071  0.5926594983833695  0.4125849898383365
  0.1923947385681259  0.6931469270207842  0.4955936101616629
  0.2036778637413406  0.7949594956120123  0.6060999080831380
  0.1950655695150090  0.9085760697459619  0.6920993436489624
  0.1950524415704393  0.0101172036951525  0.8126700009237879
  0.1923240120092373  0.0926267247113159  0.9010213482678964
  0.3110552558891442  0.2110117690531155  0.0987978896073898
  0.2993348212471147  0.2944199616628183  0.2056629833718233
  0.3157436434180170  0.3988038618937679  0.2962358849884552
  0.3057713685912233  0.4849347838337152  0.4125087367205538
  0.3088685893764449  0.5928849570438786  0.5065905390300216
  0.3080864374133938  0.7072572609699748  0.5965536549653550
  0.3009961584295624  0.7935602424942232  0.7038665967667441
  0.3042546748267867  0.9013626013856779  0.7928725357967679
  0.2940065722863707  0.9838437667436466  0.9038497145496507
  0.2947284637413361  0.1151128092378784  0.9907055265588909
  0.3935593621247122  0.2034246618937630  0.1973426508083165
  0.3927899898383345  0.2946874484988484  0.2994858715935322
  0.4068893344110833  0.4137959408775984  0.4139837898383405
  0.4040427930715964  0.4995339311778295  0.5080573362586591
  0.4067828401847606  0.5947920637413375  0.6047434387990762
  0.4015252637413411  0.6949346475750602  0.7000273284064633
  0.3926814642032355  0.7984061274826786  0.8030854184757530
  0.3946436651270204  0.8960292993071590  0.8955948300230929
  0.3920945972286347  0.0070642050808303  0.9732135136258648
  0.4058002836027725  0.1052160937644331  0.0842783344110885
  0.4968789542725176  0.1867069501154717  0.3012250678983861
  0.4923395769053087  0.3045431635103952  0.4068170595842986
  0.5085511515011518  0.4158963030023060  0.5023017163972270
  0.5039375353348703  0.4996991048498813  0.6076866355658197
  0.5150131838337160  0.5990285436489629  0.6972039247113173
  0.5001706170900704  0.7024275293302509  0.8002790244803677
  0.5038749233256326  0.8159549367205514  0.8986158290993060
  0.4957793016166292  0.9064461565819855  0.9900762655889110
  0.4921317436489616  0.9998731565819838  0.1004065579676663
  0.4797923713625849  0.1010996101616612  0.2153670919168604
  0.6036256064665153  0.2007120041570474  0.4106943491916866
  0.6007798937644324  0.3019823039260956  0.5006757963048472
  0.6010811482679017  0.4052070642032319  0.5965226909930692
  0.6092529491916849  0.5014662300230981  0.6921736868360284
  0.6011919454965380  0.5948993085450383  0.8185400498845254
  0.5940830050808330  0.7188141556582011  0.9000437445727485
  0.6052398337182439  0.8202311325635137  0.9970573422632825
  0.5992554568129336  0.9042240230946916  0.1086931016166304
  0.5935236905311783  0.9902507390300244  0.1928739806004600
  0.5944632217090060  0.1038310854503450  0.2930934905311773
  0.7110259963048478  0.1966295127020814  0.5023888124711320
  0.6890011011547372  0.2969440678983801  0.6043504554272516
  0.6930122651270239  0.4021493958429545  0.7004610822170889
  0.7003421801385699  0.5026818669745978  0.8152388623556561
  0.7150774078521920  0.6081339635103902  0.9185283625866063
  0.7085555090069278  0.6958693833718215  0.9996059921478064
  0.7046925570438773  0.8057746771362559  0.1006565251732070
  0.7124054300230966  0.9078835487297923  0.1918063598152457
  0.6869081247113158  0.9824498429561217  0.2938977501154767
  0.6870097436489573  0.0778124092378718  0.3909912378752907
  0.7976837676674364  0.2065226762124723  0.6042664928406438
  0.7913230009237893  0.2901131524249436  0.7197255080831439
  0.7895566143187054  0.3999522438799090  0.8037655016166312
  0.7977609150115441  0.4955026605080803  0.9089194110854493
  0.8201394508083126  0.5982032859122413  0.0135799810623567
  0.8072126794457262  0.6999129829099289  0.1041611020785211
  0.8072109635103928  0.8048287718244822  0.1731070152424934
  0.7892493963048466  0.8959914129330286  0.3017427177829077
  0.7838327177829072  0.0080366096997722  0.3914112106235592
  0.8018538951501171  0.1057167722863710  0.4872279247113198
  0.9157959602771371  0.1987246267898399  0.7128697371824515
  0.8919545205542718  0.2913416110854499  0.8149493237875305
  0.8936453011547343  0.3888103769053117  0.9002265806004601
  0.8891098193995361  0.4827348000000029  0.0080539274826776
  0.9153545136258643  0.5972208956120113  0.1053035413394952
  0.8986803898383400  0.7067774697459583  0.1830460203233244
  0.8972910351039260  0.8059640332563518  0.3018743542725204
  0.8987498401847560  0.9206369722863741  0.3965078341801416
  0.8967015829099338  0.0030496974595877  0.5064607427251744
  0.9122079709006954  0.1097210198614320  0.5825776605080861
  0.0067800794457256  0.2023882290993058  0.8001151205542740
  0.0089343154734394  0.2911663025404181  0.8833468831408808
  0.9951602729792128  0.3924120443418033  0.0048552018475760
  0.0117721302540446  0.4874927297921445  0.0921252794457246
  0.0009971819861434  0.5708472531177833  0.1951241279445739
  0.9941091196304868  0.6973364526558896  0.2892910212471165
  0.0034522406466522  0.8000294877598151  0.4110797588914537
  0.9975292143187033  0.9027899501154764  0.5107796983833737
  0.0155998272517337  0.0090956489607379  0.5953862789838311
  0.9962058882217093  0.1150073367205522  0.7108369773672081
  0.1100584734411072  0.2087803981524274  0.9061724983833699
  0.0856273459584287  0.3070589154734407  0.0066661039260936
  0.1093521279445753  0.4041479108545047  0.1074696323325668
  0.1187322392609715  0.4959009727482666  0.1999081676674379
  0.1036559842956137  0.5926101173210157  0.2952247995381043
  0.0913485154734417  0.6796282106235552  0.3939329944572734
  0.0958543796766733  0.8047980050808334  0.5019786674364894
  0.1155547043879892  0.9029487949191690  0.5856112046189352
  0.1031143006928374  0.0064490332563523  0.7071332263279473
  0.0972280969976893  0.1062129630484989  0.8108554157043883
  0.3004023418013873  0.2981888979214773  0.0138839394919188
  0.3044984674364883  0.3851036674364892  0.1052756101616623
  0.3103313006928374  0.5006664628175486  0.2089764969976926
  0.2948542060046222  0.6027637990762145  0.3078786480369544
  0.2824205002309483  0.6961750249422636  0.3959563279445746
  0.2987753413394927  0.7934097986143200  0.4905661260970007
  0.2947339348729798  0.9051089866050788  0.5930041196304856
  0.2807059672055416  0.0096808711316427  0.6914552226327970
  0.3088294415704382  0.0895875616628174  0.8108433718244825
  0.2931067076212486  0.2174337071593513  0.8865275150115508
  0.4054666438799046  0.2940743062355651  0.1138608411085471
  0.4123689981524237  0.3941240558891437  0.1967185357967693
  0.4105401247113178  0.5022670780600436  0.3180737371824449
  0.3929394743648942  0.6175464244803663  0.4051400448036944
  0.3892126087759848  0.7094368642032336  0.4999823159353340
  0.3944411718244822  0.8042119778290981  0.6076934374133955
  0.3968025681293312  0.9109922337182468  0.6853146919168580
  0.3930780956120117  0.0003484720554283  0.7905817353348752
  0.4051788766743627  0.1092166891454980  0.8924255187066947
  0.4117471648960773  0.2049792854503494  0.9931154581986164
  0.5111698632794486  0.2974555390300253  0.2183825006928402
  0.5045533464203231  0.4112658489607384  0.2993965602771382
  0.4988416240184748  0.5221359787528854  0.4119707584295611
  0.5103816078521959  0.6153537889145468  0.5032545852194019
  0.4986653792147777  0.7039843473441110  0.6038805394919180
  0.5039305191685912  0.7940323635103894  0.7164256101616644
  0.5043376327944600  0.9148415482679013  0.7923500891454935
  0.4905890221709015  0.0195952023094677  0.8880842688221691
  0.5071027695150150  0.0861339491916837  0.9937906549653590
  0.5087288997690536  0.1906842600461900  0.1052880660508109
  0.6014022277136277  0.2979566586605102  0.3130587034642005
  0.6165868642032351  0.4169055487297939  0.4050991030023070
  0.6169104364896043  0.5241084438799106  0.5114469496535818
  0.6191097976905340  0.6112228106235591  0.6100310351039226
  0.6093484355658205  0.7001364341801377  0.7162205565819875
  0.5988467334872993  0.8014991736720560  0.7929554979214757
  0.5986513071593507  0.9136622789838356  0.8841102785219377
  0.6039028101616637  0.0084126508083173  0.0020493404157023
  0.5956975866050840  0.1057683159353360  0.0907626757505753
  0.6060679792147781  0.1999361145496508  0.2144549288683635
  0.6950581990762146  0.2990452660508112  0.4071437177829083
  0.7097725085450364  0.3991143196304847  0.5025622554272502
  0.7141646752886857  0.4999701390300260  0.5977285062355691
  0.7029567122401872  0.5964176845265570  0.7144774752886818
  0.7055188748267867  0.7062434692840611  0.8078162060046168
  0.7033204780600428  0.8137246946882186  0.9042724531177839
  0.6960089025404130  0.8991475362586598  0.0052997006928379
  0.7013484660508098  0.0071597200923819  0.0911832854503487
  0.6898935302540394  0.0900786729792173  0.2067873210161650
  0.7075009131639689  0.1972950138568095  0.3187424078521914
  0.7818781575057727  0.3104134766743627  0.4940901916859133
  0.7866934166281752  0.3879255418013869  0.6029347154734381
  0.7942302254041564  0.4968309256351020  0.7073413390300232
  0.8123683903002288  0.5966602221709039  0.8172341829099281
  0.8063876364896103  0.7071001972286339  0.9078903330254064
  0.8095820577367192  0.8151583773672044  0.9935976281755217
  0.8024956697459587  0.9203310951501180  0.0914222286374127
  0.7918332078521928  0.9902652101616596  0.1958823921478086
  0.7810758702078502  0.0884991062355667  0.2895566429561214
  0.8005429842956104  0.1955105150115486  0.3953562290993062
  0.8733771718244796  0.3063729912240163  0.6042310558891444
  0.8932368475750607  0.3813394471131630  0.7199835866050819
  0.9006570734411099  0.5023096429561207  0.8039223030023095
  0.8975515279445716  0.5921776138568120  0.9084452327944561
  0.8967882637413425  0.7065143944572725  0.0090565833718230
  0.9048716397228631  0.8069924725173223  0.0802021893764433
  0.8995095145496563  0.9111509796766768  0.1786171584295602
  0.8937106240184747  0.9928048969976899  0.3024917607390307
  0.8981355066974572  0.1018843214780603  0.3957510697459554
  0.8863121427251741  0.2228898443418004  0.4936758212471162
  0.9960768669745974  0.2873743870669756  0.7011685967667418
  0.9928376498845282  0.3800102290993053  0.8117859025404144
  0.0004346018475729  0.4967841635103909  0.9090360831408759
  0.0186838466512711  0.5996088046189385  0.0119562378752889
  0.9848812258660473  0.7082697967667428  0.0974932642032300
  0.0089933016166270  0.8105675593533519  0.1957165842956101
  0.0017023491916888  0.9111304614318740  0.2920775907621262
  0.0105076046189367  0.9947255468822149  0.3980224799076240
  0.9985354498845282  0.1165502323325640  0.4818901842956151
  0.9905763528868334  0.2114571478060014  0.6004145676674355
  0.1006853473441112  0.2918594406466539  0.7968892702078492
  0.0968512919168560  0.4041777944572758  0.9039108628175541
  0.1041220766743649  0.4841136152424923  0.9824085362586601
  0.0995583907621267  0.6059213048498862  0.0974261011547313
  0.1050011293302546  0.6880532891454934  0.1959441297921458
  0.0885778484988435  0.8029563999999993  0.2988251639722890
  0.1065046545034676  0.8955117787528835  0.4052337334873002
  0.1051221427251718  0.0047091390300196  0.4904570498845260
  0.0991335482679006  0.1162561815242498  0.6032544461893750
  0.1026181473441099  0.2063038923787559  0.7017940591223990
  0.2079716729792125  0.3043545496535813  0.8978443976905339
  0.2026160129330279  0.3872903732101634  0.0062034166281748
  0.1951063695150097  0.4987878475750591  0.1063110073903033
  0.2077496632794436  0.6055172295612010  0.2039727644341767
  0.1953522064665094  0.6979070092378734  0.2935575478060031
  0.2020372891454940  0.7947632503464206  0.3952430267898350
  0.1982118240184789  0.8982423944572773  0.4875810341801383
  0.2084649999999968  0.0254338235565825  0.5941968138568114
  0.1951160304849893  0.1134495284064698  0.7087020535796782
  0.2008673431870704  0.1950722327944590  0.7939701080831441
  0.4060578009237901  0.3857207233256332  0.9891771625866070
  0.4116694512702068  0.4843680632794474  0.0967415907621216
  0.3947464041570470  0.5970816808314083  0.2147703057736692
  0.3965539367205508  0.7014714780600428  0.2899120531177815
  0.3988005039260969  0.7951256027713640  0.3987557168591209
  0.4019182484988448  0.8936659787528853  0.4936523842956149
  0.3962709367205548  0.9840696808314107  0.6035803819861414
  0.3992115709006896  0.0965232849884501  0.6870562762124734
  0.4036625967667433  0.2101896581986153  0.8043672069284042
  0.4043032221709026  0.2990584175519615  0.9046866170900714
  0.4947288531177847  0.3937585297921444  0.0948927852194004
  0.4908109385681314  0.5161564762124726  0.1984646217090074
  0.4996339422632801  0.6288561847575025  0.3010506461893740
  0.5079459233256358  0.7127003607390279  0.3991122166281755
  0.5003108725173178  0.8068395570438796  0.5088486281755209
  0.4929446129330231  0.8865853879907633  0.6105541856812948
  0.4974489981524215  0.0036919427251760  0.6964095538106250
  0.5004363478060014  0.1011783963048529  0.7843298193995381
  0.5018568184757513  0.1872636618937662  0.8917755903002273
  0.5153208475750546  0.2989319163972297  0.9956134267898378
  0.5931285870669711  0.4100444965357966  0.2018560752886813
  0.6017721519630470  0.5065207579676709  0.3086850595842989
  0.6130732752886843  0.6132770646651267  0.3874965944572750
  0.6063835265588935  0.7187528498845239  0.5096575676674391
  0.5895578129330232  0.7912830364896095  0.6043854180138553
  0.6029204272517319  0.9042959561200945  0.7016381704387982
  0.5936944115473466  0.9926647168591245  0.7843282683602766
  0.5978313265588895  0.0928865870669711  0.8882828900692843
  0.5954921903002344  0.1801490013856792  0.9932721321016160
  0.5938825478060039  0.2920113625866065  0.0908601806004654
  0.6914367769053129  0.3956362942263283  0.2930850448036963
  0.7005648101616657  0.4887676360277169  0.3941010203233262
  0.7107311524249411  0.6244841233256366  0.4980792212471101
  0.7121741501154730  0.6959509621247122  0.6036473260969970
  0.7000385016166248  0.8010234434180106  0.6950184434180144
  0.6958413685912248  0.8986365062355688  0.7916984665126989
  0.6999034369515016  0.9837583251732127  0.8885861833718280
  0.7033221228637387  0.1061858517320999  0.9884084914549689
  0.6978116198614330  0.1933375588914572  0.1015576249422665
  0.6962141625866067  0.3104429450346444  0.2043556369515045
  0.7927640078521918  0.3972874138568159  0.3924622240184732
  0.7912925898383349  0.5044400032332561  0.5003268212471141
  0.7947316295611984  0.6035150036951507  0.6091276799076226
  0.8106692180138566  0.6948586263279424  0.7099407524249415
  0.7951124826789808  0.8028328290993088  0.7984198720554261
  0.8185138508083156  0.9023705999999976  0.8960225755196305
  0.7992336498845276  0.0035202170900703  0.9973188023094721
  0.8027673034642007  0.0998952725173226  0.0993420909930691
  0.7904451829099273  0.2075059570438782  0.1962294143187080
  0.8017383612009255  0.3090155515011546  0.2973756341801419
  0.8805222170900677  0.4000274175519607  0.4981690272517341
  0.8863672914549667  0.4895344743648948  0.6012597722863759
  0.8991349062355667  0.6008192124711300  0.7051785099307182
  0.9106864281755165  0.6925522660508108  0.8063901501154760
  0.9083586678983835  0.7907353085450382  0.8865707579676680
  0.9024564517320997  0.8970698143187050  0.9984171653579708
  0.9102031685912237  0.0148944937644373  0.1019028415704355
  0.8884606739030048  0.0864643127020770  0.2080044064665145
  0.8876397039260979  0.2004253302540420  0.2989599016166267
  0.9013873357967697  0.3088513621247131  0.3892249344110823
  0.9879148771362551  0.3890165999999979  0.6018222720554292
  0.9954829450346452  0.4913870170900694  0.7060526766743678
  0.9963402697459571  0.5916849233256372  0.7976236674364898
  0.0103897852194024  0.6812304508083145  0.9084204364896067
  0.0127225593533495  0.7863358207852187  0.9873991889145515
  0.0071407330254019  0.8931842272517301  0.1052939949191654
  0.9895315990762157  0.0122577418013847  0.1997528993071569
  0.0043449939953817  0.0970508133949224  0.3080518845265559
  0.9957850230946903  0.2022648711316393  0.3948895408775996
  0.9917525782909919  0.3091183025404192  0.5099811764434179
  0.0926770060046209  0.3903726009237900  0.7193175150115465
  0.0972922711316428  0.5003524018475716  0.8057190157043905
  0.1090568415704354  0.5969276461893784  0.9127684133949217
  0.1180936207852170  0.6909887464203237  0.0128842240184781
  0.1020657427251734  0.7910683690531144  0.1033743819861428
  0.1017940152424970  0.9036601699769022  0.1945444143187061
  0.0901023653579642  0.0065032263279434  0.2948283039260957
  0.0934975685912249  0.1047524461893730  0.4023358545034625
  0.1046682475750558  0.2256451071593517  0.5073725815242511
  0.1094062120092403  0.2992293648960711  0.6037977205542759
  0.2105542397228604  0.3929546669745960  0.8104780836027743
  0.2131566374133982  0.4946028212471134  0.9078060535796766
  0.2027965071593556  0.5996059177829096  0.0020045524249426
  0.2091020836027724  0.6872324452655860  0.0961741653579651
  0.1905503963048503  0.7973841856812953  0.2075339570438786
  0.2024460743648930  0.8958394050808280  0.2958744692840654
  0.1925454674364886  0.0044730364896068  0.3894797159353374