Li 
 1.0000000000000000
    21.6499999999999986    0.0000000000000006    0.0000000000000000
     0.0000000000000006   21.6499999999999986    0.0000000000000000
    -0.0000000000000006   -0.0000000000000006   21.6499999999999986
 Li 
 500
Cartesian
 -0.1014661100000000  0.0551415600000000  0.1222815700000000
 -0.2028476700000000  2.4177522599999999  2.0773077199999999
 -0.1607133400000000  4.6923680399999999  4.4424607299999996
 -0.3458428000000000  6.8488685900000004  6.3394457400000004
 -0.2818393200000000  8.7265238899999993  8.5775980100000009
 -0.3292898200000000 10.5418221200000009 10.7470945699999998
 -0.1551912900000000 12.5429407800000003 13.1755660900000002
  0.1044209400000000 14.8161324499999996 15.1974402200000007
  0.1192834600000000 17.0365896399999990 17.3416646300000004
  0.3156094300000000 19.4935496400000012 19.5029557599999990
  1.9551434100000000  0.1267663700000000  2.2796259900000000
  2.0793283400000000  2.3905329000000002  4.3267795700000002
  1.8940588300000001  4.2623125100000001  6.2268212099999998
  1.8520539800000000  6.4045146300000004  8.6705983900000003
  2.0054471100000000  8.4767198399999995 10.4752638000000005
  2.3647229699999999 10.3764512999999994 13.0701031200000006
  1.9752343800000001 12.5709101299999997 15.1091541399999993
  2.3229089200000002 14.9723822000000002 17.3919649099999987
  2.1691051600000000 17.2411630600000016 19.4658254799999995
  2.0852341700000001 19.3687475599999992 21.8338198699999992
  4.3400202500000002 -0.1696282000000000  4.5311666900000001
  4.3239218499999996  1.8655644600000001  6.7433610799999997
  4.1880081899999997  4.4314787200000003  8.6300545000000000
  4.5233918199999996  6.5270904400000003 10.7050321099999994
  4.2017617899999999  8.5367088199999994 13.3159154700000002
  4.1012226500000004 10.7125946299999999 15.1943011000000006
  4.2383691499999996 12.9257224399999995 17.3353782299999999
  4.3277472699999997 15.0793341099999996 19.5026886799999986
  4.2035004100000002 17.3749597999999992 -0.1084000700000000
  4.0141572999999999 19.6633115300000014  2.2760539400000002
  6.4162038600000004 -0.0706620900000000  6.5984170799999999
  6.5412760600000004  1.9454089500000000  8.7070338799999991
  6.4616390499999996  4.4063005300000002 10.7017199699999992
  6.5087070300000001  6.5338380699999998 13.0550617800000008
  6.5240243900000001  8.6588481500000007 15.0335029999999996
  6.3417923399999996 10.8450127900000002 17.2102057500000001
  6.6421882500000002 12.7542218999999992 19.5301831700000008
  6.6415922600000004 15.0771467599999998  0.0166602600000000
  6.1957213700000002 17.6904334900000002  2.1776421199999998
  6.3233130900000001 19.6383986600000000  4.1281443700000002
  8.9043377100000001 -0.3475159100000000  8.5011972599999996
  9.0642299899999994  2.2114216899999999 10.9324301399999992
  8.6108973899999999  4.5812165299999998 13.2466555300000000
  8.7743696900000003  6.3426689400000003 15.2219343899999995
  8.6444127799999997  8.8696315299999995 17.3174710300000001
  8.7178243299999991 10.8627570099999993 19.4002370500000012
  8.6711460299999992 12.7066075299999994  0.2245880100000000
  8.6338014300000001 15.0987821600000007  2.4857816100000001
  8.5870062800000007 17.5194648099999988  4.2199059200000004
  8.3853110399999995 19.3083485599999989  6.6270874600000003
 10.8743212400000004 -0.4093865300000000 11.0313678500000005
 10.4847672299999992  2.3509301699999998 12.7261087400000008
 10.7833147000000000  4.5325756799999999 15.1277320900000003
 10.9441618999999992  6.7215202500000002 17.5019881800000014
 10.9339451499999996  8.4835237100000001 19.4996783299999983
 10.8430968100000005 10.8251611099999998 -0.2292413300000000
 10.6237415199999994 12.9196160399999993  2.5778371299999998
 10.5464947500000008 15.2553620599999995  4.1109583499999998
 10.7674330900000008 17.3636457799999988  6.4013555200000001
 10.9670438499999996 19.3725693800000016  8.4348621099999992
 12.9017914999999999  0.0746753000000000 12.8645235499999995
 12.8493372099999998  1.9917189300000000 14.9534941200000002
 12.8547279900000007  4.2496992599999999 16.7660520999999996
 12.7806775100000003  6.4745083499999998 19.3267876899999997
 12.8755851400000001  8.5950405799999992 -0.0010649900000000
 12.8039515099999992 11.1909622700000000  2.2652295200000001
 13.0767611200000005 13.2313813600000003  4.4683764300000002
 13.2575591399999997 15.4917331399999991  6.4288684099999998
 13.0475508999999992 17.4070604499999995  8.7574120499999992
 12.9130800899999993 19.1551790699999991 10.9308146599999993
 15.1705317700000002 -0.2895202900000000 15.0019609900000006
 14.9375252300000003  2.2775079499999999 16.9454517699999982
 14.9276309499999993  4.3088186100000003 19.3690287199999993
 14.9795130400000005  6.2583873199999998 -0.0380618900000000
 14.7955391600000006  8.7560906200000002  2.1547975799999999
 14.9666081000000002 11.0987779799999995  4.5180954299999998
 15.4037801999999999 13.4543365700000006  6.5349485700000001
 15.4189802500000006 15.5908595499999993  8.7508113099999996
 15.0994569799999994 17.3283510700000001 11.0391372400000005
 15.0708134699999992 19.3576312399999999 13.1328998699999993
 17.4815433200000001 -0.2725758700000000 17.1421341699999985
 17.2001300300000004  1.8525325500000001 19.3243823100000007
 17.5192968499999999  3.9809340400000002 -0.0545271100000000
 17.2503358599999999  6.4906297799999999  2.2125788300000000
 17.0999861700000011  8.7780159399999995  4.0368123899999997
 17.1702578599999995 10.8313064499999996  6.0819416200000003
 17.3768735099999994 13.1367960700000008  8.5108408600000001
 17.6048517900000014 15.1325770100000003 10.9012282200000001
 17.4490739099999992 17.2422645900000013 13.2999556299999995
 17.9133332000000003 19.6593828299999984 15.2204548299999995
 19.6641393899999990 -0.1819835300000000 19.3376947399999999
 19.4653822900000009  2.1697422000000000 21.4902784999999987
 19.2742797199999991  4.3828680200000001  2.3714731200000001
 19.1412198099999991  6.7135859599999996  4.2763692999999998
 19.0953078299999994  8.7507474500000004  6.2785765600000003
 19.3351343399999998 10.8313130799999993  8.7075932100000006
 19.4910849299999995 13.0094464100000007 11.0159549099999996
 19.6405027300000015 14.9307959599999993 13.0870995000000008
 19.5263302199999984 17.1775149700000007 15.0754740399999996
 19.9213247600000010 19.3973137099999988 16.9531385000000014
  2.0975773000000002  2.3024328299999999  0.1840231500000000
  2.3114522000000002  4.0705712700000003  2.2149420200000001
  2.1328151800000001  6.6691455900000003  4.5705172699999999
  2.2943674700000001  8.8275291599999992  6.5911627199999998
  1.9282731300000000 10.7360942500000007  8.5776996800000003
  1.9902470500000000 12.6980689800000004 10.9395679300000008
  2.3017370499999998 14.9933536400000005 12.9869993000000008
  2.2123449700000002 17.0386179700000007 14.8342726599999999
  2.2064316399999999 19.2792341500000006 17.2838532600000008
  1.8333761500000001 21.7162536700000004 19.6484303599999990
  4.5856696399999999  2.1098830400000002  2.2251170299999998
  4.6416021000000001  4.4564140999999999  4.3089085300000001
  4.4086365799999996  6.3764666400000003  6.5019281800000002
  4.4608747700000002  8.7085966100000007  8.2945112499999993
  4.1674930500000000 10.6216782999999992 10.9904030600000002
  4.5545703000000000 12.8890278200000008 13.1214861599999999
  4.3542125199999999 14.9993336700000004 15.1436292899999998
  4.1138443599999999 17.1177227000000016 17.2546543499999991
  4.1062462200000001 19.3263498200000008 19.1372099300000009
  4.2837778399999999 21.5959975600000007 21.6732388000000000
  6.5509243899999996  2.0073376199999999  4.3936280500000002
  6.3094996600000002  4.0635793299999996  6.6596908600000004
  6.5147498300000004  6.6238822099999997  8.5072747799999995
  6.2972563600000004  8.5513639799999996 11.1553285700000000
  6.5597967900000000 10.6201363600000001 13.2567056000000001
  6.2912248300000000 12.8914490300000004 14.8421418200000002
  6.4570971899999998 14.7381834699999992 17.4622073899999997
  6.1562511100000004 17.2933883600000016 19.5867456100000012
  6.1978205300000004 19.4023628099999996  0.0450405200000000
  6.5408955200000003 21.7554618499999997  2.0911773700000000
  8.5530492000000002  1.9120118800000001  6.6199395399999998
  8.5973644000000000  4.3710538600000000  8.2657396700000003
  8.7264358699999995  6.7485574000000002 10.7161454500000008
  8.8466104800000007  8.8192917499999997 12.8174799200000002
  8.8289497000000008 11.0015649100000008 15.3560698400000000
  8.7753119300000009 13.2715418199999995 17.3480293600000017
  8.6068804100000005 14.9274067000000006 19.3170363700000003
  8.6548108700000004 17.4002309100000012  0.2446785900000000
  8.4829663800000006 19.6318583900000014  1.9036605200000001
  8.5690905100000005 21.5061427099999989  4.5124751300000003
 11.0477865699999995  1.7199970200000001  8.6004737599999999
 10.5694303000000005  4.8829171799999997 10.4904537199999996
 10.7644792700000007  6.5976019700000004 12.6624760599999995
 11.1469114800000000  8.6717632200000008 15.3193019699999997
 11.1015121299999997 10.9963547199999994 17.4400806999999993
 10.6957263900000008 13.2688404599999998 19.5847435899999986
 10.7989681199999996 15.2891175300000004 -0.0434406800000000
 10.9022209599999993 17.6819978099999986  2.0392728700000000
 10.5747964700000008 19.4301021300000016  4.2040027999999996
 10.7541873999999993 21.1380052999999997  6.1334615799999996
 12.9317240200000008  2.0617769300000002 10.7429214799999997
 13.0316130300000008  4.3098040500000003 12.8464938699999998
 13.0039126700000001  6.5391246599999997 14.9976370100000000
 13.3015491699999995  8.9984046400000004 17.3899921900000010
 12.9528945300000000 10.7527571799999997 19.8068653499999989
 12.9519967800000000 13.1834278299999994 -0.0452533600000000
 13.0305262499999994 15.3268711599999996  1.9252310100000001
 12.9187289100000005 17.2754277300000005  4.0971534399999996
 13.0606220299999993 19.3496200899999984  6.3932766200000000
 13.1483138099999994 21.5110823700000005  8.5737377800000001
 15.1140509200000004  2.2553718900000002 12.9101626899999999
 15.0282523300000008  4.2751436700000003 15.0685847499999994
 14.9832682500000001  6.7354270300000003 17.4065998399999984
 15.2922280700000002  8.3814088299999998 19.6683205500000007
 15.1055821600000009 10.8325772300000001  0.0722684600000000
 15.3151866600000002 13.0374641100000002  1.9370272399999999
 15.4925904699999997 15.1853147800000006  4.0262835600000004
 15.0307030099999999 17.1741562799999983  6.1377932800000004
 15.3290426499999999 19.2989040100000011  9.0517690200000001
 15.2751485900000006 21.5299465000000012 10.8445812400000001
 17.4291435300000010  2.3378165300000000 15.0989834399999996
 17.3332738999999982  4.3412555099999999 17.2384422199999996
 17.1355240500000008  6.4050099500000002 19.6769181899999985
 17.0397621699999995  8.7556584999999991  0.0060592800000000
 17.0804899200000015 10.6084034599999999  2.2412918199999998
 17.1382672599999992 13.0813663400000006  4.0306948000000000
 17.4101483100000003 15.5246469900000008  6.4911269400000000
 17.5567543400000012 17.4330422600000006  9.1022543799999998
 17.4791639200000013 19.5652204199999993 11.0923126700000001
 17.2786933000000005 21.5349573800000016 13.0339706799999995
 19.5123473599999997  2.0650848200000000 17.6412969299999993
 19.5527379299999993  4.3516661399999998 19.1677691299999999
 19.4545225500000001  6.5534940900000000  0.0995384700000000
 19.4028902899999984  8.7269292800000002  2.2291307699999998
 19.5758554999999994 10.7815173099999999  4.0651691300000001
 19.0310207300000016 13.1615359400000003  6.3044038200000001
 19.5579064900000006 15.0630357600000000  8.5023478899999994
 19.7080765199999988 17.3561586299999995 11.1169368199999994
 19.7373274400000014 19.6534481300000010 13.2763047400000005
 19.6626518799999985 22.1124815800000007 15.0382500700000001
 21.5786997199999995  2.4228922399999999 19.3149764700000013
 21.5104300700000017  4.3309934999999999 21.6126613700000014
 21.7361044800000016  6.8573556099999999  2.4550328600000002
 21.5360699500000017  8.9334569599999991  4.3119825900000004
 21.5370013299999989 10.6318097999999992  6.7039709800000002
 21.2178652999999997 12.8764887300000002  8.4811270699999994
 21.8349024400000005 15.0143108000000005 10.7799806300000007
 21.9579747400000009 16.9984012000000000 13.1532145800000002
 21.9760661100000014 19.0832806899999987 14.8961536999999993
 21.8393875699999995 21.5108675500000004 16.9671346999999990
  4.1399944199999998  4.3599074000000000  0.0432719200000000
  4.1716109299999999  6.2427479200000002  2.2104194100000001
  4.7058097700000001  8.6814394600000000  4.1786593800000000
  4.6088482400000004 10.9176577899999998  6.5115806799999998
  4.3677792400000000 12.8310781400000007  8.9324650299999995
  4.1653460899999999 15.0066309699999998 10.7296016600000002
  4.4096257500000000 17.2108730799999989 13.1220630099999997
  4.2231695800000004 19.6706719099999994 14.9839507899999997
  4.2228853600000003  0.2190374600000000 17.5943055199999989
  4.1638148599999996  2.0053685899999998 19.5071121900000009
  6.7343462900000004  4.5684047999999997  2.1389743100000000
  6.4805988799999996  6.3741921699999997  4.4526035899999998
  6.8358498799999996  8.6341036100000004  6.4135069099999997
  6.6199501300000003 10.4988380699999997  8.9308141499999998
  6.6870049600000003 12.8359593200000006 10.9676851699999993
  6.6700713699999996 15.3121197000000002 12.9153866300000004
  6.5165668300000004 17.1805792500000010 15.2387118200000007
  6.5871137099999997 19.5145003199999998 17.1656903999999990
  6.3652422900000003 -0.3497824500000000 19.5683463199999998
  6.3808712400000003  2.4921923200000000 21.4487746500000007
  8.5205601899999994  4.4041439300000000  4.2724683900000002
  8.5039032799999994  6.3799832600000004  6.4838691199999996
  8.8091540899999998  8.9586821200000006  8.9627490499999993
  8.7475264700000004 10.8149096100000008 10.9994413299999998
  8.8068484900000001 12.8772481800000005 13.0926954500000008
  8.6930219599999994 15.0453351200000007 15.1555916600000007
  8.5015537000000005 17.2854926599999992 17.3867993100000007
  8.5440353499999997 19.3990343299999992 19.3896280700000005
  8.4888480299999998  0.1529400400000000 -0.5799274300000000
  8.7855761399999999  2.2779284299999998  1.8246259400000000
 10.7574293599999997  4.0422054699999999  6.5215227200000001
 10.6591518399999998  6.5933594900000001  8.8075893399999998
 11.0101324300000005  9.0041549599999993 10.8748321600000004
 10.9102476399999997 10.8184856200000006 13.1564156600000004
 11.1500354300000009 12.9689679699999996 15.0944649700000006
 10.8286938599999996 15.2075560099999993 17.3260408800000008
 10.9088920900000002 17.6654243800000010 19.4550327000000003
 10.7336218799999994 19.6245592900000005 -0.2148488500000000
 10.6546522499999998 -0.0027461600000000  2.1738019799999999
 10.3875048400000001  2.1888065600000002  4.6626975399999999
 13.0684943800000006  4.3454148899999998  8.8915326599999993
 13.0068847000000005  6.5379168800000000 10.8396309899999999
 13.0134068599999999  8.7727329399999991 12.9147162600000005
 13.1903263499999994 10.8567438799999998 14.9855603199999994
 13.0158056200000001 12.8795700300000000 17.7213920800000011
 12.8618970600000004 15.5623264700000004 19.4859470700000017
 13.1034424000000005 17.7580040200000013 -0.0637085400000000
 12.9738806400000009 19.5764500999999989  2.3532056500000000
 12.8497879000000008 -0.2110715000000000  4.1757216799999997
 12.8701287499999992  2.2479429999999998  6.3454740699999999
 15.3937128199999993  4.2570289499999996 10.8767177900000007
 14.9168738399999992  6.4288390700000004 13.0841873599999996
 15.0037155400000000  8.7065344200000006 15.1649824300000002
 15.1624081999999998 10.8830624199999999 17.6499213700000013
 15.4814258799999998 13.1661003099999991 19.8861390500000006
 15.3402267699999992 15.0655721499999995 -0.0085302700000000
 15.2565938600000006 17.4450217599999995  2.1792137700000000
 15.4235775600000000 19.6556788299999994  4.1526076900000000
 14.8715609000000004 -0.3799609000000000  6.3628862899999996
 14.8737609499999994  1.6846386600000001  8.4649602999999995
 17.2698535699999987  4.4712159400000004 13.0823695699999991
 17.1321429700000003  6.2809497500000004 15.5820572500000001
 17.0939006999999989  8.6589660800000008 17.4015231099999994
 17.2715238100000015 10.7276325999999997 19.6781052500000015
 17.7560191100000004 12.9511011400000005  0.2940065900000000
 17.4761545100000006 15.1531160800000002  2.2550878600000002
 17.4761173599999999 17.4245429099999996  3.7477668799999999
 17.0872494300000000 19.3982140899999997  6.5327298400000000
 16.9699783400000008  0.1739926000000000  8.4740527100000005
 17.3601368299999983  2.2887681199999999 10.5484845699999994
 19.8269825399999995  4.3023881700000004 15.4336298099999993
 19.3108153700000003  6.3075458800000002 17.6436528599999995
 19.3474207699999994  8.4177446600000003 19.4899054700000001
 19.2492275900000003 10.4512084200000004  0.1743675300000000
 19.8174252200000005 12.9298323899999996  2.2798216700000000
 19.4564304399999983 15.3017322199999999  3.9629463399999998
 19.4263509100000000 17.4491213199999997  6.5355797700000000
 19.4579340400000014 19.9317904500000012  8.5843946100000004
 19.4135892699999992  0.0660259500000000 10.9648750800000006
 19.7493025700000011  2.3754600799999999 12.6128063499999996
  0.1467887200000000  4.3817051600000001 17.3224923599999983
  0.1934279300000000  6.3037504499999999 19.1244600200000008
 -0.1047800900000000  8.4957207599999993  0.1051151200000000
  0.2548666200000000 10.5542175999999994  1.9945123000000000
  0.0215889900000000 12.3588430299999992  4.2244373700000004
 -0.1275375600000000 15.0973342000000006  6.2631506100000003
  0.0747410100000000 17.3206384100000008  8.8998767799999996
 -0.0534925100000000 19.5454024199999985 11.0583804699999995
  0.3377362600000000  0.1969208000000000 12.8901129399999999
 -0.0821425200000000  2.4899088400000000 15.3896205599999991
  2.3827659500000000  4.5200956200000002 19.6186345899999992
  1.8538320399999999  6.6478255199999996 21.7943211499999983
  2.3674735700000000  8.7498022700000000  2.3267175400000002
  2.5705529800000000 10.7362560600000005  4.3280118300000003
  2.2441520599999998 12.8300090400000002  6.3916169099999998
  1.9776953600000000 14.7139507599999995  8.5286493300000004
  2.0752473199999999 17.4238768099999994 10.8678381500000008
  2.5017593499999999 19.5488414100000014 12.6784825800000007
  2.2324246099999998  0.1396215700000000 15.3094343500000001
  2.1049883000000000  2.2995106500000002 17.5550197499999996
  6.5037107000000001  6.4557896399999999  0.3005872900000000
  6.5923918199999996  8.3374944000000006  2.2792169599999998
  6.7186726600000002 10.8394289199999996  4.5243411599999996
  6.3835935599999996 13.0498362500000002  6.6655727300000001
  6.1144038299999997 15.0721892900000007  8.5724544999999992
  6.4684861400000004 17.1773221400000011 10.6207566300000007
  6.3809896899999998 19.5956095599999998 12.8385391900000005
  6.0772841900000003  0.2095908600000000 14.9700055699999997
  6.6861574099999999  1.9395707099999999 17.5547590000000007
  6.3457602199999998  4.7074397599999998 19.1933207000000010
  8.7783528400000002  6.3667087300000000  2.4650872100000001
  8.9277888099999991  8.5327858100000000  4.2589563000000004
  8.8881937000000004 10.8740822399999999  6.8862964099999999
  8.5071396200000002 13.3698800900000005  8.7712819700000004
  8.4264529800000005 15.3593081100000006 10.8246171400000009
  8.5396513699999996 17.4111893199999983 13.1565629200000007
  8.5907756000000006 19.7229818600000009 14.8370630800000001
  8.5101407699999996  0.0075444200000000 17.1160945700000013
  8.7721226800000007  2.3645413199999998 19.3210124800000003
  8.9143261200000001  4.4378015299999998 21.5009496700000007
 11.0668275400000002  6.4399124199999997  4.7279811399999998
 10.9235799500000006  8.9039056300000006  6.4819355300000003
 10.7999211600000002 11.3042439399999992  8.9191669200000003
 11.0497618099999997 13.3224095299999998 10.8954617700000007
 10.7961054599999997 15.2412611200000008 13.0740136800000002
 10.9100957399999992 17.1908006700000016 15.5106144599999993
 10.9189097499999992 19.8063195199999988 17.1543794299999988
 10.6212523300000008  0.4242361300000000 19.2270244199999993
 10.9787749600000009  1.8648000000000000 -0.1344323200000000
 11.0139806799999995  4.1283142300000000  2.2794866300000001
 13.0203582299999994  6.4507616600000004  6.7777209300000001
 13.3491056100000005  9.0260051299999997  8.7703955800000006
 13.3561109499999997 11.3469478099999996 11.0728264599999999
 13.4037271199999992 13.2329738500000005 13.2071719099999996
 13.1923936299999998 15.1579537999999996 15.5061750499999995
 12.9650317800000003 17.3524571099999996 17.1674865300000015
 12.9608007999999995 19.7807883400000009 19.1409875300000003
 13.0744958400000009  0.1821338900000000  0.0443682200000000
 12.8968527500000008  2.2898840400000000  1.9650119300000000
 13.1213717499999998  4.3286168800000002  4.6429492100000003
 15.0480100100000005  6.4743300100000001  8.8146614900000007
 15.3665748099999995  8.6408250199999994 10.8804728300000004
 15.4616652200000004 10.8243535099999999 12.9408221599999997
 15.2190128199999997 12.9124428699999996 15.4684373399999995
 15.2744836399999997 15.2901711099999993 17.4892208599999996
 15.2268883499999994 17.6171396400000013 19.5774986099999992
 15.0685927399999997 19.4665441600000015  0.1147385200000000
 15.1841942900000006  0.1550079400000000  1.9741181299999999
 14.9361949299999992  1.9502032700000000  4.4769455000000002
 15.3173947699999999  4.2714370500000003  6.9007731300000001
 16.9276621100000000  6.7204517700000004 10.6970526499999998
 17.0319124700000017  8.3985879800000003 13.0535365900000002
 17.1950843800000008 10.7563895400000007 15.3139399899999997
 17.5877756500000011 12.9176938099999994 17.6931200599999983
 17.4582923299999990 15.3087192699999992 19.6558257099999985
 17.5274515499999985 17.6481788699999989 -0.1386113500000000
 17.3740312500000016 19.9251682099999989  1.9792912499999999
 17.1431889499999990 -0.2107582000000000  4.2408537900000001
 16.9102925900000010  1.9160056500000000  6.2689013200000003
 17.3317556099999983  4.2328026500000000  8.5594623599999995
 18.9086157700000008  6.6329752600000003 13.0816023599999998
 19.3385777499999989  8.2559990299999999 15.5876446499999997
 19.4992256399999988 10.8750037699999993 17.4049178600000012
 19.4319905800000008 12.8206453400000004 19.6678392899999999
 19.4154659100000018 15.2960366400000005  0.1960750300000000
 19.5904710000000009 17.4713870299999989  1.7363774000000001
 19.4743809900000002 19.7264187100000008  3.8670614799999998
 19.3488350099999984 -0.1557739800000000  6.5489466199999997
 19.4446337199999988  2.2057955599999999  8.5680106600000006
 19.1886578900000018  4.8255651300000002 10.6880815299999998
 -0.0849358300000000  6.2216554799999999 15.1803001200000001
 -0.1550648800000000  8.2272214600000009 17.5751647899999988
  0.0094091300000000 10.7553771400000002 19.6806312000000005
  0.4045052800000000 12.9815306199999991  0.2588525500000000
 -0.3273214600000000 15.3340411000000003  2.1107291699999999
  0.1947049800000000 17.5487876599999986  4.2372640500000003
  0.0368558600000000 19.7259744899999987  6.3234798400000001
  0.2274896400000000 -0.1141919100000000  8.6171866900000005
 -0.0317075100000000  2.5233125300000001 10.4329224899999993
 -0.2040219600000000  4.5780472500000000 12.9989753900000000
  2.1798377699999998  6.3187568900000004 17.2526526999999987
  2.0968304700000000  8.7504492500000008 19.5696701799999992
  2.2542429600000000 10.4810597699999999 -0.3808551900000000
  2.1554391599999998 13.1181962500000004  2.1092750900000001
  2.2732744500000002 14.8963537099999996  4.2421904100000001
  1.9177104199999999 17.3840060600000008  6.4695647999999997
  2.3058257700000002 19.3878300099999983  8.7733103299999993
  2.2758943899999999  0.1019528600000000 10.6183951299999997
  2.1462413200000001  2.5169463300000001 13.0604587599999995
  2.2216828899999999  4.4664792699999998 15.1938413800000003
  4.5025867200000000  6.5892759999999999 19.4383312100000012
  4.3866366799999996  8.3848365800000000 21.7843039699999999
  4.2240529000000002 10.7987569000000008  2.3016333100000002
  4.4977802100000002 13.1094480200000003  4.4160103499999996
  4.2293752700000002 15.1096867499999998  6.3555209100000001
  4.3741073100000003 17.2066243700000001  8.5570115300000005
  4.2912859900000004 19.4469478400000000 10.5561293900000006
  4.5132672500000002  0.5506422800000000 12.8643610200000005
  4.2242620600000000  2.4561822900000001 15.3433994600000005
  4.3487779800000004  4.2233138400000003 17.1894528400000013
  8.7911513899999996  8.3508536600000003 -0.2343144300000000
  8.9126436200000008 10.4865685699999993  2.0944554399999999
  8.5462596499999997 12.9268183899999993  4.6497771200000004
  8.5853927300000006 15.1868575000000003  6.2765959499999999
  8.6340309099999999 17.2144693000000011  8.6330612700000007
  8.7015300799999995 19.3478684399999992 10.6875741200000007
  8.5792657800000001 -0.3448914100000000 13.0675152699999995
  8.6429305099999993  2.0897291199999999 14.8747683800000008
  8.7392952200000007  4.5506061000000004 17.4145500300000009
  8.7531647600000007  6.4746147399999998 19.5864652600000007
 10.7108796700000006  8.5248721700000001  2.0544288000000002
 10.6260568200000005 11.1747877100000004  4.2967590600000003
 10.8170748499999991 13.6147364000000000  6.5177464900000004
 10.9970292399999998 15.4299628099999993  8.6407794899999999
 10.8317303900000006 17.4680764099999983 11.0165728000000005
 10.6722508699999992 19.1945736499999988 13.2184981199999996
 10.7697708100000007  0.0799305600000000 15.0772668400000001
 10.8344469300000004  2.1905122800000001 16.9807405899999999
 10.8652001200000008  4.0542582800000000 19.3069415299999996
 11.1566963500000007  6.4718759900000000 21.5550306899999988
 12.8412339099999997  8.8774633499999993  4.3701840299999999
 13.0283670899999997 10.9661744100000007  6.6830315400000000
 13.2730364099999996 13.2774484499999996  8.3893012700000007
 13.1282033499999997 15.5609991999999995 11.0340863400000000
 12.7639266500000002 17.1312777400000016 13.0849443000000001
 13.0532272500000008 19.5780074500000012 15.1904663899999992
 12.8534840100000007 -0.1588088800000000 16.9807070099999997
 12.9430482199999997  2.0109946100000000 19.2313245700000017
 12.8924059199999999  3.9002258799999998 -0.1456583400000000
 12.8575571600000007  6.3220460000000003  1.9671229100000001
 14.9696062199999993  8.5655257700000007  6.3452912200000000
 15.1672281400000006 10.5818193199999993  8.5322870900000005
 15.3873294499999993 13.5200812700000004 10.7834151400000007
 15.4185703499999995 15.0673383300000001 13.0689646100000001
 15.1558335599999996 17.3421575499999996 15.0471492999999992
 15.0649656299999997 19.4554803599999993 17.1402718000000007
 15.1529094099999995 -0.3516322600000000 19.2378908700000011
 15.2269239600000006  2.2989236900000001 -0.2509561600000000
 15.1076215699999992  4.1857581499999998  2.1987225800000001
 15.0730366199999999  6.7210897599999999  4.4242995399999998
 17.1633407700000014  8.6012725099999994  8.4968071500000004
 17.1314845700000014 10.9211260699999997 10.8320756800000009
 17.2059397800000013 13.0660998300000006 13.1876142699999992
 17.5509885700000012 15.0436892600000007 15.3702172899999994
 17.2141852499999999 17.3813307500000001 17.2857902299999999
 17.7208248700000013 19.5363234900000009 19.3988887599999984
 17.3034085200000014  0.0762127000000000 -0.0580479300000000
 17.3799121200000002  2.1627326500000001  2.1507562700000000
 17.1131382099999989  4.4925039699999996  4.2483668200000002
 17.3576355199999988  6.6901866900000000  6.4381824800000000
 19.0633060000000008  8.6605935899999995 10.7853594400000006
 19.1898518600000010 10.5984213700000005 13.0172740699999991
 19.4662707200000007 13.0077359500000007 15.2671147400000002
 19.7163611699999990 14.9937565599999996 17.4583467500000005
 19.6659651599999989 17.1194194300000007 19.1942569100000000
 19.5381821799999997 19.4215614800000012 -0.0342683700000000
 19.7058986000000012  0.3224657900000000  2.2061965200000002
 19.2351735899999987  1.8719523700000000  4.5032953999999998
 19.2173995899999994  4.3392084000000004  6.4724818700000002
 19.5150358200000014  6.6866319900000004  8.4267198299999997
 -0.2616429100000000  8.4222093900000008 13.0294521900000007
 -0.0977942400000000 10.6385289200000006 15.2860404499999998
 -0.0792331600000000 12.8099785900000001 17.2685524000000008
  0.2249388500000000 14.7486392599999991 19.6673024500000011
  0.2754434100000000 17.0241705199999984 -0.2728075600000000
  0.1545968700000000 19.3374385199999992  2.2796149899999998
 -0.2266408800000000  0.2653801100000000  4.3246502700000002
  0.0940691200000000  2.1011501099999998  6.6693233000000003
 -0.0912542500000000  4.3790344599999997  8.5493585599999999
 -0.1785566800000000  6.6924112500000001 11.0410924700000006
  2.0064571800000000  8.4515668099999992 15.5732242000000003
  2.1063776700000001 10.8326294999999995 17.4438166899999985
  2.3610806200000001 12.9234835399999994 19.7614361500000015
  2.5567268900000002 14.9599063599999997  0.2789434500000000
  2.2097233300000001 17.1266301900000002  2.2380553700000001
  2.2038404300000001 19.5642426799999996  4.2118865699999999
  1.9507162100000000  0.1407948500000000  6.3830327799999997
  2.0242223600000000  2.2678904599999998  8.7105712499999992
  2.2660675600000002  4.8852165699999999 10.9846163899999993
  2.3686444899999999  6.4783157500000002 13.0722206500000002
  4.5584992900000003  8.5074685399999996 17.5468505099999987
  4.6148411999999999 10.7081510800000004 19.6540010599999988
  4.3905443799999997 12.9814681200000006  0.0433985600000000
  4.5270601099999999 14.8785824400000006  2.0821706799999999
  4.1254160799999999 17.2633676200000004  4.4931101699999996
  4.3829575099999998 19.3949231200000014  6.4056822599999999
  4.1686093700000004  0.0968412400000000  8.4322358499999996