Li                                      
   1.00000000000000     
   -10.8535000000000021   18.7988134399488125    0.0000000000000014
   -18.6059999999999981  -10.7421791085421763    0.0000000000000014
     0.0000000000000001    0.0000000000000001   22.7650000000000006
   Li
   504
Direct
  0.0066429665778287  0.0199704526629887  0.9917014258730532
  0.9251799585127856  0.0454748876857707  0.6755446097078845
  0.8879256452182744  0.0607028775461416  0.3294971412255663
  0.7843776515286933  0.1311738906338462  0.0145546900944424
  0.6909803420480074  0.1785903196593495  0.6641661581374905
  0.6352872316122458  0.2143895781842673  0.3397685504063261
  0.5625815845227535  0.2355811476073484  0.0056684164287262
  0.4859894145940942  0.3021438449265261  0.6657233424115958
  0.4315089666868417  0.3039502934571843  0.3312366382604850
  0.3632107470698926  0.3705817761301162  0.0022524489347688
  0.3059316027473855  0.4174160652252610  0.6686439964858337
  0.2191896713944885  0.4694870435085434  0.3429128275862041
  0.0418186378145435  0.0407181239643037  0.6791806180540334
  0.0209343142391631  0.0645539718588211  0.3345314179661756
  0.9194294438539856  0.1070377652977967  0.0071840878541636
  0.8435235556910357  0.1671170669841615  0.6415855515045052
  0.7938186788010526  0.2008221224138893  0.3175542995826959
  0.7110843152606705  0.2493042515488710  0.0082408873270339
  0.6177025568951819  0.2884221196785006  0.6755131333186881
  0.5713086995863250  0.3425768257035244  0.3307023711838326
  0.4967248489390670  0.3733548673567597  0.9757353863386768
  0.4511003322146649  0.4234489941044899  0.6687087687239170
  0.3563088765104538  0.4655291152743075  0.3072684950582030
  0.2617101882884398  0.5073374154257451  0.0020326198111107
  0.1486762480416672  0.0785133957798436  0.3523496516582441
  0.0798223709324049  0.1520806824188554  0.9871160935646799
  0.9884696532533326  0.1828471535211733  0.6786381080606176
  0.9359160385866190  0.1804943461894055  0.3397673696463883
  0.8643594147368390  0.2412062540123472  0.9960465086755974
  0.7786963636401651  0.3101279612615002  0.6476301001537479
  0.7286512045009275  0.3327527320191948  0.3197498383483435
  0.6255894270185038  0.3735425864696680  0.0257532927739916
  0.5766194516572298  0.4500452188239450  0.6629023874368514
  0.4942916792461816  0.4615657943298714  0.3165726712057975
  0.4098496896812662  0.4872216001851228  0.0189923940259149
  0.3587438725427390  0.5442668069094552  0.6671363312101874
  0.2076709208500631  0.1304609180132132  0.0124383703052899
  0.1392044018432586  0.1716962826289503  0.6658902929936303
  0.0817498313907237  0.1946935512738222  0.3378708745881838
  0.0025424624901689  0.2329754124133601  0.9902985385460141
  0.9181113921470825  0.2868208709734290  0.6571367625741260
  0.8611306668245504  0.3341076495549657  0.3154797570832386
  0.7875186944416939  0.3732488014552899  0.0272121941576984
  0.6985567062914697  0.4274605787523100  0.6822472040412890
  0.6294438234093462  0.4370236457393659  0.3581381111355171
  0.5470241930249102  0.5120979362035953  0.9979933059521215
  0.5186569066196114  0.5536707558854133  0.6722818589940687
  0.4452498898452646  0.5857792529594974  0.3486347045903813
  0.2741168382691228  0.1664015229413138  0.6882709176367214
  0.2209283452085913  0.2069858371105298  0.3099700790687479
  0.1604681284986214  0.2672084938912249  0.0246390871952542
  0.0582292855947344  0.3047620686228925  0.6762629475071407
  0.9944467098539249  0.3022911982479002  0.3246824041291489
  0.9286169313324990  0.3647287528637335  0.0004588701954731
  0.8608711439181249  0.4206687493004750  0.6849656244234552
  0.7937441196204134  0.4436137282435695  0.3077672861849337
  0.6976118297064957  0.4842084997463445  0.0092636007028304
  0.6473027310077839  0.5717879414708733  0.6699916613222072
  0.5745731392111963  0.5663052291503448  0.3625814632110718
  0.4839098121819490  0.6340242321553902  0.0085582402811326
  0.3581198542704840  0.1886075347562794  0.3383204339995629
  0.2953266068003231  0.2563983394116249  0.0091169022622424
  0.2161778751772658  0.2895879303323383  0.6648800478805157
  0.1393509673579203  0.3335110913565984  0.3430041370524961
  0.0896243665353893  0.3574036540797678  0.0259193674500295
  0.0020868930611968  0.4393455383295901  0.6391195730287720
  0.9407977470579425  0.4438007310709793  0.3213257917856325
  0.8480749057512469  0.4951009932510431  0.0113560017570862
  0.7870387009763107  0.5443210442305499  0.6831698897430272
  0.7001673136223658  0.5716117124368338  0.3431166435317365
  0.6126084282420052  0.6329140666492208  0.0187752901383718
  0.5467818077856563  0.6326540330645116  0.6625993046343055
  0.4349910917720976  0.2352666443863001  0.0110737012958495
  0.3693150896946022  0.2916946766634254  0.6627051447397321
  0.2929809594034722  0.3218727161729760  0.3267100513946843
  0.2293420324446842  0.3833317709804192  0.0098043593235246
  0.1388401661569674  0.4215452959591204  0.6678316415550185
  0.0817092230032301  0.4788893275359811  0.3225360505161419
  0.0031987375861178  0.4756630958620391  0.0111944322424762
  0.9182031233688690  0.5482235332965715  0.6707302420382177
  0.8431900434416875  0.5704787016825534  0.3361731030090027
  0.7943148337529422  0.6176770779244549  0.0303463843619625
  0.7083826326693554  0.6721262848717160  0.6723293424115937
  0.6274721411791688  0.7079878778733715  0.3506507669668366
  0.1466796432580466  0.4815526809576909  0.0041930300900503
  0.0678514105062860  0.5495514213732164  0.6513771803206652
  0.0304683610820149  0.5844648308608171  0.3370023641555022
  0.9248385404021136  0.5924298700282549  0.0031261137711383
  0.8729513953105439  0.6687188977210070  0.6812496081704396
  0.7695617881438395  0.7363312970214366  0.3226189989018238
  0.6925021302567416  0.7486109077318304  0.9943141827366588
  0.2419136812234157  0.5391225191251010  0.6924138216560536
  0.1945817449485716  0.5587530361819120  0.3326594443224238
  0.0601263975818327  0.5905371812235600  0.0065577500549097
  0.9995967323929662  0.6766782599684475  0.6693206540742338
  0.9206516410513501  0.6899933270906828  0.3365994430046158
  0.8342541196830311  0.7450050345060859  0.9997320623764523
  0.7845974676221132  0.7801323581190687  0.6534755273446109
  0.3088263654277625  0.5819290681946541  0.3237892387436858
  0.1908823907618498  0.6319678013472156  0.9893485161432025
  0.1502993785878957  0.6799935985432839  0.6587115550186695
  0.0840987544921603  0.7136948042631062  0.3167103786514360
  0.9737497561414585  0.7477577465182534  0.9987524946189339
  0.8904117791945296  0.7978404861072903  0.6655299248846944
  0.8763597237968384  0.8287605712012791  0.3323397452229315
  0.3349560403942888  0.6126916976018819  0.0059874592576321
  0.2855601990640650  0.6772993351315790  0.6755989461893250
  0.2372226002831965  0.7128581053330265  0.3140313454864909
  0.1229036400557533  0.7486046266072748  0.9851498831539658
  0.0629851827808849  0.7802052847838183  0.6746846000439248
  0.0040307068220429  0.8253694670271372  0.3299267252361062
  0.9259052699464263  0.8614286290786026  0.0209516784537698
  0.4298483081363074  0.6618252395809208  0.6754450467823432
  0.3804463178389881  0.7174196124548260  0.3191328701954745
  0.2702436302273412  0.7668985998778695  0.9767488794201640
  0.2055636487684751  0.8022575351011128  0.6755866277179905
  0.1542745233465652  0.8231071278543496  0.3075026654952779
  0.0672719174994754  0.8524732174255334  0.9766205736876756
  0.9865864650248355  0.9175519500082174  0.6683003913902894
  0.9198797811365012  0.9620054076875704  0.3446284335602883
  0.8528134171780266  0.9842428822239242  0.0027640008785426
  0.7677645184329052  0.0338724158437316  0.6477383527344642
  0.7425110951445930  0.0956446522008036  0.3530937636723053
  0.6358478305812270  0.1293866495101952  0.9982498414232381
  0.5665613917158439  0.1750032648076996  0.6723605890621585
  0.5184054578258497  0.1998543923189899  0.3339125701735099
  0.0509769302211822  0.9625092726993643  0.3265647836591228
  0.1416911011695419  0.9977170355506999  0.0052721251921781
  0.2087729102873013  0.0511380843919582  0.6454126962442359
  0.2983059771808882  0.1017631015085030  0.3112290164726588
  0.3558711472096192  0.1067589483908620  0.0008919802328151
  0.4329789753287017  0.1394877599306596  0.6599814588183648
  0.8512888424589420  0.9208181843691179  0.6629309325719319
  0.7637652430575486  0.9514986291774079  0.3393360386558300
  0.7417644744347598  0.9816751390262439  0.0132331798813965
  0.6410979602943030  0.0480615671259699  0.6564234372940945
  0.5853952096851316  0.0828300167517142  0.3246921348561358
  0.4904092393687449  0.1111528050366175  0.0214246149791322
  0.1509637608117771  0.9395364528662498  0.6726594109378397
  0.2110255677646506  0.9503480221577121  0.3335500926861386
  0.2903300596746092  0.9951530940192228  0.9890978036459472
  0.3531105511191726  0.0456695153943940  0.6766657039314765
  0.4450809047208182  0.0789059002801622  0.3163615897210619
  0.7727609695623343  0.8720196010348928  0.0230150340434889
  0.7073873256039960  0.9164505864536707  0.6736270186690092
  0.6321538899391470  0.9914797616653530  0.3522944028113315
  0.5909511843069239  0.9683339589984286  0.0041940171315602
  0.5147182737021225  0.0348645752108965  0.6654964366351876
  0.2271644345754638  0.8711279323516692  0.9747895897210626
  0.2930977383196023  0.9328678903121670  0.6699385121897663
  0.3453328226610424  0.9726919950149622  0.3256265710520552
  0.4259764011893736  0.9781191104853875  0.9777689242257850
  0.7109843858465226  0.8437865703651894  0.3536763588842504
  0.6485314435531677  0.8823406211649854  0.0057653656929517
  0.5810759655818316  0.9263139797676843  0.6685677351197015
  0.5151216226003683  0.9471124507743127  0.3176747177685044
  0.2944216971857401  0.8380400612487691  0.3430287700417338
  0.3403661682292167  0.8886860562788428  0.9785111732923326
  0.4463268937354243  0.9184338949179036  0.6599521998682221
  0.6302731254992366  0.7714315297427774  0.6659764282890421
  0.5593663756569569  0.8426317387835738  0.3156988543817292
  0.4849611589074669  0.8708422069116324  0.9767228350538133
  0.3464684670652289  0.8100461067777900  0.6434899846255249
  0.4309831560928075  0.8426611999003910  0.3236846654952785
  0.5393494933334608  0.7616146110988566  0.0070616147595004
  0.5154593269467966  0.8036075730937853  0.6656029066549536
  0.3992200245900861  0.7685891009949231  0.9877076340874140
  0.4921568961436620  0.7103507227617314  0.3276249233472441
  0.0037490422214930  0.9961884349268502  0.8023282543378016
  0.9012003335608370  0.0502130189023688  0.4555278018888629
  0.8894510137916711  0.0692911610132256  0.1161087362178748
  0.7925741500727383  0.1077998544655259  0.7740375778607529
  0.7188045340108502  0.1731888116797364  0.4484986646167357
  0.6717782774478209  0.1743024661786592  0.1125414878102333
  0.5556307661269955  0.2397365532538274  0.7904031482539011
  0.4698010636563055  0.2861748960338772  0.4639066202503841
  0.4441584054694871  0.3215118336147995  0.1153703632769592
  0.3983799689650169  0.3936603255314566  0.7731785332747663
  0.2702486082379707  0.4123344550408063  0.4386357579617837
  0.2177769477329292  0.4489161941191355  0.1173281207994705
  0.0909803596358643  0.0294052449044457  0.4477072778387878
  0.0324017696565306  0.1006123563921761  0.0990985025258055
  0.9208603841943344  0.1091168053395037  0.7713877737755297
  0.8254574841935067  0.1845689731971305  0.4372954315835713
  0.8005524414216296  0.1634945263372245  0.1176762683944617
  0.7293646837501200  0.2349372882359475  0.7684413863386794
  0.6427596323801126  0.3073905417587071  0.4231545736876754
  0.5807023174779360  0.3278242221462548  0.1079047621348579
  0.5130496424480242  0.3793684766038012  0.7834370037338019
  0.3840446469114696  0.4507380170238804  0.4355470726993218
  0.3680960579290442  0.4455325779462100  0.1134458317592788
  0.3042956128354461  0.4890092720676407  0.7817748398857916
  0.1594602101478344  0.0779379344921267  0.1021163000219616
  0.0732373624901541  0.1429265578960042  0.7870935633648131
  0.9863972765156461  0.1328083058872096  0.4529408280254756
  0.9374913187649909  0.2067712631293190  0.0907864304853945
  0.8603294823030083  0.2171422381932899  0.7723750292115099
  0.7800618748919916  0.3175230168149952  0.4333648043048512
  0.7187704266498756  0.3193103393720094  0.1268093252800355
  0.6665872867659033  0.3507097523963338  0.7639594544256525
  0.5257541814659206  0.4244429781500401  0.4400765077970590
  0.5016750026586010  0.4593793393875529  0.1129985284427875
  0.4097956931624935  0.5267268490949633  0.7578351895453537
  0.3492635663574148  0.5542457740803926  0.4357419244454235
  0.2114015428686713  0.1416016685195558  0.7854941902042611
  0.1174691689128551  0.1831828069012360  0.4363733894135748
  0.0930245779748660  0.2150454021793919  0.1208323623984171
  0.9985120708506301  0.2312424986038195  0.7857247256753794
  0.9191918299443103  0.2666000899548209  0.4146507410498543
  0.8449513497062497  0.3326771060928309  0.0902543171535228
  0.8023081562436829  0.3759527075249451  0.7858458357127134
  0.7195634087886305  0.4153408982431799  0.4445259143421936
  0.6355923069299365  0.4629078580423496  0.1161665960904870
  0.5774988643312469  0.4943967502945696  0.8077804638699746
  0.4934767567682812  0.5644510835437728  0.4452315897210610
  0.4307172719000221  0.5831610222204162  0.1202779437733383
  0.2834791801729395  0.1737661328599884  0.4311584572809153
  0.2080830845352253  0.2070183818121549  0.1310490182297386
  0.1507180983708878  0.2737011302446248  0.7589885275642416
  0.0651874189102628  0.2805932144930381  0.4524144625521629
  0.9980301642229961  0.3292767769862266  0.1143656472655366
  0.9651537245768225  0.3760021256748090  0.7815784805622670
  0.8627786876387731  0.4223264174842853  0.4172434061058610
  0.7838477139028939  0.4589489254624795  0.1141299855040643
  0.7068872599042848  0.4947164675174065  0.8114813775532639
  0.6357296099034428  0.5254519579121251  0.4552670634746292
  0.5557834609783256  0.5839421082592580  0.1337156547331446
  0.4687603461544612  0.6376834984957824  0.8024751416648357
  0.3767713981887795  0.2112447522174605  0.1121909079727672
  0.3144253874258993  0.2908452761245286  0.7807751855919207
  0.2150145577485532  0.2732391555130675  0.4423286307928862
  0.1566780312048976  0.3429475120024534  0.1357767177685076
  0.0672629986268021  0.3894349126305485  0.7979909773775518
  0.9987723267360451  0.4228968790589249  0.4204580992752014
  0.9096899311271045  0.4455817683818069  0.1285162719086301
  0.8529739122315902  0.5068846497685939  0.7992094324621135
  0.7959582625292612  0.5106483272943478  0.4612684458598721
  0.7112023828558023  0.5997131902437189  0.1286784102789369
  0.6143493022496855  0.6228437416980057  0.7873640584230159
  0.5759395448574125  0.6742229377561060  0.4691554842960670
  0.4464257452137090  0.2394788145933049  0.7798534943992976
  0.3636878803203629  0.3070723750909892  0.4460904449813299
  0.2930376281264557  0.3193717743270739  0.1314988728311022
  0.2248752989826812  0.3976334065619440  0.7709178361519875
  0.1405912442540327  0.4046216543313363  0.4365127520316250
  0.0636273534552956  0.4433065376369427  0.0857462837689411
  0.9902604158520916  0.5103165213667253  0.7778075189984648
  0.9250373618426835  0.5407299265419994  0.4245671157478554
  0.8515201334730733  0.5900129308475783  0.1347796780144961
  0.7634630719600182  0.6322910667785635  0.7714060944432219
  0.7216320926133974  0.6887650286370288  0.4230327190863150
  0.6413960439242672  0.7121353250170870  0.1216880228420791
  0.1640101736894479  0.5326189304451034  0.7647393560289899
  0.0620564745133976  0.5508544353363902  0.4376113674500317
  0.9647554725589345  0.6111259184446780  0.0975971710959840
  0.9147259760853785  0.6375196376737264  0.7607499934109399
  0.8447807934402363  0.6787400703212114  0.4426489712277615
  0.7787379578460190  0.7213760606534549  0.1186430054908882
  0.6823588257951911  0.7262125241444650  0.7736396867999105
  0.2135540205087807  0.5439656239066935  0.4477327946408991
  0.1350826908436673  0.5713756382311246  0.1023306865802738
  0.0759414440597510  0.6442289464096262  0.7844914170876365
  0.9854081924025522  0.6791716948166666  0.4693902543377959
  0.9121288400081795  0.7171947347614349  0.1134814799033634
  0.8363426257885251  0.7478248205419860  0.7783500215242682
  0.8054207981213537  0.8003014488654117  0.4362153507577418
  0.2830020392661083  0.5683298423532932  0.0906347230397557
  0.2049542317394994  0.6370743661085356  0.7871559244454218
  0.1544601767774125  0.6700470085642465  0.4255156173951207
  0.0695330897127704  0.7026776722993873  0.0898158102350095
  0.9855311346289071  0.7363350591371116  0.7846422468701988
  0.9372923300192610  0.7960745510123601  0.4447951759279576
  0.8666235480785289  0.8318862749075393  0.1372413885350312
  0.3221572270524575  0.6475275183374265  0.7600776072918976
  0.2965599701927317  0.6819923703919812  0.4210917425873077
  0.2469266862051853  0.7013666893083936  0.0728232488469160
  0.1337742133191213  0.7448699401129204  0.7627671482539000
  0.0975796402698776  0.8272190123793877  0.4523538335163622
  0.0402706527503227  0.8421965624193462  0.1243581467164532
  0.9096648315323108  0.8745503585383219  0.7738914113771145
  0.4439603179666349  0.6867435170885230  0.4532985723698673
  0.3751572935148957  0.7174290349799008  0.1087929365253686
  0.2824028001381862  0.7929128130011946  0.7693757245772019
  0.1931767130524520  0.7908713831497991  0.4222130010981786
  0.1851733989908766  0.8322649158364257  0.0617266615418401
  0.0472214074012172  0.8960447438875008  0.7649819802328111
  0.0089676218059225  0.9105692635026017  0.4699186404568394
  0.9599275101260645  0.9773921438700839  0.0961201893257169
  0.8571343686065731  0.9988672697156034  0.7846970915879652
  0.7962362998619952  0.0386010679053967  0.4540559609048955
  0.7465292911323615  0.0553779801512917  0.1106641897649894
  0.6389522646855994  0.1326742252625408  0.7579016600043929
  0.5464996523500147  0.1655952560044653  0.4503828245113084
  0.5033023517262762  0.2037256269772598  0.1117032664177486
  0.0977296642042731  0.9524119875071975  0.0979322328135268
  0.1410145290756475  0.0254692517831643  0.7788111117944183
  0.2202237325089627  0.0335016590999686  0.4280977105205324
  0.3181079209124320  0.0853444286991802  0.0926948324181893
  0.3661573427545264  0.1419271928632568  0.7777393885350321
  0.4169349800338082  0.1533407849190027  0.4489741238743719
  0.8506533787296178  0.9126785533676269  0.4535458032066799
  0.8163073637135554  0.9313357372855506  0.1516887682846502
  0.7097470116281244  0.9850502912659422  0.7712019139029209
  0.6412536149685266  0.0696615451971994  0.4403739231276091
  0.5784450929698934  0.0811565083011558  0.1126313806281587
  0.4912055455990796  0.1161214479651917  0.7777966105864280
  0.1448880640258281  0.8995107899116235  0.4401882354491562
  0.2308930836151291  0.9566436427487517  0.1122162815725929
  0.2634272628495893  0.0452846991648954  0.7898137702613681
  0.3597238591759648  0.0602844154806874  0.4420626975620436
  0.4359069186551210  0.0798012360731306  0.0920529624423452
  0.7775614575553931  0.8720016473407810  0.7528175075774186
  0.7024700031575861  0.9199925105196769  0.4474688429606886
  0.6603873893402650  0.9633713463288984  0.1228231337579615
  0.5820075914940404  0.9938646380586604  0.7882298783219852
  0.4902382878225353  0.0523490800342969  0.4324779670546874
  0.1712363907247649  0.8921974923825005  0.7757192071161896
  0.2899026405764857  0.9288768456682348  0.4307147665275650
  0.3861713185795779  0.9514320447058253  0.1151106698879829
  0.4147422234620279  0.9774406819120074  0.7840398168240696
  0.7149092766888572  0.8371334631547569  0.1407534750713779
  0.6308946932142234  0.8639202320326476  0.7745030630353611
  0.5579575415263420  0.9468815840612592  0.4522070120799455
  0.5394438935483876  0.9543415355999443  0.1058881019108284
  0.2925855740183252  0.8258475251205084  0.1098422152427005
  0.3295373134681086  0.8965521008424062  0.7578034293872165
  0.4300021031004135  0.9279222301407941  0.4209811236547338
  0.6312971635833335  0.7994177993683920  0.4417844911047695
  0.5748409087372011  0.8396474839847770  0.1055418519657394
  0.4680666401091855  0.8804919252700714  0.7749254381726303
  0.3524835038790215  0.7999851671852625  0.4346753200087861
  0.4590570068261286  0.8385346891547130  0.0756280786294781
  0.5308906699081746  0.7391236936553653  0.7824794794640866
  0.5072988374282517  0.7984706228083667  0.4403983606413320
  0.4048782271084121  0.7800433452692062  0.7752825837909043
  0.4874537658948341  0.7137622542115665  0.0926337408302231
  0.0209743287481743  0.9895461390375004  0.2066995488688761
  0.9172254086473046  0.0337979134282733  0.8596475558972116
  0.8576828171605939  0.0948932260532871  0.5588165776411174
  0.7998939965086933  0.1155117988225811  0.2538996068526274
  0.7295056944864839  0.1284376735940498  0.9067729426751612
  0.6380235430944268  0.2318945692263057  0.5656374794640868
  0.5938548001282413  0.2626310425028606  0.2097002648802970
  0.5019877097586161  0.2993590278477285  0.8942387493960027
  0.4338564962839797  0.3717577898302622  0.5581317588403252
  0.3809217771775195  0.3555035440935086  0.2330515488688789
  0.2658673718686586  0.4226052617125404  0.8851434460795105
  0.2296299749400106  0.4754721921417087  0.5700152927739950
  0.0812287814903030  0.0703037401964437  0.8920687555457931
  0.9751055673276454  0.0728941424814238  0.5876393195695115
  0.9528744750013942  0.0899440651172938  0.2120412159015999
  0.8425348430056587  0.1640868973147391  0.8772300382165596
  0.7803416951839495  0.2489498592562072  0.5635350182297358
  0.7348264373624502  0.2400920661123607  0.2191324933011174
  0.6333573557262611  0.2591310276053491  0.9017629641994276
  0.5925232724974592  0.3403486575270804  0.5761845789589302
  0.5195141620608439  0.3774124170736641  0.2026424058862304
  0.4613562264061315  0.4182166713265119  0.8909302859652968
  0.3632174328185584  0.4528675391219963  0.5580416477048118
  0.2676799118612081  0.4931586674521355  0.2043133072699348
  0.1085363701056252  0.0970698842877908  0.5533515629255419
  0.0986197666783823  0.1256333162612151  0.2359637698220922
  0.9814827675562654  0.1672548394242739  0.8825978093564686
  0.9264792319140724  0.2075357033441136  0.5295298528442771
  0.8862790913630718  0.2240400387988259  0.2098186597847587
  0.7736071347204572  0.2524296889880446  0.9171027810235017
  0.7211394173630765  0.3600166485891592  0.5681069857237020
  0.6667261743142276  0.3911118008750165  0.2353827801449597
  0.6116536202697560  0.4039414883587114  0.8944059428947924
  0.5133308910658059  0.4809246487056456  0.5552431697781657
  0.4445617445718710  0.4933818152901850  0.2170919811113521
  0.3624955890708605  0.5139261509201063  0.8910166887766309
  0.2375620989105229  0.1406834332728479  0.2201496793323088
  0.1197185569514545  0.1874085301584074  0.9095884915440351
  0.0532910825608894  0.2141085598960188  0.5655274891280442
  0.0029082465388584  0.2157663310862361  0.1988194056665904
  0.9193767815463474  0.2925281496015657  0.8749224471776813
  0.8641406696888225  0.3612112846142281  0.5405401678014528
  0.8073214119340832  0.3614852405446314  0.2067697768504289
  0.7072554653298724  0.3854339222316625  0.9022427085438167
  0.6631309150900080  0.4747052527717202  0.5691644691412279
  0.5660850024292188  0.4874242924935217  0.2337684243356009
  0.4928638820536051  0.5210474898490389  0.8836774408082562
  0.4302909694831598  0.6017255730793565  0.5915522354491571
  0.2810874036408606  0.1738002953124749  0.8795523869975810
  0.1898065970649085  0.1916008555711102  0.5531728332967276
  0.1214859701602293  0.2564193643376314  0.2307503531737325
  0.0896148309832512  0.2699195088639854  0.8973306549527749
  0.0060722582372961  0.3500735829958899  0.5329141172853085
  0.9247707881475833  0.3526002445899294  0.2177677491763674
  0.8462374401576014  0.4183802371949596  0.8864405908192410
  0.7988355216327108  0.4686570200988598  0.5828141612123900
  0.7244527716863232  0.4903936247717127  0.2304466154184084
  0.6290645357946545  0.5471487461438613  0.9117271970129579
  0.5748425187652728  0.5705871607320816  0.5570022912365502
  0.5176093343647281  0.6203795528040672  0.2346837966176167
  0.3441250963872875  0.2196654620208847  0.5471667010762147
  0.2820505708793846  0.2443212495410378  0.2198944498133102
  0.2160810866487353  0.2814730219315251  0.8864831675818152
  0.1486741049530806  0.3300798028534757  0.5565601317812465
  0.0596015338478750  0.3677313797905057  0.1979604845157041
  0.0066419235255637  0.3956126143725314  0.9176614636503402
  0.9390185181450548  0.4725061589440287  0.5437054329013833
  0.8666580920005984  0.4921296726040794  0.2087766022402775
  0.7815913343675831  0.5207144374095165  0.8859981194816626
  0.7160249955487927  0.6021521950344564  0.5525748433999524
  0.6138625151098438  0.6043208611337931  0.2302818682187535
  0.5666526761361510  0.6333639390280723  0.8958230287722415
  0.4484623381966273  0.2407244986769257  0.2267979754008351
  0.3753325371317828  0.3286535439234726  0.8812637627937647
  0.2691931520117521  0.3388557086230506  0.5526143637162306
  0.2095299300005067  0.3792873441223037  0.2360296393586623
  0.1496556563590943  0.4136151947601121  0.9044209365253693
  0.0592315280380049  0.4669271573922131  0.5373255721502304
  0.0075790782232303  0.4912135335109156  0.2130216841642891
  0.9300911709283284  0.5377955055535537  0.9041982758620719
  0.8899082110823713  0.5972840998074531  0.5585883852404976
  0.7640851928539760  0.6428832989013955  0.2336726584669435
  0.7309357202032487  0.6386583086517277  0.8972485477707011
  0.6126306152934404  0.7305366057676395  0.5422368420821471
  0.1425647209243976  0.4936237934777523  0.1940800922468711
  0.0928920093254533  0.5561622630756844  0.8907109778168234
  0.0147645834315711  0.5855585469055882  0.5566995058203403
  0.9067760500700075  0.6368442825198954  0.2268396670327277
  0.8464127437566944  0.6673869948208520  0.8857591886668104
  0.7751278045400625  0.6846588392682165  0.5621266026795553
  0.7135188395346219  0.7396767722837225  0.2462643966615445
  0.2239639789678733  0.5418752684226718  0.9068294847353400
  0.1466384296099505  0.5699220613903293  0.5646985042828874
  0.0813309301964011  0.6123078210853166  0.2102038097957362
  0.0071988916594563  0.6531397801447980  0.9107635703931507
  0.9219986585039379  0.7168361060909163  0.5739740755545810
  0.8480447201389438  0.7620606331275894  0.2420866527564272
  0.7706074347051413  0.7887250412462521  0.8969874104985749
  0.3045674958957889  0.6010247567072469  0.5525069259828683
  0.2238180513113619  0.6268493620387048  0.2011454869316935
  0.1504334415167250  0.6531417565569271  0.8833101071820764
  0.0831566481820616  0.7029103917529795  0.5590934785855453
  0.9913138743941801  0.7272182884157132  0.2149477377553239
  0.9214301245774692  0.7816622349187554  0.8863223659125836
  0.8563298078005133  0.8264601204470097  0.5301600588622861
  0.3611383214557549  0.6262346199118554  0.2240700970788509
  0.2982682981607070  0.6765891704779534  0.8906880764331220
  0.2100566209569479  0.7096786882964494  0.5530078748078182
  0.1582941688418487  0.7283528667351931  0.1962486395783003
  0.0587453742212460  0.7847257428189707  0.8441162249066565
  0.9875514260701479  0.8136326608162747  0.5603168662420401
  0.9494669613210860  0.8814159322423691  0.2193273981989918
  0.4258575110709515  0.6391758714173577  0.8922818541620927
  0.3518061333618476  0.7243077954185324  0.5436831706567062
  0.2897605894265567  0.7468698754519423  0.2076160940039529
  0.1936628950877335  0.8184917665358071  0.8677007594992290
  0.1488647106632257  0.8355909003986142  0.5717168108939177
  0.0996178227536504  0.8570365269667448  0.2075641550625988
  0.9833274671911312  0.9129999878985871  0.8963032383044123
  0.9070115772119891  0.9313894021675608  0.5705613586646194
  0.8565108911935724  0.9797090520493725  0.2341394522293001
  0.8124963750837253  0.0091302877044370  0.8933061928398871
  0.6922497594396830  0.0944913477330616  0.5482673828245126
  0.6651195133954957  0.1350659836268946  0.2308337535690725
  0.5573020784051153  0.1394073117290162  0.8825042025038456
  0.4899514786014123  0.2181750245619440  0.5726406527564265
  0.0526140563228452  0.9364456976082991  0.5602776499011668
  0.1404371238813624  0.9911027849055998  0.2315198655831310
  0.2014345437570171  0.0622403342649278  0.8967176635185581
  0.2866399015556595  0.0962630285104638  0.5646701805403040
  0.3779492024547437  0.1307214404577834  0.2189755018669004
  0.4280377880559882  0.1556289088108329  0.8898914746321083
  0.8388241601600654  0.8788139324789199  0.8902576591258509
  0.7721615589023330  0.9410758626493347  0.5627291104766101
  0.7052166873799948  0.0093212401118592  0.2542396042169983
  0.6670269733779790  0.0472111874901699  0.8942087111794450
  0.5757179395130976  0.0920279320377659  0.5622329132440171
  0.5386636452841529  0.1316765164951335  0.2147430498572334
  0.1174033529730707  0.9237222577935498  0.8781463492202946
  0.1768366746328383  0.9549218833641007  0.5516441581374920
  0.3229502928990513  0.9848884782339127  0.2025041427630114
  0.3697105929907067  0.0509478941726016  0.8955043211069622
  0.4071170663402697  0.0840216150959847  0.5611293722820108
  0.7779938276752603  0.8782818279762736  0.2551907230397532
  0.7107443704842353  0.9142804178732291  0.8992844427849747
  0.6474989601723919  0.9761172522717914  0.5548729923127595
  0.5648647226888173  0.9857197652529806  0.2247728816165164
  0.5136008633924050  0.0499541394802989  0.8915629879200537
  0.2441776822917205  0.8587659247149730  0.2220888346145387
  0.2671088959614281  0.9428256437537712  0.8635011205798406
  0.3305877200622689  0.9753000800980374  0.5468274728750302