Li 
 1.0000000000000000
   -10.6364300000000007   18.4228371711498369    0.0000000000000014
   -18.2338799999999992  -10.5273355263713349    0.0000000000000078
    -0.0000000000000001    0.0000000000000000   22.3096999999999994
 Li 
 504
Cartesian
 -0.0473099300000000  0.0456184700000000  0.0029814700000000
 -10.6392453600000003 16.4781735400000002 14.9948792399999995
 -10.6460710499999998 14.8372087799999992  7.1382872300000004
 -10.4623244900000003 13.1058715499999998  0.2081347500000000
 -10.4972060200000001 11.3916827000000005 14.6821438400000002
 -10.6517830199999999  9.6620447800000004  7.3921455399999996
 -10.5901778600000007  7.9780505899999996  0.0184798500000000
 -10.5957582200000004  6.2771944000000000 14.9113704400000007
 -10.5689317700000007  4.3929592199999998  7.7052964199999998
 -10.6391551500000006  2.5201736900000000 -0.4886783700000000
 -10.6906318000000002  0.9312497700000000 14.6173435299999994
 -10.5654906299999993 -1.1411233100000000  7.5110025000000000
 -1.5868107000000000  0.9890936100000000 15.1950298499999992
 -1.4666017200000001 -0.9323143800000000  7.3528236900000001
 -12.2091371300000002 15.6844229599999991 -0.0185303600000000
 -12.2345366299999991 14.2112696300000003 15.0710012800000008
 -12.0782655800000001 12.2625793499999993  7.5434242300000003
 -12.2133737399999998 10.6334975000000007  0.0320313600000000
 -12.1055788100000008  8.6564151599999999 15.2177817199999996
 -12.0438422999999997  7.0394101800000000  7.5381893000000000
 -12.2492647300000002  5.2709726600000000 -0.3803218000000000
 -12.0769590999999998  3.6850582500000000 14.9560673000000008
 -12.0295374200000005  1.9251133899999999  7.4965090200000004
 -12.1258062500000001 -0.0031507600000000 -0.3106270500000000
 -3.1126245300000002  1.7185344800000000  7.4137013300000003
 -3.0733650899999998 -0.0130269600000000  0.1324445100000000
 -2.9667380600000000 -1.7356702900000001 15.1461167400000001
 -13.5854374599999996 14.7925835400000008  7.2752604200000004
 -13.5752831999999994 13.2287034099999996  0.0353379000000000
 -13.6901156799999999 11.5509155499999991 14.9117019499999994
 -13.6648305400000005  9.7245325000000005  7.4441975600000001
 -13.7308861199999992  7.8855150900000002 -0.0421230900000000
 -13.7233484299999997  6.0770905700000002 15.2440322699999999
 -13.7739764699999991  4.4281179300000000  7.5014066000000001
 -13.6097259699999995  2.7702434500000002 -0.0046413500000000
 -13.7198739100000004  0.9624531000000000 14.9658690300000004
 -4.5231485500000002  2.6616031400000000  0.0229996900000000
 -4.5032712100000003  0.8062446599999999 14.8957539200000006
 -4.5802758399999997 -0.8203026200000000  7.6628825500000000
 -4.5032370000000004 -2.7228284299999999  0.1672786600000000
 -15.1337982199999992 13.9082471200000004 15.0097323199999995
 -15.2169745600000006 12.2457004000000005  7.4966397899999997
 -15.2294523799999997 10.5325981300000002  0.2737894500000000
 -15.2557146800000005  8.6591422599999994 14.8468992499999999
 -15.1670249199999994  6.9965881999999997  7.5027442400000002
 -15.2064583599999992  5.2867947900000001  0.0249099300000000
 -15.3142770699999993  3.5283306600000000 14.9121192899999997
 -15.2464839399999992  1.8029469899999999  7.3949122200000001
 -6.0790998199999997  3.4945177799999998 14.7851149100000008
 -6.1690759899999996  1.7775125899999999  7.5209392900000003
 -6.1164946699999998  0.1001789700000000 -0.2219632100000000
 -6.1579436100000002 -1.7902685199999999 15.3251590699999998
 -16.7059683300000010 14.9050877400000008  7.4210759700000004
 -16.5686589499999997 13.1837499800000000  0.1271604900000000
 -16.7680972699999984 11.2460501900000001 14.7608282000000006
 -16.8179377099999989  9.5438524299999994  7.6003287100000003
 -16.7639592099999994  7.8316138700000000  0.1748635600000000
 -16.8279714600000005  6.1451457200000004 14.5878389399999993
 -16.8272310500000017  4.4530519399999999  7.3666631400000000
 -16.8260843099999988  2.5676208200000001 -0.3034002200000000
 -7.6592121400000002  4.2611991700000003  7.3721601999999997
 -7.5392821400000001  2.6590499400000001 -0.5147816500000000
 -7.6802491499999999  0.9586772000000000 14.9719249800000007
 -7.5369406699999999 -0.8119918699999999  8.0038440699999995
 -7.4957675100000003 -2.6062903099999999  0.0863345800000000
 -18.2809518599999983 14.0531845900000008 14.9358351700000007
 -18.2368122799999988 12.4140254700000003  7.5997633400000000
 -18.1536921999999983 10.4687035900000005 -0.0703516800000000
 -18.1725478100000011  8.6434777999999994 14.9680847000000004
 -18.3061918500000012  7.0134281900000000  7.6423787000000001
 -18.3205787499999992  5.3096102700000003 -0.0847373600000000
 -18.3102693300000006  3.6343315600000001 14.7563451600000004
 -8.9632376300000001  5.3613544299999996  0.0971982400000000
 -9.2813887099999999  3.5408118599999998 14.7235718400000000
 -9.1085945899999992  1.8130512599999999  7.6207723200000004
 -9.1382543999999992  0.1905006100000000  0.1349364200000000
 -9.1149737200000001 -1.7393065299999999 15.0418765499999996
 -9.0339909800000004 -3.6030487999999998  7.5434385300000004
 -19.7823088399999989 13.1856980999999998 -0.0820019000000000
 -19.7596481200000014 11.5032750499999992 14.5903287299999995
 -19.6495087999999996  9.6568262499999999  7.9544560200000003
 -19.7395890799999982  7.7906041899999998 -0.2056338900000000
 -19.8021096499999985  6.0645739499999998 14.5368991399999992
 -19.8927496700000006  4.4738458100000003  7.7110135900000003
 -10.7298251199999992 -2.6726177400000002 -0.3821585600000000
 -10.6921734300000004 -4.4799397499999998 14.8814422600000000
 -21.4102166800000013 12.3659000100000007  7.4930061300000004
 -21.2119159900000014 10.6931019799999998 -0.1282931100000000
 -21.2380758000000007  8.8143089099999994 14.7622664500000003
 -21.2166933700000016  7.0292351599999998  7.5882211399999999
 -21.1362015800000016  5.2657077100000000 -0.4859844900000000
 -12.1462725000000002 -1.6930795199999999 14.9725466899999997
 -12.1497418400000008 -3.5317043899999998  7.1880571199999999
 -12.2655036299999995 -5.4402213799999997  0.0496428600000000
 -22.8227748800000008 11.3857164100000006 15.2804759600000004
 -22.6269542399999999  9.7581116399999992  7.5477530499999999
 -22.8183685599999997  8.0006136600000008 -0.2350064000000000
 -22.7311419000000008  6.0852231300000001 14.6654385600000001
 -13.5923151900000008 -0.7746697000000000  7.4514150199999998
 -13.6867993200000004 -2.5841331900000002 -0.0789515000000000
 -13.7435683900000001 -4.3039542600000003 14.9492083800000000
 -13.6156328500000008 -6.1269611399999997  7.2649026200000000
 -24.3062535000000004 10.6279301900000007  0.4958245300000000
 -24.2442108500000018  8.8151066300000007 14.9393582299999998
 -24.2161560099999988  6.9944406299999997  7.6327821499999997
 -15.0387628699999993 -0.0151231900000000 -0.2865234600000000
 -15.0957246800000000 -1.6059357400000001 15.1339969799999992
 -14.9907402800000007 -3.4912349100000002  7.5163591600000004
 -15.0551805200000004 -5.4105779800000002  0.3370015000000000
 -15.2336647099999993 -7.0191771699999999 15.2990437200000002
 -25.7012784699999983  9.6107163599999996  7.3484694599999996
 -25.8422358800000005  7.8770088200000004  0.0151575100000000
 -16.6123509600000006  0.8389422100000000 14.6841647099999992
 -16.6412583299999994 -0.8507796800000000  7.5637921600000002
 -16.5625065000000014 -2.6453078500000000 -0.1839121100000000
 -16.7345630300000003 -4.5425033199999998 14.9346201399999998
 -16.7123501999999995 -6.2485016000000000  7.1026547999999998
 -16.7841731000000003 -7.8969075399999999 -0.0488492200000000
 -27.2551620999999997  8.8685075900000001 15.0202704800000006
 -27.3802464999999984  7.1171382699999999  7.4398004599999998
 -8.9901491100000008 15.7721298799999996  0.1481844400000000
 -9.0404659100000000 14.0457455800000002 14.6424233099999999
 -9.0012177199999996 12.1513906499999997  7.5521454700000001
 -9.1259336100000006 10.4186039800000003 -0.1138501000000000
 -9.0599644900000005  8.7199809399999992 15.0203828300000009
 -9.0512115099999999  7.1413269300000000  7.4774916899999999
 -18.2571125700000003 -8.8924285699999999  7.2724557299999999
 -1.5784707800000000  2.6517151100000000 -0.1309442900000000
 -2.9049144099999999  3.6560532100000001 14.9082716000000008
 -4.5109402500000000  4.4372781000000003  7.9199164599999996
 -5.9049591100000001  5.2552658399999999 -0.1212632500000000
 -7.5101712999999997  6.2133087900000001 14.7201034100000001
 -25.8489376799999988  6.3489956899999997 15.0626867000000004
 -25.6948835100000004  4.4385838800000004  7.3793847100000001
 -7.6453262200000003 13.1471021300000004 -0.3144085200000000
 -7.7628384900000000 11.4353654000000002 14.9518445799999995
 -7.6460385200000003  9.7373874600000008  7.2905756300000002
 -7.6046395100000002  7.9146787900000000 -0.0889098400000000
 -18.2970222000000007 -6.9841351700000001 14.7604238599999995
 -19.6118815899999994 -5.9689240699999999  7.6867296200000004
 -2.8467762200000002  5.4749208400000002 -0.2427342500000000
 -4.5345830800000000  6.1581496600000003 14.9200177000000007
 -6.0270869100000004  6.9683588800000003  7.6823642599999999
 -24.3068357199999987  5.2398865299999997 -0.0952404300000000
 -24.2731560799999997  3.6058996200000002 14.7293544399999998
 -24.3623741100000011  1.7407836000000001  7.5056941400000001
 -6.0678645800000002 10.4079406700000003 -0.3601220100000000
 -6.1041048499999997  8.7309691699999998 14.8311268599999995
 -18.2080841500000012 -5.3252747700000000 -0.0030386600000000
 -19.7015623600000005 -4.2124265999999997 15.0779134599999995
 -21.3025824300000011 -3.4132813000000000  7.6038942799999996
 -4.5164856499999999  7.8355188399999998 -0.0224387700000000
 -22.7995903599999998  4.2636597399999996  7.3428020399999996
 -22.9338786200000015  2.5690094800000001  0.1469895900000000
 -22.8204219399999992  0.9201703500000000 14.4458126100000008
 -22.9395796800000014 -0.8911064700000000  7.6999985899999999
 -18.0919627100000007 -3.3511813600000000  7.4048437299999996
 -19.7706075000000006 -2.4721919799999998 -0.1438563500000000
 -21.2866922000000010 -1.7821880900000000 14.8237342299999995
 -21.1659887299999987  3.4481765000000002 14.7868390600000001
 -21.2101382899999997  1.8767742300000001  7.7646666900000003
 -21.3146896599999991  0.0545696100000000 -0.2061664500000000
 -18.3071889100000007 -1.7843299399999999 15.0434042300000002
 -19.9357769400000002 -1.0011094100000000  7.6961908599999997
 -19.7733984099999986  2.6683929000000002 -0.2235246000000000
 -19.7260724900000000  0.9965536300000000 14.7980055099999994
 -18.1684964200000003  0.0493415700000000 -0.0596977800000000
 -18.0657062000000010  1.7593402899999999  7.3831552199999999
 -0.0054891600000000 -0.0219826400000000 17.3601322700000011
 -10.5673002599999997 16.6949193899999990 10.0164444300000000
 -10.5981152000000005 14.7934752599999992  2.3696169000000000
 -10.5413528599999999 13.2820094300000004 17.4045197700000003
 -10.5852850400000005 11.5318964699999995  9.8773245900000006
 -10.7276128600000007  9.7624824900000000  2.3823171900000002
 -10.6005747600000007  8.0240795100000000 17.7250770499999994
 -10.7518362799999991  6.2882274699999998  9.9641881500000000
 -10.4456495500000006  4.6302478499999999  2.3638547900000000
 -10.5176663999999995  2.7584522699999998 17.5221026799999997
 -10.6798037099999998  0.7534434500000000  9.8007401699999992
 -10.6142470699999993 -0.6884547700000000  2.2701158800000001
 -1.6501106800000001  0.6850571800000000  9.7511008500000003
 -1.3708677400000000 -1.0970186799999999  2.0856509800000000
 -12.2226214399999993 15.9049791000000003 17.3830360900000009
 -12.2807685499999995 14.0939768799999996  9.8964000900000002
 -12.0583685299999992 12.0994075599999995  2.4759569300000002
 -12.0173672200000006 10.6633393099999996 17.3063001900000017
 -12.0565581200000000  8.7591587299999993  9.8362550100000004
 -12.1943832899999993  7.0442661800000002  2.2644419700000000
 -12.1221965300000001  5.5410088200000001 17.4964670899999994
 -12.1543177199999999  3.4235208600000000  9.8623577999999998
 -12.1933715599999992  1.7618515699999999  2.5928941999999999
 -12.0198790599999992 -0.0442300400000000 17.3383182299999987
 -3.1470221000000000  1.8765937800000001  2.4883900099999998
 -3.0641904300000000  0.2399373900000000 17.2972656299999983
 -3.0998169400000002 -1.8101307099999999  9.8359167099999993
 -13.7235162299999995 14.7930682200000003  2.6369922600000000
 -13.7119178500000007 13.3287484599999999 17.4447008900000000
 -13.6004046699999996 11.3350263200000008  9.9147108999999993
 -13.5439611499999994  9.5860448199999997  2.4767188000000000
 -13.6006372899999999  8.0026537799999993 17.2235698600000013
 -13.9381851200000000  6.0607041199999996 10.0326844699999995
 -13.5589713399999994  4.6271572000000001  2.4717582600000001
 -13.6422140100000000  2.6856649199999998 17.5176101399999986
 -13.8174713100000002  0.7469867800000000 10.0443243300000002
 -4.6148864500000002  2.6792553699999999 17.1537804300000012
 -4.4710500000000000  0.8045102800000000 10.1464483600000008
 -4.6550925899999998 -0.7826101700000000  2.5233115499999998
 -4.6009679400000003 -2.6018076799999998 17.4875600400000017
 -15.2865541000000000 13.9614382300000006  9.9150826999999992
 -15.0211772499999991 12.3035814999999999  2.8299521900000002
 -15.1730882000000005 10.5365568700000001 17.0144472399999991
 -15.0867477000000001  8.8238044900000006 10.1715044399999996
 -15.2832460599999997  6.7454479899999997  2.4556413799999999
 -15.1793683799999997  5.3216159100000002 17.6263453400000003
 -14.9886879900000007  3.3993633000000001  9.6592962599999996
 -15.1954187600000008  1.8781510400000001  2.6387685900000002
 -6.2200696400000002  3.5532137399999999  9.9991768200000006
 -6.2915851199999997  1.7958140100000000  2.4059143100000000
 -5.9282990900000003  0.0373776200000000 17.3943923399999996
 -6.1196529399999999 -1.6895669799999999 10.1850377200000004
 -16.6777449100000013 14.8791008300000005  2.4863199699999998
 -16.7183650399999983 13.1236302100000000 17.2838148899999986
 -16.6265112299999984 11.1339623999999997 10.2607932300000009
 -16.7021364199999987  9.4644369800000003  2.7571445799999998
 -16.5540621899999998  8.0366600800000008 17.2859284500000001
 -16.8578695299999985  6.2522618000000003  9.6398588800000002
 -16.9355758300000012  4.4722181299999999  2.2899245399999999
 -16.7933506000000001  2.5339530600000000 17.2303633599999984
 -7.6379487299999997  4.5268142800000000  2.3375782400000000
 -7.5817710399999996  2.7816133199999999 17.1867462300000007
 -7.5707157499999997  0.4704426600000000 10.0547834500000004
 -7.5883395299999998 -0.9355747000000000  2.4660647000000000
 -7.5816877900000001 -2.8514865100000000 17.3725655000000003
 -18.1613429199999992 13.8217235499999997  9.7618469300000008
 -18.2424509400000012 12.1299929800000008  2.5045888000000001
 -18.2322111699999994 10.6305358800000000 17.2529332900000014
 -18.1970510899999987  8.4799124399999997  9.8881335400000001
 -18.4385517700000001  7.0499973699999998  2.4090132700000000
 -18.4314014899999989  5.5385542599999997 17.0049128200000013
 -18.0734498499999994  3.3562309400000001  9.9466480500000003
 -9.0813539399999996  5.4439963300000001 17.2996965200000012
 -9.1391654599999992  3.7166540200000000  9.7537513199999992
 -9.1580718099999991  1.7337690699999999  2.4378099500000001
 -9.0083450500000009 -0.2208928800000000 17.2932147600000015
 -9.1745494999999995 -1.9414176299999999 10.0390165600000003
 -9.1189073999999994 -3.3294518399999999  2.6029212600000000
 -19.9528602799999994 13.1287996400000004 17.0152725599999997
 -19.7319238599999984 11.2470722300000006 10.1065766400000001
 -19.8310220000000008  9.6054830399999993  2.5893100800000002
 -19.6784290700000000  8.0108328300000000 17.3083841099999987
 -19.6924343399999984  5.8934049599999998 10.4856574100000000
 -19.9790373499999987  4.2885679899999998  2.4115931499999999
 -10.3677032600000008 -2.7980003099999999 17.4959525300000003
 -10.8403671199999998 -4.5833049499999996  9.8310212400000001
 -21.2780862400000004 12.3907256700000001  2.2029176399999999
 -21.3586596899999996 10.5403283000000005 17.2490708999999995
 -21.1744092200000011  8.6179469399999995 10.1332504199999995
 -21.3773411499999995  6.9841426799999997  2.3152406800000001
 -21.3229734600000000  5.3473881499999996 17.1337845900000012
 -12.0421654700000005 -1.9670631800000000  9.9449792800000001
 -12.0627996599999996 -3.4662078699999999  2.5503781499999998
 -12.1671175500000004 -5.4044449200000004 17.2023337900000008
 -22.7165689800000017 11.2637317699999997  9.8525327300000001
 -22.8531829699999989  9.5108437099999996  2.4079403600000000
 -22.8770581499999999  7.8886210400000003 17.1633141699999996
 -22.7386298999999994  6.3146617500000000  9.9843952300000005
 -13.6955338599999994 -0.6989601600000001  2.4933305099999998
 -13.7274822400000005 -2.8205653000000002 17.3457297100000005
 -13.6519403399999995 -4.7046036200000003 10.0762918199999998
 -13.6592252700000003 -6.1599258099999998  2.6676110099999999
 -24.3921536000000003 10.4395117099999997 17.4771597499999984
 -24.4293563200000001  8.5959430099999992 10.2225007500000000
 -24.3344443499999983  7.0667366500000002  2.3811296700000000
 -15.2187311899999997 -0.1818579300000000 17.3379325100000017
 -15.1751239699999996 -1.6630774399999999  9.9039562599999993
 -15.0908226600000006 -3.4681441400000002  2.4177682900000002
 -15.2591267399999992 -5.2293459699999998 17.6998584799999996
 -15.2128626600000008 -7.1018589700000003  9.7907747500000006
 -25.6830780499999989  9.4464610800000006  2.5706422600000001
 -25.7911671100000000  7.8818615899999998 17.4435528600000005
 -16.6270587799999987  0.7479418600000000  9.8844995699999991
 -16.6235066099999997 -0.5668091600000000  2.5143830399999998
 -16.7772101900000017 -2.8696889400000001 17.1599971099999991
 -16.7490152600000002 -4.5730228100000003  9.7162026099999999
 -16.5555729300000003 -6.2112202500000002  2.4722468100000001
 -16.6452804699999994 -8.1520867199999998 17.4732668000000011
 -27.2991704199999994  8.6031502700000004  9.7949932700000009
 -27.2579424500000016  7.0919964100000001  2.5341654700000000
 -9.1761711199999993 15.6230697200000002 17.3829189699999986
 -9.0366065899999999 14.2240626199999998  9.7202701299999994
 -9.1052619600000000 12.5137850600000000  2.3425196800000001
 -9.1281907199999992 10.6848515600000002 17.3339597400000009
 -9.2247912900000006  8.8430985399999997  9.5963212999999996
 -8.9392207900000002  7.3535237400000000  2.5856934699999998
 -18.1494044599999995 -8.7243361799999999  2.5852681799999999
 -1.4847118399999999  2.7246766600000001 17.4200395800000010
 -3.0314882100000000  3.3973628900000001  9.7918388299999997
 -4.3361023799999998  4.7059890400000004  2.2373543900000001
 -5.9437567700000002  5.3741793400000004 17.6075276400000007
 -7.7970122599999998  6.3728001000000001  9.9932757900000002
 -25.8386942300000015  5.9589368599999997  9.9974303500000001
 -25.6420991500000000  4.2919399199999999  2.3528161299999999
 -7.5469112100000002 13.2604349900000003 17.1436869999999999
 -7.6872008200000002 11.4892960899999999  9.8236124599999997
 -7.6111558600000002  9.7108279799999995  2.5468105500000000
 -7.5024166000000001  8.2287300099999996 17.5708332700000014
 -18.3821422800000001 -7.1029342399999997  9.9300690800000009
 -19.5639612099999987 -6.0919093200000001  2.4933452300000001
 -3.1924513900000000  5.1688423400000003 17.2045240899999996
 -4.8265229600000001  5.8974690100000000 10.1412808800000001
 -6.1942057600000000  6.9453373599999999  2.3724088399999999
 -24.3153372899999987  5.1108778499999996 17.3233764299999997
 -24.3302424899999998  3.6001540500000000  9.9310402500000006
 -24.2136736200000016  1.7415027900000000  2.1129794999999998
 -24.3120249199999989 -0.0051160500000000 16.9712371900000001
 -6.1448676899999999  8.6787367300000007  9.9670532900000008
 -18.3118695600000017 -5.2974132599999999 17.4369975100000012
 -20.3277357599999995 -4.1920276500000000  9.9501332999999992
 -21.0372622999999983 -3.4170244300000001  2.5264533600000001
 -22.9586857100000010 -2.6476307399999999 16.9213735400000012
 -22.7872402899999997  4.3716040700000001  2.5743740300000000
 -22.8153074400000015  2.7815748000000000 17.1083780200000000
 -22.9997895399999983  0.9578972000000000 10.3113402399999998
 -22.7592119199999985 -0.7478421000000000  2.2067046299999999
 -18.0566667699999996 -3.3993746100000002  2.6106359100000001
 -19.9563038800000001 -2.6552764000000000 17.3429991000000001
 -21.3739039700000006 -1.8394822700000000 10.1054411599999998
 -21.0714431299999987  3.2101761000000000  9.8167016000000000
 -21.5060514100000013  2.0482589600000001  2.5160176100000000
 -21.1162845799999985  0.1695663700000000 16.9357092700000003
 -18.0704314900000007 -1.9178050499999999  9.9443466300000001
 -19.8095856599999998 -0.7243139200000001  2.3596452399999999
 -19.7216926100000016  2.6566795900000000 17.3416001400000006
 -19.6495573400000012  0.7901508400000000 10.0129462000000000
 -18.3279224999999997 -0.0150517400000000 16.9257443099999989
 -17.9896289600000010  1.7128269400000000  2.4024361000000001
  0.2003883700000000 -0.1239150600000000  5.0649503200000003
 -10.7363408600000003 16.5810374200000012 19.9567907399999989
 -10.6005253100000001 14.8746804499999996 12.3492965399999992
 -10.7005122400000001 12.8411148199999996  4.8288503100000000
 -10.7709355500000008 11.2283252099999995 20.1474749799999984
 -10.5943773700000001  9.6336651900000003 12.3608655800000005
 -10.5597154799999995  8.0340827099999998  5.1968051700000002
 -10.5107892300000003  6.1353564699999996 19.7689235100000005
 -10.7948473899999993  4.3225733999999996 12.0808529500000006
 -10.6302279199999994  2.6860534700000001  5.1373018699999999
 -10.5591920300000002  0.8871289000000000 19.6550308200000003
 -10.5532888899999993 -1.1177734900000000 12.3596819100000008
 -1.4646494000000001  1.0038467900000001 19.6490142500000005
 -1.5531917300000000 -1.1215782900000000 12.3559452000000007
 -12.0459341200000001 15.4433235199999999  4.7516144699999998
 -12.1338020300000000 14.0822272900000005 19.9504349900000015
 -12.1490631100000002 12.4039550399999996 12.6579960000000007
 -12.4037849999999992 10.5429552999999991  5.2788792100000004
 -12.2104563800000001  8.9637679299999995 19.6880189899999998
 -12.2092666899999998  7.0911775500000003 12.4232454400000005
 -12.0705583500000007  5.2619388999999996  5.2396731599999997
 -12.1785488199999996  3.8162805099999999 19.2663497200000009
 -12.2430178299999994  1.7944391799999999 12.7323226500000004
 -12.3062593899999992  0.1691685200000000  4.8367678400000003
 -3.0403342599999998  1.5004740400000001 12.7625532699999997
 -3.0371795599999998 -0.1104396000000000  4.8446673100000002
 -13.4583347999999994 16.6868820599999985 19.9100730299999995
 -13.4589337100000002 14.9389220900000002 12.6646760799999996
 -13.5780231600000008 13.0357795799999998  4.8113869800000000
 -13.8178015199999997 11.4734040799999999 19.9854376199999990
 -13.6496874100000003  9.6165682599999993 12.6209239899999996
 -13.9208083200000008  7.5996840800000003  4.8770571000000000
 -13.6875045600000007  6.1626751300000002 19.7192043300000002
 -13.6545884999999991  4.2606928999999996 12.5426815299999994
 -13.7302591799999991  2.7188579100000001  5.0991120900000002
 -13.7427260400000009  0.9147367100000000 19.4323494500000002
 -4.6327408900000000  2.7191779000000000  4.9897082800000003
 -4.6011513099999997  0.6471484100000000 19.8856769600000014
 -4.4951550200000003 -1.2172177600000000 12.6576344299999999
 -4.8217705700000000 -2.8097899599999998  4.8508551200000003
 -15.2970937399999993 14.0428840499999996 19.8507973900000003
 -15.2854936400000003 12.0754807799999995 12.3488454300000008
 -15.1729186800000004 10.5876657299999994  4.9739231699999999
 -15.2363224499999994  8.8434427299999996 19.9218209000000002
 -15.3428270100000006  7.0573147100000000 12.6048742399999991
 -15.4426675400000004  5.4270248099999998  4.9257497299999997
 -15.4485656000000002  3.6673840300000000 19.7761812100000007
 -15.3205271500000002  1.6731141800000000 12.1986079099999998
 -5.9617986600000004  3.3503153299999999 19.7034923500000012
 -6.1275036800000002  1.8379121700000001 12.4212286200000008
 -6.0692341499999998  0.1488170400000000  5.1897243399999997
 -6.1134792600000001 -1.7612573199999999 19.8573686100000018
 -16.7380613800000013 14.9711630699999994 12.5220248600000001
 -16.7136293500000015 13.2018547700000006  5.3841250000000000
 -16.8390941299999994 11.5729874800000001 19.6190107500000011
 -16.6465129300000001  9.3563612200000001 12.4975192400000008
 -16.7529648699999996  7.6959374900000004  4.9199526699999998
 -16.7316581800000002  6.0699273800000002 19.7066645600000001
 -16.5188698100000018  4.2444198999999996 12.4236859400000004
 -16.9171394799999995  2.7582974600000001  4.8595083800000003
 -7.6254397899999997  4.4003338599999999 12.4481758500000002
 -7.5151643500000000  2.5154638600000001  5.1154773599999999
 -7.6761341500000002  1.0705548000000000 19.8021852299999992
 -7.5614168800000003 -0.9048404000000000 12.7696723599999995
 -7.5868982300000001 -2.4472998499999998  5.1862178099999996
 -18.4531330599999990 14.0729617299999994 19.6375036999999999
 -18.1914565500000016 12.2260431599999997 12.3448264299999995
 -18.1494195100000013 10.2539336300000006  5.0347803700000000
 -18.1074908599999986  8.7567597399999997 19.5658721500000006
 -18.0711922600000001  6.9467502699999999 12.5335748900000006
 -18.4222483399999994  5.2597441500000004  5.0506751799999998
 -18.5005918200000004  3.6741968100000002 19.3933532500000005
 -9.0117758400000003  5.3352555800000001  5.1407890800000002
 -9.0510284500000004  3.5451268300000001 19.4701976200000004
 -9.1450044500000001  1.8477826900000001 12.1034504300000005
 -9.0749084000000000  0.3783957000000000  4.8326065399999996
 -9.0429145299999991 -1.9740288900000000 19.6859357899999985
 -9.3296664200000006 -3.6548573700000002 12.2815150000000006
 -19.8081805200000005 13.2748616599999991  4.8547755600000002
 -19.7529159400000012 11.4564877500000009 19.7297463099999995
 -19.6521161800000002  9.4791644700000006 12.4563676099999991
 -19.9214090500000012  7.7956276999999998  5.3325334199999999
 -19.7552329399999991  6.3363612700000003 19.4554007300000009
 -19.5188762500000017  4.2052214599999997 12.4010349099999999
 -10.7701137500000002 -2.3906929200000002  5.0133782299999998
 -10.7412460099999993 -4.6661001999999998 19.5280985600000001
 -21.3758933599999992 12.3926113499999992 12.5442099000000002
 -21.3959903599999990 10.5693278100000008  5.2101720699999996
 -21.3220370300000006  8.7531876200000003 19.6413836999999987
 -20.9487391199999990  6.9576782899999996 12.3659070100000008
 -21.3479337499999993  5.2321016699999996  5.0581359299999997
 -12.0832421100000005 -1.7708344600000001 19.4665905399999986
 -12.3084880800000001 -3.6911214499999998 12.3631436299999997
 -12.2228913099999996 -5.0973012600000001  5.0213861599999996
 -22.9252900599999982 11.5757032199999994 19.9816367600000007
 -22.5158522099999985  9.6403330100000009 12.5061008000000005
 -22.6519737600000006  7.9177230600000001  5.1408731400000001
 -22.8859320100000012  6.0942809000000002 19.7207387599999997
 -13.6565622999999992 -0.9435175500000000 12.3669488500000000
 -13.6305050500000000 -2.4773657299999998  5.0736903199999999
 -13.9153973299999993 -4.3000552900000004 19.8925978800000003
 -13.6829571399999992 -6.1514921999999999 12.7811183800000006
 -24.3903295399999998 10.4344769199999998  4.7384351799999997
 -24.1464991500000004  8.8473204200000009 19.8656366400000017
 -24.2523686199999986  6.9011425900000001 12.4766630999999997
 -15.1123606899999992  0.2356400500000000  4.9575133899999999
 -15.2225949899999993 -1.8427366599999999 19.8726766700000006
 -15.1870719699999999 -3.6522108900000001 12.4746544499999992
 -15.0704775200000007 -5.1378857800000004  4.7213736500000003
 -15.1067961499999992 -7.0866712999999999 20.0403783299999994
 -25.8776896900000004  9.7051920900000006 12.6808185299999998
 -25.7529634899999991  7.8866849300000004  4.9900059399999996
 -16.7343408300000007  1.0585404300000001 19.7290840600000017
 -16.7841835599999989 -1.0664389500000000 12.3636677499999994
 -16.6355305800000011 -2.3419700500000000  5.0032487899999998
 -16.9440714099999994 -4.3044223800000001 19.8372636900000003
 -16.7630189399999985 -6.3273018600000004 12.2517178300000005
 -16.5570189700000014 -7.7985161400000003  5.0745852200000003
 -27.3015557499999986  8.7234058500000007 19.8580101499999984
 -27.4560521000000008  7.0165251700000004 12.3804217899999998
 -8.9723760000000006 15.4869282800000008  4.7552343400000003
 -8.9562813899999991 13.8797592900000009 19.9898484900000000
 -9.3294513899999991 12.0076307199999999 12.0916252800000006
 -8.9039558099999994 10.3216513499999998  5.0041221399999998
 -8.9410980999999996  8.9164707900000000 19.8873128799999996
 -9.1856368199999991  7.1804456800000001 12.0006640000000004
 -18.4669051099999990 -8.8978909000000002 12.5062262700000009
 -1.5901075499999999  2.5647252300000001  4.8243353500000001
 -3.2261874499999998  3.4856149099999998 19.8254592000000009
 -4.5789056600000002  4.0027021899999999 12.1857684800000001
 -5.8664880600000000  5.1884280699999996  4.9983652200000002
 -7.4745421500000004  6.2203437700000004 19.6563197000000009
 -25.8337849900000016  6.2099103500000004 19.9027044999999987
 -25.9639392499999992  4.3179960599999996 12.6931291000000002
 -7.6696457599999999 12.9654828500000008  4.8762307500000004
 -7.7509959300000002 11.3828272399999992 19.9159753700000017
 -7.5284271100000000  9.4407170399999991 12.5386696999999998
 -7.5331801799999996  7.9290055800000001  5.1121426400000001
 -18.1791700300000016 -7.2803502699999996 19.8472236600000009
 -19.8885001899999985 -6.1170739500000000 12.3117900299999992
 -2.6592761299999998  5.5199055000000001  5.3437091099999998
 -4.4452497400000004  6.3038091500000002 19.9539554599999995
 -6.1795244199999999  6.8729182499999997 12.5653159100000007
 -24.2913199499999983  5.3536381400000002  4.8251510900000003
 -24.1904835100000000  3.4293978500000000 19.8532687599999988
 -24.6540829200000005  1.8055489899999999 12.4088717000000006