Li                                      
   1.00000000000000     
    21.0004999999999988    0.0000000000000000    0.0000000000000000
     0.0000000000000000   21.0004999999999988    0.0000000000000000
     0.0000000000000000    0.0000000000000000   21.0004999999999988
   Li
   500
Direct
  0.9888924135139661  0.9935692388276465  0.9974002876122015
  0.0125271936382489  0.0997167129354040  0.1099696959596201
  0.0013411023547079  0.1905682198042911  0.1999543168019784
  0.9946961696150112  0.3058024623223261  0.2997917597200086
  0.9963246960786662  0.3996509045022734  0.4096798038141927
  0.0194470950691681  0.5069757424823251  0.5014243503726092
  0.0108538482417089  0.5995959277160097  0.5836051822575641
  0.0068055903430846  0.6912691545439387  0.6957658708126004
  0.9936678160043826  0.8121902473750637  0.7927936563415159
  0.0054125349396443  0.9282112783028964  0.8819346496511997
  0.1010908630746883  0.0045869969762649  0.0998888050284492
  0.1075041546629834  0.0880574510130714  0.1959844165615081
  0.0986999042879901  0.2021875550582095  0.3063089788338402
  0.1115473164924623  0.3022889040737127  0.3807778114806766
  0.1138017918621017  0.4057080959977171  0.4881386224137501
  0.0953903054689178  0.4781617223399408  0.5939226761267591
  0.1031097940525214  0.5902614809171212  0.6911851013071129
  0.0913831308778370  0.6979615199638118  0.7898524144663241
  0.0982333558724804  0.8066523397061971  0.8875265912716372
  0.0940635618199579  0.9030193323968447  0.0000247294112015
  0.2054908425989836  0.9810837041975162  0.1997809390252598
  0.1970410285469413  0.0924286226518447  0.2925200047617906
  0.2017157191495471  0.2013938606223675  0.4021901892812068
  0.2180250646413171  0.3015023370872143  0.5000553691578773
  0.2091053993952556  0.4007385433680142  0.5993481040927620
  0.2129637313397268  0.4953816542463301  0.7086414504416538
  0.1892627780290965  0.5943012528273144  0.8059170414990149
  0.1793811428299321  0.7047703907049865  0.8854025508916479
  0.1873177352920194  0.8035788276469589  0.9957284402752293
  0.2109593952524946  0.9041435008690257  0.0997702192804937
  0.2965454527273153  0.0141473607771232  0.3037157862908018
  0.2974301097592900  0.1042856455798642  0.3996344696554814
  0.3013260450941644  0.1962738563367523  0.4960853684436088
  0.3036300554748692  0.3042092069236446  0.6104598876217224
  0.3049151991619254  0.4036715682959908  0.6957634694412036
  0.2978479745720364  0.4928111068784062  0.8118551624961299
  0.2963206980786168  0.5971356439132407  0.8933423699435750
  0.2964580667126953  0.6979676798171468  0.9937153220161434
  0.2951326196995296  0.7961123811337814  0.0847461027118399
  0.3062837413394917  0.8832997338158606  0.1991431384967015
  0.3974611114021087  0.0135975305349874  0.4049828270755427
  0.3877524806552231  0.1061262293754908  0.5130983967048408
  0.4058047879812392  0.1973515721054255  0.6020135653913030
  0.4108874222042331  0.3033189771672085  0.7029078017190074
  0.3977095773910122  0.3909507787909803  0.8052264255612940
  0.4148054055855823  0.4888557343872790  0.8989743625151760
  0.3920066560320024  0.6114855860574764  0.0094122097092892
  0.4088982119473314  0.7035414847265571  0.0917280936168154
  0.4094278274326797  0.7846573776814836  0.1915353824908905
  0.3941287507440308  0.9123433823004206  0.3086049917859128
  0.4849387757434371  0.9998083998000027  0.5039873664912733
  0.4814424108949780  0.0929209837861009  0.6075930120711419
  0.4960714602033249  0.1910237732434936  0.7093070084045650
  0.5108845375110107  0.3047899788100281  0.8085391104973709
  0.5100725444632275  0.3919381638532400  0.9053752015428174
  0.4941946406037943  0.5011963524678009  0.0075579671912607
  0.5045775948191675  0.5902947044117965  0.1053482826599392
  0.5169967743625179  0.6913220732839704  0.1955188157424814
  0.4923931915906792  0.7889709197400094  0.3033912254470152
  0.5073531101640469  0.9047159572391124  0.4023224323230394
  0.5981765486536048  0.9945893493012079  0.5984368562653302
  0.5997501226161290  0.0926228670745957  0.6959045722720916
  0.5937971343539417  0.1845043003738027  0.8092264436561010
  0.6024394600128602  0.2958124687507464  0.9107656789124050
  0.6182330168329315  0.4094939539534792  0.9890495759624756
  0.6099178143377557  0.4918679469536471  0.0968048041713274
  0.6124669093592985  0.5879973167305508  0.2074143982286145
  0.6108650336896773  0.7017694507273617  0.3053679588581204
  0.5937221823289889  0.8089539115735320  0.4196527258874809
  0.6011010285469425  0.9097879045736974  0.4922110873550665
  0.6961701207114146  0.9979550563081858  0.7127507330777831
  0.7017482750410693  0.0888258041475183  0.7908132711125901
  0.7054744829884996  0.1799153401109521  0.9099055622485182
  0.7131444937025293  0.2886584757505801  0.0042661674722027
  0.7087101245208416  0.4101470931644471  0.0896413552058277
  0.7024376138663371  0.4944983457536694  0.1988119568581723
  0.7228797828623144  0.5983109925954153  0.3046272874455340
  0.7078141882336126  0.7057821185209860  0.4058682093283466
  0.6976640956167728  0.8082949558343842  0.5152355024880393
  0.6945786595557237  0.9015945972714903  0.6026686731268285
  0.8127731063546122  0.0166785595581089  0.7872835099164277
  0.8013362053284467  0.0951312830646884  0.9008006456989150
  0.8059962405656975  0.1909123382776627  0.9971887674103002
  0.8052038937168149  0.2945402914216331  0.1018200342848985
  0.8114747486964617  0.3959614575843418  0.2019685883669453
  0.7988075988666949  0.5001811975905355  0.2886575667246021
  0.7994290978786225  0.6033431061165189  0.4045721973286334
  0.8031321778052884  0.6987186333658713  0.5125681355205813
  0.8086931444489451  0.8040587395538168  0.6026580500464291
  0.8169140149044054  0.9077059960477101  0.7029303035642016
  0.9037769457870084  0.9894663569914997  0.8976616923406553
  0.9041662055665327  0.0942364700840486  0.0083545053689207
  0.8902651398776200  0.1945157920049496  0.1116096245327469
  0.8968798271469751  0.2862279074307779  0.2116929139782400
  0.9067827232684920  0.3896139420489959  0.3120058417656750
  0.8945338644317999  0.5047554491559723  0.4083671664960349
  0.8930420437608646  0.5970753848717862  0.5093341968048364
  0.9052056998642897  0.6959760200947613  0.6025472745887015
  0.9087233961096146  0.7911970972119704  0.7027648060760470
  0.8944576133901592  0.9120591724006601  0.8036908511702094
  0.1122844570367363  0.0965407699816652  0.0049896850075015
  0.1121505316540095  0.1963128277898178  0.0794914635365842
  0.0995140168091240  0.2873261684245634  0.2178308478369573
  0.0898918997166760  0.3978069093593035  0.2989604004666546
  0.0998169810242615  0.4902769700721379  0.3855870088807407
  0.0923654889169327  0.5877062222328036  0.4855898192900199
  0.0956260869979317  0.6984410452132082  0.5942447756005791
  0.0889218118616242  0.7996895154877279  0.7047355382014686
  0.1032557843860857  0.9175870322135182  0.7955087874098226
  0.0975470179281430  0.0093071164972258  0.9045807118878102
  0.2021499873812544  0.0884972124473222  0.1052513211590167
  0.1928402199947641  0.1930547010785446  0.1941544758458136
  0.2102638122901865  0.3062223618485262  0.2892445151305907
  0.2132495331063566  0.3948590776410086  0.3846691635913402
  0.2055451555915369  0.4961748653603451  0.4898885864622287
  0.1794025951763061  0.5959141129973062  0.5912899511916407
  0.1898929539772851  0.7014404714173494  0.6958590519273358
  0.1989098497654851  0.8038234108711677  0.7920206076045844
  0.1919604966548434  0.9137209004547486  0.8938732187328853
  0.1975735296778680  0.9898868107902175  0.0108955362967578
  0.3127370743553755  0.1079805980809994  0.2084151534487262
  0.2945460436656262  0.2065714349658307  0.3030389166924579
  0.3149806604604635  0.3079965162734197  0.4085682212328265
  0.3113109587866987  0.3970156862931802  0.5010567581724246
  0.3003533220637635  0.5029928277898179  0.5997531577819544
  0.2958954358229562  0.6059165205590347  0.6995016128187430
  0.2881884893216835  0.6847210409275988  0.8082615375824389
  0.2771259641437140  0.7835414690126399  0.8956549701197574
  0.3024338315754420  0.8943666279374298  0.0060931115925840
  0.3066219123354230  0.0061647227446997  0.1144957296254816
  0.4095286726506515  0.1035347710768804  0.2944021104259420
  0.4013798080998043  0.1902136806266483  0.4029247622675669
  0.4058607799814311  0.2880693878717153  0.5088203338015731
  0.4095053355872480  0.4039192533511127  0.5881809247398877
  0.3918463446108404  0.4990605166543673  0.6988142010904497
  0.3991552467798414  0.5939664322278020  0.7977217313873481
  0.3844965805576024  0.7020156191519220  0.8975553791576374
  0.3963888183614657  0.7990763677055313  0.9891696440560906
  0.4083305183209944  0.9051245017975731  0.0908567772195923
  0.4145563886574095  0.0100231637341963  0.2064452727315995
  0.4906849175019659  0.0904096983405154  0.4060365024642252
  0.5102232127806445  0.1966248594081108  0.5125842689459787
  0.5135938582414710  0.3072437041975178  0.6214737582438516
  0.5061254693935879  0.4056695359634261  0.7147722301849981
  0.4954842684697951  0.5032273731577845  0.7954052498750031
  0.4805465279398078  0.5996765586533641  0.8969217528154090
  0.5100085764624680  0.6998912797314318  0.9915978124330351
  0.5063137006261726  0.8007477602914221  0.0758194566796035
  0.4959537068165076  0.8911861560439007  0.1942807504583257
  0.4979613442537101  0.9987662727077904  0.2904294526320825
  0.5919498964310392  0.0913782995642975  0.4912088397895289
  0.5879105407014151  0.1899688635984873  0.6038029823099436
  0.5911592771600667  0.2885989962143753  0.7089492512083027
  0.5965684036094387  0.4057841399014279  0.7945998804790335
  0.5984019899526203  0.5128153163019959  0.9126686797933417
  0.5983578948120254  0.5865647384586055  0.0020250427370812
  0.6129575500583329  0.7009441346634588  0.0962196233423001
  0.5926972362562779  0.7970302335658701  0.1892094402514246
  0.6007393428727852  0.8900589305016524  0.3058135049165500
  0.6005658060522379  0.9981315335349166  0.3850784705126102
  0.6926306626032712  0.0907047441727613  0.5886898169091239
  0.6939599380967110  0.1952776052951108  0.6991023066117492
  0.6909863041356132  0.2906155386776490  0.8018884140853757
  0.7029692493035853  0.3886614294897726  0.9007837794338229
  0.7207619970953090  0.5103851794004939  0.9964923192304980
  0.7095664746077475  0.6036293402538035  0.0924448175043437
  0.7059307159353381  0.7093672098283363  0.1932444275136334
  0.7083673503011809  0.8046622589938366  0.3012729596914383
  0.6983858950977364  0.8889568381705217  0.4083380943310857
  0.7065742263279446  0.0067873826813667  0.4904615085355104
  0.8019653670150717  0.1056745301302371  0.6871060731887368
  0.7981770648317905  0.1955417690055015  0.7943599857146282
  0.7976564910359301  0.2913250284517019  0.9029126916025803
  0.8018273912525871  0.3970545129877863  0.0024020266184124
  0.8160524468465056  0.5014709373586328  0.0998588076474363
  0.7988369548344068  0.5827373900621424  0.1843858974786343
  0.8025286293183527  0.6972650932120672  0.3049907792671576
  0.7996449098830993  0.7966106073664889  0.4054954643937023
  0.8059241560915211  0.8919907873622037  0.4971677698150074
  0.7986335053927291  0.0035509278350503  0.6073771653055857
  0.8981121644722734  0.1053075474393452  0.8013024199423811
  0.8969107283159943  0.1944794623937511  0.8958697821480470
  0.9054674783933692  0.2943225108925986  0.0042837032451644
  0.8983636584843211  0.3929280383800418  0.1012729158829586
  0.9111978048141722  0.4932732158758100  0.1965739072879202
  0.8963076831504040  0.6130178048141701  0.3009616466274636
  0.8966073331587339  0.6954971900669022  0.3944854789171686
  0.9126237456251047  0.8042137439584778  0.4923330087378872
  0.8896708473607760  0.9077609085497969  0.6079792233518262
  0.9005284231327835  0.0068597681007603  0.6928981352824906
  0.0008466755553442  0.0973477398157172  0.8885530825456556
  0.9992213199685693  0.1825639851432115  0.0038456746267954
  0.9856974181567111  0.2816087874098230  0.1094000176186256
  0.9985134506321245  0.3885570091188271  0.1970211690197843
  0.9857326868407910  0.5009520973310160  0.2913656241518083
  0.9879282198042887  0.5979826418418597  0.4013456451036888
  0.9927317916240099  0.6930856131996848  0.4797346901264277
  0.9957429675483951  0.7878147391728731  0.5882655751053534
  0.9968575619628126  0.9090529511202092  0.6983630656412956
  0.9956191595438213  0.0185914111568763  0.7938345653674901
  0.2045532601604734  0.2005611509249761  0.9940759858098644
  0.1946938387181234  0.3029005180829003  0.1171868488845504
  0.1968372319706688  0.4062953601104766  0.2003774948215522
  0.1950469717387691  0.4831176438656257  0.3004614490131203
  0.1926446565557995  0.5999867326968413  0.3897042560891393
  0.1926820247136973  0.6948723258970020  0.4962499421442317
  0.1936657398633344  0.7942647370300691  0.5935481402823726
  0.1925130954024894  0.9093040218090067  0.6889662250898780
  0.1937173795862037  0.0067533230161203  0.7820211247351239
  0.1899735849146467  0.0942158905740342  0.8957789328825498
  0.2899385852717771  0.2042422242327575  0.1095493716816236
  0.3042692926358868  0.2995424894645353  0.1959683178971900
  0.3042485717006755  0.4023233380157620  0.2978017842432337
  0.2872193643008529  0.4962052008285482  0.3861128496940580
  0.2904034337277679  0.6048597709578374  0.4945729501678500
  0.3015253698721452  0.7058205957001036  0.5970902983262292
  0.2827711035451514  0.7905297521487569  0.7070478002904679
  0.3029781833765881  0.8929560786647954  0.7940750477369605
  0.2999427656484386  0.0079315897240519  0.8947913773481559
  0.2989287574105362  0.1062326320801859  0.9994581976619585
  0.4030976424370820  0.2101840989500232  0.2033420823313747
  0.3971805804623685  0.3024315730577811  0.3046528668365056
  0.3988168062665167  0.4078555162972322  0.4000823323254181
  0.4024243313254416  0.5147741101402374  0.5001190104997519
  0.3887099530963525  0.5939914873455407  0.5910040727601711
  0.3993766843646611  0.6984838113378231  0.6963949267874554
  0.3881444170376867  0.7978449513106796  0.8071661203304714
  0.3897427746958400  0.9012064907978399  0.8877551005928410
  0.3927546020332855  0.9962143329920750  0.9972343425156538
  0.3959024875598232  0.1166977924335129  0.1057386666984144
  0.4992981171876849  0.1993589676436258  0.3186009780719488
  0.4917625642246577  0.2962525287493136  0.4136996204852252
  0.5099533006357007  0.4034960705697515  0.5130023866098412
  0.5122930301659494  0.5087401095211987  0.6212248246470295
  0.5002537515773469  0.6067762748505956  0.7009954101092859
  0.4905355572486343  0.7139482645651327  0.7959900145234613
  0.5024955724863673  0.7919804780838575  0.8952565448441732
  0.5140145210828280  0.9111673998238103  0.9897962838980021
  0.4922101930906422  0.0181911316397247  0.0911227551724991
  0.5129853922525669  0.1220956458179572  0.1895968348372676
  0.6097572543510879  0.2069618970976848  0.4039718116235349
  0.5979044798933373  0.3014087159829515  0.5056201776148157
  0.6151635251541663  0.3996894135853921  0.6179150086902681
  0.6121302616604396  0.5079171114973420  0.7059505821289989
  0.5958547039356219  0.6008423408966479  0.8062679274302980
  0.6067128739791912  0.6891494859646201  0.9016313702054717
  0.6007930954024872  0.7928029746910781  0.9908285021785161
  0.6020931401633263  0.9048425713673467  0.0945161800909489
  0.5780279560010442  0.9855310435465796  0.2053853460631885
  0.5873932415894885  0.1049561162829491  0.3083073826813632
  0.6923705645103695  0.1961164986547956  0.5137394662031838
  0.7073372714935360  0.2928830356420065  0.5929790738315788
  0.7023052213042575  0.4010578900502395  0.7036613528249305
  0.6982799157162916  0.4978174167281750  0.8103372072093507
  0.7152735553915406  0.5993931996857214  0.8994927825527981
  0.7078356920073361  0.6939664931787348  0.9888461403299900
  0.7072971234018226  0.8120934453941544  0.0808061055689180
  0.6911192981119498  0.9037797647675063  0.1980750258327149
  0.6903837432442117  0.9884885707483164  0.2982975662484222
  0.6949320849503593  0.0962642794219164  0.4039253741577582
  0.7988235799147674  0.1872408118854310  0.5971917668626929
  0.7918731549248861  0.3043329335015841  0.6882665055593904
  0.8056132520654273  0.4071812771124499  0.7998486578891004
  0.8071481264731801  0.4937442222804194  0.8924083093259654
  0.8348710064046116  0.6044633194447755  0.9924034889645483
  0.8027268803123704  0.7093437803861846  0.0938236489607363
  0.7864966867455507  0.7938184390847809  0.2046991662103252
  0.8003767515059153  0.9103133153972536  0.2918288050284517
  0.7896672488750269  0.0006947477440988  0.3882815780576649
  0.8018373348253647  0.1032852170186445  0.4870476412466402
  0.8929362810409245  0.1935872060189041  0.6942400857122450
  0.8917319168591220  0.2908278088616925  0.7891904668936434
  0.8985675255351069  0.3765132830170685  0.8916061779481410
  0.9128159067641235  0.4988156567700770  0.0097975033927753
  0.9135003947525036  0.6119126001761828  0.0914300121425669
  0.8859654974881579  0.7013951120211388  0.1961190185947927
  0.8971344387038371  0.8087398295278660  0.3057625789862115
  0.8860269417394804  0.9039580043332336  0.4005086716982902
  0.8977646103664227  0.0012822828027907  0.4971075098211912
  0.9092986152710623  0.1102098407180776  0.5837311549724973
  0.9983133334920566  0.2072708525987466  0.8042711140210912
  0.9884636122949431  0.2887516125806542  0.8957675422013764
  0.9942656684364692  0.3853608209328314  0.0081609099783364
  0.9995717749577366  0.4952890374038716  0.1025761339015716
  0.0105709797385742  0.6028818223375652  0.2020651898764285
  0.9967531458774772  0.7129177895764371  0.3051688012190183
  0.0021585043213221  0.8130910425942233  0.4004521182828995
  0.0029949515487715  0.8988358253374926  0.4946045198923841
  0.9991030375467247  0.0065138896692929  0.5915544220375679
  0.0016273460155745  0.1117711597342890  0.6935968491226419
  0.0978763972286387  0.1839066574605397  0.8955285755101059
  0.0949360110473592  0.2907819166210359  0.0011734092045401
  0.0925024508940240  0.3899308525987450  0.0994469041213293
  0.0844180105235566  0.4955756272469714  0.1953279079069574
  0.0829851560677142  0.5998667012690149  0.2996449351205897
  0.1057678393371617  0.7039455608199816  0.4010453813004418
  0.1011979110021173  0.8085171143544230  0.4945533939668110
  0.0902764277041044  0.8886246389371664  0.6097638918121007
  0.0975171957810517  0.9994059593819173  0.6844924692269245
  0.1090254517749543  0.0999425199400008  0.7861587628866005
  0.2941972114949678  0.2943977905287980  0.9927306987928830
  0.2868176557701005  0.3986924030380194  0.0846411980667128
  0.2852721592343030  0.4986762858027163  0.1829471664960352
  0.2976939425251786  0.5955612542558484  0.3002562619937592
  0.2824064355610574  0.7029385824147028  0.4064315163924661
  0.3051734315849615  0.7906218318611451  0.5004234503940381
  0.2780844613223508  0.8965516387705037  0.5974099740482401
  0.2970283688483590  0.9969459089069304  0.7004856193900153
  0.3078282907549834  0.1022424089902643  0.7912691112116406
  0.2947764505607040  0.1957201633294474  0.9016593190638318
  0.3788146972691138  0.3086965419870964  0.0911391290683525
  0.3801116521035226  0.3901243084688488  0.1916153558248581
  0.4029735206304608  0.5030533011118763  0.2923433461108047
  0.3935350386895564  0.5943045927477897  0.4141251094021570
  0.3978661260446188  0.6926361619961412  0.5031279688578820
  0.3961610071188773  0.8064143672769717  0.5894304245137008
  0.3857095283445631  0.8974796785790815  0.6961670145948915
  0.3978069555486741  0.0046718887645554  0.8044774252993960
  0.3997869607866491  0.1038453513011603  0.9166300216661512
  0.4003312468750764  0.2048035480107586  0.0111772776838635
  0.5025253922525650  0.2978924020856653  0.2085010775933895
  0.4915753810623542  0.4083174910121201  0.3136055451060713
  0.5016743872764948  0.5086908311706893  0.4091695540582378
  0.5163359805718883  0.5906749101211872  0.5052086197947645
  0.4909254427275513  0.7086047551248811  0.5935575305349872
  0.4938430942120391  0.8097785390824015  0.6995429913573474
  0.4837070107854586  0.9015546001285699  0.8085669760243803
  0.4864283555153435  0.0041705645103676  0.9164570029285031
  0.4994942020428113  0.1101032542082336  0.0154731496869118
  0.4972076350563057  0.2089889007404580  0.1095226232708768
  0.5894949148829767  0.3065480574272073  0.3075939030023065
  0.6008177091021665  0.3896904207042695  0.3856060479512422
  0.6141958072426874  0.5001130406418923  0.5068653603485629
  0.6179504668936460  0.6020154991547813  0.5999829308825966
  0.5934084040856149  0.7150025932715920  0.6969137211018790
  0.6237905687959824  0.8021888188376494  0.7895397633389649
  0.6041550524987471  0.9013164805599843  0.8996078121949509
  0.5961628561224757  0.0052295883431341  0.9976543682293268
  0.6053486650317836  0.1065001023785115  0.1175565272255454
  0.6007493935858648  0.2122867955524868  0.2050797571486385
  0.7085760196185831  0.3065736296754835  0.4179065655579635
  0.7146525606533203  0.4058053998714328  0.4939609790243082
  0.7033255932001623  0.4923883117068613  0.5997418156710523
  0.7009526396990537  0.5990386881264698  0.7030769748339338
  0.7087017385300385  0.6908847222685139  0.8002686021761392
  0.7032838227661244  0.8021303568962637  0.8949814923454227
  0.7043556639127644  0.9122946625080388  0.9938522430418288
  0.6968705907002217  0.9921798019094794  0.1073864327039828
  0.6858426994595348  0.0956103530868333  0.2046824027999321
  0.6866472669698354  0.2002947125068459  0.3021894983452782
  0.8089076421989958  0.2936188819313799  0.5012711511630670
  0.7963911949715481  0.3979303735625308  0.6008187205066520
  0.8043594900121391  0.4916382419466174  0.7026128163615155
  0.8179517830527843  0.5859850736887182  0.7958011547344128
  0.8102566624604179  0.7180104264184166  0.8869068141234706
  0.8035339468107878  0.8119405552248722  0.9925013509202145
  0.7983010399752359  0.8943037589581166  0.1042161543772764
  0.7961425056546290  0.0002207366491263  0.1930723120878071
  0.7945496288183591  0.0862809642627553  0.3057310997357234
  0.7875294640603769  0.2094311459250946  0.4010127216018660
  0.8995182714697236  0.3046929430251666  0.5908176086283632
  0.8982348272660161  0.4034077736244370  0.7021541310921151
  0.9051187595533463  0.4971995485821736  0.7998214575843434
  0.9157054874883954  0.5991968972167356  0.8991242437084850
  0.9034125149401220  0.7302780595700114  0.9969436665793694
  0.8987508016475800  0.8033350548796463  0.1184311925906556
  0.9024803904668914  0.9042799519059059  0.2098808090283555
  0.9010335777719547  0.9992217923382753  0.2927695264398480
  0.8986210194995365  0.1089655041546607  0.3954265784147992
  0.9087143510868785  0.2146355334396830  0.4908898583367076
  0.9947850346420353  0.2995578048141709  0.7075222128044558
  0.9913833718244831  0.3969606285564637  0.7968913235399171
  0.9851580000476190  0.4974402714221071  0.9092329815956788
  0.9974549701197617  0.6146291069260243  0.9941253660627112
  0.9926678964786575  0.6999862179471918  0.0987722244708493
  0.9987482140901420  0.8023099916668670  0.1951129939763305
  0.9955835794385877  0.8956457660531925  0.3089679412394943
  0.9956163943715595  0.0018568815028246  0.4089246260803279
  0.0017789628818363  0.1062337630056405  0.4887285450346397
  0.9915488155043946  0.1938419270969760  0.5961522116140117
  0.0989114568700771  0.2899868579319573  0.7973302716602007
  0.0775832723030376  0.3822764734172992  0.9076945887002665
  0.0898067479345741  0.5034045627485071  0.0100403290397821
  0.0948675641056198  0.6145555510583094  0.0982634137282474
  0.1008587666960281  0.7116666526987458  0.1972853346348913
  0.1019374624413700  0.8033994676317207  0.2970485631294508
  0.1053825718435277  0.8901287593152531  0.3949811171162594
  0.1038479888574102  0.0027935896764362  0.4924553143972759
  0.1097806437941955  0.1101834037284846  0.5859241032356337
  0.1073079840956197  0.1985344148948869  0.6909054851074998
  0.1892583586105090  0.3061270674507739  0.9059227213637797
  0.1877917849575041  0.3885545296540585  0.0019761415204371
  0.2004076617223376  0.5113724306564151  0.0917412233042043
  0.1857851127354095  0.6015464898454823  0.2028340049046449
  0.1985146072712567  0.7028615118687682  0.3026051665436569
  0.2017316121044743  0.7926186347944082  0.4138069722149496
  0.1988390385943219  0.9006847670293538  0.4992521506630823
  0.2045446141758518  0.0100032489702642  0.5906229304064183
  0.2069938649079788  0.1149339787147952  0.6950962405657037
  0.1996097554820153  0.2022972614937757  0.8018199123830385
  0.3952976310087877  0.4005208237899112  0.9985003152305865
  0.3889391404966531  0.4975761300921420  0.0930418785267051
  0.4076610323563727  0.6095492254946322  0.2003619994762005
  0.3878158296231007  0.6877337996714346  0.3038692693031138
  0.3975676564843695  0.8021431580200442  0.4099780924263712
  0.3937342434703908  0.9073963481821892  0.4951120163805598
  0.3856753101116652  0.9784024647032226  0.6033135711054527
  0.4163554639175260  0.1009573814909146  0.6965220223328004
  0.4029501397585804  0.1975740829980239  0.8218466260327162
  0.3942356843884696  0.3047192747791740  0.9009355767719782
  0.5003893935858699  0.3942429475488680  0.0997522516130545
  0.4961007290302604  0.4993132168281704  0.1802192733506374
  0.5029366362705616  0.5935461574724386  0.3001534249184559
  0.4931470455465359  0.6885620794742948  0.4096749620247166
  0.4938656603414202  0.8082488412180666  0.4970883302778475
  0.5039594704887946  0.9003425742244247  0.6001856465322248
  0.5059359143829880  0.9974130301659514  0.6906100573795868
  0.5035711697340517  0.0880310002142792  0.8119639722863710
  0.4982459265255557  0.1911499497631013  0.9035229432632548
  0.4918376591033535  0.3022854755839148  0.0163673698245290
  0.5890270474512533  0.3984289235970593  0.1983129139782420
  0.5959624147044096  0.5092166815075814  0.2938510159281904
  0.6081068936453917  0.6004029618342415  0.3952376110092644
  0.5982541296635802  0.7064681955191574  0.5091188600271437
  0.5826625661293789  0.8133011452108292  0.5909890578795753
  0.6088683436108653  0.8994812894931101  0.7033177057689102
  0.5941107126020810  0.9883745191781159  0.8002528354086778
  0.6004859208114084  0.0949475836289579  0.9077067798385769
  0.6045754129663550  0.1902207156972437  0.9998905892716863
  0.6064855360586634  0.3048787776481490  0.0998873841099055
  0.6879040813313964  0.4037236041998966  0.2984774719649508
  0.7062008399799993  0.5073159377157666  0.3983686088426452
  0.6949500854741544  0.6202877279112400  0.5037325997000082
  0.6972556062950872  0.7173649913097293  0.6067061317587701
  0.7077494007285523  0.7947137915763918  0.7010118263850842
  0.7145081331396881  0.8964285388443116  0.8037462708030745
  0.7105282688507444  0.0131580357610517  0.8988978252898718
  0.7162249141687127  0.0889265236542016  0.0180001628532622
  0.6975820185233701  0.1910563867526989  0.1028648394085820
  0.6935764415133008  0.3054336844360819  0.1961764496083447
  0.8148341649008373  0.4145687645532234  0.3989674726792245
  0.8106087350301152  0.5162893169210250  0.5117473831575410
  0.7850370181662356  0.5923868617413888  0.6078430546891767
  0.8129235756291493  0.6944697383395635  0.7061531396871530
  0.8065587766957947  0.8113176438656211  0.8028493083497992
  0.8115782971834022  0.9134802804695141  0.8986187952667777
  0.8076055646294122  0.9973685050355954  0.0138006442703755
  0.8032663250874990  0.1007012804457048  0.1038150129758790
  0.7792791333539668  0.2008159867622226  0.1983900930930247
  0.7892398995262013  0.2981356648651214  0.3073802609461680
  0.8882586324135104  0.4028687636008641  0.5117907497440513
  0.9146284202757045  0.4968534830123090  0.5999892050189288
  0.9014044879883798  0.6054123716101998  0.6952385195590551
  0.9190821485202747  0.7004890850217862  0.8191643132306368
  0.9170585847955977  0.8194862888978847  0.8988923168495973
  0.9060812547320296  0.8958756329611219  0.0022069669769778
  0.9051213247303664  0.9995872307802216  0.1143061865193715
  0.9007664569891176  0.1013709887859804  0.1976985071784014
  0.8909411842575210  0.1999854293945376  0.3041881507583142
  0.8935661169972136  0.3055554177281508  0.4149581214732976
  0.0155383333730157  0.3812783571819693  0.5953766510321188
  0.9993306226042264  0.4998825332730163  0.6939661179495715
  0.9999735287255049  0.5891362705649854  0.8014414894883473
  0.0150552863027045  0.7161376310087846  0.9096865403204717
  0.0029067569819787  0.8098615575819608  0.9873821361396153
  0.0029054936787247  0.9055956096283424  0.1026261074736325
  0.0064753515392511  0.0018519049546413  0.2047716735315817
  0.9956280874264891  0.0875924649413093  0.3082568091235913
  0.9955586924120823  0.2126905640341903  0.4013357915287727
  0.0092069755482029  0.3129346072712522  0.4949532406371304
  0.0995104378467175  0.3961839984762250  0.7022058346229869
  0.1005281464727048  0.4828187595533464  0.8013867660293812
  0.0918765434156299  0.5851553701102361  0.8957990524035111
  0.1089511706864101  0.7095608761696184  0.9955741920430441
  0.0960898259565255  0.7989732768267430  0.1052776848170254
  0.0951068650746407  0.8978298764315156  0.2140283821813753
  0.0950135087259838  0.0048712911597377  0.3049844765600795
  0.1071054227280328  0.0981876493416820  0.4000466469845989
  0.1089624056570102  0.2041785133687313  0.4958940510940195
  0.1098404680840943  0.3072920849503618  0.5876666317468633
  0.2041134296802483  0.3787701140449045  0.7960096340563325
  0.1890928011237847  0.4838211666388901  0.9063989595485822
  0.2063606409371204  0.6072698030999248  0.9971207904573731
  0.1960152258279564  0.6998274693459692  0.0907264831789689
  0.1986157915287734  0.8014734892026354  0.1908274869645936
  0.2073942439465739  0.9041157891478804  0.3252636899121484
  0.1986330858789103  0.9972059950953565  0.4008468798361946