Li 
 1.0000000000000000
    21.0004999999999988    0.0000000000000000    0.0000000000000000
     0.0000000000000000   21.0004999999999988    0.0000000000000000
    -0.0000000000000000   -0.0000000000000000   21.0004999999999988
 Li 
 500
Cartesian
 -0.2332648700000000 -0.1350492000000000 -0.0545952600000000
  0.2630773300000000  2.0941008299999999  2.3094185999999999
  0.0281638200000000  4.0020278999999999  4.1991406299999996
 -0.1113830900000000  6.4220046100000001  6.2957768500000002
 -0.0771832200000000  8.3928688200000003  8.6034807200000003
  0.4083987200000000 10.6467440799999995 10.5301620699999994
  0.2279362400000000 12.5918142799999995 12.2560006300000008
  0.1429208000000000 14.5169978799999999 14.6114311699999995
 -0.1329790300000000 17.0564012900000002 16.6490631799999989
  0.1136659400000000 19.4929009499999992 18.5210686100000004
  2.1229586700000000  0.0963292300000000  2.0977148500000000
  2.2576410000000000  1.8492504999999999  4.1157707400000003
  2.0727473399999998  4.2460397499999996  6.4326417100000004
  2.3425494200000001  6.3482181300000002  7.9965244300000000
  2.3898945299999999  8.5200728699999999 10.2511551399999998
  2.0032441099999998 10.0416352500000006 12.4726731599999994
  2.1653572300000001 12.3957862300000006 14.5152327200000002
  1.9190914400000001 14.6575409000000008 16.5872956299999998
  2.0629495900000001 16.9401024599999985 18.6385021799999997
  1.9753818299999999 18.9638574899999988 21.0010193299999983
  4.3154104400000000 -0.3972516700000000  4.1954996099999997
  4.1379601199999998  1.9410472900000000  6.1430663599999997
  4.2361309599999997  4.2293717700000002  8.4461950699999999
  4.5786353699999998  6.3316998299999998 10.5014127800000008
  4.3913179400000004  8.4157097800000003 12.5866098599999994
  4.4723448399999999 10.4032624299999998 14.8818247800000005
  3.9746129699999999 12.4806234600000003 16.9246608300000005
  3.7670936899999998 14.8005305899999993 18.5938962699999983
  3.9337661000000002 16.8755571700000004 -0.0897048900000000
  4.4302527800000000 18.9874655899999993  2.0952244900000001
  6.2276027799999998  0.2971016500000000  6.3781833700000004
  6.2461810199999999  2.1900507000000000  8.3925236800000000
  6.3279976099999997  4.1218491200000003 10.4180407800000001
  6.3763829799999998  6.3885454499999996 12.8199628699999995
  6.4033716399999996  8.4773047699999999 14.6113807399999995
  6.2549563900000003 10.3492796499999997 17.0493643400000003
  6.2228828199999997 12.5401470899999996 18.7606364399999990
  6.2257676300000000 14.6576702599999997 -0.1319813800000000
  6.1979325799999998 16.7187580599999990  1.7797105300000000
  6.4321117100000000 18.5497360600000007  4.1821054799999997
  8.3468820699999995  0.2855549400000000  8.5048418600000009
  8.1429959699999994  2.2287038799999999 10.7753228799999992
  8.5221034499999995  4.1444816900000001 12.6425858800000004
  8.6288413100000003  6.3698501800000003 14.7614152900000004
  8.3520999800000002  8.2101618300000005 16.9101575500000010
  8.7111209200000008 10.2662148500000008 18.8789110999999998
  8.2323357799999997 12.8415030500000000  0.1976611100000000
  8.5870668999999999 14.7747229499999992  1.9263358300000000
  8.5981890900000000 16.4781972600000017  4.0223388000000000
  8.2769008300000007 19.1596672000000012  6.4808591299999998
 10.1839567599999992 -0.0040237000000000 10.5839866899999997
 10.1105313500000005  1.9513871199999999 12.7597570499999993
 10.4177487000000006  4.0115947500000004 14.8958018299999999
 10.7288307300000003  6.4007419499999996 16.9797255900000010
 10.7117784700000005  8.2308974100000007 19.0133319199999988
 10.3783345499999999 10.5253739999999993  0.1587210900000000
 10.5963817799999998 12.3964839399999995  2.2123666100000001
 10.8571907599999999 14.5181091999999996  4.1059928899999996
 10.3405032200000004 16.5687837999999985  6.3713674300000003
 10.6546689899999993 18.9994874600000010  8.4489722399999998
 12.5620066099999992 -0.1136263700000000 12.5674732000000002
 12.5950524500000007  1.9451265200000001 14.6143439700000002
 12.4700367199999995  3.8746825600000001 16.9941599299999986
 12.6515298800000000  6.2122097500000004 19.1265346399999991
 12.9832024700000002  8.5995777800000006 -0.2299643800000000
 12.8085790599999996 10.3294728199999994  2.0329492899999999
 12.8621113299999994 12.3482376499999997  4.3558060699999999
 12.8284711399999996 14.7375093499999998  6.4128798199999997
 12.4684626900000008 16.9884366200000017  8.8129170699999992
 12.6234221499999997 19.1060008900000007 10.3366789400000005
 14.6199206200000003 -0.0429448400000000 14.9681217699999998
 14.7370646500000007  1.8653862999999999 16.6074741000000010
 14.8153168799999992  3.7783121000000000 19.1084717600000005
 14.9763909399999999  6.0619723199999997  0.0895916500000000
 14.8832669699999993  8.6132940300000005  1.8825132800000000
 14.7515411099999998 10.3847125100000000  4.1751505000000000
 15.1808368799999993 12.5648300000000006  6.3973253500000000
 14.8644518600000008 14.8217773800000003  8.5234353299999999
 14.6512948400000003 16.9745982200000007 10.8202031699999992
 14.5864991400000008 18.9339373399999999 12.6563434699999995
 17.0686416200000011  0.3502580900000000 16.5333473499999997
 16.8284609799999991  1.9978045099999999 18.9172639599999997
 16.9263240500000016  4.0092545599999996 -0.0590372900000000
 16.9096843700000008  6.1854933900000004  2.1382716300000002
 17.0413754600000011  8.3153885899999995  4.2414413399999997
 16.7753589800000000 10.5040552399999996  6.0619532300000003
 16.7884107699999987 12.6705068999999995  8.4962184300000008
 16.8661773000000004 14.6734406600000007 10.7641871299999998
 16.9829603800000015 16.8856355600000008 12.6561203800000008
 17.1556027700000016 19.0622797700000000 14.7618878400000000
 18.9797677500000006 -0.2212117700000000 18.8513443699999996
 18.9879424000000014  1.9790129900000000 21.1759487899999996
 18.6960130699999993  4.0849288899999996  2.3438579200000000
 18.8349248100000004  6.0109291699999998  4.4456570400000004
 19.0428905800000017  8.1820875900000001  6.5522786799999997
 18.7856584200000007 10.6001168099999994  8.5759146800000003
 18.7543294399999994 12.5388816199999997 10.6962727999999991
 19.0097723000000016 14.6158444099999993 12.6537940399999993
 19.0836456800000001 16.6155346399999999 14.7584123100000006
 18.7840571099999991 19.1536986499999990 16.8779097200000017
  2.3580297400000001  2.0274044400000002  0.1047858800000000
  2.3552172400000000  4.1226675400000001  1.6693604799999999
  2.0898441100000000  6.0339932000000003  4.5745567200000004
  1.8877748400000001  8.3541439999999998  6.2783178900000003
  2.0962065100000000 10.2960615099999995  8.0975199799999995
  1.9397214500000000 12.3421245200000005 10.1976289999999992
  2.0081956399999998 14.6676111700000007 12.4794374099999992
  1.8674025100000000 16.7938796699999990 14.7997986699999995
  2.1684231000000000 19.2697864699999997 16.7060822900000012
  2.0485361499999999 21.1959541000000016 18.9966472400000015
  4.2452508099999999  1.8584857100000001  2.2103303699999999
  4.0497410399999998  4.0542452500000001  4.0773410700000001
  4.4156451900000002  6.4308227100000002  6.0742794399999998
  4.4783468199999996  8.2922380600000007  8.0782447699999995
  4.3165510400000002 10.4199202599999996 10.2879052600000005
  3.7675442000000001 12.5144943299999998 12.4173846200000000
  3.9878469800000000 14.7306006200000006 14.6133880200000004
  4.1772062999999999 16.8806935399999993 16.6328287699999997
  4.0312664099999997 19.1885957699999992 18.7717845300000015
  4.1491429100000001 20.7881179699999983 21.2293117100000011
  6.5676349299999996  2.2676465499999998  4.3768224299999998
  6.1856141899999999  4.3381034200000004  6.3639687699999996
  6.6147513599999996  6.4680808399999998  8.5801369300000001
  6.5376857900000003  8.3375279199999994 10.5224424499999998
  6.3075699399999996 10.5631008800000004 12.5951161900000006
  6.2139521000000002 12.7245498900000005 14.6898836199999998
  6.0521023700000001 14.3794842200000001 16.9738964199999991
  5.8197838099999997 16.4547626200000003 18.8092022000000014
  6.3512616800000004 18.7821463699999995  0.1279583900000000
  6.4392134700000003 21.1299622599999992  2.4044675700000000
  8.6003068900000006  2.1742819600000001  6.1825915199999999
  8.4291766599999995  3.9945824000000001  8.4616214700000008
  8.5232793099999995  6.0496011799999998 10.6854814200000003
  8.5998167999999993  8.4825062800000008 12.3520935099999996
  8.2289691600000001 10.4805203799999997 14.6754476300000007
  8.3824597599999997 12.4735920599999996 16.7525552200000014
  8.0746204400000003 14.7426790099999998 18.8491117400000014
  8.3243633799999994 16.7810032599999985 -0.2274428900000000
  8.5751450499999997 19.0080671000000017  1.9080377500000001
  8.7058914400000003 21.2109914500000016  4.3354539499999998
 10.3046286100000000  1.8986488699999999  8.5269695700000003
 10.7149425800000007  4.1292203599999997 10.7645259400000004
 10.7857278200000000  6.4522714099999998 13.0512596599999995
 10.6288879200000004  8.5192630900000008 15.0105742200000005
 10.4054173799999994 10.5680264499999996 16.7039079500000014
 10.0917173600000005 12.5935075699999999 18.8358052700000016
 10.7104351100000006 14.6980668199999993 -0.1764501400000000
 10.6328408700000008 16.8161033400000015  1.5922464999999999
 10.4152758199999997 18.7153548699999988  4.0799928999999997
 10.4574372100000001 20.9745911099999987  6.0991637200000000
 12.4312438000000007  1.9189899800000001 10.3156312400000001
 12.3464153099999994  3.9894411200000000 12.6801645300000008
 12.4146403999999997  6.0607232199999999 14.8882887499999992
 12.5282347600000001  8.5216698300000004 16.6869947900000000
 12.5667409899999996 10.7693780500000003 19.1664986100000014
 12.5658149699999999 12.3181527899999992  0.0425269100000000
 12.8724150300000009 14.7201772999999996  2.0206602000000000
 12.4469383100000002 16.7380334200000007  3.9734928500000000
 12.6158265699999994 18.6916825700000011  6.4222365100000003
 12.6121822100000003 20.9612612700000014  8.0868404199999997
 14.5455902300000002  1.9048449800000000 12.3627804999999995
 14.5735056800000002  4.1009273500000001 14.6814979900000004
 14.5110578799999992  6.1030716199999997 16.8400576400000013
 14.7627057199999996  8.1620843500000007 18.9169097599999994
 15.1363623199999999 10.7183439600000003 -0.0736630500000000
 14.9012507500000009 12.6765179600000000  1.9413873900000000
 14.8248979999999992 14.8970660899999991  4.0582295999999998
 14.8760685400000003 16.8983097700000009  6.3268827900000000
 14.6664529899999998 18.6685380800000011  8.5753041499999991
 14.8384120399999997 21.1430384300000007 10.2999369099999996
 16.8416736900000004  2.2192179699999999 14.4295710899999996
 16.7621174500000016  4.1064749200000001 16.6819568800000013
 16.7511851400000005  6.1179712600000000 18.9616179799999998
 16.8387761299999994  8.3383433000000000  0.0504437600000000
 17.1375094099999998 10.5311404199999998  2.0970848900000001
 16.7759754699999988 12.2377765600000004  3.8721960400000000
 16.8535024799999995 14.6429155899999994  6.4049588599999998
 16.7929429299999988 16.7292210600000004  8.5156074999999998
 16.9248102399999993 18.7322525300000002 10.4407717499999997
 16.7717029300000000 21.0750712600000014 12.7552241599999991
 18.8608045100000012  2.2115111500000002 16.8277514699999990
 18.8355737499999982  4.0841659500000000 18.8137133600000013
 19.0152697800000006  6.1809198900000002  0.0899599100000000
 18.8660860100000001  8.2516852699999994  2.1267818699999999
 19.1356095000000010 10.3589841699999994  4.1281503400000004
 18.8229095000000015 12.8736804100000004  6.3203450600000002
 18.8292022999999986 14.6057887399999995  8.2843923000000004
 19.1655549699999987 16.8888907300000000 10.3392393499999997
 18.6835326299999984 19.0634329600000001 12.7678676800000002
 18.9115471500000005 21.1445585600000001 14.5512072900000007
 21.0182806100000015  2.0443512099999999 18.6600590100000012
 20.9841473299999990  3.8339349700000001 21.0812610900000017
 20.7001386300000014  5.9139253399999996  2.2974550699999998
 20.9692817200000015  8.1598914699999998  4.1375430599999996
 20.7008792899999996 10.5202445200000003  6.1188237900000004
 20.7469865800000015 12.5579344699999993  8.4284592200000006
 20.8478639900000005 14.5551444199999995 10.0746683600000004
 20.9111001899999991 16.5445034299999989 12.3538712099999994
 20.9345072300000012 19.0905665000000013 14.6659735599999994
 20.9085001599999991 21.3909289300000012 16.6709227899999988
  4.2957207400000001  4.2118844500000003 -0.1244072600000000
  4.0886679600000004  6.3610623300000002  2.4609824200000001
  4.1336802900000000  8.5324057100000008  4.2080275800000004
  4.0960839299999998 10.1457120799999991  6.3098406599999999
  4.0456341099999999 12.6000213799999994  8.1839842300000001
  4.0464188600000002 14.5926662799999995 10.4214969100000001
  4.0670773699999998 16.6799566100000014 12.4648077199999996
  4.0428712600000001 19.0958391100000000 14.4686352100000004
  4.0681618300000002  0.1418231600000000 16.4228346300000005
  3.9895402700000000  1.9785808100000000 18.8118054800000003
  6.0888552599999999  4.2891888299999996  2.3005915799999999
  6.3898072800000003  6.2905420500000000  4.1154326599999997
  6.3893721299999999  8.4489912599999997  6.2539863699999998
  6.0317502599999999 10.4205573200000003  8.1085629000000008
  6.0986173099999998 12.7023576200000008 10.3862792400000004
  6.3321835300000000 14.8225854199999993 12.5391948099999997
  5.9383345600000004 16.6015200599999986 14.8483573300000007
  6.3626933399999999 18.7525241300000012 16.6759730399999988
  6.2989480499999999  0.1665673500000000 18.7910663199999988
  6.2776533700000003  2.2309383899999999 20.9891218799999990
  8.4652520399999993  4.4139711699999999  4.2702853999999997
  8.3409907800000003  6.3512142500000000  6.3978625300000003
  8.3753523399999992  8.5651697700000007  8.4019290200000007
  8.4511121700000000 10.8105136999999996 10.5027492799999997
  8.1631033700000000 12.4741182300000002 12.4113810299999994
  8.3871100599999995 14.6685092800000003 14.6246416600000000
  8.1512268300000006 16.7551428999999992 16.9508921100000016
  8.1847931400000000 18.9257869099999994 18.6433009900000002
  8.2480430200000008 -0.0795009000000000 -0.0580801900000000
  8.3141501899999994  2.4507119899999998  2.2205648700000000
 10.4855101099999999  4.1866380000000003  6.6907798400000003
 10.3272597299999997  6.2214512300000004  8.6878988800000005
 10.7092742899999998  8.4736192300000006 10.7733066199999996
 10.7584097799999991 10.6837966699999996 13.0460319299999998
 10.5055789100000005 12.7426051600000001 14.7212541100000003
 10.3014919700000007 14.9932705300000002 16.7161882999999989
 10.5526582700000002 16.6319860300000002 18.8008350700000015
 10.7945619500000003 19.1349709799999985 -0.2142831400000000
 10.3366601599999992  0.3820228600000000  1.9136234200000000
 10.7729497300000006  2.5640696100000002  3.9816283299999999
 12.8052072199999998  4.3463033199999996  8.4836100299999995
 12.5562930300000009  6.3297337400000000 10.6182765400000001
 12.9187416099999997  8.3936775299999997 12.9765241400000004
 12.8550415600000001 10.6665133000000001 14.8253152000000004
 12.5132467100000007 12.6179895799999997 16.9320296100000007
 12.7412737099999998 14.4724837799999992 18.9347095900000006
 12.6169554000000002 16.6492588700000006 -0.1926060400000000
 12.6442569900000006 19.0021464199999990  1.9848870400000000
 12.1388760900000001 -0.3038553200000000  4.3131949599999997
 12.3355517700000004  2.2041309199999999  6.4746091899999998
 14.5401280400000008  4.1185445300000003 10.7887856600000003
 14.8544363700000002  6.1506901899999997 12.4528570399999996
 14.7487607999999994  8.4224162200000006 14.7772402399999994
 14.6642273700000008 10.4544146599999994 17.0174865199999985
 15.0211023000000008 12.5875568900000001 18.8897981799999997
 14.8649034499999999 14.5736433400000003 -0.2342366300000000
 14.8535932400000004 17.0543684000000013  1.6969686200000000
 14.5138508200000000 18.9798269499999996  4.1596745799999999
 14.4984038000000002 -0.2417457700000000  6.2643980399999997
 14.5939212499999993  2.0215980000000000  8.4826348199999995
 16.7756945900000005  3.9321506700000000 12.5413256999999998
 16.6297321899999986  6.3911437700000002 14.4539407499999992
 16.9182811000000015  8.5510104100000000 16.7972217400000012
 16.9505142299999996 10.3688755399999994 18.7410207000000000
 17.5327085700000005 12.6940319400000003 -0.1595305300000000
 16.8576658500000001 14.8965740600000007  1.9703435400000000
 16.5168236700000008 16.6705841300000017  4.2987848399999997
 16.8083119699999983 19.1170347800000009  6.1285508200000001
 16.5834070599999990  0.0145900500000000  8.1541072799999998
 16.8389849500000004  2.1690412000000001 10.2282439899999993
 18.7521083699999984  4.0654281200000000 14.5793889199999995
 18.7268161199999987  6.1075293999999998 16.5733944000000015
 18.8703673199999997  7.9069672000000004 18.7241755400000010
 19.1695904500000012 10.4753781999999998  0.2057524700000000
 19.1839650400000004 12.8504705599999998  1.9200759700000001
 18.6057184299999996 14.7296480499999998  4.1185974500000002
 18.8402717799999984 16.9839407899999983  6.4211670400000003
 18.6070087899999983 18.9835700699999990  8.4108823600000004
 18.8535056999999995  0.0269285800000000 10.4395062599999999
 19.0957255699999990  2.3144617599999999 12.2586461199999999
 -0.0354208400000000  4.3527915400000001 16.8900955300000000
 -0.2422699100000000  6.0639282400000001 18.8115662700000001
 -0.1204238300000000  8.0927699200000003  0.1713831900000000
 -0.0089929400000000 10.4013174300000006  2.1541500999999998
  0.2219958600000000 12.6608197100000002  4.2434700200000002
 -0.0681855600000000 14.9716300400000009  6.4086974100000003
  0.0453296700000000 17.0753184400000002  8.4096947100000001
  0.0628954800000000 18.8760017500000004 10.3869422199999999
 -0.0188366600000000  0.1367949400000000 12.4229386399999999
  0.0341750800000000  2.3472502400000002 14.5658806300000006
  2.0554532800000000  3.8621317600000000 18.8065478500000012
  1.9937037000000000  6.1065656400000004 21.0251421799999996
  1.9425977200000000  8.1887428700000005  2.0884347100000000
  1.7728204299999999 10.4073359599999993  4.1019837299999997
  1.7427297700000000 12.5975006599999997  6.2926934599999997
  2.2211775100000000 14.7832087500000000  8.4221535299999992
  2.1252067299999999 16.9792636600000009 10.3858685499999996
  1.8958501200000000 18.6615617299999990 12.8053466100000009
  2.0479098699999998 -0.0124751500000000 14.3746840999999996
  2.2895889999999999  2.0988428899999998 16.5097270999999992
  6.1782885399999996  6.1825007999999997 -0.1526589600000000
  6.0233141799999999  8.3727398100000006  1.7775074799999999
  5.9908579800000004 10.4724513399999992  3.8419819700000000
  6.2517216400000004 12.5070841200000000  6.3055316299999999
  5.9306763499999997 14.7620617000000003  8.5352650600000004
  6.4087946499999999 16.6034537799999988 10.5091426699999992
  5.8399127300000000 18.8280326900000006 12.5459081599999998
  6.2377442600000004 -0.0641374400000000 14.7105482500000004
  6.4645480199999996  2.1471417100000001 16.6170469700000005
  6.1904528499999998  4.1102212900000001 18.9352965299999987
  7.9552980499999997  6.4827817300000001  1.9139672800000000
  7.9825347500000001  8.1928055400000002  4.0240182799999999
  8.4626454199999994 10.5643708499999995  6.1393564400000002
  8.2644325799999994 12.4806936000000004  8.6968343600000004
  8.3553875800000004 14.5457057200000008 10.5659389099999999
  8.3195792300000004 16.9351049200000006 12.3783336300000002
  8.1000929500000005 18.8475219900000006 14.6198553899999997
  8.3541449700000001  0.0981120000000000 16.8944281700000012
  8.3957260700000003  2.1808043000000001 19.2496887699999988
  8.4071563499999993  4.3009769100000002 21.2352284199999986
 10.5532845000000002  6.2558893900000001  4.3786268799999997
 10.3233287899999997  8.5748714699999997  6.5858732499999997
 10.5354129699999994 10.6827617999999998  8.5927652200000004
 10.8433137599999991 12.4044684499999995 10.6096336200000003
 10.3096797599999999 14.8810541599999997 12.4650049200000002
 10.3709518999999997 17.0057542099999992 14.6907525900000007
 10.1580890799999999 18.9330973799999995 16.9803107799999999
 10.2152386800000006  0.0875839400000000 19.2460552900000010
 10.4896279900000007  2.3122233900000002  0.3249438800000000
 10.4416089400000001  4.3888714100000001  2.3000298500000000
 12.3796879600000000  6.4376624800000002  6.4596257599999998
 12.6174722999999993  8.1836936799999993  8.0979198100000005
 12.8984190499999993 10.5026239100000005 10.6444259999999993
 12.9772687799999993 12.6426264899999996 12.5999415399999997
 12.4618731900000004 15.0154119599999998 14.6355366000000000
 13.0999138399999993 16.8463662899999989 16.5807298000000003
 12.6875581799999999 18.9280967500000017 18.8922138599999982
 12.5197180600000006  0.1098239700000000 -0.0492594400000000
 12.7126246399999996  2.2365553999999999  2.4687458499999999
 12.6160376400000001  4.4581288499999996  4.3067774400000003
 14.8804507000000008  6.4381995099999996  8.7762468299999998
 15.0080611000000008  8.5221163000000004 10.3734275399999998
 14.7701891199999995 10.3404007399999998 12.5948779999999996
 14.7203559100000003 12.5801119700000008 14.7649680100000005
 14.8830908599999994 14.5089246099999993 16.8060407800000000
 14.7693119199999998 16.8451385599999988 18.7950588299999986
 14.7918211199999998 19.1586440600000003 -0.1291059700000000
 14.6346308399999998 -0.1642280700000000  2.2551687800000000
 14.4030396100000004  2.0078652199999998  4.2984327999999996
 14.4199359299999994  4.2062891100000002  6.3461305599999998
 16.9874649399999988  6.1661433299999997 10.5269448099999998
 16.7246132900000006  8.3567368099999992 12.6174935399999999
 16.8919514699999986 10.3246488999999997 14.7552204499999995
 17.1773964200000009 12.3059795399999992 16.7122221499999988
 17.0157950400000004 15.0785779600000005 18.6254865500000015
 16.8746146500000016 17.0511576299999987 -0.1574753800000000
 16.7647209900000007 18.7808260900000015  2.1885913499999998
 16.7193906900000009  0.0046355800000000  4.0546150900000004
 16.6859394799999983  1.8119433899999999  6.4205059599999998
 16.5385125100000003  4.3981587800000002  8.4214676599999994
 18.8903334600000008  6.3987041500000004 12.4074651899999999
 18.8633804900000008  8.4717649500000007 14.7455878299999998
 19.0079465100000000 10.4414391200000001 16.7966505200000000
 19.2302730900000007 12.5834344399999996 18.8820586800000001
 18.9721145200000016 15.3362043900000007 -0.0641845300000000
 18.8742162100000002 16.8704378199999994  2.4871142599999998
 18.9525394399999989 18.9903311300000013  4.4076019300000002
 18.9221556500000005 -0.0163427500000000  6.1483064399999998
 18.8714907200000006  2.2883300700000002  8.3041558599999998
 19.0834557300000007  4.5074535200000003 10.3089324700000002
 -0.1095168800000000  6.2908636800000002 14.8583202300000004
 -0.1809535000000000  8.3363716799999992 16.7351162400000000
 -0.3116894200000000 10.4464944200000005 19.0943472300000003
 -0.0534469000000000 12.9075185599999998 -0.1233702500000000
 -0.1539778400000000 14.7000605699999998  2.0742661000000000
 -0.0262881300000000 16.8489109799999994  4.0974704300000004
 -0.0927470400000000 18.8090089099999993  6.4884812500000004
 -0.0920579100000000  0.0389954400000000  8.5876216099999994
  0.0373591100000000  2.2309621399999999 10.2635438099999998
 -0.1774791000000000  4.0707773899999999 12.5194945200000003
  2.0771900500000000  6.0898690100000001 16.7443343700000007
  1.6292875099999999  8.0279970800000005 19.0620402099999993
  1.8859866100000000 10.5717475200000006  0.2108519300000000
  1.9922662799999999 12.9059738500000005  2.0635808199999999
  2.1180845300000000 14.9453555399999996  4.1430906700000003
  2.1407376800000000 16.8717905200000011  6.2381683499999996
  2.2130866999999999 18.6931490099999991  8.2948009500000008
  2.1808596900000001  0.0586667800000000 10.3418078300000005
  2.3054484099999999  2.3139065699999999 12.3046991299999995
  2.2535213199999999  4.1693219800000003 14.5093606400000006
  3.9745201600000000  6.4288214799999999 19.0248301099999999
  3.9437213799999999  8.1598393999999992 21.0419999599999983
  4.2086610999999996 10.7390767300000007  1.9266115600000000
  3.9015802599999998 12.6327770600000004  4.2596155199999997
  4.1689060099999997 14.7604431799999993  6.3548597999999998
  4.2364647199999999 16.6453876399999992  8.6901533200000003
  4.1757192300000003 18.9148304500000002 10.4845447899999993
  4.2955391699999996  0.2100732300000000 12.4033768500000008
  4.3469746599999999  2.4136710199999998 14.5973685999999994
  4.1919046700000004  4.2483436399999999 16.8386190700000000
  8.3014478999999994  8.4111375600000002 -0.0314941300000000
  8.1679164199999992 10.4493475199999999  1.9539259700000000
  8.5610855099999998 12.8008385100000002  4.2077021700000001
  8.1443263300000002 14.4427536599999993  6.3814065900000001
  8.3491195699999992 16.8454073899999983  8.6097449299999997
  8.2686159799999999 19.0557770099999999 10.3975998999999995
  8.0993743499999997 -0.4535590400000000 12.6698866500000005
  8.7436729199999998  2.1201554900000001 14.6273107299999996
  8.4621544100000001  4.1491545299999997 17.2591900699999989
  8.2791464900000005  6.3992571299999996 18.9200975800000002
 10.5084274600000001  8.2792990199999998  2.0948471600000000
 10.4183633600000007 10.4858272100000001  3.7846948500000002
 10.5619208300000000 12.4647660800000004  6.3033720000000004
 10.3563345299999998 14.4601479499999996  8.6033790400000001
 10.3714258000000008 16.9736297900000004 10.4391034800000000
 10.5834008599999994 18.9076442299999989 12.6041986700000006
 10.6249071700000002 -0.0543276600000000 14.5031565100000002
 10.5752463500000005  1.8486950200000001 17.0516493999999987
 10.4634135799999992  4.0142445200000001 18.9744335699999986
 10.3288367599999997  6.3481461299999999 21.3442229499999989
 12.3698625100000008  8.3672066100000002  4.1646703499999997
 12.5155086900000008 10.6938049199999998  6.1710182600000003
 12.7705488200000001 12.6087623999999998  8.3001874499999992
 12.5636358500000007 14.8361853400000001 10.6917506200000005
 12.2362052200000004 17.0797306999999989 12.4110657100000008
 12.7865396499999999 18.8895568199999992 14.7700234800000008
 12.4766220200000006 -0.2441409100000000 16.8057096699999988
 12.6105045800000006  1.9939467300000000 19.0622962300000012
 12.6963859600000006  3.9947301400000002 -0.0022976800000000
 12.7364995000000008  6.4026067700000002  2.0976850100000002
 14.4463296600000000  8.4783975500000004  6.2681761500000004
 14.8305707400000006 10.6538883500000008  8.3659399699999994
 14.5942992700000005 13.0263524299999993 10.5786364600000002
 14.6427163599999997 15.0650235000000006 12.7411321199999996
 14.8630912899999998 16.6893869799999983 14.7215988600000003
 15.0050280500000000 18.8254475300000017 16.8790735599999984
 14.9214489100000005  0.2763253300000000 18.8773037799999983
 15.0410813099999991  1.8675014599999999  0.3780124200000000
 14.6495711800000006  4.0122796500000000  2.1602130599999998
 14.5654520600000001  6.4142600900000000  4.1198035300000004
 17.1119248800000001  8.7061513399999999  8.3785164099999996
 17.0231887399999984 10.8423338000000005 10.7469509199999997
 16.4861699000000002 12.4404202900000005 12.7650080700000004
 17.0718015500000000 14.5842117400000006 14.8295690100000002
 16.9381375900000002 17.0380761800000009 16.8602369000000003
 17.0435500299999987 19.1835426300000016 18.8714440100000012
 16.9601206600000012 -0.0552627100000000  0.2898204300000000
 16.8689944599999997  2.1147772400000000  2.1801671800000002
 16.3652514400000015  4.2172361299999999  4.1662911500000002
 16.5744325100000012  6.2609980299999997  6.4551391699999998
 18.6538754100000013  8.4604454699999998 10.7478616400000000
 19.2076541399999989 10.4341715700000002 12.6000733000000000
 18.9299449499999994 12.7139625100000000 14.6003565300000009
 19.3011846600000005 14.7106210300000004 17.2028601600000002
 19.2586888099999989 17.2096218100000016 18.8771881000000015
 19.0281593899999990 18.8138362299999997  0.0463474100000000
 19.0080003799999986 -0.0086683600000000  2.4004870700000001
 18.9165459799999987  2.1288414499999999  4.1517675000000001
 18.7102103399999997  4.1997940099999997  6.3881032600000003
 18.7653352399999989  6.4168165500000001  8.7143280300000008
  0.3263127700000000  8.0070361400000003 12.5032073599999993
 -0.0140572600000000 10.4977831399999992 14.5736354600000002
 -0.0005559100000000 12.3721562499999997 16.8306719999999999
  0.3161685400000000 15.0392483200000004 19.1038721900000006
  0.0610433500000000 17.0074976400000004 -0.2649814500000000
  0.0610168200000000 19.0179605999999985  2.1551995700000002
  0.1359856200000000  0.0388909300000000  4.3003075300000004
 -0.0918123500000000  1.8394855600000000  6.4735471200000001
 -0.0932696800000000  4.4666081899999996  8.4282522899999996
  0.1933510900000000  6.5717832200000004 10.3942655300000002
  2.0897689499999998  8.3200620599999997 14.7466736300000001
  2.1111413400000001 10.1394353600000002 16.8295227800000013
  1.9294533500000000 12.2885553499999993 18.8122280000000011
  2.2880290599999999 14.9011331800000004 -0.0929441800000000
  2.0179343900000002 16.7788383000000003  2.2108840199999999
  1.9972917200000000 18.8548763199999989  4.4947030400000001
  1.9953311899999999  0.1022995500000000  6.4048265000000004
  2.2492674300000002  2.0619897300000001  8.4011796099999998
  2.2882650000000000  4.2878508699999998 10.4140230200000001
  2.3067047500000002  6.4532874299999996 12.3412930999999997
  4.2864840800000001  7.9543617800000002 16.7166003200000013
  3.9710433699999999 10.1604864100000007 19.0348313500000010
  4.3336766400000002 12.7529695000000007 -0.0604648400000000
  4.1164177500000001 14.6967267699999997  1.9053015099999999
  4.1710309299999997 16.8313440099999987  4.0074726399999996
  4.3553828200000000 18.9868836300000012  6.8307001200000004
  4.1713941200000004 -0.0586755000000000  8.4179849000000004