Li                                      
   1.00000000000000     
    21.2169999999999987    0.0000000000000006    0.0000000000000000
     0.0000000000000006   21.2169999999999987    0.0000000000000000
    -0.0000000000000006   -0.0000000000000006   21.2169999999999987
   Li
   500
Direct
  0.9918492246783259  0.9949884451147639  0.9876674162228412
  0.9914208045435231  0.0978547136730015  0.1041669778950833
  0.9978563915727960  0.1932121379082830  0.1965429551774491
  0.0083139312815206  0.3102181906018728  0.2893378540792781
  0.9921823141820241  0.4049044836687585  0.4039899090352108
  0.9930147476080506  0.5123258886741766  0.5024041499740761
  0.9985758929160582  0.5957491634067011  0.5938953678653931
  0.9961332940566550  0.6904952834990823  0.7027216090870496
  0.0003775397087225  0.7961592850073060  0.7994434934250805
  0.9886843719658742  0.8962284352170400  0.9101791134467661
  0.0817555219870840  0.9903289470707435  0.0908600608003027
  0.0831319687043433  0.0691035759061123  0.1927277192817058
  0.1055937978979102  0.1853231781118936  0.2841962690295503
  0.1098582575293392  0.3076127473252583  0.3855396191733078
  0.0932297553848329  0.4032207225338169  0.4946134151859383
  0.0885774977612286  0.5030103728142521  0.5999326426921812
  0.0965631889522527  0.5996470858273995  0.7023278536079545
  0.1055288052033774  0.7100820563698917  0.7919417938445577
  0.0953126935947566  0.8064651878210896  0.8966070556629120
  0.0975326577744227  0.8937609657350265  0.9764041315925880
  0.1908991619927392  0.9733629066314720  0.1990092006409938
  0.1970608785407961  0.0913663727199889  0.2897170660319546
  0.2116197440731469  0.2004990267238540  0.3738234585473919
  0.1990924664184348  0.2922465079888781  0.4827659108262239
  0.1992090766837933  0.3850636876089908  0.5958819767167824
  0.2080748677946929  0.4978757576471722  0.6956619753028264
  0.2077847556204944  0.5964009506527788  0.8035446363764933
  0.2071199146910487  0.7045590649007849  0.8833441735400882
  0.2090271876325573  0.7921430546260098  0.9870187227223468
  0.1788769962765713  0.9009534222557392  0.0978865466371275
  0.2800444563321847  0.9895121709006958  0.2977473021633585
  0.3013693043314305  0.0999332855728881  0.3766938120375158
  0.2995456497148510  0.2012724032615338  0.4887458278738777
  0.3034759400480738  0.2932890201253713  0.5969483701748572
  0.3013781910731979  0.3916722387707949  0.7010761276334989
  0.3128034194278158  0.5024119126172408  0.7932382019135602
  0.2984436334071745  0.5989904397417192  0.8907891115614817
  0.3014798652024311  0.6843565551208926  0.9985048206626743
  0.2831012056369886  0.7995119828439456  0.1056808441344188
  0.2876151246641854  0.8999364914926673  0.2062621162275562
  0.3860058226893557  0.9970417679219494  0.3854939185558734
  0.3941865320262039  0.1072267054720299  0.4857487354479915
  0.4001859735118032  0.1915852707734373  0.6109864476598972
  0.4001670735730798  0.2915908262242510  0.7030994174482714
  0.3856054013291228  0.3919475246264810  0.8063828411179728
  0.4077405585143978  0.4957440288447970  0.9056442117170178
  0.4079778847150877  0.5905864075976837  0.0069065291982824
  0.3869083739454240  0.7005661101946572  0.1008939963237054
  0.3963240514681630  0.8016265980110262  0.1963302686524955
  0.3831595390488758  0.8935017688645885  0.2949420624970571
  0.4819997351180660  0.0096180958665215  0.5010739030023075
  0.4894294334731555  0.0885371079794481  0.6069780859687981
  0.5075588019041319  0.2005852849130392  0.7148259640854064
  0.5018578432389091  0.2964692322194438  0.8129209718621837
  0.4954399641796670  0.3904617057076862  0.9004500216807259
  0.5131467266814340  0.4955761309327400  0.9907166376019205
  0.5038298553047085  0.5941898119432523  0.0977247084884780
  0.5023662662016335  0.7035093858698218  0.2074174063251135
  0.4992419965122323  0.8118125677522769  0.2919307748503570
  0.4880616939246849  0.9086845468256612  0.4001453829476347
  0.5900546387330934  0.9945237686760606  0.5950213371353144
  0.5921186223311494  0.0953385191120333  0.7021899278880142
  0.6147649568742040  0.2079092689824193  0.8215437955413094
  0.6036268247160308  0.3090653678653936  0.9047749790262500
  0.5884015096384942  0.3922183588631754  0.9954156968468695
  0.6108242843003282  0.5017377720695677  0.0903326775698758
  0.5957254296083363  0.5850355182165217  0.1974601366828495
  0.5956319093180014  0.6870358900881399  0.3113797464297505
  0.5887068426261948  0.8010040132912266  0.4038393750294560
  0.5924927548663774  0.9104399439128983  0.5028102964603889
  0.7070238082669533  0.0000513800254538  0.6946350252156321
  0.6846623005137360  0.1058329094593944  0.7949191374840936
  0.7041557387943627  0.2023753014092478  0.9019101545930184
  0.7049146773813462  0.3117627477965783  0.0071826356223781
  0.7028798293820984  0.3929710039119598  0.1123918635999459
  0.6923385200546761  0.4949914092473051  0.2001912829334955
  0.6949429886411806  0.5895778361691129  0.3037783183296412
  0.6827044360654213  0.7046386741763655  0.3913857647169721
  0.6943679318471041  0.8089800711693442  0.5024046033840790
  0.7071760107461031  0.9036177923363340  0.5932373210161686
  0.7979110840363859  0.9979402144506793  0.7901549955224567
  0.8114015954187650  0.0949217943158800  0.9059577070273832
  0.8025658396568787  0.2050361714662756  0.0010216689447162
  0.8035991153320481  0.2974557435075624  0.1012574991751904
  0.8010189597963873  0.4030343875194404  0.1930981095348088
  0.8013978559645594  0.5038904585945261  0.3021693062167117
  0.7727247490220108  0.6076535792053548  0.4076623782815645
  0.7726721072724700  0.7129170919545658  0.4974980963378428
  0.7953949040863435  0.8078467186689906  0.5994322793043310
  0.8010749554602441  0.9007229391525655  0.7006598718009158
  0.9120672451336205  0.0021456756374576  0.8928067196116345
  0.8960868723193656  0.0832477122119073  0.9967613715416874
  0.9110030857331353  0.1969760894565695  0.0907315167083027
  0.8996578404109883  0.3013346585285390  0.2011371650091931
  0.8965412815195393  0.4114109784606654  0.3024355054908767
  0.8916839953810651  0.5121147066031924  0.4033955483810132
  0.8940946189376433  0.6133893976528242  0.4808220252627606
  0.8958171725503163  0.7007875595041710  0.5943056629118146
  0.8985307988876841  0.8013425554979463  0.6930166649384901
  0.8989704831031702  0.9091813418485160  0.7925177452043144
  0.0956758528538444  0.0906645209030472  0.9948428731677410
  0.1068254776829889  0.1923370627327117  0.0999550638638809
  0.1033940420417565  0.3015763354856986  0.1981931352217572
  0.1049348465852873  0.4161590766837904  0.3083401036904334
  0.1077743917613248  0.4979893359098853  0.3865379554131110
  0.1107615968327309  0.5933083140877571  0.4976289649809118
  0.0883268775038886  0.6890424310694243  0.5840156808219845
  0.0970963345430533  0.7977862016307711  0.6906338488004877
  0.0927957166423141  0.8944829217137169  0.8029177527454365
  0.0966002036103148  0.9996954800395912  0.8906287401611905
  0.1829412702078557  0.0848288909836441  0.0996272606871855
  0.1890553537257844  0.1961441664702832  0.1981463694207477
  0.2093405915068089  0.2995275194419591  0.2932479219493800
  0.2137592237356856  0.3989958146769084  0.4030583409530095
  0.2025278201442262  0.4975975119008353  0.5104328090681989
  0.2140515892916071  0.6084064528444202  0.6027697945044039
  0.1963756384031683  0.6924026082858106  0.7024913192251461
  0.1970783221002037  0.8085942385822662  0.8002619790733831
  0.1980048494132092  0.8936442649761958  0.8918630711222164
  0.1919298736861919  0.9962721878682217  0.0040372432483409
  0.2957361144365365  0.0913259923646166  0.1962898142998526
  0.2957019602205762  0.2034766988735441  0.2796362515907020
  0.2961327789037114  0.3005294212188332  0.3894297935617672
  0.3105874133949200  0.3915862482914676  0.4983729575340519
  0.3075784592543727  0.4903846599424995  0.6007335645944281
  0.3131562581891885  0.6008435556393437  0.6874588975821254
  0.3091346269500903  0.6937037460526909  0.7939858867888958
  0.3086918499316553  0.7909022887307344  0.8921306593769174
  0.2981617957298397  0.8919872856671560  0.9930977692416434
  0.2963328613847409  0.9945616510345445  0.1100306339256250
  0.4012759782250086  0.0948825168496938  0.3064685412640813
  0.3834030880897359  0.1979673459961333  0.3734108606306279
  0.3863901362115314  0.2994041612857643  0.4867276014516690
  0.4020557680162113  0.3807471381439385  0.6178027963425521
  0.3867857830984605  0.4940101833435477  0.6899190955365953
  0.4172944718857536  0.5964826115850528  0.7934129443370850
  0.4054025710515177  0.6910334609039950  0.8969728599707807
  0.3960294801338549  0.7965353871895147  0.0095252594617534
  0.3917099759626694  0.9047490766837925  0.0994979912334415
  0.3953240010369043  0.9968300834236672  0.2103158250459529
  0.4983091388980512  0.1072915478154286  0.3867365028043537
  0.4901108215110526  0.1971262808125545  0.4961636088985273
  0.4941418956497117  0.2882908644011906  0.6032309789319896
  0.4928070570768739  0.3907314846585308  0.7121576613093268
  0.4938822312296764  0.4866278380543889  0.7938086015930637
  0.5229603167271506  0.5961365009190729  0.8978518871659489
  0.4974431050572647  0.7035448253758787  0.0051238808502632
  0.5111428929631927  0.8023901003911931  0.1038466456143681
  0.4953525493707858  0.8963550506669193  0.2047491059056412
  0.4955580671159936  0.9811122844888516  0.3129110788518616
  0.5977847466654111  0.0941657298392826  0.5042278399396736
  0.5836872621011437  0.1908628891926298  0.6037380378941393
  0.5928239821841004  0.2845929438657677  0.7104130649950520
  0.6103364844228665  0.3957695470613203  0.7962410830937472
  0.6090379921760842  0.4866040382711958  0.8895477112692660
  0.6179298138285318  0.5971759079983059  0.9964701084036420
  0.6036284168355550  0.6939975552622926  0.1082542720460040
  0.6052887712683201  0.8079178432389114  0.1983126931234409
  0.6005689904322011  0.8982868077485051  0.3140645680350644
  0.6020158830183320  0.9953069236932635  0.4018842300985028
  0.6877560173445829  0.1013794853183754  0.5949500697553844
  0.6908670415233047  0.2016034486496707  0.6978411811283394
  0.7076982169958086  0.3031949997643366  0.7957485012018637
  0.7027876476410455  0.4065207333741796  0.9131842371683092
  0.7060007668379100  0.4928364132535208  0.0023069566856790
  0.7069962002168069  0.6062290281378111  0.1023075024744315
  0.6903728137814014  0.7054240293161129  0.2251487627845563
  0.7001889107790902  0.8132407767356398  0.3163833869067290
  0.7039621732572954  0.8972394504406864  0.4040217632087462
  0.7014851171230632  0.0129374770231436  0.4964599764339894
  0.8077545505962220  0.1064286788895714  0.6879605933920914
  0.8002447089597950  0.1842719729462203  0.7995798812273165
  0.8077024923410505  0.3076647438374920  0.9129703812980168
  0.8132754503464170  0.3990761667530762  0.0085083503794152
  0.8070125088372535  0.4872076712070523  0.1056763755479082
  0.8005059579582436  0.5945566493849270  0.1941791059056399
  0.7992583791299452  0.6975956256775220  0.3059133114955017
  0.7843092953763460  0.7990917457698998  0.4030344681151874
  0.8114659758684084  0.9074271447424209  0.5019653607955874
  0.8133210303058860  0.0098466361879588  0.5935179827496810
  0.9235284597256950  0.0937319291134457  0.7930180944525631
  0.8966143078663364  0.1933064212659659  0.8991427614648657
  0.9140509209596104  0.3076798435217043  0.9939221661874882
  0.9056212174199914  0.3964155842013497  0.0949718122260421
  0.8982922194466667  0.5104012466418411  0.2004942546071575
  0.8922239425932048  0.6074374756091814  0.3243872262808125
  0.9061085587029254  0.7094558882028537  0.3990644233397731
  0.9049808724136312  0.7955522123768688  0.5033094221614718
  0.9131793316680046  0.8961798439930249  0.5937544539755848
  0.9062178800018827  0.0100868643069205  0.7020028684545423
  0.0061202766649373  0.1180775811848989  0.9007157835697797
  0.0052180869114409  0.1994896663053183  0.0031130937455828
  0.0070732106329814  0.3049893222415960  0.1090113677711244
  0.0063409794033049  0.4044429174718402  0.1843718023283216
  0.9886732455106753  0.4983759692699223  0.2929840915303785
  0.0125061992741635  0.5987960272423081  0.3899265456944931
  0.0138213220530687  0.6995308398925388  0.4805841028420588
  0.0142635796766726  0.7925820639110128  0.5905604387990735
  0.9878757317245572  0.8898702413159256  0.6932791271150478
  0.0137005175095410  0.0000561601545925  0.7981406810576459
  0.1851378762313232  0.2096519404251325  0.0054909883583889
  0.1959117349295383  0.3243434297968619  0.1019974543997719
  0.2064950440684328  0.4192463189894866  0.2174531663288874
  0.2109806197860209  0.5097168002073786  0.2987614252721897
  0.2073915251920653  0.5878892039402359  0.4099299717207927
  0.1894663581090654  0.7021807644813123  0.5118809666776656
  0.2017772451336199  0.7957366055521504  0.6050843941179238
  0.1938201060470348  0.9069273921855086  0.6974740321440365
  0.1856276910024945  0.9927403040015079  0.8075054838101536
  0.1963939930244649  0.0956894014233853  0.9008391756610266
  0.3006669463166318  0.1988486958570945  0.0964874902201061
  0.3004074864495436  0.2968925540839891  0.1943824951689663
  0.3065697577414355  0.4171138497431315  0.2908319036621592
  0.3084515482867545  0.4896162176556516  0.4128491195739272
  0.3169093693736187  0.5876494641089707  0.5063042918414453
  0.3028572767120679  0.6897920045246764  0.5980112372154380
  0.2994329424518085  0.7954623052269412  0.6938825927322441
  0.2999098685016719  0.8907490842249146  0.7785174723099431
  0.2803552057312544  0.0055725215628968  0.9037104128764639
  0.2950357967667472  0.1031097945044053  0.0130128524296538
  0.4060316694160377  0.1889723419899170  0.2073939166705969
  0.4112378102464973  0.3128949738417290  0.2911984526558911
  0.3994460352547478  0.4086250120186676  0.3986970707451576
  0.4061256313333672  0.4980982334920085  0.5125533878493655
  0.4169034147146178  0.5962852231700992  0.5945736225668128
  0.4031766135645967  0.7107603841259333  0.6897375915539428
  0.4020609695055839  0.7906636942074741  0.8137156247348827
  0.3968514497808329  0.9072244011877260  0.8946895197247500
  0.3889584041099141  0.9902215690248397  0.9939108832539958
  0.3879571174058540  0.0941827383701721  0.1042626426921842
  0.5182217302163394  0.2089858589810092  0.2987109888297113
  0.5003357958240997  0.2959484239053580  0.3966460376113474
  0.4990180147994536  0.3853438869774237  0.5042913112127039
  0.5074810750813015  0.4962082457463382  0.6024671673657949
  0.5037526737993119  0.5959130786633366  0.6950711669887326
  0.4972034481783467  0.6973244761276334  0.7962465480510943
  0.5008134741009584  0.8107460946410896  0.9070547457227676
  0.4968908337653772  0.9020726648442263  0.9903522623368062
  0.4915417372861413  0.9907782452750169  0.1044098199556984
  0.5018647136730010  0.0889817203186141  0.1995891756610249
  0.5834904816892106  0.1986778917848895  0.4118162266107390
  0.5891966159211961  0.3017673280859654  0.5144174143375579
  0.5925557929961798  0.3885968897582117  0.6096146354338501
  0.6002341985200559  0.4882550987415755  0.6978380327096190
  0.6067711651034529  0.6005317914879598  0.7956124079747369
  0.6039967629730896  0.7123852311825445  0.8909680289390565
  0.6050800692840639  0.7941288886270428  0.9965778658622781
  0.6052893637177732  0.9013495098270283  0.0961537140029236
  0.5966316359522992  0.9883393623038117  0.1971460248857042
  0.6014508021869247  0.1000929151152405  0.2962230616958124
  0.7044721308384752  0.2006963119196854  0.5047940491115597
  0.6858996003204965  0.2992318923504769  0.6045716302964621
  0.7021615096385005  0.3943124687750412  0.6961552264693438
  0.7094204416269960  0.4997522519677631  0.7856075420653283
  0.6986635938162777  0.5978797162652612  0.8807745675637477
  0.6987723735683673  0.6979892176085229  0.0022674294198026
  0.7018110670688600  0.7978341155677029  0.1058712145920708
  0.7021327576943008  0.9071780723005105  0.1985062817551935
  0.6943161469576253  0.9996072555026601  0.3057112211905562
  0.6964092501296122  0.1066706947259277  0.3946812094075511
  0.8018645788754313  0.2061491648206655  0.6009261573266684
  0.8264958156195519  0.2968184196634809  0.6962784338030801
  0.7943386402413140  0.3971711288117987  0.8041802111514329
  0.7953576872319346  0.5021044916812016  0.9053789937314392
  0.7989246915209520  0.6066426031012853  0.0024793736155004
  0.7860376518829213  0.7175498628458286  0.1010999901022771
  0.8047199344864993  0.8109105514445929  0.2104157486920855
  0.8101171885751981  0.9097708182118112  0.2995394886176186
  0.7956706447659911  0.9987360003770576  0.4013890856388755
  0.8072655389546100  0.1109916670594302  0.5040801470518943
  0.9175686030070196  0.1892137328557268  0.6903975458358858
  0.9072867398784012  0.2981844761276307  0.8102807536409458
  0.9088341674129268  0.4085348857048601  0.9090468214167871
  0.9003939440071633  0.5153494886176162  0.0026192991469074
  0.8845105669981592  0.6140927218739662  0.1003433708818378
  0.8908507286609790  0.6984819309987245  0.2102769665834003
  0.9013221270679139  0.7993698741575130  0.3175950827166929
  0.9028416232266565  0.9085233850214465  0.4130531583164441
  0.9156819743601829  0.0027146151670863  0.4945884550124902
  0.9156493175283984  0.1017700169675280  0.5795383824291847
  0.0090773780459088  0.2028102106801128  0.8027829679030987
  0.0133476014516631  0.2977888693029200  0.9111354479898210
  0.0161253414714650  0.4072126134703282  0.0027551449309513
  0.9917378672762425  0.5065439105434351  0.0950724419097924
  0.9850482862798700  0.6009274204647213  0.1975307074515698
  0.0012395588443255  0.6983159622001196  0.3000100353490112
  0.0202624108026583  0.8083742941980461  0.4086900603289791
  0.0152935909883567  0.8896638440872877  0.4929446434462932
  0.0131860187585460  0.9947545350426523  0.5796667068859875
  0.0111314276287899  0.0994867775840120  0.6858162944808441
  0.1109556068247173  0.2135292397605681  0.8998376287882337
  0.1064084743366180  0.3092921939953825  0.0012081703351114
  0.1081848890041002  0.4136094150916705  0.1004057463354826
  0.0957530192769980  0.5099555168025631  0.1882562266107399
  0.1022985554036850  0.5968231413489207  0.2938665810435026
  0.1186410468020895  0.7021324174011383  0.3996655950417107
  0.1186160955837323  0.8046631111844249  0.5031084946033815
  0.0961942126596611  0.8933739364660411  0.5989290408634602
  0.0895334184851748  0.9996607904039223  0.6895844893245950
  0.1047049615874087  0.1103663727199873  0.7990976938304186
  0.2917568171749068  0.3143129688457336  0.0285016321817437
  0.3014126139416504  0.4106195725126085  0.0891954121694880
  0.3114701885280695  0.5238158533251607  0.1957911424800898
  0.3085401984257885  0.6018665744450189  0.3166339835980594
  0.2816852255267008  0.7104187246076279  0.4096596441532725
  0.2930209431116566  0.8131243059810558  0.5022683748880610
  0.3092390691426701  0.9010545072347611  0.6078884842343371
  0.2960937370976069  0.0130348117075911  0.7119408408351759
  0.2995608003016415  0.1112472621011449  0.8111927614648664
  0.2929933869067227  0.2055775453645694  0.9167952670028754
  0.4205719178017659  0.3000890912947156  0.1067124815006864
  0.4031881128340515  0.4155050327567551  0.1907313347787181
  0.4019378955554487  0.5048821591176917  0.3068091968704323
  0.4049858504972406  0.6057463566951000  0.4075036819531519
  0.3913156845925414  0.7107092100673995  0.4944354630720653
  0.3952396450959128  0.7927272229815685  0.6020642569637573
  0.3985754296083357  0.9038956982608255  0.6973691652919811
  0.3883592670971368  0.9941806475939075  0.8042459801102879
  0.3962372899090383  0.0901590352076198  0.9133974911627476
  0.4016747480793725  0.1915137974265946  0.0213099589951469
  0.5053441579865208  0.3062754852241127  0.2176968610076813
  0.5008612013951108  0.3943793863411429  0.3052279214780569
  0.5101184993165830  0.5013335141631714  0.4069066385445623
  0.5006476532968875  0.5988702686524974  0.4988022354715582
  0.4887252321251836  0.6807802842060582  0.6045605684121256
  0.5019100603289814  0.7961069859075280  0.7187912975444206
  0.5028555672338229  0.9009630720648545  0.8065694259320324
  0.4906234495923059  0.9922859947212146  0.9097709299146928
  0.4972406980251662  0.0864200084837634  0.9961507823914815
  0.5115990271951745  0.1976919248715632  0.1132261757081565
  0.6065957991233475  0.2901159004571809  0.2988593495781657
  0.5916030225762370  0.3950110458594551  0.3985526247820133
  0.6024663255879688  0.4935718697271056  0.5131868991846176
  0.6105520997313505  0.6044225437149464  0.6122539553188489
  0.6024330197483181  0.6998827774897478  0.6996684163642328
  0.6004742362256650  0.7896524701889973  0.8069909911863107
  0.6146591195739290  0.8869289055945728  0.9038040052787863
  0.6032264462459338  0.0022148531837658  0.9978078630343603
  0.6028799062072849  0.0796195814676892  0.1106250464250351
  0.5988434514775918  0.1973815176509390  0.1996105071404983
  0.6990950907291307  0.2876181462977812  0.4102433048970155
  0.6964545308007715  0.4000707833341153  0.4962668591224002
  0.6946817132488121  0.4842697954470481  0.5954421412075206
  0.7128623481170777  0.5937246179950009  0.7003733525003568
  0.6913148866474970  0.6902160173445822  0.7830470028750511
  0.7065881807041521  0.7912525201489373  0.8980762728001110
  0.7146431248527136  0.8938294711787691  0.0015492275062456
  0.6831724414384723  0.0048739572041256  0.0940004760333721
  0.6882119960409128  0.1031637908281127  0.2005948781637343
  0.6859909657350229  0.1967499316585730  0.3130517250318121
  0.8078425941462015  0.3000621157562335  0.5061897657538736
  0.7936311368242457  0.3951432101616632  0.6006474690106955
  0.8042824197577403  0.4836020389310463  0.6874518117547268
  0.7913020893623042  0.5984360314841837  0.7985746340198929
  0.7881479323184237  0.6981103883678159  0.8911331366357160
  0.7953290370928983  0.7786538657680140  0.9994934759862346
  0.8020191219305275  0.8995338030824342  0.0861818405052546
  0.8078964005278806  0.0049743446293036  0.1813338520997334
  0.7995336946787930  0.1065527303577340  0.2978264825375874
  0.7964302318895236  0.2081844681151921  0.3939328703398246
  0.9083776994862589  0.2965049276523573  0.5956730923316229
  0.9044448762784540  0.3972062115284913  0.6970231125983872
  0.8975737253146079  0.4902750685770840  0.8074061832492845
  0.8961361002969284  0.6021078620917208  0.9018441528019991
  0.8979798048734509  0.7064843960032050  0.9950765984823491
  0.9127643535843930  0.8079546212942432  0.1044133430739507
  0.9138215982466917  0.9048992091247570  0.1909888872130807
  0.8846006725738818  0.0050408215110522  0.3157778168449852
  0.8978353061224524  0.0992765145873591  0.3969100796531109
  0.9002060866286499  0.2175409539520174  0.4916070561342352
  0.0067425517273918  0.2886203303954389  0.7034322595088867
  0.9973353523118220  0.3880233237498203  0.8079965546495700
  0.0077278121317832  0.5018088480935106  0.9037473040486432
  0.9967404274873957  0.6154341080265837  0.0042469552717179
  0.9921051152377842  0.6978075057736746  0.1024587872932088
  0.9956807927605240  0.7937033124381401  0.2032407597681072
  0.9920967507187655  0.8962180543903457  0.3067650558514430
  0.0034965339114876  0.0107411547344114  0.3845320191355981
  0.0046631314511956  0.1082337413394896  0.4972798986661644
  0.0188381331008145  0.2057207390300206  0.5801407277183372
  0.1104425390017454  0.2982351849931675  0.8125822703492460
  0.1072090347362931  0.4020339015883465  0.9081745901871159
  0.0917277296507493  0.5126959796389698  0.0135922661073664
  0.0931110251213667  0.6154786105481449  0.1062873648489386
  0.0929116595183075  0.6996446260074478  0.1893939638026083
  0.1001968506386390  0.7966362803412324  0.2899962247254564
  0.1077530909176616  0.8959068181175454  0.3929871051515264
  0.0920266936890215  0.0025134580760735  0.4863447400669259
  0.1238722397134353  0.0909259537163578  0.5936805330631074
  0.0996334001036914  0.2082305146816239  0.6919951425743491
  0.2043384997879087  0.3129641466748367  0.8984479662534781
  0.1970211764151415  0.4191208200970920  0.9919414573219569
  0.1996462035160462  0.5060127807889927  0.0963358236319962
  0.2058812018664256  0.6110077202243502  0.1981903459490013
  0.1881180199839747  0.7013921459207211  0.2945145661497861
  0.2004171626525917  0.8033512391007207  0.4120353603242677
  0.2035061634538309  0.9129116675307500  0.5047939303388773
  0.2022001941839093  0.0009946712541833  0.6066622793043308
  0.1975429391525694  0.0979449747843688  0.7053103398218425
  0.2038443578262701  0.1964723905358881  0.8034614889004104
  0.4044365084601935  0.4061701951265491  0.0051325715228359
  0.4085730451996028  0.4967055563934579  0.1026893081019935
  0.4164917066503264  0.6065005538011974  0.2028269401894676
  0.3951725592685094  0.7086208775981504  0.3176926921807990
  0.3908208808973939  0.7904186911438913  0.3997265961257455
  0.3866850096620666  0.9095458740632480  0.4971813583447258
  0.3736883065466401  0.0018447381816458  0.6052397483150287
  0.4127434236696956  0.0901170679172338  0.7163682820379904
  0.3950693971815085  0.1990865513503337  0.8150621195267931
  0.3858531050572651  0.2961169557430381  0.9206187132959442
  0.5157154748550710  0.3993055568647748  0.0950957519913302
  0.4979703445350410  0.5095888876844015  0.2085361163218167
  0.5074213993495746  0.6067994221614725  0.3116577852665330
  0.4947395456473558  0.6947522529104049  0.4028630357732013
  0.4915419687043396  0.8174468039779441  0.5093714987981315
  0.4784344054296099  0.9117437766885033  0.6016799740773919
  0.5058541282933504  0.0078321397935639  0.7139440236602752
  0.5160333374181079  0.0940721364943187  0.8226828038836800
  0.4889925597398346  0.1891423236084293  0.9100048376302041
  0.5025058745345703  0.2968043130508562  0.9997255139746457
  0.6004799995286803  0.4030592223217226  0.2097422128481909
  0.5957454055710016  0.4988703148418736  0.3026176005090235
  0.5873878488947568  0.5967538403167296  0.4146187387472295
  0.6019021105717144  0.7104482909930709  0.4986457623603684
  0.5818890182400906  0.8103107984163671  0.6032632332563495
  0.5906140246029139  0.8923637875288648  0.6957679115803330
  0.5925193557053277  0.9933977640571214  0.8061691780176261
  0.5970693552340123  0.1041957642456524  0.9136433312909489
  0.6026823203091851  0.2088382542301019  0.0004238195786428
  0.6069166036668676  0.3005954286656944  0.1099435829759159
  0.6880622665786902  0.3980258943300186  0.3017591120328049
  0.6927599080925688  0.5055049630013642  0.4048979902908059
  0.6866153311024163  0.5939011962105880  0.5039443738511551
  0.6869656869491436  0.7101876844040191  0.6048919493802174
  0.6845391582221794  0.8061541367771099  0.6857209204882864
  0.6865536018287202  0.8910157911109025  0.7952336744120245
  0.7040476009803456  0.0134357274826797  0.9080806871848068
  0.6956209011641619  0.1137591869727075  0.0108274171654799
  0.6960335226469354  0.2083848234905972  0.1170522444266382
  0.7052635942876009  0.2989121364943230  0.2059363665928231
  0.7951350360559957  0.4026777018428618  0.4006975378234401
  0.7855646335485673  0.5036389734646747  0.5086693095159518
  0.8012840109346300  0.6092986850167321  0.6006435938162795
  0.7910228411179716  0.7012353164914913  0.6943519762454642
  0.7952544765989558  0.8006145623792236  0.7886060762596045
  0.8059769458453161  0.9146443465145850  0.9031510543432120
  0.7954533562709116  0.0014885257105135  0.0086861639251552
  0.8057641480887980  0.1055565513503325  0.0998167893670185
  0.7928262091718921  0.2133884936607444  0.2053286067775844
  0.8072888773153579  0.3019248329170026  0.2987894358297609
  0.8987233916199244  0.4056105886788899  0.4990496851581270
  0.8946152283546240  0.5038075387660825  0.5873324598199545
  0.8959458028939054  0.5937208125559721  0.6926204703775269
  0.8919885162841084  0.7000703704576523  0.7951195809963707
  0.8900260673045182  0.8006522524390789  0.8914276881745735
  0.8838648211339972  0.8897855959843497  0.9974825083659340
  0.9133884889475397  0.9937219819013023  0.0958785964085394
  0.9002288824998814  0.0960749441485618  0.1947706692746394
  0.8958544648159474  0.2071892840646683  0.3078723410472719
  0.9135085813262975  0.3024783423669675  0.3987063142762892
  0.9954947377103238  0.4017287839939669  0.6016300999198734
  0.0138144516189840  0.4975656200216818  0.7080660663618801
  0.9955510642409422  0.6010857986520222  0.8052715624263556
  0.0071496469811976  0.6981654724984665  0.8982127082056834
  0.9848690691426683  0.7910629245416416  0.9969878771739644
  0.9965004274873905  0.8944945897157908  0.0762282396191765
  0.0010181670358662  0.9930118023283185  0.2079978239147877
  0.9950594023660244  0.1020688660036768  0.2950627426120533
  0.0076531569024851  0.2018395546024436  0.3867404534099990
  0.0108517768770326  0.3033809671489820  0.4835562030447278
  0.1082197728236807  0.3985591535089767  0.6992095866522163
  0.1032939718150558  0.4862313319507976  0.7949412310882806
  0.1027491280576882  0.6131934321534587  0.8985487378045889
  0.1053579747372382  0.7186007913465602  0.9961682820379849
  0.1005875727011372  0.7987267691002486  0.0904530070226670
  0.0931868793891724  0.8963995668567648  0.1864299500400648
  0.1051426865249567  0.9811769854362069  0.2940345793467500
  0.1109694221614745  0.0974394028373453  0.3893482711976262
  0.1217178135457431  0.2042799382570593  0.4845156487722093
  0.0934682627138628  0.3046786506103629  0.5977962332092162
  0.2139055629919397  0.4102493203563213  0.8067086006504240
  0.2010304430409562  0.5239749455625216  0.9112120639110159
  0.1973456280341210  0.6039128448885336  0.9965502054955948
  0.2029272177970469  0.6978616821416779  0.0928996592355205
  0.1871897968610057  0.8003131027006631  0.1905597374746648
  0.1833520295046398  0.8861471772635170  0.2941603308667595
  0.1961166842626199  0.0016383475514914  0.3905187203657476