Li 
 1.0000000000000000
    21.2169999999999987    0.0000000000000006    0.0000000000000000
     0.0000000000000006   21.2169999999999987    0.0000000000000000
    -0.0000000000000006   -0.0000000000000006   21.2169999999999987
 Li 
 500
Cartesian
 -0.1729350000000000 -0.1063301600000000 -0.2616604300000000
 -0.1820247900000000  2.0761834600000002  2.2101107700000000
 -0.0454809400000000  4.0993819299999998  4.1700518799999999
  0.1763966800000000  6.5818993499999996  6.1388812499999998
 -0.1658678400000000  8.5908584300000008  8.5714538999999998
 -0.1482061000000000 10.8700183799999994 10.6595088499999999
 -0.0302152800000000 12.6400100000000002 12.6006780200000001
 -0.0820399000000000 14.6502384299999999 14.9096443799999996
  0.0080102600000000 16.8921115499999992 16.9617925999999990
 -0.2400836800000000 19.0152787100000005 19.3112702499999997
  1.7346069099999999 -0.2051907300000000  1.9277779100000001
  1.7638109799999999  1.4661705700000001  4.0891040199999997
  2.2403836099999999  3.9320018700000001  6.0297922399999999
  2.3308626499999998  6.5266196599999997  8.1799941000000000
  1.9780557200000000  8.5551340699999994 10.4942128300000004
  1.8793487700000000 10.6723710799999996 12.7287708800000008
  2.0487811800000002 12.7227122200000000 14.9012900699999999
  2.2390046600000000 15.0658109899999992 16.8026290399999993
  2.0222494200000001 17.1107718899999988 19.0233118999999995
  2.0693503999999998 18.9629264100000015 20.7163664599999997
  4.0503075199999996 -0.5651592100000000  4.2223782099999996
  4.1810406599999999  1.9385203300000000  6.1469269899999999
  4.4899361100000004  4.2539878499999997  7.9314123199999997
  4.2241448600000000  6.2005941599999996 10.2428443300000005
  4.2266189799999996  8.1698962599999998 12.6428279000000003
  4.4147244700000003 10.5634299499999997 14.7598601299999999
  4.4085691599999999 12.6538389700000007 17.0488065499999983
  4.3944632300000004 14.9486296799999998 18.7419133299999991
  4.4349298399999997 16.8068991899999993 -0.2754237600000000
  3.7952332300000000 19.1155287600000001  2.0768588600000002
  5.9417032299999999 -0.2225202700000000  6.3173045099999996
  6.3941525300000004  2.1202845199999998  7.9923126099999999
  6.3554600499999996  4.2703965799999999 10.3697202300000004
  6.4388490200000001  6.2227131399999998 12.6654535700000004
  6.3943410800000002  8.3101098899999997 14.8747322000000004
  6.6367501500000001 10.6596735500000008 16.8301349299999998
  6.3320785700000002 12.7087801599999999 18.8998725800000003
  6.3964983000000002 14.5199930300000002 -0.0317232200000000
  6.0065582800000001 16.9632457400000014  2.2422304700000000
  6.1023300999999996 19.0939525400000001  4.3762633199999996
  8.1898855400000006 -0.0627648100000000  8.1790244699999999
  8.3634556500000006  2.2750290099999999 10.3061309199999993
  8.4907457999999991  4.0648646900000003 12.9632994600000000
  8.4903448000000008  6.1866825600000004 14.9176603399999994
  8.1813897999999998  8.3159506299999997 17.1090247399999988
  8.6510314299999997 10.5182010600000009 19.2150532399999996
  8.6560667799999997 12.5304718099999999  0.1465358300000000
  8.2090349699999994 14.8639111600000007  2.1406679199999998
  8.4088074000000006 17.0081115300000008  4.1655393099999998
  8.1294959400000000 18.9574270300000016  6.2577857400000001
 10.2265883800000008  0.2040671400000000 10.6312850000000001
 10.3842242900000006  1.8784918200000000 12.8782540500000007
 10.7688751000000007  4.2558179899999997 15.1664624799999999
 10.6479178599999997  6.2901876999999997 17.2477442600000010
 10.5117497199999992  8.2844260100000007 19.1048481099999989
 10.8874341000000001 10.5146387699999995 -0.1969651000000000
 10.6897580399999992 12.6069252400000007  2.0734251399999999
 10.6587050699999999 14.9263586400000001  4.4007751099999997
 10.5924174400000002 17.2242272499999984  6.1938952499999997
 10.3552049600000000 19.2795600299999990  8.4898845900000008
 12.5191892700000000 -0.1161892000000000 12.6245677100000009
 12.5629808100000009  2.0227973600000002 14.8983637000000009
 13.0434680899999993  4.4112109600000000 17.4306947100000009
 12.8071503399999997  6.5574399100000003 19.1966107299999997
 12.4841148299999993  8.3216969200000008 -0.0972651600000000
 12.9598588400000008 10.6453703100000006  1.9165884200000001
 12.6395064399999999 12.4126985899999998  4.1895117199999996
 12.6375222199999993 14.5768404799999995  6.6065440799999999
 12.4905930800000000 16.9949021500000015  8.5682600200000003
 12.5709187799999995 19.3168042900000003 10.6681260600000005
 15.0009241400000004  0.0010901300000000 14.7380713300000004
 14.5264800300000001  2.2454568400000001 16.8657993399999988
 14.9400723099999997  4.2937967700000002 19.1358277500000007
 14.9561747100000009  6.6146702199999998  0.1523939800000000
 14.9130013399999992  8.3376657900000009  2.3846181700000000
 14.6893463799999999 10.5022327299999993  4.2474584499999999
 14.7446053900000003 12.5090729500000002  6.4452645799999999
 14.4849400199999998 14.9503187499999992  8.3040317699999999
 14.7324044099999991 17.1641301700000000 10.6595184700000001
 15.0041534199999997 19.1720587000000009 12.5867162399999994
 16.9292794700000009 -0.0437024700000000 16.7647185400000005
 17.2155076499999993  2.0139557099999998 19.2217046700000012
 17.0280394199999989  4.3502524500000002  0.0216767500000000
 17.0499624300000008  6.3111185100000000  2.1483803600000000
 16.9952192699999998  8.5511806000000004  4.0969625900000004
 17.0032583099999997 10.6910438600000006  6.4111261700000002
 16.3949010000000008 12.8925859900000006  8.6493726800000008
 16.3937841000000013 15.1259619399999998 10.5554171100000005
 16.8758936800000008 17.1400838299999982 12.7181546700000006
 16.9964073300000003 19.1106386000000015 14.8659005000000004
 19.3513307400000016  0.0455248000000000 18.9426801699999992
 19.0122751699999988  1.7662667100000000 21.1482860200000005
 19.3287524700000013  4.1792416899999996  1.9250505899999999
 19.0880404000000006  6.3934174500000003  4.2675272299999998
 19.0219163699999996  8.7289067300000003  6.4167741200000004
 18.9188593300000001 10.8655377299999998  8.5588433500000001
 18.9700055300000017 13.0142828500000007 10.2016009099999998
 19.0065529499999997 14.8686096499999998 12.6093832500000005
 19.0641279600000004 17.0020850000000010 14.7037345800000008
 19.0734567400000010 19.2901005300000001 16.8148489999999988
  2.0299545700000001  1.9236291400000001 -0.1094187600000000
  2.2665161600000001  4.0808154600000002  2.1207465900000000
  2.1937113899999998  6.3985451099999997  4.2050637499999999
  2.2264026399999999  8.8296471299999997  6.5420519800000001
  2.2866492699999998 10.5658397399999995  8.2011757999999997
  2.3500288000000000 12.5882225000000005 10.5581937499999992
  1.8740313600000000 14.6194132600000000 12.3910607000000006
  2.0600929300000002 16.9266298400000004 14.6531783699999991
  1.9688467199999999 18.9782441499999983 17.0355059599999983
  2.0495665199999999 21.2105390000000007 18.8964699799999991
  3.8814649299999999  1.7998145800000001  2.1137915899999999
  4.0111874399999996  4.1615907800000000  4.2040715200000003
  4.4415793299999997  6.3550753799999997  6.2218411600000003
  4.5353294499999999  8.4654942000000002  8.5516888200000007
  4.2970327599999996 10.5575264099999995 10.8298529099999996
  4.5415325700000002 12.9085597100000005 12.7889667300000003
  4.1665019200000000 14.6907061399999996 14.9047583199999991
  4.1814107600000003 17.1559439599999983 16.9791584100000001
  4.2010688900000002 18.9604503700000002 18.9226587799999990
  4.0721761299999999 21.1379070099999993 21.3026581899999989
  6.2746331399999997  1.9376635799999999  4.1646809899999999
  6.2739084900000002  4.3171651200000003  5.9330423500000000
  6.2830491700000000  6.3763327299999997  8.2625319299999997
  6.5897331499999998  8.3082854299999997 10.5739790399999993
  6.5258921699999997 10.4044913300000008 12.7457640399999992
  6.6442363300000000 12.7480977200000005 14.5858154300000002
  6.5589093800000002 14.7183123800000004 16.8459985600000017
  6.5495149799999997 16.7805738600000005 18.9283362000000004
  6.3260988200000003 18.9252942399999995 -0.1464446300000000
  6.2872943200000000 21.1016145500000007  2.3345199600000002
  8.5138724299999993  2.0131223600000001  6.5023430400000004
  8.1346633199999996  4.2002731799999999  7.9226582299999997
  8.1980395200000000  6.3524580899999998 10.3268995199999996
  8.5304172299999994  8.0783120299999993 13.1079219299999998
  8.2064339600000000 10.4814140600000005 14.6380134500000008
  8.8537368099999991 12.6555715699999993 16.8338424400000015
  8.6014263500000006 14.6616569400000003 19.0310731699999991
  8.4025574800000005 16.9000913100000005  0.2020974300000000
  8.3109105599999999 19.1960611599999993  2.1110488799999998
  8.3875893300000008 21.1497438799999991  4.4622708600000003
 10.5726250000000004  2.2764047700000001  8.2053883800000005
 10.3986812999999998  4.1824282999999998 10.5271032899999994
 10.4842086000000005  6.1166672699999998 12.7987516800000005
 10.4558873299999995  8.2901499100000002 15.1098490999999999
 10.4786993000000006 10.3247828399999992 16.8422370999999984
 11.0956490399999996 12.6482281400000005 19.0497234900000016
 10.5542503599999993 14.9271105599999991  0.1087133800000000
 10.8449187600000005 17.0243107599999988  2.2033142799999998
 10.5098950400000000 19.0179651099999987  4.3441617800000003
 10.5142555099999999 20.8162593399999984  6.6390343600000001
 12.6831989699999994  1.9979142900000000 10.6982020799999997
 12.3840926400000004  4.0495379199999997 12.8095099500000007
 12.5779464300000008  6.0382084899999997 15.0728340000000003
 12.9495091900000006  8.3970424799999996 16.8938470599999988
 12.9219590800000006 10.3242778800000004 18.8735337899999998
 13.1106168600000004 12.6702812399999996 -0.0748937100000000
 12.8071841200000005 14.7245461300000002  2.2968308899999998
 12.8424118600000003 17.1415928800000010  4.2076004100000004
 12.7422722700000008 19.0589511999999992  6.6635079399999997
 12.7729709899999992 21.1174269999999993  8.5267777099999993
 14.5921194199999995  2.1509685400000000 12.6230556299999996
 14.6581260199999992  4.2774203699999997 14.8060963399999999
 15.0152330700000007  6.4328883100000001 16.8833959500000006
 14.9110455200000001  8.6251504000000008 19.3750299599999991
 14.9792182700000005 10.4565101800000004  0.0489467000000000
 15.0003383800000005 12.8623612900000008  2.1706582800000001
 14.6476399900000001 14.9669816299999994  4.7769813000000001
 14.8559081200000005 17.2545295600000017  6.7127063199999997
 14.9359654299999995 19.0367294200000003  8.5721297500000002
 14.8834097300000003 21.4914944500000011 10.5333913199999998
 17.1381283000000018  2.2580972799999999 14.5964599100000001
 16.9787919900000013  3.9096984500000000 16.9646863400000001
 17.1370237799999998  6.5277228699999998 19.3704925800000005
 17.2552652299999991  8.4671990299999997  0.1805216700000000
 17.1223844000000014 10.3370851600000009  2.2421356600000002
 16.9843349100000012 12.6147084300000003  4.1198980900000004
 16.9578650300000007 14.8008863900000005  6.4905627299999997
 16.6406903200000009 16.9543295699999987  8.5511823099999997
 17.2168736100000004 19.2528817299999986 10.6501990600000003
 17.2562323000000006 21.4259160800000004 12.5926710400000008
 19.5945033299999984  1.9887103399999999 16.8254649100000009
 19.0234657700000014  4.1013823399999998 19.0771119700000007
 19.3934183900000008  6.5280432399999997 -0.1289534000000000
 19.2145653699999990  8.4107494500000008  2.0150169400000002
 19.0590660199999995 10.8291832499999998  4.2538866000000004
 18.9303153900000005 12.8880009199999996  6.8825237799999996
 19.2249052899999988 15.0525255799999993  8.4669498700000005
 19.2009791700000001 16.8792312899999999 10.6787160100000005
 19.3749258799999993 19.0142477499999991 12.5976882499999991
 19.2272247599999986 21.4310130000000001 14.8943948600000002
 21.3468539100000001  2.5052520399999998 19.1104867799999987
 21.3277121500000000  4.2325722499999996 21.2830505099999989
 21.3670723100000011  6.4709584500000004  2.3128941900000002
 21.3515365599999996  8.5810653800000001  3.9118165299999998
 20.9766802500000011 10.5740429400000000  6.2162434700000002
 21.4823440300000001 12.7046553099999997  8.2730715200000002
 21.5102469899999988 14.8419458300000002 10.1965529099999994
 21.5196303700000016 16.8162136500000017 12.5299208300000000
 20.9597593999999994 18.8803769099999990 14.7093032400000006
 21.5076838799999983 21.2181915500000002 16.9341508300000001
  3.9280703199999998  4.4481852200000001  0.1165023000000000
  4.1566592800000004  6.8815945500000000  2.1640799899999998
  4.3812053500000001  8.8951491499999999  4.6137038300000004
  4.4763758100000004 10.8146613499999997  6.3388211600000002
  4.4002259900000000 12.4732452400000007  8.6974842100000007
  4.0199077200000000 14.8981692799999994 10.8605784700000001
  4.2811078100000000 16.8831435600000006 12.8380755900000008
  4.1122811900000000 19.2422784799999995 14.7983065400000005
  3.9384627200000000 -0.1540289700000000 17.1328438500000004
  4.1668913500000002  2.0302420300000001 19.1131047900000013
  6.3792505999999998  4.2189727799999996  2.0471750800000001
  6.3737456400000001  6.2991693199999998  4.1242134000000004
  6.5044905499999999  8.8499045499999998  6.1705804999999998
  6.5444164999999996 10.3881872899999994  8.7594197699999992
  6.7238660899999996 12.4681586800000002 10.7422581600000004
  6.4257228399999997 14.6353169600000008 12.6880044200000004
  6.3530687400000003 16.8773237300000005 14.7221069700000005
  6.3631876800000002 18.8990233200000013 16.5178052099999988
  5.9482964000000003  0.1182321900000000 19.1740238299999994
  6.2597744999999998  2.1876805099999999 21.4930936899999985
  8.6147739300000001  4.0094261800000002  4.4002767299999999
  8.7252326199999999  6.6386926600000002  6.1783575700000002
  8.4750465300000002  8.6697968799999998  8.4591557500000008
  8.6167675199999998 10.5681502199999997 10.8748452300000000
  8.8454397500000006 12.6513835799999992 12.6150685500000002
  8.5541982099999991 15.0802030699999996 14.6341624800000005
  8.5305275900000002 16.7755116000000015 17.2646044100000005
  8.4199972100000000 19.2485801199999997 18.9826275399999993
  8.2525304599999991 -0.2074689700000000 -0.1291927900000000
  8.2312861599999998  1.9982751599999999  2.2121404899999999
 10.9951104500000003  4.4340529699999998  6.3377510499999996
 10.6156245800000004  6.2791377099999997  8.4156389800000007
 10.5876652199999999  8.1758412499999995 10.6995487499999999
 10.7672259700000001 10.5280503499999991 12.7825458899999997
 10.6881204800000003 12.6434877900000000 14.7473249499999994
 10.5491655600000005 14.7951334100000000 16.8939630100000002
 10.6257594799999993 17.2015998900000007 19.2449805400000002
 10.5425328199999999 19.1392757300000014 -0.2046960500000000
 10.4290410399999995 -0.1956579700000000  2.2152631500000002
 10.6480636299999993  1.8879251600000000  4.2346835399999998
 12.3799175500000000  4.2153488299999999  8.7375048799999995
 12.5009846000000007  6.4025974000000003 10.9143942799999998
 12.5722562599999996  8.2448602100000006 12.9341937199999997
 12.7351689900000000 10.3593084300000005 14.8060295400000008
 12.8738638099999996 12.7414830200000004 16.8805084600000015
 12.8149993200000001 15.1146774500000003 18.9036686699999983
 12.8379838300000007 16.8490326300000000 -0.0726074200000000
 12.8424244299999994 19.1239325499999993  2.0400933499999998
 12.6587334200000008 -0.2474037500000000  4.1828472100000003
 12.7609816699999996  2.1236713800000002  6.2849646999999997
 14.9467852000000008  4.2581736499999998 10.7102153399999995
 14.5527318200000000  6.3488030599999998 12.8271962800000008
 14.8977607499999998  8.3661276499999992 14.7703254400000006
 15.0517735100000003 10.6032435300000003 16.6682352199999997
 14.8235454699999991 12.6852139400000006 18.6873940000000012
 14.8258534500000003 14.8092372300000008  0.0481080500000000
 14.8903254100000009 16.9276464299999994  2.2462695600000000
 14.8971507200000008 19.2475971600000015  4.2117077800000002
 14.7313056899999992 -0.0083328600000000  6.4862749800000001
 14.7757150599999996  2.2632321300000000  8.3739512200000004
 17.0131607699999989  4.3738668299999999 12.7498502800000004
 17.5357617200000000  6.2975964099999997 14.7729395300000004
 16.8534829299999984  8.4267798400000000 17.0622915400000004
 16.8751040500000009 10.6531509999999994 19.2094261099999990
 16.9507851800000005 12.8711361100000001  0.0526048700000000
 16.6773608600000003 15.2242554400000003  2.1450384900000001
 17.0737428499999986 17.2050891700000008  4.4643909400000004
 17.1882563899999994 19.3026074500000000  6.3553293300000000
 16.8817440699999999 -0.0268182800000000  8.5162722300000002
 17.1277529400000006  2.3549102000000000 10.6950684799999998
 19.4680530500000017  4.0145477700000001 14.6481647299999995
 19.2499027600000012  6.3265800299999997 17.1917267500000008
 19.2827345299999990  8.6678846699999994 19.2872464100000016
 19.1036583100000001 10.9341700999999993  0.0555736700000000
 18.7666606999999992 13.0292052799999993  2.1289853000000001
 18.9011799099999998 14.8196911300000007  4.4614463999999998
 19.1233515700000005 16.9602306200000008  6.7384148699999997
 19.1555907199999993 19.2761406599999994  8.7637488599999998
 19.4280244499999988  0.0575959900000000 10.4936832500000001
 19.4273315699999998  2.1592544500000002 12.2960658600000006
  0.1925947300000000  4.3030242400000001 17.0326462300000010
  0.2831960600000000  6.3181864399999998 19.3315607999999983
  0.3421313700000000  8.6398300199999998  0.0584559100000000
 -0.1752976700000000 10.7473421499999997  2.0171519999999998
 -0.3172305100000000 12.7498770799999992  4.1910090200000001
  0.0262997200000000 14.8161697700000001  6.3653129200000000
  0.4299075700000000 17.1512774000000014  8.6711770099999992
  0.3244841200000000 18.8759977799999987 10.4588064999999997
  0.2797677600000000 -0.1112930300000000 12.2987885200000004
  0.2361755000000000  2.1108109599999998 14.5509643200000003
  2.3541451100000002  4.5304498799999999 19.0918549700000000
  2.2576686000000001  6.5622524799999997 21.2426337499999995
  2.2953587899999999  8.7755509600000003  2.1303087199999999
  2.0315918100000001 10.8197261999999998  3.9942323599999998
  2.1704684500000000 12.6627965899999992  6.2349672500000004
  2.5172070899999999 14.8971435000000003  8.4797049300000005
  2.5166776999999998 17.0725372299999982 10.6744529299999993
  2.0409526100000002 18.9547148099999987 12.7074774599999998
  1.8996305400000000 -0.0071970100000000 14.6309141100000009
  2.2215251700000000  2.3416433300000001 16.9544557699999991
  6.1902043899999999  6.6687782599999998  0.6047191300000000
  6.3950714299999998  8.7121154700000005  1.8924590600000000
  6.6084629899999996 11.1138009600000007  4.1541006700000001
  6.5462973900000003 12.7698031099999998  6.7180232300000000
  5.9765154300000001 15.0729540800000006  8.6917486700000008
  6.2170253500000001 17.2520583999999992 10.6566281099999998
  6.5611253300000003 19.1176734800000006 12.8975699699999993
  6.2822208200000000  0.2765596000000000 15.1052488199999999
  6.3557815000000000  2.3603331600000002 17.2110768199999988
  6.2164406899999998  4.3617387799999996 19.4516451799999999
  8.9232743800000005  6.3669902499999997  2.2641187199999999
  8.5544421899999996  8.8157702800000006  4.0467467299999997
  8.5279163300000000 10.7120847700000006  6.5095707300000001
  8.5925847900000001 12.8521204499999993  8.6460056200000004
  8.3025448799999992 15.0791173100000009 10.4904372200000005
  8.3857995499999998 16.8192934899999997 12.7739973399999993
  8.4565748900000006 19.1779550299999997 14.7960815799999992
  8.2398185700000006 -0.1234692000000000 17.0636869599999983
  8.4069665800000006  1.9129042500000000 19.3795545699999998
  8.5223331299999998  4.0633482399999998 21.6691333999999998
 10.7218870000000006  6.4982469700000003  4.6188742999999999
 10.6267721099999992  8.3675474399999992  6.4760208099999996
 10.8231842000000000 10.6367931700000007  8.6333381500000002
 10.6222412599999991 12.7062304899999994 10.5830870299999997
 10.3692832500000005 14.4441152899999992 12.8269615800000008
 10.6490257499999998 16.8910019200000008 15.2505949600000008
 10.6690865699999993 19.1157335000000010 17.1129835099999994
 10.4095577299999995 -0.1636680500000000 19.3026098200000007
 10.5499558899999997  1.8335733200000000 -0.0816688500000000
 10.8545965599999992  4.1944295699999996  2.4023197700000001
 12.8701430699999992  6.1553890600000001  6.3408988199999996
 12.5520413299999998  8.3809493600000007  8.4560910400000004
 12.7825280299999999 10.4721143600000008 10.8882864399999999
 12.9540839000000005 12.8240331100000002 12.9901921700000003
 12.7818213800000002 14.8494128900000000 14.8448647900000008
 12.7402618699999994 16.7540564600000010 17.1219278599999996
 13.0412225399999997 18.8179705900000016 19.1760095799999988
 12.7986555099999997  0.0469925400000000 -0.0465105700000000
 12.7913029700000003  1.6892886600000001  2.3471316099999999
 12.7056615100000005  4.1878436600000004  4.2351361299999999
 14.8327005399999994  6.1023942099999999  8.7041322000000001
 14.7766757799999997  8.4883018099999994 10.5292939499999996
 14.7390619100000002 10.2747522500000006 12.6334959100000006
 15.1248004399999996 12.5970552199999997 14.8598214199999994
 14.6676279500000000 14.6443132400000007 16.6139082599999988
 14.9916814299999999 16.7880047200000000 19.0544842800000005
 15.1625831800000004 18.9643798900000000  0.0328699600000000
 14.4948696899999998  0.1034107500000000  1.9944081000000000
 14.6017939200000004  2.1888261500000001  4.2560215299999999
 14.5546703199999996  4.1744433000000001  6.6420184500000001
 17.1399963200000016  6.3664179100000000 10.7398282599999995
 16.8384718299999996  8.3837534900000001 12.7439373499999995
 17.0644601000000016 10.2605844600000005 14.5856650900000009
 16.7890564299999987 12.6970172800000007 16.9433580100000007
 16.7221346799999999 14.8118081099999994 18.9071717600000007
 16.8744961800000013 16.5206990699999992 -0.0107469200000000
 17.0164397100000002 19.0854086999999986  1.8285201099999999
 17.1411379299999993  0.1055406700000000  3.8473603399999998
 16.9637063999999995  2.2607292800000001  6.3189844800000001
 16.8978602299999991  4.4170498599999997  8.3580737099999993
 19.2730496500000008  6.2909450500000004 12.6383960000000002
 19.1896069400000009  8.4275241899999997 14.7887393800000009
 19.0438217300000012 10.4021661299999995 17.1307369899999991
 19.0133196399999989 12.7749225099999997 19.1344273899999990
 19.0524375200000016 14.9894794299999994 -0.1044598100000000
 19.3661212899999988 17.1423732000000015  2.2153379000000002
 19.3885528499999999 19.1992465199999991  4.0522112200000002
 18.7685724699999987  0.1069511100000000  6.6998579400000002
 19.0493716900000010  2.1063498100000002  8.4212411599999992
 19.0996725400000003  4.6155664200000004 10.4304269099999996
  0.1430567200000000  6.1236575499999999 14.9247222500000003
 -0.0565358300000000  8.2326908599999999 17.1432628999999999
  0.1639609900000000 10.6468783299999998 19.1748065499999996
 -0.0691583500000000 13.0576654699999999  0.0901076500000000
 -0.1675057700000000 14.8053818499999998  2.1738680900000000
 -0.0916406200000000 16.8400031800000001  4.3121592000000000
 -0.1676832400000000 19.0150584599999988  6.5086341900000004
  0.0741859600000000  0.2278950800000000  8.1586158500000003
  0.0989376600000000  2.2963952900000000 10.5507876100000004
  0.3996886700000000  4.3647769199999997 12.3088458200000002
  2.3432593499999999  6.3276559199999998 17.2405580299999990
  2.2746540899999999  8.5299532899999999 19.2687402799999994
  1.9461872400000000 10.8778705999999996  0.2883871100000000
  1.9755366200000000 13.0586096800000000  2.2550990199999998
  1.9713066800000001 14.8443600300000007  4.0183717300000001
  2.1258765799999999 16.9022319600000017  6.1528498999999996
  2.2861973299999998 19.0084549600000017  8.3380074099999995
  1.9525303599999999  0.0533280400000000 10.3187763500000003
  2.6281973100000000  1.9291759600000000 12.5961198700000008
  2.1139218500000001  4.4180268299999996 14.6820609399999995
  4.3354499500000001  6.6401602999999998 19.0623705000000001
  4.1801982999999998  8.8924864400000008 21.0460218999999995
  4.2358935000000004 10.7360731699999992  2.0439571700000001
  4.3681814599999997 12.9637507999999997  4.2050045699999998
  3.9913000300000001 14.8814371600000008  6.2487155500000000
  4.2522509399999997 17.0447032400000005  8.7421542399999996
  4.3177902699999997 19.3692468499999997 10.7102128200000006
  4.2900815200000002  0.0211039400000000 12.8715535800000005
  4.1912685400000003  2.0780985300000001 14.9645694799999998
  4.3249657399999997  4.1685547100000004 17.0470424099999995
  8.5809294000000005  8.6177130300000009  0.1088977700000000
  8.6686943000000003 10.5386017899999995  2.1787590500000000
  8.8367045399999995 12.8681222500000008  4.3033791900000002
  8.3843761899999993 15.0348091600000000  6.7404858499999998
  8.2920466299999998 16.7703133700000002  8.4809991900000004
  8.2042958499999994 19.2978348100000012 10.5486968799999996
  7.9285448000000001  0.0391398100000000 12.8413717399999996
  8.7571772200000009  1.9120138300000000 15.1991858400000002
  8.3821873999999994  4.2240193599999998 17.2931729899999986
  8.1866453299999993  6.2827134500000001 19.5327672399999983
 10.9419352300000003  8.4720659999999999  2.0176465700000001
 10.5654368000000005 10.8119474300000000  4.4245107800000003
 10.7659598299999999 12.8744633400000001  6.6124432300000002
 10.4968889399999998 14.7405585499999994  8.5475450300000002
 10.4290459500000008 17.3437688399999992 10.8073350900000005
 10.1509427799999994 19.3444677100000000 12.7658440100000004
 10.7327070399999993  0.1661745100000000 15.1477503500000008
 10.9486793200000001  1.9959285200000001 17.4548610500000017
 10.3749551400000009  4.0130326800000002 19.3075726400000001
 10.6616671400000005  6.2972971099999997 21.2111762299999995
 12.7403841500000006  8.5517075200000008  4.4501005300000003
 12.6399302700000007 10.5845314699999999  6.4206376299999999
 12.4626079900000004 12.6613262300000002  8.7969657800000007
 12.7705570799999997 15.0735813899999993 10.5797671399999995
 12.3459392999999995 17.1923642100000009 12.7994360199999999
 12.5310577599999995 18.9332824799999990 14.7621077799999991
 12.5714831700000005 -0.1400796400000000 17.1044914500000012
 12.6680205099999998  2.2107215299999998 19.3847705599999998
 12.7871107899999998  4.4309212400000000  0.0089921800000000
 12.8769495799999998  6.3777332099999997  2.3326730000000002
 14.5986171099999993  8.4449153999999993  6.4024230800000002
 14.6982869699999998 10.7252987999999991  8.5907206600000006
 14.5679174800000002 12.6008016800000000 10.6921877799999994
 14.5753509799999996 15.0680520999999992 12.8339924900000000
 14.5238673200000008 17.1041723200000000 14.5489407699999997
 14.5666077699999992 18.9046820400000009 16.8724728699999993
 14.9377779499999992  0.2850658300000000 19.2667479399999984
 14.7589886600000000  2.4136286700000000  0.2297253100000000
 14.7677432500000005  4.4213008000000000  2.4834974700000001
 14.9635776800000002  6.3420188000000000  4.3693518899999999
 16.8703800599999987  8.5436128000000000  8.5015996600000001
 16.6673248299999983 10.6857080999999994 10.7924367399999994
 17.0008428599999988 12.9274901999999994 12.7438551300000000
 16.7831316199999989 14.8781097100000004 14.7320658800000004
 16.8729142299999992 16.9866391700000001 16.7318551199999987
 17.1004128599999987 19.4060090999999986 19.1621559200000000
 16.8771338600000007  0.0315820500000000  0.1842943400000000
 17.0958979299999996  2.2395933499999998  2.1178128200000002
 16.8213936799999999  4.5274636700000004  4.3564570500000004
 17.1282481100000012  6.4059391799999998  6.3394154599999997
 19.0682141999999999  8.6058398599999997 10.5883371700000009
 18.9810513000000007 10.6892845500000000 12.4614328000000008
 19.0092821000000001 12.5969744800000001 14.6953285200000003
 18.9253203499999998 14.8533930499999993 16.8700521499999994
 18.8836830700000000 16.9874388399999994 18.9134212599999998
 18.7529599100000013 18.8785809899999997 -0.0534136200000000
 19.3793635699999989 -0.1332007100000000  2.0342561799999999
 19.1001562000000007  2.0384220900000001  4.1324492900000003
 19.0073441800000005  4.3959350400000003  6.5321274599999999
 19.3819115699999998  6.4176829900000003  8.4593518700000008
 -0.0955881500000000  8.5234796100000008 12.7647858299999992
  0.2931012200000000 10.5568497600000004 15.0230377300000004
 -0.0943930700000000 12.7532373900000007 17.0854467399999983
  0.1516940600000000 14.8129768300000002 19.0573790299999999
 -0.3210329600000000 16.7839820700000004 -0.0639082100000000
 -0.0742504300000000 18.9784917100000001  1.6173345600000000
  0.0216024500000000 -0.1482685900000000  4.4130898299999997
 -0.1048246600000000  2.1655951299999998  6.2603462099999998
  0.1623770300000000  4.2824298299999999  8.2054722000000009
  0.2302421500000000  6.4368339800000003 10.2596119600000009
  2.2960989199999999  8.4562295600000006 14.8351298000000007
  2.1915882000000000 10.3163701700000008 16.8662680999999992
  2.1800282499999999 13.0101250499999992 19.0645085700000010
  2.2353801500000001 15.2465529899999996 -0.0812975600000000
  2.1341665299999999 16.9465858599999990  1.9191414499999999
  1.9771460199999999 19.0189096100000015  3.9554842500000000
  2.2308123800000002 -0.3993679000000000  6.2385316700000004
  2.3544382300000000  2.0673718100000000  8.2608022699999992
  2.5824868500000000  4.3342074500000001 10.2799685200000006
  1.9831161300000000  6.4643669299999997 12.6834426800000006
  4.5384343300000003  8.7042598299999998 17.1159363800000008
  4.2652629099999997 11.1171764199999998 19.3331863599999991
  4.1870821899999999 12.8132188300000003 -0.0731942900000000
  4.3055067800000000 14.8065313100000004  1.9710520700000000
  3.9716059200000000 16.9802430999999991  4.0431059500000002
  3.8901800099999999 18.8013846600000001  6.2411997399999999
  4.1610076899999999  0.0347608200000000  8.2856356899999994