Li                                      
   1.00000000000000     
    21.6499999999999986    0.0000000000000006    0.0000000000000000
     0.0000000000000006   21.6499999999999986    0.0000000000000000
    -0.0000000000000006   -0.0000000000000006   21.6499999999999986
   Li
   500
Direct
  0.0037412586605114  0.9979139556581984  0.0258966526558879
  0.9799929510392644  0.0965892378752855  0.0923608568129310
  0.9694883806004597  0.2136378586605048  0.1957121884526529
  0.0257396212471122  0.2947330993071589  0.3067720748267888
  0.9864879976905314  0.4029580937644326  0.4212199140877573
  0.9949628346420312  0.5164182618937616  0.5186347408776015
  0.0019877699769069  0.6278619653579653  0.5626426688221713
  0.0037124369515027  0.6858111833718255  0.7059520563510375
  0.0117449237875320  0.7900534212471158  0.8192817127020788
  0.0146771062355668  0.9083134374133977  0.8962808401847582
  0.1185826849884535  0.9935373325635126  0.1204032572748233
  0.0928003048498880  0.1456569759815238  0.1652549648960715
  0.0568270392609733  0.1950487745958398  0.2627036757505792
  0.0868862919168620  0.3032040591224003  0.3851827145496571
  0.0987562480369490  0.3809403884526574  0.5030404161662787
  0.1133475958429528  0.4964632420323341  0.5905214050808283
  0.1060439792147818  0.5994202969976925  0.6854293875288704
  0.1148445838337153  0.6701746041570473  0.7912434775981509
  0.0993035870669772  0.7842197150115453  0.9111014286374157
  0.1295023981524253  0.9022248475750558  0.0054646314087776
  0.2015554609699777  0.9748136050808327  0.1817155270207849
  0.1956623695150128  0.1206590383371804  0.2827153464203249
  0.1857684050808288  0.1972767025404139  0.3830194346420299
  0.1876671667436511  0.2875345311778261  0.4837152078521925
  0.2000580374133918  0.3796748272517334  0.6024142258660490
  0.2127198092378748  0.4937182854503490  0.6936345685912215
  0.2105112831408746  0.6375190928406482  0.7866385838337209
  0.1834356799076247  0.6736295136258690  0.9059888286374118
  0.2026699635103952  0.7790661570438786  0.0005271251732069
  0.2163424942263248  0.8642355418013850  0.1073855676674356
  0.2940337986143220  0.0204774027713626  0.2974846023094670
  0.2825641330254030  0.1047586591224032  0.4083825755196315
  0.2992964000000029  0.1994172605080848  0.5013186401847562
  0.3032813801385714  0.3127935085450346  0.5839045085450323
  0.3192198697459574  0.3878868041570414  0.7072270378752918
  0.3072581016166254  0.5216320688221714  0.7805480905311768
  0.3110956013856807  0.6068088475750599  0.8908544868360266
  0.2904494475750568  0.7031036886836048  0.0258182300230914
  0.3111528096997702  0.7982352591224000  0.1234953131639713
  0.3288231487297892  0.9081865002309470  0.2272208023094677
  0.4084706087759784  0.0183512143187059  0.4006012480369492
  0.4145744729792114  0.0838204133949176  0.5208970725173216
  0.3835837787528860  0.1968143459584297  0.5951807921478078
  0.3821682651270208  0.2733196711316381  0.7089135140877616
  0.3990643297921466  0.4118386946882211  0.7971007168591200
  0.4034438217090042  0.5119358157043905  0.8944510411085460
  0.3924048078521949  0.6060006785219372  0.0073895796766763
  0.4130781986143219  0.7119247912240212  0.1275069547344145
  0.4189273912240168  0.8330906762124712  0.2098737094688232
  0.4170547436489613  0.9246880674364917  0.3257461648960742
  0.4977205653579659  0.9803653718244831  0.4851158055427263
  0.4952481824480373  0.0817481316397206  0.5979502531177801
  0.4891721972286405  0.2120578207852191  0.6793490152424937
  0.4998810503464171  0.2936964443418049  0.7854992752886858
  0.4952807741339527  0.3933818046189401  0.9066039418013858
  0.4955209154734419  0.4753647838337187  0.9931186166281734
  0.4839040983833698  0.5634514974595817  0.1033333505773655
  0.5038258711316388  0.7039437113163984  0.1963983237875269
  0.5200482240184741  0.8112278766743657  0.3123409990762127
  0.5116903547344123  0.9247047168591251  0.4009140933025392
  0.6035859163972290  0.0270650235565810  0.5974038193995383
  0.6238520295611991  0.0933133473441075  0.6909682060046194
  0.5955451108545020  0.2035568170900675  0.7853871404157076
  0.6227909630485016  0.3202062623556614  0.8970137875288700
  0.6139124642032314  0.3999529214780608  0.0044624198614329
  0.5830090919168569  0.5041501593533511  0.0970873418013838
  0.5969685422632764  0.5882004836027690  0.2073661847575039
  0.5956887829099315  0.7071623810623535  0.3112238531177809
  0.6124886900692843  0.8332090872979236  0.4101622877598174
  0.6083471334872996  0.9239635842956133  0.5133570877598146
  0.7241905288683625  0.0024027612009263  0.7099215210161631
  0.7129675145496535  0.0872466572748252  0.8137096877598182
  0.7130151741339503  0.2153566725173235  0.8864149297921458
  0.6900478041570466  0.2908452891454942  0.0290151981524218
  0.6874001916859100  0.4072556628175548  0.0960328900692815
  0.6878770286374163  0.5113019025404171  0.2077924923787506
  0.7009967311778311  0.6158041445727491  0.3144931191685885
  0.6838930937644321  0.7239971441108537  0.4010882729792158
  0.6820479990762109  0.8023154152424965  0.4893019256351039
  0.7235289099307138  0.9244317006928426  0.6067350757505778
  0.8154425311778297  0.0090412443418018  0.8129017011547361
  0.8090627538106219  0.1068372318706707  0.9115782203233280
  0.7824221796766722  0.1991082558891435  0.9839608046189383
  0.8175666448036978  0.3129788073903015  0.1234420337182414
  0.7914847819861421  0.3995038586605091  0.2049228466512716
  0.8057485441108554  0.4929330577367210  0.3052154951501151
  0.7711362036951499  0.6368360905311761  0.4028664420323338
  0.7798266531177802  0.7146825953810634  0.5139798258660520
  0.7941016711316422  0.8148840193995355  0.6296739538106237
  0.8258963995381094  0.9101437690531213  0.7017630189376476
  0.9405211274826755  0.0177600157043898  0.9102600956120099
  0.9101368891454982  0.0991078157043859  0.9961565515011515
  0.8972528138568094  0.2180364036951516  0.1022540812933030
  0.8912347270207874  0.3386024351039296  0.2106878411085447
  0.8991824272517306  0.4091336203233240  0.2884427113163994
  0.8817435381062353  0.5036610642032358  0.4242594859122377
  0.8985200868360295  0.6066758609699789  0.4690771085450365
  0.8772178448036954  0.6807377205542693  0.6021431907621277
  0.9103267404157052  0.8025789519630493  0.7143836872979250
  0.9016026789838349  0.9267538840646665  0.8101623602771397
  0.0915554628175528  0.0889072692840642  0.0125356332563484
  0.0697322050808324  0.2278478152424910  0.0771625099307158
  0.0957868078521926  0.3084897478060071  0.1738161330254044
  0.0890796041570425  0.4316657806004613  0.3038825593533474
  0.0918744327944552  0.4997923131639723  0.4199620120092362
  0.1030210452655922  0.5938654517320998  0.4986896152424976
  0.1045502420323317  0.7123795801385668  0.5842915002309468
  0.0920865579676686  0.7802890295612031  0.6812595173210170
  0.1023812586605075  0.8841100508083173  0.8138168660508072
  0.1082128923787522  0.0142708364896080  0.9180845450346453
  0.2028219131639730  0.1240022697459580  0.0817155353348724
  0.1891727556581984  0.2303328637413387  0.1828112295612030
  0.1678587454965381  0.2832369464203239  0.2894935330254071
  0.1687396124711285  0.3878863773672023  0.3978033889145465
  0.1764335002309494  0.4824451362586615  0.5060739274826815
  0.2138215778291013  0.5872969316397203  0.5870209219399527
  0.2172883551963025  0.7316717542725186  0.6802767658198619
  0.1792040078521921  0.8012825256351022  0.8112573870669735
  0.1992989547344095  0.9129974401847605  0.9046784180138587
  0.1850338979214783  0.0119597016166253  0.0209606060046212
  0.2915217926097000  0.0863744069284067  0.1739081311778321
  0.2937676609699764  0.1977935889145499  0.2813455889145473
  0.2753291136258653  0.2880390036951468  0.3837591321016163
  0.2717582849884508  0.3931462073903020  0.4839777847575064
  0.3066783833718247  0.4522819625866035  0.6082871297921457
  0.3207383468822158  0.5968049907621236  0.6607695755196303
  0.2969976600461877  0.6895465085450354  0.7855708364896046
  0.2744850263279446  0.7603473311778259  0.8917863806004647
  0.2973215699769085  0.8943486549653556  0.9735084725173238
  0.2913172637413410  0.9719799967667413  0.0840428808314115
  0.4025005150115462  0.1236284799076230  0.3129166577367215
  0.3990548110854490  0.1653058203233257  0.4139809260969969
  0.3887489011547345  0.2923732263279462  0.4797965736720542
  0.4207699505773661  0.3841115279445759  0.6180850498845274
  0.4136030863741311  0.5148866540415682  0.6894608568129357
  0.4234442064665132  0.6120811685912244  0.7720579103926113
  0.3990350295611975  0.6890433154734410  0.9288267750577361
  0.4037587958429540  0.7927453727482714  0.9969400304849856
  0.4079146110854523  0.8889070836027742  0.0925771879907629
  0.3898601043879921  0.9910744651270207  0.2039273824480361
  0.5283504678983846  0.0951465011547370  0.4303623801385683
  0.4937895916859105  0.2070951482678964  0.5053441468822157
  0.4904854032332580  0.2945363334873008  0.6142815468822178
  0.5060126434180106  0.3857499842956145  0.7047004993071582
  0.4922891006928438  0.5387527224018456  0.8094319898383375
  0.4810186452655856  0.6238530078521904  0.9042374508083171
  0.4987379034642032  0.7079826489607370  0.0134108304849860
  0.5105805621247086  0.8003109875288672  0.0924483344110882
  0.5192712267898401  0.9162602988452662  0.1891669981524231
  0.5129796309468801  0.0242463847575038  0.3307113575057770
  0.6008124124711287  0.0954829094688208  0.5151511565819860
  0.5915620563510373  0.1748848521939976  0.6067632854503486
  0.6180820018475757  0.2844117431870643  0.6909058794457295
  0.5583655644341832  0.4130005260970009  0.8032889639722853
  0.5927410581986123  0.5211915256351034  0.8891382572748299
  0.5908443260969989  0.6033628896073893  0.9928708064665130
  0.5952782919168556  0.6839596665126990  0.0988796143187045
  0.6311037053117801  0.8082449362586601  0.1887408073903032
  0.6379990526558856  0.9190509773672062  0.2652143200923760
  0.6300841662817547  0.9967363297921494  0.4095990240184761
  0.7333067898383376  0.0976408572748255  0.6129985431870679
  0.7169782905311806  0.1888840429561185  0.6997104332563495
  0.6771082434180116  0.3308335177829065  0.8035271136258686
  0.7046440000000018  0.4201727187066950  0.9234901108545017
  0.7016869695150092  0.5265385662817579  0.9870480050808297
  0.7045840979214759  0.6033202309468848  0.1071741519630507
  0.7054667709006921  0.6670290110854538  0.1889180762124738
  0.6854639270207841  0.8030254642032304  0.2692485930715947
  0.7080223607390295  0.9210497658198591  0.3914013607390316
  0.7189810822170912  0.0022220637413426  0.5097241995381054
  0.8167307607390271  0.0832678143187096  0.6949497672055429
  0.7803083602771395  0.2074642157043911  0.8042274212471128
  0.7742543381062390  0.3074255385681326  0.8886677736720543
  0.7872015066974569  0.4021529459584272  0.0255272734411065
  0.7613046027713608  0.5128964471131638  0.0978402286374163
  0.8139769307159384  0.5979819108545001  0.2112602138568107
  0.8044759311778265  0.7071223639722888  0.3142700161662830
  0.7566065903002297  0.8052339011547360  0.3914287653579649
  0.8137431815242522  0.9079478983833695  0.4916074697459578
  0.8382328896073901  0.0053197260969995  0.6065939279445729
  0.9166028378752884  0.0783742332563477  0.7887413972286339
  0.8868677062355630  0.2112400771362601  0.9151542272517332
  0.8791639103926130  0.3213202517321037  0.0036655538106203
  0.9198860300230933  0.4521544323325628  0.1183046411085442
  0.8908457113163948  0.4898692993071592  0.1948360706697443
  0.9034012711316421  0.6077089893764409  0.3031302988452680
  0.8847870374133961  0.7148147464203234  0.4145442101616652
  0.9001618521939960  0.7989560263279429  0.5057733648960721
  0.9288830549653611  0.8964521399538086  0.5943549718244796
  0.9461569487297936  0.9836000406466496  0.6890326951501180
  0.0092068720554295  0.1272018397228649  0.8983666184757482
  0.9820514438799108  0.2167836424942280  0.0059026170900722
  0.9858347759815231  0.3197735944572742  0.1010374642032303
  0.0249720166281762  0.4482060531177794  0.2175943251732093
  0.9680594027713596  0.5073034106235568  0.3375535815242472
  0.9946942198614295  0.6211138780600436  0.4088703224018460
  0.0082295810623521  0.7144630845265567  0.4943150406466543
  0.0089442337182462  0.7943049515011538  0.6048096591224024
  0.0014278508083123  0.8788207810623589  0.7189227709006900
  0.0184299233256340  0.0108803685912235  0.7893740923787504
  0.1987514849884491  0.1843053870669777  0.9934631482678995
  0.1972103635103934  0.3064775357967662  0.0788494979214747
  0.1707396198614290  0.3854909247113198  0.2145478471131668
  0.1932099570438766  0.5033002951501189  0.3032713806004637
  0.2129576872979229  0.6142647321016170  0.3955435953810635
  0.2103906198614354  0.6985757256351022  0.4981209879907595
  0.1921026651270239  0.7989254605080802  0.5904843418013854
  0.1680680133949224  0.8886985893764461  0.7254152212471112
  0.1872363034642035  0.9944465556582003  0.8072265274826762
  0.1907657598152426  0.0990717367205534  0.8956551672055397
  0.3038120660508099  0.2158936637413404  0.0737548304849867
  0.3001328905311809  0.3112015408775974  0.1871551224018475
  0.2902788942263257  0.3741787898383393  0.2940806951501145
  0.2849112969976915  0.4841513579676686  0.3992447515011577
  0.2841296429561169  0.5942319963048490  0.4932270697459558
  0.3124051695150101  0.7284968147805984  0.5751463154734395
  0.3052863219399526  0.8331974193995393  0.6843473639722859
  0.2859044863741360  0.8972416900692863  0.8078751210161670
  0.2827358498845243  0.0290235228637385  0.8949168480369494
  0.2873162124711328  0.0772064914549659  0.0045625759815238
  0.3993639898383350  0.1937457588914526  0.1675958124711343
  0.4108504757505784  0.2656702124711288  0.2921755538106225
  0.3933294212471097  0.3778542715935345  0.3881524877598181
  0.3903266087759789  0.4679855607390309  0.4927786226327910
  0.3676340346420304  0.5771552794457264  0.5876699598152442
  0.3846714618937668  0.7169572743648942  0.6921698406466490
  0.3856517210161670  0.7914305939953792  0.8108569002309451
  0.3805001362586609  0.8930025177829108  0.9124269418013853
  0.4063788872979188  0.9983800762124702  0.9634623681293277
  0.3886983727482658  0.0913133732101628  0.0770298332563542
  0.5117306775981518  0.1635476309468800  0.3163860545034609
  0.5192701251732075  0.2911504540415706  0.3840106443417994
  0.4953401459584299  0.3725821071593529  0.4874830364896070
  0.4986602401847549  0.4926246101616627  0.5975860300230948
  0.5003532498845260  0.6151834166281773  0.6862911732101651
  0.4727574457274812  0.6944467357967667  0.7954126780600461
  0.4871830290993060  0.8140646923787500  0.9035574018475785
  0.5090910882217088  0.8741831570438805  0.0011844859122405
  0.4976275829099279  0.0035317224018456  0.0738274263279450
  0.4878523260969985  0.0813058198614343  0.2012704739030013
  0.6075823935334839  0.1838706217090049  0.4177321510392602
  0.6171896466512692  0.2915126147806006  0.4915160521939939
  0.5989490762124703  0.3784894678983832  0.5843436748267905
  0.5753652046189401  0.5027198637413406  0.6850358937644359
  0.5903894766743676  0.5986860891454953  0.7695297884526582
  0.5801153436489628  0.6963747154734392  0.8966664614318702
  0.6038130304849858  0.7823681431870639  0.9737663408775958
  0.6216707154734422  0.8884840545034649  0.0859444424942239
  0.6240924933025411  0.0067521099307157  0.1770299459584308
  0.6148174438799074  0.0965771288683612  0.3008396572748282
  0.6940589464203200  0.1931145676674362  0.5139611187066961
  0.7161277011547327  0.2934748230946909  0.6147195958429563
  0.6868306406466544  0.3866170133949183  0.6901902073903017
  0.6862385630484980  0.4935165302540412  0.7603826503464219
  0.7138928424942250  0.6035250383371817  0.8666741020785196
  0.7091510429561225  0.6811454655889122  0.9958287903002301
  0.6935442766743662  0.7642842983833731  0.1111739782909922
  0.7088783006928381  0.9350242739030037  0.1564082452655882
  0.7208746549653569  0.9836864461893740  0.2802424203233258
  0.7124823870669772  0.1165771145496564  0.4102007662817542
  0.8206117478060051  0.1966231875288713  0.6089578655889127
  0.8047856484988429  0.3169361528868393  0.7336171344110838
  0.8007393870669759  0.3878929339491890  0.8125851593533469
  0.7897970849884501  0.4901769741339521  0.8698908115473429
  0.8257108170900693  0.5954423921478025  0.9739419473441089
  0.8154310572748287  0.6726276046189383  0.0786871704387977
  0.8029132480369512  0.7943743002309489  0.2034577782909963
  0.8062855279445742  0.8776919524249394  0.2920487667436475
  0.7994508351039258  0.0222635482679010  0.3930284401847572
  0.8175284674364889  0.1326394803695123  0.5182351297921457
  0.9069333454965331  0.2062300748267916  0.7118076147806036
  0.9049790304849878  0.3029354244803670  0.8116995182448008
  0.8771089053117791  0.4111333325635087  0.9011861898383344
  0.8748462979214793  0.5046865367205555  0.9937660946882190
  0.8789545704388004  0.5861473792147791  0.0969745949191676
  0.8995301912240166  0.7013543713625836  0.2133171930715960
  0.9039947242494222  0.7955733556581990  0.3092093639722862
  0.8853190055427262  0.8910033367205514  0.3964607709006955
  0.8805873200923813  0.0180849020785203  0.4866663214780615
  0.9257253570438806  0.1026182739030048  0.6109284836027697
  0.0131055288683584  0.2117351408776003  0.8038862752886828
  0.9612510729792163  0.2856969524249422  0.9224107094688208
  0.9990234969976939  0.4168922577367198  0.0006220254041551
  0.9952662180138603  0.4968415034642035  0.1052776124711343
  0.0002901464203262  0.6026589228637391  0.2237493025404191
  0.9852490591224026  0.7069780946882247  0.2914572581986121
  0.0016993085450352  0.7822407579676707  0.3898211662817559
  0.9925454665127020  0.9011868545034645  0.5024478161662813
  0.9988571367205523  0.9790066415704359  0.5885840891454990
  0.0251099806004618  0.1411141824480353  0.6993528230946850
  0.1012707090069256  0.1963304193995370  0.9237734346420297
  0.1042227759815262  0.3136165935334887  0.0061132840646678
  0.1059499621247113  0.4217690577367179  0.1013312355658229
  0.0961025759815257  0.4939705445727469  0.2009659635103915
  0.0923553695150119  0.6031254406466502  0.3137732517321012
  0.0906842226327953  0.7107090184757539  0.3954631972286364
  0.1006898845265596  0.7844603140877595  0.4945623778290980
  0.0834210979214802  0.8919756531177825  0.6036524138568140
  0.0746817122401850  0.0109936836027700  0.6835001491916870
  0.0951993639722843  0.0925463630484984  0.8069037043879916
  0.2800709893764406  0.3184511718244778  0.9683232032332540
  0.3156467270207841  0.4166256503464183  0.1243321519630456
  0.3210380147805978  0.4791860429561225  0.2116897353348719
  0.2999476766743641  0.6030664096997711  0.3197359002309454
  0.3054747270207869  0.6939958004618916  0.4132407247113150
  0.2857759288683610  0.8186445191685934  0.4898302919168600
  0.2602034374133950  0.9127617288683609  0.5951602512702081
  0.3053508642032341  0.9851812960739039  0.6832742323325647
  0.2554380558891438  0.1015688628175511  0.7942896295611988
  0.3086157177829065  0.1903831334872947  0.9127034397228613
  0.4173504614318730  0.2923704309468818  0.0877513371824463
  0.4071672461893741  0.3684757958429543  0.2309049274826762
  0.3956426581986108  0.4795579237875316  0.2978354175519655
  0.4126692203233233  0.5769509944572775  0.4013662129330271
  0.4006494249422659  0.7066847034642052  0.4903024637413367
  0.3707790849884560  0.8289248489607388  0.5772910993071605
  0.3846498069284081  0.8932592207852181  0.7247022318706726
  0.3826062083140869  0.0239013454965331  0.8266187963048495
  0.4065649602771373  0.0978479949191708  0.8824842249422602
  0.4128857639722838  0.1865591630485000  0.9927787528868350
  0.5011469094688223  0.2699209491916861  0.2313178642032341
  0.4987546905311788  0.3931570443417982  0.3117433376443444
  0.5017344799076184  0.4800427718244791  0.4080580605080826
  0.5002169801385676  0.5851724997690511  0.5142946272517293
  0.4598918960739056  0.6945327219399573  0.5903687829099340
  0.4948479413394935  0.8047869801385659  0.6868283371824475
  0.4987495256351053  0.8956665454965389  0.7935866845265593
  0.5208969764434173  0.9595423302540382  0.9090991408776006
  0.5349162318706675  0.0967096581986127  0.9794024018475724
  0.5073407588914520  0.1850723011547331  0.1003949944572753
  0.6427725769053083  0.2996192660508115  0.3144038609699749
  0.6115064780600434  0.4052136046189361  0.4078897833718216
  0.5933111551963037  0.4822421625866085  0.5204952355658179
  0.6034560434180136  0.6250427247113137  0.6021513764434161
  0.5953702923787532  0.7051438914549664  0.7106442919168572
  0.5911515265588889  0.7839820249422615  0.8198120840646652
  0.6038070946882215  0.8737146240184757  0.9044877099307129
  0.6170543187066997  0.9848050702078552  0.0117639801385678
  0.5790360960739065  0.1000378840646619  0.1183969501154749
  0.6061671903002335  0.1946844471131612  0.2239890909930722
  0.7269398794457302  0.2923300503464219  0.4148116346420352
  0.7228723376443398  0.4358840170900677  0.5193327034642010
  0.6660531357967656  0.4810368614318676  0.6033143371824465
  0.7146178281755198  0.5943356812933018  0.7029147995381066
  0.7025778702078540  0.7025893265588934  0.7978959584295637
  0.7142161630484978  0.7644228521939951  0.8964141736720563
  0.6798171431870657  0.8562339884526580  0.0242124420323293
  0.7039020244803709  0.0107446346420303  0.0723506692840630
  0.7054761727482699  0.0966479247113199  0.1924925861431888
  0.7308140965357950  0.1979796286374125  0.3125370891454935
  0.8080801362586598  0.3070430300230953  0.4966061889145479
  0.7947408623556598  0.4087903893764420  0.6082553020785184
  0.7875400762124727  0.4919984286374159  0.7063457607390333
  0.8050503168591234  0.5948441815242518  0.7919820143187053
  0.8336213856812904  0.6868591214780579  0.8921761870669727
  0.8178786092378729  0.7983064267898357  0.0062212891454934
  0.7959268484988442  0.9048966143187087  0.0823496327944540
  0.7966518480369515  0.0046801334872981  0.2114792055427230
  0.8044346595842953  0.1162915053117786  0.2949065621247087
  0.8160714891455001  0.1934585907621269  0.4170085505773642
  0.8895199163972265  0.3192058411085483  0.6164286780600463
  0.9009462064665144  0.4076461173210149  0.7178036110854507
  0.8871561478060030  0.5019199879907603  0.7973184429561186
  0.9238889607390277  0.5756161510392630  0.8704729390300230
  0.9154099487297955  0.6976226244803669  0.9818365875288677
  0.8917573879907650  0.8041552752886858  0.0995269575057733
  0.9208052521939933  0.8983764896073936  0.1979609625866061
  0.8939375769053086  0.0014754318706665  0.3030669150115486
  0.8906225579676672  0.0887318665127026  0.3875272300230961
  0.9169197709006909  0.2259178595842926  0.5299019847575082
  0.0009010009237898  0.3001943085450378  0.7004665237875258
  0.0028407709006899  0.4199178429561172  0.7977339676674333
  0.9944130466512675  0.4867360771362570  0.8832914563510386
  0.9968889547344091  0.5957569547344121  0.0060052193995404
  0.9835134184757521  0.6882389833718250  0.1033672877598164
  0.9939374512702059  0.7752204448036935  0.2038343893764463
  0.9989044217090068  0.8991684757505780  0.2903453939953806
  0.0074387976905328  0.9773884660508116  0.3912074161662815
  0.0073323293302536  0.1025260471131659  0.5011092868360265
  0.9922325210161631  0.2260885307159342  0.5797839482678953
  0.0978484692840667  0.3050390840646671  0.8044651990762119
  0.1032283986143199  0.3974723699769029  0.8986038484988441
  0.0907072683602763  0.4997467117782932  0.0231840475750573
  0.0973956568129353  0.5886892258660481  0.1090069745958431
  0.1045637127020811  0.7114163427251725  0.2072526794457303
  0.0905883090069253  0.7979866789838326  0.3039776115473458
  0.0628481884526551  0.8922538637413382  0.3737269196304851
  0.1021091163972301  0.9833421311778281  0.5041870198614333
  0.0825666494226311  0.1082294549653611  0.5779058789838345
  0.1259074743648938  0.2138358096997663  0.6960246438799089
  0.2026733875288684  0.3010880027713654  0.8968767870669723
  0.2084061953810590  0.4173575214780598  0.9921382286374154
  0.2111616392609719  0.4942988115473455  0.1087613575057702
  0.2256560013856799  0.6038308420323304  0.2097996124711301
  0.1995433085450316  0.7181216258660541  0.2920212489607366
  0.1927856050808288  0.8024109357967646  0.4022525926096989
  0.1875982711316411  0.8991138979214810  0.4759947635103927
  0.1851919228637442  0.9958710013856802  0.5866048840646627
  0.1506700554272484  0.1047278346420342  0.6865128383371797
  0.2030386073902974  0.2004178951501174  0.8216567436489584
  0.3952724743648943  0.4115651371824498  0.0041064748267914
  0.3982766198614343  0.4941495053117748  0.1276253866050823
  0.4099574632794472  0.5831766129330234  0.2039503436489625
  0.4342080489607412  0.6869989704388004  0.3053334272517318
  0.4183807838337188  0.8055678545034652  0.4117652540415691
  0.3762853713625844  0.9177195782909919  0.4947165311778292
  0.3837950272517290  0.0096730642032341  0.5949548448036950
  0.3948187020785241  0.0897045704387978  0.7329026697459611
  0.3824376286374118  0.1968354623556579  0.8143316845265574
  0.3995087884526569  0.3135746461893731  0.8914717972286397
  0.4933026563510410  0.3831285852194029  0.1253506152424961
  0.5088603681293336  0.4741305103926123  0.2102062420323350
  0.5008562891454957  0.5716310554272539  0.3224805159353323
  0.5099092124711291  0.6913007293302513  0.4184470937644349
  0.5060451182448062  0.8331036794457276  0.4961351939953786
  0.4996827685912208  0.9071158498845264  0.6125709173210154
  0.4938109108545063  0.9924549538106220  0.6964073672055449
  0.5161228207852204  0.0971772374133977  0.8004798614318673
  0.5062083113163993  0.2068201685912214  0.8826657251732115
  0.4973346965357948  0.3039774983833752  0.0097717090069267
  0.6004230498845260  0.3629247556581987  0.1844422096997675
  0.6230545459584320  0.5019481284064682  0.3010678969976937
  0.5886909644341785  0.6006502988452667  0.4076239182448020
  0.5869612637413368  0.6978987131639727  0.5131611431870695
  0.6289828946882210  0.8044809690531167  0.5950556743648932
  0.6308744457274855  0.9355392110854481  0.6991835339491885
  0.6193462166281734  0.9996505006928373  0.7932794461893735
  0.6280323325635138  0.1028823390300246  0.8747826558891489
  0.6201839478060052  0.1926967491916827  0.9951224263279457
  0.5926751958429577  0.3027276235565850  0.1068050937644358
  0.6971239787528845  0.3892133339491934  0.3087744933025434
  0.7154377810623558  0.5075706882217119  0.3954858849884531
  0.6726647011547371  0.6065549953810603  0.5045957621247084
  0.6985078392609694  0.7062816808314096  0.5950831953810649
  0.7129559852194021  0.8175218013856806  0.7059441819861405
  0.7165144678983850  0.8649670831408756  0.8000826789838342
  0.7173978849884506  0.9787105048498859  0.8899617260969990
  0.6904321958429591  0.0973084406466498  0.9926285445727459
  0.6766146000000006  0.1960765856812898  0.1126442739030011
  0.7123181168591231  0.2967505311778282  0.1834187875288649
  0.7943435963048486  0.3895075334872971  0.4121202739029997
  0.7925610221709007  0.4975344508083168  0.5033308115473432
  0.7742164318706699  0.5967689030023067  0.5957225976905320
  0.7931277847575089  0.6970539884526588  0.6795900281755181
  0.8173612905311813  0.7733409242494247  0.8144786087759783
  0.8070447875288664  0.8709589334872945  0.8949410503464179
  0.7969479709006961  0.9889834341801418  0.9723426341801371
  0.8000115066974587  0.0893563695150092  0.0867806822170891
  0.8291603903002311  0.2077144023094704  0.1771288494226297
  0.8016069501154703  0.2791944979214804  0.2896399487297927
  0.8923525487297894  0.3930653815242522  0.5046513653579652
  0.9040994822170916  0.5261759792147771  0.6074702133949188
  0.9092101976905340  0.5996743879907598  0.7173935367205573
  0.9201275247113188  0.7033885011547341  0.8135144859122434
  0.9031679228637444  0.8004940863741368  0.8956493759815274
  0.9047500609699739  0.9074752702078541  0.9862780046189386
  0.8757059150115509  0.9909738711316365  0.0977763764434201
  0.8829174480369488  0.1043188683602736  0.1891702083140885
  0.8964032272517315  0.2332974729792170  0.3173044309468835
  0.9092613926097002  0.3087764309468852  0.4069272466512714
  0.9749867866050792  0.3995601926096981  0.5923564064665143
  0.9926587224018490  0.5137219177829095  0.6677623745958456
  0.9882445935334871  0.5800683769053094  0.8026485819861406
  0.0138302397228642  0.6635535515011526  0.8943024240184769
  0.9999327367205524  0.7940991279445697  0.9909096600461922
  0.9933855131639717  0.8879893935334877  0.0798011302540402
  0.9845288928406433  0.0105278794457249  0.1850314785219425
  0.9861109288683636  0.0921850743648989  0.3117448323325647
  0.9805111413394911  0.1852320826789864  0.3900890739029990
  0.0157183547344104  0.3231283561200939  0.5059706448036962
  0.0891447265588923  0.3993751002309480  0.6889704032332560
  0.1306880729792113  0.4973246355658176  0.7842965154734429
  0.0920015528868348  0.5758695219399570  0.8921816346420357
  0.0981422032332588  0.6675107436489611  0.9979655020785216
  0.0888030498845254  0.7899910207852159  0.0987518882217060
  0.0982720545034610  0.8967670392609719  0.2067632808314102
  0.1001495796766747  0.0171793732101619  0.2873079551963045
  0.0964069325635108  0.0963775422632764  0.3887069154734419
  0.1009360471131657  0.2074796808314119  0.4818350189376446
  0.0798461113163995  0.2903777547344077  0.6006761889145480
  0.2104340702078531  0.4201681071593555  0.8044857020785230
  0.1915071898383403  0.5101104207852174  0.9081658909930681
  0.2209373357967692  0.5945534799076242  0.0229721177829134
  0.2035348180138570  0.6978363413394888  0.1221679648960716
  0.2023886226327960  0.8013368909930705  0.2084254863741322
  0.2003883782909952  0.8858138087759784  0.2907729168591260
  0.1784384133949217  0.0112929399538118  0.3938839464203241