Li 
 1.0000000000000000
    21.6499999999999986    0.0000000000000006    0.0000000000000000
     0.0000000000000006   21.6499999999999986    0.0000000000000000
    -0.0000000000000006   -0.0000000000000006   21.6499999999999986
 Li 
 500
Cartesian
  0.0809982500000000 -0.0451628600000000  0.5606625300000000
 -0.4331526100000000  2.0911569999999999  1.9996125499999999
 -0.6605765600000000  4.6252596400000003  4.2371688799999996
  0.5572627999999999  6.3809715999999996  6.6416154199999999
 -0.2925348500000000  8.7240427300000007  9.1194111400000004
 -0.1090546300000000 11.1804553700000007 11.2284421400000003
  0.0430352200000000 13.5932115499999995 12.1812137800000002
  0.0803742600000000 14.8478121200000004 15.2838620200000008
  0.2542776000000000 17.1046565699999995 17.7374490800000011
  0.3177593500000000 19.6649859199999995 19.4044801900000010
  2.5673151299999999 -0.1399167500000000  2.6067305200000002
  2.0091266000000001  3.1534735299999999  3.5777699900000002
  1.2303054000000000  4.2228059699999996  5.6875345800000003
  1.8810882200000001  6.5643678799999998  8.3392057699999995
  2.1380727700000000  8.2473594099999996 10.8908250100000004
  2.4539754500000002 10.7484291899999995 12.7847884199999999
  2.2958521500000000 12.9774494300000001 14.8395462400000007
  2.4863852400000002 14.5092801799999993 17.1304212900000010
  2.1499226600000001 16.9783568299999992 19.7253459299999996
  2.8037269199999999 19.5331679499999993 21.7683092699999996
  4.3636757299999998 -0.5452854499999999  3.9341411599999998
  4.2360902999999999  2.6122681800000001  6.1207872500000002
  4.0218859699999996  4.2710406100000000  8.2923707600000007
  4.0629941599999997  6.2251225999999997 10.4724342499999992
  4.3312565100000002  8.2199600099999994 13.0422679899999991
  4.6053838699999998 10.6890008800000000 15.0171884099999993
  4.5575692800000001 13.8022883600000004 17.0307253400000000
  3.9713824700000000 14.5840789700000002 19.6146581399999995
  4.3878047100000002 16.8667823000000006  0.0114122600000000
  4.6838150000000001 18.7106994799999988  2.3248975399999998
  6.3658317400000000  0.4433357700000000  6.4405416400000002
  6.1175134800000004  2.2680249699999999  8.8414827599999999
  6.4797670600000004  4.3173836899999998 10.8535485600000001
  6.5660418800000002  6.7719794599999998 12.6415326100000005
  6.9111101799999997  8.3977493100000000 15.3114653700000005
  6.6521378999999996 11.2933342900000007 16.8988661600000007
  6.7352197699999996 13.1374115499999995 19.2869996400000012
  6.2882305399999998 15.2221948600000001  0.5589646800000000
  6.7364583299999996 17.2817933600000018  2.6736735299999999
  7.1190211699999999 19.6622377300000011  4.9193303700000000
  8.8433886800000003  0.3973037900000000  8.6730170199999996
  8.9755373400000007  1.8147119500000000 11.2774216200000001
  8.3045888100000003  4.2610305899999998 12.8856641500000002
  8.2739429399999995  5.9173708800000000 15.3479775800000002
  8.6397427400000009  8.9163077400000006 17.2572305200000002
  8.7345587400000007 11.0834104100000008 19.3648650400000015
  8.4955640900000002 13.1199146899999999  0.1599844000000000
  8.9431429999999992 15.4131717300000002  2.7605255700000000
  9.0697780199999993 18.0364131400000005  4.5437658100000000
  9.0292352000000005 20.0194966600000015  7.0524044699999999
 10.7756502399999992 -0.4250897000000000 10.5027571900000005
 10.7221231499999998  1.7698470500000001 12.9456229799999996
 10.5905780699999994  4.5910518199999997 14.7079061800000002
 10.8224247400000007  6.3585280199999996 17.0060593100000013
 10.7228287600000005  8.5167160699999993 19.6279753399999990
 10.7280278199999994 10.2916475700000003 -0.1489819500000000
 10.4765237300000003 12.1987249200000001  2.2371670400000001
 10.9078301100000008 15.2403813499999998  4.2520237099999996
 11.2590440500000000 17.5630835300000001  6.7621826299999999
 11.0780961799999993 20.0198571200000011  8.6797901199999998
 13.0676350899999996  0.5859577600000000 12.9337926900000006
 13.5063964399999996  2.0202339700000000 14.9594616600000005
 12.8935516499999991  4.4070050900000002 17.0036315900000012
 13.4834243499999999  6.9324655799999997 19.4203484999999993
 13.2912048499999997  8.6589807499999996  0.0966113900000000
 12.6221468399999992 10.9148509499999999  2.1019409499999999
 12.9243689400000008 12.7345404700000007  4.4894778999999998
 12.8966621499999992 15.3100655499999991  6.7379964200000000
 13.2603801400000005 18.0389767399999990  8.8800135299999994
 13.1707154400000004 20.0038115999999988 11.1141809499999997
 15.6787249499999994  0.0520197800000000 15.3698009300000002
 15.4357466900000002  1.8888901300000001 17.6168147399999988
 15.4367785200000007  4.6624719600000004 19.1908832300000007
 14.9395349599999996  6.2968005099999997  0.6281790400000000
 14.8822141499999994  8.8170850999999999  2.0791120699999999
 14.8925376699999994 11.0696861900000005  4.4987074600000003
 15.1765792299999998 13.3321597300000008  6.8087760299999998
 14.8062854799999997 15.6745381699999999  8.6835611099999994
 14.7663391799999992 17.3701287399999984 10.5933866900000009
 15.6644009000000004 20.0139463199999987 13.1358143900000002
 17.6543308000000003  0.1957429400000000 17.5993218300000009
 17.5162086200000005  2.3130260699999998 19.7356684700000002
 16.9394401899999991  4.3106937399999996 -0.3472485800000000
 17.7003178599999984  6.7759911800000001  2.6725200299999998
 17.1356455300000015  8.6492585399999999  4.4365796299999998
 17.4444559800000007 10.6720006999999999  6.6079154700000000
 16.6950988100000011 13.7875013600000003  8.7220584700000003
 16.8832470400000005 15.4728781899999994 11.1276632299999996
 17.1923011800000012 17.6422390200000017 13.6324410999999994
 17.8806570499999999 19.7046126000000008 15.1931693600000006
 20.3622824099999988  0.3845043400000000 19.7071310699999991
 19.7044636500000010  2.1456842100000002 21.5667893399999997
 19.4255234200000011  4.7204881399999996  2.2138008600000001
 19.2952318399999996  7.3307427199999999  4.5613917600000002
 19.4672995499999999  8.8577428800000000  6.2447847000000003
 19.0897475999999990 10.9042620400000008  9.1852178700000007
 19.4529598800000016 13.1345323900000004 10.1555193999999993
 18.9917663400000016 14.7379716500000004 13.0364000799999999
 19.7085739300000000 17.3758343099999983 15.4664068300000004
 19.5196980000000018 20.0642215899999989 17.5400151000000015
  1.9821757700000000  1.9248423800000001  0.2713964600000000
  1.5097022400000000  4.9329052000000004  1.6705683400000000
  2.0737843900000001  6.6788030400000000  3.7631192800000002
  1.9285734299999999  9.3455641499999995  6.5790574099999999
  1.9890814699999999 10.8205035800000005  9.0921775599999997
  2.2304056299999999 12.8571870300000004 10.7966301700000002
  2.2635127399999999 15.4230179100000004 12.6499109799999996
  1.9936739800000001 16.8932574899999999 14.7492685500000000
  2.2165542500000002 19.1409826000000010 17.6191351500000017
  2.3428091200000001 21.9589636100000014 19.8765304000000000
  4.3910944199999999  2.6846491399999999  1.7691413400000000
  4.0955901600000004  4.9867065000000004  3.9578631199999998
  3.6341418399999998  6.1320798900000000  6.2675349899999997
  3.6532126100000002  8.3977400699999993  8.6124433699999994
  3.8197852800000001 10.4449372000000000 10.9565005299999996
  4.6292371599999997 12.7149785699999995 12.7090029599999994
  4.7042928899999996 15.8406934800000005 14.7279919800000005
  3.8797667699999998 17.3477666799999994 17.5637224299999986
  4.3148223699999999 19.7663945800000000 19.5862877500000003
  4.0059838900000004 21.9089275400000005 22.1037971199999994
  6.3114468099999996  1.8700059099999999  3.7651110399999999
  6.3600698600000003  4.2822312000000000  6.0911320000000000
  5.9608753099999996  6.2360444299999997  8.3083852100000009
  5.8835668700000001  8.5116153899999993 10.4781190399999993
  6.6395869999999997  9.7919044900000003 13.1694163599999996
  6.9439852100000001 12.9208280500000008 14.3056613099999996
  6.4299993400000002 14.9286819099999999 17.0076086099999984
  5.9426008200000000 16.4615197199999983 19.3071751399999982
  6.4370119900000002 19.3626483799999995 -0.5735415699999999
  6.3070187600000001 21.0433669300000012  1.8195283700000000
  8.7141361499999999  2.6765565900000001  6.7746456400000001
  8.6395366599999992  3.5788710099999999  8.9626870499999995
  8.4164137100000005  6.3298803499999998 10.3875958199999996
  9.1096694300000003  8.3160145799999992 13.3815413299999992
  8.9545068200000006 11.1472960600000004 14.9268275500000005
  9.1675670700000005 13.2515573000000000 16.7150537600000000
  8.6391083900000005 14.9177877799999994 20.1090996799999999
  8.7413779300000005 17.1629373200000011 -0.0662483400000000
  8.8313513300000004 19.2448383599999993  2.0042961199999998
  8.4404712600000007 21.4567621700000011  4.4150278299999997
 11.4387876300000002  2.0599217500000000  9.3173455300000008
 10.6905446600000005  4.4836099599999999 10.9407007800000002
 10.6190089800000003  6.3767116200000000 13.2991954900000007
 10.9551737300000003  8.3514871599999996 15.2567658099999992
 10.6580590300000004 11.6639964400000000 17.5242025800000008
 10.4140536699999995 13.5064176200000006 19.5767408100000004
 10.7976756100000006 15.3278243500000002  0.2903444800000000
 11.0540691700000000 17.3267328800000016  2.0015064400000000
 11.2422220599999996 19.8370354700000000  4.0954655100000004
 11.1060090099999993 22.1749342300000016  7.1599008900000003
 13.0075887300000002  2.0672049900000000 11.1530225400000003
 12.8073185200000008  3.7862570500000001 13.1364251299999992
 13.3814753399999997  6.1575142400000002 14.9581122900000008
 12.0886144699999996  8.9414613900000006 17.3912060699999991
 12.8328439099999994 11.2837965300000000 19.2498432699999995
 12.7917796599999996 13.0628065600000003 -0.1543470400000000
 12.8877750199999994 14.8077267799999994  2.1407436500000001
 13.6633952200000000 17.4985028699999994  4.0862384799999996
 13.8126794900000007 19.8974536600000000  5.7418900300000004
 13.6413221999999994 21.5793415400000015  8.8678188700000007
 15.8760919999999999  2.1139245600000001 13.2714184599999996
 15.5225799900000005  4.0893395300000002 15.1487308800000005
 14.6593934699999995  7.1625456600000001 17.3963620100000007
 15.2555426000000001  9.0967393600000008 19.9935608999999985
 15.1915228899999999 11.3995599599999995 -0.2804106900000000
 15.2542457200000001 13.0618829999999999  2.3203203900000000
 15.2733555899999995 14.4411780899999993  4.0900763500000004
 14.8402940200000000 17.3855013000000014  5.8292320399999999
 15.3286841099999993 19.9407274299999990  8.4738394600000007
 15.5659404299999995 21.6981076799999997 11.0355289200000009
 17.6822209699999995  1.8027481800000000 15.0456624600000008
 16.8936759999999992  4.4916002700000002 17.4115236700000011
 16.7626064200000009  6.6557629100000000 19.2396573000000011
 17.0429126199999992  8.7066112800000006  0.5526654700000000
 16.4822446499999984 11.1042080799999994  2.1182409500000001
 17.6226005500000014 12.9463083700000006  4.5737836300000003
 17.4169039099999985 15.3091991800000002  6.8039458499999999
 16.3805326800000017 17.4333139599999996  8.4744327699999999
 17.6175398799999989 19.6570719999999994 10.6433017200000002
 18.1477420599999988 21.7651720699999984 13.1327585399999993
 19.8444514400000003  1.6968021499999999 17.0762512499999985
 19.2006858399999984  4.5733476700000004 19.8130890199999996
 19.0338986599999984  6.9565834500000001  0.0793592400000000
 19.9155325499999982  9.7891434600000000  2.5612954800000001
 19.2868096499999986 10.6056703300000006  4.2182009300000001
 19.5586375200000013 13.1568996200000008  6.5627709699999999
 19.1556393599999986 15.4757392599999992  8.9748821499999991
 19.4885041000000001 17.2973979699999987 10.9499933499999997
 20.1103181400000004 19.4081888300000003 12.8677851400000005
 20.4842979400000011 21.2949408799999986 14.9175578499999997
 21.8493287800000004  2.7539198300000001 19.4496372899999983
 21.2614137599999999  4.6933658600000001 21.7777916599999983
 21.3433229000000004  6.9230983200000002  2.1874611000000002
 22.1906441600000015  9.7036610499999991  4.7109171400000003
 20.9584860699999993 10.9831188399999995  7.3080350400000000
 21.5351298600000014 13.4471154599999991  8.8520424799999997
 21.8281704300000001 15.4681257799999994 10.7019206300000000
 21.8436426600000004 17.1967022000000007 13.0941291199999998
 21.6809129700000014 19.0264699099999994 15.5646779899999999
 22.0490078400000016 21.8855599800000000 17.0899490999999983
  4.3029696499999996  3.9902116300000001 -0.1415228400000000
  4.2696043699999997  6.6352386499999998  1.7070916300000001
  3.6965127700000000  8.3458785199999994  4.6449608900000001
  4.1829955700000001 10.8964513899999993  6.5658253899999997
  4.6105339299999999 13.2988314499999998  8.5635188400000004
  4.5549569200000004 15.1241644599999994 10.7843193900000003
  4.1590227000000004 17.2967362199999997 12.7839860000000005
  3.6386724899999998 19.2403244600000001 15.7052395400000009
  4.0536659700000000 -0.1202320700000000 17.4764543199999984
  4.1300787000000003  2.1449031000000001 19.3909343700000001
  6.5775312300000000  4.6740978200000001  1.5967920799999999
  6.4978770800000003  6.7375133600000003  4.0519084000000003
  6.2845380600000000  8.1009708000000007  6.3668470499999996
  6.1683295800000000 10.4818768999999996  8.6436488699999998
  6.1514067700000004 12.8651227200000005 10.6783660600000001
  6.7635719200000004 15.7719560399999992 12.4519177299999999
  6.6094488699999996 18.0387241299999985 14.8161204299999998
  6.1898321300000001 19.4252825899999984 17.4904963699999989
  6.1212311499999998  0.6283592700000000 19.3749497599999998
  6.2203960000000000  1.6715205399999999 21.7487797699999987
  8.6462303800000004  4.1945956799999999  3.6284493400000000
  8.8949128000000002  5.7517601000000003  6.3256007399999996
  8.5155819699999995  8.1805449800000005  8.4035013599999999
  8.4505710799999996 10.1318873899999993 10.6686571800000003
  7.9592768500000002 12.4954117999999994 12.7230546300000000
  8.3281371499999999 15.5221249900000000 14.9854770500000001
  8.3493597600000005 17.1344723600000002 17.5550518900000014
  8.2378279499999998 19.3335045100000009 19.7540432899999985
  8.7981029100000008 -0.0350713500000000 -0.7910397300000001
  8.4153197700000000  1.9769345300000001  1.6676958900000001
 11.0789691700000006  3.5408062100000000  6.8497580800000000
 11.2421982099999997  6.3034073299999998  8.3138304499999993
 10.7241141599999992  8.0664026199999999 10.5540077399999994
 10.7959942000000009 10.6653228099999993 12.9377375499999996
 10.8326478599999998 13.3187209699999993 14.8582038999999995
 10.2351986999999998 15.0347718300000004 17.2206844799999992
 10.5475125799999994 17.6245005900000002 19.5620177499999990
 11.0218220599999999 18.9260653499999982  0.0256441200000000
 10.7736371700000007  0.0764617900000000  1.5983637799999999
 10.5620028599999998  1.7602709999999999  4.3575057599999996
 13.1541588199999993  3.9807989600000000  9.0439010700000004
 13.3621558500000006  6.3112481100000002 10.6413225300000001
 12.9672474999999991  8.1942969800000007 12.6510405600000002
 12.4566566800000000 10.8838850499999999 14.8310271000000000
 12.7819321699999993 12.9615538299999997 16.6603199199999992
 12.5594971900000001 15.0765125900000001 19.4128288900000001
 13.0725521100000002 16.9382702999999992 -0.5679587200000000
 13.4591709900000005 19.2356797800000017  1.8606971800000001
 13.5116024800000005  0.1461831800000000  3.8326983299999999
 13.3107976600000004  2.0908948399999998  6.5131785799999999
 15.0263761900000006  4.1809303900000003 11.1272582199999999
 15.5041647299999994  6.3537299200000001 13.3086792500000008
 14.8698833700000002  8.3702583399999995 14.9426179900000005
 14.8570648900000002 10.6846328800000006 16.4622843799999998
 15.4557800400000005 13.0663170799999993 18.7634943099999987
 15.3531200800000001 14.7467993300000000 -0.0903066900000000
 15.0152335899999994 16.5467550599999988  2.4069166300000000
 15.3472152099999999 20.2432755299999982  3.3862385100000001
 15.6069362799999993 -0.3531884400000000  6.0672484000000004
 15.4252436799999995  2.5238945300000002  8.8808465900000009
 17.7662443400000001  4.2568920099999996 13.1839377899999999
 17.4236092900000017  6.8616677099999999 15.8828109600000005
 17.3360077299999986  8.3978820200000008 17.5924687000000013
 17.0991068900000016 10.6123314900000008 18.8331360699999983
 17.8766391899999988 12.8913277900000001 -0.5641568400000000
 17.6540823899999992 14.5623876400000007  1.7035772400000000
 17.3830718200000014 17.1982035999999994  4.4048609000000001
 17.4560816800000005 19.0020307700000011  6.3228558000000001
 17.3081105800000010  0.4820058200000000  8.5090657299999997
 17.6994913199999999  2.8716447500000002 11.2197905599999999
 19.6351069299999992  4.4648811200000003 15.4106348600000000
 19.5927960100000007  6.5585519400000001 17.5732945700000016
 18.9894077999999986  8.9010366500000000 19.5106810099999990
 18.9404223499999986 10.9264635200000004 -0.1349640500000000
 19.0293664500000013 12.6900907600000004  2.0994999800000000
 19.4748286399999984 15.1843221400000008  4.6183172299999997
 19.5714857799999997 17.2241631499999990  6.6943827300000001
 19.1671564699999983 19.2902222399999985  8.5833756900000004
 19.0647154800000003  0.3915381300000000 10.5363258599999998
 20.0419539799999988  2.2216856300000001 13.2266016700000009
  0.2837347000000000  4.5840658000000003 17.4041378599999987
 -0.8389142700000000  6.1853390199999998 19.9701918599999999
 -0.0211412900000000  9.0257173799999997  0.0134668500000000
 -0.1024863800000000 10.7566185500000007  2.2792603100000002
  0.0062816700000000 13.0475656799999999  4.8441723999999997
 -0.3193578700000000 15.3060757499999998  6.3100496399999999
  0.0367900300000000 16.9355124100000012  8.4396282500000002
 -0.1613906500000000 19.5106953999999995 10.8779952200000007
 -0.0247429900000000 -0.4545062100000000 12.7428455300000003
  0.5436310800000000  3.0551220500000000 15.1409886199999999
  2.1925108500000001  4.2505535800000001 19.9996948600000017
  2.2564231000000001  6.7897992499999997 21.7823525999999994
  2.2938166799999999  9.1313001000000007  2.1938212500000001
  2.0806207699999999 10.6944622900000006  4.3509131099999996
  1.9994937500000001 13.0576657899999997  6.7931908999999999
  1.9633134200000000 15.3868502500000002  8.5617782200000008
  2.1799360000000001 16.9835658000000009 10.7072754799999998
  1.8060667699999999 19.3112728900000015 13.0690747599999995
  1.6168590700000001  0.2380132500000000 14.7977782300000005
  2.0610662300000002  2.0036287599999998 17.4694651999999984
  6.0635369199999998  6.8944678699999997 -0.6858026500000000
  6.8337516400000000  9.0199453300000005  2.6917910900000002
  6.9504730199999996 10.3743778300000002  4.5830827699999999
  6.4938672000000004 13.0563877700000006  6.9222822400000004
  6.6135278399999997 15.0250090800000002  8.9466616899999991
  6.1870488600000000 17.7236538400000008 10.6048258200000003
  5.6334044199999997 19.7612914300000000 12.8852194400000002
  6.6108462100000001 -0.3208249400000000 14.7928871300000004
  5.5302339099999998  2.1989658799999998 17.1963704799999988
  6.6815302900000004  4.1217948399999997 19.7600294699999992
  9.0356374899999992  6.3298198299999999  1.8998164500000001
  8.8151708800000002  7.9775009800000003  4.9990916800000003
  8.5656635500000000 10.3824290500000007  6.4481367900000004
  8.9342886200000002 12.4909890299999997  8.6895785100000005
  8.6740600499999996 15.2997238299999996 10.6150483399999995
  8.0273671899999997 17.9462229800000017 12.4983523000000005
  8.3276683200000008 19.3390621299999985 15.6898033199999993
  8.2834244100000003  0.5174641300000000 17.8962969399999992
  8.8021313899999996  2.1184090900000001 19.1057834699999987
  8.9389767899999999  4.0390058800000004 21.4936599999999984
 10.8498305899999998  5.8437885500000002  5.0080317599999997
 10.7980390499999999  8.5118500099999999  6.7492432600000001
 10.8625514899999995 10.3929260100000000  8.8344570099999995
 10.8296976199999992 12.6689846199999998 11.1344786800000008
  9.9566595499999995 15.0366334300000002 12.7814841500000007
 10.7134579300000006 17.4236381199999997 14.8698335000000004
 10.7979272300000009 19.3911807100000004 17.1811517199999990
 11.2774195400000004 -0.8759085500000000 19.6819963999999992
 11.5809364200000005  2.0937641000000000 -0.4459380000000000
 10.9839274299999996  4.0068153200000003  2.1735516300000000
 13.9160262899999996  6.4867571100000001  6.8068435899999997
 13.2391152499999993  8.7728745400000001  8.8308138100000004
 12.8451865099999996 10.4405428199999992 11.2687218500000004
 13.0648233400000002 13.5321749899999997 13.0365772999999994
 12.8897668299999992 15.2663652499999998 15.3854489200000000
 12.7984305500000008 16.9732108400000001 17.7489316200000005
 13.0724236000000005 18.9159216100000016 19.5821589200000012
 13.3592259999999996 -0.3289702300000000  0.2546901700000000
 12.5361314799999999  2.1658201899999998  2.5632939700000001
 13.1235196700000003  4.2149182800000000  4.8493638199999998
 15.7382483900000008  6.3289455900000000  8.9806718900000000
 15.6501861099999999  9.4368889700000000 11.2435530299999993
 14.4200503900000001 10.4144480500000007 13.0617553999999991
 15.4714759799999992 12.8673675000000003 15.2181054099999997
 15.2108108899999994 15.2110589199999993 17.2744475000000008
 15.4627799300000000 16.5497547500000017 19.4073668599999998
 14.7180411499999995 18.5374658500000002  0.5241993700000001
 15.2394788299999995  0.2326213400000000  1.5663919900000001
 15.2735591399999997  2.0924275699999999  4.1674644900000004
 15.8221251899999995  4.2862589599999996  6.7664279799999996
 17.4949349500000011  6.6474815999999999 10.7515239900000008
 17.2061396699999989  8.8503119300000002 13.1687272899999996
 17.0502426500000013 10.6517659800000004 15.2923857200000004
 17.4293393600000002 12.8783765300000006 17.1464106100000002
 18.0479030000000016 14.8704999800000000 19.3156144500000018
 17.7070718900000017 17.2833341400000009  0.1346909100000000
 17.2318162699999995 19.5910116999999993  1.7828695500000000
 17.2475125100000000  0.1013248900000000  4.5785248000000003
 17.4160103799999995  2.5177110900000002  6.3847270700000003
 17.6679477399999989  4.1883784899999998  9.0282351199999997
 19.2581061899999995  6.9108064599999999 13.3456808799999997
 19.5054853699999988  8.8255384400000008 15.5404481800000003
 19.2069305999999997 10.8665677400000007 17.2619442899999989
 20.0021960000000014 12.4620896699999992 18.8457391299999983
 19.8186253900000011 15.1035298200000003 -0.3932378800000000
 19.3065474500000001 17.4099617100000010  2.1547586299999999
 19.9354337100000016 19.4498509999999989  4.2858548399999998
 19.3537485400000016  0.0319431000000000  6.5613987099999997
 19.2819783800000017  1.9210449100000000  8.3899645300000003
 19.8513130400000009  4.8911216599999996 11.4723779700000001
  0.0195066700000000  6.4992067799999997 15.1651002399999992
  0.0615026900000000  9.0912213000000008 17.2709404000000006
 -0.1209575400000000 10.5378360700000009 19.1232600300000009
 -0.0673541300000000 12.8981380699999999  0.1300130000000000
 -0.3569344900000000 14.9003739900000003  2.2379017800000001
 -0.1312541800000000 16.7835226300000002  4.4130145299999999
 -0.0237192700000000 19.4669975000000015  6.2859777799999996
  0.1610499700000000 -0.4895397100000000  8.4696405600000002
  0.1587449300000000  2.2196889199999998 10.8490160600000003
 -0.1681659200000000  4.8948166899999999 12.5523224800000008
  2.1184193599999999  6.6040961700000000 17.4166715600000011
  2.2348948300000000  8.6052768099999994 19.4547733200000010
  1.9638123599999999 10.8195163099999991  0.5019346300000000
  2.1086159699999998 12.7451217400000001  2.3600010000000000
  2.2638043799999998 15.4021638200000002  4.4870205099999998
  1.9612368899999999 17.2764115999999994  6.5811152899999996
  1.3606632800000000 19.3172961500000007  8.0911878099999992
  2.2106623700000001 -0.3606428600000000 10.9156489800000003
  1.7875679600000001  2.3431677000000000 12.5116622799999995
  2.7258968200000000  4.6295452800000003 15.0689335399999997
  4.3878788399999999  6.5185552600000003 19.4173824400000008
  4.5119941299999997  9.0357903400000001 21.4797926500000003
  4.5716494900000004 10.7015692700000002  2.3546833899999999
  4.8854524300000000 13.0729377299999996  4.5421616100000000
  4.3201126299999997 15.5473332000000006  6.3222600399999997
  4.1738083499999998 17.3721967600000013  8.7087686299999998
  4.0615025700000000 19.4658158899999982 10.3052866299999994
  4.0094051300000002 -0.0893928200000000 12.6999957400000003
  3.2620067000000001  2.2673576199999999 14.8630029500000003
  4.3957858500000002  4.3390474299999999 17.7888684999999995
  8.5576490700000001  8.9103852200000002  0.0889051800000000
  8.6226888200000005 10.6983367900000008  2.7630896200000001
  8.8755790799999996 12.6257736699999992  4.4155249400000001
  9.4006042599999997 14.8735277099999994  6.6104687000000002
  9.0579439700000002 17.4405440499999997  8.9147177499999994
  8.1465782900000008 19.8686288699999984 10.7106128999999992
  8.3091623400000003  0.2094218400000000 12.8807723900000006
  8.5478249000000002  1.9421039499999999 15.8673427999999994
  8.2797746599999993  4.2614877599999996 17.6302809700000012
  8.6493652700000005  6.7888910899999999 19.3003644100000002
 10.6800025099999996  8.2947338700000000  2.7138408200000002
 11.0168269700000003 10.2649255499999992  4.5509651399999997
 10.8435386600000001 12.3758123500000004  6.9817031700000003
 11.0395344499999997 14.9666607900000006  9.0593795799999999
 10.9558768099999995 18.0366946599999984 10.7413269499999995
 10.8181319400000007 19.6390581500000003 13.2621603599999993
 10.6910062200000002 -0.1633502500000000 15.0772195000000000
 11.1740590700000002  2.1038871900000000 17.3303890000000003
 10.9594099400000005  4.4776566500000001 19.1097129499999987
 10.7672961800000007  6.5811128400000003 21.8615575000000000
 12.9991590299999995  7.8573209600000000  3.9931738399999999
 13.4891309199999991 10.8671769800000000  6.5181199699999999
 12.7451593800000005 13.0040789700000001  8.8250578300000004
 12.7077113599999993 15.1095071399999998 11.1099387499999995
 13.6174796699999998 17.4170129799999991 12.8829553499999996
 13.6584317500000001 20.2544239200000007 15.1373235099999999
 13.4088455900000003 -0.0075666600000000 17.1745000099999992
 13.5968999999999998  2.2274026400000002 18.9390445000000014
 13.4269824700000004  4.1718846200000002 -0.1055994700000000
 12.8314179900000003  6.5540530500000003  2.3123302799999998
 15.0927341399999992  8.4264686799999993  6.6849677800000000
 15.4892279599999991 10.9889054000000002  8.5622694100000007
 14.5631907799999993 13.1319156499999998 10.9244982499999992
 15.1226947200000001 15.2909983900000004 12.8835511799999995
 15.4354970799999993 17.6993469999999995 15.2836915399999995
 15.5125382300000005 18.7265373500000010 17.3217900000000000
 15.5316642100000006 -0.4609175700000000 19.2676713699999986
 14.9478570400000006  2.1067277400000002 -0.1595920100000000
 14.6487060899999992  4.2450580799999997  2.4387485299999998
 15.4216872299999999  6.4246489999999996  3.9710167500000000
 17.1975388600000016  8.4328380999999997  8.9224039299999998
 17.1589461300000004 10.7716208600000005 10.8971120700000004
 16.7617857500000014 12.9200467499999991 12.8973942400000006
 17.1712165399999996 15.0912188500000006 14.7131241100000008
 17.6958719400000000 16.7428310099999997 17.6334618799999987
 17.4725196499999988 18.8562609099999996 19.3754737400000003
 17.2539235700000013 -0.2385086500000000 -0.5987819700000000
 17.3202491199999997  1.9345654000000001  1.8788017699999999
 17.9513224499999993  4.4970168099999999  3.8348395900000001
 17.3547904700000011  6.0445608799999997  6.2707048900000002
 19.3194326799999985  8.5098655099999991 10.9257020600000008
 19.5737537900000014 11.3917099499999992 13.1517301199999999
 19.6844007800000007 12.9829504999999994 15.5315700700000008
 19.9207609099999985 15.2283610500000002 17.6125886200000004
 19.5535855299999994 17.3306969700000018 19.3908089900000000
 19.5878388200000018 19.6468395999999998 -0.2970812000000000
 18.9590330599999994 -0.1954156900000000  2.1168585499999999
 19.1151627499999996  2.2585035000000002  4.0955350099999999
 19.4071298699999986  5.0508902899999999  6.8696409300000001
 19.6855091500000015  6.6850097300000000  8.8099748899999994
 -0.5415360700000000  8.6504781699999995 12.8245161999999997
 -0.1589386600000000 11.1220795199999998 14.4570554100000006
 -0.2545045500000000 12.5584803600000008 17.3773417999999999
  0.2994246900000000 14.3659343899999996 19.3616474799999985
 -0.0014562500000000 17.1922461200000001 -0.1968058600000000
 -0.1432036400000000 19.2249703700000012  1.7276944700000001
 -0.3349494700000000  0.2279285900000000  4.0059315099999999
 -0.3006983900000000  1.9958068600000001  6.7492756199999997
 -0.4219337900000000  4.0102745899999999  8.4454284499999996
  0.3403023800000000  6.9957289100000004 10.9542644599999992
  1.9299833300000000  8.6464709200000005 14.9162092299999998
  2.8293967800000002 10.7670783599999993 16.9800195599999988
  1.9918336200000000 12.4675751500000001 19.3157323900000009
  2.1247786999999998 14.4516076000000009 -0.0440468800000000
  1.9225860299999999 17.1033055999999988  2.1379783799999998
  2.1275899800000002 19.4150063999999993  4.4764250299999997
  2.1682383999999999  0.3719334300000000  6.2202172300000003
  2.0872100900000001  2.0865737900000001  8.4155047199999995
  2.1852654199999999  4.4919350900000001 10.4317281600000005
  1.7286683100000000  6.2866783899999996 13.0046394900000006
  4.5558976199999996  9.0966395200000001 17.4171154500000007
  4.1461306599999999 11.0438906100000001 19.6617915399999994
  4.7832933200000003 12.8720828399999991  0.4973463500000000
  4.4065288100000002 15.1081567900000007  2.6449364399999999
  4.3817136799999998 17.3489436899999987  4.5124117799999999
  4.3384083899999997 19.1778689600000014  6.2952336500000001
  3.8631916500000001  0.2444921500000000  8.5275874399999996