Li                                      
   1.00000000000000     
    21.2169999999999987    0.0000000000000006    0.0000000000000000
     0.0000000000000006   21.2169999999999987    0.0000000000000000
    -0.0000000000000006   -0.0000000000000006   21.2169999999999987
   Li
   500
Direct
  0.0080343465145845  0.9964204736767712  0.0075611028891913
  0.0036713347787156  0.1097547315831662  0.0962408172691696
  0.9970235867464794  0.1986835994721190  0.2028705514445974
  0.0010108309374530  0.3012307691945111  0.2993322877880971
  0.9953313493896374  0.3989686336428306  0.4039365843427447
  0.9920307588254715  0.5036297030682917  0.4975021166988753
  0.0068198915963649  0.6060264735825029  0.6125757783852563
  0.9984793651317361  0.6940718079841659  0.7065562487627872
  0.9973667398784016  0.8135213856812911  0.8116973422255711
  0.9926571211764141  0.9128070061742974  0.9170496917566098
  0.1051290974218801  0.9911702003110747  0.1050768454541142
  0.1107614398831132  0.1013090055144446  0.1901681882452735
  0.1132593260121624  0.1923896106895384  0.2933688754300832
  0.0903694480840826  0.3065904995993805  0.3936208167978492
  0.1039237484092936  0.3983479568270738  0.4900165202432021
  0.1079734005750126  0.4948509808172687  0.5957206626761575
  0.1137059885940488  0.5996744850827156  0.7059080887967184
  0.1054898062874088  0.6970024650044806  0.7999871126926550
  0.1099154239524935  0.7966316114436509  0.9132250025922630
  0.1013527454399750  0.8931137766885016  0.9928262558325898
  0.1999417811189161  0.0097536861950331  0.1909332525804786
  0.2046156200216842  0.1160127850308683  0.3018025658669927
  0.2068467229108748  0.2112714785313656  0.4022835660083928
  0.2068300080124459  0.2972613413772009  0.5005594777772515
  0.2009538101522352  0.3837916557477499  0.6047145567233798
  0.2084939727576938  0.4948519927416726  0.7032674463873292
  0.2077059989630925  0.5991892685110969  0.7996206075316934
  0.2155117419993431  0.6993712588961714  0.9115869844935673
  0.2175196809162472  0.8007680878540810  0.0144990474619391
  0.1993340401564794  0.8956764698119457  0.1008012103501912
  0.2930201663760172  0.0098857430362429  0.3021636692275038
  0.3148156242635594  0.1031993651317364  0.4014036621577048
  0.3215766668237734  0.2145342291558663  0.4818462501767442
  0.3053627242305694  0.2891370523636709  0.6203885761417709
  0.3088496837441639  0.4026627850308699  0.7128044407786192
  0.2759705019559817  0.4812561516708271  0.8081769552717191
  0.3002214620351609  0.6081078743460466  0.9091457882829772
  0.3070946985907526  0.6901617052363704  0.9994334698590777
  0.2937154079276070  0.7975812268463969  0.0940784658528528
  0.2914607460998226  0.9057367422349998  0.1990359551303200
  0.3990856454729723  0.9984802403732829  0.4144156779940644
  0.3927096804449235  0.1045123122967411  0.5054922835462108
  0.3998159876514080  0.1941970363387853  0.5893385737851702
  0.3948593486355279  0.3032389494273460  0.6942879865202443
  0.3987794862610201  0.4007247862563048  0.8114672498468209
  0.4033472748267926  0.5032638294763601  0.9171854866380755
  0.4082211198567194  0.6004332473959550  0.9909286477824395
  0.4041371004383265  0.6986069599849145  0.1073815619550373
  0.3870231408775950  0.8048256831785849  0.1969589484847063
  0.3890623858226903  0.9094893043314300  0.3059573846443868
  0.5028254211245695  0.0092279728519600  0.5096388391384252
  0.4968919352406118  0.1056069524437930  0.6055385916953355
  0.4942807644813101  0.2039278983833697  0.7031988579912323
  0.5076395036998633  0.3003687632558822  0.7860415209501781
  0.4954171409718597  0.4062715044539758  0.9080689503699872
  0.5211029485789709  0.5131009779893461  0.0117288306546612
  0.4945293076306712  0.6174365244850861  0.1050860616486773
  0.4931878974407340  0.7029708526181864  0.2086193410944048
  0.4801502568694929  0.8053116731865941  0.3051643408587452
  0.4864364269218058  0.9085688358391835  0.4022125239195020
  0.5867414761747654  0.0166646203516052  0.5935479572983908
  0.6151345897157938  0.0991251312626673  0.6991204845171310
  0.6089103365225981  0.2119376735636536  0.7993906843568865
  0.5960160253570237  0.3038775152000781  0.9046779737945982
  0.5872797256916655  0.3930323490597161  0.0024295018145821
  0.6035369062544191  0.5064828364047713  0.1070280878540828
  0.6053964000565557  0.6100774030258762  0.2071526426921793
  0.5942033086675806  0.7069395508318834  0.3017905552151561
  0.5914237634915409  0.8121977895084100  0.3914837399255333
  0.5844433119668224  0.9053053867181973  0.5129371108073713
  0.6993210175802389  0.0107839454211245  0.6788057458641674
  0.7044095970212538  0.0974456893057436  0.7939545600226268
  0.6870764434180145  0.2005274751378607  0.8980021680727717
  0.7072460145166630  0.2953959669133255  0.0026591351274945
  0.6896045736909073  0.4216718065702025  0.1002529650751782
  0.6967244582174672  0.5136333058396545  0.2153816496205891
  0.7015592930197485  0.6072839341094394  0.3149507456285079
  0.6944369543290776  0.7035732624782014  0.4228902328321595
  0.6935563882735565  0.8052722024791450  0.4901453259178936
  0.7014766423151215  0.9144344879106399  0.6128183202149202
  0.8003657859263811  0.0142927675920248  0.7953535575246278
  0.7806806146015006  0.0891674935193478  0.9075728057689574
  0.7837742428241512  0.1930835188763709  0.9951620822925022
  0.7893044638733073  0.3001690559457018  0.0857482843945903
  0.8053049950511380  0.4051028722251004  0.1835693519347714
  0.8188394956874205  0.4911673719187419  0.3046768935287716
  0.8133582730829048  0.5977454861667510  0.3976675180279940
  0.8138894306452400  0.7051558311731156  0.5021446453315761
  0.7943062294386607  0.8083936626290225  0.5938179695527168
  0.8168904604798044  0.9014063199321285  0.6933697030682922
  0.8975982184097688  0.0047222580949224  0.9120464066550440
  0.8970127388414966  0.0933875302823211  0.0148831092991486
  0.8964302130367159  0.2112609775180303  0.0984721850403005
  0.8963145571946995  0.2991536216241713  0.2024912145920723
  0.8913796295423495  0.3971522877880957  0.2971428241504483
  0.9015073327991701  0.5122101013338352  0.3975457284253210
  0.9155122675213292  0.6080042847716456  0.5194920097091966
  0.8993938412593678  0.7207842465947110  0.5990571244756566
  0.9073732832162875  0.8114143582975899  0.7044444638733083
  0.8916589630956295  0.9096628189659270  0.8240525352311820
  0.1021338591695340  0.0997988033180945  0.0214342998538939
  0.1032222694066078  0.2322768167035889  0.0984134034029296
  0.1035304095772247  0.2813409624357845  0.2088932035631785
  0.1030429641325341  0.3976547457227682  0.2874469750671622
  0.1006189084224900  0.5008846047980384  0.3993226832257122
  0.1122943413300632  0.5923233473158334  0.5159153155488525
  0.1026885662440478  0.7001900268652506  0.6019055549794956
  0.0972466908611054  0.8088173125324047  0.7198627770184274
  0.1049115105811396  0.9072754696705445  0.8265782909930692
  0.1006661851345640  0.9939501187726805  0.8950597299335428
  0.1980983376537679  0.1122698718009119  0.0922611500212085
  0.2164425390017470  0.2017938535136921  0.1999337366262921
  0.2064527501531757  0.2967975321676022  0.3060940330866728
  0.2117929514068919  0.4007776594240440  0.4008162242541360
  0.2037674939906680  0.4795208752415547  0.4995289678088355
  0.2041593255408429  0.5931377381345158  0.5961970688598797
  0.2166715086958604  0.7045268732620045  0.6868013569307649
  0.2076845015789246  0.8118265984823481  0.8004567851251352
  0.2146501489371744  0.8947549615874095  0.9081452872696403
  0.1912625484281492  0.9910988532780323  0.0075044742423529
  0.3054758420134789  0.0984176712070521  0.1890380039590909
  0.2994643677239921  0.1975705580430756  0.2868295187821062
  0.3081428062402765  0.2956775552622872  0.3805731710420872
  0.2990272696422664  0.3876811094876729  0.4804986680492078
  0.3032065268416844  0.4798383230428414  0.5884279827496783
  0.2994093882264224  0.5896431342791146  0.6810487066974602
  0.2943100655134998  0.7163428123674436  0.7900188848564795
  0.3152050714050034  0.8002864547297008  0.8991469260498661
  0.3033148758071391  0.9025344902672359  0.9953346816232269
  0.2905825144930958  0.0084400400622116  0.0894334623179560
  0.4012208021869270  0.0989109289720531  0.2907231493613622
  0.4040484045812320  0.2036889536692286  0.3792231427628820
  0.4037221148135899  0.3087797662252001  0.4869407112221324
  0.3897910722533808  0.4000971725503106  0.6029066253476003
  0.3973831154263081  0.4871344110854494  0.7002653994438433
  0.3836998369232205  0.5939812951878238  0.8061668020926618
  0.3996090672573871  0.7013118277796124  0.8968090135268909
  0.3929539685158119  0.8054286953857783  0.0100841372484339
  0.3880076608380065  0.9092158825470165  0.1023364914926717
  0.4013848456426459  0.9921299481547834  0.1936024159871792
  0.4872014271574656  0.1072168346137516  0.3998634665598360
  0.4849098345666221  0.2103007032096897  0.4921279700240362
  0.5082480213979323  0.2994587425177926  0.5991088886270433
  0.4925485209973104  0.3838038488004898  0.7024650417118323
  0.4939401541216952  0.4995485676580103  0.7949110265353241
  0.5003607842767579  0.6138654569449002  0.8938735683649881
  0.4912189423575413  0.7027317863034384  0.9812662685582296
  0.4877398058160907  0.7984251590705540  0.0992941914502552
  0.4938626695574300  0.8995268171749089  0.2042533364754675
  0.4930066724796163  0.0051838874487444  0.3071814804166451
  0.5798906113022610  0.1093885049724292  0.4859708662864648
  0.6029354286656954  0.1923721176415114  0.6097158745345723
  0.6147829801574218  0.3074814488381961  0.7035587208370657
  0.5947394905028958  0.3965992345760441  0.7943860875712900
  0.5964018579441017  0.4962994066079105  0.8919752038459734
  0.6007750676344443  0.6177206428807054  0.9812245402271742
  0.5973465725597364  0.7151809195456451  0.1013303648018109
  0.5957827732478691  0.8031017830041947  0.2203676019229874
  0.6035516425507836  0.9073829170005183  0.3093237677334244
  0.5962927609935420  0.0051591271150500  0.4071707574115067
  0.6918639011170313  0.0988125710515178  0.5932664886647530
  0.7086043003252129  0.2024512037517070  0.6944090747985072
  0.7131949281236771  0.2939086440118786  0.8198500348776889
  0.6879153240326161  0.3961774553424107  0.9129464641561000
  0.6783555629919391  0.4988844059009310  0.9911940227176288
  0.6933738294763643  0.5993313786114882  0.0923467686289285
  0.6948344916811990  0.7054141966347771  0.1992957331385199
  0.7016514931422932  0.7971633567422316  0.3112147876702664
  0.7015886491963954  0.8949444860253593  0.3903194527972857
  0.6970842409388709  0.9998168817457724  0.4948202936324648
  0.7839027803176677  0.1127171551114685  0.6906759678559666
  0.8076726686147921  0.1979095300937956  0.8052249738417316
  0.7983798854692026  0.2830576089927916  0.9065519333553311
  0.8040114686336395  0.4068359042277407  0.0004283277560475
  0.7869293420370482  0.5044462256680973  0.0921266159211953
  0.7992105519159196  0.6022107215911774  0.1835182490455765
  0.8151651934769291  0.6832377032568218  0.2985102403732824
  0.8017548927746603  0.7835353367582627  0.3888453334590167
  0.7996659527737222  0.8943839138426739  0.4900855356553677
  0.8012381213178088  0.0038418885799132  0.5924154380920967
  0.8979133581561953  0.0971424683037156  0.8170754013291202
  0.9022140349719550  0.1808965127020770  0.9094708596879855
  0.8911344737710323  0.2899776174765520  0.9924954597728259
  0.8966266432577683  0.4039122081349831  0.0778070118301386
  0.9012834246123376  0.5008095461186812  0.1900593274261198
  0.9081398307960598  0.5900498524767883  0.2843675222698749
  0.9293064457746141  0.6920932902860883  0.4081827741905073
  0.9111254640147024  0.8067069741245234  0.4963914615638387
  0.9023330791346567  0.9025507583541525  0.6051638827355390
  0.8905413545741609  0.0144088330112666  0.7014012197765922
  0.0054159150681059  0.0880799406136603  0.9043440052787872
  0.9942833506150706  0.1915847169722369  0.9953262209548939
  0.9900042060611796  0.3071818079841648  0.0992442244426641
  0.0002098392798260  0.3970432610642405  0.1953459367488364
  0.9820491426686146  0.4922313159259062  0.2986072861384770
  0.9926122665786892  0.5842793948249039  0.4067580298817006
  0.0177972983928001  0.6988296394400706  0.5074152406089425
  0.0043657609464134  0.8065745458830165  0.5941389319884962
  0.9813506607908735  0.9084314582646016  0.7131854988924005
  0.9937875293396772  0.9930561658104367  0.8017406160154579
  0.1931511783004183  0.2068760984116480  0.0025057760286558
  0.2197316524485089  0.3074806763444400  0.0980333369467914
  0.2091964377621736  0.3973101225432458  0.1904758269312339
  0.2120759631427660  0.4828074100956812  0.2880947697601002
  0.2085628354621321  0.5868336866663526  0.3973417377574577
  0.2021608408351767  0.6945577998774581  0.4934587104680190
  0.2050848032238264  0.7868734024602944  0.5908103369939184
  0.2062230395437652  0.8997913635292463  0.7043192609699744
  0.2214254743837500  0.9869622604515271  0.8142823877079692
  0.2001813385492781  0.1016146024414368  0.9014082028562029
  0.3064049210538684  0.1963637856435909  0.0900897756515988
  0.3137872413630589  0.3023841198095880  0.1950488113305369
  0.3005410199368441  0.3992522010651811  0.2961452245840590
  0.3060579087524147  0.4909029462223700  0.3972867243248359
  0.2886390229532907  0.5966631140123511  0.5054274520431719
  0.3038910175802414  0.6878979992458909  0.5832363420841773
  0.3129541334778736  0.8036843696092788  0.6935611325823601
  0.3195434618466351  0.8988283263420840  0.7977039732290123
  0.3109748857048587  0.0103621770278579  0.9104866206343942
  0.2952514497808352  0.1088800080124415  0.0076056968468663
  0.3929384667954920  0.1954038629400969  0.2021538440872916
  0.3939106532497547  0.3024111938539846  0.2783878611490778
  0.3999966196917555  0.4015651670829996  0.3754038681246143
  0.3808819526794522  0.4805923273789858  0.4865219950982720
  0.3990309850591487  0.5847412772776579  0.5790804562379250
  0.3904823584861177  0.6848499076212491  0.6884262501767466
  0.4043635052080887  0.8008714549653604  0.7827715520573122
  0.4045888056746918  0.9081212028090704  0.9139802300042419
  0.4007454494037788  0.0181959174247055  0.0035241744827275
  0.3996626441061437  0.1062457543479312  0.0940259287363929
  0.4998841334778703  0.1983514794740060  0.2964865037469977
  0.4852857444502021  0.3131438469152101  0.3825894014233882
  0.5072277673563619  0.3990366654098096  0.5011942527218736
  0.4976947820144204  0.4943753245039346  0.5892803817693348
  0.5039885511618039  0.6039227152754876  0.6991087255502677
  0.5018683904416292  0.6961974562850557  0.7955598562473511
  0.5056263694207459  0.8042094056652687  0.8861767214969092
  0.5063974987038691  0.8963993161144330  0.0038419861431862
  0.5046866993448660  0.0079686609794010  0.1038007541122710
  0.4973413960503379  0.1019263251166507  0.1986173276146488
  0.5992363533958596  0.2073670476504716  0.4089945609652617
  0.5971942088890998  0.3096229320827604  0.5081650770608448
  0.5982113984069386  0.4004571395579006  0.6113508408351791
  0.5990861281048225  0.5023096196446275  0.6898027129188833
  0.6097536206815306  0.5978475562049326  0.8099640722062489
  0.6091882202950458  0.7081991582221789  0.9080959372201534
  0.5903812617240902  0.7915394363010790  0.0021367243248349
  0.5901716128576169  0.8827105702974052  0.1125543729085194
  0.6012603690436933  0.0108634260262974  0.2164798741575140
  0.6054266861479007  0.1030528764669825  0.3106331078851881
  0.6901217792336354  0.2103268770325712  0.5031533383607467
  0.7026458066644636  0.2921519983975145  0.6074491483244557
  0.7091317255031342  0.4019076495263221  0.7144648640241300
  0.6978296092755798  0.4976301248998425  0.8059988881557274
  0.7047395282085134  0.6067375109581974  0.9090502629966508
  0.6980488763727166  0.7121303252109144  0.0078822123768703
  0.6950025941462030  0.7994335085073274  0.1163742875995695
  0.7015016976952424  0.9060032884008109  0.2212915958900865
  0.7095013229957132  0.0052327308290501  0.3135412631380490
  0.7241021308384816  0.1013310284206028  0.4138025785926374
  0.7926689942027636  0.1978740665504048  0.5991555238723691
  0.8070357284253191  0.2924212188339510  0.7119279045105316
  0.8013134076448125  0.4062208691143923  0.8199414026488228
  0.8006641857944103  0.5177885365508814  0.9047031757552872
  0.7888822133195106  0.5979959565442812  0.0085641622284029
  0.7962868251873516  0.7036706805863204  0.1061899580525036
  0.7993246575858990  0.8059308177404887  0.2040395885374906
  0.8134312763350167  0.9062971579393917  0.3020804967714597
  0.8107923137107065  0.0066193151717968  0.4115587934203688
  0.8065938176933614  0.1054796898713306  0.5096700164962087
  0.8997856723382185  0.1940644978083625  0.7144912791629352
  0.8949750751755658  0.2929796106895424  0.8056404378564324
  0.8936100909647919  0.3993226148842908  0.8998636112551281
  0.9014462600744650  0.5117628274496866  0.0028547230994036
  0.9146086751190055  0.5998495432907589  0.0974333185653009
  0.8924804812178877  0.7094140934156599  0.1967286991563384
  0.9125718852806699  0.8031230555686477  0.3125572201536500
  0.9203170113588186  0.9064356563133344  0.4239701121742030
  0.9142543554696729  0.9925295211387066  0.5126191426686120
  0.9017056044681127  0.0900034637319109  0.6074119649337817
  0.9924419522081322  0.1938260456237941  0.8086683103171950
  0.9935651736814819  0.2985736484894161  0.8923580279964156
  0.0006153089503727  0.4061989527265837  0.9911672328792918
  0.0071333331762276  0.5019926521185809  0.0934556223782792
  0.0049927770184297  0.5933706570203157  0.1990072366498552
  0.0052904614224474  0.6795059598435245  0.3086297511429521
  0.0125058976292607  0.7861064325776468  0.4220164749964681
  0.0106189678088313  0.8970541278220310  0.5111556082386741
  0.0028337149455595  0.9900171084507718  0.6177819748315017
  0.9958375335815646  0.0908174831503032  0.7024034052882087
  0.0832214224442680  0.1922691817881912  0.9003345270302106
  0.0865566338313641  0.3059396050337000  0.9916487255502631
  0.0939650063628221  0.3978754281943750  0.1033879808644045
  0.0925046043267201  0.4949345322147352  0.2020512692652119
  0.0984273987839970  0.5739116901541195  0.2931769114389411
  0.0961553146062144  0.6709923811094853  0.4063120851204189
  0.1097886350567947  0.8048926582457483  0.5113915968327305
  0.0957178192015817  0.8988691577508590  0.6032479120516570
  0.1056282443323724  0.9835768501673172  0.7087306485365517
  0.1123731917801791  0.0923144073148876  0.8035870584908338
  0.2987463213460870  0.3051136070132472  0.9888742432954700
  0.3050898100579715  0.4019324734882375  0.0930616062591341
  0.3117091224018509  0.5032175152000775  0.1953875694018947
  0.3056029264269213  0.5967505877362527  0.2977851939482505
  0.2975674888061448  0.6951785035584663  0.4076079073384520
  0.2887946816232301  0.8032874789084232  0.5012185931093001
  0.2984999514540192  0.8877177692416467  0.5968452071452148
  0.3092302752509752  0.0103004864024143  0.6892518749116263
  0.2981021925814176  0.1059071192911318  0.7974813932224194
  0.3007465004477510  0.2122416807277219  0.9035651798086448
  0.3896746514587335  0.3069480902106818  0.1032630659376892
  0.3985312508837282  0.4065922298157147  0.2018335188763700
  0.3989652490927114  0.4965642777018431  0.2928894042513051
  0.3988240797473708  0.5848682603572612  0.3986495234953082
  0.4056232205307069  0.7048331305085540  0.4895147315831636
  0.3998196366121505  0.7915123358627483  0.5887723471744337
  0.4168239722863731  0.9058570000471349  0.6850139539048854
  0.4098607300749393  0.0152270542489532  0.7948998208983369
  0.4159416854409201  0.1150478672762389  0.8997817264457737
  0.4039403954376226  0.2132604053353475  0.9944806749304789
  0.5021555045482415  0.2973120158363542  0.1894735019088500
  0.5136130192769954  0.3976539326954764  0.2837938497431338
  0.4984313611726421  0.4770183748880612  0.3947014031201377
  0.4904298802846796  0.5803816354809825  0.4881535471555836
  0.4990450921430920  0.6772597285195801  0.5902791525663389
  0.5033572182683699  0.7758045675637462  0.6817832992411752
  0.5008323368053951  0.8964183357684874  0.7900170000471292
  0.5101215581844727  0.9931427859735109  0.9070712749210514
  0.4987038502144472  0.1075254032144031  0.9941268280152684
  0.4994070401093467  0.2028405410755525  0.0918957722580984
  0.6120671329594174  0.2942072903803563  0.2936363486826608
  0.5991778564358796  0.3937867050007071  0.3871822382994736
  0.6080698147711772  0.4869039058302320  0.4998618348494119
  0.6008253739925564  0.6014146524013739  0.5950423938351292
  0.6250591214592092  0.6966490535891054  0.7031983730027775
  0.5969540962435786  0.8017834411085474  0.7951239656878926
  0.5988017151340870  0.8933258377715987  0.8903596026771012
  0.5789429721449793  0.9966804270160736  0.9951475246264820
  0.5910021346090417  0.1051749135127480  0.0974874049111563
  0.6080377480322383  0.1908435217042950  0.2140115699674823
  0.7018713310081566  0.3196765423952499  0.4040064000565593
  0.7024672630437863  0.3934500268652528  0.4997785012018667
  0.7187865951831043  0.5052881906018740  0.6000964537870601
  0.6955490578309877  0.5928416123862945  0.6990164688693028
  0.6972369953339310  0.6975301913559875  0.8027539661592087
  0.7020132092190252  0.8132643474572276  0.8898974162228370
  0.6912162944808387  0.8959334557194722  0.0088828345194898
  0.6817621534618468  0.9930929905264634  0.1046036371777319
  0.6959126139416512  0.0951111519064867  0.1869503737568934
  0.7076773879436331  0.1861449017297474  0.3251293519347698
  0.8066737512372129  0.2963090955365999  0.4975285832115759
  0.7863028222651636  0.3897742282132270  0.6057705702974019
  0.7999272932082775  0.5108225423009856  0.7010230814912575
  0.7981791591648175  0.6023349771409698  0.7921610274779667
  0.7885787891784872  0.6988948512984905  0.9057181227317699
  0.7889624800867239  0.8106489197341773  0.0066502182212389
  0.7974042635622354  0.9086857595324531  0.1046359046990588
  0.8059378691615180  0.0056171852759590  0.1910093967101858
  0.8102601461092505  0.0874576358580370  0.3048486284583092
  0.8107218235377260  0.1998034792854781  0.4240130192769982
  0.9074163976999543  0.2941550209737471  0.6169771376726203
  0.8995938473865266  0.3940524357826263  0.7052270971390868
  0.8969054635433835  0.4997499665362710  0.7913951435169935
  0.9005498972522048  0.5905870551915910  0.8861228001131138
  0.8825781114200879  0.6988066644671704  0.0018043248338628
  0.9043894084931878  0.7950081906018767  0.0894963114483645
  0.9082469595135976  0.8801789357590621  0.1885410435028518
  0.8999945939576719  0.9922347254560009  0.3037431069425480
  0.9005979403308686  0.0979707300749411  0.4091813248809899
  0.9056340260168696  0.2005632634208396  0.5069715798652012
  0.9884355135033260  0.3083968119903844  0.7071826747419507
  0.9913593905830211  0.4051746043267173  0.7965912786916149
  0.9997512475844843  0.5072311038318347  0.8902685478625614
  0.0073462091718923  0.5967665838714211  0.0024105825517253
  0.0114987986048902  0.6945644304095779  0.0958449738417286
  0.0199447089597982  0.8065561620398753  0.2049843257765005
  0.0038864914926720  0.8913929909977867  0.3025510557571778
  0.0112886435405599  0.0000677202243509  0.4021268586510800
  0.0002704501107615  0.0962502752509806  0.4965122444266399
  0.0055113870952539  0.2013102658245742  0.6072633883206890
  0.0830406683319964  0.2899723693264846  0.8056580011311709
  0.0784425050666897  0.3941588447942692  0.9063327675920263
  0.1012990719705869  0.4979400447754188  0.9874506277984665
  0.1132560918131702  0.5954696941132127  0.0972896842154896
  0.1108394490267273  0.6901464971485112  0.1930330767780575
  0.0995442098317412  0.7897964207946444  0.2984199344864962
  0.0988469802516860  0.9008478031766955  0.4093958509685649
  0.0969353183767723  0.0104253461846611  0.5137541631710434
  0.0994991030777186  0.0912944157986502  0.6258097742376378
  0.1018072276947706  0.1970632337276683  0.7075362737427540
  0.2030068044492594  0.3114364137248415  0.9140327138615234
  0.1820595989065339  0.4031140896450935  0.9943078394683482
  0.1946429829853429  0.5040663081491275  0.0974004387990774
  0.2100988113305391  0.5829849257670716  0.2101809944855546
  0.1907176631946115  0.6853001347975649  0.3026617118348511
  0.1982795187821083  0.7826997619833165  0.3977690479332594
  0.1865172262808130  0.9091520474148069  0.4973082575293404
  0.1857304053353417  0.9969633510863929  0.6063577843238903
  0.2132314733468448  0.0952371569967454  0.7084049644153296
  0.1992118645425833  0.2083621374369642  0.8086410722533799
  0.3952382202950488  0.4043714700476002  0.0106396903426500
  0.4067260739030019  0.5133833449592302  0.0914398105292946
  0.4068221454494036  0.6010142442381081  0.1927367200829551
  0.3962197808361196  0.6898264552010147  0.3027671923457618
  0.3937639317528365  0.7998986369420749  0.3984246514587326
  0.3826808205684102  0.9046135033228069  0.5003504091059057
  0.3856847028326342  0.0209004680209262  0.5905225922609247
  0.4017470514210331  0.1159073540085771  0.6985366856765793
  0.3962204006221413  0.2131910109817596  0.8111134500636297
  0.3981558919734169  0.2957456063533925  0.9017043385021424
  0.5009309671489817  0.4025214757034448  0.1058504006221455
  0.5109549243531148  0.4973260687184791  0.1902104039213839
  0.4914221525192062  0.5906677051421028  0.2957320007541142
  0.5103638459725701  0.6978952325965011  0.3963131389923191
  0.4922440538247628  0.7997447033039577  0.5049573342131310
  0.4879186392986767  0.9032624192864205  0.5845443832775601
  0.4888480850261558  0.0001344473770999  0.6852611321110444
  0.5112805090257808  0.1037161582693145  0.7964434486496685
  0.5101601088749561  0.2040731206108291  0.8963156360465661
  0.4958230211622734  0.2927013880378908  0.0012159801102882
  0.6139161658104371  0.3949016840269621  0.1994916844982768
  0.6003781265023349  0.5019514667483591  0.2880901918273082
  0.5937912937738616  0.5917722100202667  0.3920835499835036
  0.5981351948908866  0.6979184125936726  0.4964068223594253
  0.5982830786633357  0.7943819088466810  0.5891098779280739
  0.5861712980157421  0.8958376636659295  0.6760033854927627
  0.5901649837394558  0.9988876188905138  0.7785591384267363
  0.5959506296837418  0.0903814469529181  0.9078082466889725
  0.5964109643210662  0.1996348107649553  0.9927292331620876
  0.6038442399962278  0.2893310336051300  0.0909366503275706
  0.7086573403402951  0.4088984319178053  0.2905337814017059
  0.6986788490361491  0.4824858976292603  0.3977036729980696
  0.7072282462176531  0.5842287052835005  0.4943307296036181
  0.7038141900362902  0.6906394306452341  0.5781568864589701
  0.7016484130649943  0.8063440373285573  0.6858791483244602
  0.6968096191733011  0.9072786345854738  0.7856985638874505
  0.6904626021586466  0.9935812555969292  0.8879017335155766
  0.6894113187538267  0.0896038087382749  0.9939104350285177
  0.6944206871848024  0.2008050157892285  0.0997593679596562
  0.7012478606777606  0.2904392515435745  0.1935526544751838
  0.8026727812603127  0.4020960875712873  0.4034039567328094
  0.7977084611396492  0.4935548201913562  0.4953436569731835
  0.8055678111891424  0.6093461898477628  0.6047930023094708
  0.8177726120563733  0.7092614898430512  0.6926009657350249
  0.7883264886647510  0.8116888985247712  0.7911040839892536
  0.7852682843945900  0.9019317820615527  0.8991167332799179
  0.7965384135363180  0.9985820082952372  0.0004398260828609
  0.7897354748550711  0.0984011217420004  0.0898562591318282
  0.8069508205684102  0.2052171037375672  0.1943144308808940
  0.7870569538577570  0.3067308596879883  0.2992396974124532
  0.8944176061648648  0.3921455012489972  0.4974294542112432
  0.8902427388414935  0.4730788174576972  0.6035694315878786
  0.9017798586039518  0.6030210265353233  0.7040479893481617
  0.8910937389828888  0.7053773521232998  0.7862034745722752
  0.8859193274261230  0.7906769675260392  0.8944315562991960
  0.8902714097186220  0.9029330093792680  0.0035784187208350
  0.9004795168968300  0.9966527313003724  0.0993163260592951
  0.8969139166705915  0.1096076862892943  0.1934261361172673
  0.8838900838949897  0.1997616496205907  0.3000746283640510
  0.9037514210303073  0.3006219738888660  0.3944977216383094
  0.0002414474242372  0.3871254267804147  0.5954836013574010
  0.9976581420558972  0.5026025630390691  0.6949657076872313
  0.9990291242871265  0.6013572686996298  0.8019496337842327
  0.0037869835509241  0.6953492496582925  0.8979098826412795
  0.0018169863788486  0.8007927878587893  0.0005491129754418
  0.9950372291087319  0.8924495206673910  0.1115524357826274
  0.0023368388556335  0.9904885280671181  0.1887708733562690
  0.9905223287929488  0.0921450827166908  0.2850683164443595
  0.0081275580902087  0.2045679785078036  0.3840790210680112
  0.9954513743696083  0.3031944233397752  0.5049774430880873
  0.0923823726257211  0.4043395550737614  0.6952627298864087
  0.1120471918744386  0.5014845006362805  0.7817044511476610
  0.1008861182071001  0.5971946773813457  0.8965849295376316
  0.1083060442098329  0.6947683367111281  0.9956195376349157
  0.0985465381533643  0.7993469708252832  0.1000066314747627
  0.1171347490220072  0.9124241862657314  0.2015672272234497
  0.1105686685205285  0.0041545529528193  0.2892160800301653
  0.0960009530093799  0.1092410854503498  0.4039988561059502
  0.0919486341141535  0.2013832869868537  0.5059710821511061
  0.0955369133242243  0.2985485879247776  0.6066299184616142
  0.1856264825375860  0.3859334180138561  0.8102879704953594
  0.1879515727953986  0.4937682283074878  0.9136968143469844
  0.1971526959513596  0.5928865612480578  0.0039185648300872
  0.2058785464486022  0.7028632115756253  0.1001874086817196
  0.1982997011830108  0.8010869251072279  0.2181615002120907
  0.2035106334543073  0.9045325413583427  0.2998138586982151
  0.1843126337371004  0.0153463416128545  0.4013227350709343