Li 
 1.0000000000000000
    21.2169999999999987    0.0000000000000006    0.0000000000000000
     0.0000000000000006   21.2169999999999987    0.0000000000000000
    -0.0000000000000006   -0.0000000000000006   21.2169999999999987
 Li 
 500
Cartesian
  0.1704647300000000 -0.0759468100000000  0.1604239200000000
  0.0778947100000000  2.3286661400000002  2.0419414200000001
 -0.0631505600000000  4.2154699300000003  4.3043044899999998
  0.0214468000000000  6.3912132300000000  6.3509331500000004
 -0.0990547600000000  8.4649175000000003  8.5703225100000004
 -0.1690833900000000 10.6855114100000002 10.5555024100000008
  0.1446976400000000 12.8580636899999998 12.9970202900000000
 -0.0322633100000000 14.7261215500000002 14.9910039299999998
 -0.0558698800000000 17.2604832399999992 17.2217825100000006
 -0.1557938600000000 19.3670262499999986 19.4570433099999995
  2.2305240600000000 -0.1873418600000000  2.2294154300000000
  2.3500254699999998  2.1494731699999998  4.0347984500000003
  2.4030231199999998  4.0819303700000003  6.2244074300000003
  1.9173685800000000  6.5049306299999996  8.3514528699999993
  2.2049501700000000  8.4517486000000002 10.3966805099999995
  2.2908716400000002 10.4992532599999997 12.6394053000000000
  2.4124999599999999 12.7232935499999993 14.9772519200000005
  2.2381772199999999 14.7883013000000005 16.9733265700000011
  2.3320755499999999 16.9021329000000016 19.3758948800000006
  2.1504012000000001 18.9491949999999996 21.0647946700000013
  4.2421647699999996  0.2069439600000000  4.0510308200000003
  4.3413296099999998  2.4614432599999998  6.4033450399999996
  4.3886669200000004  4.4825469599999996  8.5352504200000006
  4.3883122800000001  6.3069938800000003 10.6203704400000003
  4.2636369900000002  8.1429075599999994 12.8302287499999998
  4.4236166199999998 10.4992747299999998 14.9212254099999999
  4.4068981799999998 12.7129987100000008 16.9655504300000004
  4.5725126300000003 14.8385599999999993 19.3411410500000009
  4.6151150699999999 16.9898965199999985  0.3076262900000000
  4.2292703300000003 19.0035676600000016  2.1386992800000000
  6.2170088699999999  0.2097458100000000  6.4110065699999996
  6.6794431000000003  2.1895809300000000  8.5165814999999991
  6.8228921400000004  4.5517727399999997 10.2233318900000008
  6.4788809199999999  6.1346208400000002 13.1627844199999995
  6.5528637400000003  8.5432963100000006 15.1235718200000004
  5.8552661400000003 10.2108117699999994 17.1470904600000011
  6.3697987600000001 12.9022247700000001 19.2893461899999998
  6.5156282200000000 14.6431608999999998 -0.0120200700000000
  6.2317598099999998 16.9222808899999997  1.9960628100000000
  6.1839226500000004 19.2170164600000000  4.2229458600000003
  8.4674001400000005 -0.0322447400000000  8.7926574399999993
  8.3321212899999999  2.2174377299999999 10.7250297799999998
  8.4828958100000005  4.1202785200000003 12.5039965199999994
  8.3777308000000001  6.4338207900000004 14.7307082099999995
  8.4609043600000007  8.5021777899999993 17.2169006399999986
  8.5578191300000004 10.6777486699999997 19.4599244700000007
  8.6612275000000007 12.7393922100000001 -0.1924668800000000
  8.5745768600000005 14.8223438699999992  2.2783145999999999
  8.2114699800000004 17.0759865200000007  4.1788780100000000
  8.2547366400000008 19.2966345699999984  6.4914978300000001
 10.6684469600000007  0.1957899000000000 10.8130072500000001
 10.5425561900000009  2.2406627100000001 12.8477122999999995
 10.4871549799999997  4.3267382200000002 14.9197701699999996
 10.7705873499999996  6.3729240500000000 16.6774429499999997
 10.5112654800000005  8.6198625100000008 19.2664989200000001
 11.0562412600000002 10.8864634500000008  0.2488506000000000
 10.4924283200000001 13.1001507400000001  2.2296109700000000
 10.4639676200000000 14.9149325800000003  4.4262765599999998
 10.1873480000000001 17.0862977700000016  6.4746718200000002
 10.3207216699999993 19.2771049900000015  8.5337431200000005
 12.4488938999999998  0.3535732500000000 12.5933070100000002
 13.0513105899999999  2.1031379100000001 14.8332393200000006
 12.9192506100000006  4.4966816200000004 16.9606721500000006
 12.6456720100000002  6.4473692399999996 19.1945525699999990
 12.4603139400000007  8.3389673500000008  0.0515467400000000
 12.8052425400000001 10.7460463399999995  2.2708149400000002
 12.8446954200000008 12.9440122599999992  4.3951576200000000
 12.6072115999999994 14.9991364500000000  6.4030902100000002
 12.5482379900000005 17.2324005000000007  8.3061105099999999
 12.4001337500000002 19.2078643900000010 10.8829866800000001
 14.8374940300000002  0.2288029700000000 14.4022215100000004
 14.9454584199999996  2.0675051899999999 16.8453339000000000
 14.5777009000000000  4.2545914399999996 19.0529119999999992
 15.0056386899999996  6.2674162300000003  0.0564188700000000
 14.6313402400000001  8.9466107200000007  2.1270671600000002
 14.7824028300000005 10.8977578499999996  4.5697524600000001
 14.8849835200000005 12.8847432299999998  6.6823099700000004
 14.7338688599999994 14.9277139099999996  8.9724620700000006
 14.7151858900000008 17.0854603199999993 10.3994133800000004
 14.8832299199999998 19.4015565300000006 13.0021663000000007
 16.9813608800000004  0.3032496500000000 16.8750164299999987
 16.5637006000000007  1.8918667100000000 19.2559722200000003
 16.6293381099999991  4.0966530199999998 -0.1026461000000000
 16.7466728099999997  6.3686868600000004  1.8193213500000001
 17.0861560799999985  8.5950676399999999  3.8947909400000000
 17.3733175799999984 10.4210981300000007  6.4643296499999998
 17.2570224799999998 12.6823659800000001  8.4373117299999993
 17.2682920499999994 14.9612912700000003 10.6540029399999998
 16.8527952700000014 17.1516883399999998 12.5990358600000008
 17.3319648999999991 19.1251378900000013 14.7112249899999998
 19.0443414000000004  0.1001921500000000 19.3508886099999984
 19.0319192800000003  1.9814032300000000 21.5327749299999986
 19.0195598299999986  4.4823241600000001  2.0892843499999998
 19.0171059599999985  6.3471423900000001  4.2962560999999999
 18.9124015999999990  8.4263800900000003  6.3044792999999997
 19.1272810799999995 10.8675617199999994  8.4347277199999997
 19.4244237800000015 12.9000269099999993 11.0220619699999993
 19.0824391300000009 15.2928793600000006 12.7101950099999996
 19.2517389500000000 17.2157784400000011 14.9461981900000005
 18.9183282199999994 19.3003160300000012 17.4839226399999994
  2.1669740900000001  2.1174312099999999  0.4547715400000000
  2.1900668900000002  4.9282172199999996  2.0880371800000002
  2.1966047000000000  5.9692112000000002  4.4320871000000004
  2.1862625699999998  8.4370407400000005  6.0987624699999996
  2.1348313800000001 10.6272686600000004  8.4724293700000004
  2.3825490399999998 12.5673244600000000 10.9461752499999996
  2.1787433100000002 14.8559318000000005 12.7706301599999996
  2.0632830400000000 17.1606769200000002 15.2733285399999996
  2.2259075199999998 19.2496636400000014 17.5375115999999984
  2.1358344499999999 21.0886396699999992 18.9904822899999992
  4.2030524299999996  2.3820298700000002  1.9575048200000000
  4.5922613500000002  4.2814601899999998  4.2419940900000004
  4.3803080000000003  6.2971532400000001  6.4943970999999996
  4.4936110500000002  8.5032996000000001  8.5041178300000002
  4.3233349199999997 10.1739944100000006 10.5985061100000006
  4.3316484099999997 12.5846033899999998 12.6495132100000003
  4.5971194000000004 14.9479466700000003 14.5718643900000000
  4.4064420699999998 17.2245249399999985 16.9832916099999984
  4.5542322100000003 18.9840160199999985 19.2681185600000013
  4.0580174900000001 21.0281443699999997 21.3762224299999986
  6.4812809400000004  2.0881277300000001  4.0108193300000003
  6.3537354900000000  4.1918545299999996  6.0856618999999998
  6.5378659199999998  6.2733906900000003  8.0746209699999998
  6.3444615799999999  8.2254301000000005 10.1947402399999998
  6.4331328799999996 10.1807297000000005 12.4846765099999999
  6.3525689900000000 12.5104583799999993 14.4498104099999995
  6.2443766600000004 15.1986454500000008 16.7618306799999992
  6.6877060000000004 16.9796777100000007 19.0772003300000002
  6.4354317200000004 19.1490742800000007 -0.0989840600000000
  6.1652892100000001 21.3960723299999991  1.8975097700000001
  8.5127017600000006  2.0985931799999999  6.1682730599999998
  8.5726949999999995  4.3216685300000002  8.0459774199999998
  8.5657721099999993  6.5513802999999999 10.3314210699999993
  8.2701971800000003  8.4888617100000001 12.7918698699999993
  8.4312775599999998 10.3355308000000008 14.8575309799999999
  8.1409594399999996 12.6025011399999993 17.1044410400000011
  8.4785055800000002 14.8797330500000005 19.0275968400000011
  8.3373043500000001 17.0887806299999987  0.2139551400000000
  8.2323585399999999 19.2908333799999987  2.1712733399999999
  8.5161822699999998 21.0500211099999994  4.1076624600000002
 10.3369526799999996  2.2748195800000000  8.4839031699999996
 10.2883319600000007  4.4619500199999997 10.4414791400000002
 10.7834982700000008  6.3536161399999997 12.7112932900000004
 10.4504019699999997  8.1431662599999992 14.9042007900000009
 10.4799282500000004 10.5989219600000002 16.8656272499999993
 10.6161547600000006 13.0243833999999996 18.9653154999999991
 10.4221923000000007 14.9098603099999991 -0.3974735800000000
 10.3483754599999997 16.9401866000000005  2.1067248599999999
 10.4782842600000006 19.0852604799999988  4.3336430400000001
 10.4601225699999993 21.3269865400000000  6.5174694700000000
 12.3035391000000001  2.3208959100000000 10.3108438699999994
 12.7924809899999996  4.0815592199999999 12.9363417100000007
 13.0438504900000005  6.5238338999999996 14.9274053799999997
 12.6185877699999995  8.4146459599999996 16.8544896199999990
 12.6538582200000000 10.5299845100000002 18.9250378999999995
 12.7466446100000006 13.1061788799999999 -0.3983589300000000
 12.6739022299999995 15.1739935700000004  2.1499263499999999
 12.6407231000000007 17.0394105300000014  4.6755394099999998
 12.8055552000000006 19.2519433500000012  6.5629223799999998
 12.6515435099999998 21.3264612000000007  8.6389419600000004
 14.6792763900000001  2.0965063200000000 12.5873350899999998
 15.0344574400000006  4.2954071899999997 14.7332773400000008
 15.1318567900000005  6.2358596999999998 17.3947581900000010
 14.5954994300000003  8.4056970700000004 19.3699851299999999
 14.3926699800000009 10.5848304399999993 -0.1868364200000000
 14.7113125399999998 12.7160138600000003  1.9593213899999999
 14.7423034099999999 14.9667730100000007  4.2284575699999998
 14.8869397299999999 16.9134149399999991  6.6030441499999997
 14.8856063699999996 18.9880371600000011  8.2814078299999991
 14.7900363400000003 21.2131147800000015 10.4986021699999998
 16.6320652899999999  2.3915198800000002 14.6540720100000001
 17.1363910100000005  4.1990464999999997 17.0844582699999989
 16.9392260300000004  6.0056332899999996 19.2343123700000014
 17.0587113300000013  8.6318373800000003  0.0090878300000000
 16.6962798499999998 10.7028355699999995  1.9546504099999999
 16.9568502800000012 12.7771048799999996  3.8937066900000001
 17.2953599099999984 14.4962543499999992  6.3334917700000002
 17.0108335599999982 16.6242692400000003  8.2501314400000005
 16.9665125199999984 18.9761434999999992 10.3981448099999998
 16.9998692200000008 21.2985133500000003 12.5692783499999994
 19.0510277200000004  2.0610717500000000 17.3358887899999985
 19.1422751799999986  3.8380813100000002 19.2962432300000017
 18.9072001299999997  6.1524551100000000 -0.1592238300000000
 19.0237274899999989  8.5698053200000004  1.6508313699999999
 19.1225304200000004 10.6256761399999995  4.0324887499999997
 19.2680027900000006 12.5190877199999999  6.0334257200000003
 19.7170948599999996 14.6841433400000003  8.6604139199999999
 19.3313489700000005 17.1159018699999983 10.5319376400000007
 19.1448009399999997 19.1494194399999991 12.8397620999999997
 18.8946159199999997 21.5227122100000017 14.8816296799999996
 21.3319094699999994  1.8687921000000001 19.1874667599999995
 21.0957098499999987  4.0648529399999997 21.1178364300000005
 21.0049192399999995  6.5174764200000004  2.1056647100000001
 21.2214521599999983  8.4240668700000008  4.1446547400000000
 20.8361366600000011 10.4436718299999995  6.3355507900000001
 21.0602544599999995 12.3966559200000006  8.6301851200000002
 21.5946052799999997 14.8270684599999996 10.7658291599999991
 21.3096283500000006 17.1130921399999991 12.6058457199999996
 20.8213169700000016 19.2741902500000002 15.1316567299999996
 21.0851900100000016 21.0696726699999992 17.0105306499999998
  4.0980885499999999  4.3892901799999997  0.0531650500000000
  4.6620464699999999  6.5238175099999998  2.0799733100000002
  4.4385208199999999  8.4297288699999999  4.0413256200000003
  4.4996157099999996 10.2437248200000006  6.1125067299999998
  4.4250776800000002 12.4508503299999997  8.4303996500000000
  4.2892465599999996 14.7364328400000009 10.4697134599999995
  4.3512842699999998 16.6950929799999983 12.5352229200000007
  4.3754342299999998 19.0908733599999998 14.9435417600000005
  4.6979842900000000 -0.2766217200000000 17.2766294199999990
  4.2472474599999996  2.1559570199999998 19.1251778399999992
  6.5009932099999999  4.1662504399999998  1.9114347700000001
  6.6576238999999999  6.4156838699999996  4.1383506299999997
  6.3765788199999998  8.4709339499999992  6.2833132300000001
  6.4936306500000001 10.4154878100000001  8.4292324300000008
  6.1240541500000001 12.6594012899999999 10.7236542499999992
  6.4476557200000002 14.5951318499999996 12.3745254700000000
  6.6399478500000004 17.0517712699999997 14.7152865500000001
  6.7797536300000001 19.0704406000000013 16.9248851999999985
  6.5979541499999996  0.2198543100000000 19.3177946300000016
  6.2643500100000002  2.3101071300000000 21.3783700699999990
  8.3369754500000006  4.1458837600000003  4.2890981100000003
  8.3576023300000006  6.4162583000000000  5.9065552500000003
  8.4867282799999995  8.5200081500000007  7.9649438699999999
  8.0811723900000008 10.1967274099999994 10.3225371700000004
  8.4662404099999993 12.4064556800000005 12.2863500400000003
  8.2848641999999995 14.5304604899999994 14.6063397500000001
  8.5793804900000001 16.9920896600000013 16.6080640200000005
  8.5841606899999991 19.2676075599999983 19.3919185399999989
  8.5026162000000003  0.3860627800000000  0.0747724100000000
  8.4796423200000000  2.2542161699999999  1.9949481300000000
 10.6060416600000007  4.2084233400000004  6.2905541500000002
 10.2963076400000002  6.6439729999999999  8.1173993299999996
 10.7618515400000003  8.4663609300000005 10.6338384599999998
 10.5595901899999998 10.4891612599999995 12.5027618599999997
 10.6931250900000006 12.8134282499999994 14.8329898300000007
 10.6481416400000004 14.7712214300000007 16.8793934700000001
 10.7278746799999993 17.0629109600000000 18.8020114999999990
 10.7442357299999998 19.0189042899999983  0.0815154200000000
 10.7079377000000004  0.1690710800000000  2.2023405999999999
 10.5520923999999994  2.1625708399999999  4.2140638399999997
 12.7139977099999992  4.3997066499999997  8.6776376000000006
 12.6706695299999996  6.5692697500000001 10.7817384399999998
 12.6922512399999992  8.4964991300000001 12.9710307900000004
 12.7108103799999999 10.6575032000000007 14.6355441600000002
 12.9371425700000007 12.6845315999999997 17.1850077200000015
 12.9251464699999996 15.0258615399999993 19.2670715000000001
 12.5261192300000008 16.7940922199999996  0.0453348800000000
 12.5216711099999998 18.7284701700000014  2.3880661299999999
 12.7569412500000006  0.2304893100000000  4.5930534900000000
 12.8453379999999999  2.1864728800000002  6.5907026499999999
 14.6423137899999993  4.4625053499999998 10.6754043799999998
 14.9080360800000005  6.1985889500000004 12.8882485800000008
 15.0456478199999992  8.5272746000000001 15.1588010200000003
 14.8058508199999999 10.5582183599999997 17.1008784100000000
 14.9524585699999992 12.8731497699999995 19.2873194300000002
 14.8105030099999997 15.1092691099999996  0.1672369000000000
 14.7458700399999998 16.9615807499999995  2.4691132599999999
 14.8837615200000002 19.2226717700000016  4.6951437900000004
 15.0534895700000000  0.1110228500000000  6.6524049800000000
 15.3632749099999995  2.1499404300000000  8.7796493099999999
 16.8180580500000012  4.1982940700000002 12.7122827500000000
 17.1228770499999996  6.2043010000000001 15.1049743500000009
 17.0014665700000016  8.6187881799999992 17.3966967399999994
 16.9876920300000016 10.9859193800000003 19.1950872799999992
 16.7377139200000009 12.6876802099999999  0.1817058300000000
 16.8948175700000007 14.9297808300000003  2.2530323399999999
 16.9592712600000013 17.0994341600000013  4.3291079500000000
 17.2585713900000002 19.2289068000000007  6.4092418999999996
 17.2025805200000015  0.1404420100000000  8.7320429199999996
 17.1135010299999983  2.2379625800000000 10.8136687400000007
 19.0907526099999991  4.1174664500000002 15.1593614700000003
 18.9886861700000011  6.2161483999999998 17.0932731699999998
 18.9597252999999988  8.4724279199999994 19.0924062399999990
 19.1259853000000000 10.8580719099999996  0.0605686600000000
 19.4052522600000010 12.7270077599999993  2.0672427199999999
 18.9357583699999985 15.0516388200000009  4.1739928099999997
 19.3620376900000011 17.0398618699999993  6.6315265400000003
 19.5263660299999984 19.2318453200000015  8.9953738699999999
 19.3977346600000011 -0.1585011500000000 10.8762403499999998
 19.1314878099999994  1.9096034900000001 12.8874596599999993
 -0.1603591000000000  4.1124072099999998 17.1575155399999986
 -0.1365277100000000  6.3348370999999997 18.9331602799999992
  0.0130550100000000  8.6183231800000009 -0.1874048200000000
  0.1513479300000000 10.6507781000000001  1.9828479400000001
  0.1059317500000000 12.5895452300000006  4.2223365399999997
  0.1122477200000000 14.4170779499999995  6.5481974300000001
  0.2653376300000000 16.6788201799999989  8.9539235500000007
  0.2253026400000000 19.0327974299999987 10.8451885400000005
  0.0601229300000000 -0.2118070100000000 13.1074801599999997
 -0.0883150500000000  1.9268745400000000 14.9028930499999994
  1.7657089200000000  4.0793752300000001 19.1023976600000012
  1.8364720999999999  6.4911206000000004 21.0398110100000011
  1.9936555400000000  8.4417229599999999  2.1935827899999998
  1.9626701900000001 10.5010259700000006  4.2869217800000001
  2.0883341199999998 12.1766843300000005  6.2203345299999997
  2.0401273099999999 14.2364453500000003  8.6207235099999995
  2.3293854700000001 17.0774075299999986 10.8501955100000007
  2.0308449700000000 19.0713069200000014 12.7991109499999993
  2.2411144599999999 -0.3484499700000000 15.0371381700000004
  2.3842220099999998  1.9586347799999999 17.0497066199999985
  6.3385007000000000  6.4735953999999998 -0.2360551800000000
  6.4730904999999996  8.5278012899999993  1.9744881000000001
  6.6135324500000001 10.6767660200000005  4.1455380599999998
  6.4839772900000003 12.6612572199999995  6.3181084600000004
  6.3134894099999999 14.7496023100000002  8.6482169700000000
  6.1273567599999996 17.0433504400000011 10.6343548899999991
  6.3332734700000000 18.8347079099999988 12.6632647600000006
  6.5609387500000000  0.2185454200000000 14.6238570299999999
  6.3248342199999996  2.2470313499999999 16.9201627200000004
  6.3809385000000001  4.5031317399999997 19.1709424199999994
  8.2677270800000002  6.5125176299999996  2.1909324699999999
  8.4556375500000005  8.6266673399999991  4.2823017700000001
  8.4648456900000006 10.5356042799999994  6.2142344899999999
  8.4618505000000006 12.4091498799999993  8.4581469400000007
  8.6061078700000007 14.9544445300000000 10.3860340600000001
  8.4829732300000007 16.7935172299999991 12.4919828899999992
  8.8437542199999992 19.2195679699999999 14.5339410600000001
  8.6960151099999994  0.3230724100000000 16.8653894999999991
  8.8250347399999995  2.4409706000000000 19.0906688899999999
  8.5704033699999993  4.5247460200000003 21.0998964800000017
 10.6542333399999993  6.3080690400000003  4.0200592899999998
 10.8973274300000007  8.4370234899999996  6.0212541100000001
 10.5752181899999993 10.1208988600000005  8.3743796699999997
 10.4054507699999998 12.3139571599999993 10.3571538099999998
 10.5882397200000007 14.3694196600000001 12.5239527800000001
 10.6797301000000004 16.4602455100000000 14.4653962600000003
 10.6261596899999997 19.0193078299999989 16.7617906900000015
 10.8232491000000000 -0.1454895100000000 19.2453312399999987
 10.5809995899999993  2.2813664800000000 -0.1246110900000000
 10.5959191700000002  4.3036677599999997  1.9497526000000001
 12.9862283600000001  6.2421960800000003  6.2300824099999996
 12.7127565800000006  8.3549725200000005  8.2148455499999997
 12.9014172600000006 10.3306401700000006 10.6055685499999992
 12.7477119600000002 12.7602146800000007 12.6250144700000000
 13.2618793799999999 14.7808029699999999 14.9197598800000009
 12.6655750600000001 17.0114392700000003 16.8701451800000015
 12.7047759899999999 18.9536942999999987 18.8907596899999994
 12.2834330400000002 -0.0704313800000000 -0.1029549700000000
 12.5392922900000006  2.2314961400000000  2.0683902700000001
 12.9007369000000001  4.0491270000000004  4.5406834800000002
 14.8916040299999999  6.7825772000000004  8.5718037900000006
 14.9042479199999995  8.3478292199999995 10.6038004600000004
 15.2504951900000005 10.7206995400000000 12.7322464600000007
 14.7574643600000002 12.5783204899999994 14.8310324199999997
 14.7932773300000004 14.7994980700000003 17.0320308999999988
 14.8946142600000009 17.2550296600000017 18.8809534799999987
 14.6655361200000005 19.0090201299999997  0.1884671000000000
 14.4649476099999994 -0.1465460200000000  2.2193753699999998
 14.7651779300000001  2.0179733099999999  3.9665260800000000
 15.0147911399999998  3.9494363799999999  6.8982694599999999
 17.1151969800000003  6.2867900800000003 10.5560639500000004
 16.6829869799999990  8.2698397999999997 12.8526341899999998
 16.9720573799999990 10.8381218799999992 14.8736067199999997
 16.9349672200000008 12.7797412099999992 16.8072805199999991
 16.7312761700000010 14.8284520600000000 19.2166214099999983
 16.7394169400000017 17.1995381300000005  0.1410976800000000
 16.9185262600000001 19.2795857599999998  2.2200599900000002
 17.0995837699999989  0.1191798200000000  4.0526463699999997
 17.1912895200000015  1.8555886600000000  6.4679733500000003
 17.2010849300000004  4.2392304200000002  8.9962842300000005
 19.2526537100000006  6.2410870799999998 13.0904039300000008
 19.0866826600000010  8.3606105300000007 14.9628033200000008
 19.0296432200000005 10.6031950399999992 16.7910307600000017
 19.1069671700000008 12.5304855499999999 18.8008674499999984
 18.7256597900000017 14.8265809999999991  0.0382823600000000
 19.1884300799999998 16.8676887800000017  1.8988432399999999
 19.2702757399999989 18.6747564799999992  4.0002753200000001
 19.0951853000000007 -0.1647558300000000  6.4445174999999999
 19.1079864999999991  2.0786449800000000  8.6816001699999994
 19.2148371299999994  4.2553507599999998 10.7564160100000006
 -0.2453637100000000  6.5432551600000002 15.0042948099999993
 -0.1833278100000000  8.5965895799999998 16.9012771599999994
 -0.0052777800000000 10.7619223300000009 18.8888277799999997
  0.1558645200000000 12.6615966100000001  0.0511453300000000
  0.2439700100000000 14.7365735200000003  2.0335428100000001
  0.4231668900000000 17.1127020899999991  4.3491524400000001
  0.0824596900000000 18.9126850900000001  6.4192257499999998
  0.2395111500000000  0.0014368200000000  8.5319255599999995
  0.0057381400000000  2.0421420900000000 10.5345002900000004
  0.1169351000000000  4.2711999100000000 12.8843073100000005
  1.7618738599999999  6.1523437599999999 17.0936458100000017
  1.6643146300000000  8.3628682100000002 19.2296623300000000
  2.1492624100000000 10.5647939300000004 -0.2662600300000000
  2.4029544999999999 12.6340804999999996  2.0641952300000002
  2.3516805900000000 14.6428382300000006  4.0955827899999999
  2.1120294999999998 16.7571106599999986  6.3315757499999998
  2.0972363800000000 19.1132878400000017  8.6861517700000004
  2.0566766500000000  0.2211945700000000 10.9003220800000005
  2.1110724699999999  1.9369936200000000 13.2778059800000001
  2.1600439499999999  4.1810906299999999 15.0117971200000007
  4.3071953699999996  6.6077463900000000 19.3930320899999984
  3.8627585099999999  8.5528716399999993 21.0962294300000011
  4.1297401699999998 10.6947748600000008  2.0665451099999999
  4.4576664800000003 12.3691911700000006  4.4594101600000000
  4.0464566599999996 14.5400129600000003  6.4215735399999998
  4.2068965499999997 16.6065408499999982  8.4394658899999992
  3.9573359899999998 19.2894789899999992 10.5513893000000003
  3.9406420099999999 -0.0644285800000000 12.8650931100000001
  4.5241321699999997  2.0206467600000000 15.0302281299999994
  4.2266781299999998  4.4208194699999996 17.1569376300000016
  8.3857693199999996  8.5795494800000007  0.2257423100000000
  8.6295071100000005 10.8924544300000008  1.9400784600000001
  8.6315454599999999 12.7517192200000000  4.0892949900000000
  8.4065950899999997 14.6360478999999994  6.4238115200000001
  8.3544893400000007 16.9714493799999993  8.4533758300000006
  8.1193389699999994 19.1931846999999998 10.6159346299999999
  8.1830723400000007  0.4434452300000000 12.5291178399999996
  8.5238671900000007  2.4592063300000002 14.8208528600000005
  8.4066082400000006  4.5232736800000000 17.2093940699999983
  8.4476735600000001  6.2748345299999997 19.1314609500000010
 10.6282523300000005  8.5402981499999999  2.2458279499999998
 10.8409306300000008 10.5517672000000005  4.0356941400000004
 10.4265038099999998 12.5321967000000001  6.2745458599999999
 10.8283897200000006 14.8072431499999997  8.4085758700000000
 10.4439420900000002 16.9681833699999984 10.7136797599999998
 10.3521697699999997 19.1645187499999992 12.4022781799999997
 10.3718898199999998  0.0028525700000000 14.5391854400000007
 10.8478385599999996  2.2005457300000000 16.8981406499999984
 10.8240670300000001  4.3298193999999999 19.0171288499999989
 10.5198770400000008  6.2102453500000001 21.2427994499999997
 13.0254592900000006  8.3786290300000008  4.2326150699999996
 12.7382227100000005 10.6499042700000004  6.1124096000000003
 12.5984698799999997 12.5556309800000001  8.3188366800000004
 12.6906344299999994 14.8077349599999994 10.5322635499999997
 12.6937720800000005 16.8544009599999995 12.4991442799999994
 12.4367964299999993 19.0069877100000006 14.3427638300000009
 12.5215304599999993 -0.0236013900000000 16.5186892400000005
 12.6442845100000003  1.9176231600000000 19.2609675699999983
 12.6540514300000009  4.2356517800000004 -0.1542638600000000
 12.8117632399999994  6.1387365400000000  1.9294029100000001
 15.0355827899999994  8.6755980299999997  6.1642552400000001
 14.8238691399999993 10.2369032900000008  8.4380788300000003
 15.0052617000000001 12.3955804399999998 10.4882150900000006
 14.9328256699999997 14.6532967999999997 12.2667546600000001
 14.8868743800000001 17.1082014399999984 14.5522978900000002
 14.7842096900000008 19.2497307900000010 16.6701664299999983
 14.6495450300000005 -0.1361865000000000 18.8386110799999997
 14.6272399499999999  1.9011240100000000 -0.1292023000000000
 14.7335237200000009  4.2604800200000001  2.1165945100000001
 14.8783758600000002  6.1622496000000000  4.1066066699999997
 17.0303083999999991  8.5312726899999998  8.5590217499999994
 16.9249804200000007 10.4717526200000002 10.5097063700000000
 17.0917322499999997 12.9284981099999996 12.8318931299999992
 17.3506815100000011 15.0484010300000008 14.6949146899999992
 16.7259231100000001 17.2216033599999996 16.7848553500000008
 16.6610371899999983 19.1362866199999999 19.0765597299999996
 16.9001555199999984 -0.0300855300000000  0.0093317900000000
 16.7558175700000014  2.0877766000000002  1.9064802500000000
 17.1210755600000013  4.3540912900000004  4.1227692800000000
 16.6989873899999992  6.5079086500000001  6.3489686599999997
 18.9768583500000005  8.3201511000000004 10.5539607300000000
 18.8882801899999997 10.0373132700000003 12.8059326299999992
 19.1330632600000001 12.7942971199999995 14.9377861900000006
 18.9063358599999987 14.9659912800000008 16.6808791200000002
 18.7965503699999985 16.7757932200000006 18.9771543300000012
 18.8888885000000002 19.1575296600000016  0.0759233100000000
 19.1054739100000006 -0.0710190000000000  2.1071944899999999
 19.0298225700000003  2.3255462800000002  4.1039223299999996
 18.7534959100000016  4.2383429200000000  6.3666833900000004
 19.1748939000000007  6.3782964199999999  8.3700581599999992
  0.0051227900000000  8.2136401800000005 12.6343755699999996
 -0.0496872000000000 10.6637185799999994 14.7450874200000008
 -0.0205990700000000 12.7589971700000007 17.0149653799999996
  0.0803484300000000 14.7532250299999994 19.0509539799999992
  0.0385510000000000 16.9904205799999986  0.0116505300000000
 -0.1052951100000000 18.9351014800000002  2.3668080300000001
  0.0495807100000000 -0.2018049000000000  4.0051516200000004
 -0.2010877500000000  1.9550422199999999  6.0482944700000001
  0.1724424000000000  4.3403188000000004  8.1490045900000005
 -0.0965081900000000  6.4328760799999998 10.7141064099999994
  1.9600768000000000  8.5788723400000002 14.7513893399999994
  2.3773052699999999 10.6399966500000005 16.5854233399999984
  2.1405007700000001 12.6706794699999996 19.0228424499999988
  2.2979293400000000 14.7408997999999993 -0.0929402700000000
  2.0908619000000002 16.9597446800000000  2.1218406999999999
  2.4852479700000001 19.3589039599999992  4.2766518600000003
  2.3459354399999999  0.0881471500000000  6.1362975700000000
  2.0368522200000001  2.3177681099999998  8.5716437299999999
  1.9508741700000001  4.2727491999999998 10.7351884500000008
  2.0270066899999999  6.3343053899999999 12.8708669800000006
  3.9384370799999999  8.1883493299999994 17.1918798700000011
  3.9877685199999999 10.4762804999999997 19.3859053099999983
  4.1829887499999998 12.5792741699999997  0.0831401900000000
  4.3681251200000002 14.9126487599999997  2.1256762500000002
  4.2073247599999997 16.9966612899999987  4.6287325499999996
  4.3178851099999997 19.1914669300000007  6.3611506400000000
  3.9105611499999999  0.3256033300000000  8.5148644699999991