Li                                      
   1.00000000000000     
    22.7325000000000017   -0.0000000000000006    0.0000000000000000
    -0.0000000000000006   22.7325000000000017    0.0000000000000000
     0.0000000000000006    0.0000000000000006   22.7325000000000017
   Li
   500
Direct
  0.9859747058176609  0.9999975603211269  0.9987310379412762
  0.0199190097877491  0.0993604891674948  0.0916441816782125
  0.0050757523369640  0.1886559076212464  0.2031451886066193
  0.9995369585395366  0.2862115829759162  0.2977298964038297
  0.9985605450346426  0.3839332515121541  0.3880888283294865
  0.9831025971626559  0.4953539782250047  0.5023129853733650
  0.9758975057736734  0.5844874114153740  0.6082474809193883
  0.9854508377873117  0.6867975409655784  0.7062901167931344
  0.9922233300340935  0.8038516498405386  0.8037408393269558
  0.9970094789398445  0.9110520268338291  0.8994774265918863
  0.1014349772352361  0.9839554813592883  0.0923760598262433
  0.1073443756735983  0.0771836054107524  0.1963100758825504
  0.1164635812163226  0.1731849893324551  0.2738292488727581
  0.1010136940503656  0.2917162093918364  0.3766285459144427
  0.0939513018805656  0.3930554276916283  0.4850276331243819
  0.1040385619707465  0.5128580798416351  0.6064138783679738
  0.1004251903662166  0.6065552372154386  0.6909677571758479
  0.0938919674474903  0.6892936663367450  0.7846911545144621
  0.1018451406576517  0.7978759863631382  0.8840703943692958
  0.0939000936984513  0.8824088586825027  0.9987990828109545
  0.2154633436709545  0.9921196581986109  0.2013461009567834
  0.2127697103266257  0.0915410865500945  0.2975805173210162
  0.2117678051248220  0.1844836960299148  0.3995702857142831
  0.1932796911910231  0.2888027757615745  0.5094283884306634
  0.1905557593753429  0.4101125243593984  0.6015899865830860
  0.2107263939293986  0.5119120466292770  0.6835442221489032
  0.2010395992521694  0.5994394215330487  0.7946578308589025
  0.2064624418783652  0.7018481073353158  0.8932739522709809
  0.2059588795777003  0.7819084579346764  0.0064181299901023
  0.2052100402507406  0.8895345228197513  0.0929731815682402
  0.3151341106345527  0.0020903319036591  0.3205733245353599
  0.2949509235675762  0.1028362942923096  0.4255558909050947
  0.2976515381062370  0.2061380345320600  0.5172539241174547
  0.2964558605520722  0.2905255453645665  0.5914436850324449
  0.2925653764434202  0.4051319876828359  0.6839026657868672
  0.3176830234246140  0.4911969946112364  0.7856334675024712
  0.3108780881997149  0.6017230067084540  0.8952579104805878
  0.3191019430331039  0.6908185285384363  0.9995814719014646
  0.3049295796766742  0.7934665976025528  0.1044171727702619
  0.3080118438359207  0.9127415717584952  0.2099319815242495
  0.4002602393049628  0.0026974494666234  0.4155041161332917
  0.3946509279665662  0.0971200835807764  0.5089923954690434
  0.3994054120752253  0.1910315020345337  0.6189843791927885
  0.3925163334433108  0.3152099307159375  0.6818480483888720
  0.3846478288793591  0.4012684997250631  0.7882557404596966
  0.4031412537116452  0.4948425346970211  0.8979570962278700
  0.4164619364346223  0.5939594817991889  0.0137357875288657
  0.4128220838007266  0.6973970284834508  0.1054521931155818
  0.4093392838447159  0.8219118205212794  0.2053711369185081
  0.4124441539645858  0.9025109798746271  0.3111629829539240
  0.4975250438799108  0.9904713493896438  0.4949926726052993
  0.5101257450786321  0.0882678671505559  0.5889392741669397
  0.4764363862311640  0.1992860640052783  0.6853392297371599
  0.4961849849334641  0.3016780587264947  0.7956157474980756
  0.4802030572968192  0.3977547955570202  0.8994756084900501
  0.5008713823820514  0.4938142478829874  0.0044972189596422
  0.4978031320796248  0.5868005296381824  0.0958973188166752
  0.5123431897063710  0.7018958684702525  0.2054042199494148
  0.5177664647531088  0.7991368283294875  0.3127315143516967
  0.5132222135708773  0.8939073449906516  0.4019723400417874
  0.5999560453095754  0.0014227405696658  0.5900672226987780
  0.5918998869460026  0.1075437013086997  0.7065006228967334
  0.5975026547894018  0.2070508096337846  0.7982852713075985
  0.5920553643462014  0.2846053086989997  0.9076775053337727
  0.5911526413724815  0.3986298651710101  0.0133771987242923
  0.5726926075002723  0.5111211727702596  0.1120640127570667
  0.6083485313977803  0.6122486448916717  0.1897173808424029
  0.6065628206312539  0.6901719969207107  0.3045206967997345
  0.6054831892664652  0.7918062439239009  0.3971514549653605
  0.6143276815132523  0.9005028360277123  0.4951701418673693
  0.6950926633674257  0.0044191483558791  0.6954215959529293
  0.6806583983283829  0.0954681508852957  0.8177672213790856
  0.6864560976575405  0.2009380142967103  0.9023201478060017
  0.6877233238755096  0.2970792988012789  0.0081006708457068
  0.6882942404047085  0.4148273643462019  0.0996700288133709
  0.7123502527218761  0.5069938928846369  0.1855511540745596
  0.7048342263279466  0.5902399771252647  0.2937580420103387
  0.7255687372704287  0.7058132427141786  0.4118023266248798
  0.7032784088859572  0.8088676146486335  0.5116780345320606
  0.7165937556362039  0.9035341132739489  0.6146557391399980
  0.8116993568679192  0.0103761359287375  0.7980671144836720
  0.8006148971736522  0.0986847838997065  0.9078654169141060
  0.7903399718464783  0.2069120950181471  0.9949578018255778
  0.8067331899263195  0.2860475719784432  0.1009677114263710
  0.8052699377543178  0.4143474263719327  0.1909885907841229
  0.8145608190916107  0.4909201086550112  0.2943754166941588
  0.8037060112174217  0.5991986433520324  0.3998063521390094
  0.7917397536566568  0.7148042718574743  0.4886181436269652
  0.7994192636093729  0.8111690988672606  0.5945415246893191
  0.7880300723633553  0.8932411094248351  0.7088045503134310
  0.8981204434180157  0.0065921614428675  0.9019324755306286
  0.8897627018585723  0.0966467564060238  0.0155875957329812
  0.9017246778840899  0.2036549011327367  0.0932783525789063
  0.8937169149895539  0.2837770214450686  0.1948333412515098
  0.9022729422632807  0.4016009827339744  0.2869218093038626
  0.8933009066314739  0.4918863886506131  0.3868350691740901
  0.8765291745298569  0.6082814974155966  0.4943903952490913
  0.9026428039151000  0.7099281992741666  0.6088984075662580
  0.8937792103816093  0.8124796898713313  0.7064879472121390
  0.8963900679643686  0.9163121552842881  0.8137228025954002
  0.1198375576817341  0.1014051516551220  0.0071945795667006
  0.1113977169251044  0.1920729303860114  0.1135271184427609
  0.1139697688331651  0.2951591228417456  0.1954576021115173
  0.0997234905971638  0.3904174745408540  0.3114643290443198
  0.0794624607940193  0.4927200651050256  0.3883627242934153
  0.0901742808753951  0.6023886594083336  0.4793451569339027
  0.0952155579016818  0.7024797057076881  0.6028398552732881
  0.0724139764654126  0.7870928872759251  0.7059813790828144
  0.0964273696249833  0.8995659945012662  0.8038214824590355
  0.0951453557681745  0.9922596269657973  0.9090703006708480
  0.2149786908611020  0.0908659091608897  0.1032474474870781
  0.2203715671395585  0.1845185210601556  0.2025957461783818
  0.1997451045859435  0.2916630700538860  0.2946961917958859
  0.1899315741779404  0.3924361178928848  0.4076226415924324
  0.1839065826459887  0.5100948175519662  0.4861927399098178
  0.1952641913559887  0.6045873141977367  0.5901985096227875
  0.1915055031342803  0.6882675024744316  0.6945226424722293
  0.1808734802595424  0.7969793071593543  0.7803476749147720
  0.1980157158253633  0.8976350304629932  0.9089602076322478
  0.1971469380842379  0.9901428492246751  0.9935147352908800
  0.3114241227317720  0.0872018255801166  0.1941876194875150
  0.3060365516331274  0.1979679498515310  0.3006254908171115
  0.3016260477290231  0.2935007473881015  0.4026126396128902
  0.3009517734521054  0.4014038469152084  0.4927746789838352
  0.2880747995161101  0.4945272728472432  0.5884401785989226
  0.3105040985373364  0.5947754932365541  0.6921473859012437
  0.3099266662267652  0.7023663578576915  0.7939155530627957
  0.2991874949961542  0.7961876023314645  0.8962673485098449
  0.2976351927856626  0.9003931362586570  0.9946351316397255
  0.3068450539975771  0.9910911606730437  0.1045724592543706
  0.3959609048718775  0.1000737670735745  0.3097621731001894
  0.3949203888705597  0.1979589957109837  0.4216808701198715
  0.4006103178269029  0.3080207328714408  0.5032562630594981
  0.4065203048498844  0.4029732317167074  0.5895869763554415
  0.3954908694600263  0.4994471839876837  0.6791630045089647
  0.4104177635543849  0.6056625175409636  0.7911632222588807
  0.3994468012757082  0.6914622162102688  0.8980740670845719
  0.3964745879247786  0.8127918675904553  0.9993036964698092
  0.4004078420763193  0.9052460644451799  0.0928138898053419
  0.4031747432090640  0.0001764728912335  0.2132911936654551
  0.4961415224898289  0.0986268399867996  0.4049613870009878
  0.5032280448696795  0.1972323242054301  0.5006652928626423
  0.4860884486967976  0.3110658722093902  0.5841072486528134
  0.4939421823380599  0.4135618792477729  0.6945330539975814
  0.4823165819861401  0.5052501423072684  0.7946033854613432
  0.5138364095458030  0.6029098378972861  0.8796173038601154
  0.4961634241724369  0.7041265426151995  0.0087214987352908
  0.5083027128560431  0.7938210064885070  0.0931168863961318
  0.5145686717255060  0.9118101361486879  0.2015832143407010
  0.4934463217859886  0.9997042190696135  0.3157157681733196
  0.6093031870669776  0.1049046215770346  0.4980773672055392
  0.5859855462443662  0.2004967680633456  0.5996248683602801
  0.5798075728582432  0.2972209875728566  0.7049496962498623
  0.5915974828989334  0.3980947634444050  0.7953269059716277
  0.5834933755636200  0.4949128745188602  0.8942180675244700
  0.5817639142197280  0.6061510894094368  0.9951635059936237
  0.5992245094028377  0.6948783446607294  0.0912096645771499
  0.5960798530737961  0.7915308113933790  0.1958571547344121
  0.6163960197954452  0.8948162920928198  0.2987013152974782
  0.6079941893764413  0.0095150924887264  0.4017845313977801
  0.6964396731551759  0.1065596027713624  0.6085502751567162
  0.6916149116903085  0.1921834514461693  0.7112899285164431
  0.6912917593753463  0.2927654138348146  0.7982605767073565
  0.6995668144726679  0.3923375119322543  0.9021163734741009
  0.6796887473880986  0.5108858862861538  0.0011731591334012
  0.6886287434290139  0.5961126013416944  0.0883497094468240
  0.6990337147256156  0.6962183622566798  0.1907132594303320
  0.7021001750797282  0.7963760791817904  0.2911434606840402
  0.7021420235345843  0.9084458942043341  0.3984162586605109
  0.7228456773342131  0.9969194347300103  0.4990987836797558
  0.7952542887935792  0.1004017701528639  0.7074465149015694
  0.8032865998020426  0.1892322714175734  0.8017784933465322
  0.7960810289233464  0.2946298744088836  0.9039301695809954
  0.7894727825800061  0.4021690839106995  0.9941535598812266
  0.8191025927636630  0.5023372444737717  0.1019933623666560
  0.8054778590124272  0.5982671272407316  0.1985258528538409
  0.8060555183107851  0.7108084781700228  0.3050682929726136
  0.8016299549103678  0.8295600206752454  0.3973360523479599
  0.8000898343780918  0.9057696135488840  0.5036123044099838
  0.7936156832728471  0.0175116551193213  0.6207740116573177
  0.9070729602991321  0.1093050236445592  0.8086713705047828
  0.9020401860772012  0.2062778242604182  0.9198276155284262
  0.9078333953590700  0.3158767029583203  0.0001511109644809
  0.9113406308149123  0.4061659540305698  0.0997507256131058
  0.9099805868250286  0.4959560642252256  0.1891712196194888
  0.8969720928186504  0.5886199172990203  0.3101420798416399
  0.8914260991971830  0.7280459038821050  0.3975620054987345
  0.8883022390850073  0.8132331120642249  0.5145804970856673
  0.8948636705157824  0.9189372233586255  0.6206251213020977
  0.9204034087759823  0.9961754342901159  0.7050979760255132
  0.9966163479599714  0.0907406448916745  0.9138343103486193
  0.0143418510942510  0.1982002415044519  0.9973488397668504
  0.0071868417463961  0.2872611996040888  0.1111729677774136
  0.0041703508193081  0.4012311694710249  0.1991299465522900
  0.9928227885186374  0.4894480774221961  0.2935024185637332
  0.9917327539865823  0.6118683725943015  0.3901504990652143
  0.9874878909050935  0.6977490553172743  0.5062271879467701
  0.9860699615088535  0.7981827981964145  0.6186615612009234
  0.9808852176399441  0.8970543138678124  0.7117216927306700
  0.9987622012537116  0.0037232240184721  0.8160940811613315
  0.1975992218189830  0.2033118530737923  0.9897415295282102
  0.1989453566479682  0.2851584022874718  0.0988278495546027
  0.1879267436489584  0.3997134648630833  0.1902030203453222
  0.1822025879247775  0.4845352684482549  0.3118438961838805
  0.1991079485318394  0.5828965208402082  0.4056322450236465
  0.2000742109314828  0.6875565692290806  0.4949112156603945
  0.1867282335862726  0.7850047900582879  0.5885540182557989
  0.1754596999890055  0.8980995121522071  0.6991492651490177
  0.1917718684702550  0.9834426530298046  0.7963798143626946
  0.1829326404926874  0.0853504766303743  0.8931920585065427
  0.3039975352468929  0.1933492585505334  0.0996993001209745
  0.2911980503684148  0.3017997461783821  0.2115542747168178
  0.2954068435059938  0.4107868179918626  0.2988669314857617
  0.2948409915319488  0.5113958944242825  0.3978363096887705
  0.3012308817771938  0.6050927663037484  0.4940212726272932
  0.2998782967117535  0.7106806466512694  0.6036630238645131
  0.2969048916749131  0.8021270806114558  0.7023355367865420
  0.2832289580996346  0.9084729800945794  0.7929251494556269
  0.2964590295831968  0.9949546930605990  0.8800010113273942
  0.2949732057626733  0.0810659153194777  0.9963562349059742
  0.4010364398988244  0.1986094886176204  0.1896694701418653
  0.3945079401737601  0.2970932387550889  0.3193677796106869
  0.4015815906741480  0.4070955231496782  0.3847841957549747
  0.4053925745078644  0.5012468021555065  0.4864370984273592
  0.3971882771362587  0.5986736188276680  0.6003066081601247
  0.4037271114043790  0.7148749737160429  0.6844673071593519
  0.3889221071153628  0.7883748949741545  0.7940084073463112
  0.3923029548003925  0.9041717523369641  0.8986994021774990
  0.3825436911910245  0.9975301673815054  0.9915903512592124
  0.3957534208731985  0.0829395319476518  0.0984887152754865
  0.4823159964808070  0.1961205599912006  0.3158062522819733
  0.5017430863301442  0.3209731177829127  0.4043598227207710
  0.5056199942813180  0.4047220609259838  0.4949240211151462
  0.5164633212361167  0.4960480756625998  0.5881308536236673
  0.5021468672605280  0.6035623288243670  0.6852300574067982
  0.4958006902012571  0.6902318187616814  0.7903640620257306
  0.4915085014846596  0.8078647649840534  0.9076331982843939
  0.5044454534257099  0.9086393828219528  0.9954382263279413
  0.4835792561310868  0.0236955693390541  0.0880909710766531
  0.4949612018035836  0.0975096707357324  0.2093138167821422
  0.5907997211041476  0.2127831215220510  0.3989849673375119
  0.5933812937424392  0.3034714602441468  0.4858237483778751
  0.6058522278675937  0.3945702896733749  0.5969866737050467
  0.6010670586165148  0.4813750115473425  0.7003236208072110
  0.5958410927086746  0.5941567117562983  0.7944400281535238
  0.6024109921917926  0.7124324223028680  0.8900115627405683
  0.6112566989992274  0.8034241878367965  0.9890912204992830
  0.5951816672165435  0.9041517606950435  0.0901907498075474
  0.6055325164412153  0.0200215607610232  0.1946470555372244
  0.5978230339821806  0.0962422835147905  0.3118786772242359
  0.6995169968107362  0.2092834725613102  0.4905118790278209
  0.6924022720774232  0.2832717140657621  0.6005516727152767
  0.6950688397668543  0.3809582329264245  0.6928677642142276
  0.7122913401517650  0.4898985236995514  0.7925504577147251
  0.6910431083250828  0.6072136790938103  0.8999103842516192
  0.7158098488947573  0.6927072033432324  0.0036699650280454
  0.6879771507753247  0.7947250469592007  0.1031815664797122
  0.6927242199494117  0.8996590872099404  0.1966845322775796
  0.7121816487407884  0.9994234615638433  0.3048155693390555
  0.7098058950841306  0.1041090940283738  0.4027387119762480
  0.8054064286814011  0.1974033678653910  0.6031212484328634
  0.7982848406466516  0.2854116656768966  0.6942920052787827
  0.7918338581326267  0.3896412919828407  0.8034716986693056
  0.7924955623006724  0.5061746807434275  0.9050133012207198
  0.8112366783239864  0.5917412889035489  0.9979213812823033
  0.8004056443418008  0.7035904387990755  0.0950115152314979
  0.8022577639942838  0.8037241821181098  0.1878802467832372
  0.7911131833278375  0.8971912473331116  0.2945009844935669
  0.8071039129000326  0.0001489295062100  0.3944427893984397
  0.8050407319916388  0.1102841588034735  0.4961661893764457
  0.9130619223578549  0.1936054107555236  0.7012096271857473
  0.8985473727042788  0.3055125423952489  0.7990559524909244
  0.8916599876828357  0.4185766528098540  0.8848461739799873
  0.9146538576927341  0.5062085727482710  0.9948318508742986
  0.9023173047399098  0.5931606673265151  0.0958641680413521
  0.9013275112724060  0.6917798341581403  0.1980971727702610
  0.9051462461233939  0.8002764315407447  0.2797677505773706
  0.8845557870889706  0.9012081913559911  0.3968925366765674
  0.9023898409765749  0.0087259597492562  0.5130437659738263
  0.9092783072693251  0.0973083959089394  0.5957341629825166
  0.9925459962608585  0.2220371872869222  0.8167411683712729
  0.9983769752556881  0.3299339914219743  0.8946874378093028
  0.0111716040910608  0.4096804772902232  0.9851230973276159
  0.0084368094138370  0.5067075174309892  0.0975937732321555
  0.0125053834818019  0.6067763593973368  0.2036809387440854
  0.0007289871329590  0.7005653425712097  0.3050379971406585
  0.9948964033872230  0.8075397404596956  0.4072008789178483
  0.9889246338942073  0.8975808226107986  0.5032354030572961
  0.0059095273287113  0.0127207451886093  0.5964404099857035
  0.0105957778510941  0.1046252097217675  0.7163893025404136
  0.1138128094138366  0.2026037197844488  0.8831191140437724
  0.0931627643242052  0.2867239700868822  0.0042961266908605
  0.0863402054327480  0.3873664775101702  0.0937643787528870
  0.0920804060266107  0.5071746116793108  0.2054244548553825
  0.1015088956340051  0.6010024383591741  0.3061786415924317
  0.0895050456395055  0.6947783349829564  0.4042322045529545
  0.0862394892774674  0.7943910493786461  0.5071796581986163
  0.0827639450126441  0.8897390225448163  0.6198258713295957
  0.0930453491696923  0.9930016526998813  0.7018584154844376
  0.0826317567359496  0.0873194949961515  0.8126318319586474
  0.3063687183547756  0.3090698352578940  0.0034748980534474
  0.3042957620147391  0.4225648116133272  0.1154363734741040
  0.2910032798856292  0.5107711721104167  0.2057228844165877
  0.3045928424062438  0.6127546996590780  0.3118515816562208
  0.3037202481029340  0.7126028839766860  0.4069589090509211
  0.2974705558121613  0.8057810240844603  0.5121467220939167
  0.2789041192125836  0.8892293236555560  0.6044328534037149
  0.2953669420433300  0.0012711606730420  0.7010783151875088
  0.2985417679533739  0.0941167636643598  0.7945537974265946
  0.2931445973826001  0.1929811230616991  0.8962285762674611
  0.4036607737820290  0.3093230718134805  0.0888102192895630
  0.4068833379522729  0.3970339263169436  0.2113477387000984
  0.4048944695919943  0.5067859562300683  0.3096508047948987
  0.3965049242274290  0.6279205173210158  0.3935909860332103
  0.3922739623886500  0.7128834237325421  0.5040141832178620
  0.3954156779940590  0.8151588672605286  0.5988712622896699
  0.4050763396018908  0.8989829631584740  0.6858608586825028
  0.3980753410315643  0.9973302628395473  0.8023706578686927
  0.3902265492136792  0.1145451701308673  0.9061526550093504
  0.4047421766193793  0.2050941717804875  0.0138162327064748
  0.5042899729462249  0.3015873397118654  0.2083885657098890
  0.5232480074782799  0.4106223477400164  0.3001417380402529
  0.5090914373694062  0.5036947027383718  0.3945580560870994
  0.4993526624876310  0.6157154461673784  0.5025934798196445
  0.5132421018365747  0.7134007742219310  0.5935220499285165
  0.5145018326184996  0.8142215655999152  0.6879299967007597
  0.4961001337292430  0.8850951250412393  0.8015629429231268
  0.5044037131859653  0.9918908109534783  0.8826035750577361
  0.4931282217090072  0.0961202705377744  0.9851756370834721
  0.4914779280765416  0.1917822280875399  0.1098953150775301
  0.6045432592103808  0.3005193388320677  0.3006360347520101
  0.6114062096117863  0.4103676392829669  0.4085095990322216
  0.5962691169031089  0.4823871413174956  0.5095431628725393
  0.5931053302540406  0.5803054710216671  0.5930311474760828
  0.5966951571538530  0.7015463846915182  0.7018754413284967
  0.5968911615528398  0.7975421651820085  0.8011337956669990
  0.5885588967337512  0.9013029429231310  0.8910817397998443
  0.5799555425052247  0.0099121350489355  0.9780780050588334
  0.5989610548773783  0.1053170210051704  0.0832353797426606
  0.6015514338502115  0.1975773051798058  0.2046878953040832
  0.7044371063455372  0.3087548839766825  0.3900242489827335
  0.7127032055427236  0.3834432869240061  0.5092409932915416
  0.7060573192565727  0.4861071958649532  0.6113341088749564
  0.7069821550643383  0.6021979188386695  0.6964102901132705
  0.7016759014626643  0.6872876991092056  0.7940644495765952
  0.7042022192895629  0.8016676234466047  0.9001679063015473
  0.6804551193225592  0.9150547981964152  0.9995199749257679
  0.7002519005828631  0.9983949882327039  0.0886363044099880
  0.7003878064445175  0.0989935145716458  0.1965131050258435
  0.7027722639392948  0.2041972396348868  0.2912011828879386
  0.8148516665566916  0.2760543882107100  0.5007784242824158
  0.8103775532827484  0.3671798838667115  0.6036455304080093
  0.8032292743868936  0.4869068025954064  0.6799484333003392
  0.7970855875948502  0.5924704700318912  0.7869982782360054
  0.7950476889915308  0.6771501946552263  0.8893576636973464
  0.8004020406906420  0.8022543235455828  0.9968882604200999
  0.7931537208841988  0.9018469679973578  0.0920266235565848
  0.7997528683602795  0.9842018022654813  0.1978674866380743
  0.8017066209171873  0.1037585610909488  0.2827586173979952
  0.7977446435719813  0.1847664502364452  0.3995128151325176
  0.9262586125591099  0.2977108677004310  0.5969839045419576
  0.9055738990432189  0.3981074870779722  0.6948395750577347
  0.8751954642032302  0.5066418053447705  0.8051861906961406
  0.9085547542065342  0.5938040039590859  0.9012700486088221
  0.9083928987132950  0.6975443928296485  0.9874011235015914
  0.9046090663147481  0.7855222263279416  0.0899918126031025
  0.9009312165401937  0.8968015607610269  0.1863725608709998
  0.9082659769053123  0.0015206497305655  0.2909372528318457
  0.9062935383261816  0.1068131397778487  0.4044096852523893
  0.9145139232376565  0.1975172246783217  0.4891358869460021
  0.0182526176179465  0.3115062368855135  0.7047903560980942
  0.9959773438909068  0.4076457793907409  0.7931560791817915
  0.0131390951281176  0.4925991377983081  0.9006455123721508
  0.0085227762014739  0.6008101515451472  0.9975085670295840
  0.0072619681073363  0.6812800708237106  0.1058833568679205
  0.9974727280325553  0.7858513467502490  0.1917437703728169
  0.9954928164522130  0.9158848217310052  0.2971419030023128
  0.0008238486748056  0.0002722454635418  0.3935987106565477
  0.0135304247223118  0.0993186587484871  0.4914612765863851
  0.0026900446497322  0.2046025562520626  0.5899665399758049
  0.1083055387660821  0.3132418519740483  0.8035057450786312
  0.1294780173760017  0.4085023758935478  0.8830062263279430
  0.1031237057076879  0.5151017613548916  0.9968061145936460
  0.1050031171230614  0.5994183494996150  0.0981366858022668
  0.1028964777301198  0.6967534125151218  0.2070322313867834
  0.1030738392169823  0.8015125349169665  0.2992488586825033
  0.0955256760145176  0.9004695141317498  0.3923463235455813
  0.0891605327174716  0.9932527179148778  0.5211068936544621
  0.0852269301660584  0.1114659659078399  0.6231969915319482
  0.0878990907291310  0.1977979615088543  0.7110427449686583
  0.2083834914769582  0.2940556159683254  0.9025495779170782
  0.2037173944792698  0.4043780389310427  0.0087409563400414
  0.1858089119102573  0.5069937274826799  0.1078266407126378
  0.1889631690311262  0.5920599344550723  0.2164799436929528
  0.2071574521060171  0.6937735634004198  0.3194227498075435
  0.1979148967337494  0.7978180296931683  0.4033916313647836
  0.1841002621796974  0.8949426028813363  0.5054779087209909
  0.1803386134389058  0.9989782791158035  0.6088442859342322
  0.1810540758825496  0.1055727979764640  0.7058365010447574
  0.1914402942923132  0.2064759186187146  0.7870762810953451
  0.3950071290003265  0.4135889726162958  0.0032414428681378
  0.4062353300340931  0.5139265681293281  0.1092357439788856
  0.4070907348509820  0.6182414868580253  0.2168997070273804
  0.3989794395688975  0.7193185932035604  0.3047753045199570
  0.4060758614318729  0.8085002995711008  0.3939228237105468
  0.4049622879137829  0.8966063860112143  0.5150809783349857
  0.3986614811393352  0.0077586042010367  0.6041375867150549
  0.4004896865720866  0.0977697283624792  0.6957259069613997
  0.3838174367095561  0.2126087522269913  0.7830432539315950
  0.3871024049268641  0.3018831888265723  0.9142679890025320
  0.4898263050698333  0.4057695752776880  0.1151526299351175
  0.5041665826459933  0.5216527311118426  0.2213354681623230
  0.5114995557021871  0.6103093909600759  0.3158459993401550
  0.5198098044649697  0.7073055471241645  0.3953824220829176
  0.5129654142747171  0.8092308901352681  0.5031821709006934
  0.5277566017815900  0.9138025844055875  0.6109211191026063
  0.5199639107005396  0.9958963462003751  0.7123160043989856
  0.5032348896953707  0.1218197589354446  0.8000573421313106
  0.4976083651160224  0.2015379139997791  0.9009447245133586
  0.4961229028923313  0.3009613223358656  0.0206540244143838
  0.5986538642912151  0.4112290346420338  0.2083811116243268
  0.6261701625426142  0.5007192433740215  0.3087188848564821
  0.6241995856153082  0.5973792433740215  0.4194483382821943
  0.6240270621357098  0.7221774565050012  0.5193302333663254
  0.6152927544264841  0.8239428377873068  0.6101160250742339
  0.6061475134719032  0.9129263314637655  0.7171722956120092
  0.5974392270977660  0.0175369171890480  0.8112408353678688
  0.5823330284834469  0.1137430005498743  0.9039538510942506
  0.5990981928956316  0.1945935075332699  0.0124275548223878
  0.5847951580336499  0.2981977661937734  0.1101455304080048
  0.7090838834268141  0.4032091230616928  0.3037655959529317
  0.7116443611569352  0.4747648529638155  0.4100087781810160
  0.7193929624986239  0.5918322956120079  0.5161940574067998
  0.7044398557131828  0.6993460802815363  0.6221252409545812
  0.7008272838447169  0.8010276472011455  0.7192215062135716
  0.7045318429561220  0.9016402727372679  0.8089597321016200
  0.7001768494446310  0.0002426943802902  0.9203652963818314
  0.6875960343121079  0.0911141396678730  0.9953820028593441
  0.6953092977015274  0.1942340332123607  0.0986218440558702
  0.7062532158803450  0.3148408648410879  0.1850403844715700
  0.8226636977895083  0.3792233568679180  0.4096775013746807
  0.8056330553172799  0.5027725357967654  0.4991831391180028
  0.8136423723743533  0.6196017560761007  0.5918498752886805
  0.8121953683052894  0.6964335576817362  0.7029866785439367
  0.7889103112284204  0.7956620670845709  0.8086331952051040
  0.7985768248102971  0.8960655422852710  0.8985433300340944
  0.8085043479599676  0.9936965635103903  0.0086292097217608
  0.7872843598372370  0.0969410135268873  0.1005362643791941
  0.7889940081381255  0.2052545263389405  0.1924624612339159
  0.7995780881997163  0.2902910445397566  0.2956944858682533
  0.8953217767513451  0.3871884262619574  0.5173111276806353
  0.8823876274056985  0.4877002797756518  0.5917246453315741
  0.8858102500824785  0.5936184995051121  0.6939619373144197
  0.9024705663697361  0.6993764438579149  0.8086633212361178
  0.8966047130759947  0.8091914752007057  0.9056200417903852
  0.9056356555592231  0.8837171692510708  0.9973922986913024
  0.9094115323875513  0.0046596762344677  0.0903703600571859
  0.9005278095238083  0.1070740477290215  0.1859669275266711
  0.8961322019135594  0.1857655686792015  0.2929856702958347
  0.9038339874628818  0.2774702536016704  0.3975675064335178
  0.0087982412845022  0.4056507396898681  0.6068280620257340
  0.9965515381062389  0.5019952499725093  0.6954414433080416
  0.9930098084240626  0.5896679714065769  0.7913932114813562
  0.0026770205652724  0.6803250803915120  0.8985228237105432
  0.0126285261189949  0.7930344599142174  0.9973257833498295
  0.0101805652699909  0.8987532484328611  0.0993699351149218
  0.0007390555372240  0.0006126338942067  0.1811866279555687
  0.0094563686352132  0.0889630229847143  0.3034455985923259
  0.0074644887275923  0.1903105465742883  0.3794850007698258
  0.0112033951391197  0.2958906737050455  0.4910856597382605
  0.1040738541735422  0.4139434971956462  0.6946914628835401
  0.1146065105025826  0.5141695590014308  0.7918226534697013
  0.1070488058946424  0.5890719432530531  0.8799875191905855
  0.0935126189376447  0.6861407333113405  0.9847089541405509
  0.1046790572968206  0.7788832429341284  0.1016866547893969
  0.0949196247663053  0.8784265650500416  0.1826051696909730
  0.1009406695260111  0.0036852215990351  0.2909250645551538
  0.1114205472341396  0.0888632253381729  0.3905517967667436
  0.1168000514681609  0.1852905351369216  0.4913157756516000
  0.0942424106455491  0.2981760563070495  0.5986135040140752
  0.2047661621027146  0.4099365863851290  0.7997836634773989
  0.2226495620807185  0.5100851718904664  0.9023506530298064
  0.1997078205212830  0.6096672270977663  0.9943820477290188
  0.1981938999230195  0.6943801935554816  0.1143082357857708
  0.1956747564060279  0.7972810157263837  0.2088337763114509
  0.1929512974815779  0.9173566532497546  0.2937913348729779
  0.1939183068294312  0.9989922784559582  0.3962994210931470