Li 
 1.0000000000000000
    22.7325000000000017   -0.0000000000000006    0.0000000000000000
    -0.0000000000000006   22.7325000000000017    0.0000000000000000
     0.0000000000000006    0.0000000000000006   22.7325000000000017
 Li 
 500
Cartesian
 -0.3188300000000000 -0.0000554600000000 -0.0288466800000000
  0.4528088900000000  2.2587123199999999  2.0833013600000001
  0.1153845400000000  4.2886204200000000  4.6179980000000000
 -0.0105260900000000  6.5063048099999996  6.7681448700000004
 -0.0327224100000000  8.7277626399999999  8.8222292899999992
 -0.3841202100000000 11.2606343100000004 11.4188299400000002
 -0.5479099500000000 13.2868600800000003 13.8269858600000006
 -0.3307388300000000 15.6126251000000007 16.0557400799999996
 -0.1767831500000000 18.2735576299999991 18.2710386299999996
 -0.0679820200000000 20.7104901999999989 20.4473705999999993
  2.3058706199999999 -0.3647320200000000  2.0999387800000000
  2.4402060200000002  1.7545763100000000  4.4626188000000004
  2.6475083599999998  3.9369277700000000  6.2248234000000000
  2.2962937999999999  6.6314387300000002  8.5617084200000004
  2.1357479700000002  8.9351325100000007 11.0258906700000008
  2.3650566099999999 11.6585462999999994 13.7853034900000004
  2.2829156400000001 13.7885169300000001 15.7074245399999999
  2.1343991500000001 15.6693682699999997 17.8379916700000010
  2.3151946600000000 18.1377158600000001 20.0971302399999985
  2.1345838800000001 20.0593593800000001 22.7052001499999996
  4.8980204599999997 -0.1791398700000000  4.5771002400000000
  4.8367874400000002  2.0809577500000001  6.7647491100000003
  4.8140116300000004  4.1937756200000003  9.0832315200000000
  4.3937305799999997  6.5652090999999997 11.5805808399999997
  4.3318088000000001  9.3228829599999994 13.6756443700000005
  4.7903377500000000 11.6370406000000006 15.5386690299999994
  4.5701326900000003 13.6267566500000008 18.0645591400000001
  4.6934074600000004 15.9547620999999999 20.3063501200000012
  4.6819602299999996 17.7747340200000004  0.1459001400000000
  4.6649372400000004 20.2213435399999995  2.1135128500000002
  7.1637861699999998  0.0475184700000000  7.2874331000000003
  6.7049718699999996  2.3377260600000001  9.6739492899999995
  6.7663635900000001  4.6860328700000000 11.7584748300000008
  6.7391828499999997  6.6043719599999999 13.4449935699999994
  6.6507424200000003  9.2096629100000005 15.5468173499999995
  7.2217293299999996 11.1661356800000000 17.8594128000000012
  7.0670361399999999 13.6786682499999994 20.3514504500000015
  7.2539849199999997 15.7040322000000003 -0.0095141900000000
  6.9318116700000001 18.0374794300000012  2.3736633800000000
  7.0018792400000001 20.7488977800000001  4.7722787699999998
  9.0989158900000007  0.0613197700000000  9.4454473199999995
  8.9714022199999999  2.2077822999999999 11.5706696299999994
  9.0794835299999992  4.3426236200000004 14.0710624000000006
  8.9228775500000008  7.1655097500000000 15.5001107600000001
  8.7440067700000004  9.1218361699999999 17.9190236200000008
  9.1644085499999992 11.2490079200000004 20.4128096899999996
  9.4672209699999996 13.5021839200000002  0.3122487900000000
  9.3844780199999995 15.8535779500000000  2.3971919800000001
  9.3053052699999999 18.6841104599999994  4.6685993699999999
  9.3758867299999995 20.5163308499999992  7.0735125099999996
 11.3099880600000002 -0.2166100500000000 11.2524209299999995
 11.5964334999999998  2.0065492900000002 13.3880620500000003
 10.8305901500000008  4.5302704499999997 15.5794740399999991
 11.2795251699999994  6.8578964700000000 18.0863349800000002
 10.9162160000000004  9.0419608900000004 20.4473292700000009
 11.3860586999999995 11.2256323899999995  0.1022330300000000
 11.3163096999999997 13.3394430400000008  2.1799857999999999
 11.6468415600000004 15.9558478299999997  4.6693514299999999
 11.7701261600000002 18.1663779500000011  7.1091691499999996
 11.6668239699999994 20.3207487200000010  9.1378362200000005
 13.6385007999999992  0.0323424500000000 13.4137031400000009
 13.4553641800000001  2.4447371900000001 16.0605254100000003
 13.5827290999999999  4.7067825299999999 18.1470199299999990
 13.4588985700000006  6.4697901800000004 20.6337788899999985
 13.4383774200000001  9.0618534099999994  0.3040971700000000
 13.0187346999999995 11.6190620599999992  2.5474951699999999
 13.8292829899999994 13.9179423199999999  4.3127503599999999
 13.7886893199999996 15.6893349200000003  6.9225167399999998
 13.7641466000000001 17.9997354399999985  9.0282454500000000
 13.9652040199999998 20.4706807200000007 11.2564552500000001
 15.8011939699999999  0.1004582900000000 15.8086714300000004
 15.4730670400000001  2.1702297399999999 18.5898933600000014
 15.6048632400000002  4.5678234099999999 20.5119927599999983
 15.6336704599999994  6.7533551599999999  0.1841485000000000
 15.6466488199999993  9.4300630600000002  2.2657489300000000
 16.1935021200000016 11.5252386700000002  4.2180416100000002
 16.0226440500000002 13.4176302799999991  6.6778546900000002
 16.4939913199999992 16.0448995399999994  9.3612963899999997
 15.9872764299999996 18.3875830499999999 11.6317209199999994
 16.2899675500000001 20.5395892300000007 13.9726615899999995
 18.4519556300000005  0.2358755100000000 18.1420606800000002
 18.1999781499999997  2.2433518499999998 20.6380505899999989
 17.9664034100000016  4.7036292000000000 -0.1146217700000000
 18.3390622400000005  6.5025764300000004  2.2952485000000000
 18.3057988599999995  9.4191528699999996  4.3416481400000002
 18.5170038199999993 11.1598413700000005  6.6918891599999997
 18.2702469000000001 13.6212831600000008  9.0885978999999999
 17.9982239499999999 16.2492881099999984 11.1075119499999992
 18.1727984099999986 18.4399015400000010 13.5154152100000005
 17.9138936199999996 20.3056035199999982 16.1128994399999996
 20.4165229799999999  0.1498563100000000 20.5031800000000004
 20.2265306199999984  2.1970223899999999 23.0868450199999984
 20.4984562399999994  4.6295850400000003  2.1204501499999999
 20.3164197699999995  6.4509611400000004  4.4290489300000004
 20.5109196599999990  9.1293943399999993  6.5224500299999999
 20.3069628599999987 11.1818073299999998  8.7937282099999994
 19.9256994600000006 13.8277591399999995 11.2387296600000006
 20.5193275399999990 16.1384427899999991 13.8417830500000001
 20.3178358999999986 18.4696945499999998 16.0602372600000010
 20.3771872199999997 20.8300660700000009 18.4979536099999997
  2.7242072799999999  2.3051926100000002  0.1635507800000000
  2.5323486000000002  4.3662978900000002  2.5807552199999999
  2.5908177700000001  6.7097047600000002  4.4432399399999998
  2.2669642500000000  8.8751652399999994  7.0803628600000001
  1.8063803899999999 11.2007588800000004  8.8284556300000006
  2.0498868400000001 13.6938002000000001 10.8967137800000007
  2.1644876700000002 15.9691199099999999 13.7040570099999997
  1.6461507200000001 17.8925890599999988 16.0487217000000015
  2.1920351800000000 20.4493839699999995 18.2728718500000014
  2.1628918000000001 22.5565419700000014 20.6654406100000010
  4.8870030900000003  2.0656092799999999  2.3470726000000002
  5.0095966499999998  4.1945672800000002  4.6055077999999998
  4.5407055900000000  6.6302307400000000  6.6991811800000001
  4.3176195100000001  8.9210540500000004  9.2662817000000004
  4.1806563900000002 11.5957304400000005 11.0523764599999996
  4.4388432299999998 13.7437811199999995 13.4166876199999994
  4.3533988499999996 15.6460410000000003 15.7882359700000006
  4.1117063900000002 18.1173320999999987 17.7392535199999983
  4.5013922600000003 20.4054883300000007 20.6629379200000010
  4.4816427699999997 22.5084223200000011 22.5850737200000005
  7.0794488700000002  1.9823154999999999  4.4143700600000004
  6.9569759099999997  4.5003064200000003  6.8339689699999999
  6.8567141300000003  6.6720057400000004  9.1523918299999991
  6.8413861899999997  9.1249129500000006 11.2020003900000003
  6.5486603800000003 11.2418412300000004 13.3767163599999996
  7.0585344200000000 13.5207338999999997 15.7342404499999997
  7.0454079399999996 15.9665432299999992 18.0476853099999985
  6.8012797300000001 18.0993346700000011 20.3743975000000006
  6.7659920199999997 20.4681869700000014 -0.1219568700000000
  6.9753551900000001 22.5299798100000004  2.3771934300000002
  9.0011812700000000  2.2749269100000000  7.0416686000000004
  8.9775277399999993  4.5001028700000001  9.5858603799999997
  9.1068740500000001  7.0020813100000003 11.4402729999999995
  9.2412228299999999  9.1605889900000008 13.4027859399999993
  8.9904961900000000 11.3536831100000004 15.4390730000000005
  9.3298218100000003 13.7682231799999997 17.9851179499999994
  9.0804244099999991 15.7186648299999998 20.4154687300000006
  9.0128585700000006 18.4767911299999987 -0.0158287200000000
  9.1022712699999992 20.5785061599999999  2.1098917500000001
  9.1651698499999998 22.7365116699999987  4.8486420600000004
 11.2785371600000008  2.2420346400000000  9.2057847299999995
 11.4396315299999998  4.4835838099999998 11.3813737699999997
 11.0500056600000001  7.0713049400000001 13.2782180299999997
 11.2285406600000002  9.4012954200000003 15.7884726499999992
 10.9642616999999998 11.4855988599999996 18.0633214600000009
 11.6807861800000001 13.7056478899999998 19.9959003600000003
 11.2790350400000001 16.0065566299999986  0.1982614700000000
 11.5549914200000003 18.0455360300000009  2.1167796200000000
 11.6974323299999998 20.7277239199999990  4.5824904200000001
 11.2172685100000002 22.7257761599999988  7.1770087000000000
 13.8509846999999997  2.3847443099999999 11.3225437499999995
 13.3209164300000005  4.5577927799999998 13.6309723199999997
 13.1804756500000000  6.7565761000000002 16.0252689699999991
 13.4484897799999992  9.0496892100000004 18.0797688900000004
 13.2642631600000005 11.2506069199999992 20.3278122199999984
 13.2249481800000002 13.7793296400000003 -0.1099456000000000
 13.6218711599999995 15.7963219699999993  2.0734237000000002
 13.5503852600000005 17.9934741699999989  4.4523227700000003
 14.0122225199999999 20.3414113599999986  6.7902276500000003
 13.8212279099999993 22.9488018400000016  9.1335668600000002
 15.8318148700000005  2.4223661700000001 13.8338691300000001
 15.7221359799999991  4.3688103099999998 16.1693983000000010
 15.7147899199999994  6.6552897700000004 18.1464585599999992
 15.9029026099999999  8.9188124900000005 20.5073604600000010
 15.4510244500000002 11.6137134100000008  0.0266688400000000
 15.6542529100000003 13.5511297099999997  2.0084097700000001
 15.8907839200000005 15.8267839200000004  4.3353891700000000
 15.9604922299999998 18.1036192199999988  6.6184187200000002
 15.9614435500000003 20.6512462899999996  9.0569976000000008
 16.4320893599999991 22.6624710500000006 11.3457630999999992
 18.0781181199999992  2.2823832400000001 16.0820278999999999
 18.2607126300000004  4.3017226099999997 18.2264295999999995
 18.0969119899999988  6.6976736199999998 20.5485925800000011
 17.9466900299999992  9.1423086999999992 -0.1329042000000000
 18.6202496900000014 11.4193814099999997  2.3185641100000001
 18.3105254299999984 13.6001074699999993  4.5129889500000004
 18.3236570699999994 16.1584537300000015  6.9349649700000002
 18.2230529499999996 18.8579731700000011  9.0324418099999999
 18.1880421599999984 20.5904077399999998 11.4483667100000002
 18.0408685200000001 23.1305836999999990 14.1117452199999995
 20.6200360700000012  2.4847764500000000 18.3831219300000015
 20.5056285299999992  4.6892106399999998 20.9099812699999994
 20.6373226599999988  7.1806671499999997  0.0034351300000000
 20.7170508899999994  9.2331675499999992  2.2675833700000001
 20.6861336899999984 11.2743212300000000  4.3003347500000002
 20.3904181000000015 13.3808022700000002  7.0503048300000000
 20.2643437999999989 16.5503035099999991  9.0375782900000008
 20.1933306500000000 18.4868217199999982 11.6977011500000003
 20.3424883899999998 20.8897404299999998 14.1083605700000003
 20.9230704900000006 22.6455580599999990 16.0286397399999991
 22.6555811300000016  2.0627617100000002 20.7737384600000006
 23.0585261300000006  4.5055869900000003 22.6722324999999998
 22.8958748800000009  6.5301652199999998  2.5272394899999999
 22.8273024999999983  9.1209875599999997  4.5267215099999998
 22.5693440400000007 11.1263784200000000  6.6720437300000004
 22.5445648299999988 13.9092977799999993  8.8690962199999994
 22.4480684799999999 15.8615803999999994 11.5078095499999993
 22.4158353999999989 18.1446904599999996 14.0637239399999991
 22.2979732099999985 20.3922871900000011 16.1792133800000002
 22.7043617399999995 22.8171381900000014 18.5518587000000004
  4.4919243099999999  4.6217867000000004 -0.2332006800000000
  4.5225253199999997  6.4823633799999998  2.2466040899999999
  4.2720447000000004  9.0864863400000004  4.3237901599999997
  4.1419203299999996 11.0146979900000002  7.0889913699999996
  4.5262214399999996 13.2506951599999994  9.2210350099999996
  4.5481870000000004 15.6298797100000009 11.2505692100000001
  4.2447995699999996 17.8451213899999992 13.3793042199999999
  3.9886376299999999 20.4160471600000015 15.8934106699999997
  4.3594540000000004 -0.3763898900000000 18.1037041300000006
  4.1585162499999999  1.9402297100000001 20.3044884699999990
  6.9106239699999996  4.3953120200000004  2.2664143399999999
  6.6196596799999998  6.8606627299999996  4.8091575500000001
  6.7153360700000002  9.3382113400000009  6.7939925199999998
  6.7024728400000004 11.6253071699999992  9.0438139100000008
  6.8477310200000003 13.7552713099999995 11.2303385799999997
  6.8169833799999999 16.1555478000000008 13.7227696899999998
  6.7493904499999999 18.2343538599999988 15.9658425899999994
  6.4385022899999997 20.6518620199999994 18.0251709600000005
  6.7392548899999998 -0.1146924400000000 20.0046229900000014
  6.7054783999999996  1.8428309199999999 22.6496681100000004
  9.1165608700000007  4.5148902000000000  4.3116612300000003
  8.9681517500000005  6.7536720499999996  7.2600280499999998
  9.1289535100000005  9.2542989799999997  8.7471067300000005
  9.2155866999999994 11.3945929300000000 11.0579313399999997
  9.0290825100000003 13.6093480400000004 13.6464699700000001
  9.1777265600000000 16.2508953399999996 15.5596530600000005
  8.8411717999999997 17.9217322999999986 18.0497961199999999
  8.9180269200000009 20.5540843600000009 20.4296841600000008
  8.6961744599999999 -0.0561454700000000 -0.1911723400000000
  8.9964646399999992  1.8854229100000000  2.2388947199999998
 10.9642483899999998  4.4583106299999997  7.1790656300000002
 11.4058747100000009  7.2965213999999996  9.1921096700000007
 11.4940065199999992  9.2003442500000006 11.2508603100000002
 11.7405024499999993 11.2764128800000005 13.3696846300000001
 11.4150536599999999 13.7204806399999999 15.5769922800000007
 11.2707891900000003 15.6906948199999992 17.9669510400000014
 11.1732170100000001 18.3647857700000010 20.6327716800000012
 11.4673062699999999 20.6556447699999985 -0.1037005200000000
 10.9929654400000008  0.5386595300000000  2.0025279999999999
 11.2517055199999998  2.2166385900000001  4.7582263400000002
 13.4303546600000008  4.8370923100000001  9.0699257699999993
 13.4890402599999994  6.8986649699999996 11.0439883600000002
 13.7725357699999993  8.9695691100000001 13.5709995600000006
 13.6637569100000000 10.9428574500000000 15.9201067100000007
 13.5449576399999998 13.5066674500000001 18.0596079399999994
 13.6943078800000002 16.1953700400000002 20.2321878499999990
 13.8953929100000000 18.2638403499999988 -0.2479838300000000
 13.5299672500000003 20.5536299000000007  2.0502612199999999
 13.7652679300000003  0.4551401300000000  4.4248141900000002
 13.5900121200000008  2.1878277100000001  7.0897820300000003
 15.9017701299999992  4.7575365400000003 11.1505612900000006
 15.7400346500000001  6.4394742400000000 13.6520408999999994
 15.8006524000000006  8.6601330300000008 15.7506164500000008
 16.1921628899999988 11.1366181900000001 18.0166532799999999
 15.7091374600000009 13.8034849600000005 20.4572128100000015
 16.2721473900000007 15.7469664999999992  0.0834274800000000
 15.6394405800000005 18.0660871299999997  2.3455749600000000
 15.7473533299999993 20.4515002000000017  4.4711311299999998
 16.1896693300000010 -0.0131061600000000  6.9292199300000004
 16.1356625099999995  2.3666599800000001  9.1552577700000004
 18.3089016399999984  4.4874720600000000 13.7104537799999999
 18.1470101399999990  6.4881206899999997 15.7829930100000002
 18.0003631800000008  8.8575206699999995 18.2649203900000003
 18.0154053699999999 11.5066159300000006 20.5732148700000010
 18.4414377899999984 13.4517588499999992 -0.0472522000000000
 18.1952213100000009 15.9943696499999994  2.1598492700000000
 18.2373246199999990 18.2706599700000005  4.2709877100000000
 17.9839804399999998 20.3954000300000011  6.6947436299999996
 18.3474897000000006  0.0033855400000000  8.9666707100000007
 18.3005884399999985  2.5070346400000001 11.2790979000000000
 20.7561801499999987  4.4011350000000000 15.9402478500000004
 20.4262281500000000  6.9450638700000003 18.1645394399999986
 20.2696606700000004  9.5152937600000005 20.1147656499999989
 20.7923688200000001 11.5073863799999998 -0.1174849500000000
 20.5119281300000011 13.4840248700000007  2.1792322000000000
 20.4894276499999997 15.7258850799999994  4.5032439799999997
 20.5762370399999988 18.1922839799999991  6.3598203900000003
 20.1081644299999986 20.4867152099999998  9.0223595900000007
 20.5135770599999994  0.1983628800000000 11.6627674100000007
 20.6701691200000006  2.2120631099999999 13.5425268600000006
 -0.1694481400000000  5.0474603599999996 18.5665686100000009
 -0.0368954100000000  7.5002244600000001 20.3384821799999997
  0.2539584900000000  9.3130614499999993 -0.3381891900000000
  0.1917897700000000 11.5187286400000009  2.2185504500000000
  0.2842786300000000 13.7935435900000005  4.6301769400000001
  0.0165717000000000 15.9256016500000008  6.9342762699999998
 -0.1160175100000000 18.3573971500000006  9.2566939799999997
 -0.2517707600000000 20.4042560500000008 11.4397988000000002
  0.1343383300000000  0.2891743400000000 13.5585816200000000
  0.2408685200000000  2.3783925799999999 16.2853198200000016
  2.5872496900000002  4.6056890599999996 20.0755052599999999
  2.1178225400000001  6.5179526499999998 22.8301617000000014
  1.9627287200000001  8.8058084500000007  2.1314987400000001
  2.0932178299999999 11.5293468600000004  4.6698114200000003
  2.3075509699999999 13.6622879299999997  6.9602059699999996
  2.0346734500000001 15.7940485000000006  9.1892085899999998
  1.9604391900000000 18.0584945300000008 11.5294615799999995
  1.8814313800000000 20.2259923300000004 14.0901916200000006
  2.1151534000000001 -0.1590899300000000 15.9549964299999996
  1.8784264100000001  1.9849904199999999 18.4731531199999992
  6.9645268900000001  7.0259300299999996  0.0789931200000000
  6.9174034100000004  9.6059545800000006  2.6241573599999999
  6.6152320600000003 11.6111056700000006  4.6765954699999996
  6.9241567899999996 13.9294462100000001  7.0891660800000000
  6.9043205399999996 16.1992450599999991  9.2511934000000000
  6.7622494099999999 18.3174171299999990 11.6423753600000008
  6.3401878900000002 20.2144055999999992 13.7402698399999998
  6.7144290099999999  0.0288966600000000 15.9372627999999992
  6.7866007399999999  2.1395093300000001 18.0621942000000004
  6.6639095599999996  4.3869433799999999 20.3735161100000006
  9.1762185400000007  7.0316867299999997  2.0188783099999998
  9.2494754799999992  9.0255737299999996  4.8044624699999998
  9.2042635300000004 11.5205117500000007  7.0391369199999998
  9.0135481899999998 14.2742031600000008  8.9473070900000007
  8.9173678499999998 16.2056224299999982 11.4575024200000009
  8.9887868999999991 18.5305989500000017 13.6138409700000000
  9.2083978900000005 20.4361302100000017 15.5913319700000006
  9.0492476899999996 -0.0606898000000000 18.2398909799999984
  8.8708250300000007  2.6038980800000000 20.5991152299999989
  9.2008015299999997  4.6623032599999998 23.0465775099999988
 11.4637718100000008  6.8558342000000003  4.7371930700000000
 11.8947353299999996  9.3344725200000003  6.8229720599999997
 11.5729211000000003 11.4502398299999992  8.9692910099999992
 11.3515344000000002 13.9967513799999992 11.4252062799999994
 11.6672760800000006 16.2173830999999993 13.4922400000000007
 11.6959129100000006 18.5092917399999983 15.6383686500000003
 11.2775962900000000 20.1204249299999987 18.2215296000000002
 11.4663574100000005 -0.1843421400000000 20.0637857699999991
 11.2100372999999998  2.1850540500000002 -0.3369948300000000
 11.1725220000000007  4.3596895000000000  2.4981952500000002
 13.7427796400000002  6.8315558699999999  6.8342086599999998
 13.8987916600000005  9.3286823600000002  9.2864444600000002
 13.5546877000000006 10.9658656899999993 11.5831899499999995
 13.4827669199999995 13.1917941200000008 13.4810805600000005
 13.5643726600000001 15.9479031899999999 15.9553834699999992
 13.5688283300000005 18.1301272699999991 18.2117740099999992
 13.3794151200000009 20.4888691499999993 20.2565156500000008
 13.1838393699999994  0.2253276100000000 -0.4983417500000000
 13.6158821799999998  2.3941191800000001  1.8921482700000001
 13.6747679699999996  4.4914260900000000  4.6530675800000001
 16.0136165199999994  7.0187704000000002  8.8662262399999996
 16.2015256200000017  8.7166245199999999 11.5763208800000008
 16.0504480100000002 11.0504318300000008 13.8971526300000008
 16.0714718400000010 13.6894641900000007 15.8311469200000001
 15.9508474299999996 15.6237676200000006 18.0510701000000005
 16.0082769499999991 18.2239092499999984 20.4630669300000001
 15.4684460000000001 20.8014831999999998 -0.0109121700000000
 15.9184763300000007 -0.0364859300000000  2.0149247899999998
 15.9215658100000006  2.2503700699999998  4.4672341600000003
 15.9757704900000004  4.6419137499999996  6.6197308899999996
 18.5236155099999991  6.2754063799999997 11.3839455300000001
 18.4219077300000009  8.3469167100000004 13.7223720199999999
 18.2594094799999986 11.0686088900000001 15.4569277599999992
 18.1197481200000006 13.4683349600000000 17.8904383600000010
 18.0734215899999988 15.3933167999999991 20.2173230900000007
 18.1951393900000014 18.2372464100000009 -0.0707376200000000
 18.0303669599999985 20.5012362000000010  2.0919952199999998
 18.1803820800000011 -0.3591325300000000  4.4980226400000003
 18.2247957599999992  2.3586914900000000  6.4278102700000002
 18.1347301099999996  4.2002033299999999  9.0819250700000005
 21.0561739099999983  6.7677123000000003 13.5709366100000004
 20.5859586599999993  9.0499784499999993 15.7954406400000007
 19.8953808899999984 11.5172348400000004 18.3038950800000002
 20.6537209500000003 13.4986495200000007 20.4881213799999990
 20.6500415699999991 15.8569279099999996 -0.2864039600000000
 20.5640256000000008 17.8568840100000017  2.0457388800000000
 20.4804188799999984 20.3865414800000018  4.2367142400000004
 20.6471563200000006  0.0345681700000000  6.6137310999999999
 20.6023178599999994  2.4281296999999999  9.1932431700000006
 20.7891877600000008  4.4900603099999996 11.1192815500000002
  0.4149276300000000  7.0813155300000004 16.0216467700000003
 -0.0914450300000000  9.2668076799999994 18.0304205700000004
  0.2986844800000000 11.1980099000000006 20.4739241099999987
  0.1937440100000000 13.6579167699999999 -0.0566365000000000
  0.1650826900000000 15.4871992100000000  2.4069934100000001
 -0.0574512100000000 17.8643657400000002  4.3588152600000001
 -0.1024595500000000 20.8203517100000006  6.7547783099999998
  0.0187281400000000  0.0061888200000000  8.9474826899999993
  0.3075803800000000  2.2577614100000001 11.1721434700000000
  0.0611514400000000  4.6511276099999996 13.4114143699999993
  2.4620556599999999  7.1207703999999996 18.2656943500000004
  2.9433590299999999  9.2862802599999998 20.0729390400000014
  2.3442596400000002 11.7095507899999998 -0.0726050000000000
  2.3869833599999999 13.6262776300000006  2.2308922099999999
  2.3390941800000000 15.8389469500000004  4.7063601999999998
  2.3431260500000000 18.2203836999999993  6.8026746800000000
  2.1715374299999999 20.4699232299999991  8.9190128000000009
  2.0268418100000001 -0.1533825900000000 11.8460624600000006
  1.9374211900000000  2.5339000700000001 14.1668256100000001
  1.9981660800000001  4.4964421600000000 16.1637792000000005
  4.7370777200000003  6.6846192899999997 20.5172082799999984
  4.6310056700000004  9.1925237699999993 22.9312037900000014
  4.2239010900000000 11.5252349100000000  2.4511691099999999
  4.2956052400000004 13.4590024600000007  4.9211303199999996
  4.7092067799999997 15.7712075299999999  7.2612776600000002
  4.4991003899999997 18.1363983600000012  9.1701002599999999
  4.1850592100000004 20.3442827199999989 11.4907765600000005
  4.0995475299999997 -0.0232262700000000 13.8405527300000006
  4.1158117799999996  2.3999336300000000 16.0454282600000013
  4.3519164899999998  4.6937138200000001 17.8922115599999998
  8.9794995600000007  9.4019113200000000  0.0736861000000000
  9.2347446400000006 11.6828357100000009  2.4832015500000000
  9.2541901299999996 14.0541745999999996  4.9306725900000004
  9.0698001099999992 16.3519099200000007  6.9283046099999996
  9.2311195200000000 18.3792330600000007  8.9548505899999995
  9.2058052099999994 20.3821046700000004 11.7090783399999996
  9.0625721200000005  0.1763724700000000 13.7335576899999996
  9.1041317999999993  2.2225503500000001 15.8155891799999999
  8.7251298800000008  4.8331284600000002 17.8005307700000017
  8.7998054200000002  6.8625595900000000 20.7835970600000017
 11.1349764800000006  9.2241568699999998  2.6177071600000001
 11.4609668399999993 11.8584707100000006  5.0315085300000000
 11.6276636500000006 13.8738582299999997  7.1799691799999996
 11.8165763800000008 16.0788233500000004  8.9880309100000009
 11.6609862799999995 18.3958412100000004 11.4385887000000004
 11.9972269499999999 20.7730172499999988 13.8877643400000004
 11.8200795999999997 -0.0932863100000000 16.1927235699999983
 11.4397871299999991  2.7692676700000001 18.1873035300000012
 11.3118821599999997  4.5814606299999996 20.4807259500000001
 11.2781138900000002  6.8416032600000003 23.2020176099999986
 13.6088989700000003  9.3482640299999993  4.7370236200000004
 14.2344132200000004 11.3826002000000006  7.0179520499999999
 14.1896170799999997 13.5799236499999996  9.5351093500000008
 14.1856951900000006 16.4168990299999997 11.8056745299999992
 13.9871425400000007 18.7302805600000006 13.8694625400000007
 13.7792483499999996 20.7530978300000015 16.3031192099999984
 13.5812872299999992  0.3986579700000000 18.4415322900000014
 13.2378855699999995  2.5856627599999999 20.5491309199999996
 13.6189996699999991  4.4235969099999997  0.2825093900000000
 13.2938559299999994  6.7787807200000003  2.5038832700000002
 16.1192493799999994  9.1659513900000000  6.9053514099999997
 16.1774554399999992 10.7925920200000007  9.3205245500000000
 16.3536005200000005 13.4538276600000000 11.7343814099999992
 16.0136790200000014 15.8978847699999992 14.1424620399999998
 15.9315562300000000 18.2093609900000004 16.3497028899999997
 16.0157701199999991 20.4965374999999987 18.3896771100000009
 15.9167702299999991  0.0055170500000000 20.9222040999999983
 15.6307768500000002  2.0712521800000001 -0.1049786200000000
 15.8061186100000004  4.4154251599999998  2.2419210700000001
 16.0549012299999987  7.1571199600000002  4.2064305400000004
 18.7012025100000017  8.6206949599999998  9.3129937999999992
 18.3140534300000013 11.4292766700000001 11.3476807100000006
 18.4961252300000005 14.0850969199999998 13.4542272900000004
 18.4632312100000000 15.8316758499999999 15.9806446700000002
 17.9339036500000013 18.0873879399999993 18.3822541100000016
 18.1536476700000016 20.3698099399999997 20.4261362499999990
 18.3793250899999983 -0.1432928700000000  0.1961635100000000
 17.8969417100000001  2.2037115900000002  2.2854406300000001
 17.9358062899999986  4.6659485199999997  4.3751528999999998
 18.1764088900000012  6.5990411699999996  6.7218749000000004
 20.3529022899999994  8.8017608999999997 11.7597752100000008
 20.0588767399999988 11.0866466100000007 13.4513805000000009
 20.1366815099999990 13.4944325400000000 15.7754897399999994
 20.5154121499999995 15.8985750100000001 18.3829389499999998
 20.3820666400000015 18.3949452099999995 20.5870075999999997
 20.5873625400000009 20.0891005500000013 -0.0592795700000000
 20.6731976599999996  0.1059260900000000  2.0543442100000000
 20.4712484299999993  2.4340607900000002  4.2274931799999997
 20.3713252800000006  4.2229157900000001  6.6602967499999997
 20.5464061200000003  6.3075925399999999  9.0377033400000002
  0.2000060200000000  9.2214554399999997 13.7947189199999993
 -0.0783921600000000 11.4116070199999999 15.8091226099999993
 -0.1589045300000000 13.4046271600000004 17.9903461799999995
  0.0608553700000000 15.4654898900000006 20.4256700900000006
  0.2870779700000000 18.0276558599999994 -0.0607916300000000
  0.2314297000000000 20.4309082199999992  2.2589270500000000
  0.0168005800000000  0.0139267000000000  4.1188250200000001
  0.2149669000000000  2.0223519200000002  6.8980770700000003
  0.1696864900000000  4.3262345000000000  8.6266427799999992
  0.2546811800000000  6.7263347400000004 11.1636047600000001
  2.3658588900000002  9.4099705500000006 15.7920736799999997
  2.6052925000000000 11.6883595000000007 18.0001084700000007
  2.4334869800000001 13.3910779499999997 20.0043162800000012
  2.1257756099999998 15.5976942199999993 -0.3476037000000000
  2.3796166699999999 17.7059633199999986  2.3115918799999999
  2.1577603700000001 19.9688318900000006  4.1510720200000000
  2.2946337699999999  0.0837743000000000  6.6134540299999998
  2.5328675899999999  2.0200832700000002  8.8782187199999996
  2.6551571699999998  4.2121170899999996 11.1688358700000006
  2.1423656000000002  6.7782872000000003 13.6079814799999994
  4.6548467799999997  9.3188834499999995 18.1810821300000001
  5.0613811699999998 11.5955111700000000 20.5126862199999991
  4.5398580300000004 13.8592602399999993 -0.1277101000000000
  4.5054428299999998 15.7849977500000005  2.5985119700000001
  4.4481764000000004 18.1241906899999989  4.7473138199999996
  4.3862653700000003 20.8538101199999986  6.6786115199999996
  4.4082479100000000 -0.0229080300000000  9.0088765899999999