Li                                      
   1.00000000000000     
    22.7325000000000017   -0.0000000000000006    0.0000000000000000
    -0.0000000000000006   22.7325000000000017    0.0000000000000000
     0.0000000000000006    0.0000000000000006   22.7325000000000017
   Li
   500
Direct
  0.0022007812603135  0.0243363030902870  0.0045331067854377
  0.9907228509842767  0.0742900442098318  0.0993189877928060
  0.0012298898053444  0.1795538255801148  0.2030375669196118
  0.0009083264049252  0.2920597928076560  0.2896505311778270
  0.0051871096447798  0.3991455132519519  0.3927291529748160
  0.9900776566589684  0.5066135629605171  0.4913625197404627
  0.9805669829539241  0.6049099588694631  0.6072970553172752
  0.9872350700538846  0.7023670916089273  0.7092480431100867
  0.9976286598482318  0.8022465412955029  0.8045257908281087
  0.0113208995930947  0.9052791945452512  0.8981252831848678
  0.1085299087209961  0.0013436498405355  0.1002493667656452
  0.1019910823710575  0.0885319784449550  0.2104126017815915
  0.1071792226987824  0.1938840818211816  0.3006472983613762
  0.0963107132959422  0.2948071232816432  0.3953467612449160
  0.0900383824920254  0.4119605850654366  0.5054637848894785
  0.0986483805124792  0.5023843681953153  0.6063052510722500
  0.0922571494556266  0.6095734723413599  0.7030387731221808
  0.1000856548993738  0.6870035864951092  0.7952491965248001
  0.1081123835917737  0.8019478948641847  0.8819514774002002
  0.1055681077752126  0.9008125907841205  0.9904945492136790
  0.2038495365665867  0.9922586759045444  0.2157164755306269
  0.2005189517211008  0.0926983934894992  0.3052177758715473
  0.2076994105355752  0.1875768428461484  0.3884367715825334
  0.1936155429451247  0.2997276282854955  0.5021740213350938
  0.2043917026283921  0.4087726787638815  0.5886792539315948
  0.1843957189046534  0.4981854996150901  0.7027117277026278
  0.1970332409545819  0.5940870467392472  0.8084911985043419
  0.2037104185637304  0.6937685833058396  0.8827334763004515
  0.2076955706587498  0.8033299870229840  0.9925128204113065
  0.2099512482129100  0.9060923039700839  0.1020971032662459
  0.3036663525789081  0.0020132867040559  0.3090272869240067
  0.2942051019465524  0.0903841733201389  0.3998926558891469
  0.2910333377323227  0.1960835139118018  0.4918168261299911
  0.3034866754646401  0.3005119771252609  0.6023703868910175
  0.2889493192565737  0.3933857763114474  0.6908200980974399
  0.2977252972616284  0.4867225021445094  0.8114245709886703
  0.2913990986473110  0.5958196274056959  0.8830057661937758
  0.2995872341361476  0.6931017578356986  0.9958055286484111
  0.3051764552952818  0.8002628065544926  0.1071004126250941
  0.3074600892994610  0.9023957483778702  0.1912416711756322
  0.4060550185857252  0.9878289708567038  0.4055866578686889
  0.3929268773782013  0.0870678359177361  0.5065083211261410
  0.3898712895634020  0.1976928243703924  0.5883809717364983
  0.3997422056527000  0.2932380191356003  0.6870738066644648
  0.3930740613658870  0.3913124891674897  0.7975004047069163
  0.3981299069614010  0.5010939443527960  0.8897179795447059
  0.4042253962388642  0.5942163246453305  0.9995731129440202
  0.4125172774661792  0.7044128551633122  0.0980844975255692
  0.4209643457604741  0.7954970799516090  0.2142686558891427
  0.4037415290883075  0.8952652277576192  0.3067090588364678
  0.4982688525239212  0.9890383398218390  0.5143711505553696
  0.5070878803475196  0.1016669816342244  0.5881654116353232
  0.4997862280875367  0.1969298422962709  0.6828754232926428
  0.5043750775321669  0.2985746490707157  0.7930781528648438
  0.4954049479819673  0.4029563127680618  0.8855640712636088
  0.4919630946882236  0.4945373540085782  0.9895402208292126
  0.4986496544594772  0.5972720167161540  0.1008426143187080
  0.5105094974155975  0.6998101132739478  0.2089952847245158
  0.5062743411415340  0.8123419377543186  0.3118224634334084
  0.5142577178049024  0.8951805626305926  0.4119499848234938
  0.6058552380952378  0.9996187603651165  0.5974003264049301
  0.6044877343011095  0.1045399252172032  0.6915425171010696
  0.6047274738810060  0.1954952697679531  0.7992801249312649
  0.5842412796656760  0.2968146807434309  0.9015242102716385
  0.6011904519960396  0.3937839133399308  0.9887425175409632
  0.5802916762344665  0.4810605283184870  0.0986184981854166
  0.6032037787308937  0.5798393661057943  0.1962184827889573
  0.6088408050148431  0.7020258414164715  0.2910053465302980
  0.6100095779170758  0.7925139201583633  0.4078577288023766
  0.6095003673155190  0.8858567698229436  0.5102937274826758
  0.6917635152315000  0.0086414982953897  0.6965061581436274
  0.6919104409985692  0.1057074083360803  0.7939926431320785
  0.6862951470361836  0.2001285745078647  0.8971915389860357
  0.6916193678653926  0.2904993203563180  0.0134301453865646
  0.6815587137358392  0.4143464475970546  0.0974431716705126
  0.6884699703068264  0.4935468065544910  0.1945287385901224
  0.6966584365995843  0.6042844592543730  0.2901319810843503
  0.7058538378972870  0.6879719634883941  0.3920383125481166
  0.7093454903772098  0.7976830968877167  0.5039593388320682
  0.7023040514681611  0.9063177485978215  0.6119533390520147
  0.7915515636203665  0.0147934886176202  0.8029115724183455
  0.7893534784999474  0.0982418119432538  0.9103431963048507
  0.7933898277796132  0.2023111778291025  0.0211696342241297
  0.7960811925657083  0.2901094301110732  0.1196442243483986
  0.8094917219839459  0.3922026442318298  0.1873395319476501
  0.7960767473880992  0.4908173610469575  0.2777132845045642
  0.7997639309358817  0.5993837127460679  0.3819743543385030
  0.7989989244473747  0.6975438403167260  0.5021226160783030
  0.7972718073243144  0.8096313551083227  0.5947437149455652
  0.8114309526009009  0.9021017609149879  0.7114438961838800
  0.8986868536236656  0.9991430542175266  0.8981791417573959
  0.9117994708017179  0.1039026490707116  0.0083048010557576
  0.9085510735730793  0.1839690781920140  0.1144068034751982
  0.9031838548333866  0.3105714699219178  0.1917370667546479
  0.9123498563730337  0.4019472231386771  0.2829230445397570
  0.9024712662487602  0.5053444236225673  0.3862184176839349
  0.8960607183547751  0.5962078143626997  0.4971452413944775
  0.8878976790938111  0.7049009792147771  0.5950492537116432
  0.8990783437809284  0.7988877703728150  0.7071515403057305
  0.8864017380402487  0.8932574243923881  0.8066781537446417
  0.0992894741009565  0.0854512398548337  0.9961330130869896
  0.1005073331133843  0.1806600299131205  0.1078506134389059
  0.0940707893984367  0.2891182918728674  0.1906173764434200
  0.0954504621137104  0.4045091635323885  0.2876674822390868
  0.0828732013636895  0.5024544154844364  0.4030582984713504
  0.0911677079071822  0.6111000219949432  0.5123822566809650
  0.1056907097767521  0.7048223802925335  0.6183847429891145
  0.1025335677994050  0.8011913269548003  0.7034538999230193
  0.0958660763224444  0.9136087768613237  0.7849394105355785
  0.1009798249202660  0.0053315227097741  0.8901178541735391
  0.2163830124271442  0.0922493394919144  0.1091472873639034
  0.1946733491696904  0.1795810381612242  0.1923069429231248
  0.2036070304629902  0.2947647737820276  0.2979802604201041
  0.1910385773672090  0.3991450711536331  0.4007092189596406
  0.1987931393379512  0.4898743099087213  0.4906240827009754
  0.1954463411415404  0.5931508096337836  0.6028764293412507
  0.2008381484658557  0.6925127363906327  0.7130240941383477
  0.2087040844605710  0.8003487636643598  0.8008824154844376
  0.1972261709006915  0.9117422197294616  0.8951746574287895
  0.2008447548663810  0.0080985470141854  0.9918138220609265
  0.3242507467282536  0.0885129550203487  0.1946381752996800
  0.2939838271197601  0.2017977745518564  0.2994482771362570
  0.2911697459584275  0.3030133320136343  0.4001440633454294
  0.3041637387000975  0.4077283822720759  0.4906862434839994
  0.2940593577477202  0.4967308448256915  0.5888434202133510
  0.2971551615528440  0.5914519533707221  0.7128830102276495
  0.3109727161552840  0.7159154219729444  0.7979246699659086
  0.3087274637633328  0.7980876599582132  0.8931849114703638
  0.2984392143407035  0.8999218603321211  0.0072065870449762
  0.3003323281645223  0.0089465641702375  0.0901991303200234
  0.3947189789948311  0.1056675257890660  0.3190810588364670
  0.3970723017705922  0.2068797105465734  0.4095105566919628
  0.4032275812163206  0.3119734323105661  0.5040819232376563
  0.4199462179698656  0.4077047904981868  0.5992487368305319
  0.4030690161662847  0.4948284161442871  0.6909975915539448
  0.4001478249202677  0.5926546719454535  0.7915742364456193
  0.3993596603981118  0.6796351210821499  0.8991451230616931
  0.4147664946662246  0.8011852849444594  0.0098761288903546
  0.4009617512372188  0.9041732581106317  0.1044847113163954
  0.3846846470911700  0.0084533592873655  0.1997999080611450
  0.5079804170240863  0.0911950836907494  0.4237118394369261
  0.5018712961618803  0.2011269367645454  0.5068706490707129
  0.5018903455405237  0.2936763813922809  0.6052576038711095
  0.5013904207632223  0.4090228144726709  0.7153686321346058
  0.4940345333773237  0.5078654120752262  0.7988027784009688
  0.4978290113273971  0.5792894507863195  0.8787105971626517
  0.5083525841856371  0.6970677052677914  0.9926899342351234
  0.5131043308039125  0.8052004504563968  0.1209360466292750
  0.5052140142967119  0.9109002071923484  0.1984308813372948
  0.4896494683822752  0.0085996740349685  0.3076946283954669
  0.6026101906961401  0.0898025698889242  0.4980461994941194
  0.6088716599582114  0.2077100925987025  0.5893510757725693
  0.5864389987902783  0.3109090100076983  0.6945625360167185
  0.6035168701198756  0.4062772528318490  0.8099226789838312
  0.5999256980094572  0.4913769167491466  0.9121808978335011
  0.5876949948311889  0.5953938053447700  0.0022605133619251
  0.5955406510502570  0.6999273445507512  0.1129469662377645
  0.6173797356208084  0.7963201183327868  0.2106595570218843
  0.6165263829319230  0.9130645393159540  0.3009070001099730
  0.5993986244363825  0.9843791941053581  0.4099031276806357
  0.6894695484438600  0.1110509979104819  0.5981903402617377
  0.6980014956560012  0.2149859791048030  0.6926236159683299
  0.6896732154404503  0.2917886462113728  0.8059600255141319
  0.7048243875508646  0.3980382975915546  0.9092052189596416
  0.6881626380732442  0.5002826781040355  0.9942954760805023
  0.6836481548443842  0.5838363686352110  0.0980090614758637
  0.7126828452655900  0.6938518090839096  0.1995581880567485
  0.7067585368965155  0.8102970531177860  0.3055188611019446
  0.6966806510502579  0.8944534239524913  0.4099935348069934
  0.7008285780270569  0.9973812391949863  0.5040470753326716
  0.7945142162102741  0.1201095277686122  0.7039255946332332
  0.7930765204003052  0.1991125604311037  0.8009206937204425
  0.7805814345100615  0.2875892743868889  0.9117320299131180
  0.8004576474210907  0.3856734521060190  0.0048761671615551
  0.7865800796216860  0.4946106332343589  0.0907372924227445
  0.7991435042340242  0.6088877197844482  0.1882788320686259
  0.7949867440888596  0.7071740349719562  0.3042960175959522
  0.7970041504453960  0.8060654182338070  0.3970535031342806
  0.8133232952820819  0.9010314048168908  0.4939036788738562
  0.8087520532277566  0.0119952156603986  0.6005094411085423
  0.8827110691740927  0.1169265932035657  0.8045707476080537
  0.8880880083580749  0.2116837730122043  0.9210583292642696
  0.8951974195535044  0.2920306173979981  0.0007331199824065
  0.9082215189706346  0.3995510150665353  0.0924316181678222
  0.9053063019905423  0.5052315024744303  0.1675734252721881
  0.9049435301880564  0.6017008138128261  0.2792223789728396
  0.9053685494336321  0.7065514901572669  0.3992852545914474
  0.9040673973386149  0.7907539016826135  0.5032259808644000
  0.8921299452325968  0.9114902069723954  0.6072921381282299
  0.8959732704278025  0.0110620156164103  0.7088570425602114
  0.0161627405696692  0.0998991272407324  0.9036841024964275
  0.0078576667766441  0.1882172919828449  0.9960729624986229
  0.9940649013526865  0.2961929805344781  0.0874679687671858
  0.0080921592433754  0.4032743948091948  0.1808160347520058
  0.0015840756625991  0.4920404698119398  0.2908831034861947
  0.9802622945122650  0.6111620934784980  0.4009251837677326
  0.9965382100516891  0.7010910674144952  0.5052796375233726
  0.9945258748487831  0.8014753221159125  0.5994591844275803
  0.0011296258660494  0.8978312389750371  0.6996198926646855
  0.9928235381062365  0.0045796494006396  0.7798550405806637
  0.1946105069833948  0.2047575638403174  0.0053372537116445
  0.1892646875618595  0.2860034312108226  0.1018865171010646
  0.2052359978005072  0.3901010755526215  0.2002381950951246
  0.1855523941493473  0.4915583851314196  0.2995006642472262
  0.1994823798526326  0.5901454890575195  0.4011366954800408
  0.2094529884526537  0.6783333773232130  0.5128488802375486
  0.2060787946772251  0.8031489004728911  0.6124236454415453
  0.1898819373144178  0.9122338137028478  0.6981696276256457
  0.2015777463983284  0.0045798803475208  0.8029104018475763
  0.1909238706697494  0.0897980670845726  0.9009231518750695
  0.3055223838117200  0.2053320061585850  0.1046230102276482
  0.2985979329154276  0.3093596700758852  0.2049735814362705
  0.3025723717145041  0.4069980939183964  0.3149952178598951
  0.3069271114043772  0.5073687878587947  0.3838804139447944
  0.2909923022104905  0.5965235996920697  0.5002995618607713
  0.2998586565489916  0.6817238187616823  0.6275479423732548
  0.3080062030133064  0.8218880897393603  0.7065553229957118
  0.2922938414164733  0.9069946376333462  0.7967094754206556
  0.2961541682613031  0.0180907212141221  0.9157846453315770
  0.3060157400197951  0.1121894745408554  0.0027547388100757
  0.3919766946002454  0.2106959335752805  0.2145354510062703
  0.3985761548443847  0.2931870784119681  0.3070561939953791
  0.4058626701858543  0.4103401055757203  0.3859855497635536
  0.3937084091059049  0.5064055642802145  0.4919135255691174
  0.4101026266358758  0.5922004491366977  0.5921988778180989
  0.4033855541625400  0.7029501233916164  0.6938918046849238
  0.4023645912240212  0.8037182012537087  0.7889554224128474
  0.3921698559331332  0.9005587418893626  0.8977596467612443
  0.4066670027493657  0.0037095858352600  0.0041595886945984
  0.4127765577917089  0.1043633757835707  0.1046880008797970
  0.4968895831958662  0.2022518640712647  0.3155833625866080
  0.4949322300670858  0.3026710951281188  0.3908731331793689
  0.5136275702188513  0.4064117848894782  0.4986108698999203
  0.4860042208292086  0.5042779324755315  0.5874109864731096
  0.5043545729682180  0.5998797035081935  0.6852756933905226
  0.4986873775431633  0.6789028888155713  0.7960706042010344
  0.4905740028593399  0.8086228034752025  0.8975759815242483
  0.5083979601891571  0.9007799608490075  0.0164185646101416
  0.4960209783349825  0.0128611388980531  0.1030378062245703
  0.4870357439788862  0.1081453790828135  0.2042614512262162
  0.6055424396788709  0.1938409308259068  0.4048294872979241
  0.5999537252831857  0.3192667920378298  0.4825480972176379
  0.5924530126470913  0.4257815348069940  0.6122508452655921
  0.6002126536896526  0.5050831457164833  0.7043082920928185
  0.6000259263169454  0.5839977367205549  0.7975303846915196
  0.5796679555702156  0.6891235715385449  0.8787041777191220
  0.6022098924447405  0.7996559705267785  0.9949648622016909
  0.6021925256790936  0.9099966506103598  0.1067717672935231
  0.5954909781150306  0.0114823873309149  0.2109302096117887
  0.5877186978994828  0.1028437360607057  0.3075044091059027
  0.7041131142637198  0.2225554624436370  0.5038557536566586
  0.6912777393599470  0.3315003154074532  0.5931437316617192
  0.6932922230287062  0.3925882120312352  0.7011064497965478
  0.6974302298471358  0.4887501801385667  0.8261905668096361
  0.7014965111624321  0.5947380450896276  0.8835409009127915
  0.6884402846145363  0.7067083356428014  0.9824556282854928
  0.6995779623886520  0.8045215677994051  0.0821191311998248
  0.7012118381172314  0.9187509394039353  0.1961887882986915
  0.7032435389860296  0.0069943151875052  0.3079959678873863
  0.7046356894314272  0.1090467550863323  0.4074224731111826
  0.7919391373584048  0.2191200083580753  0.5961397725723074
  0.7966926057406809  0.3079451410975480  0.6993272178598886
  0.7870695783569772  0.4013567319916405  0.8032955741779375
  0.7947840976575407  0.4961586068404245  0.8928010742329278
  0.7944758411965225  0.6019948065544938  0.0013470814912537
  0.7851078200813788  0.7069036652369931  0.0909667005388783
  0.7992847372704261  0.8211324368195321  0.1927616729352266
  0.8111624585945236  0.9164572955020347  0.2937323791927824
  0.8050560919388516  0.0055272086220199  0.3967937802705350
  0.8076505096227891  0.1003246748047957  0.5015990792917648
  0.8978596441218514  0.2229878011657291  0.7063414842186262
  0.8769964962058694  0.2964270652149992  0.8115128393269515
  0.8819007702628383  0.3981376856922907  0.9016930456395045
  0.9030939236775524  0.5026444385791251  0.0133830243044102
  0.9026492594303335  0.6139044957659721  0.0764278680303505
  0.9099266569888940  0.7134442740569682  0.1846160338722100
  0.9108012229187281  0.8025682885736245  0.2973059025624138
  0.9088973078192026  0.9034756801935586  0.4018868254701431
  0.9108390273837017  0.0062965195205109  0.5089874105355747
  0.8967810126470894  0.1139659945012639  0.6193426112394178
  0.9948134318706678  0.1974415163312457  0.8064900776421453
  0.9904370214450680  0.2980044605740702  0.9065254521060169
  0.0021215224898299  0.4037916797536596  0.9970299689871354
  0.0081579447926998  0.5063695699989026  0.0728731089849362
  0.0009738871659550  0.6117664396788740  0.1822231782689983
  0.0095499399538141  0.7092481957549737  0.2935080831408783
  0.9988011674914787  0.7937162538216214  0.4143235499835072
  0.0063245349169705  0.8861450258440584  0.4923502531617743
  0.9997702848344900  0.0082038504343984  0.6101969660178170
  0.9956723466402693  0.1061555609809730  0.7125315196304882
  0.0995199049818538  0.2057478715495407  0.9096213487297931
  0.0897027176949337  0.3113938273397139  0.0175553625866058
  0.1116052352358992  0.4045949028923346  0.0800830581766192
  0.0933951822280861  0.5040901906961395  0.1846988540635621
  0.0803537837897252  0.5927321737600337  0.3023066345540499
  0.0940167966567671  0.7169930570768699  0.4060548413064993
  0.1065081280105602  0.7910510040690610  0.5067934287913758
  0.1005941167931397  0.8935227374903789  0.6024358469152062
  0.1023548047948992  0.9994101994941147  0.7038861141537467
  0.1160391008468054  0.0975252519520495  0.7910809919718460
  0.3124932871439583  0.2892024920268312  0.0092688164522130
  0.2993885815462463  0.3896319564500175  0.0949442419443542
  0.2955869266468696  0.4921379914219699  0.2076127891784907
  0.2983577441988317  0.5906687887385900  0.2981188725393125
  0.2835581867370536  0.6897043879907585  0.3909947278126040
  0.3054151276806323  0.7899587766413703  0.5158057327614642
  0.3172281931155823  0.9086556524799292  0.6050184968657177
  0.3018569193885412  0.0062071021664991  0.6951560725833090
  0.3091798517540951  0.1201144159243341  0.8006188580226521
  0.2999056175079744  0.2027668808973928  0.8974041689211489
  0.4069499408336057  0.2910064845485536  0.0997380292532739
  0.4016712301770582  0.3747325599912017  0.2075632957219824
  0.3960409968107328  0.4968437677334236  0.2915483888705594
  0.4084348316287247  0.5855306068404289  0.4044824731111873
  0.3858596348839782  0.6777876432420555  0.4831936949301650
  0.4009449972506332  0.8125411701308707  0.5967032565709900
  0.3996788751787079  0.9060684403387214  0.7061955697789486
  0.3913145672495304  0.0106058163422418  0.8015918407566289
  0.3878247988562649  0.1074800439898809  0.9142259223578577
  0.4055391773892012  0.1950164293412513  0.0148716489607423
  0.4971828461453853  0.2897175361266875  0.1942679063015476
  0.5094913617068073  0.3933210126470925  0.3112114034971967
  0.4992709521610053  0.4890498449356642  0.3926298163422430
  0.5059256166281756  0.6004470559771278  0.5094937037281397
  0.5026041623226689  0.7006212581106368  0.5995457433190339
  0.5014706270757756  0.7971030581766172  0.6979490755526214
  0.4966110863301409  0.8938049642582229  0.8044388901352661
  0.4851217965467924  0.0032945012647119  0.8922834936764517
  0.4929408753986593  0.1038733949191695  0.9956394197734539
  0.4970343310238619  0.2089206299351147  0.1030475279885650
  0.6120034153744669  0.2997214741009557  0.2809516691960852
  0.6180532779060783  0.3997362551413204  0.3972014424282406
  0.5985107176949285  0.4891326730451979  0.4978922159903192
  0.6000401170130871  0.6039109939513878  0.6078973570878716
  0.6039965978225013  0.6903865637303426  0.7019391092048863
  0.5994061915759374  0.7987977107665216  0.7908337006488537
  0.5871182707577276  0.9056618009457793  0.9018605934235140
  0.5906241068954117  0.0244965111624325  0.0008995948531805
  0.5837170566369707  0.1031690786319146  0.1095774336302640
  0.5937240892994637  0.2006483308039151  0.1992273392719710
  0.7170072640492720  0.3048133421313111  0.4102865280985384
  0.7180136535796748  0.3969893293742430  0.5045658159023390
  0.7152993568679236  0.4893363703948097  0.5884000413504893
  0.7072468826569889  0.5702262676784358  0.6845375607610222
  0.6981751888265677  0.6972533240954562  0.8017427449686565
  0.6957277580556465  0.7847728569229062  0.8992470841306499
  0.6815521376883282  0.9192830713735844  0.9953985817661959
  0.7162406849224681  0.0130595957329831  0.0970080369515003
  0.7002016764544123  0.1091158130429974  0.1991211116243292
  0.7041299263169449  0.2110834325305149  0.2974976698559360
  0.8197855405256789  0.3057615950731360  0.5030027515671378
  0.8159719494116331  0.3960901955350238  0.5914217820301317
  0.8027073317936839  0.4823849985703319  0.7062405995820953
  0.8065432790058296  0.5901022426042033  0.7980921843176034
  0.7934437021884975  0.6887798680303518  0.8862973817222013
  0.7886175559221371  0.8182516973496092  0.9868913282744955
  0.7944775862751570  0.9065118966237762  0.1009507401297682
  0.7982638301990548  0.9887119529308279  0.2017915961728818
  0.7950403048498842  0.1023448459254368  0.2911398939843863
  0.8059793749037709  0.2011979434729980  0.3965388399868033
  0.9240220578466918  0.3098256043110084  0.6044091965247986
  0.8938627154954375  0.3976876410425589  0.7131408371274617
  0.8948452114813605  0.4948884720114393  0.8085506292752669
  0.8947219461123908  0.6083289778950842  0.8963222782360063
  0.8893843413614846  0.7212700556472029  0.9960370715935341
  0.8971400708237098  0.8109405881447245  0.0908408520840212
  0.9009672539315972  0.9052585901242693  0.1973458757285798
  0.9251680202353469  0.0059107330913903  0.3116790177059272
  0.9071106261959727  0.0896673885406329  0.3899563312438161
  0.9105446572088454  0.1982124843286073  0.4984919384141620
  0.9947782923127662  0.3017344955460217  0.7151128076542363
  0.9954838038051221  0.3939903195864929  0.8163088903552165
  0.9808554180138600  0.5017050157263796  0.9166517105465743
  0.0099280153964614  0.6132664014076781  0.9966152090619147
  0.9992280914989564  0.7074305404157073  0.0861141792587716
  0.0129276665566920  0.8135424141647434  0.1886516718354798
  0.0123002709776756  0.9139149526009049  0.3085231800285939
  0.0122340032992412  0.0069519313757809  0.4171081249312678
  0.9932266719454503  0.1039850856702955  0.5081063688551666
  0.0029200972176397  0.2075414301110712  0.5957123747937985
  0.1074097499175224  0.2996337094468302  0.8110801236115677
  0.0930882696579758  0.4139498159023418  0.9112292374353927
  0.1165259263169460  0.4859488459254351  0.0014124315407429
  0.0951404781700234  0.6077059456724925  0.0803852893434538
  0.1030556757945646  0.6919386987792819  0.1983656834927956
  0.1016937837897274  0.8088368133729276  0.2894383657758723
  0.1114556247663003  0.8907652554712442  0.3950383758935416
  0.0999871285604286  0.9859143723743529  0.5130337578357000
  0.0958529101506684  0.1043756274056946  0.6058574384691511
  0.0955075860552057  0.1991742918728718  0.7110400703838096
  0.1875648314087783  0.3130503780930383  0.9280007913779826
  0.2066301889365434  0.4012086501704601  0.9975827110964488
  0.2085768102936356  0.5010244715715402  0.1043716674364887
  0.2010437721324081  0.5968526184977421  0.2058246849224687
  0.1922937450786293  0.6854058761684811  0.2887631725503113
  0.1988883853513670  0.7925355288683633  0.3776341497855498
  0.2088804284614554  0.8761728802375472  0.4993434281315317
  0.2062291652919797  0.0069445111624304  0.5883103714945577
  0.2009039956010099  0.1029836595183085  0.6787573632464543
  0.1998781471461584  0.2052668470251859  0.8092632820851193
  0.3927782364456149  0.3811513388320691  0.0002294512262182
  0.3881746552292995  0.4848822030133064  0.1037304955460243
  0.4039102470031892  0.6078571520950149  0.2073915152314996
  0.3997138444957642  0.7004032781260321  0.3195166440118768
  0.3912988056746940  0.8017437664137219  0.4131039661277924
  0.4114331195425081  0.9157714809193891  0.4976633608270120
  0.3997674963158460  0.0070242938524174  0.6079988597822492
  0.3848945025844088  0.1116045960629037  0.6856016197074695
  0.3947273348729823  0.2108648494446257  0.7841623217859919
  0.4196609391839843  0.2939829020125373  0.9061266829429258
  0.4886072231386791  0.3900695955130331  0.1051361838777112
  0.4914183921697983  0.4864988962938526  0.1969602230287038
  0.5037898361376847  0.5938834540855638  0.3057062848344856
  0.5112517013087015  0.7076024216430241  0.3886396595183115
  0.4983893447707004  0.7852540565270019  0.5059203972286355
  0.4984346349939486  0.8995365454745397  0.6021259227977538
  0.4875857419993395  0.0139157518970663  0.6981637149455651
  0.4868908492246788  0.1036266552292986  0.7985132845045655
  0.4997092000439878  0.1909817978664918  0.8987676058506509
  0.5072154268118325  0.3122682261079959  0.9956677822500808
  0.5945755367865360  0.3926841755196335  0.1969203105685722
  0.5975006316947074  0.4924269108105150  0.2902521522049923
  0.6040740384911487  0.5895442080721409  0.3928590119872410
  0.6151334732211566  0.6980281988342654  0.5023404223028720
  0.6117277866490696  0.7964296122291898  0.6091352077422201
  0.5979217644341830  0.8914685613109015  0.7047126360936957
  0.5889810306829446  0.0008650170460811  0.8026407838997045
  0.5864463437809277  0.1007785122621812  0.8983269266468739
  0.5823593075992548  0.2009899307159344  0.0006983125481170
  0.5865189152095027  0.3114688314087743  0.1039137697129675
  0.7162892457934689  0.3897477536566569  0.2996846497305654
  0.7025772743868899  0.4912879089409401  0.3939435798966215
  0.7077856012317199  0.5997894855383237  0.5116098189816327
  0.7164535462443666  0.6988123756735973  0.5989623169471017
  0.7105502206092567  0.7955394650830314  0.7016217305619676
  0.7025209053117791  0.8976737560761023  0.8013465052237976
  0.6840414569449038  0.0063740072583300  0.9211001495655964
  0.6980703890905104  0.1199850561970734  0.0117804544154865
  0.6844619540305743  0.2017382364456211  0.1123158275596623
  0.6968440686242161  0.2977896993291509  0.1839694485868222
  0.8122626143187048  0.3894217705927616  0.3892352627295708
  0.7985490100076973  0.4982298497745532  0.4888425976025488
  0.8083838667106562  0.5945985910040719  0.6079165371164663
  0.8109569127900613  0.6945614477070308  0.7099738876058481
  0.8061545377763082  0.7918403026503924  0.8087399010227614
  0.7893229605190797  0.9098161491257031  0.9033074716815150
  0.8011481961948732  0.0053227533267375  0.9945529325855063
  0.7942602076322416  0.0816685569119073  0.1005353243154090
  0.7910644500164992  0.1904004451776089  0.1915161464863075
  0.7968525415154488  0.2969216764544171  0.2815217635543803
  0.9116183534587066  0.3985900490487211  0.4916812611899246
  0.8941404812493161  0.4932337507973159  0.6081411661717837
  0.8973740903992109  0.5915364376993324  0.6994725481139312
  0.9107021770592780  0.7008738018255798  0.8093204812493155
  0.9051947005388783  0.7950819830638949  0.8937150819311555
  0.9030706187176918  0.9146148355878125  0.9932580785219400
  0.8992302170900714  0.9883169616188283  0.1036867858792476
  0.8915251622126945  0.0784372831848685  0.2055587968767156
  0.9028457226437894  0.1856392226987822  0.2898205639502933
  0.9064809616188256  0.2884822575607586  0.3867407016386224
  0.9956170254041581  0.4005742285274394  0.6068996023314668
  0.0045218458154608  0.4908300534477092  0.7161768837567379
  0.9940960686242164  0.5999913731441779  0.8086983442208293
  0.0029292185197392  0.6994151307599239  0.8885951791487940
  0.9989049391839870  0.8090983266248770  0.9736440017595953
  0.9982147058176594  0.8973109279665650  0.0748221726602907
  0.0042763959089385  0.9880725802265502  0.2053316986693048
  0.0172678953040801  0.0729188976135475  0.2863974534257139
  0.0040294019575526  0.1873371265808856  0.4008261361486873
  0.0048923659958220  0.3016576263059463  0.5060810509182900
  0.0844204337402417  0.3965274738810081  0.7083239982404024
  0.0841449251072248  0.5013038170020891  0.8077247346310372
  0.0979784911470389  0.6111545949631605  0.9132748056746962
  0.1184998306389531  0.7138266895414063  0.0002085283184883
  0.1131007601451657  0.8062238068844181  0.0892092937424422
  0.1111247553062782  0.8951715609809767  0.1908284962058744
  0.0941088058946420  0.9937768080941396  0.2979099716265239
  0.1043572730671940  0.0922185175409638  0.4043981511052479
  0.1013850575167723  0.1955452123611536  0.4949525001649633
  0.0808708619817438  0.2992032596502838  0.6095034422082932
  0.1902097785109405  0.3969790977675132  0.7982800879797622
  0.1910888050148500  0.4991468844165823  0.8829091925657124
  0.2249108338282184  0.5886846946002393  0.0021358504343993
  0.2029685648300870  0.6929733821621014  0.1162329141097516
  0.2057513392719699  0.7989248775981537  0.2088504502364472
  0.2036657578357008  0.8979567605850676  0.3047123242054326
  0.2013228047948985  0.0028411349389614  0.4222377424392363