Li 
 1.0000000000000000
    22.7325000000000017   -0.0000000000000006    0.0000000000000000
    -0.0000000000000006   22.7325000000000017    0.0000000000000000
     0.0000000000000006    0.0000000000000006   22.7325000000000017
 Li 
 500
Cartesian
  0.0500292600000000  0.5532250100000000  0.1030488500000000
 -0.2108927900000000  1.6887984300000001  2.2577688899999999
  0.0279584700000000  4.0817073400000004  4.6155514899999996
  0.0206485300000000  6.6392492399999998  6.5844807000000003
  0.1179159700000000  9.0735753799999994  8.9277154700000008
 -0.2255596700000000 11.5165928199999996 11.1698984800000005
 -0.4417610600000000 13.7511156400000001 13.8053803100000003
 -0.2901787700000000 15.9665599100000009 16.1229811400000003
 -0.0539064900000000 18.2370695000000005 18.2888825399999995
  0.2573523500000000 20.5792592899999995 20.4166330000000009
  2.4671561500000001  0.0305445200000000  2.2789187300000000
  2.3185122800000002  2.0125532000000002  4.7832044700000003
  2.4364516799999998  4.4074698899999998  6.8344647099999998
  2.1893832899999999  6.7017029299999997  8.9872202500000000
  2.0467975300000001  9.3648939999999996 11.4904554900000004
  2.2425243099999999 11.4204526499999997 13.7828341200000004
  2.0972356500000000 13.8571289600000007 15.9818289100000008
  2.2751971499999999 15.6173090299999995 18.0780023599999993
  2.4576647600000001 18.2302805200000009 20.0489619599999997
  2.3998270100000001 20.4777222200000004 22.5164173400000003
  4.6340095899999998 -0.1759796500000000  4.9037747800000000
  4.5582970700000001  2.1072662300000000  6.9383630900000002
  4.7215268500000001  4.2640905800000004  8.8301389100000005
  4.4013653300000000  6.8135583100000003 11.4156709400000000
  4.6463343799999999  9.2924249200000002 13.3821511399999995
  4.1917756800000001 11.3250018699999995 15.9743943500000007
  4.4790581500000002 13.5050837900000005 18.3790261699999995
  4.6308470899999996 15.7710943199999996 20.0667387499999990
  4.7214395600000003 18.2616989300000014 -0.1702023100000000
  4.7727167499999998 20.5977433000000012  2.3209224000000002
  6.9030953600000000  0.0457670400000000  7.0249628000000000
  6.6880174800000001  2.0546582199999999  9.0905597999999994
  6.6159153499999999  4.4574684800000002 11.1802259999999993
  6.8990108499999998  6.8313885200000000 13.6933848200000003
  6.5685403999999998  8.9426421600000001 15.7040678800000002
  6.7680403199999999 11.0644192799999992 18.4457090599999987
  6.6242300099999998 13.5444696800000006 20.0729285799999992
  6.8103667999999997 15.7559357099999993 -0.0953508200000000
  6.9374237699999997 18.1919742500000012  2.4346601300000001
  6.9893364800000004 20.5137113500000012  4.3474012899999996
  9.2306457099999992 -0.2766779200000000  9.2199986999999997
  8.9322102399999999  1.9792695800000000 11.5142004100000008
  8.8627490899999994  4.4940521300000000 13.3753704399999993
  9.0871396900000008  6.6660332699999998 15.6189053100000006
  8.9355560999999994  8.8955111599999999 18.1291779499999990
  9.0504881099999999 11.3911180900000009 20.2255139700000015
  9.1890538199999998 13.5080226000000003 -0.0097042100000000
  9.3775490099999992 16.0130652299999987  2.2297058399999998
  9.5695719900000000 18.0836373700000017  4.8708622200000002
  9.1780543100000003 20.3516167900000013  6.9722636800000002
 11.3268966899999999 -0.2491859400000000 11.6929421799999993
 11.5273752399999996  2.3111446600000001 13.3704702199999996
 11.3613904300000002  4.4767076399999999 15.5234655600000000
 11.4657064500000008  6.7873482100000002 18.0286491099999999
 11.2617929799999992  9.1602043799999997 20.1310852500000017
 11.1835510500000002 11.2420703999999994 -0.2377769300000000
 11.3355532700000001 13.5774861199999997  2.2924047299999999
 11.6051571500000001 15.9084333999999998  4.7509853099999999
 11.5088814599999996 18.4665630999999983  7.0885041500000003
 11.6903635700000006 20.3496921399999984  9.3646530299999995
 13.7726042000000000 -0.0086665300000000 13.5804029199999992
 13.7415174199999992  2.3764538499999999 15.7204902700000009
 13.7469672999999997  4.4440962199999996 18.1696354400000004
 13.2812648899999992  6.7473397300000002 20.4938991100000010
 13.6665619500000002  8.9516928100000008 -0.2559107200000000
 13.1914805299999998 10.9357084600000007  2.2418450100000000
 13.7123299000000003 13.1811983900000005  4.4605366599999998
 13.8404735999999993 15.9588024399999995  6.6152790399999999
 13.8670427299999997 18.0158226900000003  9.2716258200000006
 13.8554671000000003 20.1377390200000015 11.6002521600000001
 15.7255141100000007  0.1964428600000000 15.8333262399999999
 15.7288540999999995  2.4029936599999999 18.0494377600000000
 15.6012044299999992  4.5494228200000002 20.3954066599999990
 15.7222372799999999  6.6037758000000002  0.3053007800000000
 15.4935334600000001  9.4191306200000007  2.2151269000000000
 15.6506436000000004 11.2195527800000008  4.4221245500000004
 15.8367879100000000 13.7368964699999996  6.5954252599999998
 16.0458223699999998 15.6393226599999995  8.9120109400000000
 16.1251963600000003 18.1333309999999983 11.4562556699999991
 15.9651268500000008 20.6028682200000013 13.9112292800000006
 17.9939459200000016  0.3362929800000000 18.2521873200000009
 17.9439779500000007  2.2332819900000001 20.6943767100000002
 18.0357342600000017  4.5990388500000003  0.4812387100000000
 18.0969157100000011  6.5949126199999997  2.7198123299999999
 18.4017705700000000  8.9157466099999994  4.2586959100000001
 18.0968146599999997 11.1575056600000000  6.3131172400000004
 18.1806335600000004 13.6254902500000004  8.6832320099999993
 18.1632430499999984 15.8569153499999995 11.4145023699999992
 18.1239813599999984 18.4049447800000010 13.5200115000000007
 18.4458541300000007 20.5070282800000001 16.1728983699999986
 20.4293988999999989 -0.0194805200000000 20.4178573400000012
 20.7274814700000007  2.3619669700000001 22.9212888899999996
 20.6536372800000017  4.1820770700000001  2.6007526599999999
 20.5316269799999986  7.0600659400000003  4.3586628699999999
 20.7399931100000003  9.1372652500000004  6.4315481099999996
 20.5154280600000014 11.4877421099999992  8.7797101800000004
 20.3697002800000000 13.5532941400000002 11.3013542000000005
 20.1841339899999994 16.0241615099999990 13.5269571600000003
 20.4382984500000013 18.1607162399999993 16.0753223900000002
 20.1501275100000008 20.3059744000000002 18.3378111299999986
  2.2570979699999998  1.9425203099999999 -0.0879062800000000
  2.2847829499999999  4.1068541300000003  2.4517140700000000
  2.1384642199999999  6.5723815700000001  4.3332095099999997
  2.1698276299999999  9.1955045599999998  6.5394010400000004
  1.8839150499999999 11.4220450000000007  9.1625227700000007
  2.0724699200000001 13.8918312499999992 11.6477296500000005
  2.4026140599999999 16.0223747600000017 14.0574311699999992
  2.3308443300000001 18.2130818400000010 15.9912657800000009
  2.1792755800000001 20.7686115200000003 17.8436351500000008
  2.2955238699999998 22.8536988399999998 20.2346041200000002
  4.9189268300000002  2.0970581099999999  2.4811907099999999
  4.4254119100000002  4.0823259500000004  4.3716175799999997
  4.6284968199999996  6.7007402200000001  6.7738362700000003
  4.3427844599999998  9.0735653299999992  9.1091223200000009
  4.5190650400000001 11.1360677500000005 11.1531119600000004
  4.4429839500000003 13.4838007799999993 13.7048884300000005
  4.5655532100000000 15.7425457800000004 16.2088202199999998
  4.7443656000000001 18.1939282700000007 18.2060595099999993
  4.4834439300000000 20.7261800100000002 20.3495579000000006
  4.5657033900000004 22.9166002199999994 22.5464077100000004
  7.3710300999999996  2.0121207499999998  4.4246123199999996
  6.6829873500000003  4.5873679100000002  6.8072079600000004
  6.6190162499999996  6.8882505700000003  9.0962749200000008
  6.9144021899999997  9.2686854499999995 11.1545250300000003
  6.6847043499999996 11.2919339300000008 13.3858830500000003
  6.7550797100000004 13.4451815299999993 16.2056130299999985
  7.0691872699999996 16.2745473300000008 18.1388225600000013
  7.0181470700000004 18.1425277300000012 20.3043259999999997
  6.7842694400000001 20.4574736900000005  0.1638237400000000
  6.8273046500000003 22.9358777700000012  2.0504517299999998
  8.9729491899999996  2.4020870300000001  7.2535101700000002
  9.0264460999999994  4.7028930200000003  9.3091987300000003
  9.1663709900000008  7.0919360500000002 11.4590423200000000
  9.5464274000000007  9.2681491499999993 13.6224219099999999
  9.1627664099999997 11.2486869699999996 15.7081027500000001
  9.0963604300000007 13.4725223300000003 17.9944613300000000
  9.0784434800000007 15.4498053899999999 20.4398165100000000
  9.4286793400000004 18.2129444900000017  0.2245091000000000
  9.1148630100000005 20.5541185900000016  2.3751986999999999
  8.7448437400000003 22.9246659900000012  4.5419514100000002
 11.5476648300000004  2.0730922399999998  9.6320293899999996
 11.4087892400000008  4.5721180900000000 11.5224370300000007
 11.4092222799999998  6.6759983399999996 13.7590184799999999
 11.3978577399999992  9.2981111300000006 16.2621174300000000
 11.2306400300000000 11.5450504800000004 18.1587841599999997
 11.3168980000000001 13.1686974400000008 19.9752886499999995
 11.5561251200000008 15.8460916100000002 -0.1661760700000000
 11.6641442000000009 18.3042192399999983  2.7491786800000000
 11.4847775799999994 20.7070389599999984  4.5108300100000003
 11.1309565399999997 22.9279920900000000  6.9946681399999999
 13.6988361600000008  2.0414369200000002 11.3218352299999996
 13.8411750100000006  4.7217696800000004 13.3974233300000005
 13.3312245399999991  7.0677390700000000 15.7891428499999993
 13.7194472500000000  9.2356976500000005 18.4115673000000015
 13.6378109300000006 11.1702257599999992 20.7361522600000008
 13.3597764699999999 13.5347896799999994  0.0513871200000000
 13.5381278500000004 15.9110983600000004  2.5675669100000000
 14.0345848400000008 18.1023470899999985  4.7888183800000004
 14.0151859999999999 20.7562396400000004  6.8403683800000001
 13.6258292300000008 22.3774000300000004  9.3181228500000000
 15.6733665099999993  2.5244668099999998 13.5983619099999995
 15.8673190000000002  4.8871687699999997 15.7450663500000001
 15.6779963700000007  6.6330853999999997 18.3214862799999985
 16.0224203900000006  9.0484056000000006 20.6685076400000014
 15.6436571699999991 11.3726759800000004 -0.1296780900000000
 15.5410316799999997 13.2720602499999991  2.2279909899999999
 16.2010627800000009 15.7729862500000007  4.5364565099999998
 16.0663884400000008 18.4200777600000016  6.9452075100000004
 15.8372928999999996 20.3331624600000005  9.3201780299999992
 15.9315856500000006 22.6729690200000000 11.4582501400000005
 18.0612944199999994  2.7303898400000000 16.0019885799999990
 18.0286119999999990  4.5263262800000001 18.2069296700000010
 17.7445674599999990  6.5376231799999998 20.7259483700000011
 18.1964034699999999  8.7673217500000007  0.1108474700000000
 17.8809316600000017 11.2437362200000006  2.0626855000000002
 18.1665297099999989 13.8415400900000005  4.2800485500000001
 18.0720361599999997 16.0758337500000010  6.9174092199999997
 18.1178968500000011 18.3238821200000004  9.0260187599999995
 18.4888718099999991 20.4826964099999991 11.2276653799999995
 18.3849560499999995 23.0051812399999989 13.6510808699999995
 20.0662293799999993  2.6580337799999998 18.2899045200000003
 20.1884606499999997  4.8121013699999997 20.9379584700000017
 20.3500753400000001  6.6385860100000000  0.0166656500000000
 20.6461456800000001  9.0827934500000005  2.1012017599999999
 20.5798755100000008 11.4851751300000000  3.8093628900000001
 20.5716287999999992 13.6781637499999995  6.3474227299999999
 20.5812905499999985 16.0616817500000018  9.0767520499999996
 20.5517121100000004 17.9758130700000009 11.4395846100000007
 20.2803439800000014 20.7204511300000007 13.8052685299999993
 20.3677123699999996 22.9839672700000008 16.1140927199999986
 23.0999194999999986  2.2709569100000002 20.5429988600000009
 22.9111244099999993  4.2786495899999997 22.6432286199999986
 22.5975803699999993  6.7332069299999997  1.9883656000000001
 22.9164550100000000  9.1674351800000000  4.1104005099999998
 22.7685099999999991 11.1853099799999995  6.6125001499999998
 22.2838126099999982 13.8932422899999999  9.1140317399999997
 22.6538048600000010 15.9375526900000004 11.4862693599999997
 22.6080594499999989 18.2195377600000015 13.6272059100000007
 22.7581792199999988 20.4099486399999996 15.9041092099999997
 22.5693610800000002 22.8366068800000015 17.7280547099999986
  4.4239833500000003  4.6546513200000001  0.1213291200000000
  4.3024595100000003  6.5015729999999996  2.3161352499999999
  4.6655273199999998  8.8679726999999993  4.5519147699999998
  4.2180698000000003 11.1743509900000006  6.8083988499999997
  4.5347331999999998 13.4154823299999997  9.1188399300000000
  4.7613900600000001 15.4202134999999991 11.6583371699999994
  4.6846861999999998 18.2575823799999988 13.9219205200000005
  4.3164911400000001 20.7373551700000007 15.8711410599999994
  4.5823661199999997  0.1041121300000000 18.2521607099999983
  4.3401768900000004  2.0413345600000001 20.4802355499999997
  6.9452875900000004  4.6677098299999997  2.3783425800000000
  6.7878775100000004  7.0325186999999998  4.6595619399999997
  6.8782264399999997  9.2520841699999998  7.1606287899999996
  6.9772205600000001 11.5337609699999994  8.7265615099999998
  6.6149825099999999 13.5604727300000008 11.3730597899999992
  6.8165369099999999 15.4972867099999991 14.2657336000000008
  7.0017510100000004 18.6835710000000006 16.0617688799999989
  6.6445697499999996 20.6182556000000012 18.1111981499999999
  6.7323246299999999  0.4112473200000000 20.8180744500000010
  6.9565028099999999  2.5503472299999999 22.7951221000000004
  8.9106102099999998  4.7896453100000000  4.8769271400000003
  9.0606324399999991  6.6648752599999996  6.9801549300000003
  9.2262731500000008  9.3280564500000001  8.7744165100000000
  8.9499764099999997 11.5118644900000007 11.1824242199999997
  9.3226579600000008 13.4621967100000006 13.4621609899999992
  9.1699621100000002 15.9798136799999995 15.7738954499999995
  9.1467530700000008 18.2705240099999990 17.9349291400000013
  8.9150012499999995 20.4719516000000006 20.4083211700000007
  9.2445576400000000  0.0843281600000000  0.0945578500000000
  9.3834430999999991  2.3724404400000001  2.3798199800000002
 11.2955424499999992  4.5976904999999997  7.1739987899999997
 11.2510469200000003  6.8804706700000002  8.8855234999999997
 11.6760387399999992  9.2387558999999992 11.3346716000000001
 11.0480909500000006 11.4634981000000007 13.3533202499999994
 11.4652403300000003 13.6367653600000001 15.5780297000000001
 11.3364108100000003 15.4331599199999996 18.0966750099999985
 11.1519735200000003 18.3820178799999994 20.4041460000000008
 11.5571566299999997 20.4769804600000001  0.3732350200000000
 11.2757968900000005  0.2923658400000000  2.3423069299999999
 11.0715400499999994  2.4584148300000002  4.6433734400000004
 13.7654935100000007  4.4064889599999999  9.2027863199999995
 13.6384480600000000  7.2577323500000004 10.9695246199999996
 13.4679381100000004  9.6790787399999996 13.9179923399999996
 13.6443341500000006 11.4818026100000008 16.0106882500000012
 13.6400893700000001 13.2757285500000002 18.1298594699999995
 13.1773018000000004 15.6655015899999999 19.9751427200000009
 13.6897363799999994 18.1781793500000006 -0.1144612700000000
 13.6893415899999997 20.6864988600000004  2.4271891999999999
 13.5369986600000001  0.2610233700000000  4.7949709900000004
 13.3603152999999999  2.3378952300000000  6.9903439799999996
 16.0062513700000011  5.0592420499999999 11.4539009200000006
 15.7144712099999992  7.5358309200000004 13.4836398800000001
 15.7602654599999994  8.9245115300000002 15.9379023699999998
 15.8543327000000005 11.1105134700000008 18.7813770600000005
 15.9467694400000006 13.5198826099999998 20.0850935300000017
 15.6499687699999992 16.0652472400000015 -0.3988274300000000
 15.9031560299999999 18.2887865400000003  1.8667731500000000
 15.9402981100000005 20.8855057299999984  4.4598616299999998
 15.9864837499999997  0.1589982700000000  7.0015183399999996
 16.0181308099999988  2.4789053600000002  9.2617313699999997
 18.0027564399999989  4.9811455899999997 13.5517473800000001
 18.1108146599999991  7.0003629199999997 15.8974559800000002
 17.8920591900000012  9.1238419099999994 18.2609166400000014
 18.0674294999999994 11.2789255300000004 20.2956004199999995
 18.0604220600000005 13.6848469399999999  0.0306225300000000
 17.8474635200000016 16.0696875699999993  2.0679005199999998
 18.1697402900000000 18.6663931199999986  4.3819547300000004
 18.4397505899999992 20.8333654700000004  6.6772713100000001
 18.3009376099999983  0.1256472700000000  9.0201146100000003
 18.3599152100000005  2.2806306699999999 11.4026010699999993
 20.4105943600000010  5.0690701899999997 16.0569077900000003
 19.9363228499999998  6.7385282599999998 18.4477156200000003
 20.0478092600000011  9.0506649400000008 20.4977371599999998
 20.5295826199999993 11.4263647000000006  0.3042296000000000
 20.5194742900000016 13.9555839499999994  1.7373965099999999
 20.6849077299999990 16.2183719599999989  4.1967839900000001
 20.7047887999999993 18.2443836200000007  6.7585064299999997
 20.6615080499999983 20.5382609000000009  9.1358922600000003
 20.7056481900000016  0.1431356300000000 11.5705563100000006
 20.3860743699999993  2.5907319700000002 14.0792059100000007
 -0.1179036600000000  4.4883392700000000 18.3335356900000015
 -0.2173904100000000  6.7743864000000000 20.6075898399999993
  0.0482275100000000  9.1791943600000003 -0.0675162300000000
  0.1854504800000000 11.5110462499999997  1.6565879500000000
  0.0221388900000000 13.9069805899999999  4.1423883999999997
  0.2170940100000000 16.1229846099999996  6.6721725000000003
 -0.0272524600000000 18.0431547399999985  9.4186101000000004
  0.1437724900000000 20.1442918000000013 11.1923521299999997
 -0.0052220000000000  0.1864940300000000 13.8713025299999995
 -0.0983783800000000  2.4131812899999998 16.1976227699999988
  2.2623362400000002  4.6771634899999999 20.6779673099999997
  2.0391670300000002  7.0787601799999997 23.1315772799999984
  2.5370660100000002  9.1974536300000000  1.8204881200000000
  2.1231059800000001 11.4592302600000000  4.1986667000000004
  1.8266423899999999 13.4742841400000000  6.8721855700000001
  2.1372368300000000 16.2990446700000007  9.2306416799999997
  2.4211960200000000 17.9825669499999989 11.5206816199999995
  2.2867557600000001 20.3120056300000016 13.6948728899999992
  2.3267806000000002 -0.0134076400000000 16.0010910899999992
  2.6378588600000001  2.2169927899999999 17.9832486500000002
  7.1037536499999998  6.5742956499999998  0.2107033700000000
  6.8058509300000001  8.8573084499999997  2.1583199799999999
  6.7194298100000003 11.1875268899999991  4.7195577300000000
  6.7824174199999998 13.4273782399999995  6.7769872700000002
  6.4459864800000002 15.6787050000000008  8.8882876500000005
  6.9428493900000001 17.9577378900000006 11.7255538200000000
  7.2113899000000004 20.6560146200000005 13.7535829799999991
  6.8619624200000002  0.1411029500000000 15.8026354199999997
  7.0284309800000004  2.7305009600000001 18.2000681899999996
  6.8176044500000001  4.6093981199999998 20.4002402700000012
  9.2509895300000000  6.6153049099999999  2.2672947500000000
  9.1309912400000002  8.5186079199999991  4.7184326199999997
  9.0030019600000006 11.2945009499999998  6.6276237499999997
  9.2847448099999994 13.3105745199999994  9.1948978199999996
  8.7715541500000000 15.4078075999999999 10.9842006699999999
  9.1144821500000006 18.4710921500000005 13.5645567800000002
  9.0857000299999999 20.5972008200000012 16.0535907900000012
  8.8955584000000005  0.2410967200000000 18.2221865200000011
  8.8162272399999999  2.4432901000000000 20.7826407800000013
  9.2189193500000002  4.4332109800000001 23.0705697600000015
 11.3022090500000001  6.5860038899999997  4.4161951799999999
 11.5820123800000001  8.9411699200000001  7.0746132299999998
 11.3496769200000003 11.1173255999999991  8.9254572999999997
 11.5009540799999996 13.6496627000000004 11.5820656199999998
 11.4254491199999997 15.9268727499999994 13.6291736100000005
 11.3996810300000000 18.1201452699999983 15.8661273600000001
 11.2892115200000003 20.3184213500000013 18.2869070700000016
 11.0280312400000007  0.0748922500000000 20.2838345199999992
 11.2057784500000004  2.3613019500000001 -0.0991268900000000
 11.2988329299999997  4.7492882200000004  2.3425279300000001
 13.9123676399999994  6.8134184099999997  6.3867338199999999
 14.0498961399999995  9.0870044199999995  9.0293817900000004
 13.6056448900000007 11.1192084900000001 11.3183348000000006
 13.6404119599999998 13.7284066700000000 13.8190266699999995
 13.7303526599999994 15.6942125600000004 15.9568308000000005
 13.6260012499999998 18.1586689600000000 17.9776270999999994
 13.3466660899999994 20.5879568900000010 20.5015459399999997
 13.4263625100000006  0.5568669400000000  0.0204500400000000
 13.2693479900000000  2.3452910800000000  2.4909690100000002
 13.4968328599999996  4.5612381800000001  4.5289354900000003
 16.2993676299999990  6.9291692999999999  9.3268384999999991
 16.3222453799999982  9.0245599300000006 11.4700424099999996
 16.2605426299999998 11.1238390400000000 13.3758039400000008
 16.0774897599999989 12.9626686299999996 15.5612501000000005
 15.8712674800000002 15.8503111899999993 18.2256169499999992
 15.8156312600000000 17.8398489699999985 20.4421343399999991
 15.4933839700000000 20.8976024199999983 -0.1046017400000000
 16.2819413699999984  0.2968772600000000  2.2052352000000002
 15.9173346099999993  2.4804752200000002  4.5265206700000000
 16.0066335500000001  4.7984541299999997  6.7628657800000003
 18.6357748000000001  6.9507254600000001 11.4345100500000001
 18.5490823399999982  9.0041203700000008 13.4444956599999994
 18.2475444200000005 10.9658169799999996 16.0546144300000009
 18.3347450899999984 13.4144992300000006 18.1426305799999987
 18.0369589599999998 15.6576883500000008 20.1477552300000013
 17.9272485900000014 18.6009067100000003 -0.2979928800000000
 18.0604617300000001 20.6072816900000007  2.2948626999999999
 18.1465325200000009 -0.2566055300000000  4.5872274600000003
 18.0732537300000011  2.3265542099999998  6.6183376400000000
 18.3219261399999986  4.5737322499999999  9.0143191799999993
 21.0053314299999982  7.0431105499999997 13.7397320599999997
 20.3197341800000011  9.0404342999999994 16.2114740799999986
 20.3420687700000009 11.2500521899999999 18.3803771800000000
 20.3392666400000017 13.8288384900000008 20.3756461900000012
 20.2179295400000001 16.3962715400000008 -0.0900872700000000
 20.3942366600000007 18.4347069200000000  2.0650396700000000
 20.4812380999999988 20.5787909000000013  4.4861651199999999
 21.0313820199999988  0.1343657400000000  7.0852432700000003
 20.6208923099999986  2.0383639100000002  8.8646823000000001
 20.6989564199999982  4.5058653000000000 11.3319679900000008
 -0.1187024700000000  6.8591794200000002 16.2563019000000004
 -0.1026644300000000  8.9563849399999995 18.5567418500000016
 -0.4352042100000000 11.4050092700000008 20.8377850100000011
  0.2256886100000000 13.9410784700000008 -0.0769447600000000
 -0.0175474100000000 16.0816647599999989  1.9575905800000000
  0.2938781800000000 18.4938529299999992  4.2885241299999999
  0.2796159100000000 20.7755716600000007  7.0135031899999998
  0.2781094800000000  0.1580347800000000  9.4819104500000009
 -0.1539746800000000  2.3638409600000001 11.5505280300000006
  0.0663811100000000  4.7179355599999999 13.5420315599999999
  2.4416921399999998  6.8114233000000004 18.4378789099999985
  2.1161290899999998  9.4101141899999998 20.7145186400000014
  2.6489256200000000 11.0468321399999994  0.0321081000000000
  2.1627809199999999 13.8146754099999995  1.8273585900000000
  2.3427131499999998 15.7294964700000008  4.5093478999999999
  2.3117539400000000 18.3868828600000001  6.5796576499999997
  2.5336649900000001 20.2493211700000018  8.9802098800000003
  2.2729574000000001 -0.3202015300000000 11.6625399000000005
  2.1789762800000001  2.3727189499999999 13.7726542199999997
  2.1711261999999998  4.5277295899999999 16.1637184000000005
  4.2638175299999999  7.1164177200000003 21.0957779899999984
  4.6972207700000004  9.1204756400000004 22.6775489800000010
  4.7414723399999996 11.3895388000000004  2.3726289299999999
  4.5702275500000002 13.5679521500000000  4.6789096499999996
  4.3713175599999996 15.5809890800000002  6.5643088199999999
  4.5212302199999996 18.0163139100000009  8.5845683099999999
  4.7483743399999998 19.9176000000000002 11.3513244800000006
  4.6881044999999997  0.1578661000000000 13.3737655199999992
  4.5670500799999996  2.3410760399999999 15.4298517600000000
  4.5437299800000002  4.6662286000000002 18.3965775600000008
  8.9288312600000008  8.6645228099999994  0.0052160000000000
  8.8241803500000007 11.0225846799999996  2.3580534900000001
  9.1818896900000002 13.8181127099999994  4.7145276200000001
  9.0864949700000004 15.9219175199999992  7.2634121100000000
  8.8952001000000003 18.2256401699999984  9.3908859099999997
  9.3529033899999998 20.8177751899999990 11.3131323500000001
  9.0877146100000008  0.1596797600000000 13.8213340799999997
  8.7496142799999994  2.5370514800000001 15.5854388200000002
  8.9731391400000007  4.7934851900000002 17.8259699800000000
  9.5399422999999999  6.6829663200000002 20.5985248200000015
 11.1072637000000007  8.8672570799999999  2.3900082999999999
 11.1711685999999997 11.0593361600000009  4.4773982700000001
 11.4524024499999992 13.5004556200000003  6.9494681199999997
 11.6220292999999995 16.0855720499999997  8.8347510600000003
 11.3296357800000003 17.8507878399999989 11.5008354300000004
 11.3306653399999995 20.4487145199999993 13.6878275400000007
 11.0840428800000002  0.3163398300000000 15.8710066500000000
 11.0682462299999997  2.3556929400000000 18.1522032399999986
 11.3596393899999999  4.3414937199999999 20.4312345999999998
 11.5302746900000006  7.0986374500000000 22.6340178600000002
 13.5161883899999999  8.9266930200000001  4.4764909599999996
 13.5826831099999996 11.1940947499999996  6.5981570500000002
 13.7321130799999995 13.4018137100000008  8.9306674899999994
 13.9835216800000008 15.8679260299999996 11.4194536499999995
 13.9061019100000003 18.1048361600000014 13.8471661099999999
 13.5922565100000003 20.2653090700000007 16.0198800000000006
 13.3890112800000001  0.0196640000000000 18.2460316200000001
 13.3313915099999996  2.2909475300000000 20.4212168600000012
 13.2384829600000007  4.5690036000000003  0.0158743900000000
 13.3330412400000000  7.0804652099999998  2.3622197699999998
 16.2830452799999996  8.8599408099999994  6.8125812999999997
 15.9713378899999991 11.1682023899999994  8.9553224300000007
 16.0897361799999992 13.6347144799999995 11.6301702099999993
 16.2867802399999988 15.8857523300000008 13.6159108700000004
 16.1525828900000015 18.0846008900000008 15.9496159899999999
 15.9700564800000002 20.4063686599999983 18.2166094299999983
 15.5499724199999996  0.1448971200000000 20.9389091500000006
 15.8688851199999998  2.7275602900000000  0.2677991800000000
 15.5595313700000002  4.5860144600000003  2.5532195500000001
 15.8410077900000008  6.7695043400000001  4.1820854900000004
 18.4647598799999990  8.8525303999999991  8.8482906099999994
 18.1530153699999985 11.3260100599999998 11.1126143499999994
 18.3765862499999990 13.5167124699999999 13.8194626800000009
 18.4350780199999988 15.7891181100000004 16.1394814000000011
 18.3259080300000008 18.0005096800000004 18.3846798000000007
 17.9432842000000008 20.6823956100000004 20.5344371000000017
 18.2121013699999992  0.1209994900000000 -0.1238254600000000
 18.0555201700000012  1.8565304700000000  2.2854192599999998
 17.9828726100000011  4.3282781200000002  4.3536408000000000
 18.1144503999999991  6.7497720100000000  6.3996934899999998
 20.7233642200000006  9.0609482900000007 11.1771442699999994
 20.3260484900000016 11.2124362400000006 13.8245690600000000
 20.3995565100000000 13.4471020699999997 15.9007597000000001
 20.7025372400000016 15.9326136999999992 18.3978778399999996
 20.5773385299999987 18.0742011799999993 20.3163781000000014
 20.5290528399999985 20.7914817499999991 -0.1532607300000000
 20.4417509099999997 -0.2655846700000000  2.3570598600000001
 20.2665957500000005  1.7830755400000000  4.6728653500000004
 20.5239403899999999  4.2200436300000002  6.5883459699999998
 20.6065784600000015  6.5579229200000002  8.7915829999999993
 -0.0996359700000000  9.1060536499999998 13.7963452100000001
  0.1027928600000000 11.1577941900000006 16.2804910099999987
 -0.1342111200000000 13.6393038900000008 18.3837351099999999
  0.0665884600000000 15.8994544599999994 20.1999899099999993
 -0.0248934700000000 18.3928277099999988 -0.5991377300000000
 -0.0405842000000000 20.3981206700000008  1.7008950400000000
  0.0972131700000000 -0.2711400700000000  4.6677028399999996
  0.3925424300000000  1.6576288400000001  6.5105301100000004
  0.0915983800000000  4.2586412300000003  9.1117801400000005
  0.1112157100000000  6.8574319900000003 11.5044874900000007
  1.9190875100000000  9.0140607999999993 16.1019752899999986
  1.9128245100000001 11.3958890200000003 18.3616025299999990
  2.2272960500000001 13.8930718300000002 20.7610195200000014
  2.6937973999999998 16.2270652200000001  0.0047403700000000
  2.5710630299999999 18.3274826900000001  2.0279502699999998
  2.5261434999999999 20.3494875099999994  4.3380087899999999
  2.1393284299999999 -0.1414687100000000  6.7722384299999998
  2.3723017099999999  2.0963574500000002  9.1929809700000007
  2.3047358199999999  4.4452315400000000 11.2515077100000003
  1.8383968700000000  6.8016380999999999 13.8555370000000000
  4.3239437900000004  9.0243273399999993 18.1469020999999984
  4.3439262599999999 11.3468565500000000 20.0707332200000010
  5.1127855300000000 13.3822748199999992  0.0485532200000000
  4.6139828999999999 15.7530174100000000  2.6422647200000000
  4.6772423200000004 18.1615597800000010  4.7476928599999999
  4.6298318399999996 20.4128020600000006  6.9268729100000002
  4.5765706599999998  0.0645861000000000  9.5985194800000002