Li                                      
   1.00000000000000     
    20.2271999999999998    0.0000000000000000    0.0000000000000000
     0.0000000000000000   20.2271999999999998    0.0000000000000000
     0.0000000000000000    0.0000000000000000   20.2271999999999998
   Li
   432
Direct
  0.9840524378065183  0.9809375266967280  0.9978009269696244
  0.9018416216777396  0.0963369828745471  0.0912130448109494
  0.8193960993118168  0.1832917966896090  0.1797826649264351
  0.7339808010995128  0.2712803650529949  0.2307115923113443
  0.6870781897642786  0.3422932051890513  0.3604008903852218
  0.5775551020408187  0.3878018707482980  0.4254509838237652
  0.5072119917734526  0.5008224356312283  0.4974824553077042
  0.3935808010995103  0.5909223975636735  0.5664612729394065
  0.3420911623951923  0.6791717276736264  0.6764657248655297
  0.2509045048251863  0.7672109184662261  0.7332739731648488
  0.1591089073129268  0.8345020294455026  0.8114653862126247
  0.0866097467766167  0.9258749891235567  0.9237820024521426
  0.0801173518826133  0.9269448149027042  0.0832008997785181
  0.9769908998773928  0.0103792828468627  0.1793243424695490
  0.8856591011113721  0.0868156314269868  0.2521104023295351
  0.8217806725597185  0.1923718448425902  0.3340856337011573
  0.7555191514396427  0.2638266472868196  0.4250248422915703
  0.6802321033064374  0.3472102535200108  0.4996997562687895
  0.5810332745016638  0.4264547282866644  0.5611652126839104
  0.4916183668525562  0.5084244546946692  0.6392564966975129
  0.4124217078982753  0.5729521896258518  0.7558373828310394
  0.3292587229077668  0.6561754820242029  0.8415680351210284
  0.2293042586220508  0.7791723006644489  0.9247891196013285
  0.1543676979512725  0.8334245931221318  0.0018888447239362
  0.1378255779346631  0.8208019365013470  0.1552606450719836
  0.0580316430351218  0.9034007717331107  0.2789724845752275
  0.9632983413423517  0.9901593532471153  0.3550868894360093
  0.8832511884986545  0.0593799898156959  0.4172970144162349
  0.8451213415598815  0.1685374658875176  0.5078937638427448
  0.7665569203844314  0.2914499866516351  0.5850696848797625
  0.6845676114341117  0.3648826723421905  0.6779208486592339
  0.5761150322338224  0.4092532921017238  0.7453060660892277
  0.5011193477100164  0.4787108912751137  0.8270292680153446
  0.4007078498259773  0.5651592459658303  0.9218441445182748
  0.3231703468596763  0.6845012572180025  0.9839207913107089
  0.2595743825146357  0.7734265849944606  0.1081921902191141
  0.2633465269538036  0.7694918772741630  0.2468728840373373
  0.1679046214997655  0.8331804575027704  0.3465699503638646
  0.0736296531403227  0.9194201268588813  0.4223905429322912
  0.9828190179560181  0.0093258369917706  0.5031640108368904
  0.9085768910180363  0.0627206958946402  0.5734061615052966
  0.8323232479038154  0.1683981094763496  0.6542594214720765
  0.7652949473975639  0.2652878371697511  0.7487092627748808
  0.6722536530018957  0.3429327148592023  0.8221206850181915
  0.5792093745056164  0.4080350612047141  0.9285297460844788
  0.4808995822456907  0.4921119220653409  0.9920523468398983
  0.3903948134195545  0.5571952440278451  0.0644237487146029
  0.3448250014831515  0.6701405834717633  0.1431773794692290
  0.3374322605204867  0.6744339320321160  0.3054171165559225
  0.2626657396970415  0.7650799710291096  0.4104096083491555
  0.1658917279702550  0.8284338830881168  0.4962676544454965
  0.0840465991338419  0.9312400653575352  0.5803952044771421
  0.9857352228682146  0.9976635495768065  0.6756338435374118
  0.8915177122884046  0.0853981500158199  0.7492566410575847
  0.8256840615606720  0.1765304950759372  0.8214887107459248
  0.7733906650450848  0.2611896896258514  0.9249692705861392
  0.6776933159310232  0.3203503782036066  0.9999757771713362
  0.5857821052839753  0.4122306938182234  0.0902706889732627
  0.4901437974608456  0.4767374406739435  0.1593968868652098
  0.4200894236473687  0.5663353870036403  0.2355843369324475
  0.4063874297974976  0.5883325126562227  0.3973894508384745
  0.3234723886647686  0.6647968052918856  0.4988659938103126
  0.2481506842271770  0.7652895403219446  0.6079511964087985
  0.1539095628658416  0.8668937900450899  0.6587150960093311
  0.0643616842667285  0.9175867455703184  0.7436815624505613
  0.9723370283578561  0.9946142006802745  0.8447143747033721
  0.9128982172520139  0.0830130309682033  0.9102920280612210
  0.8335015108368964  0.1798528783024835  0.0132096904168648
  0.7664040564190771  0.2580333036703024  0.0733052192097787
  0.6734919548924196  0.3346904821230794  0.1519333486592345
  0.5919652586616024  0.3906543649145675  0.2573793372290751
  0.5147583664570448  0.5012531002808132  0.3416504444510338
  0.0791125217528901  0.0508678788957440  0.9049208600300602
  0.9868355308693211  0.1703515815337795  0.9995261489479503
  0.9121657718319867  0.2486540223065958  0.1025231866002230
  0.8346811051455489  0.3417609787810463  0.1542123556399275
  0.7562599257435565  0.4014841683475723  0.2808970742366697
  0.6801358250276834  0.4725118577954461  0.3442057323801606
  0.5944092059207406  0.5818609975676310  0.4073926326926127
  0.4926594595396310  0.6657671328705916  0.5101992134353708
  0.4195332967489307  0.7435145487264663  0.5976514539827562
  0.3355556621776614  0.8513327252412566  0.6510884215314050
  0.2589043134986539  0.9156154865725341  0.7438650589305524
  0.1733789664412271  0.9993268153773158  0.8268348827321645
  0.1701033356075001  0.0030070588118960  0.9768527408637908
  0.0910305321547256  0.0599856969822810  0.0865521268391092
  0.9801671743988294  0.1524111399501678  0.1672103988688534
  0.9098713544138590  0.2573945973738319  0.2488945558455953
  0.8597461571547242  0.3205705742762248  0.3451503524956507
  0.7820871356391379  0.4097461403456748  0.4358630764515112
  0.6810068674853653  0.5076496623358651  0.4786481391393735
  0.5956531413146635  0.5902123986513175  0.5646525020764130
  0.5142833753559586  0.6671007405869318  0.6664110119047635
  0.4350357577914892  0.7629610395902517  0.7547874194154431
  0.3420461868177469  0.8442981668248706  0.8396181265820246
  0.2357734456573297  0.9154309355719050  0.9050835820083876
  0.2304009714641637  0.9174415826214215  0.0846441252373040
  0.1268052696369253  0.9956091372013915  0.1826986587367472
  0.0779220510006340  0.0848952642975789  0.2660451886568609
  0.9545220416073406  0.1488466485722171  0.3233813103148222
  0.9220359787810466  0.2398388091283010  0.4253119537059007
  0.8450462318066769  0.3245521747943343  0.4976965358527110
  0.7496428625810765  0.4224932368296166  0.5802899417615919
  0.6696356337011551  0.4743884155987956  0.6506935013249517
  0.5924960899185265  0.5405581563439341  0.7346596948663162
  0.5040035219901924  0.6491714493355474  0.8381069302721116
  0.4346114014791951  0.7519655597413362  0.9048396085469079
  0.3180519982993175  0.8269139569490562  0.9886927587604788
  0.3375132138902046  0.8228842410219883  0.1771408010006326
  0.2208701456454705  0.9031555880200912  0.2422844016967218
  0.1664504795522888  0.9879851941939535  0.3432699800268963
  0.0631965847967066  0.0841751413937644  0.4065943363391895
  0.0054073722512271  0.1672683085152684  0.4980512161841446
  0.9324746648077848  0.2422526597848460  0.5849207408835611
  0.8293104334757189  0.3674943131031512  0.6696769285912012
  0.7571719476744221  0.4419985356351859  0.7701713242564452
  0.6326789461714952  0.4768834623675033  0.8710572036663535
  0.5586078008819797  0.5823251097532065  0.9343223199454229
  0.4965143069727915  0.6682807294138584  0.0040754370352758
  0.4362053413225766  0.7571026009531749  0.0772380888111073
  0.4265499070558434  0.7661188246519544  0.2318670676119297
  0.3354828320281626  0.8444000326293306  0.3377265271515597
  0.2634165494977054  0.9147252466975146  0.4325201327914883
  0.1660553269854432  0.0009866560868517  0.4932118652112010
  0.0875766522306591  0.0691104492959980  0.5798253391472841
  0.0072899857617443  0.1478935136845436  0.6483401849984176
  0.9203384259808587  0.2506152888190130  0.7426061891907949
  0.8609839483467780  0.3490388546116137  0.8285220060117098
  0.7581308633918695  0.4021817953053315  0.9156290583966111
  0.6666965788641050  0.5069948149027041  0.0032376690792617
  0.5686735425565601  0.5600026528634743  0.0972990923113457
  0.4996599791370002  0.6531467904603687  0.1454558114815683
  0.5172568051930071  0.6561528120550548  0.3136810176396168
  0.4217176806478378  0.7376791814981800  0.4135661599232705
  0.3528875627867407  0.8400465314032601  0.5084979661050468
  0.2636173948940055  0.9387105288917894  0.5832860173429850
  0.1707707028160073  0.9994609046234757  0.6877694164293615
  0.0750560201115320  0.0592173701748138  0.7656511613075452
  0.9876032367307417  0.1427005868335698  0.8347053838395837
  0.9245475607103302  0.2485858996796395  0.9202538848679040
  0.8705498566286991  0.3578055301771883  0.9790846647089069
  0.7589224435413726  0.4045486913660810  0.0682723525747519
  0.6912111483546894  0.4838513689487414  0.1717320607894308
  0.5889803091876260  0.5467896831988597  0.2372144187035303
  0.1503557397959199  0.1265635401835183  0.8219807135935753
  0.0936927093220987  0.2311469877195051  0.9223618157728239
  0.0038157757870607  0.3524267496242715  0.9871380927661733
  0.9297282663937665  0.4524175847373826  0.0623651657174520
  0.8251771505695302  0.4933119265147923  0.1532823702736934
  0.7564102406660353  0.5987791725992722  0.2555671343537398
  0.6636628742485371  0.6381225651597831  0.3266770022543923
  0.5776218463257408  0.7329965541449113  0.4117590734258840
  0.4884522469743686  0.8266887962743255  0.4976007850814739
  0.4102968107301095  0.9310646411762349  0.5766515815337740
  0.3464569935532325  0.0046394424339482  0.6680737264673340
  0.2566810492801750  0.0727201599825946  0.7593309657293119
  0.2402691464958053  0.0740430885144789  0.9290533435176371
  0.1539830119838612  0.1617141759610803  0.0141038734970707
  0.0652342751344719  0.2570994685374117  0.0809080846582830
  0.9986457250632839  0.3376121227851598  0.1603716970218301
  0.9007759427899060  0.4143318605639905  0.2332908118770760
  0.8361779084598950  0.5122540287335866  0.3445394898947924
  0.7581304762893524  0.5948526800545793  0.4224569040697688
  0.6518707848837195  0.6861749154603700  0.5010634348797680
  0.5686304668960602  0.7516379192374600  0.5806375331237135
  0.5085113787375448  0.8429763343418770  0.6833128772148385
  0.4149812603820564  0.9220932042002872  0.7780627239558626
  0.3468536005972140  0.0199436377748796  0.8343258631941168
  0.3395653748417971  0.9951141369047605  0.0115300313439306
  0.2220967963929752  0.0669990428729648  0.1114907322812826
  0.1578326149936728  0.1676450072180060  0.1784707186362908
  0.0649375746519567  0.2333590279425692  0.2718211512221202
  0.0129699103187804  0.3317407446408822  0.3405622043584842
  0.9279571576886596  0.4324329714443920  0.4231900124584698
  0.8251209742327177  0.5036057600656534  0.4937185398868849
  0.7411336274916920  0.5765353266888127  0.6106991832779656
  0.6652244724924827  0.6587518089503277  0.6561881842271760
  0.5885105145546561  0.7472918426673019  0.7537537993395063
  0.5367033237422874  0.8661610331632659  0.8378601600814761
  0.4103922406462601  0.9252386919593434  0.9076086180984007
  0.4142062158875177  0.9070446290143934  0.0822016265227035
  0.3423287266650874  0.9725132643173566  0.1587334040302153
  0.2472749569886119  0.0687137334875842  0.2532365670977725
  0.1710115735247584  0.1617635451273500  0.3351636024758733
  0.0936662365527638  0.2419915544415474  0.3907124520447738
  0.0085351511825635  0.3186695785872473  0.4944638704318933
  0.9280748141116888  0.4206387651281460  0.5750003791923746
  0.8355599811145353  0.5039077806122449  0.6724609397247292
  0.7302656610900158  0.5668061728761273  0.7609840239875041
  0.6552912241931637  0.6509245080881172  0.8379296130952412
  0.6065321255537128  0.7536369487620647  0.9277178873002683
  0.5123949355323560  0.8479604403970882  0.0044243498853049
  0.5336466614261965  0.8397460246598669  0.1507846325739592
  0.4128339142342980  0.9227282490903335  0.2524596973382387
  0.3345800125573462  0.9996906086853343  0.3178095806636634
  0.2698960795364655  0.0843192631703857  0.4071162202380947
  0.1615510782510654  0.1436767080960308  0.4869533207759815
  0.0949064907649131  0.2499352228682170  0.5683888195103606
  0.0181372093023242  0.3288915727337454  0.6733887418921043
  0.9433030335389958  0.4262252229670906  0.7495453414214523
  0.8376439596187311  0.4970860559049228  0.8346330406581259
  0.7434247256169897  0.5725382860702410  0.8939608423311185
  0.6549648532668897  0.6440355244423372  0.0044208807941786
  0.5911344654722370  0.7496805944470779  0.0811242529860792
  0.5621689398433816  0.7441693823168833  0.2617680079299163
  0.5069195158005044  0.8651654069767432  0.3401878999564971
  0.4197602935650977  0.9255639208590409  0.4160605155434283
  0.3443719160338574  0.0055994982004464  0.5054566361137489
  0.2550805380873271  0.0772415826214186  0.5773792961952253
  0.1515868874584712  0.1444691054619511  0.6698533479670914
  0.0704828003875946  0.2437255962268594  0.7356464878974833
  0.9968854028239207  0.3469708407490870  0.8414776696725212
  0.9341583422322444  0.4420481040381290  0.8826658860346441
  0.8344737897484578  0.5094579472195875  0.9898753964958047
  0.7522663616318610  0.5955452084322133  0.0898701856905575
  0.6746867717726630  0.6652560062687840  0.1543078349944622
  0.2357439373714598  0.2331132035081467  0.7446215363470969
  0.1766760228800806  0.3227059187628569  0.8198080035793396
  0.1034567562490096  0.4082643845910425  0.8952252046748939
  0.0096924942651455  0.5078512013526364  0.9840671788482851
  0.9196737907372281  0.6040878015741171  0.0836259511944277
  0.8419928581316256  0.6783255106984640  0.1781771446369262
  0.7781380280018979  0.7431091248417943  0.2653915539471612
  0.6644566015068847  0.7947403797856367  0.3461352742841299
  0.5919801153891768  0.9127976482162623  0.4431156101684834
  0.5046903006842243  0.9970346538324648  0.4974150129528567
  0.4313439793940859  0.0967677666706237  0.5865096038996995
  0.3159777146614431  0.1411169924655908  0.6640143064784070
  0.3262377412592912  0.1519335325700055  0.8139167467568456
  0.2379672312529664  0.2382645516927724  0.9090717647524116
  0.1598815748101572  0.3352004662039221  0.0312596558099969
  0.0722471691583593  0.4196215526617593  0.0941949785437401
  0.0007307768747040  0.5172626443600663  0.1617502120906522
  0.9181130220692921  0.5994565738213922  0.2395059756169928
  0.8325191222710018  0.6719939843379237  0.3294953888823002
  0.7766413581711760  0.7389173355679475  0.4169498309207427
  0.6734424992089885  0.8059653614934348  0.4982245466500572
  0.5686618652111974  0.9125386454872668  0.5788188315733294
  0.5146277779425716  0.0138561531007753  0.6616973733388676
  0.4194874218873608  0.0846642782985256  0.7536218453369727
  0.4311109896574905  0.0854973777883217  0.9234031714720743
  0.3097562949889223  0.1436118375257109  0.0086104364420194
  0.2565497641789278  0.2490320365646284  0.0970213998971658
  0.1492366926712521  0.3167638516453124  0.1814390503875956
  0.0988013738925773  0.4155772351091613  0.2785570894636891
  0.9988121054817256  0.5081510525431128  0.3346184899541242
  0.9048353187786731  0.5795661668446428  0.4225972299675718
  0.8365960053788939  0.6451026523690899  0.5320315159784812
  0.7545734372528088  0.7333827153535850  0.5855611775233314
  0.6601660417655424  0.8159085820083831  0.6578681221325766
  0.5975356964878955  0.9196558470772018  0.7394098916310696
  0.5237567285635194  0.0130099084401181  0.8261492045364633
  0.4987723036307514  0.9900651943917111  0.0061061056399296
  0.4204452460053787  0.0777337481213394  0.1001267936244261
  0.3463205767481412  0.1767032728207596  0.1740019819846523
  0.2483280093141929  0.2532487230066423  0.2675245733467833
  0.1834220188656843  0.3181755749683575  0.3161086897840519
  0.0869873808535075  0.4109397860306885  0.4083194371934837
  0.9957933693244740  0.5222325428136401  0.4921325828587229
  0.9106438236631860  0.5552438350340125  0.6023717207522523
  0.8402392876918228  0.6351316588553999  0.6812043649145707
  0.7277194396653996  0.7330290287335899  0.7315661495412087
  0.6867935443363393  0.8360776123239972  0.8287919637913319
  0.5996902220772000  0.9237642402309731  0.9299381476427797
  0.6259371544257206  0.9133184978642603  0.0751940500909640
  0.5279192438894142  0.9753675244225590  0.1711125983823791
  0.4203776301218127  0.0655435388981189  0.2224378895744366
  0.3323622142461602  0.1739106060156601  0.3282953928373686
  0.2595030928650530  0.2344446947674399  0.4151289273849059
  0.1794268885461179  0.3212324558020896  0.4912804817275713
  0.0842751394162349  0.4339385327677547  0.5721151543466192
  0.0205155533143468  0.5206903748417986  0.6815002333491549
  0.9188030103029590  0.5764215714483498  0.7733464676277464
  0.8232467528872007  0.6681390943877545  0.8442493340650188
  0.7498578478484390  0.7488837159863948  0.9270025500316379
  0.6902703256011691  0.8349578770170893  0.9935275965037178
  0.6724074444312578  0.8040774298963740  0.1896926633444096
  0.6059496559088728  0.9162333709065038  0.2685766215788661
  0.5108338469981035  0.0087198786782139  0.3271070617782001
  0.4186414298568266  0.0844402527289958  0.4178357686679348
  0.3436016843656091  0.1693112190515720  0.5109618256604946
  0.2480171442414161  0.2501143059840203  0.5754181953013742
  0.1533258997785154  0.3391585118058842  0.6645463203013762
  0.0962812588989053  0.4163504721365285  0.7683074671729173
  0.0237922970060112  0.5297128020685022  0.8408696977337442
  0.9247898680984008  0.6016557640207267  0.9041779173588012
  0.8153931424023071  0.6586333877155539  0.9757340353583288
  0.7560106589147253  0.7409042877906984  0.0881497715946864
  0.3328426499960457  0.3292478430034791  0.6716231094763501
  0.2435179550308462  0.4114894147484591  0.7302680712110430
  0.1854432674814106  0.5120597003045404  0.8153431305371015
  0.0857021960528428  0.6149525272899865  0.9008720851131145
  0.9921247795048274  0.6984891250395506  0.9839490873675061
  0.9083231065100463  0.7326607760836907  0.0761913052721113
  0.8236824632178426  0.8356038690476169  0.1552854334757185
  0.7332165030256306  0.9009229735208066  0.2623380868335730
  0.6772475028674236  0.9936473031363704  0.3601823638467039
  0.5978949305885166  0.1030228197674390  0.4274417101724381
  0.4961136395546575  0.1900167413186225  0.5128079412869795
  0.4107916740824251  0.2583031516967225  0.5737263333531075
  0.4091516166350289  0.2388152448188592  0.7210178482439460
  0.3452663023058093  0.3191723372488511  0.8258167640602778
  0.2336975612047141  0.4027157520566362  0.9004266838712240
  0.1488042793861766  0.5033132554184476  0.9866490226032241
  0.0882422604216089  0.6099829076688792  0.0764587120313251
  0.0086844199889242  0.6729896881426995  0.1833380408558796
  0.9122667259927226  0.7505890864776177  0.2498177632099328
  0.8270928566484699  0.8299364617940199  0.3450040687786711
  0.7389469911801925  0.9190515760955549  0.4254211091994904
  0.6693912400134465  0.9947826673983542  0.5197318684741319
  0.5850570929243801  0.1043581810631196  0.5645101506881787
  0.5269145843220997  0.1672151691781352  0.6446546338593606
  0.5022849010243604  0.1822038482834998  0.8196206756249040
  0.4063878777092214  0.2281463544138589  0.9205956078943203
  0.3178058050545829  0.3272165994304714  0.0151289797895870
  0.2422923395230185  0.4005430316603409  0.0783696997112813
  0.1628885950601173  0.4936864247152357  0.1602484080841649
  0.0769083644795145  0.5812019928610965  0.2425945533736780
  0.9819210167497232  0.6771680291884223  0.3562891512418886
  0.8943204299161494  0.7379274486829601  0.4292207384116438
  0.8167829254666970  0.8174277023018490  0.4959306171887334
  0.7276659344842571  0.8972351289352929  0.6062003050348039
  0.6478955371974351  0.0348693101368482  0.6326102480817895
  0.6018436031680139  0.1100538893173564  0.7433075858250291
  0.5949321794415425  0.0831388536228417  0.9069032322812873
  0.4852036945301350  0.1541256941148532  0.9982496054817247
  0.4133725854295207  0.2572855343300091  0.1012064324276238
  0.3497068620471424  0.3247313365171678  0.1704256209460553
  0.2459056320202535  0.4251542719704133  0.2389491308732801
  0.1812364321309943  0.5215051317038473  0.3268743716381906
  0.0905596666864454  0.6003550481529842  0.4087417358803975
  0.9871424636133526  0.6544145942097757  0.5106020966816942
  0.9134714265938939  0.7428211452895113  0.5917063375059328
  0.8232443971483931  0.8363734239044476  0.6611976566207858
  0.7203154648196488  0.9134225607103303  0.7325211077163445
  0.6644290781719633  0.0125338267283652  0.8348850532945704
  0.6637601571151706  0.0351335572891927  0.9962987788720170
  0.5835684429876622  0.1025737778832436  0.0677654885500729
  0.5182964409310244  0.1609521733111876  0.1768323821389046
  0.4310206474450240  0.2501623704714433  0.2802681602001300
  0.2984687045166936  0.3530016037810455  0.3407546748932120
  0.2385238594565706  0.4351251048093658  0.4176450561620015
  0.1765569233507378  0.5299663888229702  0.5029903723698794
  0.0844721454279380  0.6133138476902360  0.5782144538047760
  0.9958080945459571  0.6694715323920235  0.6823528629765860
  0.9165185759769017  0.7645110682645182  0.7429064269893999
  0.8255620718636294  0.8268608373872794  0.8085094931577288
  0.7356540717449747  0.9350370021555108  0.9152603583293768
  0.7266347596305991  0.9162162543505801  0.0880380329457395
  0.6795528323247879  0.9989630883167209  0.1744244566722060
  0.6176299611414322  0.0865072046551205  0.2483465907293123
  0.5066450709935140  0.1667522281877893  0.3289235064665377
  0.3820269523216240  0.2510244121776637  0.4077208170186708
  0.3084198959816504  0.3360640142975768  0.4948610756802694
  0.2394856144201896  0.4249015849944655  0.5832657317869021
  0.1646284854057924  0.5189503089898722  0.6636107572971071
  0.0913963835825058  0.6060804125138404  0.7543445810591649
  0.9833676697713969  0.6958948623635521  0.8349966965274476
  0.8969644206810656  0.7569683698188570  0.9099186268984312
  0.8172767412197430  0.8317107261509236  0.9924758122725805
  0.3978708778278772  0.4089116852554966  0.5946328043426661
  0.3079719190001597  0.4986657658993821  0.6609018850854298
  0.2678816642936255  0.5750213816049694  0.7609230046669850
  0.1948712313122911  0.6840740720416107  0.8453439339107760
  0.0843000440001589  0.7553887062964719  0.9053604334757139
  0.0109224559009675  0.8247850256090814  0.9886312944945388
  0.9194419356114523  0.8909514233309608  0.0834266255339315
  0.8300142857142845  0.9880270853108684  0.1595746559088767
  0.7673503955070373  0.0919287810473008  0.2500063295957915
  0.6795271594684351  0.1740040875652582  0.3564058599311792
  0.5852968196290149  0.2537910758780271  0.4224290139020752
  0.4866294682407855  0.3407211695143175  0.4899057823129240
  0.5098580950403431  0.3547036796986234  0.6736367490310045
  0.4075798978603089  0.4163318126087674  0.7375338969308629
  0.3302668367346939  0.4805134319134652  0.8428450927464013
  0.2640115977495654  0.5638363441306780  0.9174539422164187
  0.1817498679995282  0.6879841302800216  0.0129022637834169
  0.0757642545681065  0.7414215590887494  0.0655769720969772
  0.0245683579536475  0.8146282985287172  0.1546793614538871
  0.9061722195855069  0.9094147524125944  0.2313122918644197
  0.8335389599153586  0.9761850824632177  0.3347961912672019
  0.7616529252689475  0.0591942092825519  0.4086057694589442
  0.6962253178887821  0.1856023315139979  0.5121184790776780
  0.5978352535200102  0.2876312954833082  0.5774087847057459
  0.6121684647405488  0.2431328305450080  0.7404213677622238
  0.4970879063834843  0.3166663937668091  0.8193533474727133
  0.4120296986236340  0.3934783242366748  0.9142400638743879
  0.3254712580090171  0.4779189615962665  0.9889554921096320
  0.2512205881189686  0.5583037761034646  0.0845129849905106
  0.1907955703211499  0.6811371702460036  0.1514639668367366
  0.0978189230343318  0.7486308999762699  0.2551092217410229
  0.9667633730817897  0.8226211487501942  0.3416967825502297
  0.9046596038997023  0.9264476447555765  0.4311380675526024
  0.8055818645190627  0.9983301406027536  0.5295497211675340
  0.7701930370985579  0.0912632178452810  0.5925486256130341
  0.6918899318739093  0.1926274551099496  0.6521326886568559
  0.6874926658163290  0.1858238955465907  0.8223602871381104
  0.5923028659428908  0.2260250726744175  0.9251542324197146
  0.4902332863668732  0.3262969768430608  0.9926799655908880
  0.3990824409705738  0.4286355101052024  0.0874157619443139
  0.3332454116239489  0.4914842316286965  0.1734918253638682
  0.2575478499248547  0.5688054698623617  0.2375622122686281
  0.1719335666824904  0.6809386207680745  0.3175845717647547
  0.0800132890365433  0.7492027547065305  0.4217438192137308
  0.9859471320795734  0.8226295171847795  0.5067364261983869
  0.9096178180865380  0.9104397588395798  0.5871888541172297
  0.8358486839503243  0.9985136311501321  0.6627506743395060
  0.7535764549715225  0.0905606653417195  0.7382268316919820
  0.7597207324790389  0.0943371010322736  0.9350196245649443
  0.6864172535002382  0.1720641275114687  0.0060648414016740
  0.5867139010836908  0.2486206553551682  0.0813892708827737
  0.4791758038680598  0.3406735717252047  0.1576026449533288
  0.4092607968478106  0.4110221760797330  0.2671567458669486
  0.3113843695617788  0.5038111799952532  0.3306937771911080
  0.2642266670621751  0.6103336260085399  0.4145748432803344
  0.1642279850893829  0.6774700744541988  0.4828087594921655
  0.0714293120155034  0.7530401889534915  0.5980914427108033
  0.0076456340966615  0.8306493963573800  0.6637304540420814
  0.9017759546551147  0.9087107899264382  0.7624121410773625
  0.8000197768351498  0.9852845475399477  0.8362004533499459
  0.8244233299715233  0.9920211878065146  0.0134300422203779
  0.7501734985563999  0.0820723748220189  0.0833234402191110
  0.6730482923983558  0.1818677043782628  0.1420869299754770
  0.5904472492485340  0.2722567340017434  0.2548127249446281
  0.4838882302048759  0.3386088074474003  0.3404943793505808
  0.3951187326965666  0.4347792022622983  0.4047002778436948
  0.3289739177938600  0.4865453770170873  0.5018731015662112
  0.2359925481529856  0.5929534532708445  0.5870852194075269
  0.1649950344091096  0.6736609501067861  0.6849880759571292
  0.1042079042081951  0.7511215437628564  0.7617448040262644
  0.0060040623516855  0.8340169919712039  0.8437000222472690
  0.8898328176910297  0.8990489736592338  0.9322700161169095
 
  0.00000000E+00  0.00000000E+00  0.00000000E+00
  0.00000000E+00  0.00000000E+00  0.00000000E+00
  0.00000000E+00  0.00000000E+00  0.00000000E+00
  0.00000000E+00  0.00000000E+00  0.00000000E+00
  0.00000000E+00  0.00000000E+00  0.00000000E+00
  0.00000000E+00  0.00000000E+00  0.00000000E+00
  0.00000000E+00  0.00000000E+00  0.00000000E+00
  0.00000000E+00  0.00000000E+00  0.00000000E+00
  0.00000000E+00  0.00000000E+00  0.00000000E+00
  0.00000000E+00  0.00000000E+00  0.00000000E+00
  0.00000000E+00  0.00000000E+00  0.00000000E+00
  0.00000000E+00  0.00000000E+00  0.00000000E+00
  0.00000000E+00  0.00000000E+00  0.00000000E+00
  0.00000000E+00  0.00000000E+00  0.00000000E+00
  0.00000000E+00  0.00000000E+00  0.00000000E+00
  0.00000000E+00  0.00000000E+00  0.00000000E+00
  0.00000000E+00  0.00000000E+00  0.00000000E+00
  0.00000000E+00  0.00000000E+00  0.00000000E+00
  0.00000000E+00  0.00000000E+00  0.00000000E+00
  0.00000000E+00  0.00000000E+00  0.00000000E+00
  0.00000000E+00  0.00000000E+00  0.00000000E+00
  0.00000000E+00  0.00000000E+00  0.00000000E+00
  0.00000000E+00  0.00000000E+00  0.00000000E+00
  0.00000000E+00  0.00000000E+00  0.00000000E+00
  0.00000000E+00  0.00000000E+00  0.00000000E+00
  0.00000000E+00  0.00000000E+00  0.00000000E+00
  0.00000000E+00  0.00000000E+00  0.00000000E+00
  0.00000000E+00  0.00000000E+00  0.00000000E+00
  0.00000000E+00  0.00000000E+00  0.00000000E+00
  0.00000000E+00  0.00000000E+00  0.00000000E+00
  0.00000000E+00  0.00000000E+00  0.00000000E+00
  0.00000000E+00  0.00000000E+00  0.00000000E+00
  0.00000000E+00  0.00000000E+00  0.00000000E+00
  0.00000000E+00  0.00000000E+00  0.00000000E+00
  0.00000000E+00  0.00000000E+00  0.00000000E+00
  0.00000000E+00  0.00000000E+00  0.00000000E+00
  0.00000000E+00  0.00000000E+00  0.00000000E+00
  0.00000000E+00  0.00000000E+00  0.00000000E+00
  0.00000000E+00  0.00000000E+00  0.00000000E+00
  0.00000000E+00  0.00000000E+00  0.00000000E+00
  0.00000000E+00  0.00000000E+00  0.00000000E+00
  0.00000000E+00  0.00000000E+00  0.00000000E+00
  0.00000000E+00  0.00000000E+00  0.00000000E+00
  0.00000000E+00  0.00000000E+00  0.00000000E+00
  0.00000000E+00  0.00000000E+00  0.00000000E+00
  0.00000000E+00  0.00000000E+00  0.00000000E+00
  0.00000000E+00  0.00000000E+00  0.00000000E+00
  0.00000000E+00  0.00000000E+00  0.00000000E+00
  0.00000000E+00  0.00000000E+00  0.00000000E+00
  0.00000000E+00  0.00000000E+00  0.00000000E+00
  0.00000000E+00  0.00000000E+00  0.00000000E+00
  0.00000000E+00  0.00000000E+00  0.00000000E+00
  0.00000000E+00  0.00000000E+00  0.00000000E+00
  0.00000000E+00  0.00000000E+00  0.00000000E+00
  0.00000000E+00  0.00000000E+00  0.00000000E+00
  0.00000000E+00  0.00000000E+00  0.00000000E+00
  0.00000000E+00  0.00000000E+00  0.00000000E+00
  0.00000000E+00  0.00000000E+00  0.00000000E+00
  0.00000000E+00  0.00000000E+00  0.00000000E+00
  0.00000000E+00  0.00000000E+00  0.00000000E+00
  0.00000000E+00  0.00000000E+00  0.00000000E+00
  0.00000000E+00  0.00000000E+00  0.00000000E+00
  0.00000000E+00  0.00000000E+00  0.00000000E+00
  0.00000000E+00  0.00000000E+00  0.00000000E+00
  0.00000000E+00  0.00000000E+00  0.00000000E+00
  0.00000000E+00  0.00000000E+00  0.00000000E+00
  0.00000000E+00  0.00000000E+00  0.00000000E+00
  0.00000000E+00  0.00000000E+00  0.00000000E+00