Li 
 1.0000000000000000
    20.2271999999999998    0.0000000000000000    0.0000000000000000
     0.0000000000000000   20.2271999999999998    0.0000000000000000
     0.0000000000000000    0.0000000000000000   20.2271999999999998
 Li 
 432
Cartesian
 -0.3225745300000000 -0.3855804600000000 -0.0444810900000000
 18.2417308499999997  1.9486274200000000  1.8449845000000000
 16.5740887800000003  3.7074798300000000  3.6364999199999999
 14.8463764600000001  5.4872421999999998  4.6666495200000000
 13.8976679599999997  6.9236331199999999  7.2899008900000002
 11.6823225599999994  7.8441460000000003  8.6056821400000008
 10.2594784000000008 10.1302355700000000 10.0626771200000000
  7.9610375800000002 11.9527055200000003 11.4579254600000002
  6.9195463600000000 13.7377423699999994 13.6830075099999995
  5.0750956000000000 15.5185286900000001 14.8320793099999992
  3.2183276900000002 16.8796394499999991 16.4136726599999996
  1.7518726700000000 18.7278585799999995 18.6855233200000015
  1.6205497000000000 18.7494981600000017  1.6829212400000000
 -0.4654096700000000  0.2099438300000000  3.6272293400000000
 17.9144037699999998  1.7560371400000001  5.0994875300000002
 16.6223220199999986  3.8911437800000002  6.7576169300000002
 15.2820369800000009  5.3364743600000004  8.5970624900000008
 13.7591908000000007  7.0230912400000003 10.1075269100000007
 11.7526762500000004  8.6259850799999995 11.3508009899999998
  9.9440630300000006 10.2840031300000003 12.9303690099999997
  8.3421363700000004 11.5892185300000001 15.2884739100000004
  6.6599820400000000 13.2725927099999996 17.0225649600000004
  4.6381831000000000 15.7604739600000006 18.7058944800000013
  3.1224262999999999 16.8578459299999999  0.0382060400000000
  2.7878255300000001 16.6025249300000013  3.1404881200000001
  1.1738176499999999 18.2732680899999984  5.6428322399999997
 -0.7423717900000000 -0.1990487300000000  7.1824135299999998
 17.8656984399999992  1.2010909299999999  8.4407501699999994
 17.0944384000000014  3.4090410300000000 10.2732687400000007
 15.5053001399999992  5.8952171699999996 11.8343215300000004
 13.8468859900000005  7.3805547899999997 13.7124405899999999
 11.6531939799999993  8.2780481899999998 15.0754548600000007
 10.1362412699999993  9.6829809400000002 16.7284864099999986
  8.1051978200000008 11.4315891000000001 18.6463258799999991
  6.5368312399999997 13.8455438300000004 19.9019626299999999
  5.2504629500000002 15.6442542200000005  2.1884250700000001
  5.3267628699999996 15.5646661000000002  4.9935472000000001
  3.3962403600000002 16.8529077500000000  7.0101396999999999
  1.4893217200000000 18.5972947899999994  8.5437779900000006
 -0.3475231600000000  0.1886355700000000 10.1775990800000002
 18.3779664899999986  1.2686640600000001 11.5984011099999993
 16.8355688000000008  3.4062222400000000 13.2338361700000000
 15.4797739599999993  5.3660301400000003 15.1442920000000001
 13.5978090900000002  6.9365686100000001 16.6291995200000002
 11.7157838600000002  8.2534067899999997 18.7815568800000001
  9.7272520300000007  9.9540462699999992 -0.1607587700000000
  7.8965939699999996 11.2704996400000006  1.3031120500000000
  6.9748442700000002 13.5550676100000000  2.8960774900000001
  6.8253098200000002 13.6419100300000000  6.1777331000000002
  5.3129924500000003 15.4754255900000004  8.3014372299999994
  3.3555251600000000 16.7568978400000006 10.0381050999999992
  1.7000273699999999 18.8363790500000015 11.7397698800000008
 -0.2885365000000000 -0.0472598500000000 13.6661808800000006
 18.0329070700000003  1.7273654599999999 15.1553639300000000
 16.7012766500000005  3.5707176299999999 16.6164164499999991
 15.6435276600000002  5.2831360900000002 18.7095384299999985
 13.7078382399999992  6.4797911700000004 -0.0004899600000000
 11.8487317999999995  8.3382726900000002  1.8259232800000000
  9.9142366200000005  9.6430635599999999  3.2241527099999998
  8.4972327900000000 11.4553791399999998  4.7652115000000004
  8.2200798200000005 11.9003194000000008  8.0380759000000008
  6.5429406999999999 13.4469779400000000 10.0906622299999995
  5.0193935200000004 15.4796645900000005 12.2971504399999993
  3.1131595100000000 17.5348340699999987 13.3239619900000008
  1.3018566600000001 18.5602106199999994 15.0425956999999997
 -0.5595444600000000 -0.1089396400000000 17.0862066000000006
 18.4653748200000010  1.6791211800000001 18.4126589100000011
 16.8594017600000008  3.6379201399999999 20.4943950500000014
 15.5022081299999996  5.2192912400000004  1.4827593299999999
 13.6228564700000003  6.7698513199999999  3.0731862300000001
 11.9737996800000008  7.9018439699999998  5.2060633300000001
 10.4121204299999999 10.1389467100000008  6.9106318699999996
  1.6002247999999999  1.0289147599999999 18.3040152200000001
 -0.2662803500000000  3.4457355100000000 -0.0095846800000000
 18.4505595000000007  5.0295746399999999  2.0737570000000001
 16.8832616500000015  6.9128676699999998  3.1192841599999999
 15.2970207699999996  8.1209005699999999  5.6817612999999998
 13.7572433600000004  9.5575918499999997  6.9623181900000004
 12.0232338900000002 11.7694187699999997  8.2404122599999994
  9.9651214199999991 13.4666049500000007 10.3199015299999992
  8.4859839000000008 15.0392174799999996 12.0888154900000000
  6.7873514899999998 17.2200772999999998 13.1696957200000000
  5.2369093299999996 18.5203375699999988 15.0463073200000004
  3.5069710299999999 -0.0136166400000000 16.7245545399999997
  3.4407141900000000  0.0608243800000000 -0.4682042400000000
  1.8412927800000001  1.2133426899999999  1.7507071800000000
 -0.4011625300000000  3.0828506099999999  3.3821981800000001
 18.4041498600000004  5.2063720000000000  5.0344399600000003
 17.3902574700000017  6.4842451199999998  6.9814252100000003
 15.8194329099999997  8.2880171300000001  8.8162896199999992
 13.7748621100000008 10.2683312499999992  9.6817116399999996
 12.0483952199999997 11.9383442300000002 11.4213390900000000
 10.4025126900000000 13.4935801000000009 13.4796288200000003
  8.7995552799999999 15.4325655400000006 15.2672360900000008
  6.9186366300000000 17.0777878799999989 16.9831237699999988
  4.7690366400000004 18.5166046199999990 18.3073066299999994
  4.6603665300000001 18.5572743799999991  1.7121136500000000
  2.5649155499999998 -0.0888148600000000  3.6954823100000000
  1.5761449100000000  1.7171934900000001  5.3813492399999996
 -0.9198917599999999  3.0107509299999999  6.5410984399999998
 18.6502061499999989  4.8512675600000001  8.6028699500000005
 17.0929191399999993  6.5647817499999999 10.0670073700000007
 15.1631761100000002  8.5458552000000001 11.7376407100000009
 13.5448538900000006  9.5955493599999997 13.1617075900000007
 11.9845369099999992 10.9339779400000001 14.8601085800000003
 10.1945800400000000 13.1309207400000005 16.9525565000000000
  8.7909717399999998 15.2101577700000004 18.3023717300000008
  6.4333013799999996 16.7261539900000002 19.9984861699999996
  6.8269472799999997 16.6446441199999988  3.5830624100000001
  4.4675846100000003 18.2683087099999995  4.9007350499999998
  3.3668271399999998 -0.2430258800000000  6.9433905400000002
  1.2782899599999999  1.7026274200000000  8.2242649599999993
  0.1093760000000000  3.3833695300000000 10.0741815599999995
 18.8613515400000011  4.9000930000000000 11.8313088099999995
 16.7746279999999999  7.4333809700000000 13.5456891699999993
 15.3154684200000002  8.9403927799999998 15.5784094100000008
 12.7973235800000005  9.6460171700000004 17.6190482700000004
 11.2990717099999998 11.7788064600000002 18.8987244300000015
 10.0430941899999997 13.5174479699999992 20.3096346799999985
  8.8232126799999993 15.3140657299999994  1.5623102700000000
  8.6279102800000000 15.4964386899999997  4.6900215500000000
  6.7858783400000000 17.0798483400000016  6.8312620099999997
  5.3281792299999999 18.5023305100000002  8.7486712299999994
  3.3588343100000002  0.0199572900000000  9.9762950400000001
  1.7714304599999999  1.3979108800000000 11.7282431000000003
  0.1474560000000000  2.9914716800000001 13.1141065900000005
 18.6158694099999984  5.0692455699999996 15.0208439100000000
 17.4152945199999998  7.0600787199999999 16.7586803199999999
 15.3348645999999995  8.1350116099999994 18.5206120900000002
 13.4854050399999998 10.2550855199999997 20.2926889800000012
 11.5026734800000003 11.3272856599999994  1.9680882000000000
 10.1067223300000002 13.2113307599999992  2.9421637899999999
 10.4626568500000001 13.2721341600000002  6.3448886800000004
  8.5301678699999997 14.9211843399999999  8.3652854300000001
  7.1379273100000002 16.9917891999999995 10.2854900600000008
  5.3322417700000004 18.9874856100000002 11.7982429300000007
  3.4542131600000001 -0.0109043900000000 13.9116495400000009
  1.5181731300000001  1.1978015900000001 15.4869791699999997
 -0.2507518100000000  2.8864333100000001 16.8837527399999985
 18.7010084200000009  5.0281967099999996 18.6141593800000003
 17.6087860599999999  7.2374040199999996 19.8041413300000002
 15.3508760500000001  8.1828872900000000  1.3809585300000000
 13.9812661400000007  9.7869584100000004  3.4736587399999999
 11.9134225100000002 11.0600242800000004  4.7981834900000004
  3.0412756200000000  2.5600260399999999 16.6263682899999985
  1.8951411700000000  4.6754563500000001 18.6567969200000014
  0.0771824600000000  7.1286063500000001 -0.2601603700000000
 18.8057995899999995  9.1511409700000002  1.2614726800000000
 16.6910232600000015  9.9783190000000008  3.1004731600000000
 15.3000612199999999 12.1116260800000006  5.1694075399999999
 13.4240416899999992 12.9074327499999999  6.6077610599999996
 11.6836726100000003 14.8264679000000008  8.3287331299999998
  9.8800212900000002 16.7215996199999992 10.0650706000000003
  8.2991556499999994 18.8328307099999996 11.6640468700000000
  7.0078548999999999 20.3210429300000008 13.5132608800000007
  5.1919389200000001  1.4709252200000000 15.3591393099999998
  4.8599720800000004  1.4976843600000000 18.7921477900000014
  3.1146451800000001  3.2710249800000000  0.2852818700000000
  1.3195067300000001  5.2004023699999999  1.6365440099999999
 -0.0273931900000000  6.8289479300000000  3.2438703900000001
 18.2201751499999993  8.3807734099999998  4.7188199099999997
 16.9135377899999995 10.3614646900000000  6.9690691700000000
 15.3348567700000000 12.0322041300000002  8.5451202899999998
 13.1855207399999994 13.8793972500000002 10.1351103100000000
 11.5018021800000003 15.2035305199999993 11.7446715099999999
 10.2857613600000004 17.0510509100000007 13.8215062300000007
  8.3939089500000001 18.6513636600000012 15.7380303300000008
  7.0158771499999997 20.6306039500000011 16.8760760999999988
  6.8684567500000000 -0.0988273300000000  0.2332202500000000
  4.4923963200000001  1.3552030399999999  2.2551453399999999
  3.1925118700000001  3.3909890900000002  3.6099629200000001
  1.3135053100000000  4.7201997300000000  5.4981807900000002
  0.2623449700000000  6.7101863899999996  6.8886198199999997
 18.7699750200000004  8.7469082000000000  8.5599490199999995
 16.6898869699999999 10.1865344300000000  9.9865436499999998
 14.9910581100000009 11.6616953599999995 12.3527345200000003
 13.4556284500000007 13.3247045899999996 13.2728496400000004
 11.9039198800000001 15.1156215599999992 15.2463288499999994
 10.8560054699999995 17.5200124499999994 16.9475650299999998
  8.3010859299999993 18.7149880700000004 18.3583810400000011
  8.3782319699999999 18.3469731200000012  1.6627087400000000
  6.9243516200000004 -0.5559797000000000  3.2107323100000000
  5.0016800100000003  1.3898864300000000  5.1222666900000000
  3.4590852999999999  3.2720235799999999  6.7794212199999997
  1.8946057000000001  4.8948115699999999  7.9030189100000001
  0.1726422100000000  6.4457933000000001 10.0016195999999997
 18.7723548800000017  8.5083444299999993 11.6306476700000001
 16.9010388499999991 10.1926434599999993 13.6020019199999993
 14.7712295800000000 11.4649018199999997 15.3925760500000006
 13.2547066499999993 13.1663802099999998 16.9489698699999991
 12.2684466099999998 15.2439652900000002 18.7651352500000002
 10.3643148400000005 17.1518654200000000 20.3166922099999994
 10.7941777499999993 16.9857107899999988  3.0499509200000001
  8.3504741500000002 18.6642088400000006  5.1065527900000003
  6.7676168299999997 -0.0062581200000000  6.4283979499999999
  5.4592419799999998  1.7055426000000000  8.2348212099999998
  3.2677259699999999  2.9061775100000000  9.8497022100000002
  1.9196925700000000  5.0554897399999996 11.4969143299999992
  0.3668649600000000  6.6525556200000002 13.6207687600000007
 19.0803791199999999  8.6213428299999997 15.1612035299999999
 16.9431918999999986 10.0546590699999996 16.8822894400000010
 15.0374006100000006 11.5808464200000003 18.0823247500000015
 13.2481050800000002 13.0270353599999993 20.3166220399999986
 11.9569950600000006 15.1639393200000008  1.6409164899999999
 11.3711035799999998 15.0524629300000008  5.2948338499999998
 10.2535624300000006 17.4998737200000001  6.8810486900000001
  8.4905754099999999 18.7215665400000013  8.4157392600000005
  6.9656796200000004  0.1132621700000000 10.2239724699999996
  5.1595650600000003  1.5623809399999999 11.6787665000000001
  3.0661782899999999  2.9222054900000001 13.5492576400000004
  1.4256697000000000  4.9298863800000001 14.8800686399999993
 -0.0629995800000000  7.0182485899999998 17.0207371199999997
 18.8954076200000003  8.9413954100000002 17.8538594099999983
 16.8790682399999987 10.3049077899999997 20.0224076199999992
 15.2162421499999994 12.0462120400000003  1.8178222200000000
 13.6470242699999993 13.4562662900000003  3.1212154399999998
  4.7684397699999996  4.7152273899999999 15.0616087400000005
  3.5736612499999998  6.5274371599999998 16.5824204500000008
  2.0926404999999999  8.2580453600000006 18.1078992599999999
  0.1960520200000000 10.2724078199999997 -0.3222763600000000
 18.6024257000000013 12.2190047800000006  1.6915188400000001
 17.0311579399999999 13.7206257699999998  3.6040247399999998
 15.7395535199999994 15.0310168900000001  5.3681280400000002
 13.4400965699999997 16.0753726099999987  7.0013474200000001
 11.9741001899999997 18.4633405900000014  8.9629880699999998
 10.2084716499999999 -0.0599806500000000 10.0613129499999996
  8.7248809400000003  1.9573409700000000 11.8634470600000004
  6.3913444300000002  2.8544016299999999 13.4311501799999995
  6.5988760400000004  3.0731899500000002 16.4632568200000016
  4.8134107799999999  4.8194247399999997 18.3879763999999994
  3.2339565900000000  6.7801668700000004  0.6322953100000001
  1.4613579400000001  8.4877690700000006  1.9053006699999999
  0.0147815700000000 10.4627749600000008  3.2717538899999998
 18.5708557200000008 12.1253280100000005  4.8445352699999997
 16.8395307900000013 13.5925567199999993  6.6647691299999998
 15.7092800799999992 14.9462287299999996  8.4337276200000009
 13.6218561200000003 16.3024225600000001 10.0776875500000003
 11.5024372800000005 18.4581016899999995 11.7078842699999992
 10.4094789900000002 20.5074711799999996 13.3842851100000004
  8.4850559800000003  1.7125212900000000 15.2436597900000006
  8.7201682100000006  1.7293725600000001 18.6778606300000014
  6.2655025300000000  2.9048653600000001  0.1741650200000000
  5.1892833899999999  5.0372208100000000  1.9624712600000001
  3.0186404300000000  6.4072457800000002  3.6700039599999998
  1.9984751500000000  8.4059638499999991  5.6344299600000003
 -0.0240277800000000 10.2784729699999993  6.7683951200000001
 18.3022849600000015 11.7230007700000005  8.5479586899999997
 16.9219947200000007 13.0486203700000001 10.7615078799999999
 15.2629078299999996 14.8342788599999995 11.8442630500000003
 13.3533105600000006 16.5035460699999987 13.3068300799999992
 12.0864740400000006 18.6020627500000018 14.9561917599999994
 10.5941320999999995  0.2631540200000000 16.7106851899999995
 10.0887671399999999 -0.2009533000000000  0.1235094200000000
  8.5044300800000006  1.5723360700000000  2.0252846799999999
  7.0050955699999999  3.5742124400000002  3.5195728900000001
  5.0229803100000003  5.1225125699999996  5.4112730500000001
  3.7101138599999999  6.4358009899999997  6.3939936900000003
  1.7595111500000000  8.3121612400000000  8.2591589200000008
 -0.0850883600000000 10.5633020900000005  9.9544641800000004
 18.4197747499999984 11.2310280999999996 12.1842932699999995
 16.9956881200000005 12.8469350900000006 13.7788569299999999
 14.7197266500000001 14.8271247699999993 14.7975348199999992
 13.8919103800000006 16.9115090799999983 16.7641408100000007
 12.1300540600000009 18.6851640400000001 18.8100449000000012
 12.6609560099999996 18.4738759200000011  1.5209650900000000
 10.6783281300000006 -0.4982460100000000  3.4611287499999999
  8.5030623999999992  1.3257622700000000  4.4992956800000004
  6.7227569799999998  3.5177246100000001  6.6404965699999998
  5.2490209600000002  4.7421597300000000  8.3968958400000009
  3.6293035599999999  6.4976331299999996  9.9372285599999994
  1.7046501000000001  8.7773614900000005 11.5722876499999998
  0.4149722000000000 10.5321083499999997 13.7848415200000005
 18.5848122499999988 11.6593944100000009 15.6426336700000004
 16.6519767200000004 13.5145830900000004 17.0768001299999987
 15.1675246599999998 15.1478207000000005 18.7506659800000008
 13.9622359300000003 16.8888599699999986 -0.1309186000000000
 13.6009198599999994 16.2642349899999985  3.8369514400000000
 12.2566648800000007 18.5328356399999983  5.4325530400000002
 10.3327383899999994  0.1763787300000000  6.6164599600000003
  8.4679439300000006  1.7079898800000000  8.4516476600000008
  6.9500999900000000  3.4246918900000001 10.3353270399999992
  5.0166923800000003  5.0591120900000002 11.6390989200000003
  3.1013536400000001  6.8602270499999998 13.4419113299999999
  1.9475002800000001  8.4216042699999996 15.5407088000000009
  0.4812515500000000 10.7146067899999995 17.0084395499999985
 18.7059096199999999 12.1698114700000009 18.2889875699999997
 16.4931201700000010 13.3223092600000008 -0.4908325200000000
 15.2919788000000008 14.9864192099999993  1.7830230600000001
  6.7324748500000000  6.6597619699999999 13.5850549600000008
  4.9256863800000001  8.3232786900000004 14.7712783299999995
  3.7509980600000001 10.3575339700000004 16.4921085699999992
  1.7335154600000000 12.4387677599999993 18.2221198400000013
 -0.1592936600000000 14.1284792299999999 -0.3246650200000000
 18.3728331400000009 14.8196760500000000  1.5411367700000000
 16.6607899199999991 16.9019265800000014  3.1409895200000002
 14.8309168499999995 18.2231491699999992  5.3063649499999999
 13.6988206899999998 -0.1284972700000000  7.2854807099999999
 12.0937403400000001  2.0838631799999998  8.6459489600000001
 10.0349898100000008  3.8435066299999998 10.3726687900000005
  8.3091653500000007  5.2247495099999997 11.6048772899999992
  8.2759915799999995  4.8305637199999998 14.5841722199999992
  6.9837705500000000  6.4559626999999997 16.7039608500000014
  4.7270473099999997  8.1458120600000008 18.2131106199999984
  3.0098939200000001 10.1806178799999998 -0.2700528900000000
  1.7848938500000000 12.3382462700000008  1.5465456600000000
  0.1756615000000000 13.6126970200000006  3.7084152200000000
 18.4526015200000018 15.1823155700000001  5.0531138599999998
 16.7297726299999994 16.7872908000000010  6.9784663000000000
 14.9468285800000000 18.5898400399999986  8.6050778599999997
 13.5399104900000005 -0.1055320300000000 10.5127204499999998
 11.8340668299999994  2.1108737999999998 11.4184597199999995
 10.6580066799999997  3.3822946699999998 13.0395582099999991
 10.1598171500000003  3.6854736799999999 16.5786313300000003
  8.2200888800000005  4.6147619400000002 18.6210714800000012
  6.4283215800000004  6.6186756000000004  0.3060169000000000
  4.9008956100000001  8.1018640099999999  1.5851995900000000
  3.2947801900000000  9.9858940500000006  3.2413766000000002
  1.5556408700000000 11.7560889500000005  4.9070085499999996
 -0.3656872100000000 13.6972131600000004  7.2067319200000002
 18.0895982000000011 14.9262060900000009  8.6819337200000000
 16.5212315899999993 16.5342736200000004 10.0312877799999995
 14.7186443899999997 18.1485543999999983 12.2617348100000001
 13.1051126100000008  0.7053085100000001 12.7959340099999999
 12.1736109300000006  2.2260820300000002 15.0350312000000006
 12.0338121800000000  1.6816662200000001 18.3441130600000015
  9.8143121699999991  3.1175312399999999 -0.0354055800000000
  8.3613699599999993  5.2041659600000001  2.0471227500000002
  7.0735906399999999  6.5684056899999996  3.4472331199999999
  4.9739823999999997  8.5996804900000008  4.8332718600000000
  3.6659055600000001 10.5485886000000004  6.6117532900000002
  1.8317684900000000 12.1435016299999994  8.2677008399999998
 -0.2600719600000000 13.2369748800000000 10.3280507299999993
 18.4769692399999990 15.0251918700000004 11.9685624300000004
 16.6519290700000013 16.9174925199999997 13.3741772399999999
 14.5699649699999991 18.4759808200000002 14.8168509499999992
 13.4395398499999992  0.2535242200000000 16.8873869499999998
 13.4260094500000005  0.7106534900000000 -0.0748653400000000
 11.8039556099999992  2.0747803199999999  1.3707060900000001
 10.4836857699999992  3.2556118000000001  3.5768239600000000
  8.7183408399999998  5.0600842999999998  5.6690401300000000
  6.0371861800000000  7.1402340400000002  6.8925129600000004
  4.8246698099999996  8.8013625199999996  8.4477900800000008
  3.5712522000000000 10.7197361400000002 10.1740868599999992
  1.7086349800000000 12.4056218600000001 11.6956594000000003
 -0.0847905100000000 13.5415345800000004 13.8020878299999996
 18.5386045400000015 15.4639182799999997 15.0269168799999999
 16.6988091400000016 16.7250795299999986 16.3538832200000002
 14.8802220399999996 18.9131804499999987 18.5131543200000017
 14.6977866099999996 18.5324894200000010  1.7807629000000000
 13.7454510499999998 -0.0209738200000000  3.5281183700000001
 12.4929247500000002  1.7497985300000001  5.0233561599999996
 10.2480111800000007  3.3729306700000001  6.6532015500000004
  7.7273355700000002  5.0775209900000000  8.2470505099999993
  6.2384709200000001  6.7976340300000002 10.0096539500000006
  4.8441234199999998  8.5945693399999996 11.7978326100000004
  3.3299732999999998 10.4969116899999992 13.4229875100000005
  1.8486929299999999 12.2593097199999992 15.2582787100000008
 -0.3364254700000000 14.0760045599999994 16.8896451799999987
 18.1430787299999992 15.3113506099999999 18.4051060500000006
 16.5312200999999988 16.8231791999999984 -0.1521932500000000
  8.0478138200000000  8.2711384399999996 12.0277566599999997
  6.2294096000000003 10.0866121799999995 13.3681946099999998
  5.4184960000000002 11.6310724899999993 15.3913417999999993
  3.9416993699999998 13.8369030700000000 17.0989408199999993
  1.7051538500000001 15.2793984399999996 18.3129065599999983
  0.2209307000000000 16.6830916699999996 -0.2299570800000000
 18.5977359200000016 18.0214526299999989  1.6874870399999999
 16.7888649600000015 19.9850214599999987  3.2277484799999998
 15.5213499200000005  1.8594618400000000  5.0569280299999999
 13.7449317600000001  3.5196154800000001  7.2090926099999999
 11.8389158299999995  5.1334828500000000  8.5445561500000000
  9.8431515800000007  6.8918352399999998  9.9094222399999996
 10.3130016599999994  7.1746622699999998 13.6257852499999998
  8.2442001099999995  8.4212268399999992 14.9182456400000003
  6.6803733599999999  9.7194412900000007 17.0483962600000005
  5.3402153900000000 11.4048304999999992 18.5575243800000003
  3.6762909300000000 13.9159925999999992  0.2609766700000000
  1.5324987299999999 14.9968821600000002  1.3264385299999999
  0.4969490900000000 16.4776495199999999  3.1287303799999999
 18.3293267200000010 18.3949140799999995  4.6787999899999999
 16.8601592499999988 19.7454909000000001  6.7719895200000000
 15.4061060500000000  1.1973331100000000  8.2649506200000005
 14.0826887500000009  3.7542154800000000 10.3587229000000001
 12.0925332399999999  5.8179757399999996 11.6793629699999997
 12.3824539700000003  4.9178963900000001 14.9766510900000007
 10.0546965000000004  6.4052744800000001 16.5732240299999987
  8.3342071200000003  7.9589647599999997 18.4925166200000000
  6.5833722300000002  9.6669624200000008 -0.2233994700000000
  5.0814890799999999 11.2929221399999999  1.7094610500000000
  3.8592601599999998 13.7774977700000001  3.0636919499999999
  1.9786029199999999 15.1427069400000001  5.1601452500000002
 -0.6722839000000000 16.6393224999999987  6.9115691600000000
 18.2987307399999999 18.7394418000000016  8.7207159200000000
 16.2946654899999999 -0.0337765800000000 10.7113081200000000
 15.5788486000000006  1.8459993600000000 11.9855995600000007
 13.9949960299999994  3.8963140599999999 13.1908183200000000
 13.9060516500000002  3.7586971000000000 16.6340460000000014
 11.9806285300000006  4.5718543499999997 18.7132796900000002
  9.9160467299999997  6.6000742099999998 -0.1480638000000000
  8.0723203500000000  8.6700961900000006  1.7681761000000000
  6.7406215899999999  9.9413498499999999  3.5092538499999999
  5.2094718699999998 11.5053420000000006  4.8052183800000003
  3.4777346400000000 13.7734816700000007  6.4238466499999998
  1.6184448000000000 15.1542739599999994  8.5306965800000008
 -0.2842501700000000 16.6394917699999993 10.2498590400000005
 18.3990215299999988 18.4156470900000002 11.8771863900000003
 16.9068785000000013 20.1971349199999999 13.4055904399999992
 15.2427416699999991  1.8317886900000000 14.9322617700000002
 15.3670232000000002  1.9081754099999999 18.9128289500000015
 13.8842990700000009  3.4803755199999999  0.1226747600000000
 11.8675794200000002  5.0288997200000001  1.6462770600000001
  9.6923848199999991  6.8908724699999997  3.1878602200000001
  8.2781999899999992  8.3138277600000006  5.4038329300000001
  6.2984339199999999 10.1906894999999995  6.6890091700000003
  5.3445656399999999 12.3453403200000000  8.3856882699999993
  3.3218722999999999 13.7033226900000003  9.7658693400000001
  1.4448149800000001 15.2318945100000001 12.0977152300000004
  0.1546497700000000 16.8017114700000008 13.4254086400000006
 18.2404025899999986 18.3806748900000017 15.4214628600000001
 16.1821600299999986 19.9295475999999994 16.9139938100000009
 16.6757755799999998 -0.1613890300000000  0.2716521500000000
 15.1739093900000004  1.6600943399999999  1.6853998900000000
 13.6138824199999995  3.6786744300000001  2.8740207500000001
 11.9430946000000002  5.5069914100000004  5.1541479499999996
  9.7877040100000006  6.8491080699999998  6.8872479100000001
  7.9921456299999996  8.7943658800000009  8.1859534600000003
  6.6542212300000001  9.8414506500000005 10.1514875999999994
  4.7734684700000001 11.9937880900000007 11.8750901500000001
  3.3373875599999998 13.6262747700000002 13.8553908099999994
  2.1078341200000001 15.1930856900000002 15.4079645000000003
  0.1214453700000000 16.8698285000000006 17.0656890899999993
 17.9988263699999997 18.1852434000000009 18.8572120699999992
