Li                                      
   1.00000000000000     
    22.0829999999999984   -0.0000000000000006    0.0000000000000000
    -0.0000000000000006   22.0829999999999984    0.0000000000000000
     0.0000000000000006    0.0000000000000006   22.0829999999999984
   Li
   500
Direct
  0.9933269030475955  0.9908159457501213  0.9979054163836452
  0.9894762373771684  0.1053786238282868  0.0987953525336209
  0.0012737612643221  0.2043130761219061  0.2018861363945135
  0.9878580455554058  0.2948032051804574  0.3057784544672373
  0.9895125254720796  0.4098225073586050  0.4062646361454512
  0.9934317923289413  0.4993159579767266  0.4998327274373935
  0.9993606742743282  0.5785056070280277  0.6163708889190787
  0.9959848018838002  0.6911430168002539  0.7202659683919777
  0.9811097056559319  0.8075699216591943  0.7789940719105175
  0.0036323325635124  0.8932956704252106  0.8901219816148185
  0.0894881755196337  0.9868609785808076  0.1008197862609279
  0.1024392818004785  0.0807318960286167  0.1983818480278927
  0.0875106439342446  0.1943420825974727  0.3041790019471975
  0.0911438577186061  0.3130459267309718  0.3998571054657418
  0.0989030480460116  0.4011079097043009  0.5054592002898133
  0.1091569732373330  0.4980389390028535  0.6129821324095488
  0.1135926495494246  0.6014353108726169  0.6960642607435616
  0.1129233215595704  0.7168627546076181  0.7863039138703982
  0.1019516148168265  0.7953371480324236  0.8942245206720116
  0.0996648892813496  0.8955951972105254  0.9799556043110087
  0.1884039822487864  0.9864182964271180  0.1941440384005801
  0.1977731268396496  0.1036549037721315  0.3030547049766810
  0.1998220730878941  0.2154918095367506  0.4001346452021934
  0.1938208934474517  0.3134993288955314  0.5028909206176664
  0.1935176361907338  0.4114264447765237  0.6016615242494225
  0.2177400086039043  0.5009534986188484  0.6985242516868198
  0.2001560444685992  0.6143587089616460  0.8077859887696448
  0.2066362459810733  0.7117497205995562  0.9103053991758401
  0.2111408481637440  0.8079689865507405  0.0164319091608931
  0.2016462328487947  0.8955370950504928  0.1049256926142306
  0.3014030122718836  0.9963620019924804  0.2878576244169722
  0.3019905977448687  0.1152107349544877  0.3940581909160912
  0.2868396884481257  0.1953293202916271  0.4993818253860454
  0.3063396214282506  0.3002736625458482  0.5869465588914551
  0.3017207240864010  0.3980571933161272  0.6869722447131252
  0.3211892944799146  0.5006999932074478  0.7991220558800904
  0.3204210591857972  0.5898355929900845  0.9007202830231407
  0.2951918453108746  0.7014539890413474  0.0214971720327881
  0.3103072272789049  0.8079192967441031  0.1093129321197281
  0.2891572435810374  0.8938090331929516  0.2085514839469269
  0.3822432794457242  0.0079724557351781  0.3945082828420041
  0.4025936965086245  0.1172299162251491  0.5024608006158573
  0.3905081066884009  0.2090834755241602  0.6030546257302021
  0.3999361196395412  0.2991819612371529  0.7028770302948004
  0.3930923778472106  0.4068938957569159  0.8003298175066789
  0.4132676606439318  0.5081774989811194  0.9119908350314745
  0.4105154023456947  0.6005401634741645  0.0163408929946129
  0.4025510021283338  0.7000927976271356  0.1047672512792630
  0.4155318865190409  0.7824086319793508  0.2098492654983488
  0.4107859797128981  0.8909638803604594  0.2864122922610122
  0.4922179047230912  0.9969547018068212  0.4986196236924343
  0.5057958791830828  0.0974191740252692  0.6042679106099698
  0.4925361087714535  0.2003040954580442  0.7097003957795565
  0.5008388484354498  0.2870866231943126  0.8055386623194281
  0.4896097500339636  0.3989007965403246  0.9052512679436688
  0.5226624566408518  0.5073715921749766  0.9971044368971604
  0.5044143336503168  0.6120091513834183  0.1064888502467980
  0.5035849916225175  0.6968643793868594  0.2081844862563997
  0.5097770941448161  0.7878649110175218  0.2980513870398056
  0.4954497396187136  0.8979364157949590  0.3875241996105601
  0.5925844233120472  0.0056114228139279  0.5888834121269753
  0.6023050255852951  0.0948562767739887  0.7104377516641733
  0.5911953258162370  0.1899398523751330  0.8134742670832793
  0.6092137209618258  0.3162792609699778  0.9070850414345912
  0.5922968428202680  0.4037549232441222  0.0004554222705266
  0.5980169732373355  0.4999611370737682  0.1098851800027205
  0.6178433038989297  0.6045294674636565  0.2068597070144449
  0.6138690748539588  0.6999573662998699  0.2878235411855243
  0.6030094502558541  0.7959197015804023  0.4059951999275455
  0.5883200556989507  0.9164027994384796  0.4814152556265014
  0.6925371027487230  0.9963967110446958  0.7013530715935303
  0.6954535036000564  0.0928392922157286  0.8026867730833658
  0.7001223334691815  0.1930123275823021  0.8991571738441309
  0.6987038559072616  0.2973857727663827  0.9867814341348549
  0.6975078603450626  0.3923092093465570  0.0937750029434383
  0.7186525965674946  0.5061896101073202  0.1893854027985356
  0.7070911701308731  0.5959970511253019  0.3017589009645434
  0.6912687057917850  0.7116753199293555  0.3980044939546232
  0.7145354489879097  0.8173108305031036  0.5007940307023517
  0.6954501870216916  0.9053333691074599  0.5906188647375785
  0.7830924407915560  0.9971580066114214  0.7882277321921833
  0.7932100851333601  0.1146914472671270  0.8938860444685943
  0.8111258674093165  0.2088566725535514  0.0180676515871951
  0.7917222746003745  0.3024428922700722  0.0841065507403869
  0.8068826006430285  0.3897883245030087  0.1908171589005150
  0.8180697482226122  0.4984828949870916  0.3021702037766616
  0.8141971525607943  0.5996659665806305  0.4015036553004592
  0.7974307652945711  0.7029826635873775  0.4993823361862084
  0.8028695086718258  0.7932548526015495  0.5858726699270917
  0.7852115595707119  0.8962557311053772  0.6893602662681673
  0.8951016673459193  0.9934584286555292  0.8968133455599343
  0.8969705714803240  0.0917596975048696  0.9940997953176662
  0.9094711053751752  0.1976859045419559  0.1096652311733024
  0.8843970235022454  0.2824539614182839  0.2061569225195825
  0.8960594819544454  0.3996420780690997  0.3146788534166589
  0.9058273255445357  0.5096076597382577  0.4206473599601495
  0.8928710329212493  0.5998164493048961  0.5095935846578783
  0.8924576832857838  0.6910477253996277  0.6014178395145606
  0.8887539478331732  0.8212503242313076  0.6888700534347691
  0.8844303772132420  0.9169976303038538  0.7714829298555443
  0.0998270502196235  0.0920068034234447  0.9846993768962520
  0.0794945179549913  0.1889694063306635  0.0932278906851423
  0.0950648924512052  0.3003039460218275  0.2020923130915193
  0.0963463320201043  0.3946618176878118  0.2960171896934298
  0.0960609953357761  0.5071365711180533  0.4134154100439247
  0.0970275714350421  0.5871556138205847  0.5230538015668174
  0.0819395820314242  0.6962349218856119  0.6176296825612440
  0.0894437820948255  0.8045184499388682  0.7008869591993871
  0.1106454498935818  0.9031679223837372  0.7954957025766447
  0.0955100747181064  0.9899664936829211  0.8797008843907079
  0.1944086917538357  0.0862375121133923  0.0971757043879933
  0.1965735873749068  0.2012973893945542  0.1936214445501037
  0.1898901997011251  0.3093588031517456  0.3064778757415212
  0.1963787039804359  0.4053027731739363  0.3987945021056944
  0.1992759262781334  0.5200692007426539  0.5110276266811553
  0.1995903826472869  0.6065904908753339  0.6031318113480992
  0.1932121577684214  0.7109762423583774  0.6977170692387844
  0.2124851025675838  0.8017645410496783  0.7989916483267692
  0.2053464411538286  0.8987295027849456  0.9047002209844663
  0.1858748408277862  0.9945434288819470  0.9860987157542027
  0.2920793003668010  0.0990906932934834  0.2050983050310222
  0.2880323950550192  0.2192924077344571  0.2990172472037287
  0.2841377439659496  0.2985014241724429  0.4114386614137544
  0.2985940605895934  0.4151703341937250  0.4967315536838299
  0.2952415324004889  0.4982000851333623  0.6071198523751278
  0.3110568373862250  0.5995166784404304  0.6887476742290417
  0.3181331531041991  0.6991195761445468  0.8013405293664846
  0.2986115976090176  0.8055093841416507  0.9071231001222628
  0.2956622628266103  0.9119945505592568  0.0073634397500371
  0.2974487556038596  0.0025863859077120  0.1064068478014732
  0.3877731118960313  0.1058371629760444  0.2888655640085105
  0.4086305338948506  0.1923618706697425  0.3918918530090991
  0.3818774536974132  0.2933574659240108  0.4924998641488898
  0.4023194339537213  0.3774251564551889  0.5925808567676469
  0.4046720146719167  0.4884678377032117  0.6785378318163282
  0.4126582706154025  0.5933627627586802  0.8051909604673284
  0.4135277412489273  0.6942294910111855  0.9093075175474326
  0.4087333845039183  0.7976406747271625  0.9998927373998114
  0.3935924611692272  0.9186306511796403  0.1062926024543742
  0.4068595195399212  0.0056530484988428  0.1982376271339916
  0.4795175247928256  0.0995009301272489  0.3975963406240126
  0.5023067862156410  0.2134639532672225  0.5165557913326992
  0.4985332885024647  0.2974112294525213  0.6113885468459870
  0.4904757990309321  0.3813885205814458  0.7054863859077116
  0.5009119924829051  0.4835387012634129  0.7984620042566704
  0.5100810750350959  0.5930577145315397  0.9014330353665727
  0.5110269130100065  0.6969801897387100  0.0061775379250975
  0.4953457369922560  0.7972479042702503  0.1108836525834320
  0.5053025811710370  0.9104604378934056  0.2030494978037396
  0.4936212530000432  0.0032795136530339  0.3006828189104738
  0.5954731232169550  0.1124972775438096  0.4949964108137479
  0.6063067921025223  0.2079046624100016  0.6206118285559015
  0.5976103994022566  0.2804609600144943  0.7135095775030535
  0.5878153335144702  0.3849037517547416  0.8042095688991537
  0.6124578390617188  0.4888593950097331  0.8964871231263842
  0.5945625866050790  0.5966524303763094  0.0120441869311207
  0.6160827278902303  0.7059968713490008  0.1021140311551889
  0.6197875641896502  0.8101977543811998  0.1957909092967469
  0.6065489901734367  0.9043079006475594  0.3111514816827423
  0.5909204818185927  0.0042659932980129  0.4066914916451552
  0.6912487596793895  0.1061036023185267  0.5879364701353964
  0.6955694289725116  0.2154255526875843  0.7012137463206969
  0.6987892233845017  0.2976440112303607  0.8025879699316221
  0.7080682905402327  0.4099999452067209  0.8908185350722277
  0.7090336254132126  0.5122130910655258  0.0006713413032671
  0.7140158828057750  0.5927671987501668  0.1123882570302968
  0.7125755997826388  0.7105475687180203  0.1911467427432854
  0.6954762369243284  0.8069081411040173  0.3016010311099038
  0.6986174487162060  0.9062247887515298  0.4007734497124460
  0.6939612987365820  0.0142159498256547  0.4934312520943678
  0.7919695919938405  0.1151464171534684  0.7017113675678104
  0.8059932020105975  0.2113328057781985  0.7929252959289954
  0.8043655241588539  0.2958210288457153  0.8917983063895321
  0.7915436620930123  0.3916630294796875  0.9986147751664163
  0.7973264742109336  0.4840304311008481  0.0837751347190121
  0.8031716963274889  0.5996508350314755  0.1985296241452730
  0.7954963098310941  0.7077640660236355  0.3210014382103878
  0.7928156704252132  0.8118783063895307  0.4142855336684335
  0.7994584685051862  0.9003227532491067  0.5065875429063098
  0.7964548521487131  0.0216160286192988  0.6022653185708435
  0.9097560136756755  0.1033642639134200  0.7996182900873947
  0.9114840438346263  0.2092769270479522  0.8920644998415099
  0.9076408685414137  0.2896728506090653  0.0010016392700294
  0.8962946941085903  0.3870201317755715  0.0841002377394346
  0.9122878304578208  0.5043854222705235  0.1883919331612560
  0.9008733274464547  0.5923915582121992  0.3039693954625733
  0.9051530177059277  0.6941716351944933  0.4165281524249451
  0.9009376873613206  0.8136657057465015  0.5084053298917723
  0.8775629733278976  0.9109467608567670  0.6063714830412508
  0.8910394479916661  0.0092882398224887  0.6938735185436755
  0.0108991124394322  0.0871245369741445  0.8914674383009569
  0.9907648349409044  0.1940723638092621  0.9896088950776587
  0.0035442779513630  0.2964928886473785  0.0930658252954757
  0.9847618552732840  0.3843945061812235  0.1999062233392195
  0.9950523017705919  0.4997297052030945  0.3157028814019824
  0.0031521627496289  0.5956737331884270  0.4257334229950658
  0.9957841054204621  0.6983600507177457  0.5301204360820577
  0.9825762210750355  0.8107373269030447  0.6088722904496677
  0.0036964189648145  0.9322629977811019  0.6958725322646373
  0.0081534003532155  0.9969390286645847  0.7881582203504962
  0.2104887085088052  0.1912757564642504  0.9969276773989009
  0.1978079853280832  0.2992025286419420  0.0961123511298254
  0.2003144604446874  0.4047731517456867  0.1795628583072926
  0.1886108074084163  0.4869910582801253  0.3139673653941912
  0.1950330838201353  0.5908844387085068  0.4126784286555250
  0.2009830331023892  0.6817549187157539  0.5017579871394275
  0.2088970099171306  0.7891595335778661  0.5962461572250177
  0.2064075474346794  0.8973901018883339  0.7123966684780143
  0.2122631173300746  0.0105620771634278  0.7959162269619142
  0.2182436471493929  0.0899305859711106  0.8825395507856726
  0.2970835778653296  0.2038271502966111  0.0924069465199508
  0.3011358388805903  0.3061543418013883  0.1898912674908289
  0.2919545387854896  0.4063428039668509  0.3054582918987450
  0.3225622718833492  0.5022451700403039  0.4061908889190775
  0.3114193909342049  0.5904006398587143  0.5118762858307306
  0.3190179749128319  0.6970739211157877  0.6043314101344919
  0.3160091296472416  0.8105912149617325  0.6953657329167200
  0.3088124620748971  0.8983509437123587  0.8133393918398752
  0.2978658615224390  0.9794862849250521  0.9015374441878379
  0.2956047076936983  0.0950650273966431  0.9995904899696626
  0.3907331798215807  0.2084712597926028  0.2058832459357873
  0.3901762147353196  0.3058868541411925  0.3029514925508323
  0.3937273595073165  0.4020228533260877  0.4114397346375043
  0.3994394606711040  0.4981720074265255  0.5076942118371619
  0.4198521627496277  0.6008144468595731  0.5907032590680643
  0.4047964701354019  0.7137014667391242  0.7129470094642940
  0.4165641882896338  0.8125853661187321  0.8239476823801084
  0.4065512824344495  0.8940761708101235  0.8957694534257143
  0.3959905981977059  0.0029299950187962  0.9931156011411488
  0.3905761694516130  0.1076182606529912  0.1026958008422767
  0.4959374306027229  0.1915941008920896  0.3081880659330736
  0.4908347638454913  0.3018608785038239  0.3891349540370399
  0.5162379586106951  0.3899260639405853  0.4965485405062751
  0.5081842113843251  0.4822520758049151  0.6006114504369862
  0.5003623085631475  0.5972060399402253  0.6946754317801052
  0.4883693266313429  0.6963240479101600  0.7928235669972352
  0.5019066770819194  0.8235190440610438  0.9051621577684159
  0.5052215183625393  0.9130334995245235  0.0227283670696892
  0.4985828524204123  0.0141766444776508  0.1064897726758147
  0.4894026500022619  0.0981408911832631  0.2069886867726325
  0.5858213141330424  0.1909646855046887  0.3975250011320952
  0.6093574120364096  0.2903920083321978  0.4935989485124281
  0.6022011565457603  0.3892897133541666  0.6199204351763825
  0.5995201372096162  0.4802227310600884  0.7004809654485342
  0.5918469524068257  0.6070249676221522  0.7948962034143889
  0.5905269098401504  0.7030126223792053  0.8951977779287219
  0.6003039188516084  0.7870261608477094  0.0089811094507084
  0.6046870945976579  0.8883516197980370  0.0949659167685581
  0.6188045143322896  0.9973076298510151  0.1914092039125137
  0.6002841303264930  0.0881000606801621  0.2932619182176310
  0.7028096196169002  0.2004965475705305  0.4935086356020477
  0.7058047208259737  0.3105338921342238  0.6089078408730728
  0.6898399008286944  0.4029271154281560  0.7181098786396802
  0.6912224426029070  0.4937092410451456  0.7805445347099607
  0.6928204691391571  0.6008921582212565  0.8970649105646871
  0.7011595394647472  0.6922100525290915  0.9979328216274936
  0.7190660625820797  0.7920637925100777  0.0917473259973747
  0.7073731304623436  0.8898125336231502  0.1921288760585043
  0.7090448788660950  0.9969811723950528  0.3116490232305367
  0.7014578209482423  0.1191049395462542  0.4083843037630785
  0.8011027953629508  0.1956760476384574  0.6059490390798388
  0.8144101136620918  0.3123799778109841  0.7110276878141590
  0.7954296875424518  0.3905548439976485  0.8070636199791679
  0.8017684100892097  0.5056668129330291  0.8916451605307287
  0.7939965964769300  0.5998167445546372  0.9890707263505831
  0.7955737426980036  0.6898694824072820  0.0873194117647031
  0.8130664832676686  0.7913680455554015  0.2045105261966214
  0.8081668763302119  0.8967360412987375  0.2984495041434556
  0.7968238731150663  0.0007709070325603  0.4048105452157742
  0.8257005289136430  0.0985654073269018  0.4983514644749363
  0.9153528823076584  0.1912345482950712  0.7033944387085072
  0.9242406969161792  0.2931555164606294  0.7846177299280015
  0.9075481972558066  0.3770933292578036  0.9031648639224770
  0.8875626817008566  0.4969075465290018  0.9855558511071862
  0.9096895521441866  0.6002419082552208  0.0836243680659337
  0.8980560598650555  0.6844302929855530  0.2036836485079050
  0.9056498899605998  0.7862854476293961  0.2968388325861540
  0.8977750364533819  0.9121821953538927  0.4022050106416728
  0.8983761114884743  0.9839070398043717  0.4985479961961659
  0.9108584168817657  0.1098342888194566  0.5915531005751049
  0.0122451605307248  0.1931628392881422  0.8087035448082247
  0.0097240211927740  0.3026907761626561  0.8905950595480689
  0.0119717425168702  0.4060400511705851  0.0064048938097159
  0.0005898279219281  0.5038700425666818  0.0785359457501258
  0.0030039645881459  0.6028720391251170  0.1916945279174058
  0.9937501716252299  0.6820071267490846  0.3079037811891467
  0.9941366123262227  0.7974048480731781  0.4146589793053508
  0.0122365398722977  0.8900853194765190  0.5080117819136873
  0.9960571104469480  0.9967381691799133  0.5978525467554263
  0.0204884105420433  0.1080971013902072  0.6784398881492564
  0.1235009351084528  0.1950107639360610  0.9067968745188608
  0.1105991192319919  0.2857106982746913  0.0075107000860370
  0.0954493207444642  0.4025039116062104  0.0961441520626707
  0.0952024077344547  0.4972450482271427  0.2077425060000877
  0.1008038835303182  0.6101958542770447  0.3044627170221403
  0.0857795159172241  0.6982289439840628  0.4141104646107863
  0.0768172983743156  0.7987061667345898  0.5094934297876179
  0.1153222469773141  0.8942043046687473  0.6090364819091576
  0.0997337463207018  0.0130570348231700  0.7043070542951568
  0.1126291608929932  0.1140514699089792  0.7865452746456540
  0.2998254738939465  0.3045835466195683  0.0131832042747817
  0.3057842100258128  0.4024689879092520  0.0954030272155038
  0.3212328035140146  0.4953265172304455  0.2018045365213084
  0.3119917565548178  0.5982388217180628  0.3055500842276899
  0.3050315686274487  0.6905331426889489  0.4078248322238807
  0.2961650763030406  0.7940421939953808  0.4977329063080234
  0.2981561440927436  0.8923280926504589  0.5994624987546970
  0.3131248947153935  0.9959081791423259  0.7026859688448113
  0.3028762260562416  0.1059162373771656  0.7971611103563845
  0.3028868695376516  0.2105659561653752  0.8977914033419410
  0.4125449694334975  0.2941536901689048  0.1003466123262271
  0.4134038921342196  0.3920131988407363  0.1939321324095431
  0.4111543698772806  0.4918881506135975  0.3017272082597486
  0.4066541860254489  0.6024838282841998  0.4021803536657131
  0.4110865231173335  0.6986382905402380  0.4935291187791506
  0.3967858556355566  0.7954608314087750  0.5963202766834215
  0.4038868219897651  0.8934099483765792  0.7004496037676020
  0.4010115627405710  0.9964735466195691  0.7964560589593788
  0.3927249590182527  0.0963322166372294  0.8943536077525707
  0.3905849304895170  0.2000294258026543  0.0015708327672854
  0.5116504732146936  0.2850984435991464  0.1967057157089158
  0.4991708309559399  0.3882742417244032  0.2935368785943950
  0.5053908074084106  0.4970548675451738  0.4008709378254736
  0.5119835719784476  0.5942503590997603  0.5012231005751033
  0.5064141212697564  0.6928975533215578  0.6077985993750872
  0.4905908508807713  0.8071884014853055  0.7083541647421114
  0.5066246510890764  0.9060944690485897  0.7983757288411937
  0.4993062038672278  0.0066402304940425  0.9120600135851120
  0.4951342299506436  0.0970685214871168  0.9968694294253524
  0.5036092849703380  0.1971483987682845  0.0942920912013747
  0.6001623253181165  0.2977277163428909  0.3028798795453511
  0.6018918665942152  0.3980159982792202  0.4098449418104408
  0.6057953529864619  0.4944925621518834  0.4949095213512678
  0.6089074269800321  0.6017063098310942  0.5952930788389281
  0.5962389829280426  0.7022371213150365  0.6985408961644737
  0.5915354236290327  0.8159540035321271  0.8051854553276243
  0.6108185862428144  0.8981126685685794  0.9080390476837366
  0.6045369039532673  0.0117760960920137  0.0098469365575298
  0.6024729846488270  0.1017621817687839  0.0967270099171316
  0.5972530974052432  0.1985730014037941  0.1982839795317659
  0.7052292374224507  0.2921399388670025  0.3969259072589750
  0.7017910261286957  0.3969493352352487  0.4951005796313908
  0.6823050713218350  0.5006332300864926  0.5891023139971949
  0.6804760888466248  0.6110201680025327  0.6990778834397489
  0.6859212344337280  0.7047962224335436  0.8080412711135239
  0.6952246986369630  0.7990881397455070  0.8964789956074810
  0.6797963406240086  0.8781786079789882  0.0096165099850580
  0.7088644953131364  0.9805350210569230  0.0950452669474231
  0.6993821432776315  0.0955408191821761  0.2020768428202686
  0.6935194543313870  0.2022735357514804  0.3006949821129368
  0.8024703228728001  0.2914554639315341  0.5167394851243046
  0.8048769428972520  0.4093991762894547  0.6037690024000355
  0.7947961554136640  0.5021905737445067  0.7030032513698288
  0.7922262908119393  0.5964660870352745  0.8114130747633936
  0.7941037712267374  0.7054696205225710  0.8951887800570546
  0.7993732558982032  0.7837107154824992  0.9804385631481196
  0.8109892424036573  0.9012302812117952  0.0890203686093400
  0.8134477539283580  0.0042825336231473  0.2032237522075775
  0.7932053063442481  0.0928230294796890  0.2983231866141409
  0.8055928990626242  0.1852911515645488  0.3954670565593474
  0.8974850717746676  0.2948374550559265  0.6063856514060575
  0.9004109749581133  0.3888165312683967  0.6874333745415058
  0.9045592750079265  0.4893154997056541  0.7959368065933106
  0.8941043789340242  0.5992349757732214  0.8850831245754662
  0.8885138762849252  0.7027818806321591  0.9856246384096394
  0.8944877136258640  0.7823122936195261  0.0931911425078127
  0.9098670280306109  0.8915887026219238  0.2066760417515709
  0.9149841421002591  0.0044435334872972  0.2981403101933608
  0.9041804184214115  0.0654713403975933  0.3913913204727635
  0.9129782212561679  0.1932284359009202  0.4930616428927266
  0.0206406289906269  0.3105237408866515  0.7062438463976832
  0.0116232364262103  0.3977314644749370  0.8048362790381773
  0.9944981737082799  0.4980544201421893  0.8965434483539383
  0.0082571688629258  0.6053927450980368  0.9867587383960483
  0.9971507317846289  0.6883333170312014  0.0866814160213707
  0.9836725780011761  0.7817953584205029  0.1934052384186913
  0.0029275035094898  0.8905475483403507  0.3069422650907967
  0.0042220201059635  0.9936230059321645  0.4128907231807304
  0.9968942557623492  0.0981235832993690  0.5005301218131564
  0.0115705402345725  0.2104690005886880  0.6022397993931961
  0.1132559969207065  0.3016273975456230  0.7992845120681054
  0.1015053896662579  0.4010304143458754  0.9002853063442444
  0.1055623642620986  0.5208860983562005  0.9991707752569852
  0.0843841946293509  0.5987811339039055  0.0970644382556713
  0.0872181270660661  0.7059594140288894  0.1835218086310704
  0.0894425431327264  0.7968622465244763  0.2900292922157348
  0.0909772272789056  0.8835821749762260  0.4093681116696075
  0.1223674627541556  0.9864581945387840  0.5063531902368368
  0.1110166322510509  0.0931987610379039  0.5917188434542382
  0.1068175583027653  0.2033928338540960  0.7022903142688932
  0.2077373726395848  0.3151004102703467  0.9077493221029727
  0.1994943168953469  0.4045361898292796  0.9998582067653885
  0.2080159878639662  0.5092535429968734  0.1146550305664960
  0.2021630226871380  0.5989333215595707  0.2045034479011036
  0.1925397835439000  0.7027761594891970  0.3043019675768690
  0.1959870515781361  0.7897336593759903  0.4038858751075480
  0.2112471711271127  0.8922209151836284  0.5061343123669815
  0.2119841248924530  0.0011956473305261  0.6014937712267354
  0.2084638477561924  0.1082313920210112  0.7085587972648639
  0.2055603600054354  0.2065161748856568  0.7862038776434375
  0.3897137721324100  0.4017968776887173  0.0038195607480844
  0.4157795833899414  0.5208978607979020  0.1027020336910738
  0.3918831182357465  0.6198949286781712  0.1978105370647114
  0.3813349291310075  0.6995672476565673  0.3176389150024903
  0.3962260394873880  0.8096112502830266  0.3989262174523418
  0.3927560775256964  0.9065374654711746  0.5004997762985113
  0.3966993121405622  0.9822509740524410  0.5933665896843721
  0.4033339446633164  0.0926857229543074  0.6913605162342051
  0.3998985205814449  0.2045054055155546  0.8035224131685013
  0.3825143119141430  0.3105084354480852  0.8894246547117675
  0.4980031639722853  0.4074562663587358  0.0971376647194688
  0.4986659892224807  0.5042295593895787  0.1985821681836697
  0.4955892274600373  0.6046611923198810  0.2892744042928967
  0.4965217416111969  0.6956047593171206  0.3877888543223307
  0.5017551243037630  0.7983336086582469  0.5061118815378336
  0.5022086976407181  0.9013351596250487  0.5889021138432255
  0.4979613231897844  0.0016856373681122  0.6912856106507235
  0.4965746687497159  0.1074192256486910  0.7931742602907192
  0.4794268355748770  0.1971034601276997  0.9026480537064714
  0.4920716374586789  0.3016714585880536  0.9946680464610793
  0.6040212376035896  0.4006135642802136  0.1905678657791086
  0.5929737268487045  0.4977174229044934  0.2769030607254450
  0.5932893682923535  0.6091513458316342  0.3989813000950946
  0.5969695041434591  0.7054301281528765  0.4916789236063934
  0.6040819481048771  0.8081221373907539  0.5847499578861601
  0.5932828424580023  0.9036227518905946  0.6982462074899232
  0.5929248494316894  0.0058060308834840  0.7968673590544739
  0.5930463197935083  0.1067694837657953  0.9036201788706251
  0.5860174441878385  0.2012030018566335  0.0076999379613270
  0.5940833455599304  0.3029556935199054  0.1013735837522063
  0.6967800294344073  0.3850335683557518  0.3042605370647138
  0.7087212892270074  0.4932174663768478  0.3939906996331999
  0.6782411474890182  0.6075911089978732  0.4955298342616459
  0.6848306529909891  0.7100003337408864  0.5920131997464111
  0.6916786220169371  0.7982517203278547  0.6893310696010531
  0.6822256147262635  0.9030042100258129  0.7915036847348631
  0.6818765819861454  0.0012545623330169  0.9012288593035365
  0.6937656912557202  0.1118482239731904  0.0131261246207472
  0.6971261744328245  0.1973472467508941  0.1016761880179331
  0.7017092691210465  0.3073519426708344  0.1967507612190360
  0.7961832255581243  0.3993823352805350  0.4144189557578244
  0.7845406706516300  0.5104380980844994  0.5061346433908440
  0.7747801281528766  0.6107809065797198  0.6038471149753235
  0.7979499827921899  0.7112592985554471  0.7108263958701286
  0.7881292066295345  0.8024938359824318  0.8026903604582714
  0.7827633233709221  0.9065823719603330  0.8818500375854725
  0.7824041783272193  0.9957532803514013  0.9975295272381501
  0.8026039002852841  0.0964481397455046  0.1046899990943260
  0.7952928478920427  0.1957784834488052  0.2015672449395467
  0.8118167133088789  0.2980755064982148  0.3085704125345288
  0.9143019716523995  0.4070626726441162  0.5155405021962594
  0.8885334583163527  0.5046950744916927  0.6035085264683246
  0.8925498279219326  0.5929663931531053  0.7170819820676542
  0.8868090155323074  0.6886860286193013  0.7918822170900697
  0.8872598125254711  0.8126546461078661  0.8801906647647542
  0.8854020866730039  0.8977166512702084  0.9855906833310684
  0.8986733586922071  0.0011631128017058  0.0883975660009995
  0.9050136965086253  0.1081014939093450  0.2044056287642064
  0.8981767110446981  0.1907318367069664  0.3124643454240825
  0.9014133310691506  0.2907675451704961  0.4090829937055673
  0.9980984879771739  0.4081772277317413  0.5909214178327247
  0.9865831743875404  0.4888770167096865  0.6978175601141174
  0.0152545066340650  0.5947604175157366  0.7895967916496858
  0.9932124937734912  0.6974748987909223  0.8778987116786681
  0.9859772073540753  0.8030000960014476  0.9962098079971042
  0.9812532078974812  0.9010504383462390  0.0917745487479067
  0.9876791137979453  0.0027245537291094  0.2031347991667829
  0.0173253181180115  0.0878735194493530  0.2958332296336579
  0.0091427097767536  0.1935765086265420  0.4001742987818702
  0.0015600212833391  0.2973582194448241  0.5074028537789275
  0.0956824294706351  0.4109071711271142  0.7101535049585621
  0.1145294719920287  0.5127581338586253  0.8042643336503161
  0.1053041946293547  0.6049471847122234  0.8967206276321136
  0.0938754471765577  0.7030151840782537  0.9964209083910731
  0.0759481406511782  0.8002949046778056  0.0835268663677908
  0.0855542539510026  0.8951502721550497  0.1982867354978950
  0.0941249644522912  0.9835977869854631  0.2907877032106114
  0.1027991599873204  0.0864644781053272  0.3969510863560188
  0.0983677589095677  0.2096303260426566  0.5067000720010881
  0.1140206788026958  0.3030897862609265  0.6025078245709352
  0.2047209944301045  0.4158521170130882  0.7883369243309346
  0.2062076937010389  0.5035328623828264  0.9004556133677468
  0.2195207462754141  0.6013360811483963  0.0105134488067762
  0.1970265448535073  0.7118604365348915  0.0959738300955522
  0.1880696490513074  0.8096460150341898  0.1920678214010749
  0.1851406914821325  0.8987498143368171  0.3051613150387169
  0.2069831159715605  0.9914188307748049  0.3930028691753833