Li 
 1.0000000000000000
    22.0829999999999984   -0.0000000000000006    0.0000000000000000
    -0.0000000000000006   22.0829999999999984    0.0000000000000000
     0.0000000000000006    0.0000000000000006   22.0829999999999984
 Li 
 500
Cartesian
 -0.1473620000000000 -0.2028114700000000 -0.0462546900000000
 -0.2323962500000000  2.3270761499999999  2.1816977700000000
  0.0281284700000000  4.5118456599999996  4.4582515500000000
 -0.2681307800000000  6.5101391800000004  6.7525056100000000
 -0.2315949000000000  9.0501104300000002  8.9715419599999997
 -0.1450457300000000 11.0263942999999998 11.0378061200000008
 -0.0141182300000000 12.7751393199999992 13.6113183400000004
 -0.0886676200000000 15.2625112400000003 15.9056333799999994
 -0.4171543700000000 17.8335665799999994 17.2025260899999992
  0.0802128000000000 19.7266482900000000 19.6565637200000012
  1.9761673799999999 -0.2901490100000000  2.2264033400000001
  2.2621666600000001  1.7828024600000001  4.3808663499999998
  1.9324975499999999  4.2916562100000002  6.7171849000000003
  2.0127298100000002  6.9129931999999998  8.8300444599999999
  2.1840760100000001  8.8576659699999993 11.1620555199999991
  2.4105134399999999 10.9981938899999996 13.5364844299999998
  2.5084664800000001 13.2814959699999999 15.3711870699999995
  2.4936857099999998 15.8304802099999993 17.3639493300000005
  2.2513975099999999 17.5634302399999989 19.7471600900000013
  2.2008997500000000 19.7774287400000013 21.6403596100000009
  4.1605251399999998 -0.2999247600000000  4.2872827999999998
  4.3674239600000000  2.2890112399999998  6.6923570500000000
  4.4126708399999997  4.7587056299999997  8.8361733699999991
  4.2801467899999999  6.9230056800000002 11.1053402000000006
  4.2734499599999998  9.0855301799999992 13.2864914400000007
  4.8083526100000000 11.0625561099999992 15.4255110500000008
  4.4200459299999997 13.5668833699999993 17.8383379899999994
  4.5631482200000004 15.7175690800000005 20.1022741300000014
  4.6626233499999996 17.8423791300000012  0.3628658500000000
  4.4529537599999998 19.7761456699999982  2.3170740699999999
  6.6558827200000001 -0.0803379100000000  6.3567599200000000
  6.6688583699999997  2.5441986600000002  8.7019870299999997
  6.3342808399999999  4.3134573800000000 11.0278488499999998
  6.7648978599999996  6.6309432900000003 12.9615408599999995
  6.6628987500000001  8.7902970000000007 15.1704080799999996
  7.0928231899999998 11.0569579499999993 17.6470123600000015
  7.0758582499999996 13.0253394000000000 19.8906060099999991
  6.5187215199999997 15.4902084400000000  0.4747220500000000
  6.8525144999999998 17.8412818299999998  2.4139574800000001
  6.3854594100000002 19.7379848799999991  4.6054424200000001
  8.4410783400000007  0.1760557400000000  8.7119264100000002
  8.8904765999999995  2.5887882400000000 11.0958418600000002
  8.6235905200000005  4.6171903900000002 13.3172552999999994
  8.8317893299999994  6.6068352499999996 15.5216334600000003
  8.6806589800000005  8.9854379000000009 17.6736833599999983
  9.1261897500000000 11.2220837099999997 20.1394936099999988
  9.0654116299999998 13.2617284299999998  0.3608559400000000
  8.8895337800000007 15.4601492500000006  2.3135752100000002
  9.1761906500000006 17.2779298200000007  4.6341013300000000
  9.0713867900000000 19.6751553699999988  6.3248426499999999
 10.8696479900000007 -0.0672493200000000 11.0110171500000007
 11.1694904000000008  2.1513076199999999 13.3440482700000000
 10.8766748900000003  4.4233153400000003 15.6723138399999993
 11.0600242899999994  6.3397338999999997 17.7887102800000001
 10.8120521099999998  8.8089262900000005 19.9906637499999995
 11.5419550300000004 11.2042868700000007 -0.0639427200000000
 11.1389817299999994 13.5149980900000006  2.3515932799999999
 11.1206673699999996 15.3888560900000009  4.5973380099999996
 11.2574075699999998 17.3984208299999992  6.5818687799999998
 10.9410165999999993 19.8291298699999992  8.5576968999999998
 13.0860418200000002  0.1239170500000000 13.0043123900000008
 13.3007018800000001  2.0947111600000001 15.6885968699999996
 13.0553663800000006  4.1944417600000001 17.9639522400000011
 13.4532665999999992  6.9843949199999997 20.0311589699999999
 13.0796911799999993  8.9161199700000004  0.0100570900000000
 13.2060088199999992 11.0406417900000005  2.4265944300000002
 13.6438336800000002 13.3498242299999994  4.5680829100000002
 13.5560707800000007 15.4571585200000001  6.3560072600000002
 13.3162576900000005 17.5762947700000005  8.9655919999999991
 12.9918717899999994 20.2369230199999990 10.6310930900000002
 15.2932968400000000 -0.0795714300000000 15.4879798799999993
 15.3576997199999994  2.0501700899999999 17.7257320100000015
 15.4608014899999997  4.2622912299999998 19.8560878699999996
 15.4294772499999997  6.5671700199999998 -0.2919055900000000
 15.4030660800000003  8.6633642700000006  2.0708333900000002
 15.8700052899999999 11.1781851600000000  4.1821978499999997
 15.6146943100000009 13.1614028800000007  6.6637418100000003
 15.2652868300000009 15.7159260900000000  8.7891332400000000
 15.7790863199999993 18.0486750700000016 11.0590345800000005
 15.3576264800000004 19.9924767900000013 13.0426363900000002
 17.2930303700000003 -0.0627597400000000 17.4064330100000006
 17.5164583100000009  2.5327312300000000 19.7396855199999983
 17.9120925299999989  4.6121819000000004  0.3989879500000000
 17.4836029900000014  6.6788463900000004  1.8573249599999999
 17.8183884699999986  8.6076955700000006  4.2138153200000001
 18.0654342499999991 11.0079977699999993  6.6728246100000002
 17.9799157200000010 13.2424235400000008  8.8664052200000008
 17.6096635900000003 15.5239661600000005 11.0278601300000005
 17.7297673600000003 17.5174469100000003 12.9378261699999992
 17.3398268699999996 19.7920153100000000 15.2231427600000000
 19.7665301199999988 -0.1444575200000000 19.8043291100000012
 19.8078011300000014  2.0263293999999998 21.9527057799999987
 20.0838504200000010  4.3654978299999998  2.4217373000000002
 19.5301394700000017  6.2374308300000001  4.5525633200000000
 19.7876815400000012  8.8252960100000006  6.9490531200000003
 20.0033848300000017 11.2536659500000003  9.2891556499999997
 19.7172710199999983 13.2457466499999992 11.2533551299999992
 19.7081430200000014 15.2604069199999994 13.2811101499999999
 19.6263534300000018 18.1356709100000018 15.2123173900000008
 19.5308760200000009 20.2500586700000014 17.0366575400000002
  2.2044807500000001  2.0317862400000002 -0.3378836600000000
  1.7554774399999999  4.1730114000000000  2.0587515100000000
  2.0993180200000001  6.6316120400000003  4.4628045500000004
  2.1276160499999999  8.7153169199999994  6.5369476000000004
  2.1213149599999999 11.1990969000000007  9.1294524999999993
  2.1426598600000002 12.9661574200000000 11.5505970999999992
  1.8094717899999999 15.3749557800000005 13.6391162799999996
  1.9751870400000000 17.7661809300000009 15.4776867199999995
  2.4433834700000001 19.9446572300000007 17.5669316000000002
  2.1091489800000001 21.8614300800000017 19.4264346299999993
  4.2931271400000002  1.9043829800000001  2.1459310800000000
  4.3409345300000002  4.4452502500000000  4.2757423599999997
  4.1933452800000000  6.8315704500000001  6.7679509299999996
  4.3366309200000002  8.9503011400000005  8.8065789900000002
  4.4006102800000004 11.4846881599999993 11.2850230800000002
  4.4075544200000003 13.3953378099999991 13.3189597899999992
  4.2667040800000002 15.7004883599999996 15.4076860399999997
  4.6923085200000001 17.7053663599999993 17.6441325700000000
  4.5346654600000003 19.8466436100000010 19.9784949800000007
  4.1046741100000004 21.9625025399999991 21.7760179399999991
  6.4499871899999999  2.1882197799999998  4.5291858700000001
  6.3606193800000002  4.8426342399999998  6.6031978699999998
  6.2746138000000000  6.5918069499999996  9.0857999599999992
  6.5938526399999997  9.1682064899999993 10.9693228999999999
  6.5198187599999997 11.0017524800000004 13.4070277000000004
  6.8690681400000004 13.2391268100000001 15.2096148899999992
  7.0253344200000001 15.4386576000000009 17.6960029100000007
  6.5942399099999998 17.7880637300000011 20.0319994199999982
  6.5291097499999999 20.1395756599999984  0.1626068400000000
  6.5685608699999998 22.1401151600000006  2.3497824199999999
  8.5631936300000007  2.3372020700000000  6.3790182499999997
  9.0237880799999992  4.2479271900000004  8.6541477899999997
  8.4329998100000001  6.4782129199999998 10.8758745000000001
  8.8844200600000001  8.3346797299999995 13.0859630599999992
  8.9363720999999998 10.7868352600000001 14.9841509399999993
  9.1127325900000002 13.1032298899999997 17.7810319800000016
  9.1319331100000003 15.3306698499999996 20.0802379100000010
  9.0260593300000007 17.6142990200000007 -0.0023686800000000
  8.6917023199999992 20.2861206699999990  2.3472595400000000
  8.9846787700000004 22.2078362700000014  4.3776815200000003
 10.5891854999999993  2.1972790400000002  8.7801199899999993
 11.0924407600000006  4.7139244800000002 11.4071015399999993
 11.0091106100000005  6.5677321800000001 13.5012932800000005
 10.8311770700000007  8.4222026999999997 15.5792558600000000
 11.0616395300000008 10.6779851400000005 17.6324364399999993
 11.2641203799999996 13.0964935100000002 19.9063457200000009
 11.2850073200000001 15.3914135299999995  0.1364185700000000
 10.9387199099999997 17.6056254699999997  2.4486436999999999
 11.1585968999999992 20.1056978499999985  4.4839420600000004
 10.9006381300000008 22.1554214999999992  6.6399786900000004
 13.1498329799999993  2.4842773800000000 10.9310057399999998
 13.3890728899999996  4.5911586599999996 13.7049710099999995
 13.1970304499999997  6.1934193799999999 15.7564320000000002
 12.9807260099999997  8.4998295499999994 17.7593599100000006
 13.5249064600000004 10.7954820199999997 19.7971251399999986
 13.1297256000000004 13.1758756199999993  0.2659717800000000
 13.6049548799999993 15.5905289099999997  2.2549841499999999
 13.6867687799999995 17.8915970100000017  4.3236506500000003
 13.3944213500000000 19.9698313700000014  6.8711581700000002
 13.0492969999999993 22.1772059299999995  8.9809682100000003
 15.2648463599999999  2.3430858500000000 12.9834010699999993
 15.3602597000000003  4.7572424800000004 15.4849031600000000
 15.4313624199999992  6.5728726999999996 17.7235501400000004
 15.6362720599999996  9.0540287900000003 19.6719457099999993
 15.6575895500000009 11.3112016900000008  0.0148252300000000
 15.7676127400000006 13.0900780500000007  2.4818698800000001
 15.7358069700000005 15.6910219600000005  4.2210935200000002
 15.3582017400000002 17.8189524800000001  6.6602555700000003
 15.4275691199999994 20.0121620100000008  8.8502800900000000
 15.3247473599999999 22.3969308200000015 10.8964423400000001
 17.4890645000000013  2.5427783300000000 15.4958921299999997
 17.7987478800000005  4.6668623499999997 17.5101693099999984
 17.7628038699999991  6.5326157800000004 19.6935819999999993
 17.4796586900000008  8.6490946799999993 -0.0305899200000000
 17.6073605300000011 10.6888440100000004  1.8500063000000000
 17.7364405699999992 13.2420893900000003  4.3841296900000000
 17.5669450100000013 15.6295538700000005  7.0886747600000000
 17.5077484500000011 17.9287086400000000  9.1486674400000005
 17.6544413599999999 19.8818273599999991 11.1869727099999992
 17.5881125000000011 22.5603467600000016 13.2998250299999992
 20.0901420500000008  2.2825930400000001 17.6579706999999999
 20.1283021399999988  4.6214623799999996 19.6994603499999990
 20.0434333000000002  6.3968455600000000  0.0221192000000000
 19.7928757299999987  8.5465655700000003  1.8571855500000001
 20.1460521600000000 11.1383432800000008  4.1602590599999996
 19.8939856900000009 13.0817827799999993  6.7125561600000001
 19.9884940899999997 15.3293922200000008  9.1981911899999993
 19.8954069500000017 17.9681797799999998 11.2271149000000001
 19.3792231400000006 20.1164373199999993 13.3905014599999994
 19.6768241300000000 22.2881122000000005 15.3228089099999991
 22.3236850999999987  1.9239711500000001 19.6862754399999993
 21.8790598500000009  4.2857000100000002 21.8535332300000000
 22.1612682899999989  6.5474524599999997  2.0551726200000000
 21.7464960500000011  8.4885838800000002  4.4145291300000000
 21.9737399800000013 11.0355310800000002  6.9716667299999999
 22.1526092100000014 13.1542630500000008  9.4014711799999997
 21.9899003999999998 15.4218849999999996 11.7066495899999996
 21.6982306899999990 17.9035123899999995 13.4457267900000002
 22.1646280199999985 20.5871637800000009 15.3669531300000006
 22.2630515399999993 22.0154045700000012 17.4048979800000012
  4.6482221499999996  4.2239425300000004 -0.0678461000000000
  4.3681937399999997  6.6072894399999997  2.1224490500000002
  4.4235442300000001  8.9386055100000004  3.9652866000000002
  4.1650924600000003 10.7542235399999999  6.9333413300000002
  4.3069155900000000 13.0485010599999995  9.1131777399999994
  4.4383083200000000 15.0551938700000001 11.0803216300000003
  4.6130726700000002 17.4270099800000011 13.1669038900000004
  4.5580978700000001 19.8170656200000010 15.7318556300000001
  4.6874064200000003  0.2332423500000000 17.5762180400000005
  4.8194744600000003  1.9859371299999999 19.4891208999999996
  6.5604966500000002  4.5011149599999998  2.0406225999999998
  6.6499827299999996  6.7608063300000003  4.1933688599999996
  6.4472320800000000  8.9732681400000001  6.7454354600000004
  7.1231426500000001 11.0910800900000002  8.9699133999999994
  6.8770744099999996 13.0378173299999993 11.3037640199999991
  7.0448739399999996 15.3934833999999992 13.3454505300000008
  6.9784296100000001 17.9002857999999989 15.3557614800000000
  6.8195056000000003 19.8382838899999996 17.9609737900000006
  6.5777718199999997 -0.4530043700000000 19.9086513799999985
  6.5278387599999999  2.0993210000000002 22.0739567900000004
  8.6285608099999997  4.6036708300000004  4.5465197200000000
  8.6162613500000003  6.7548994000000002  6.6900778100000000
  8.6946812799999993  8.8778706700000001  9.0858236600000009
  8.8208216099999994 11.0011324399999992 11.2114112800000001
  9.2715953100000004 13.2677854300000000 13.0445000699999998
  8.9391204500000008 15.7606694899999997 15.7440088100000004
  9.1989869700000000 17.9443226399999993 18.1952366699999999
  8.9778719700000007 19.7438840800000008 19.7812768400000003
  8.7446603799999991  0.0647030800000000 -0.1520281800000000
  8.6250935500000008  2.3765340500000001  2.2678313700000001
 10.9517862800000003  4.2309725299999998  6.8057170600000001
 10.8391040899999993  6.6659937800000000  8.5932671900000006
 11.4000828399999996  8.6107372699999996 10.9652814200000002
 11.2222319400000003 10.6495725900000000 13.2633026600000008
 11.0495008600000002 13.1881009799999998 15.3405175600000003
 10.7846598399999998 15.3769239500000001 17.5079228299999983
 11.0836051500000004 18.1857710499999996 19.9886959299999987
 11.1568067899999992 20.1625187699999984  0.5019105300000000
 11.0102051299999992  0.3130628400000000  2.3516136500000000
 10.8074787200000006  2.1672452999999998  4.5709311699999997
 12.9366920800000003  4.2170731500000000  8.7785446000000000
 13.4564397299999996  6.4127267200000002 10.9001455800000002
 13.2984081399999994  8.5966847400000006 13.6897029700000008
 13.2392031899999996 10.6047585699999996 15.4687211599999994
 13.0697562499999993 13.4049323600000001 17.5536928600000017
 13.0406057499999992 15.5246277399999997 19.7686525300000007
 13.2565114400000006 17.3798987099999991  0.1983298400000000
 13.3533051100000009 19.6174688199999991  2.0971323399999999
 13.6650600900000008 -0.0594556100000000  4.2268894499999998
 13.2560744499999998  1.9455136399999999  6.4761029399999996
 15.5201448299999996  4.4275652599999997 10.8981511999999992
 15.5862856500000007  6.8575199400000004 13.4465118500000003
 15.2337345299999996  8.8978394900000009 15.8580204499999997
 15.2642652000000005 10.9025811699999995 17.2367649599999986
 15.2995544199999998 13.2695015299999994 19.8098844199999995
 15.4837061100000000 15.2860745900000001 -0.0456495000000000
 15.8791358599999999 17.4911447299999985  2.0260562000000002
 15.6209208400000001 19.6497301799999988  4.2427819700000002
 15.6578380599999996 -0.0666647700000000  6.8821453799999999
 15.4902930600000008  2.6301943799999998  9.0183505799999999
 17.6907530299999998  4.3211141599999996 13.3811726300000000
 17.9846185399999996  6.8982870500000004 15.7016244300000007
 17.5654737899999986  8.6246226200000002 17.8223859199999985
 17.7054517999999987 11.1666402300000005 19.6902000800000003
 17.5338268399999997 13.2457531700000004 -0.2413511500000000
 17.5686549599999999 15.2343877800000005  1.9282745699999999
 17.9549471499999989 17.4757805499999996  4.5162059499999998
 17.8467491299999992 19.8026219999999995  6.5906604000000000
 17.5962615900000010  0.0170239400000000  8.9394312700000000
 18.2339447800000016  2.1766198900000000 11.0050953899999993
 20.2137376999999994  4.2230325300000002 15.5330593900000000
 20.4100073100000010  6.4737532699999996 17.3267133300000005
 20.0413868400000013  8.3273519900000004 19.9445896900000008
 19.6000467000000000 10.9732093499999994 -0.3189701400000000
 20.0886743800000005 13.2551420600000007  1.8466769199999999
 19.8317719699999984 15.1142741600000008  4.4979460099999997
 19.9994665199999986 17.3635415399999999  6.5550919399999996
 19.8255661299999986 20.1437194200000000  8.8818932499999992
 19.8388396699999987 -0.3553808400000000 11.0094353999999992
 20.1144864199999986  2.4254706000000001 13.0632671200000008
  0.2704098800000000  4.2656149799999996 17.8586003799999986
  0.2147355600000000  6.6843204099999998 19.6670106999999987
  0.2643719900000000  8.9665824500000006  0.1414392700000000
  0.0130251700000000 11.1269621500000007  1.7343092899999999
  0.0663365500000000 13.3132232399999992  4.2331902599999998
 -0.1380149600000000 15.0607633799999991  6.7994392000000001
 -0.1294811900000000 17.6090912599999996  9.1569142400000008
  0.2702195100000000 19.6557541100000002 11.2184241799999995
 -0.0870708300000000 -0.0720310100000000 13.2023777899999999
  0.4524455700000000  2.3871082900000000 14.9819880500000000
  2.7272711500000000  4.3064226999999997 20.0247953800000005
  2.4423603500000000  6.3093493499999997 22.2488587899999999
  2.1078073499999999  8.8884938800000004  2.1231513099999999
  2.1023547699999998 10.9806623999999999  4.5875777600000003
  2.2260521600000001 13.4749550500000002  6.7234501800000004
  1.8942690499999999 15.4189897699999996  9.1448013899999996
  1.6963564000000000 17.6378282800000008 11.2511434099999992
  2.5466611800000001 19.7467136600000011 13.4493526299999999
  2.2024203199999999  0.2883385000000000 15.5532126799999997
  2.4871897600000001  2.5185986100000002 17.3692792999999988
  6.6210459400000001  6.7261184600000004  0.2911247000000000
  6.7526327100000003  8.8877226599999997  2.1067850500000000
  7.0937840000000003 10.9382954800000007  4.4564495800000001
  6.8897139599999999 13.2109079000000005  6.7474625100000001
  6.7360121299999998 15.2490433900000006  9.0059957700000002
  6.5402133800000000 17.5348337699999988 10.9914357700000007
  6.5841821300000003 19.7052812700000004 13.2379303600000000
  6.9147370500000003 -0.0903596800000000 15.5174142499999999
  6.6884157000000002  2.3389482699999999 17.6037087999999997
  6.6886507399999999  4.6499280100000000 19.8259275600000002
  9.1102305599999998  6.4957959399999998  2.2159542399999999
  9.1291981500000006  8.6568274699999996  4.2826032800000000
  9.0795219500000002 10.8623660300000004  6.6630419400000003
  8.9801443899999995 13.3046503800000000  8.8813487500000008
  9.0780236900000002 15.4280293700000009 10.8986035300000008
  8.7622220500000001 17.5661615399999995 13.1685406700000005
  8.9190326899999999 19.7291718899999999 15.4680286000000002
  8.8555383400000007 -0.0778746700000000 17.5881391499999999
  8.6725452700000005  2.1273043399999998 19.7500107199999988
  8.6252870200000000  4.4172498100000004 22.1176886999999986
 11.2987774000000005  6.2958289299999999  4.3438523199999999
 11.0231894599999993  8.5742600800000002  6.4821748899999996
 11.1605451999999996 10.9764626399999994  8.8524329200000000
 11.3061332199999995 13.1228306799999999 11.0685097300000006
 11.1831430399999991 15.3012566700000008 13.4220164700000009
 10.8337177600000008 17.8251414699999984 15.6425850200000003
 11.1877921699999998 20.0092841600000000 17.6305312200000017
 11.0261788999999997  0.1466362100000000 20.1410212800000004
 10.9340492000000005  2.1435641599999999 -0.0691323900000000
 11.1212038399999997  4.3536280900000000  2.0822522499999998
 13.2533846299999993  6.5747211600000002  6.6884963800000001
 13.2915780899999998  8.7893872900000005  9.0506058500000002
 13.3777787799999999 10.9198792499999993 10.9290869599999994
 13.4465027100000007 13.2874804399999995 13.1458570600000009
 13.1667454599999996 15.5075023499999993 15.4258786099999998
 13.0628767600000000 18.0187122600000009 17.7809104100000006
 13.4887068400000008 19.8330220600000011 20.0522262900000001
 13.3499884499999997  0.2600515300000000  0.2174499000000000
 13.3044109200000005  2.2472142599999998  2.1360225599999998
 13.1891401500000001  4.3850875900000004  4.3787051200000002
 15.5735772499999996  6.4513262700000000  8.7653148099999996
 15.4976512300000007  8.7658321699999995 10.9333060999999994
 15.0673428900000008 11.0554836200000004 13.0091464000000006
 15.0269534700000005 13.4931583699999997 15.4377369000000009
 15.1471986199999993 15.5640149799999996 17.8439753900000007
 15.3526470199999991 17.6462633900000014 19.7969456599999987
 15.0119425900000003 19.3928182000000007  0.2123613900000000
 15.6538546499999995 -0.4298451300000000  2.0988846300000001
 15.4444558700000005  2.1098279099999999  4.4624629200000001
 15.3149901100000001  4.4668064899999997  6.6402472899999996
 17.7209521400000014  6.4362110100000001 11.4111580499999992
 17.7740975299999988  9.0407620099999999 13.3330308800000008
 17.5514834999999998 11.0898744400000009 15.5244207999999997
 17.4947331800000008 13.1717606000000007 17.9184349300000001
 17.5361935799999991 15.5788856300000003 19.7684538299999986
 17.6525596100000008 17.3066837299999996 -0.4319752100000000
 17.9090754399999987 19.9018683000000003  1.9658367999999999
 17.9633667499999987  0.0945711900000000  4.4877901199999997
 17.5163527799999983  2.0498109599999998  6.5878709300000002
 17.7899079899999997  4.0917845000000002  8.7330990100000001
 19.8191628400000006  6.5108955200000000 13.3908143400000004
 19.8837755600000001  8.5862354599999993 15.1805912099999993
 19.9753824699999996 10.8055541799999997 17.5766725000000008
 19.7445069999999987 13.2329059699999991 19.5452906400000010
 19.6210519300000001 15.5195322699999991 -0.3174511100000000
 19.7529721800000004 17.2758023799999982  2.0579399999999999
 20.0925935799999991 19.6889533199999995  4.5640270300000001
 20.2055948100000009  0.0981265500000000  6.5838324699999999
 19.9670161800000017  1.4458036100000000  8.6430945300000008
 20.1612980600000000  4.2670635499999996 10.8882802600000002
  0.4558070100000000  6.8572957700000003 15.5959828599999994
  0.2566759300000000  8.7831039299999993 17.7731995500000011
 -0.1214968300000000 10.9985357599999993 19.7983689699999985
  0.1823430600000000 13.3688879899999993 -0.2924067800000000
 -0.0629203900000000 15.2004646399999999  1.9141857099999999
 -0.3605584600000000 17.2643869000000016  4.2709678799999997
  0.0646480600000000 19.6659615099999989  6.7782060399999997
  0.0932348700000000 -0.1408231600000000  9.1178658400000003
 -0.0685841500000000  2.1668630900000001 11.0532066800000006
  0.2555122400000000  4.6477869399999996 13.2992614899999992
  2.5010321800000002  6.6608378200000002 17.6505998800000015
  2.2415435200000000  8.8559546400000002 19.8810004199999995
  2.3311336900000001 11.5027277100000003 -0.0183117700000000
  1.8634561700000001 13.2228837800000001  2.1434739899999999
  1.9260379000000001 15.5897017400000006  4.0527120999999999
  1.9751596800000000 17.5971089899999988  6.4047168599999997
  2.0090501100000000 19.5121451700000001  9.0400760099999999
  2.7022406800000001 -0.2990436900000000 11.1817975000000001
  2.4515802899999999  2.0581082400000001 13.0669272200000002
  2.3588521400000002  4.4915239500000004 15.5086770099999995
  4.5874644000000000  6.9583623599999997 20.0458282799999985
  4.4054330000000004  8.9333726799999997 22.0798687800000017
  4.5936170599999997 11.2458459899999994  2.5319270399999998
  4.4643660299999999 13.2262445399999997  4.5160496400000003
  4.2518560399999998 15.5194059299999996  6.7199003499999996
  4.3279820600000001 17.4396884000000014  8.9190117799999999
  4.6649712799999996 19.7029144699999996 11.1769640199999998
  4.6812454299999997  0.0264034800000000 13.2827869500000002
  4.6035071500000004  2.3900738300000000 15.6471039199999993
  4.5393894299999999  4.5604966899999999 17.3617402299999988
  8.6060492300000000  8.8728804500000003  0.0843473600000000
  9.1816605399999993 11.5029874599999999  2.2679690099999998
  8.6539549000000004 13.6891397099999992  4.3682500900000001
  8.4210192399999997 15.4485435300000002  7.0144201600000002
  8.7498596299999996 17.8786452400000009  8.8094876600000003
  8.6732324599999995 20.0190668500000015 11.0525365600000001
  8.7603109099999994 -0.3919517400000000 13.1033144000000004
  8.9068234999999998  2.0467788200000001 15.2673142800000008
  8.8309590300000007  4.5160928699999996 17.7441854499999998
  8.4470635499999993  6.8569577800000001 19.6411646500000003
 10.9974038699999994  8.9978567300000005  2.1450910500000000
 11.0120410399999997 11.1349013600000006  4.3852900200000002
 10.9440969100000007 13.3527331100000008  6.3880466699999996
 10.9646896199999997 15.3610398999999997  8.5635412700000000
 11.0802584100000008 17.6296010800000005 11.1764686799999993
 11.0902746699999994 19.9041843299999996 13.0047253800000000
 10.9964799000000006  0.0372239300000000 15.2656601399999996
 10.9658584099999992  2.3721387599999999 17.5156671899999985
 10.5871828099999998  4.3526357100000004 19.9331769700000017
 10.8664179700000005  6.6618108200000004 21.9652544700000014
 13.3386009899999998  8.8467493400000006  4.2083101799999998
 13.0946388099999993 10.9910938500000004  6.1148502899999997
 13.1016091200000009 13.4518891699999994  8.8107040500000000
 13.1828775599999997 15.5780135200000007 10.8577456699999999
 13.3399416599999991 17.8457611599999986 12.9130333200000003
 13.1014650100000001 19.9547012300000013 15.4193709999999999
 13.0935594500000008  0.1282145800000000 17.5972218900000001
 13.0962418799999991  2.3577905100000001 19.9546444100000002
 12.9410232199999999  4.4431658900000004  0.1700377300000000
 13.1191425200000005  6.6901705800000002  2.2386328500000001
 15.3869933900000007  8.5026962899999994  6.7189854400000000
 15.6506922300000006 10.8917213099999994  8.7004966199999991
 14.9775992599999999 13.4174344600000008 10.9427853299999995
 15.1231153099999993 15.6789373699999999 13.0734274900000003
 15.2743390100000003 17.6277927400000003 15.2224980100000007
 15.0655882499999993 19.9410419700000006 17.4787758699999998
 15.0578805599999992  0.0277045000000000 19.9018368999999993
 15.3204277599999994  2.4699443300000001  0.2898642100000000
 15.3946373100000002  4.3580192499999999  2.2453152599999999
 15.4958457900000006  6.7872529500000001  4.3448470600000002
 17.5821141700000005  8.8195601099999994  9.1516137999999998
 17.3250116299999988 11.2720045199999994 11.1769713300000006
 17.1094695700000017 13.4878747600000004 13.3347558399999997
 17.6211294699999996 15.7067390899999992 15.6971793000000002
 17.4042572699999987 17.7214713800000006 17.7258112300000015
 17.2857624700000017 20.0200585199999992 19.4738943800000008
 17.2778314699999989 -0.0937803100000000 -0.0545554500000000
 17.7239019300000002  2.1298642700000001  2.3118692500000000
 17.5624519600000006  4.3233762499999999  4.4512094700000002
 17.9273484799999991  6.5824014100000001  6.8141604200000003
 20.1905304399999999  8.9891649999999998 11.3846809100000002
 19.6214843600000002 11.1451813299999998 13.3272787899999994
 19.7101778500000009 13.0944768600000003 15.8353214100000006
 19.5834034899999985 15.2082535700000001 17.4871349999999985
 19.5933584399999994 17.9458525500000015 19.4372504500000005
 19.5523342800000002 19.8242768100000006 -0.3182009400000000
 19.8454037800000016  0.0256850200000000  1.9520834499999999
 19.9854174600000007  2.3872052899999998  4.5138895000000003
 19.8344363100000010  4.2119311499999998  6.9001501400000000
 19.9059105900000013  6.4210197000000004  9.0337797500000008
 -0.0419910900000000  9.0137777200000002 13.0493176700000006
 -0.2962837600000000 10.7958711600000008 15.4099051800000009
  0.3368652700000000 13.1340942999999992 17.4366659499999983
 -0.1498885000000000 15.4023381900000000 19.3866372499999997
 -0.3096653300000000 17.7326511199999999 -0.0836988100000000
 -0.4139854100000000 19.8978968300000005  2.0266573600000002
 -0.2720821300000000  0.0601663200000000  4.4858257699999999
  0.3825950000000000  1.9405109300000001  6.5328852099999999
  0.2018984600000000  4.2747500399999998  8.8370490400000001
  0.0344499500000000  6.5665615600000002 11.2049772200000000
  2.1129550899999998  9.0740630600000003 15.6823198500000007
  2.5291543299999999 11.3232378699999998 17.7605692799999986
  2.3254325300000001 13.3590486800000008 19.8022816199999987
  2.0730515000000000 15.5246843099999996 -0.0790370800000000
  1.6771627899999999 17.6729123799999996  1.8445237900000000
  1.8892945900000000 19.7676034600000001  4.3787659799999998
  2.0785615900000001 -0.3622100700000000  6.4214648499999996
  2.2701138500000000  1.9093950700000000  8.7658708399999998
  2.1722552199999998  4.6292664900000000 11.1894576899999993
  2.5179186499999999  6.6931317500000000 13.3051802899999991
  4.5208537199999999  9.1832623000000009 17.4088442999999984
  4.5536845000000001 11.1195161999999996 19.8847613099999982
  4.8476766400000004 13.2793046799999992  0.2321684900000000
  4.3509371899999998 15.7200140200000007  2.1193900900000000
  4.1531420600000004 17.8794129499999990  4.2414337000000000
  4.0884618899999996 19.8470921500000017  6.7388773200000003
  4.5708081500000004 -0.1894979600000000  8.6786823599999998