fcc
1.0
0.0 2.10005 2.10005
2.10005 0.0 2.10005
2.10005 2.10005 0.0
Li
1
Direct
0.0 0.0 0.0
