Li 
 1.0000000000000000
   -10.8535000000000021   18.7988134399488125    0.0000000000000014
   -18.6059999999999981  -10.7421791085421763    0.0000000000000014
     0.0000000000000001    0.0000000000000001   22.7650000000000006
 Li 
 504
Cartesian
  0.0301006600000000  0.1042933300000000 -0.0968559500000000
 -10.9040548200000007 17.1480155299999986 15.3209245900000006
 -11.0367174000000006 15.2112898500000000  7.5890424899999998
 -10.5138014900000005 13.7180574499999999 -0.1701973600000000
 -10.6976440600000000 11.5496184300000007 14.9535502600000001
 -10.5133054700000006  9.4787304900000002  7.3868123399999996
 -10.6476237800000000  8.3624722899999995  0.2403517400000000
 -11.2123218399999995  6.5862989299999999 15.4735399999999998
 -10.8686127399999997  4.1340557000000002  7.4574571399999998
 -10.7772889999999997  2.9313212700000002  0.1445723800000000
 -11.0544285299999991  0.7164156200000000 15.2202589199999991
 -10.8854030599999998 -1.0901308199999999  7.9229625400000003
 -1.7514743500000001  0.8248048000000000 15.2742396100000004
 -1.4431711700000001 -0.9706337700000000  7.8547986999999999
 -12.0527092800000002 16.5514149099999983  0.1044485700000000
 -12.1436133399999999 14.3616345100000000 15.1572020999999992
 -12.3891353100000003 12.2630969899999993  7.2978127900000000
 -12.4154342399999997 11.1267838099999992  0.0566842100000000
 -12.2489235700000005  8.9735470300000006 15.1022570199999997
 -11.9816220100000006  6.9577537500000002  7.5693401800000002
 -12.1151532100000008  5.4100476899999999 -0.0406882700000000
 -12.2805432900000007  3.9872060500000002 15.2224350699999995
 -12.4737216100000001  1.5461103899999999  7.6562373399999997
 -12.3320384099999991  0.1936518200000000  0.3796130300000000
 -3.3766709700000002  1.7073524099999999  7.7577132400000002
 -3.2399005900000000  0.4575283400000000  0.2042881100000000
 -3.3066457200000001 -1.8447617500000000 15.1253817300000009
 -14.0622547800000000 14.8278790699999998  7.3870688500000004
 -13.6541331499999998 13.8874494100000003 -0.0815882300000000
 -13.7572330300000001 11.6989607200000005 15.3656696299999993
 -13.5923232899999995  9.1771167100000000  7.9005545599999998
 -13.6733113599999996  8.1196975899999995  0.0684182900000000
 -14.3139274499999996  6.3529904100000003 15.4368292100000009
 -14.0785178999999996  4.3492793499999998  7.4432525399999996
 -14.1341597900000000  2.6691034199999999  0.1116436500000000
 -14.3007086599999997  0.8920121300000000 15.4100118300000002
 -4.4396929399999996  2.6943901900000000  0.2464369200000000
 -5.0015868799999996  0.6410756500000000 15.4275665699999998
 -4.5442398700000002 -0.9633444000000000  7.5040478899999998
 -4.6091666199999999 -2.4290845200000000  0.0394517800000000
 -15.3190908100000005 14.4129560699999999 15.2423777900000008
 -15.4945231900000007 12.0715158799999998  7.4628802900000002
 -15.3593095799999997 10.9895092699999992  0.1253443500000000
 -15.5144070700000007  9.1456815700000007 14.9319636300000003
 -15.4568090799999993  6.9195021700000003  7.8038310400000004
 -15.4542252199999997  5.5109117999999997  0.1993480200000000
 -15.5323969700000006  3.8014991400000002 15.3858178900000002
 -15.6326005899999991  1.6565069200000000  7.3695163199999998
 -6.4683494899999996  3.4531554799999999 15.0138710999999994
 -6.3074814799999999  1.4997453000000001  7.2826837400000004
 -6.1028350099999997  0.3007272000000000  0.0372765700000000
 -6.4245786899999997 -1.9786475200000000 15.0649463899999994
 -16.7906855999999998 14.9629345199999992  7.7365575700000004
 -16.7275987000000015 13.5283920700000007  0.3359084900000000
 -16.9988301600000007 11.4696281100000004 15.4563103000000002
 -16.9511104300000000 10.0000648800000000  7.7119469900000004
 -16.7468395000000001  8.0266641700000001  0.1475023500000000
 -17.1633362200000015  6.4360046899999999 15.4096342499999999
 -17.2541629299999997  4.3189520200000002  7.5451746100000001
 -16.9145074199999996  2.6932270800000002  0.1493906000000000
 -7.7370162400000000  4.2403698299999997  7.7710481500000004
 -7.7467977299999999  2.6921116299999999  0.1100255100000000
 -8.0428105599999995  0.7552140400000000 14.9298293900000001
 -7.6541010700000003 -1.3359694700000000  7.6957691099999996
 -7.6044805799999997 -2.5346192200000002  0.2514777800000000
 -18.5806693100000011 14.1122705899999996 15.3619384399999994
 -18.5541778400000013 12.3717927599999999  7.7912939699999999
 -18.1359144400000005 10.8213915200000006  0.1394299600000000
 -18.3291713999999999  9.2179154200000006 15.0635200200000003
 -18.6120200300000000  7.3192497000000003  7.5199081100000003
 -18.2363876699999992  5.3266312200000003  0.0399208000000000
 -18.4262873099999993  3.6916357099999999 15.1793626100000001
 -9.1708027600000008  5.3235721399999996 -0.1305562900000000
 -9.4034780500000004  3.6040347800000001 15.3529206200000008
 -9.4400705499999997  1.6988080299999999  7.4806320900000003
 -9.5328702399999994 -0.1149873000000000  0.1768291400000000
 -9.6480076300000004 -2.1090678100000000 14.8841352699999998
 -9.0030170599999995 -3.8497271500000001  7.5907670100000004
 -19.9875822300000010 13.4281434300000004 -0.0586721400000000
 -20.1514145300000003 11.6897368600000000 15.4356550699999993
 -20.1255626099999994  9.8377826200000005  7.4739366000000000
 -19.8781229000000010  8.0883728500000007  0.0727972500000000
 -20.1027383200000003  6.4112701100000002 15.0452311900000009
 -20.5264066800000009  4.7370489300000003  7.1952727899999998
 -10.7202670399999995 -2.6985860599999998  0.0489210500000000
 -10.8052579499999997 -4.4836191000000003 14.9891090200000008
 -21.7909666800000004 12.4951520699999996  7.4586759200000001
 -21.2588996799999990 10.9192159400000008 -0.2599254600000000
 -21.6287075699999995  8.9190092599999993 15.0350987299999996
 -21.6677732300000017  7.4364085500000003  7.3441973400000000
 -21.8472057000000000  5.2598587400000003 -0.5457331500000000
 -12.6594235099999999 -1.8295941200000001 15.2900754299999999
 -12.5511250899999993 -3.4183046699999999  7.7103899599999997
 -12.5029296900000002 -5.2746582799999997 -0.0181013700000000
 -23.2647734700000015 11.6668306499999996 15.4744824600000008
 -23.4123683400000004 10.0988263400000005  7.8296943299999997
 -23.3907701400000008  8.2630477800000008 -0.3995908700000000
 -23.0603037099999995  6.0718537499999998 15.2328656999999996
 -14.5754740700000003 -0.9046458600000000  7.8165018999999996
 -13.8527634800000001 -2.6953679699999999 -0.2161163600000000
 -13.8616930499999995 -4.6337267100000004 14.9573945399999992
 -14.0786771799999997 -6.4278709699999999  7.6550356900000001
 -24.7046059100000015 10.9116287799999991 -0.2570919800000000
 -24.8240399700000012  8.7277951300000005 15.1406499599999993
 -24.7174096799999994  7.0036405400000001  7.3058771199999999
 -15.6727177199999996  0.1386489800000000 -0.3421066600000000
 -15.6650089700000006 -1.8679209800000001 15.5405050300000003
 -15.6089857399999996 -3.5259488100000000  7.5540017800000001
 -15.2653769100000005 -5.0443550699999999 -0.4038487800000000
 -15.4489959199999998 -7.5066931600000002 14.9371755999999998
 -26.4945971000000000  9.7272311600000005  7.5069082299999996
 -26.0537910299999993  8.0421271900000004 -0.1802325900000000
 -17.1896508499999996  1.0560228400000000 15.3339175700000006
 -17.4133184999999990 -0.9575558100000000  7.6282898699999997
 -17.0537558099999984 -2.1609657499999999  0.1041378200000000
 -16.8020129199999992 -4.8143181300000002 15.0658604999999994
 -16.9725689200000005 -6.5295308800000003  7.9235866699999997
 -16.9661366099999995 -7.7978879499999998 -0.0714763900000000
 -27.5652635400000001  9.0474200299999996 15.2092963500000007
 -27.8601371700000016  6.9361147100000000  7.5457917900000000
 -9.3790944599999992 16.2016524900000007 -0.2209075900000000
 -9.2156212600000007 14.5397000100000007 14.9192326099999999
 -9.6517024700000000 12.4358232599999994  7.9354735300000003
 -8.9461332999999996 11.0042505100000003  0.0556540400000000
 -9.1325460100000004  8.9479660800000005 15.0468775400000006
 -9.2640974699999994  6.6549467800000004  7.7623301600000003
 -18.4751125099999989 -8.8367600199999998  7.7421590399999998
 -1.2372586200000000  2.8834125099999999 -0.0857740600000000
 -3.1868495600000002  3.4723998599999999 15.2824048999999995
 -4.8460085800000003  3.8535648199999999  7.5559414900000004
 -6.0963102600000001  5.2472879499999996  0.2140110900000000
 -7.9281092800000001  6.0907971700000001 15.1265870800000002
 -26.3240226799999988  5.8950486800000004 15.1483455800000009
 -26.3777315100000003  4.5757600800000002  7.6261511899999999
 -7.6595850199999997 13.4956561799999992 -0.0216662200000000
 -7.5940235500000002 11.5153906599999996 15.0083554800000005
 -7.8366737100000003  9.5310615799999994  7.6562909100000001
 -7.9141551600000000  7.8996615200000004 -0.2389892700000000
 -18.5089661800000016 -7.0510901500000003 15.2611162100000008
 -20.3314015099999992 -6.2052363200000000  7.8111515000000002
 -3.0569147900000000  5.6609239400000000 -0.0457893000000000
 -4.3315931699999997  5.6677767899999996 15.2048367700000000
 -5.8366918700000001  6.8174948300000002  7.5151969999999997
 -24.6853662699999994  5.5561124599999996 -0.1177125500000000
 -24.6038209300000013  3.6995849199999999 14.6912199000000001
 -24.8572696800000017  1.7075921400000000  7.4795271500000000
 -6.3756429399999996 10.6098052099999993 -0.0184500000000000
 -6.1026257099999999  8.6712770700000004 15.0443035500000004
 -18.3765066600000004 -4.6335998099999998 -0.1741971200000000
 -20.0751638399999983 -4.4401837300000002 15.3047430599999998
 -21.6710343399999985 -4.1099268499999999  7.4782757699999998
 -4.6475238299999999  8.0321442500000000 -0.0175275300000000
 -23.1583690500000010  4.4222338700000003  7.0613988799999996
 -23.0570024099999991  2.5649404900000001 -0.0226030300000000
 -23.3328261899999987  0.8028556000000000 15.0395241700000000
 -23.1894024799999983 -1.3040774799999999  7.6281741700000003
 -19.0630850100000018 -3.9058950000000001  7.4908114599999998
 -20.2138113100000005 -2.4172543800000001  0.2615199100000000
 -21.8969488100000014 -1.8101737300000000 14.8198498300000008
 -21.2833301100000014  3.5517273899999999 15.0622973099999999
 -21.8199927500000008  1.7612923500000000  7.5872142199999999
 -21.7889519900000010  0.0059515800000000  0.0464140600000000
 -18.5962511299999989 -1.7672589599999999 15.4134101200000000
 -20.2506699099999992 -1.1396849700000000  7.5364296199999998
 -20.6968390599999985  2.9810006100000002 -0.0430233500000000
 -19.9422579700000000  0.8072816700000000 15.4145500799999997
 -19.0594982500000008  0.2749534400000000  0.0362227200000000
 -18.7740991500000014  2.0013757499999998  7.6471099799999998
  0.3688947900000000  0.2777177200000000 17.9227296400000000
 -10.9615716699999997 17.1041000700000012 10.2400997500000006
 -10.8812236599999999 15.1315571299999991  2.2881730000000000
 -10.4884932600000003 13.6336156299999995 17.6407503000000005
 -11.3012091899999998 11.1597844399999993 10.4252510899999997
 -10.6021253699999995  9.9428253000000009  2.2228103500000000
 -11.0213656499999999  8.3451308100000006 17.8178570900000004
 -10.9465560800000006  6.0273281200000000 10.0408859800000005
 -10.5316252699999993  4.5145384899999996  2.6486937300000002
 -11.0020334299999991  2.7245401299999998 17.5300547500000015
 -11.0366809000000003  0.8651860000000000 10.3005853599999995
 -10.7842690099999992 -0.7099341000000000  2.6057536300000002
 -1.5684646400000000  0.8931966500000000 10.2002042999999993
 -1.1920356000000001 -0.6176614499999999  2.4247732800000001
 -12.4722850300000001 16.5713494799999985 17.9057654200000016
 -12.2995785299999998 14.2126612300000001  9.8605411600000004
 -12.1286936799999996 12.6160183000000004  2.5824502900000001
 -11.7469066699999996 10.9401527900000008 17.3524980400000004
 -12.3477003799999991  8.2883510200000003 10.4074054799999995
 -12.2942574100000002  7.2333818900000004  2.7256060099999999
 -12.5428768700000006  5.6816086099999996 17.6713164499999991
 -12.4871099099999991  3.1062283200000000 10.3452462999999995
 -12.1953595099999994  1.9516842500000000  2.5376630499999999
 -12.4805616900000000  0.1742222200000000 17.6660576800000015
 -2.7085560100000001  1.8963281000000001  2.7256896600000000
 -2.9475173799999999  0.4471868300000000 17.4062980200000013
 -3.0390948899999999 -1.8686715400000000 10.0530370199999997
 -14.0384235000000004 15.2990365700000002  2.6571105400000001
 -13.8083488299999999 13.6863867199999998 17.6690815100000016
 -14.0356280699999996 11.4980810600000005 10.4892442700000004
 -13.9460412100000006  9.8900598599999991  2.4926995399999998
 -13.8046360700000008  8.3669230100000007 17.2536373800000007
 -14.1076482599999995  5.9209741200000003 10.3034350900000007
 -13.6266108100000007  4.7129786700000000  2.5762134900000002
 -13.8599043099999992  3.0306347499999999 17.8163063900000012
 -14.2339468199999999  1.2816851600000001 10.3574516100000000
 -4.6254439300000003  2.6432499200000001 17.7638733900000005
 -4.5333526900000001  0.7171258700000001 10.0488359000000003
 -4.2519315700000000 -0.7656338100000000  2.5318889100000002
 -4.4918761900000002 -2.3963481600000001 17.6866632300000006
 -15.5072967800000008 13.9261531800000000 10.1227207499999992
 -15.3271523700000003 12.8766726100000000  2.7690090600000001
 -15.1506509900000008 11.2884776400000000 18.1139897900000015
 -15.6283718399999998  8.7051970399999998 10.1315256399999996
 -15.2972722500000007  7.0618216599999997  2.4924797200000000
 -15.7100740499999993  5.4655041300000002 17.9044487600000011
 -16.1272805800000008  3.4496969900000001  9.8582813799999993
 -15.6299958500000002  2.0297853500000000  2.5788916300000002
 -6.4061457199999996  3.1150832099999999  9.6658442299999994
 -6.2120467599999998  2.0658024300000002  2.4866330400000001
 -6.4144253999999998  0.1743199000000000 17.6936008099999995
 -6.2311315599999997 -2.0010185500000000 10.2464496900000004
 -17.1595775099999983 15.1129330300000007  2.7321336899999999
 -16.9325522100000008 13.5573072700000008 17.7167771199999997
 -17.1771991899999996 11.3830648199999995 10.1849382899999998
 -17.0784637699999990 10.3221756700000000  2.6469490499999999
 -17.2695462800000001  8.5622089700000004 17.6514849200000015
 -16.9513980599999989  6.3070265000000001  9.7129514599999993
 -16.8225632900000015  4.4831838800000003  2.6856685400000000
 -17.1594267699999996  2.9240603500000000 17.9334769499999993
 -7.5586889199999998  4.5196574099999998  2.8751758199999999
 -7.7320429900000001  2.7655176600000000 17.8490057899999996
 -7.8985443799999997  0.6392073800000000 10.0242939799999995
 -7.4784642200000002 -0.8234812200000000  2.5919390500000001
 -7.9599986400000002 -2.7140376399999999 18.0045503499999988
 -18.5700498100000004 14.1510776099999998 10.4373388200000008
 -18.6479852299999997 12.4783919399999998  2.4377888599999999
 -18.7157481200000007 10.8713658599999992 18.1186795600000004
 -18.6616851299999986  9.0023267400000009  9.9523843500000009
 -18.6532434800000004  7.1868813200000004  2.4607508100000000
 -18.5534257899999986  5.7107962099999998 17.7229448299999994
 -19.0934167099999996  3.7685095199999998  9.9913936099999994
 -9.6337160599999994  5.6957127700000001 17.8481141699999988
 -9.3405540299999998  3.5669443599999999 10.0780317600000000
 -9.2140541400000000  2.0167858299999999  2.4671307599999999
 -9.6582258000000003  0.2952292400000000 17.7055474199999985
 -9.4343999000000007 -1.8935701800000000 10.1171061499999997
 -9.2592491900000002 -3.4372397299999999  2.6357679599999999
 -20.3890510899999988 13.6012715400000008 17.9352681700000005
 -20.4609521299999990 11.4962529799999995 10.3137528199999995
 -20.0248172999999987 10.0533690300000007  2.4304351099999999
 -20.0178376600000014  8.4084170799999995 17.7875171300000012
 -20.2118541600000015  6.0375377600000002  9.9083444800000002
 -20.3695430299999991  4.9088501999999998  2.3483125399999998
 -11.0886057900000008 -2.5551879500000001 17.6338725399999987
 -10.7352682700000006 -4.2877189199999997  9.7693340499999994
 -22.0644915399999988 12.4802571400000009  2.4622986500000001
 -21.5397286100000009 10.3726376699999996 17.7955215600000010
 -21.7934488399999999  8.7568808400000009 10.3596395599999997
 -21.6411146700000003  7.0752090900000004  2.1167709000000001
 -21.3587550800000017  5.2321477300000003 17.6974795100000009
 -12.9270169700000004 -1.5771884700000001 10.3304640699999997
 -12.4991038999999997 -3.6275100000000000  2.4249712400000001
 -12.4303033700000007 -5.3910635100000004 17.8661081000000017
 -23.1798891000000005 11.9949270099999996 10.4187294599999998
 -23.2892381800000017  9.8388422999999996  2.4205129200000002
 -23.1493433800000012  7.4519520999999997 17.6457436200000011
 -23.4824929500000010  5.9812521299999997  9.8973988199999994
 -13.6482231200000008 -0.7181946900000000  2.6673149199999999
 -13.9097343599999999 -2.9033687499999998 17.7434880899999996
 -14.0889020200000008 -4.3995273900000003 10.1359682899999992
 -14.1001213300000003 -6.3046692499999999  2.2526087800000001
 -24.8706402299999993 10.4283516400000007 17.6217074499999988
 -24.7582307300000011  8.8111489800000005  9.7773305100000005
 -24.5960126099999989  6.8887027700000001  2.6067843300000000
 -15.3801950800000000 -0.1027810400000000 17.8412203600000012
 -16.0094269400000009 -1.6296114200000000 10.2615008999999997
 -15.6521693000000006 -3.6866359100000001  2.4003047799999999
 -15.3909202000000001 -5.2969111499999997 17.2893158100000015
 -15.0052535099999993 -7.3142210099999998 10.0533854199999997
 -26.2714048499999997  9.6228599500000005  2.4771545700000002
 -26.5179015699999994  7.7200567400000004 17.8566585899999986
 -17.2757061299999997  0.7350965000000000  9.8817627100000003
 -17.1686058499999987 -0.3210639300000000  2.5221046299999998
 -17.1975549200000017 -2.4997404900000002 17.6915968799999987
 -17.1107865500000003 -4.5636711800000000 10.2972322799999993
 -17.1035522299999982 -6.1377194099999999  2.4294557399999999
 -16.6648764999999983 -7.8879537300000004 17.4655791600000008
 -27.9458797899999993  9.0248734400000004  9.9969445199999996
 -27.7088160099999996  6.9074037900000000  2.4992544200000002
 -9.5101665000000004 15.9756199999999993 17.6331367199999995
 -9.2705943499999997 14.4703668600000004 10.0038019699999996
 -9.0390470999999994 12.5949578800000008  2.3723972400000002
 -9.2110443699999998 11.0913472199999994 17.5927997100000013
 -9.5047447999999992  8.6831380199999995 10.0851931300000004
 -9.3532165799999998  6.9750099900000002  2.5944513200000001
 -18.3662757799999987 -9.0502512700000004  2.5230330799999998
 -1.1491164500000000  2.7050501100000002 17.5838607300000014
 -3.3381279500000001  3.4597819200000002 10.2238267700000005
 -4.2821514900000004  4.5805820500000003  2.2842583599999999
 -6.2440577099999999  5.1805394500000004 17.5981979499999994
 -7.4759496099999998  6.0275678299999997 10.0747487000000007
 -26.3476224899999991  6.4042951300000004 10.0574125100000007
 -26.2651229199999996  4.3813595300000001  2.4939817500000001
 -7.5079040800000003 13.6648305499999996 17.3432041599999991
 -7.5249091000000004 11.4250144700000007  9.9056786100000007
 -7.6149916500000003  9.8145267900000004  2.8663161499999998
 -8.0231755099999997  7.9991084299999997 17.7027124299999983
 -18.3953813100000012 -7.4504148299999997 10.0375213199999997
 -19.6920556600000012 -6.3376182400000003  2.4226812000000000
 -2.9941190999999998  5.2990576999999996 17.7607342599999996
 -4.8486978799999996  5.9722875000000002  9.8958568400000004
 -6.0756590700000004  7.1932892800000001  2.3864655500000000
 -24.9333652500000014  5.1073503899999997 17.5896489500000008
 -24.8516892399999989  3.4818074200000000  9.6065918099999994
 -24.7501709100000014  1.9055696400000000  2.3978304600000002
 -6.3982305300000002 10.5547221699999998 17.4556419100000006
 -6.2876147500000004  8.6298696499999998  9.9105246900000008
 -18.3385947099999989 -5.0097775400000000 17.7833664599999999
 -20.2062179399999984 -4.9706116700000003 10.0091332800000004
 -21.8678357500000011 -3.3624400699999999  2.5951079500000001
 -4.7802839199999996  8.1408384300000005 17.8870348099999994
 -22.8059918000000010  4.3606342299999996  2.1943075099999998
 -23.1258817000000008  2.5427523399999998 17.5020666300000016
 -23.3694388999999987  0.2585856100000000  9.9783291100000007
 -23.1762948299999998 -0.8381379799999999  2.5682449599999999
 -18.6766642099999984 -3.2864931099999999  2.5111172000000002
 -20.3528912099999992 -2.6541257300000001 17.7583752600000011
 -21.5264702800000016 -2.4344707300000001 10.2245962099999996
 -21.8609989700000007  3.3598449800000001  9.9255399099999995
 -21.5300841100000007  1.7284771400000001  2.3268021299999999
 -21.7737978299999995 -0.1767065400000000 17.4836837699999990
 -18.8630381000000007 -1.9159549400000000 10.0555322399999998
 -20.1968439999999987 -0.4636507800000000  2.6871455300000000
 -20.1036338599999986  2.5280645399999999 17.6311579700000003
 -20.3524606400000003  0.6588653100000000  9.9111706500000007
 -18.4228084400000007 -0.0250568900000000 17.8793464399999991
 -18.7231850699999995  2.3596244300000002  2.6373507599999999
  0.0601096600000000 -0.1261033300000000  5.1578960499999997
 -10.4487552499999996 17.1221715100000011 20.0925007300000011
 -10.9092610699999994 15.4854813599999996 12.3235788100000008
 -11.0017711699999996 13.2253754400000005  5.1640980000000001
 -10.7875811699999993 11.8670211299999995 20.0649897800000012
 -10.8677360499999995  9.7000172399999993 12.5286129800000001
 -10.4852867100000005  7.7639680799999997  5.0840302800000003
 -10.6375587500000002  6.8729019500000001 20.2262273000000015
 -10.5433472100000003  4.6432169099999996 12.5955727000000000
 -11.1639138800000008  2.6011650500000001  4.9196990300000003
 -10.8041415900000004  1.0450082999999999 20.1712381000000001
 -11.3224675300000008 -0.6928643400000000 12.6532530100000002
 -1.1948481399999999  0.6547254600000000 20.3330638099999987
 -2.0220316399999998 -0.7534629200000000 12.7819317600000009
 -12.4308775800000006 16.0393788499999985  4.9993405800000001
 -12.1832054099999993 14.5041344300000006 20.3113369599999984
 -12.6812283400000005 12.3500337899999995 12.9105064699999996
 -12.2821309599999999 10.2982594499999998  4.9256872800000000
 -12.4668084700000001  9.2315887700000001 20.1760465599999996
 -12.5816196700000003  6.9306373800000003 13.0146876000000002
 -12.4821299799999998  5.2305456200000000  4.9606873599999997
 -12.1245552700000001  4.1257150600000001 20.6394056299999988
 -12.5907197800000006  2.0024680699999999 12.7594355600000000
 -12.3514172999999996 -0.2275169700000000  5.3887919899999996
 -3.5027416800000002  2.0850375200000002 12.6629354799999998
 -3.1256730099999999  0.0264438700000000  5.0228214600000003
 -2.8317382499999999 -1.7405479399999999 20.3851398599999989
 -13.7969355599999997 15.1399907299999992 12.3820172300000007
 -13.8386295700000002 13.1799351799999993  5.1912092799999998
 -13.4104283700000000 11.9753083300000007 20.1315047900000010
 -14.1408954300000005  9.7016681200000008 12.9148474800000006
 -13.6779459699999997  7.7655519899999996  5.2643596600000002
 -13.7907480699999994  6.4327459600000001 20.3855880700000007
 -13.7463589800000001  4.0731655599999996 12.6218470099999998
 -14.0738378999999991  2.7310208100000000  4.8235818100000003
 -13.6879972700000003  1.4285522100000001 20.1822204800000016
 -4.7945205000000000  2.3688367200000000  4.6759448199999998
 -4.5589638399999997  0.9188902500000000 20.2012164100000007
 -5.0160329600000004 -0.8969925700000000 12.6063664899999992
 -4.6658942500000000 -2.9576722000000002  5.3420701399999997
 -15.2613650500000002 14.5750098999999995 20.3175599700000014
 -15.8550748899999991 12.5159765800000002 12.8381999199999992
 -15.3203422400000004 10.3540657100000004  5.3435897499999996
 -15.3547765999999992  9.1463477100000006 20.1943989899999998
 -15.7127923000000003  6.7828821599999998 12.6581359199999994
 -15.9210484599999997  5.7080513599999998  5.0974424100000002
 -15.1370350200000008  4.2164240299999998 20.3456077600000000
 -16.2227199199999994  1.8971655599999999 12.7270087600000004
 -6.1324487100000002  3.4390189300000000 20.4967478999999990
 -6.3757868699999998  1.9527878100000000 12.3120763899999996
 -6.1597845900000001 -0.1293681300000000  5.0106150100000004
 -5.9973966100000000 -1.9460949100000000 20.6170000500000015
 -17.0507461300000003 15.3749318699999993 12.7415658500000006
 -16.9677891199999991 13.1324053799999998  5.3210470000000001
 -17.2437696400000000 12.2131431199999998 20.4687051000000011
 -16.9191519200000009  9.8253787100000007 12.6215489299999994
 -17.0976586099999999  7.9806171099999998  4.8311413500000002
 -17.1532101499999996  6.5782006800000001 20.6372484999999983
 -17.1661616399999986  4.5845947599999999 12.5715197599999993
 -17.1348911699999995  2.7628975800000002  5.2576363099999996
 -7.7461059499999996  4.3811449400000004 12.4362396799999999
 -8.1562625499999992  2.2532998700000002  5.0255939900000000
 -7.8940023699999999  0.8093226400000000 20.4354438000000016
 -8.1287441000000005 -1.1028373300000001 12.5355867100000005
 -7.6579510400000004 -2.6245556300000001  4.8516220700000003
 -18.6905559600000011 14.2176743499999994 20.5312420799999984
 -18.6284783999999988 12.2544515399999998 13.1163835700000000
 -18.4423055399999996 10.6907690500000001  5.1479421700000003
 -18.7221587199999995  9.3396245400000009 20.5155664699999996
 -18.6247279900000002  7.1759594399999997 12.5910741799999997
 -18.8786571499999987  5.3796090400000001  4.8041486100000004
 -18.8824162300000005  3.7366758400000002 20.5077853200000000
 -9.5473862599999997  5.2029209200000004  5.4536458899999998
 -9.2398125600000007  3.7683751499999998 19.9711891299999991
 -9.6519411999999996  1.7461092000000000 12.6566179900000009
 -9.3983317999999993 -0.1605179200000000  4.8278077200000000
 -9.3357897600000008 -1.5765337900000000 20.0196286800000003
 -9.4227061400000007 -3.4483582400000001 12.5768702500000007
 -20.3446866799999988 13.4378223899999991  4.9688818599999998
 -20.4246841699999990 11.7414864899999998 20.4117809000000001
 -19.8668551700000009  9.5659270500000009 12.8590712699999994
 -20.4054192100000016  7.8638143800000000  4.8939456100000003
 -20.2212358799999983  6.5067825199999998 20.4748776600000006
 -20.0399307899999997  4.0440236499999997 12.5716320699999997
 -10.8115790799999996 -2.8068578799999999  5.1619390200000002
 -11.0403988500000008 -4.1417045600000000 20.2195454599999991
 -21.8085387799999992 12.7634133999999992 12.9014735900000002
 -21.9766644199999988 11.0127168500000003  5.0404985499999997
 -21.8006999800000010  8.7742226999999993 20.0272809500000015
 -21.9168151800000004  6.9036711799999999 12.4018821999999993
 -21.8411763199999989  5.3277871299999999  4.6427999299999998
 -12.3946618700000002 -1.3593154999999999 19.9982062300000010
 -12.5745969700000000 -3.2383888600000001 12.5465677400000004
 -12.8166531700000004 -5.2641372700000000  5.0999437600000004
 -23.2528828300000008 11.8532738400000000 20.2034480899999984
 -23.2706559099999986  9.9917542800000003 12.6408882200000008
 -23.2980194599999990  8.1163850600000007  5.0221501100000001
 -23.5051686099999984  6.5539990299999999 20.1072837200000016
 -14.2286922499999999 -0.7412368499999999 12.6645643799999998
 -14.1617150299999999 -2.4806409600000001  4.7987149899999997
 -13.7958742399999998 -4.4250996599999999 20.3310891799999993
 -14.0379888600000005 -6.3050425399999996 12.8089965600000006
 -24.9496267299999985 10.7005137000000001  5.0377191200000002
 -24.8499167900000018  9.3982769099999999 19.9427245900000010
 -24.9902606399999989  6.7101732500000004 12.7978465299999993
 -15.5270671999999994  0.1620595600000000  4.9482938699999997
 -15.4050377199999993 -1.5679927899999999 20.3028227299999990
 -15.6672184899999998 -3.6496631100000001 12.7057986599999992
 -15.6389130900000008 -5.4885872800000000  5.5574944200000003
 -15.4302166700000001 -6.8803381999999997 20.0692032000000005
 -26.4549667100000008  9.5520735800000001 12.2424428499999998
 -26.1138261199999988  7.9564331499999996  5.1077748300000003
 -16.8480464999999988  1.3370481200000000 20.4041324700000004
 -17.0862133999999983 -1.2222409100000000 12.8321286800000003
 -17.1830992100000017 -2.5900200500000001  5.0770140499999998
 -16.7637410799999991 -4.2137090900000000 19.9991750000000010
 -17.1035940400000008 -6.2627870000000003 12.4377352200000004
 -17.3177290100000008 -8.0028349799999994  4.9751678000000004
 -27.7365049100000007  9.2460273199999996 20.2333440099999997
 -28.0321719999999992  7.4919352699999999 12.9253582500000004
 -9.5152417699999994 15.9398538700000003  4.8235631799999998
 -8.8656998399999996 14.4516746499999993 20.1658005899999999
 -9.3166929900000000 12.6065878199999997 12.5784861100000001
 -9.3389669200000007 10.5831133600000005  5.0589035899999999
 -9.1162380699999996  9.3009796999999992 20.5728878399999999
 -9.2905453999999992  7.1022737600000001 12.4626021700000003
 -18.8720918100000006 -8.8565240599999999 12.9411871099999995
 -1.4361920399999999  2.4980056700000000  5.1281815899999996
 -2.5143626100000001  3.2935449100000000 20.1705304000000005
 -4.5688195800000004  4.3047540700000004 12.6333574500000001
 -6.1203719999999997  5.0585211499999998  4.9089825899999999
 -7.7878932000000001  6.2253709300000004 20.3287798299999984
 -26.3860562200000004  6.4560460199999996 20.2542036100000011
 -26.2284359199999990  4.5935474699999999 12.2468190299999993
 -8.0041196800000005 13.4603797499999995  5.0496489899999997
 -7.4158380399999997 11.7654005900000005 20.2797315500000011
 -7.8636468199999996  9.6133615199999998 12.5570198400000006
 -7.5770474400000003  7.6965734000000001  5.1237815800000002
 -18.2856295600000003 -6.9978221800000000 20.2213226000000006
 -20.2823087000000015 -6.2361459500000000 12.9187084100000007
 -3.0006827700000001  5.2035771899999999  4.7230627299999997
 -4.7923745699999998  6.0157377600000004 20.4619704700000007
 -6.3263877199999996  6.9933953600000001 12.5562680199999992
 -25.1993885300000002  5.2009361299999997  4.8605124599999998
 -24.9050894800000009  3.6763715600000002 20.1854488900000000
 -25.0509211500000006  1.9451057899999999 12.2222154199999995