Li                                      
   1.00000000000000     
    21.2169999999999987    0.0000000000000006    0.0000000000000000
     0.0000000000000006   21.2169999999999987    0.0000000000000000
    -0.0000000000000006   -0.0000000000000006   21.2169999999999987
   Li
   500
Direct
  0.9882799019654058  0.0065134208417774  0.9907728189659224
  0.9948241014281010  0.1123329495216083  0.0975368228307474
  0.0023327878587907  0.2060193085733104  0.1894470019324146
  0.0040102488570497  0.3039315770372824  0.2977614083046589
  0.9886617094782508  0.4063616609322693  0.3858895965499372
  0.9972035264174934  0.4977526417495426  0.4922214601498780
  0.0075372394777773  0.5972997266343043  0.5968675590328516
  0.0028492468303725  0.7107884366310060  0.6920775745864134
  0.9945977503888415  0.8115508742989093  0.8244892600273346
  0.0007704510533983  0.9064693118725557  0.8965443776217157
  0.0718919291134483  0.9977496432106321  0.1065722213319518
  0.0945836593297855  0.0887736084272035  0.2042783197436009
  0.1088008285808542  0.2010093340246044  0.2905479360889842
  0.0926858066644698  0.2989692736956187  0.3987150096620624
  0.0943441212235498  0.3908913771975335  0.4856216703586753
  0.0934610788518668  0.4885211434227301  0.6015313196964698
  0.0969727968138727  0.6198140340293179  0.7147240854032120
  0.0914543111655775  0.7038452877409611  0.8128698487062280
  0.1145548362162430  0.7959361139652188  0.8947365320262080
  0.0951121624169318  0.9174751326766284  0.9963520153650407
  0.2042416189847742  0.9894238667106592  0.1875865881133052
  0.2059037733892666  0.0804572333506144  0.2991337799877485
  0.2053535184050546  0.2029320059386350  0.3899875062449922
  0.1991699971720777  0.3122995767544907  0.4917921020879490
  0.1812816142715761  0.4052771546401459  0.5931822434840015
  0.1862868482820375  0.4948296375547940  0.7032949205825503
  0.2028062044586889  0.5850335085073297  0.8071496243578267
  0.2126035716642320  0.6897155413112159  0.8927456285054447
  0.2034231484187217  0.8044137620775800  0.9927713432624756
  0.1922969387755131  0.9187724791440814  0.0911476886458971
  0.2931620738087375  0.9983715002120945  0.2987629518782100
  0.3066406179007402  0.1002452514493086  0.3920176184191888
  0.2972240910590571  0.2038729009756324  0.4923252651175929
  0.2995126997219231  0.3060183056039989  0.5918714116039041
  0.2913046278927283  0.4026483522646913  0.6986910237074042
  0.2926722010651801  0.4951862426356257  0.8006065942404703
  0.3166851326766249  0.5838300744685867  0.9053045670924291
  0.3016250063628192  0.7014638417306855  0.0050511811283371
  0.2955090309657322  0.7992817325729362  0.0964621256539573
  0.2923210147523179  0.8998382136965617  0.2046947221567592
  0.3905422378281571  0.9818100414761730  0.3954090941226340
  0.3988204350285116  0.0868062647876684  0.4930766427864484
  0.4133930923316242  0.2049216434934280  0.5790439840693793
  0.4056649092708682  0.3137568364990315  0.6927777645284436
  0.3924373738040217  0.4024287759815266  0.8060274435594081
  0.4045551656690378  0.4927263548098253  0.9022301682612976
  0.4188368289579145  0.5986096106895431  0.0032476528255643
  0.4039329462223691  0.6991393514634510  0.0921648154781565
  0.3911032935853314  0.7906964910213503  0.2047247603336970
  0.3905106565489902  0.8992741528020005  0.2946517570815885
  0.4884095531884824  0.9985161436583851  0.5040359070556661
  0.5081758457840380  0.1013124131592562  0.6013395970212585
  0.4921816076730892  0.2053082782674238  0.6944714799453280
  0.4936960739030027  0.3080360762596044  0.7901306150728189
  0.5028943323749857  0.3909730843191781  0.9161581840033932
  0.4912953259178963  0.4782184116510351  0.0204821671301332
  0.4939359226092250  0.5989611259838838  0.1079031305085536
  0.4856705915068105  0.7020895310364352  0.1975994150916733
  0.4925776938304196  0.8125953268605386  0.3038027402554562
  0.4879241334778683  0.8960636989206776  0.4145180873827599
  0.5911503869538564  0.0041508120846458  0.6032744148560099
  0.6138466182777975  0.1003526007446851  0.6868429137012768
  0.5967930221049187  0.2084857882829780  0.8068184022246285
  0.6038000494886191  0.3098440722062463  0.8978782476316169
  0.5961745237309728  0.3975892619126142  0.9997771046802058
  0.5927820299759645  0.4947710609416944  0.1189648710939366
  0.5872511273978418  0.5969052259980216  0.2178854833388328
  0.5813859900080089  0.7005991709478252  0.2972692251496412
  0.6050542022906171  0.8009039807701370  0.3975717009944830
  0.6135773950134293  0.8872163138049700  0.4998973742753421
  0.7122990738558670  0.9845164269218074  0.6904896474525160
  0.7065158778338159  0.0933381594947420  0.7950590125842467
  0.6871164594428976  0.1912909511240954  0.9039912494697617
  0.7016482122826062  0.2944110840363834  0.0121074515718504
  0.7049863623509438  0.4151360338407883  0.1146636055992829
  0.6969206103596193  0.5105446099825599  0.1906357995946664
  0.6933962134137701  0.6034533887920048  0.2985379615402763
  0.7031855365980135  0.7012005495593172  0.4002094546825674
  0.7044150417118331  0.8029140406277975  0.4993323278503112
  0.7114894183909115  0.8966011467219701  0.6068927878587900
  0.7991671852759552  0.0019500410048536  0.8095752971673633
  0.7948421704293693  0.1149910948767499  0.9021893123438787
  0.8017604274873946  0.1944762888250011  0.9966600688127443
  0.8066005335344286  0.3077113399632339  0.1163950421831572
  0.7982435188763759  0.4065047518499298  0.1950542970259690
  0.7985692091247572  0.5017264005278790  0.3021699698355107
  0.7959470438799059  0.5884016647028361  0.3928149337795190
  0.7970535740208291  0.6800786091341848  0.5016100838949882
  0.8065911358816038  0.7918550021209398  0.6003205919781323
  0.8066875825988618  0.8951916335957009  0.6958152637036363
  0.8980957567045280  0.0027260489230301  0.8990100471320162
  0.8873725102512111  0.1118627355422532  0.9892844332375006
  0.8924911306970813  0.1942793392091247  0.0966358971579382
  0.9000276386859625  0.3013760154593044  0.1949185007305445
  0.8971926705000683  0.4042928349908124  0.2839872423056988
  0.9017606876561217  0.5048063383136139  0.3866536965640748
  0.8960178795305680  0.5960642597916745  0.5000327883301097
  0.9175758071357905  0.6892791059056407  0.6109000542018208
  0.9171277291794340  0.8042508351793387  0.6997216713013117
  0.8791741890936535  0.8996186916152169  0.7977084540698485
  0.0949160394966313  0.1026824183437824  0.9906874195220823
  0.1205704906442975  0.2013937823443470  0.1019024970542475
  0.1014743846915209  0.3011999354291390  0.1975354027430853
  0.1010994914455381  0.4044032525804795  0.2909811962105877
  0.0911632733185641  0.5068928175519645  0.3978831602017223
  0.0890834726869940  0.5994457119291141  0.4992477532167570
  0.0907007055662916  0.7077647221567602  0.5979034231983817
  0.0991560479803937  0.7961573502380190  0.7084138422020061
  0.1070945619079069  0.9003542612056350  0.7910264608568625
  0.0956656313333681  0.0068876245463514  0.8916226648442276
  0.1970938690672597  0.0873970537776287  0.1207539817127810
  0.2126854390347361  0.1917122076636630  0.1973265664325794
  0.1966384903615008  0.2967249776122927  0.2940433345901852
  0.1924667606164903  0.4037803030588663  0.3919985676580069
  0.1953048918320235  0.5009387090540613  0.4964141528019965
  0.1971092378752886  0.5972329377386032  0.6222984960173434
  0.2007927275298087  0.6863131333364763  0.7132775015317918
  0.2059469218079855  0.8078558726492915  0.7988546481594980
  0.2077584568977713  0.9161377890370943  0.8921252085591718
  0.1926294843757361  0.0070949356647958  0.9981100999198773
  0.3008208276382121  0.0924097365320264  0.1969774270632030
  0.3099364335202921  0.1897790073997285  0.2839601710892197
  0.2944412636093716  0.3098069712966023  0.3952241721261274
  0.3017802361314068  0.3922184243766793  0.4884274779657787
  0.2872470957251281  0.4888946222368844  0.5957938681246162
  0.3053016995805251  0.5759911033605150  0.7082042560211121
  0.3070902997596292  0.6923127751331464  0.7950619027195174
  0.2928183371824460  0.7965127756044694  0.9051778319272259
  0.2908391563369008  0.9093568379129948  0.0021907772069554
  0.3066847551491705  0.9983360630626379  0.1052079125229781
  0.4066224706603165  0.1013927708912661  0.3115626888815584
  0.3926950002356620  0.2080686392986735  0.4097427468539365
  0.4020145553094210  0.3016494900315791  0.4941847099024343
  0.4004707404439856  0.4126425536126703  0.6036052867983202
  0.3970220205495565  0.4825693755007805  0.7076974011405923
  0.4039151322053058  0.5954819055474374  0.8064918994202728
  0.4032987085827386  0.7075184997879091  0.8984719281708067
  0.3937126261959776  0.7874427539237416  0.9992640990714960
  0.3964399759626716  0.8948783711174997  0.0977154913512734
  0.3958046340198891  0.9942877159824661  0.2140826610736681
  0.4969500504312592  0.1006218211811287  0.3964618579441037
  0.5023175741150965  0.1986002578121315  0.4861868553518391
  0.4966284790498179  0.3118486421265985  0.5856653150775344
  0.5014718937644318  0.4026693274261177  0.6925793255408408
  0.4955047838997046  0.5009987156525426  0.8150418353207343
  0.4979301852288245  0.6039779563557559  0.9099888042607347
  0.5031990517038238  0.7181895192534284  0.9934698142998570
  0.5049533704105187  0.7939124296554638  0.0947629170005158
  0.4931861903190864  0.8993329316114469  0.2149622218032690
  0.5060350063628221  0.9874433539143155  0.3079960706037639
  0.6069605076118236  0.1039074779657838  0.5039161587406298
  0.5972613187538300  0.2095805047839008  0.6072417575529059
  0.5983849483904393  0.3040196757317233  0.7045302743083397
  0.5933804472828399  0.4140312103501884  0.8136803468916440
  0.5896704025074229  0.4977294169769522  0.9121198963095623
  0.5778169354762710  0.5954541103831801  0.0055131668002062
  0.6024209949568728  0.7081759518310804  0.1045205071404993
  0.5952432294857886  0.7974418117547231  0.2033076919451418
  0.6122752457934695  0.8963098854692007  0.3117856058820792
  0.6011817665079917  0.9949066771928159  0.4054427718339042
  0.6942388645897140  0.1176821850402945  0.5948755351840518
  0.7088800636282215  0.2025891007211200  0.7115422128481868
  0.6844385318376780  0.3028922194466688  0.7993499080925659
  0.6922276061648702  0.3992339949097428  0.8994465442805293
  0.7044418678418225  0.5075554687279080  0.9979233345901903
  0.6862842828863620  0.6002806414667461  0.1136659909506506
  0.6934303977942236  0.6862699533393055  0.1988038916906234
  0.6991339656878921  0.7917446217655666  0.2800463303011753
  0.7123847127303549  0.9014988744874373  0.3989426252533335
  0.7104648060517533  0.0113125790639614  0.5178360710750809
  0.8107023085261815  0.0980244266390145  0.6988765211858450
  0.8028505325917905  0.2070371560541062  0.8069402516849706
  0.7801037276712037  0.2985171296601763  0.8894899750200338
  0.7819040962435793  0.3938295498892401  0.0049289927887983
  0.8140189324598168  0.4899321157562326  0.0966989522552666
  0.8113863086204489  0.5971621840976553  0.1957900650421820
  0.8023845746335496  0.6918531649149244  0.2858052943394469
  0.7976059824668909  0.7936814907856942  0.3929805750106041
  0.8076853546684291  0.9050469986331748  0.5004472559739810
  0.8176585440920050  0.0142596366121523  0.5975691667059451
  0.8887176000377082  0.1105313696564068  0.7902140387425192
  0.9102925776499973  0.1972276598953684  0.9041230640524134
  0.8943836923221937  0.3117211665174153  0.0005003313380811
  0.9117597718810373  0.4055617797049536  0.1014703808266972
  0.9023997337041081  0.5033510142810016  0.2010659829382107
  0.9127752834990801  0.6069258594523248  0.3009089866616392
  0.9109290879954770  0.6932428298062874  0.4042364420040556
  0.8940523679125221  0.7941051689682794  0.4917799255314108
  0.9091173243154103  0.8990728496017368  0.5924463383136143
  0.8937132582363176  0.9904942310411471  0.7011687269642266
  0.9903718579441048  0.0917247923834665  0.8955200961493119
  0.9996919262855286  0.2064298345666202  0.9978742965546488
  0.0191383334118882  0.2997030183343554  0.0902687566573945
  0.0179956384031641  0.3986563698920662  0.1948164000565598
  0.0020862892963223  0.5090028976763890  0.2991765258990426
  0.0001482556440564  0.6187780506197882  0.4045082782674285
  0.9959472220389287  0.7061080444926233  0.5007725498421109
  0.9911387066974626  0.8059481090634861  0.6061734321534615
  0.0109692275062443  0.9154293448649682  0.6940427600509054
  0.9918803827119760  0.0007256501861690  0.7866637988405500
  0.1872964806523072  0.1945327232879279  0.9885191257010888
  0.2027139543762075  0.2998443978884850  0.0956797271056260
  0.2012925479568253  0.3973487363906330  0.1990349870386936
  0.1960944431352232  0.4965472404204192  0.2971429061601540
  0.1951599858603927  0.6031935405571005  0.3943671791487944
  0.2088437927133882  0.6838442626195942  0.4983749879813359
  0.1854578286279889  0.7925499971720811  0.6218462888249974
  0.1932746208229261  0.8941956911910296  0.6931080543903505
  0.1926805538011962  0.0033587566573985  0.7991505646415575
  0.2099721364943221  0.0983410958193929  0.8870644624593496
  0.3024484705660555  0.1961598600179073  0.1036988980534446
  0.3091488009614949  0.3038096941132125  0.2071485040297887
  0.2964501263138075  0.3980040057501029  0.2977705849083279
  0.3028219578639764  0.5055735231182510  0.4188553306310965
  0.2903399387283798  0.6049959796389714  0.4952579577697094
  0.2929773606070611  0.6990504378564353  0.6129168803318095
  0.3042390418060990  0.7993738473865264  0.7017209440542942
  0.2968330056087112  0.9040778503087168  0.8087539449498067
  0.3037043135221751  0.0109962954234817  0.9031246863364260
  0.2869366861479037  0.1068616161568556  0.9995912551256083
  0.4111271093934121  0.1929573799311868  0.1986630602818522
  0.4135847122590377  0.2943702601687335  0.3194754239524897
  0.4081362464061868  0.4039959961351727  0.4040519234576081
  0.3965662006881274  0.5026198256115393  0.4942299552245828
  0.3857048866475026  0.5949751312626645  0.5976676778055321
  0.3988741099118656  0.6953439529622472  0.6944806560776726
  0.3960570207852214  0.7982881675071880  0.8013798812273194
  0.4064139482490461  0.8927173530659402  0.9042556256775214
  0.3895279247773047  0.0059548512984904  0.9990408573313871
  0.3953874011405958  0.0954002611113722  0.0939521704293753
  0.5144431861243319  0.1998273276146492  0.3079619983975093
  0.5088471527548677  0.2989937974265899  0.4154584144789553
  0.5197329961823058  0.4060556082386739  0.5038240382711976
  0.5089299712494721  0.5085503388792034  0.6140646844511508
  0.4907341626997237  0.6042810180515659  0.7081324188151044
  0.4992326436348193  0.7062076287882348  0.8030229207710775
  0.5041734811707599  0.7990906659753989  0.9051321539331667
  0.4967758212753921  0.9021537606636159  0.0095413423198352
  0.4888896875147282  0.0000297671678382  0.1049971310741356
  0.4808044087288508  0.1029670094735380  0.2058521115143535
  0.6123431842390517  0.2037717731064745  0.3922525606824721
  0.6144157779139334  0.2993678338125108  0.4953490733845527
  0.6122192944337073  0.4001498190130590  0.6056754574162255
  0.6045691398406916  0.5026783814865468  0.7021690352076178
  0.6020398845265618  0.5949599156336873  0.8003357326672003
  0.6079616694160350  0.6952825276900612  0.8872860781448821
  0.6010977291794291  0.7991043498138310  0.0023189187915378
  0.5915174850355811  0.8978410703681021  0.1013312084649129
  0.5964547754159426  0.0013667841824940  0.2000231286232719
  0.5872282707263068  0.0844029636612120  0.3001765348541241
  0.7134500513738971  0.2116856129518752  0.4917292567280924
  0.7087969123815796  0.2927729745015810  0.6104848324456782
  0.7072759560729622  0.4073346528726987  0.7015045765188290
  0.6919404458688803  0.5042605962200142  0.8094876448131245
  0.7018653659801117  0.5911106070603793  0.9166626968940008
  0.6905892751095806  0.6960251029834552  0.0156665145873589
  0.6921134505349471  0.8135343394447858  0.1247635169910950
  0.7035280840835156  0.9121883975114287  0.2014971749069119
  0.7051176961870169  0.0089380817269173  0.2964960489230322
  0.7049006471225923  0.1021147466654071  0.3959328392326924
  0.8056534133006537  0.2044682622425427  0.5988458405995161
  0.7975252080878548  0.2896329749728963  0.7111923467031147
  0.8068092614412947  0.3925604524673645  0.7996423372767154
  0.8023278974407333  0.4995479030965768  0.9231183437809278
  0.7951325352311827  0.6027280991657662  0.0169326648442265
  0.7894370485931077  0.6994807197058961  0.1084255073761611
  0.8108018513456159  0.7982017321016173  0.2061944916812024
  0.8069674666541005  0.9125793486355249  0.3037470415233088
  0.8049374407314858  0.0086880633454314  0.4058141947494960
  0.7992341080265817  0.0978762525333465  0.5041130178630340
  0.8981756464156092  0.1968154951218395  0.6993571348447034
  0.9043190078710452  0.2841275514917285  0.8049709482961802
  0.9006446990620702  0.3853723339774717  0.8961270066456137
  0.8912907135787336  0.4915849488617638  0.9934248352736006
  0.9049235165197729  0.5902855182165254  0.1085721133996316
  0.9154078225008249  0.6975553164914956  0.1967196465098766
  0.8944079638968745  0.8006587797520837  0.3127789927888003
  0.9063955592213802  0.9171893542913665  0.4144471730216353
  0.9087004048640210  0.9966770881840006  0.4996994881462982
  0.9096901333836058  0.1054050228590313  0.6030860164019387
  0.9959183852571059  0.1936900923787519  0.7852377994061399
  0.0015587543007953  0.2920764236225679  0.8789780119715331
  0.0065686774756060  0.3881925149644161  0.9891980006598473
  0.0025572842531929  0.4903247334684480  0.0919494141490347
  0.0126648414007633  0.6096512339161961  0.1885006362822281
  0.9938966588113303  0.6944592722816623  0.2962581052929281
  0.9961399109204905  0.8017356402884488  0.4031171744355930
  0.0077625201489369  0.8936170853560839  0.5017998562473522
  0.9993994023660306  0.9925583334118855  0.5945105344770667
  0.0016857835697763  0.0987720837064643  0.6905861516708285
  0.0953437319130899  0.1923102856200245  0.8876272960362002
  0.0973120780506207  0.2991399010227624  0.9898871362586590
  0.0995343394447872  0.3897287090540615  0.0894040274308310
  0.1080333345901892  0.4943747683461339  0.1941104354998373
  0.0998172767120735  0.6103539157279556  0.2883692972616316
  0.0999337950699939  0.7029098190130583  0.3929113969929787
  0.1020898958382404  0.8018973714474242  0.4844817066503282
  0.0930106004618949  0.8897732393835156  0.6066745095913646
  0.1072291318282481  0.0049910213508042  0.6919084474713699
  0.1008541070839399  0.0925042418815067  0.7793939091294746
  0.2885784399302480  0.2773444436065446  0.9852437281425281
  0.3084563491539782  0.3900365084601987  0.0861565372107265
  0.3100024018475764  0.4871873026346805  0.1974993919969847
  0.3065141848517712  0.5906148154781548  0.3032926690861117
  0.3001323815808092  0.6878081599660675  0.3943644360654162
  0.2916363703633849  0.7975145505962189  0.5107181594947434
  0.2977234486496698  0.8857532865155306  0.5879359758684046
  0.2866336192675689  0.9952927822029523  0.6957049408493177
  0.3081582353772916  0.0941379233633413  0.7737348621388520
  0.3065267427063176  0.1824964585002604  0.8899658702926914
  0.4035799260027346  0.2963837757458663  0.0951278677475642
  0.3958318848093541  0.3849212211905524  0.2161735518687848
  0.4068167987934217  0.4960426436348229  0.2974582448036927
  0.4050339011170294  0.5950110840363863  0.4059439242117193
  0.3908394782485729  0.6926826224254157  0.5045905410755509
  0.3984648470566086  0.7941035763774309  0.6114405853796470
  0.3963575500777665  0.9042306070603772  0.6984550992128931
  0.3977788245274994  0.0043365009190737  0.7985948220766375
  0.3919696177593437  0.0975318343780955  0.8951792944337100
  0.3998417335155793  0.1932764245652052  0.0035373205448437
  0.4972844638733065  0.2909652500353488  0.1994521148135959
  0.5071473040486367  0.3973426243106957  0.3061882514021761
  0.5146072522034189  0.5073182075694049  0.4218878658622813
  0.5126811118442731  0.5964537964839494  0.5133652514493079
  0.5037134194278181  0.6916227261158525  0.6033458363576401
  0.4842124692463585  0.8004050440684338  0.7037203412358011
  0.4990528491304147  0.9045676000377085  0.7996344530329438
  0.4973995941933325  0.0039575298110037  0.9018075024744334
  0.4981623631993202  0.0908118060988841  0.9932071225903769
  0.4996122943865799  0.2015719309987247  0.1046865631333347
  0.5918286581514849  0.3098064509591367  0.3007571777348375
  0.6067096229438675  0.4038019206296823  0.3942441777819639
  0.6137574624122166  0.5086648682660098  0.5038875071876348
  0.6052324551067514  0.6102487571287156  0.5969015006834155
  0.5907974492152519  0.6999506461799498  0.7061365339114829
  0.5938714502521591  0.8064666211057201  0.7889734981382830
  0.5871145067634416  0.9032940788047341  0.8924822156761110
  0.6016875180279939  0.9969056294480865  0.9980354574162220
  0.5923016302964612  0.0967454904086367  0.1043923806381670
  0.6101072932082729  0.1959029268982420  0.1946531922514936
  0.7052022203893102  0.3123368548805203  0.3833710185228796
  0.6933520097091943  0.3941680086722883  0.4993984776358573
  0.7058567068859887  0.5099916835556400  0.5883718852806723
  0.7077275835414980  0.6012450129613072  0.7013656666823778
  0.7001026337370959  0.6923778243861065  0.8048828015270786
  0.6942703195550735  0.8025995300937936  0.9029654385634132
  0.6850030626384509  0.9219821063298284  0.9943944327661782
  0.7019476174765487  0.0020056252062020  0.1076112626667296
  0.6938188707168749  0.0921381269736514  0.2073970221991814
  0.7006547372390060  0.1905655450817747  0.2976959692699239
  0.7969768228307501  0.3069123287929472  0.5015321063298330
  0.7931388645897144  0.3914013767262077  0.6129727774897518
  0.7946188933402425  0.5034601093462783  0.7211370641466743
  0.8021255398972542  0.6084864448319749  0.8225432714332825
  0.7985717900739999  0.7106646750247450  0.9247062416929808
  0.7808699849177572  0.8184074850355856  0.0173754060423263
  0.8037340722062467  0.9091725861337636  0.1036651208936235
  0.8141752062025702  0.0068924456803501  0.2058670966677667
  0.8075733199792623  0.1076950318141101  0.3015138327756048
  0.8031644370080571  0.2125402304755610  0.3979267625017684
  0.9016816788424364  0.3056829528208524  0.6123450011782978
  0.8886897996889260  0.4106354852241125  0.7051874303624430
  0.9042299990573568  0.5120493231842360  0.8014011966819083
  0.8938841612857615  0.6127590451053422  0.9116929462223666
  0.8907613107413894  0.6948630876184225  0.0157615365037458
  0.8999090766837909  0.7941586845454083  0.0941811943253086
  0.9054548677946954  0.9083004750907264  0.2052906607908724
  0.9022685907526977  0.0170931130697056  0.3026687255502694
  0.8948519220436424  0.1097336758259857  0.4001763237026879
  0.8935604406843538  0.2089456365178890  0.5106139821840969
  0.9962122095489434  0.3035834076448154  0.6960183466088523
  0.9946280199839777  0.4059613814394112  0.7923166592826476
  0.9951378569071991  0.5092625950888419  0.9069686967997370
  0.9980942187868251  0.5985882052127991  0.0174096177593412
  0.0134044337088213  0.7149307347881404  0.0927587194231023
  0.9959744827261190  0.7931378823584865  0.1932584983739432
  0.9957664292784116  0.8928074831503068  0.3088122170900718
  0.0154404604798017  0.9982505500306331  0.3844327685346656
  0.0080363024932808  0.1041295267945515  0.4894567238535146
  0.0065812471131608  0.1941175665739721  0.5942767262101114
  0.1049682136965657  0.3057102163359602  0.7998479280765451
  0.0985223528302797  0.4168360286562631  0.9078066064947947
  0.1091740773907688  0.5000800546731412  0.0160902186925611
  0.1022285242965566  0.6064789371730228  0.0981697096667773
  0.1078059362775150  0.7055333798369219  0.1969576391572829
  0.1031755936277534  0.7947678729320842  0.2958794023660261
  0.0988346486308131  0.9142229400952075  0.4004247325258063
  0.0899340373285540  0.9971647980393072  0.4926444520903033
  0.1006819517368172  0.1020702606400548  0.6023576283169163
  0.1023439374086834  0.2176011608615767  0.6898709850591516
  0.1994423679125248  0.2954959970778148  0.8916340151765070
  0.1956612325022391  0.4040673035773210  0.9897009893010349
  0.2062189960880403  0.5011282598859381  0.1144593509921279
  0.2223838695385751  0.5909461488429102  0.2007678663335994
  0.2191913130979870  0.6933285096856281  0.3030316769571542
  0.2156787198944272  0.7983208120846470  0.4000231818824531
  0.1962873356270904  0.8885068383843162  0.5006926799264733
  0.1919717405853802  0.0039682839232711  0.5845866522128489
  0.2090718207098092  0.1130798953669228  0.6886768412122350
  0.2016369576283168  0.1990413804967730  0.7922332247725876
  0.3993964877221075  0.3826708271668977  0.0045679549417912
  0.3976312999010219  0.4922319281708099  0.0998182584719771
  0.3959814761747680  0.5944742131309795  0.2068646076259597
  0.4067043997737656  0.6909984026959535  0.2994199043220078
  0.4021790865815120  0.7943407545835868  0.3993817250318159
  0.3906505933920883  0.8928266880331819  0.4981470518923530
  0.3944495819390141  0.9889507432719071  0.6011315737380372
  0.4018228722251038  0.1061013225243883  0.6843007941744830
  0.4105370768723162  0.1920034085874534  0.7942187736249267
  0.3798364108969210  0.2933733821935220  0.9039695093557043
  0.5005198312673826  0.3843922882594129  0.1157024272988636
  0.4871817061790082  0.4903709153037639  0.2038103836546199
  0.4885242362256648  0.6004016114436510  0.2979766286468433
  0.4864176325587977  0.6848694938021396  0.4044556996747914
  0.5037634882405584  0.8035226728566727  0.4971417476551849
  0.4936396813875632  0.8890252005467332  0.6007503633878528
  0.4986064877221068  0.9987251020408152  0.6985131404062770
  0.5094390436913798  0.0987698340953003  0.7936997714097203
  0.4830231550172002  0.2071693354385644  0.9032169628128415
  0.5070314219729468  0.2911351076966611  0.9850914012348611
  0.5956877932789766  0.3968134387519413  0.1941114059480640
  0.5955053197907318  0.4929129278408837  0.2919876042795906
  0.5964406023471724  0.6111203544327637  0.3875467912522979
  0.6068070009897752  0.7004025734081125  0.4976306028184965
  0.6023620007541126  0.7935497431305052  0.6005344963944026
  0.5907446905783118  0.8922856204929985  0.6946226855823170
  0.5992393481642111  0.9975583084319197  0.7884273172456062
  0.6030716397228630  0.0949616109723337  0.8983186232737879
  0.5971744087288471  0.1947401418673707  0.0043243828062387
  0.6062609765753848  0.3018368402695941  0.0993303091860298
  0.7108495762831666  0.4186188914549689  0.2873674939906650
  0.6856397497289919  0.5008531253240349  0.3909522533817196
  0.6914607578828296  0.6043288198142989  0.4996911801856996
  0.7064079228920193  0.7013197341754278  0.5947346674836211
  0.7049938813215846  0.7882451769807233  0.7075306358109046
  0.6890056761087777  0.8957925767073576  0.7925643502851472
  0.6973313409058761  0.0129318296648933  0.8963063043785624
  0.6935312678512489  0.1111894579818085  0.0034147461940890
  0.6999622175613922  0.1932670500070728  0.1125817316302999
  0.7013866055521518  0.2994952585191086  0.2118444831974386
  0.8083886713484461  0.4165725281613817  0.3904807984163625
  0.7908474935193510  0.5006435744921518  0.4982562662016292
  0.8053942800584437  0.5914727058490854  0.6000225130791321
  0.8251067634444098  0.6982014441249973  0.7026098845265594
  0.7997980883253959  0.7967603827119731  0.8005243460432681
  0.7950500947353518  0.9074125371164641  0.8899965414526108
  0.7910676457557599  0.0061186902012551  0.9939381524249455
  0.7944239242117135  0.1084209577225792  0.0968456289767659
  0.7989422807182933  0.2069962134137739  0.2090798086440131
  0.7999565362680841  0.2975574364896048  0.2976734642032355
  0.8962284352170400  0.3972880275251001  0.4907517452985815
  0.9005064792383450  0.4841548470566082  0.6002189871329620
  0.9014602017250297  0.5852428368760911  0.7150161299901043
  0.9004694735353738  0.7014396705472024  0.8012987623132375
  0.8879418372060144  0.8061176730923307  0.9088986482537607
  0.8955076137059876  0.8911212923598981  0.9990095927793732
  0.9092685733138524  0.9991421181128359  0.0887978319272307
  0.8999080082009741  0.1163594433708823  0.2016253862468744
  0.8994736112551251  0.2028583555639329  0.2968685012018639
  0.8964029957109858  0.3057356619691731  0.3979007781495980
  0.0089872036574477  0.4019900216807244  0.5956205613423222
  0.9959411599189352  0.5040553447707055  0.6986349545176012
  0.9916416180421379  0.6146938850921444  0.8156296135174657
  0.0019450030635824  0.7032627770184305  0.9166370594334765
  0.0203407559975517  0.7994740085780236  0.9902772592732276
  0.0066913781401681  0.8921499095065286  0.0952741707121660
  0.9860861540274328  0.9976315185935789  0.2112755686477854
  0.0006898741575156  0.0989962247254539  0.2901439086581519
  0.9985821393222452  0.2130366776641353  0.4072568364990303
  0.9863055497949773  0.2896828844794257  0.4981573266720076
  0.1021675552622909  0.3989543055097329  0.6919886213885107
  0.0944413093274292  0.4980195890088126  0.8078896337842281
  0.0925166102653563  0.6028354842814707  0.9103633001838176
  0.1069868190601895  0.6984182103973211  0.9955477758401301
  0.1135343790356771  0.8148583635763771  0.0938459838808470
  0.0943816255832601  0.9081371423858258  0.1930609247301689
  0.1105269632841583  0.0049131224961130  0.3027003643304909
  0.1071399773766331  0.1033718796248309  0.3868802941037828
  0.1067695263232338  0.2069857585898092  0.4892865928265095
  0.0989640948296184  0.3034156907197030  0.5872069750671614
  0.2125325894330032  0.3975589781778766  0.8120185092143117
  0.2005635372578567  0.5100242385822682  0.9051374859782229
  0.2048605090257780  0.5991287854079275  0.0043518235377320
  0.2007308563887449  0.6895897134373357  0.0981238553989741
  0.2022298826412765  0.7993838860347822  0.1971226172408933
  0.2113715723240830  0.9046597436018260  0.3018066338313616
  0.2002120601404513  0.9971489546118661  0.4010510208794855