Li 
 1.0000000000000000
    21.2169999999999987    0.0000000000000006    0.0000000000000000
     0.0000000000000006   21.2169999999999987    0.0000000000000000
    -0.0000000000000006   -0.0000000000000006   21.2169999999999987
 Li 
 500
Cartesian
 -0.2486653200000000  0.1381952500000000 -0.1957731000000000
 -0.1098170400000000  2.3833681900000001  2.0694387700000001
  0.0494947600000000  4.3711116700000003  4.0194970400000001
  0.0850854500000000  6.4485162699999998  6.3176037999999997
 -0.2405645100000000  8.6217753600000009  8.1874195699999994
 -0.0593327800000000 10.5608178000000006 10.4434627199999994
  0.1599176100000000 12.6729082999999996 12.6637389999999996
  0.0604524700000000 15.0807982599999999 14.6838099000000000
 -0.1146195300000000 17.2186748999999999 17.4931886299999988
  0.0163466600000000 19.2325593899999987 19.0219820599999991
  1.5253310600000001 -0.0477458200000000  2.2611428199999999
  2.0067815000000002  1.8835096499999999  4.3341731100000001
  2.3084271799999998  4.2648150400000002  6.1645555600000002
  1.9665147599999999  6.3432310799999998  8.4595363599999995
  2.0016992199999999  8.2935423499999992 10.3034349800000005
  1.9829637099999999 10.3649530999999993 12.7626900100000000
  2.0574718299999999 13.1505943599999995 15.1643009200000005
  1.9403861200000001 14.9334854700000008 17.2466595799999993
  2.4305099600000002 16.8873765300000009 18.9836250000000000
  2.0179947500000002 19.4660698900000000 21.1396007099999999
  4.3333944300000002 -0.2243938200000000  3.9800246399999999
  4.3686603599999998  1.7070611200000001  6.3467214099999998
  4.3569855999999998  4.3056083699999999  8.2743649200000000
  4.2257898300000001  6.6260601200000000 10.4343530300000005
  3.8462520100000002  8.5987653900000005 12.5855476599999996
  3.9524480600000000 10.4988004200000002 14.9218083299999993
  4.3029392399999997 12.4126559499999995 17.1252935800000010
  4.5108099800000003 14.6336946399999999 18.9413839999999993
  4.3160289399999998 17.0672467899999987 -0.1533704100000000
  4.0799641500000003 19.4935956899999994  1.9338805100000001
  6.2200197199999998 -0.0345518800000000  6.3388535499999996
  6.5059939900000003  2.1269035000000001  8.3174378099999995
  6.3062035400000003  4.3255713399999998 10.4456651500000000
  6.3547609500000002  6.4927903899999997 12.5577357400000000
  6.1806102899999997  8.5429900900000000 14.8241274500000006
  6.2096260900000004 10.5063665099999994 16.9864701099999991
  6.7191084600000002 12.3871226900000000 19.2078470000000010
  6.3995777599999997 14.8829583299999992  0.1071709100000000
  6.2698151099999997 16.9583605199999994  2.0466369200000001
  6.2021749699999997 19.0918673800000001  4.3430079199999998
  8.2861346600000001 -0.3859363500000000  8.3893947499999992
  8.4617731700000007  1.8417685200000000 10.4616071300000009
  8.7709612400000001  4.3478225100000003 12.2855762100000003
  8.6069923799999994  6.6569788000000001 14.6986658299999995
  8.3263437600000003  8.5383313399999992 17.1014842700000003
  8.5834469500000008 10.4541750699999998 19.1426174799999984
  8.8864610000000006 12.7007001099999997  0.0689054500000000
  8.5702453199999997 14.8336396199999996  1.9554608899999999
  8.2980385800000001 16.7762074500000011  4.3436452399999999
  8.2854645999999992 19.0798996999999986  6.2516263299999997
 10.3625854900000007 -0.0314829800000000 10.6941298400000004
 10.7819669200000003  2.1495454700000001 12.7586222300000003
 10.4426171700000001  4.3560257399999998 14.7346013899999999
 10.4747496000000009  6.5356014299999998 16.7642012600000001
 10.6699090499999993  8.2952759300000007 19.4381281900000005
 10.4238129300000004 10.1463600399999994  0.4345701400000000
 10.4798384700000007 12.7081582100000006  2.2893807200000000
 10.3044729400000001 14.8962335800000005  4.1924667900000001
 10.4510209300000003 17.2408350500000012  6.4457827400000003
 10.3522863399999991 19.0117834999999999  8.7948302599999995
 12.5424377600000003  0.0880677800000000 12.7996732600000005
 13.0239837000000005  2.1291811300000001 14.5727460999999998
 12.6621575499999999  4.4234429700000000 17.1182660400000017
 12.8108256500000000  6.5739616800000000 19.0502827799999999
 12.6490348699999995  8.4356513700000004 -0.0047291700000000
 12.5770563299999996 10.4975576000000004  2.5240776700000001
 12.4597071699999997 12.6645381799999992  4.6228762999999997
 12.3352665500000001 14.8646126100000000  6.3071611499999998
 12.8374350100000001 16.9927797600000012  8.4352787800000009
 13.0182715899999994 18.8240685300000017 10.6063225899999996
 15.1128494500000006 -0.3285149700000000 14.6501188500000001
 14.9901473799999998  1.9803557300000001 16.8687670700000005
 14.5785499200000004  4.0586201099999997 19.1799823399999987
 14.8868701199999993  6.2465199699999996  0.2568838000000000
 14.9576956499999998  8.8079412300000008  2.4328177200000001
 14.7865645899999993 10.8322249900000003  4.0447197600000004
 14.7117874600000000 12.8034705500000001  6.3340799299999997
 14.9194875299999996 14.8773720600000008  8.4912440000000000
 14.9455739399999992 17.0354272000000009 10.5943339999999999
 15.0956709900000003 19.0231865300000003 12.8764442799999994
 16.9559301699999985  0.0413740200000000 17.1767590800000001
 16.8641663299999998  2.4397660600000002 19.1417506400000015
 17.0109509900000013  4.1262034200000004 -0.0708633200000000
 17.1136435200000001  6.5287115000000000  2.4695536100000002
 16.9363327400000010  8.6248113199999992  4.1384670200000002
 16.9432429099999986 10.6451290400000005  6.4111402499999999
 16.8876084300000002 12.4841181199999998  8.3343544499999993
 16.9110856799999993 14.4292278500000002 10.6426611500000003
 17.1134441300000013 16.8007875800000015 12.7370020000000004
 17.1154904399999985 18.9932808900000012 14.7631124499999995
 19.0548976699999990  0.0578385800000000 19.0742961700000002
 18.8273825499999994  2.3733916599999998 20.9896478199999983
 18.9359843199999993  4.1220247399999996  2.0503238300000000
 19.0958864099999985  6.3942949200000001  4.1355858300000001
 19.0357368899999990  8.5778810799999992  6.0253573200000003
 19.1326565100000003 10.7104760799999994  8.2036314800000003
 19.0108113500000009 12.6466954000000005 10.6091956700000001
 19.4682059000000010 14.6244347900000005 12.9614664499999996
 19.4586990299999982 17.0637899699999984 14.8459947000000003
 18.6534387700000011 19.0872097799999985 16.9249802699999989
  2.0138336099999998  2.1786128699999998 -0.1975850200000000
  2.5581440999999998  4.2729718800000001  2.1620652800000002
  2.1529820200000001  6.3905590300000004  4.1911086400000004
  2.1450279100000000  8.5802238099999997  6.1737480400000004
  1.9342111700000000 10.7547449099999994  8.4418870100000003
  1.8900840400000001 12.7184396700000004 10.5925395800000004
  1.9243968700000000 15.0166441099999997 12.6857169299999999
  2.1037938700000001 16.8920704999999991 15.0304164900000004
  2.2722253200000000 19.1028163599999985 16.7832084200000011
  2.0297377000000001 21.3631347299999987 18.9175580799999992
  4.1817406200000002  1.8543032900000000  2.5620372300000001
  4.5125469599999999  4.0675579099999997  4.1866777600000002
  4.1720788500000001  6.2956138499999996  6.2387174300000003
  4.0835672599999997  8.5670066899999995  8.3170336099999993
  4.1437838899999999 10.6284165900000005 10.5324190800000004
  4.1820667000000000 12.6714912399999999 13.2033071900000003
  4.2602193000000002 14.5615057500000002 15.1336087500000005
  4.3695758400000004 17.1402780499999992 16.9492990699999986
  4.4080111799999999 19.4376954700000013 18.9282205499999989
  4.0870197700000004 21.3675332500000010 21.1769019900000011
  6.3825155000000002  1.9606573800000000  4.1792700700000003
  6.5759213100000000  4.0265411999999996  6.0247829499999996
  6.2471602900000001  6.5731745100000003  8.3854712599999992
  6.4028712700000003  8.3216983100000004 10.3629657999999996
  6.0945216300000000 10.3728771999999996 12.6409585000000000
  6.4775861600000004 12.2208032400000004 15.0259696999999992
  6.5155348899999996 14.6888001500000005 16.8688283900000009
  6.2127266600000004 16.8996115600000003 19.2051580599999987
  6.1707343799999999 19.2938240299999997  0.0464817200000000
  6.5069304499999996 21.1816962500000017  2.2321962800000001
  8.6273089600000006  2.1512504200000002  6.6104255700000003
  8.3318098200000001  4.4145923199999997  8.6935118599999992
  8.5295428199999996  6.4000972300000001 10.4851169899999999
  8.4967877000000005  8.7550370599999994 12.8066933699999996
  8.4236162100000005 10.2386744400000005 15.0152157600000002
  8.5698673599999999 12.6343395899999997 17.1113386299999988
  8.5567887000000002 15.0114200100000001 19.0628789000000012
  8.3534007900000002 16.7071729100000006 -0.0156136100000000
  8.4112669699999998 18.9866343999999998  2.0732295800000000
  8.3977869199999997 21.0958024699999989  4.5421918200000002
 10.5437892200000007  2.1348931800000002  8.4117312399999999
 10.6576719700000009  4.2137016699999998 10.3154265100000000
 10.5369664400000005  6.6164926399999997 12.4260609899999999
 10.6397291700000007  8.5434351199999998 14.6944555500000007
 10.5131250000000005 10.6296897500000007 17.2927426199999985
 10.5645847400000008 12.8146003000000004 19.3072324600000016
 10.6763742799999992 15.2378270300000001 -0.1385509500000000
 10.7135956599999993 16.8444400200000004  2.0105848100000001
 10.4639313999999999 19.0811468099999999  4.5608534599999997
 10.7365447300000003 20.9505856399999999  6.5347526299999998
 12.8778810900000007  2.2046049600000002 10.6915891399999996
 12.6720933999999996  4.4466695700000001 12.8838483700000008
 12.6959334500000001  6.4503854599999997 14.9480188300000005
 12.5897529499999994  8.7845001899999993 17.2638559200000010
 12.5110369299999995 10.5603250400000004 19.3524478400000000
 12.2595419200000002 12.6337498600000000  0.1169728600000000
 12.7815662499999991 15.0253691699999994  2.2176116000000001
 12.6292755999999997 16.9193229199999990  4.3135792999999998
 12.9906438899999994 19.0170068400000005  6.6151552000000002
 12.7552735399999992 21.1089349700000000  8.6022792900000002
 14.7296659900000009  2.4968629199999999 12.6214742300000005
 15.0403083100000003  4.2983329499999998 15.0967911299999997
 14.5217323300000007  6.4264642199999997 16.9598070000000014
 14.6869931200000003  8.4705476700000002 19.0835573300000014
 14.9461431099999995 10.7688043800000006 -0.0440606100000000
 14.5608936300000007 12.7361543699999995  2.4116513300000002
 14.7125127500000001 14.5605896000000001  4.2180221700000002
 14.8335253500000004 16.7984456400000006  5.9417429899999998
 15.1146664499999996 19.1271016200000012  8.4643656800000002
 15.0739317899999996 21.4570189900000017 10.9869279199999994
 17.2006708800000006  2.0797842599999998 14.8280631500000002
 17.0340797500000001  4.3927073400000003 17.1208513199999999
 16.5514607900000001  6.3336379400000000 18.8723087999999990
 16.5896592100000007  8.3558815600000003  0.1045784400000000
 17.2710396899999985 10.3948897000000002  2.0516616700000001
 17.2151833100000005 12.6699900599999999  4.1540778100000004
 17.0241935200000007 14.6790485999999998  6.0639309299999997
 16.9228061300000014 16.8395401900000010  8.3378688600000004
 17.1366601699999990 19.2023821699999999 10.6179894299999997
 17.3482613299999997 21.5195467100000002 12.6786250099999993
 18.8559213200000002  2.3451440699999999 16.7659712600000006
 19.3136776200000000  4.1845792599999996 19.1827790500000006
 18.9761388000000011  6.6137879899999996  0.0106155300000000
 19.3448070799999989  8.6048042799999997  2.1528970699999999
 19.1462151499999997 10.6795984700000002  4.2660169600000000
 19.3663531900000017 12.8771459600000000  6.3843859700000003
 19.3271824599999995 14.7085331200000002  8.5766845899999993
 18.9691090899999999 16.8485293700000014 10.4340946799999994
 19.2887422700000002 19.0756286499999987 12.5699339600000002
 18.9619141999999989 21.0153160999999997 14.8766968800000008
 21.0127197099999989  1.9461249199999999 19.0002498799999984
 21.2104636000000006  4.3798218000000002 21.1718989499999992
 21.6230580199999984  6.3587989399999998  1.9152322100000001
 21.5988134599999988  8.4582922000000007  4.1334195600000001
 21.2612647999999993 10.7995144799999991  6.3476283499999999
 21.2201455400000008 13.1286138999999995  8.5824521399999991
 21.1310122100000015 14.9814943800000009 10.6248911899999996
 21.0289899399999989 17.0998010299999983 12.8611817100000003
 21.4497341000000006 19.4226644099999994 14.7255052400000004
 21.0447260800000002 21.2323961200000006 16.6906458200000003
  3.9738694300000001  4.1274007900000003 -0.2435897100000000
  4.3009819699999996  6.3617985900000003  2.0300367700000002
  4.2708239900000002  8.4305481400000009  4.2229253199999999
  4.1605357999999999 10.5352428000000007  6.3044810399999998
  4.1407094200000003 12.7979573500000008  8.3672884399999994
  4.4310387499999999 14.5091237199999998 10.5740221200000004
  3.9348587500000001 16.8155332900000012 13.1937127099999998
  4.1007076299999996 18.9721499800000011 14.7056735900000000
  4.0881033100000002  0.0712627400000000 16.9555775299999993
  4.4549788200000000  2.0865030299999998 18.8208467000000006
  6.4170492000000001  4.1619237499999997  2.2001795199999998
  6.5592101100000004  6.4459302799999998  4.3950698099999999
  6.2897823300000004  8.4444509900000000  6.3177985000000003
  6.4249734800000002 10.7267534399999995  8.8868535499999997
  6.1601424800000002 12.8361996999999999 10.5078880899999998
  6.2161006600000004 14.8317531400000000 13.0042574500000008
  6.4550397500000001 16.9603149199999983 14.8884132699999991
  6.2979058800000001 19.1818197499999989 17.1593324500000008
  6.4436944199999999  0.2333084000000000 19.1615964699999992
  6.0879356700000002  2.2672829100000000 21.2083276599999984
  8.7228838799999995  4.0939767299999996  4.2150341500000001
  8.7750268400000007  6.2456538100000003  6.7783100699999999
  8.6594267400000007  8.5715830499999992  8.5727696600000005
  8.4139450799999995 10.6640848399999992 10.4860769600000001
  8.1835005800000005 12.6235873600000001 12.6807151200000003
  8.4629119900000003 14.7531126500000003 14.7347960800000006
  8.4031418099999993 16.9372800499999983 17.0028769400000002
  8.6228847399999999 18.9407840800000002 19.1855916099999995
  8.2646139800000000  0.1263440800000000 -0.0203501300000000
  8.3889344900000005  2.0241073400000000  1.9933832000000000
 10.9149410800000002  4.2397364099999999  6.5340297200000004
 10.7962100400000001  6.3437514000000004  8.8147811800000007
 11.0271749799999998  8.6152818399999997 10.6896346199999996
 10.7979672000000004 10.7899125399999996 13.0286104100000006
 10.4119067300000001 12.8210303600000000 15.0244455299999995
 10.5922190000000001 14.9836072599999994 17.0377373100000007
 10.6970487500000004 16.9543066600000003 19.2041889099999992
 10.5400925999999995 19.1409963400000009  0.2024386600000000
 10.3727725000000000  0.0006315700000000  2.2277241299999999
 10.2012271400000003  2.1846510399999999  4.3675642500000000
 12.9920853399999991  4.3234257100000004  8.3224225799999996
 13.0360595600000000  6.3516873299999999 10.5098212899999996
 12.9894567700000003  8.4899787100000008 12.8506161799999994
 12.8271434400000004 10.6653272200000000 14.8979204200000002
 12.7734802300000005 12.6232645300000001 16.9807232399999997
 12.8991227399999993 14.7518093900000000 18.8255487200000005
 12.7534905199999997 16.9545969899999989  0.0492005000000000
 12.5502264799999992 19.0494939899999984  2.1499442499999999
 12.6549809700000004  0.0289990600000000  4.2438907199999996
 12.4592222199999991  1.7907776799999999  6.3688455399999997
 15.1372697400000007  4.4913336499999996 10.4330196399999995
 15.0385440900000003  6.2117642000000002 12.9526566899999995
 15.0062739599999997  8.6424193299999992 14.8838226000000002
 14.6809004400000003 10.6988970699999992 17.1748993600000013
 14.8914774699999999 12.5415937500000005 19.4488324400000003
 14.6522326500000002 14.7675646100000009  0.3323964400000000
 14.6845710799999996 17.2607580799999987  2.6471075399999999
 14.9267553599999996 19.3539012300000017  4.2751655599999996
 14.9604821599999998  0.1896392800000000  6.2907566700000004
 14.9558770299999999  2.1665685799999999  8.4005070499999999
 17.0935484700000018  4.3382031200000002 12.7057122000000007
 16.9210923400000013  6.1451428300000002 15.0893680200000002
 17.1180720999999991  8.3289551199999998 16.9660114700000015
 17.0229910000000011 10.5989078600000006 19.5858018999999999
 16.8703269999999996 12.7880820800000006  0.3592603500000000
 16.7494858600000001 14.8408824300000006  2.3004639899999999
 17.2027828800000009 16.9354461500000006  4.3748285300000003
 17.1214287399999989 19.3621960400000006  6.4446009799999997
 17.0783576799999999  0.1843346400000000  8.6101597699999992
 16.9573500700000004  2.0766404500000002 10.6957658999999996
 19.0565926899999987  4.1758343599999996 14.8382603300000007
 19.1869363899999996  6.0283342600000003 17.0790686100000002
 19.1089785799999987  8.1764448099999996 19.0131267000000008
 18.9105150699999989 10.4299578600000000 -0.1395052700000000
 19.1997622499999991 12.5240878400000000  2.3035745300000001
 19.4222077700000000 14.8000311500000006  4.1738007399999999
 18.9766537699999986 16.9875773300000006  6.6362318900000004
 19.2309945800000008 19.4600065300000011  8.7933256699999998
 19.2798964899999987 -0.0705022200000000 10.6021240399999996
 19.3008955600000007  2.2363783700000002 12.7956760099999993
 -0.0865996200000000  4.1095226900000004 16.6603903899999999
  0.0330720900000000  6.1969854800000004 18.6492764800000010
  0.1393676300000000  8.2362805899999998 -0.2291860200000000
  0.0542579000000000 10.4032198699999991  1.9508907200000001
  0.2687099400000000 12.9349702299999993  3.9994179999999999
 -0.1294945900000000 14.7343423799999993  6.2857082200000001
 -0.0818995100000000 17.0104250800000010  8.5529370900000004
  0.1646973900000000 18.9598736999999993 10.6466875499999993
 -0.0127428800000000 -0.1578898400000000 12.6137300099999994
  0.0357672700000000  2.0956473000000000 14.6521663800000006
  2.0229079599999999  4.0802473299999997 18.8327883400000005
  2.0646703600000000  6.3468512800000001 21.0024353700000006
  2.1118200800000002  8.2688740200000002  1.8968852500000000
  2.2921432600000000 10.4891494600000001  4.1184411100000000
  2.1178231599999999 12.9498790300000000  6.1183313799999999
  2.1202953299999998 14.9136376300000002  8.3364011100000006
  2.1660413200000002 17.0138565300000018 10.2792483699999995
  1.9734059100000001 18.8783188200000005 12.8718130700000000
  2.2750804900000001  0.1058945000000000 14.6802215300000007
  2.1398215899999999  1.9626625000000000 16.5364005700000014
  6.1227687599999996  5.8844170599999996 -0.3130838200000000
  6.5445183599999996  8.2754045999999999  1.8279832499999999
  6.5773209599999998 10.3366530000000001  4.1903446000000004
  6.5033114599999999 12.5310745400000005  6.4349605600000004
  6.3679087399999998 14.5932257300000003  8.3672302399999996
  6.1876488700000003 16.9208662200000006 10.8359071900000004
  6.3167984099999996 18.7930274799999992 12.4742376000000004
  6.0815054999999996 -0.0998730400000000 14.7607717300000001
  6.5381932799999998  1.9973243199999999 16.4163325700000016
  6.5035778999999998  3.8720273600000001 18.8824058699999995
  8.5627552900000001  6.2883745700000002  2.0183279700000001
  8.3983650999999995  8.1668735500000000  4.5865542499999998
  8.6314320200000001 10.5245367699999992  6.3111715799999999
  8.5936042799999992 12.6243501699999996  8.6129122400000000
  8.2924412099999998 14.6966471999999992 10.7058975099999998
  8.4542286600000001 16.8484955800000016 12.9729349000000003
  8.4095181399999994 19.1850607900000014 14.8191218399999993
  8.4396733200000007  0.0920075400000000 16.9437863399999991
  8.3164193799999993  2.0693329299999998 18.9930190900000007
  8.4834420599999998  4.1007458999999997 21.2920513299999996
 10.5508844699999997  6.1734097099999996  4.2317755200000002
 10.7601443499999991  8.4304184600000003  6.4963961299999999
 10.9184220700000001 10.7637704099999993  8.9511948500000003
 10.8775551499999992 12.6549601999999997 10.8920705400000006
 10.6872876199999993 14.6741593800000008 12.8011886100000005
 10.2735359600000002 16.9821938199999991 14.9308344799999997
 10.5884043000000005 19.1922107699999991 16.9658441899999985
 10.5533271899999992  0.0839669100000000 19.1336497799999989
 10.5695108599999994  1.9267540900000000 -0.1441244800000000
 10.6002740499999994  4.2767516600000004  2.2211348100000001
 12.5568286400000009  6.5731634699999999  6.3811650400000000
 12.8725580700000002  8.5674653500000009  8.3646787200000006
 13.0220920800000002 10.7923425099999992 10.6909812399999993
 12.8412170000000003 12.9476478799999999 12.6644591399999999
 12.5349494799999999 14.8508528599999998 14.9820988400000008
 12.6001705600000005 17.1108022999999996 16.7396507099999994
 12.4568084900000002 19.1651904699999989 18.9357951699999987
 12.7660040699999993 -0.0656532600000000 -0.0416817000000000
 12.5668636899999999  2.0526490700000002  2.2148931400000000
 12.9446464399999996  4.1564724000000002  4.1299567799999997
 14.9622755099999996  6.6268510500000000  8.1339828999999995
 14.7108495900000005  8.3630626400000008 10.5957375000000003
 14.9761617499999993 10.8204935500000001 12.4834862900000001
 15.0158561400000004 12.7566154399999991 14.8808753500000002
 14.8540775800000002 14.6901802999999997 17.0771984000000003
 14.7303333700000003 17.0287542300000005 19.1582177099999988
 14.5337099799999994 19.5616943499999998 -0.1189333200000000
 14.8932225999999996  0.0425533500000000  2.2831881599999999
 14.7207549800000006  1.9548946400000000  4.4003426200000000
 14.8657915599999999  4.0432291700000000  6.3162153800000000
 16.9094572499999991  6.5117588800000004 10.6410067000000002
 16.8280272900000014  8.3043630099999994 13.0054434200000006
 16.8594290600000001 10.6819131400000007 15.3003650899999997
 17.0186975800000013 12.9102569000000003 17.4519005900000010
 16.9432976699999998 15.0781724100000005 19.6194923299999999
 16.5677184699999991 17.3641516100000004  0.3686539900000000
 17.0528258100000016 19.2899147599999985  2.1994628700000001
 17.2743553500000004  0.1462370200000000  4.3678821900000004
 17.1342831300000000  2.2849654899999998  6.3972189899999998
 17.0407398599999986  4.5094660700000002  8.4428121199999993
 19.1309801800000017  6.4856752100000001 12.9921238900000002
 18.8553314800000003  8.7124530900000003 14.9619617100000006
 19.1850478899999999 10.8641504900000001 17.0033291899999988
 18.9655402500000001 13.0009086600000003 19.3433892400000005
 18.8992827299999995 14.7429101300000003  0.3344125200000000
 19.0933708799999984 16.8496648100000002  1.9982424000000001
 19.2110359300000013 19.2714111800000012  4.3556519500000004
 19.1434326900000009  0.3626645800000000  6.4217223499999996
 18.9860732299999988  2.3282194000000000  8.4905410600000000
 18.9586718699999999  4.4331995700000002 10.8336968599999999
 -0.0803655500000000  6.4411291600000000 14.7674212600000008
 -0.1139773000000000  8.6132826300000005 16.8105825600000003
 -0.1031600900000000 10.8050244800000002 19.2431548399999990
 -0.0404349600000000 12.7002459499999993  0.3693798600000000
  0.2844018700000000 15.1686853999999993  1.9680617499999999
 -0.0854094000000000 16.8280064500000002  4.1003655600000002
 -0.0898236700000000 18.9426963700000002  6.5520688099999997
  0.3276002500000000 -0.0371180800000000  8.1565100499999996
  0.1705062300000000  2.2093161700000001 10.3848033100000006
  0.1396343200000000  4.1185924099999998 12.6087693000000005
  2.2271105900000001  6.4862536600000000 16.9703734900000001
  2.0903487599999999  8.8440100200000007 19.2609327700000001
  2.3163464000000000 10.6101985200000009  0.3413861700000000
  2.1689826000000001 12.8676636099999993  2.0828667300000001
  2.2873185500000002 14.9693017200000007  4.1788502300000001
  2.1890765700000001 16.8625899600000011  6.2776732800000001
  2.0969747399999998 19.3970681200000001  8.4958115500000009
  1.9081304699999999 -0.0601544800000000 10.4524373399999995
  2.1361689699999999  2.1656247199999998 12.7802217999999996
  2.1714313199999999  4.6168438299999996 14.6369926899999996
  4.2315687200000003  6.2695385699999999 18.9177989000000011
  4.1513443700000003  8.5730959799999997 20.9984858900000013
  4.3753484399999998 10.6324382899999996  2.4284840499999998
  4.7183185600000002 12.5381044399999997  4.2596918199999996
  4.6505820900000003 14.7103509900000002  6.4294230900000002
  4.5760554000000004 16.9379726700000006  8.4872918500000001
  4.1646283999999998 18.8514495900000014 10.6231965899999992
  4.0730644199999997  0.0841950800000000 12.4031749999999992
  4.4358768199999998  2.3992161400000001 14.6116565400000002
  4.2781313299999999  4.2230609699999997 16.8088123299999985
  8.4739952800000005  8.1191269399999992  0.0969183000000000
  8.4365432899999995 10.4436848199999996  2.1178439899999999
  8.4015389799999998 12.6129593799999995  4.3890463799999999
  8.6290472499999993 14.6609131099999992  6.3527921100000002
  8.5330336800000008 16.8535277900000011  8.4736820599999998
  8.2884336399999992 18.9431038399999991 10.5691860000000002
  8.3690367800000001 -0.2344320800000000 12.7542086000000001
  8.5254758800000001  2.2511517599999999 14.5188099499999996
  8.7103651600000003  4.0737363200000001 16.8509397199999995
  8.0589891300000005  6.2245030500000000 19.1795210800000007
 10.6195292600000002  8.1556511799999996  2.4548584000000000
 10.3365342600000005 10.4041997100000003  4.3242449100000000
 10.3650187200000001 12.7387209899999991  6.3221701299999999
 10.3203229099999998 14.5308760499999998  8.5813365800000003
 10.6883499299999993 17.0483405499999989 10.5478564600000002
 10.4735531200000000 18.8624476799999989 12.7461204600000002
 10.5789338500000003 -0.0270495100000000 14.8203533000000007
 10.8087681900000003  2.0955995700000001 16.8399280500000010
 10.2483022800000008  4.3955117899999996 19.1635543000000013
 10.7576856799999998  6.1770135799999997 20.9006842599999985
 12.6387079100000008  8.4191907300000004  4.1184617000000001
 12.6348363700000004 10.4581335899999992  6.1951010000000002
 12.6546802599999992 12.9661405599999995  8.2225802699999999
 12.8746241399999999 14.8604413999999991 10.5582285000000002
 12.7803145699999998 16.8367448999999993 12.7415404100000007
 12.5338300999999994 18.9316240100000002 14.7378095200000008
 12.7140612500000003 -0.0518053700000000 16.7280623900000016
 12.7953709799999995  2.0148005000000002 19.0596262299999992
 12.6702494300000001  4.1318015900000002  0.0917504300000000
 12.8630391399999997  6.4040722399999996  2.1074911699999999
 15.0820954599999997  8.8818370200000007  6.0970761199999997
 14.5472185700000001 10.6266007600000005  8.2948339600000001
 14.6707228999999995 12.8220445699999992 10.6019477700000007
 14.9878569000000006 14.8799007999999997 12.6184854400000006
 14.9578551799999993 16.7241979200000017 15.0116774999999993
 14.6186334299999992 19.0060311000000013 16.8158378199999987
 14.7952790600000004  0.2743746300000000 19.0169308599999987
 14.7146529099999999  2.3591067300000002  0.0724506700000000
 14.8510983700000008  4.1005469999999997  2.3886466000000000
 14.8813196100000003  6.3543909000000003  4.4947043999999998
 17.1515824399999985  8.8384193300000007  8.2848310999999999
 16.7794112700000007 10.6221547199999993 10.5715032000000004
 17.0880504400000000 12.5492764000000001 12.7306776599999996
 17.5062901999999987 14.8137400400000008 14.9072739199999997
 16.9693160399999989 16.9048650400000007 16.9847250500000015
 16.8685778599999985 19.2525717999999983 18.8830566200000014
 16.7840822400000000  0.1298202500000000 -0.1286142200000000
 16.8552923999999997  2.3003674599999999  2.0547737100000001
 16.9511583700000017  4.3918386600000003  4.4360463000000001
 16.9726778299999985  6.3132761300000002  6.3157378900000003
 19.0152787100000005  8.4292600800000006 10.4122797800000004
 19.1060459700000003 10.2723133900000008 12.7348462500000004
 19.1262810999999999 12.4170972699999993 15.1704972300000005
 19.1052608200000016 14.8824454900000003 17.0011558399999991
 18.8394619600000013 17.1033986700000007 19.2841026199999988
 18.9999850399999985 18.9069204599999985 -0.0210134700000000
 19.2919513199999990 -0.0182016800000000  1.8840235999999999
 19.0933482099999985  2.4687983099999999  4.2778858199999998
 19.0841316100000000  4.3040457300000003  6.2986589899999998
 19.0189823599999990  6.4867935399999999  8.4422608100000005
  0.1906815000000000  8.5290222900000003 12.6372814499999997
 -0.0861164100000000 10.6945422499999996 14.8229378300000008
 -0.1773397900000000 13.0419601600000004 17.3052135100000015
  0.0412671300000000 14.9211263400000007 19.4482884899999995
  0.4315698200000000 16.9624400400000006 -0.2062873900000000
  0.1419709700000000 18.9287446300000006  2.0214320799999999
 -0.2952100700000000 -0.0502520700000000  4.4826337399999998
  0.0146370600000000  2.1004029000000002  6.1559833099999999
 -0.0300827500000000  4.5199991900000001  8.6407682999999995
 -0.2905551500000000  6.1462017600000003 10.5694040000000005
  2.1676890200000001  8.4646135000000005 14.6819225800000002
  2.0037612600000001 10.5664816199999994 17.1409943600000005
  1.9629249200000001 12.7903604699999995 19.3151781400000004
  2.2699393400000001 14.8183391699999998 -0.0944628400000000
  2.4088589200000001 17.2888498999999989  1.9911302399999999
  2.0024949500000000 19.2679457499999991  4.0961736399999999
  2.3450505800000001  0.1042417200000000  6.4223936300000002
  2.2731889000000001  2.1932411699999999  8.2084392000000008
  2.2653290400000001  4.3916168400000002 10.3811936399999993
  2.0997211999999998  6.4375707100000001 12.4587703899999998
  4.5093039499999996  8.4350088400000001 17.2285967100000015
  4.2553565700000000 10.8211842699999998 19.2043020400000017
  4.3465254199999999 12.7117154400000008  0.0923326400000000
  4.2589065799999997 14.6310249500000005  2.0818938400000002
  4.2907114200000001 16.9605279099999997  4.1823505699999997
  4.4846706500000000 19.1941657799999987  6.4034313500000000
  4.2478992800000004 -0.0604906300000000  8.5090995100000004