Li                                      
   1.00000000000000     
    21.0004999999999988    0.0000000000000000    0.0000000000000000
     0.0000000000000000   21.0004999999999988    0.0000000000000000
     0.0000000000000000    0.0000000000000000   21.0004999999999988
   Li
   500
Direct
  0.0012303668960243  0.0171119292397819  0.0066981357586755
  0.9932758915263946  0.1055905645103721  0.0994435575343431
  0.0007205304635605  0.1878336763410360  0.1945693707292691
  0.9819669350729754  0.2895693788243108  0.3032960777124387
  0.0377521144734629  0.4159172810171157  0.3897675836289594
  0.0000696254851107  0.4968079379062402  0.5002718497178620
  0.9792845398919070  0.5868856393895356  0.5994954229661218
  0.9828694992976352  0.6756335844384651  0.7076179757624814
  0.0032255951048796  0.8039094950120216  0.8125456146282204
  0.0004746301278544  0.8989726549367845  0.9147858712887782
  0.1069612423513746  0.0165998147663160  0.0885700921406638
  0.1155354134425366  0.0954592309706896  0.1966811642579955
  0.1061371010214032  0.2145705083212306  0.2915580343325175
  0.0940962762791386  0.3002379110021209  0.3962229875479153
  0.0944218932882563  0.4129005761767601  0.5139726887455041
  0.0977784271803017  0.5113820575700601  0.6051434532511095
  0.0949994419180484  0.6136739396681037  0.7295105002261835
  0.0894492426370803  0.6846402933263462  0.8297592795409656
  0.0979553334444390  0.7874180609985473  0.9228895031070721
  0.0821321592343054  0.8957669922144689  0.9913755053451112
  0.2123665688912197  0.9954074436322955  0.2216246103664190
  0.1981416123425603  0.1040988833599172  0.3223621966143639
  0.2077202057093857  0.1944229004071332  0.4088664079426678
  0.2051743934668195  0.3240694121568524  0.4826315959143841
  0.1952058189090735  0.4064938130044524  0.6046408185519425
  0.1971276107711688  0.5125603723720857  0.7021982209947382
  0.1984332549224987  0.6199814237756271  0.8257033942049006
  0.2082387271731605  0.6828956510559294  0.9237395600104747
  0.1979475064879423  0.7960976100569042  0.0104300459512885
  0.1898965300826205  0.9016396109616451  0.0648851889240731
  0.3051926149377380  0.9974530496892910  0.3054753434442006
  0.3044573410156914  0.0786860565224643  0.4097969591200226
  0.3021735944382300  0.1938971086402717  0.4995451874955350
  0.2806312173519672  0.2980269693578705  0.6052370057855754
  0.2990471112592559  0.4034206128425524  0.6918097002452299
  0.2937049189305014  0.4998481231399268  0.7968260112854466
  0.3145733653960647  0.5904308835503898  0.9017237170543524
  0.2963550882121879  0.6819443698959518  0.9992771367348396
  0.3083860855693885  0.7907004852265445  0.0943486021761402
  0.2954654089188367  0.9027743896573881  0.2016194366800761
  0.4186527730292156  0.9919425675579134  0.4071584557510519
  0.4017630037380044  0.1094119768576931  0.5049845432251630
  0.3794174214899613  0.2172794028713625  0.6116119778100497
  0.4027513378252934  0.2928410718792378  0.7061113483012278
  0.3795793723958951  0.3801761434251532  0.8119926192233535
  0.3840529768338854  0.4965788585986033  0.9112197471488770
  0.4153487245541783  0.5870704121330448  0.0046276602937994
  0.4084499935715797  0.6926500221423311  0.1006335782481358
  0.4254031404014214  0.7990382486131296  0.2065848422656629
  0.4113547372681623  0.8890528625508907  0.2899271479250487
  0.5098519097164385  0.0074844760839028  0.4981033361110434
  0.4979257712911576  0.1220620423323240  0.5844398647651232
  0.4886663355634369  0.2149096645317954  0.6926790814504429
  0.4915943320397105  0.3005901769005490  0.8036160781886110
  0.4782387852670169  0.3976637080069523  0.9022919668579306
  0.4973109392633503  0.4897051289255003  0.9938559972381640
  0.5145708430751625  0.6113495512011653  0.0946453846337008
  0.5310093016832909  0.7097545258446232  0.1999869765005613
  0.5180097388157421  0.8056167348396457  0.3020702845170362
  0.5097959215256793  0.8988926639841921  0.4064951567819790
  0.6063483326587473  0.0264788609795019  0.6036237332444472
  0.5857865088926459  0.0939292026380301  0.7018125530344506
  0.5981914787743179  0.1958653641579957  0.8005957986714591
  0.6062131715911505  0.3185675993428703  0.8840270822123273
  0.6047140172853034  0.3874083678960005  0.9854028127901699
  0.6005770810218820  0.4887693378729097  0.0920897064355586
  0.6206604395133439  0.5908506287945556  0.2218925949382182
  0.6054559648579811  0.7097681017118660  0.3211267517440035
  0.6075393343015634  0.8020477745767991  0.4107536868169817
  0.5972564043713220  0.9022193600152377  0.4905113063974653
  0.7050945125116073  0.9976803761815205  0.6913006185567028
  0.6908644737030087  0.1139682226613630  0.8081611833051596
  0.7044288897883391  0.1908876269612634  0.8792621251874948
  0.7137013152067837  0.2982221889955028  0.9816075493440621
  0.6947094492988271  0.3852593862050924  0.0899424966072218
  0.7083386862217580  0.4776141401395222  0.2168520182852802
  0.7073081621866137  0.5872545834622969  0.3051213785386082
  0.7142698454798690  0.7041385500345214  0.3994870184043222
  0.6887651103545167  0.8067405252255924  0.4783356167710267
  0.6888209309302127  0.9067469574533931  0.5880336634842038
  0.7820512102092820  0.0123061079498115  0.8129058736696777
  0.8010733458727159  0.1019814871074516  0.8972336901502374
  0.8008973053022572  0.2050676460084304  0.0015913335396789
  0.7969907959334321  0.2961392562081855  0.0885120249517897
  0.8023776391038311  0.3938687969334040  0.2048607704578487
  0.8064756462941389  0.4967770224518446  0.2935457617675752
  0.7948543377538613  0.5957469265017465  0.3937686212233018
  0.7868587547915524  0.6872991619247131  0.5040636713411573
  0.7875811061641400  0.7977265584152775  0.5781430784981296
  0.7864593362062777  0.8786589319301896  0.7174400590462113
  0.8966270984024192  0.9839384919406697  0.9172544187043172
  0.8889129530249278  0.1147480102854672  0.0105424242279923
  0.9170433684912283  0.2040782176614826  0.1075925358920031
  0.8876978848122690  0.2897459870003090  0.2064093369205509
  0.8970283488488349  0.3879143534677780  0.3234885555105862
  0.9046718544796519  0.5042137415775798  0.3922046079855264
  0.8832777924335105  0.5992250898788143  0.4996189471679244
  0.8818849794052497  0.7034023704197523  0.6012898259565276
  0.8850121173305396  0.8001614194900100  0.6956878736220560
  0.8912723068498352  0.9048206271279255  0.8060392114473487
  0.1127915087735971  0.0903769448346452  0.9899442275183929
  0.0892159034308690  0.1968885783671794  0.0820221966143677
  0.0954434713459236  0.2867666446037020  0.2033188914549626
  0.1078378586224105  0.3834425151782099  0.2915651965429404
  0.1073560272374436  0.5166223361348514  0.3813672745886976
  0.1179428056474876  0.6234796838170524  0.4995499416680573
  0.1010201971381619  0.6885602638032395  0.6119502902311851
  0.1083471593533503  0.7589545863193763  0.6874187852670204
  0.0856486188424057  0.8849781867098372  0.8146817823385177
  0.0932118411466405  0.9936804742744201  0.8880210271183984
  0.2041001804718903  0.0987052846360825  0.0979288116949562
  0.2184057874812524  0.1957821566153157  0.1917688726458877
  0.2173870431656368  0.2809630270707828  0.3023295521535232
  0.1663029785005108  0.4004861517582938  0.3834866684126581
  0.1861862050903582  0.4922847717911480  0.4968983733720620
  0.1751026918406708  0.6135058312897286  0.5883234884883706
  0.1986086207471232  0.7008266169853101  0.7077848208376025
  0.1907077812433045  0.8045569105497492  0.8193843684674178
  0.1892898192900176  0.9095895378681433  0.9001305421299506
  0.1929860112854485  0.0223910973548271  0.9921296373895885
  0.3179935611056877  0.1038946610795008  0.2169410123568483
  0.3027821680436205  0.1882151710673554  0.3254229846908387
  0.3057510849741689  0.3173579205257013  0.4119302892788284
  0.2944853446346514  0.4233112230661149  0.4788284350372578
  0.3090872926835075  0.5106655055831979  0.5998648803599878
  0.2832905773672039  0.5978867865050859  0.6986649951191666
  0.2986939239541897  0.7152452770172104  0.7857799747625052
  0.2912615547248905  0.7937912173519663  0.9104481026642190
  0.3072759396204816  0.9031668117425795  0.0100171948286913
  0.3013816542463275  0.0136308925977957  0.1242233575391083
  0.4193555243922731  0.1040758048617860  0.3079749201209481
  0.3781716930549237  0.2094172686364644  0.4148098226232690
  0.3900007337920499  0.2979840803790381  0.5115316997214379
  0.4004615961524749  0.3785970824504190  0.6023974224423227
  0.3871383386109883  0.4823732525416062  0.6841229918335259
  0.3768758086712225  0.5960142187090796  0.7922107478393343
  0.3839602776124380  0.7069094131092086  0.9072660579509986
  0.4001080779029067  0.7997449013118754  0.9989954634413465
  0.3937982281374275  0.9106417456727200  0.0980668545986987
  0.4245452522558963  0.0044465331777843  0.2087771905430813
  0.5093120887597919  0.1134904307040330  0.3933968015047284
  0.4968288116949608  0.1941301730911178  0.5003039389538344
  0.5055795676293400  0.2973007014118707  0.5961616923406581
  0.4681626313659208  0.3935224347039323  0.6908107187924131
  0.4679855608199830  0.4838061284255133  0.7894711873526816
  0.4908862512797327  0.5821509059308099  0.8804063346110809
  0.5077193743006134  0.7075378738601472  0.9751648208375983
  0.5038405242732296  0.7984686345563219  0.1090456922454237
  0.5115551467822215  0.8942452927311280  0.1911102416609154
  0.5103296873883920  0.9926020194757257  0.3119956848646481
  0.6088540149044093  0.1279154958215258  0.4775133134925369
  0.5949858227185061  0.1933696216756715  0.6074589895478653
  0.5947098288135990  0.3116530454036806  0.7026736425323179
  0.6024039184781316  0.4044719111449737  0.8016025299397640
  0.5741092964453216  0.4918320835218211  0.8941524930358824
  0.6001263712768719  0.5899948472655439  0.9819153386824127
  0.6134666388895482  0.6991268850741648  0.0808413633008769
  0.6110501897573855  0.8219081583771839  0.2032313968715016
  0.6150096626270809  0.9335214718697173  0.2983192323992299
  0.6279643422775649  0.0278621718530516  0.4008369981667101
  0.7082526925549359  0.0922104211804466  0.6066399561915219
  0.7086024894645391  0.1913316725792242  0.6997178400514272
  0.7017916173424439  0.2885080683793220  0.7908840213328290
  0.7096762424704153  0.4086929992143027  0.8914355172495902
  0.6939172729220715  0.4732175624389896  0.9978277274350589
  0.6912432342087058  0.5894199528582647  0.1099063327063661
  0.7038172857789107  0.7114405766529401  0.2077321182828982
  0.7179177948144115  0.8123288250279757  0.2946577310064029
  0.7128667155543909  0.9180345558439100  0.4126808509321194
  0.7039699811909230  0.0216263369919787  0.4974843165638916
  0.8150634937263419  0.1076644032284975  0.7021623637532457
  0.8068108430751622  0.2119258903359409  0.8009509345015573
  0.8022983314683003  0.3129886245565601  0.8965943596581027
  0.8046480259993842  0.4034926492226347  0.0164638818123350
  0.7946739834765850  0.4837787957429569  0.1134079688578851
  0.7942268779314787  0.6060423413728273  0.2036339068117456
  0.7962845975095831  0.7152663231827816  0.2922652027332688
  0.7985297897669099  0.8104227846956036  0.4094316192471581
  0.7783885745577521  0.9044291926382684  0.5076979929049301
  0.7938595047736925  0.9996086950310712  0.6027724939882404
  0.9020231842099022  0.0999500197614367  0.7946784776552960
  0.9092209799766664  0.2139687702673712  0.9089447084593232
  0.9099390238327629  0.3050979381443284  0.0052284193233518
  0.8902255084402739  0.3979832342087093  0.1112223537534831
  0.8848350529749283  0.4890444517987689  0.2007115778195754
  0.9052977800528552  0.6101583562296113  0.2900736096759573
  0.8843712340182392  0.7044465850813069  0.3950187819337643
  0.8946185962238999  0.8066535277731504  0.4901225975572032
  0.8999222004238021  0.8966074474417240  0.5919849679769555
  0.8837821809004538  0.9794744796552450  0.7063669769767387
  0.9987248189328852  0.0958417361491399  0.8893709683102813
  0.0093018551939252  0.1962909102164261  0.0035135144401295
  0.9911983628961210  0.3217692469226918  0.1009673060165213
  0.0106046979833820  0.3874595828670735  0.2138050241660920
  0.0012524877979061  0.5070997619104318  0.2814350324992247
  0.9903865817480551  0.5934503807052209  0.4047718659079536
  0.0001752263041368  0.6847038460989054  0.5082562515178211
  0.0106380324277993  0.8002500930930196  0.6010727001738019
  0.9903105887955022  0.8794760129520753  0.7095769586438436
  0.9957532515892495  0.9902162362800908  0.8117222547082221
  0.1967403899907154  0.1760400000000004  0.9910335106307002
  0.1941398266707921  0.2745346034618237  0.1151778267184085
  0.2053925149401223  0.3805560477131493  0.2205163091354976
  0.2077231442108527  0.5150942272803007  0.2700739777624364
  0.2055433337301480  0.6002872998261921  0.3858272750648766
  0.2021325825575602  0.7111348672650664  0.4947359277160075
  0.2239450960691443  0.7958041365681794  0.6029721435203896
  0.1984005852241637  0.8904015947239330  0.7113458303373719
  0.2002759077164811  0.9819603776100578  0.8133552758267655
  0.1993350229756459  0.0808955348682190  0.8754582738506258
  0.3012120763791373  0.1987885755101075  0.1087864212756813
  0.3134053936811014  0.3003602309468789  0.2091098278612407
  0.3051269593581125  0.3967836489607421  0.3055342210899710
  0.2882248327420740  0.4919221537582459  0.3816519340015745
  0.2912675764862769  0.6058907940287170  0.4889709811671139
  0.2997050722601813  0.7050346091759749  0.6054517306730816
  0.2889735801528559  0.8046320392371626  0.7170019956667701
  0.2779068831694502  0.8994384409894991  0.8326921773291076
  0.3103123873241103  0.0036232037332411  0.8952129601676120
  0.3051914682983750  0.1010118692412050  0.0023013266350773
  0.4087178881455173  0.2050053693959697  0.2003480864741292
  0.4018036732458725  0.3005975038689570  0.3095368019809044
  0.3982044141806114  0.4043497978619541  0.3824478402895153
  0.3972108459322428  0.4911603342777582  0.4807541887097955
  0.3914946610794985  0.5882173862527083  0.5823563381824215
  0.3934396295326295  0.7190129468345958  0.6847145120354270
  0.3924256846265592  0.7852834089664498  0.7947835265826981
  0.4072632094473931  0.8913876336277724  0.9039198419085253
  0.3995617456727203  0.0061306749839289  0.0003406852217793
  0.4163897811956829  0.1010501749958337  0.1175427294588189
  0.5026037622913719  0.2262200838075259  0.3097138749077430
  0.4711065479393355  0.3079500783314657  0.4174272174472051
  0.4863965962715184  0.3930646375086297  0.4976197838146703
  0.4861381871860218  0.4922120835218209  0.5773441441870446
  0.4735960667603152  0.5887385252732074  0.7002974391085957
  0.4957175605342741  0.7039178948120295  0.7885717725768444
  0.4889745987000325  0.7932250303564174  0.8967191809718784
  0.5103489483583701  0.9134768743601356  0.9893612323516123
  0.5089765767481751  0.0005527239827643  0.0906871169734060
  0.5076369643579923  0.1070612423513708  0.2000157848622663
  0.5927827789814515  0.2325194757267681  0.3916608766457941
  0.5985655217732884  0.2731148015523459  0.5136437737196715
  0.5927796752458292  0.3916566638889520  0.6068355953429645
  0.5728761362824670  0.4706104987976474  0.7031930463560414
  0.5716649803576104  0.6035115559153326  0.7991756867693596
  0.6039593533487277  0.6955381400442846  0.8913518240041896
  0.5807106383181377  0.8182958124806561  0.9867158386705057
  0.6064821699483360  0.9093033784909892  0.0890581848051255
  0.5935829804052304  0.0031465088926481  0.1837919349539305
  0.6013966643651329  0.1082885169400711  0.3099231004023721
  0.7088186714602003  0.1998348867884090  0.5004734768219805
  0.7103142844217984  0.2892917335301561  0.6141207580771919
  0.7174839260969961  0.4065084250375008  0.6984931930192104
  0.6916545129877889  0.5223307383157518  0.7830600404752275
  0.6996422923263736  0.5863749748815508  0.8886142025189869
  0.7017499869050710  0.7054112502083285  0.9778900288088366
  0.6893161677102952  0.8172489912144982  0.1040249017880512
  0.7076347758386703  0.9109224647032192  0.1924298707173620
  0.7006499469060259  0.0160365134163456  0.2893727577914831
  0.7203352996357211  0.1092526849360738  0.3863657041499025
  0.7937309111687796  0.2013547182209976  0.6163053727292223
  0.8089561667579375  0.2965307911716408  0.7080421623294697
  0.7966963229446904  0.4128379686197974  0.7851829132639665
  0.7956756748648814  0.4922920568557885  0.9068989076450578
  0.7982257270064963  0.5793973305397486  0.0040070917359145
  0.7914728282659951  0.6908586633651552  0.0893052574938693
  0.7942671164972239  0.8002843075164847  0.1816626766029401
  0.8106439894288258  0.9226738368134093  0.2928347710768762
  0.8164926816028171  0.0050852822551875  0.3890002961834256
  0.8016850270231686  0.1153946034618230  0.5032242856122480
  0.9062582286136021  0.2048590252613067  0.7034448884550386
  0.9287265603199941  0.3064499392871625  0.8085597995285809
  0.8996435632484960  0.3944497445298936  0.8975507416490061
  0.9064255841527569  0.4836850313087808  0.0196772262565190
  0.8806878440989507  0.5841714892502594  0.1141852470179288
  0.9050777257684359  0.6988956839122906  0.1911016851979710
  0.8851212461608071  0.7963211566391308  0.2999272364943693
  0.9113856851027364  0.9062472698269062  0.4139353134449166
  0.8974475888669318  0.0019670964977010  0.5058081750434482
  0.8957041846622715  0.0862074331563534  0.6086933330158786
  0.0066103788005023  0.2002459717625769  0.8144044332277787
  0.0165590976405312  0.3134024485131306  0.8847430137377685
  0.0004288845503666  0.3890033351586837  0.0245721025689889
  0.0034241937096766  0.4911458917644822  0.0974283031356364
  0.9911554396323865  0.5978336415799603  0.1890017256732008
  0.9873297116735316  0.7010326054141558  0.2988300216661486
  0.0004393295397733  0.7968017109116445  0.3885899330968314
  0.0038197842908474  0.9027275522011351  0.5020389547867907
  0.0002075169638829  0.9830108730744485  0.6209959191447822
  0.9948347739339525  0.0869786957453371  0.7025897488155053
  0.0937756062950896  0.1810087421728070  0.8877807285540840
  0.1032503783243257  0.3012721249494064  0.9949405228446935
  0.1206747010785492  0.3809757496250086  0.1126372114949632
  0.1167569300730946  0.4980820413799663  0.1684376852932061
  0.1147984609890216  0.6097986590795443  0.2932837818147220
  0.1024941282350440  0.6972587576486262  0.4017079788576439
  0.0919646289374043  0.7830349191685926  0.5007935063450901
  0.1137894121568550  0.8863089178829071  0.6082948663127041
  0.1144310930692143  0.9798063965143697  0.7104310502130886
  0.0804796900073796  0.0718606766505587  0.7863336420561424
  0.2890697883383737  0.2664481445679883  0.0275602018999521
  0.3028721244732253  0.3883946763172332  0.1110841894240622
  0.3013069484059869  0.4999131673055430  0.2102683440870479
  0.3126830208804563  0.6339256631984966  0.2991129125497025
  0.3068722987547901  0.7270112430656397  0.4064280750458309
  0.3022710349753552  0.8012944267993589  0.5114814356801034
  0.3015351524963705  0.8981401890431187  0.5991704040379986
  0.3035920592366850  0.0001580424275645  0.7024767591247851
  0.2990613790147876  0.0927433365872261  0.7941833223018477
  0.2997769472155412  0.1845476336277727  0.8876270931644470
  0.3899219242398999  0.3234229718340060  0.0897460122378035
  0.3938344353705858  0.4007157543868018  0.2008550644032283
  0.3967943763243724  0.5181640456179650  0.2982928815980586
  0.3839660393800131  0.6035175405347459  0.3843475041070477
  0.3934664807980752  0.7014115087736030  0.5055429075498168
  0.4197956915311565  0.7873504416561516  0.6016250041665643
  0.3896949101211860  0.9029867126973201  0.6997728563605605
  0.4166912625889836  0.9978106426037456  0.8004342934692019
  0.4212775624389877  0.0976081931382566  0.9023897507202179
  0.4152453265398464  0.1885819399538136  0.0036030975452945
  0.4900956048665535  0.3001867660293769  0.1976844789409782
  0.4947214018713808  0.4073481950429780  0.3104365157972424
  0.4986490664507954  0.4925934739649023  0.3933712949691639
  0.5026430089759799  0.5856270079283803  0.4776074950596438
  0.5042607071260221  0.7105387481250460  0.5968104478464795
  0.4891593328730295  0.8083464027047000  0.7146801028546932
  0.4902775372014929  0.9067777843384661  0.8026433432537345
  0.4990141091878755  0.0047157515297229  0.8990051355920130
  0.5139606385562274  0.1116176476750539  0.0055007980762340
  0.5046220709030749  0.2165332277802889  0.1205533206352243
  0.5886415609152138  0.3138655051070245  0.2957158910502145
  0.5977005314159172  0.3815855346301262  0.4259714702030877
  0.5919683002785661  0.5003046032237322  0.4927159081926646
  0.5975181814718695  0.5913877374348218  0.6079341915668692
  0.6069776519606691  0.7200735830099276  0.7118270688793089
  0.5906661355681990  0.8100073403014179  0.7980604261803279
  0.5835521754243942  0.8970872517321027  0.8896031061165175
  0.5916782343277518  0.0109331796861980  0.9880774519654310
  0.6013252141615695  0.1086740615699640  0.0831337358634343
  0.5968000138091938  0.1941390290707332  0.2116047656008178
  0.7028209471203084  0.2747284959881924  0.3991606337944305
  0.7061379357634365  0.3761289950239259  0.5028459874764906
  0.7009598061950939  0.4801726658889081  0.5965117816242440
  0.7013717511487840  0.5967971310206934  0.7125868222185190
  0.7149941729958798  0.6954721954239176  0.8117482640889477
  0.7024588995500096  0.7970837184828952  0.9109191828765972
  0.6937974438703804  0.9073715830575466  0.9956860865217507
  0.7141887945525127  0.0230570905454641  0.1041094159662848
  0.6963787738387168  0.1053109511678301  0.2161552886836020
  0.7031515344872759  0.2211161248541700  0.2928971162591338
  0.8000929968334063  0.3072059850955924  0.4999750815456778
  0.8262922244708477  0.3910576491035940  0.5967114849646435
  0.8082303359443799  0.5111828613604459  0.6921311730673096
  0.8166202657079609  0.5971564491321644  0.8076556667698398
  0.8110429608818848  0.6905097069117403  0.9136763281826603
  0.7982969724530378  0.8034949996428651  0.9939628199328610
  0.7927658474798207  0.9199410814028255  0.0864087388395518
  0.8179688478845719  0.0307542839456190  0.1950218070998275
  0.7983418280517114  0.1161351086878852  0.3020588333611087
  0.8093483307540268  0.2054168995976298  0.4022433099211895
  0.9050592295421538  0.3041211209256929  0.5776819999523823
  0.9040790904978451  0.4012453403490426  0.7041202690412121
  0.9084061712816336  0.5143484345610787  0.8054065017499568
  0.8929944810837824  0.5947894440608579  0.9150198780981427
  0.8982205599866688  0.6929728882645634  0.0133348320278088
  0.9001943363253275  0.8138047427442174  0.0785454784409865
  0.9084072541129942  0.8988962858027207  0.1998574291088318
  0.9151820242375166  0.9963693402538070  0.2997531568296026
  0.8972425389871646  0.0985057098640496  0.3946225504154697
  0.8939538339563313  0.2039995000119035  0.4952549367872194
  0.0204738468131680  0.3001016751982064  0.6921323925620797
  0.0101886112235405  0.4242537091974015  0.7836368457893883
  0.0040614875836269  0.4884511030689751  0.9274348682174249
  0.9931079331444508  0.5929529015975845  0.0238367167448388
  0.9994539882383719  0.6932082764696048  0.1008530654032072
  0.0037126644603731  0.7862278017190079  0.1921158396228648
  0.9899651336872921  0.8911883212304446  0.2917005628437437
  0.9923494526320837  0.9890461060450946  0.3885641122830421
  0.0017412252089244  0.0822006071283994  0.5033985981286193
  0.0026535706292705  0.1925331692102574  0.5883348953596368
  0.1064272622080438  0.2962706449846451  0.8093558420037610
  0.0995018094807278  0.3995291854955809  0.8828714806790288
  0.0890126601747596  0.4779051746386997  0.9996524139901410
  0.1118468688840721  0.5936362643746591  0.0844756034380154
  0.1007664807980788  0.7062594366800781  0.1862630542129935
  0.1114210180709989  0.7856613066355536  0.3009376010095011
  0.0888109949763134  0.9023330158805720  0.3965437451489251
  0.0963463803242774  0.9934082683745658  0.4982063603247511
  0.1014189071688776  0.0812540110949769  0.6080126858884327
  0.1020567238875287  0.1829667760291400  0.6861856789124090
  0.1870492288278882  0.2802927511249749  0.8836614118711452
  0.2060750744029889  0.3914116397228611  0.0133731382586149
  0.2044704545129861  0.5085548463131815  0.1078482631365887
  0.2058805395109644  0.6104139582390928  0.1878923906573675
  0.1958765415109198  0.7244310902121356  0.2823774791076374
  0.1979532301611897  0.8176335515821052  0.4022134611080688
  0.2008656103426105  0.8863169191209721  0.4920044856074881
  0.2061184447989319  0.9808327249351194  0.6031731192114478
  0.2034973105402287  0.0821719754291550  0.6934425218447160
  0.1928297883383721  0.1804016537701472  0.7922156620080472
  0.3987433013499668  0.3951183252779700  0.0116281950429737
  0.4052328001714258  0.5105019209066484  0.1138147391728737
  0.4251424794647747  0.6118929211209263  0.1981418785266982
  0.4200434894407294  0.7066402442798960  0.3021597581009985
  0.4072291693054950  0.7977579029070725  0.4077031427823172
  0.3979632370657811  0.9145935115830568  0.5008467255541547
  0.4035418509083115  0.0177542325182714  0.5901630432608727
  0.4097251998761919  0.1266567243637056  0.7017059722387557
  0.4042754110616400  0.2200636008666450  0.8066369934049220
  0.4021498821456646  0.2963585490821643  0.9226340396657235
  0.5131143720387641  0.3985219513821079  0.1032012071141182
  0.5032826118425717  0.4981080707602175  0.2088706859360485
  0.5065579143353744  0.5999333387300325  0.3167277569581657
  0.4876283964667536  0.6766694150139259  0.4122965910335452
  0.5062609166448411  0.8066648598842860  0.4902181538534762
  0.4996095088212158  0.9006486640794265  0.5941779029070702
  0.5008901602342775  0.0056793062069929  0.6701415875812486
  0.4906188819313826  0.0951634261089040  0.7890593062069939
  0.4915041189495497  0.1963256689126425  0.8836285740815697
  0.5078974072045881  0.2973239046689358  0.0006715597247648
  0.5976914449655979  0.3957384167043614  0.2079618280517153
  0.6218355620104319  0.4851600171424479  0.3058717401966646
  0.6107344387038438  0.5883742410894968  0.3852435418204294
  0.6111889807385538  0.6861892197804806  0.4717063798481007
  0.5927929854051115  0.7933046746506065  0.5893073126830330
  0.5998217047213146  0.9007376067236521  0.6979454365372249
  0.6046896350086897  0.0113502416609137  0.7934987647913161
  0.5845495507249794  0.1139056227232658  0.9010715468679322
  0.5853810175948198  0.2141982652793999  0.9888224289897849
  0.6306641937096771  0.3084645917954347  0.1021946401276139
  0.7122930168329304  0.3861906826027948  0.3220748401228519
  0.7032450403561796  0.4745768615032944  0.3933214409180721
  0.6888866684126569  0.5965828904073689  0.4958788500273812
  0.6797554339182383  0.6926243160877092  0.5831894154901107
  0.7024456508178361  0.7932169015023476  0.6977099211923559
  0.7010695907240319  0.8923075574391106  0.8044090516892481
  0.6805278207661729  0.9971704111806829  0.9128434342039498
  0.7075855746291779  0.1220543215637733  0.9794299673817264
  0.6902962034237277  0.2072932373038725  0.0983449903573757
  0.7229722163758012  0.3137159658103386  0.2019926944596548
  0.8043135301540474  0.3905014099664328  0.4175918568605539
  0.7875593228732640  0.4883432642079981  0.5044415642484736
  0.7952906830789743  0.5996694392990634  0.5946630708792640
  0.7960047046498886  0.6977146658412892  0.6880317159115279
  0.8000532763505603  0.7930231565915093  0.8206706749839299
  0.7971454489178811  0.8981398985738451  0.8944374972024463
  0.8174437718149576  0.9976870412609244  0.0079668450751171
  0.7809635318206745  0.1426896659603329  0.1053856717697172
  0.8000480388562181  0.2107371243541820  0.2083124325611294
  0.8241591404966542  0.3067907930763525  0.3186480498083384
  0.9285853908240256  0.4097090740696672  0.4961976891026438
  0.9007980405228437  0.4994993385871780  0.6000518230518352
  0.8841092950167848  0.5935136596747697  0.7022828994547723
  0.8860812390181181  0.7130766072236341  0.7915603666579401
  0.9149492945406053  0.7981309002166626  0.9050570567367444
  0.9103714035380079  0.8971789762148532  0.0038864088950277
  0.8851753143972729  0.0094079888574115  0.0816561205685602
  0.8840253555867719  0.0982341391871628  0.1962737611009260
  0.9028568576938625  0.1776737006261726  0.2939616032951591
  0.9190350144044217  0.2956183195638218  0.4122720897121468
  0.9985525825575579  0.4148991376395799  0.6030029713578244
  0.9957173505392731  0.5157936891978778  0.6906194938215791
  0.9847354820123329  0.6025619990000237  0.8160802338039588
  0.9791278374324435  0.7126193143020387  0.9096029985000342
  0.9991302526130355  0.7949988557415324  0.0111097045308455
  0.9895426180329068  0.9098631056403406  0.0878214390133536
  0.9864715992476363  0.0083250384514670  0.1746424651794030
  0.0022291688293166  0.0943833008737869  0.2818837508630736
  0.9885832742077554  0.1915596295326267  0.4081007937906236
  0.0065030627842191  0.3056019923335143  0.4996461789005053
  0.0945337463393727  0.4252141977571995  0.7045469012642585
  0.1153882621842328  0.5160298550034526  0.8152048641698997
  0.0939242260898538  0.6029185128925505  0.9296653765386509
  0.1096759396204874  0.7034852222566101  0.0127856455798678
  0.0752545248922658  0.8138345777481462  0.0942177638627655
  0.0912173405395080  0.9087770624508948  0.1858911278302884
  0.0903371638770523  0.9809686050332118  0.2856543682293307
  0.0807637261017575  0.0954495188209776  0.3831858336706304
  0.0920774643460902  0.1915793195400113  0.5052773010166405
  0.0926461565200825  0.3001806118901911  0.5790987466965092
  0.2173873341110948  0.4123767391252571  0.8049387586009829
  0.1990628737410987  0.5201769638818092  0.9159691950191657
  0.1923256717697228  0.6018701797576256  0.0167379624294668
  0.2043286831265902  0.7039077136258669  0.0795115768672190
  0.1916047479821898  0.8035375819623312  0.1868195857241517
  0.2063825713673495  0.9138096411990162  0.2873453074926786
  0.1907998547653662  0.9947152248755984  0.3961903945144130