Li 
 1.0000000000000000
    21.0004999999999988    0.0000000000000000    0.0000000000000000
     0.0000000000000000   21.0004999999999988    0.0000000000000000
    -0.0000000000000000   -0.0000000000000000   21.0004999999999988
 Li 
 500
Cartesian
  0.0258383200000000  0.3593590700000000  0.1406642000000000
 -0.1412096400000000  2.2174546500000001  2.0883644299999999
  0.0151315000000000  3.9446011200000002  4.0860540700000003
 -0.3787033800000000  6.0811017400000003  6.3693692799999999
  0.7928132800000000  8.7344708600000001  8.1853141399999991
  0.0014621700000000 10.4332151000000000 10.5059589800000008
 -0.4350350200000000 12.3248918700000001 12.5897036300000007
 -0.3597490800000000 14.1886430899999993 14.8603313000000004
  0.0677391100000000 16.8825013499999983 17.0638641799999995
  0.0099674700000000 18.8788752399999993 19.2109606900000003
  2.2462395700000002  0.3486044100000000  1.8600162200000001
  2.4263014500000000  2.0046915799999998  4.1304027899999998
  2.2289321900000001  4.5060879600000003  6.1228645000000004
  1.9760688500000001  6.3051462500000000  8.3208808500000000
  1.9829069699999999  8.6711185499999992 10.7936834499999996
  2.0533958600000002 10.7392789000000004 12.7083150899999993
  1.9950357800000000 12.8874595700000008 15.3200852600000008
  1.8784788200000000 14.3777884799999995 17.4253597499999984
  2.0571109800000000 16.5361729900000007 19.3811410100000003
  1.7248164100000001 18.8115547200000002 20.8193812999999999
  4.4598041300000002 -0.0964459800000000  4.6542276300000003
  4.1610729299999996  2.1861286000000000  6.7697673099999998
  4.3622281799999998  4.0829781199999999  8.5863990000000001
  4.3087648500000002  6.8056196900000003 10.1355048300000004
  4.0994197999999997  8.5365733200000005 12.6977595099999991
  4.1397783900000000 10.7640241000000003 14.7465137399999993
  4.1671975699999999 13.0199198900000006 17.3401841300000008
  4.3731173900000000 14.3411501200000000 19.3989926299999986
  4.1569966100000002 16.7184478600000013  0.2190361800000000
  3.9879220800000001 18.9348826499999987  1.3626214100000000
  6.4091975100000003 -0.0534872300000000  6.4151349499999997
  6.3937563900000001  1.6524465300000000  8.6059410399999994
  6.3457965700000001  4.0719362300000004 10.4906987100000002
  5.8933958799999999  6.2587153700000000 12.7102797400000007
  6.2801388600000001  8.4720345800000008 14.5283496099999994
  6.1679501500000002 10.4970605100000007 16.7337446499999984
  6.6061979600000003 12.3993437699999998 18.9366489199999997
  6.2236050299999999 14.3211727399999997 -0.0151804900000000
  6.4762619900000002 16.6051055400000003  1.9813678200000000
  6.2049213200000004 18.9587135700000005  4.2341089800000002
  8.7919175599999999 -0.1692101100000000  8.5505311499999994
  8.4372239600000007  2.2977062199999998 10.6049278999999999
  7.9679555600000000  4.5629761000000002 12.8441573400000006
  8.4579794699999997  6.1498089299999998 14.8286913699999996
  7.9713566100000000  7.9838890999999998 17.0522509999999983
  8.0653045399999996 10.4284043200000003 19.1360703000000001
  8.7225308899999998 12.3287721900000005  0.0971831800000000
  8.5776540899999993 14.5459967900000002  2.1133554600000002
  8.9336786499999992 16.7802027400000000  4.3383849799999998
  8.6386551600000008 18.6705546399999989  6.0886150700000004
 10.7071450299999995  0.1571777400000000 10.4604191100000001
 10.4566901600000008  2.5633639200000000 12.2735293799999994
 10.2622373800000002  4.5132104100000001 14.5466070500000004
 10.3237267700000004  6.3125440099999999 16.8763394499999997
 10.0432536100000007  8.3511366999999996 18.9485824500000000
 10.4437783799999995 10.2840525599999992 -0.1290271300000000
 10.8062449899999997 12.8386462500000000  1.9876004000000000
 11.1514608400000004 14.9051999199999994  4.1998265000000004
 10.8784635200000004 16.9183542399999993  6.3436270099999996
 10.7059692500000008 18.8771953900000007  8.5366015399999995
 12.7336181600000007  0.5560693200000000 12.6764002100000006
 12.3018095800000005  1.9725602200000001 14.7384145199999992
 12.5623201499999997  4.1132705800000000 16.8129120699999994
 12.7307797100000002  6.6900788699999998 18.5650107400000017
 12.6992967199999995  8.1357694299999999 -0.3065482300000000
 12.6124189900000001 10.2644004800000008  1.9339298800000000
 13.0341795600000001 12.4081586300000009  4.6598554400000003
 12.7148779899999997 14.9054850200000004  6.7438223500000003
 12.7586297900000005 16.8434042899999987  8.6260328000000008
 12.5426831199999995 18.9470576699999995 10.3009826899999997
 14.8073373099999994 -0.0487132600000000 14.5176586400000005
 14.5084993799999999  2.3933896600000000 16.9717889299999989
 14.7933588999999994  4.0087356099999996 18.4649442599999993
 14.9880844700000004  6.2628150800000002 -0.3862506600000000
 14.5892457899999997  8.0906397400000003  1.8888374000000001
 14.8754665799999994 10.0301357499999995  4.5540008099999998
 14.8538250600000001 12.3326398800000003  6.4077015099999999
 15.0000238899999996 14.7872616200000007  8.3894271299999996
 14.4644116999999994 16.9419544000000002 10.0452871199999993
 14.4655839600000000 19.0421394799999995 12.3490009500000006
 16.4234664399999986  0.2584344200000000 17.0714298000000007
 16.8229408000000014  2.1416622200000002 18.8423561100000008
 16.8192438600000003  4.3065230999999997  0.0334188000000000
 16.7372052099999991  6.2190724499999996  1.8587967800000000
 16.8503316100000013  8.2714416699999997  4.3021786100000003
 16.9363918099999999 10.4325658600000004  6.1646077699999999
 16.6923385199999998 12.5109833300000002  8.2693379300000007
 16.5244272800000012 14.4336260500000009 10.5855891300000007
 16.5395970199999987 16.7526565900000008 12.1412937200000002
 16.5160392899999984 18.4522769000000011 15.0665999599999996
 18.8296173799999984 -0.3372997000000000 19.2628014199999988
 18.6676164699999987  2.4097655900000001 21.2218961800000017
 19.2583692599999985  4.2857446100000001  2.2594970499999998
 18.6420994299999983  6.0848106000000000  4.3346992799999997
 18.8380438400000010  8.1463953799999995  6.7934214099999997
 18.9985612800000006 10.5887406800000008  8.2364928699999993
 18.5492752799999998 12.5840265000000002 10.4922477000000001
 18.5200255100000000 14.7718014800000006 12.6273869899999998
 18.5856969700000008 16.8037898900000009 14.6097931899999995
 18.7171640799999999 19.0016855800000002 16.9272264600000000
  2.3686780800000000  1.8979610300000000 -0.2111762500000000
  1.8735785800000000  4.1347585899999997  1.7225071400000000
  2.0043606199999999  6.0222429200000001  4.2697983800000001
  2.2646489500000002  8.0524845400000000  6.1230149100000002
  2.2545302500000002 10.8493273699999992  8.0089034500000000
  2.4768578899999998 13.0933851000000008 10.4907985499999992
  2.1214746500000001 14.4601098199999996 12.8512620700000006
  2.2753445200000000 15.9384257900000001 14.4361382000000003
  1.7986638200000000 18.5849844100000006 17.1087247699999985
  1.9574952699999999 20.8677868000000011 18.6488855800000017
  4.2862058400000000  2.0728603300000001  2.0565540100000002
  4.5866307400000004  4.1115231799999998  4.0272422099999998
  4.5652366000000004  5.9003640500000003  6.3490717600000002
  3.4924457000000002  8.4104094299999996  8.0534117799999994
  3.9100033999999999 10.3382263499999993 10.4351142899999996
  3.6772440799999999 12.8839292099999998 12.3550874200000003
  4.1708803400000001 14.7177093699999997 14.8638351300000000
  4.0049587600000001 16.8960973999999986 17.2074814300000014
  3.9751808500000001 19.1018350900000016 18.9031914500000013
  4.0528027299999998 21.4707242399999991 20.8352184499999993
  6.6780237800000002  2.1818398299999999  4.5558697300000004
  6.3585769200000000  3.9526127000000000  6.8340453900000000
  6.4209256600000000  6.6646750099999998  8.6507420400000008
  6.1843394800000002  8.8897473399999996 10.0556365499999991
  6.4909876899999999 10.7242309500000008 12.5974624199999994
  5.9492437699999998 12.5559214600000004 14.6723142299999996
  6.2727217499999997 15.0205084400000004 16.5017723600000004
  6.1166382800000001 16.6700124599999988 19.1198653800000002
  6.4529483699999997 18.9669546300000000  0.2103661000000000
  6.3291654299999998 21.2867555599999996  2.6087526200000002
  8.8066756900000005  2.1856439399999998  6.4676273100000001
  7.9417946400000003  4.3978673500000003  8.7112136800000002
  8.1902104100000006  6.2578146800000001 10.7424214599999992
  8.4098937500000002  7.9507280299999996 12.6506470699999998
  8.1300986799999997 10.1300794900000000 14.3669248899999999
  7.9145804200000001 12.5165965999999997 16.6368218100000007
  8.0633578099999994 14.8454511300000007 19.0530408499999986
  8.4024696900000002 16.7950428000000009 -0.0210957700000000
  8.2699596900000003 19.1239319799999983  2.0594529800000001
  8.9156625700000003 21.0938794200000004  4.3844253899999996
 10.6958085199999999  2.3833557900000000  8.2615295300000007
 10.4336534600000004  4.0768307000000004 10.5066328700000007
 10.6174237100000006  6.2434633799999997 12.5196936200000000
  9.8316493400000002  8.2641678899999995 14.5073705000000004
  9.8279307700000000 10.1601706000000007 16.5792896700000014
 10.3088567199999996 12.2254600999999994 18.4889732299999991
 10.6623607200000006 14.8586491200000008 -0.5215511800000000
 10.5809029300000006 16.7682405599999989  2.2900140599999999
 10.7429138599999998 18.7795982700000010  4.0134106300000001
 10.7171786000000004 20.8451387100000005  6.5520653800000002
 12.7862387399999999  2.6862893699999999 10.0280183399999991
 12.4949997699999997  4.0608587399999996 12.7569425100000000
 12.4892037600000005  6.5448697800000000 14.7564978300000007
 12.6507834900000002  8.4941123699999999 16.8340539299999996
 12.0565822800000007 10.3287196699999999 18.7776494300000003
 12.6029538599999995 12.3901867899999996 -0.3797869300000000
 12.8831061499999997 14.6820141500000005  1.6977090500000001
 12.8323595099999999 17.2604822800000015  4.2679609500000000
 12.9155104200000004 19.6044176700000001  6.2648530400000002
 13.1875651699999992 21.5856195399999997  8.4177773800000004
 14.8736606699999996  1.9364649500000000 12.7397424000000008
 14.8810065799999993  4.0180607899999998 14.6944245000000002
 14.7379748599999996  6.0588136900000000 16.6089598900000013
 14.9035559299999996  8.5827573299999997 18.7205915800000007
 14.5726096900000002  9.9378054200000001 -0.0456188100000000
 14.5164535400000005 12.3781137200000000  2.3080879400000001
 14.7805149100000008 14.9406078299999994  4.3624783499999999
 15.0766326500000005 17.0593114899999989  6.1879596799999996
 14.9705574600000002 19.2791846900000010  8.6665042099999994
 14.7837215900000007 21.4546638899999991 10.4474193900000003
 17.1167408999999999  2.2610063000000000 14.7457607199999998
 16.9434311099999988  4.4505496600000001 16.8203701000000017
 16.8486661099999999  6.5729176100000002 18.8289298500000015
 16.8980108700000002  8.4735473799999994  0.3457497500000000
 16.6885509899999995 10.1595966000000004  2.3816240500000001
 16.6791615499999999 12.7271921900000002  4.2764138599999999
 16.7223746899999988 15.0209504200000001  6.1377153900000003
 16.7695248499999998 17.0192836900000017  8.5982687200000001
 16.3465492599999997 18.9934652600000007 10.6619116999999992
 16.6714465300000008 20.9922824000000006 12.6585237599999996
 18.9429378799999988  2.0990003900000000 16.6886453699999997
 19.0940951900000009  4.4934511600000002 19.0882933500000007
 19.1091744699999992  6.4072092500000002  0.1097994200000000
 18.6951807899999984  8.3578469099999992  2.3357250399999998
 18.5819785300000007 10.2701780100000004  4.2150434900000002
 19.0117060299999991 12.8136305600000000  6.0916908400000001
 18.5722380999999999 14.7937305099999996  8.2955919300000005
 18.7874378299999982 16.9401274099999988 10.2928196100000005
 18.8988161699999999 18.8292046999999982 12.4319803199999992
 18.5598676900000008 20.5694538099999988 14.8340596999999992
 20.9737205600000003  2.0127243799999999 18.6772350200000012
 21.1958436100000007  4.1222072599999997 21.0742855599999999
 20.8156612199999991  6.7573150699999998  2.1203639100000000
 21.2232039599999993  8.1368449700000003  4.4900124100000003
 21.0268028700000009 10.6493485499999991  5.9102763999999999
 20.7986134100000015 12.4627547199999995  8.5004115700000007
 21.0041798399999990 14.3791231199999991 10.6736354099999993
 21.2239040000000010 16.8056520800000015 12.6228272399999994
 20.7970175200000007 18.4694360099999990 14.9014709199999995
 20.9113161599999984 20.7950360699999983 17.0465732099999983
  4.1316465600000001  3.6969280200000001 -0.1883007600000000
  4.0770334300000002  5.7653639400000003  2.4187919500000001
  4.3133455100000004  7.9918672800000001  4.6309527499999996
  4.3622898899999996 10.8172363199999992  5.6716885699999997
  4.3165127800000000 12.6063334400000002  8.1025656900000005
  4.2448853000000000 14.9341877800000002 10.3897018499999998
  4.7029589900000000 16.7122847700000001 12.6627165000000002
  4.1665114900000004 18.6988786900000008 14.9386181100000002
  4.2058942000000004 -0.3788410900000000 17.0808674700000012
  4.1861351500000001  1.6988466799999999 18.3850614800000010
  6.3256042099999998  4.1746594799999999  2.2845692400000002
  6.5816699700000001  6.3077150299999998  4.3914109400000001
  6.4078187099999999  8.3326550200000007  6.4163714100000000
  6.0528655999999996 10.3306111900000008  8.0148814399999999
  6.1167647399999998 12.7240096200000004 10.2686350900000001
  6.2939563700000001 14.8060793099999994 12.7147890700000001
  6.0685896699999997 16.8976751400000005 15.0574004099999996
  5.8361834999999997 18.8886569800000004 17.4869520700000010
  6.5167152899999996  0.0760890900000000 18.7999197699999989
  6.4091734300000001  2.1212997599999999 21.0488290099999986
  8.5832800099999993  4.3052152599999998  4.2074099900000004
  8.4380780400000006  6.3126978800000000  6.5004276100000000
  8.3624918000000008  8.4915479299999994  8.0315958700000003
  8.3416263700000002 10.3146126000000002 10.0960783400000000
  8.2215836299999996 12.3528592199999991 12.2297742800000009
  8.2624289399999995 15.0996313900000008 14.3793471099999994
  8.2411355900000007 16.4913442299999993 16.6908514500000003
  8.5527310300000003 18.7195859999999996 18.9827686399999997
  8.3909964400000003  0.1287472400000000  0.0071545600000000
  8.7443936000000004  2.1221041999999999  2.4684560900000001
 10.5549303099999996  4.7507348699999996  6.5041462299999999
  9.8934730599999998  6.4671056199999999  8.7661802800000004
 10.2145717200000004  8.2545539199999993 10.4502642699999999
 10.2091449999999995 10.3366998599999995 12.1245156999999999
  9.9457541999999997 12.3638034000000001 14.7065963699999998
 10.4103166300000005 14.7826277499999996 16.5604015099999984
 10.2687110599999993 16.6581222500000017 18.8315511600000001
 10.7175830899999998 19.1834710999999984 -0.2234194400000000
 10.6887626000000004  0.0116074800000000  1.9044748000000000
 10.6606300699999998  2.2483396199999999  4.2004314899999997
 12.4487347499999998  4.8830252500000002  8.2250742399999996
 12.5701752399999993  5.7355473899999998 10.7867760700000002
 12.4486695699999999  8.2249857700000000 12.7438509199999999
 12.0306853000000000  9.8830557799999994 14.7674055699999993
 12.0052504199999994 12.6740444300000004 16.7830890100000012
 12.6834483999999996 14.6066487100000000 18.7188339799999994
 12.1952137599999997 17.1846212099999995 -0.2789740300000000
 12.7364288099999996 19.0958256000000013  1.8702664099999999
 12.4655393799999992  0.0660782600000000  3.8597225300000000
 12.6296306499999993  2.2741129999999998  6.5085400699999996
 14.8855465099999993  4.1966325400000004 10.5101932500000004
 14.9169551299999998  6.0752710499999996 12.8968429800000006
 15.0675211900000008  8.5368801800000007 14.6687063000000002
 14.5250906000000004 10.9692066700000002 16.4446523800000008
 14.6928379600000003 12.3141676600000007 18.6613425600000014
 14.7371005999999998 14.8139889599999997 -0.4643204500000000
 14.4759841799999993 17.1626374400000010  2.1845749500000000
 14.8606841099999993 19.1298272199999992  4.0411235000000003
 14.7139992100000008  0.3367748000000000  6.0769726000000004
 15.1274014599999997  2.2943610099999998  8.1138729699999992
 16.6687459999999987  4.2285497599999999 12.9427209800000007
 16.9884839800000016  6.2272948799999996 14.8692394300000004
 16.7310211299999985  8.6698037600000006 16.4892337699999985
 16.7095870099999999 10.3383793399999995 19.0453305099999994
 16.7631393799999984 12.1676336400000000  0.0841509300000000
 16.6213251299999989 14.5083773600000008  1.8754550600000000
 16.6800065800000006 16.8063706000000010  3.8150070399999998
 17.0239291000000001 19.3766119100000012  6.1496766100000002
 17.1467545600000015  0.1067934700000000  8.1692007199999992
 16.8357864100000008  2.4233443700000001 10.5679616099999993
 19.0318759300000018  4.3021419600000002 14.7726943800000008
 19.5037221299999999  6.4356019499999997 16.9801600700000002
 18.8929646499999997  8.2836418599999995 18.8490143500000009
 19.0353904800000002 10.1576275000000003  0.4132315900000000
 18.4948850699999987 12.2678933600000004  2.3979472799999999
 19.0070847799999996 14.6771588099999999  4.0132309399999997
 18.5879887299999993 16.7231424500000010  6.2986219300000004
 19.1395550800000009 19.0316457899999989  8.6928485500000008
 18.8468480900000017  0.0413100100000000 10.6222245799999992
 18.8102357299999987  1.8103992000000000 12.7828643399999997
  0.1388212600000000  4.2052655300000001 17.1029003000000017
  0.3477493300000000  6.5816081200000003 18.5800456599999997
  0.0090067900000000  8.1692645400000004  0.5160264400000000
  0.0719097800000000 10.3143092999999997  2.0460430800000000
 -0.1857401900000000 12.5548053900000003  3.9691307400000002
 -0.2660823900000000 14.7220352299999995  6.2755798699999996
  0.0092261400000000 16.7332343299999984  8.1605828900000006
  0.0802173800000000 18.9577299600000018 10.5430690699999996
  0.0043579600000000 -0.3567801600000000 13.0412248000000002
 -0.1084723300000000  1.8265960999999999 14.7547360199999993
  1.9693346199999999  3.8012740900000002 18.6438391900000013
  2.1683095699999999  6.3268652599999999 20.8942484499999992
  2.5342290599999999  8.0006812299999996  2.3654377599999998
  2.4519539099999998 10.4599719100000002  3.5372756100000000
  2.4108250800000000 12.8060767400000000  6.1591060600000000
  2.1524279399999999 14.6427825400000007  8.4360684100000007
  1.9313031899999999 16.4441248199999990 10.5169140300000006
  2.3896345499999998 18.6129304299999987 12.7744963400000007
  2.4031101700000002 -0.4240757700000000 14.9194072700000007
  1.6901137300000000  1.5091101400000000 16.5133996500000002
  6.0706100899999997  5.5955442599999996  0.5787780200000000
  6.3604660500000003  8.1564823999999998  2.3328235199999998
  6.3275965699999999 10.4984264700000001  4.4157403600000000
  6.5664997800000000 13.3127558900000000  6.2815207199999996
  6.4444717100000002 15.2675996099999995  8.5351927900000000
  6.3478428700000000 16.8275836100000014 10.7413658900000009
  6.3323889700000002 18.8613930399999994 12.5828780699999996
  6.3755850399999998  0.0033189700000000 14.7523631799999997
  6.2804384899999999  1.9476564400000000 16.6782468600000016
  6.2954657799999998  3.8755925800000002 18.6406127700000006
  8.1885553699999996  6.7920441199999999  1.8847111299999999
  8.2707200600000004  8.4152311999999991  4.2180567800000004
  8.3328802999999994 10.8817040400000007  6.2642996599999998
  8.0634788099999994 12.6741701100000004  8.0714897600000004
  8.2629928300000000 14.7299923899999996 10.6166538300000006
  8.8159194200000002 16.5347529500000014 12.6344259000000001
  8.1837879600000001 18.9631724599999991 14.6955798699999995
  8.7507248600000000 -0.0459776000000000 16.8095203799999986
  8.8470394500000005  2.0498208600000001 18.9506359599999996
  8.7203594800000008  3.9603150299999998 21.0761668499999999
 10.2922527499999994  6.3040721800000004  4.1514728999999999
 10.3893968000000001  8.5545157700000001  6.5193220500000004
 10.4718797200000004 10.3447092499999993  8.2609938799999991
 10.5557545099999999 12.2984599800000005 10.0299961999999994
 10.5897269800000000 14.9216689799999997 12.5333178099999998
 10.2725905700000002 16.9756786300000009 15.0086394999999992
 10.2960734200000008 19.0427868599999996 16.8559115300000002
 10.4795458000000004  0.0990331400000000 18.8795573499999989
 10.7934303899999993  2.3440264100000001  0.1155195100000000
 10.5973158000000005  4.5473060500000004  2.5316800100000001
 12.3617670999999998  6.5913325399999998  6.2101815699999996
 12.5520100100000001  8.0134870199999995  8.9456138599999999
 12.4316302899999993 10.5066468200000003 10.3472804299999996
 12.5481805699999995 12.4194381800000002 12.7669219900000002
 12.7468341800000005 15.1219052800000000 14.9487243599999999
 12.4042841799999994 17.0105591499999989 16.7596679799999997
 12.2548874600000008 18.8392808299999999 18.6821100300000005
 12.4255387600000002  0.2296022400000000 -0.2503794700000000
 12.6281301599999995  2.2822096300000001  1.7458500200000000
 12.5330986899999992  4.0770166799999998  4.4438058800000002
 14.7595913000000003  5.7694357800000002  8.3825728900000005
 14.8292497200000000  7.8988969600000001 10.5600171599999992
 14.7205064100000005 10.0838660699999991 12.5270456699999997
 14.7291574599999997 12.5330381499999994 14.9646795600000004
 15.0152351300000007 14.6052638399999992 17.0471194200000014
 14.7519881200000000 16.7391566300000001 19.1297582999999989
 14.5700932200000004 19.0552569299999988 -0.0905943400000000
 14.9983217799999995  0.4842104300000000  2.1863497900000000
 14.6243024399999992  2.2115826300000001  4.5393691399999998
 14.7665337999999995  4.6435491799999999  6.1509858900000003
 16.8023529799999984  6.4514792900000000 10.4997267000000001
 17.3525498599999999  8.2124061600000005 12.5312395399999996
 16.9732411700000014 10.7350956800000006 14.5351006999999992
 17.1494338900000010 12.5405840099999999 16.9611728299999989
 17.0323077000000005 14.5010490999999995 19.1876597300000000
 16.7646355699999994 16.8737967399999995 -0.1267838000000000
 16.6484791799999989 19.3192226799999993  1.8146267199999999
 17.1777547900000016  0.6458553400000000  4.0955554599999999
 16.7655775600000005  2.4388953500000001  6.3433865300000001
 16.9967196200000004  4.3138576000000004  8.4473106300000005
 19.0066963499999986  6.3866956000000004 12.1316108400000005
 18.9861129400000017  8.4263527699999994 14.7868777100000006
 19.0769838000000007 10.8015743000000004 16.9139392400000013
 18.7533306000000017 12.4908757200000000 19.2158749499999999
 18.8630808700000010 14.5527771399999999  0.2800381400000000
 18.9045311600000012 17.0903065000000005  1.6494943200000001
 19.0770065399999993 18.8772714499999985  4.1971059400000001
 19.2192800999999989 -0.0762456700000000  6.2949661700000004
 18.8425419400000003  2.0686691599999998  8.2872708700000004
 18.7734774900000012  4.2840914999999997 10.4006012999999999
  0.4299610200000000  6.3022852299999998 14.5351263100000008
  0.2139659300000000  8.9095400199999997 16.4567655799999990
  0.0852932700000000 10.2577173899999998 19.4765959500000001
 -0.1447368500000000 12.4523074099999995  0.5005829700000000
 -0.0114665200000000 14.5577204099999999  2.1179648000000002
  0.0779678100000000 16.5111769499999994  4.0345286900000001
 -0.2107372100000000 18.7154003399999986  6.1258576700000003
 -0.1606653200000000 -0.2300372500000000  8.1600406400000001
  0.0365666000000000  1.7262538500000000 10.5716222599999998
  0.0557263100000000  4.0432928199999996 12.3553269700000001
  2.2350257199999999  6.2218316800000002 16.9968773599999992
  2.0895877500000002  8.3903126599999993 18.5407425299999993
  1.8693103700000000 10.0362476199999993 -0.0072994800000000
  2.3488401699999999 12.4666583699999993  1.7740299100000001
  2.1161464799999998 14.8318013000000004  3.9116172699999998
  2.3398970900000000 16.4992802699999999  6.3198400899999996
  1.8650753000000000 18.9494444999999985  8.3276169200000005
  2.0233221600000002 -0.1384296600000000 10.4625826699999998
  2.1298477600000001  1.7063748599999999 12.7685704100000006
  2.1432422299999998  3.8423937800000001 14.4102423500000008
  3.9281273300000001  5.8862879200000000 18.5573314799999984
  4.3276795999999997  8.2198401400000005 21.2813425900000013
  4.2939817800000002 10.6799060499999996  2.2648674500000001
  4.3235942700000001 12.8189983299999994  3.9458341500000000
  4.1135053099999999 15.2134151099999997  5.9300682499999997
  4.1571168099999998 17.1707134000000003  8.4466837899999998
  4.2182782500000000 18.6130984599999998 10.3323402000000009
  4.3285904000000004 -0.4025223600000000 12.6669370899999993
  4.2735452699999996  1.7256525700000001 14.5626396800000002
  4.0495219699999998  3.7885249299999999 16.6369250099999988
  8.3738086999999997  8.2976823900000003  0.2441979100000000
  8.5100914200000002 10.7207955899999998  2.3901664299999998
  8.9282046400000006 12.8500572900000005  4.1610785200000002
  8.8211233000000000 14.8397984500000000  6.3455060000000003
  8.5520161699999999 16.7533148400000016  8.5619698500000005
  8.3574269599999997 19.2069210400000010 10.5180316600000001
  8.4745806399999992  0.3728477600000000 12.3937189900000000
  8.6044340600000009  2.6598545400000000 14.7361762699999996
  8.4899857700000005  4.6214456500000001 16.9397801799999996
  8.4453486000000009  6.2236777099999996 19.3757761500000001
 10.7756583700000004  8.3691602399999994  2.1672769500000002
 10.5691864899999999 10.4605185400000007  4.3863888400000004
 10.6379694800000006 12.5989000799999999  6.6514412600000004
 10.2404401400000005 14.2103960499999999  8.6584345599999999
 10.6317323800000008 16.9403653900000002 10.2948263400000002
 10.4920494899999994 18.9140722699999984 12.4780330500000005
 10.5189438099999997  0.1192682700000000 14.0733084099999992
 10.3032418299999993  1.9984795300000000 16.5706399600000012
 10.3218322499999999  4.1229372099999999 18.5566418700000000
 10.6660994999999996  6.2439506600000003 21.0146030900000014
 12.5518191899999998  8.3107046199999992  4.3673023700000000
 13.0588577200000007 10.1886029400000009  6.4234594800000000
 12.8257285799999998 12.3561532500000002  8.0903069999999992
 12.8352741899999998 14.4103167100000000  9.9060698299999999
 12.4489490899999993 16.6597948199999983 12.3757482200000002
 12.5965557100000005 18.9159401100000011 14.6572031400000000
 12.6987846799999993  0.2383607500000000 16.6638708099999988
 12.2758328399999996  2.3920750300000000 18.9229530200000013
 12.2932940599999991  4.4982706700000001 -0.2347345800000000
 13.2442633999999995  6.4779106600000000  2.1461385399999999
 14.9585094999999999  8.1101974299999995  6.7637326800000004
 14.7684974699999998  9.9663513800000008  8.2599469200000009
 14.4669644799999997 12.5285389899999995 10.4137037899999996
 14.2752039899999996 14.5454569500000002 12.2472693199999991
 14.7517098900000008 16.6579515399999991 14.6522571999999993
 14.7228119399999997 18.7389048600000017 16.8929922899999987
 14.2914244999999998 -0.0594227800000000 19.1701685399999988
 14.8596508600000003  2.5632017800000000 -0.4319809700000000
 14.4965654199999996  4.3532616300000004  2.0652939699999999
 15.1827780299999997  6.5881921400000003  4.2419475799999997
 16.8909862900000007  8.2007248599999993  8.7696377900000009
 16.5391395599999989 10.2554527199999992 10.5935250700000001
 16.7015019900000006 12.5933580599999999 12.4882218199999997
 16.7164968000000016 14.6523568399999995 14.4490100500000000
 16.8015188299999991 16.6538828000000017 17.2344945100000011
 16.7404529999999987 18.8613869399999992 18.7836346600000006
 17.1667279300000004 -0.0485732900000000  0.1673077300000000
 16.4006246500000010  2.9965543299999999  2.2131517999999999
 16.8014088400000006  4.4255849800000000  4.3746652399999997
 17.3077540300000017  6.4427600500000004  6.6917683700000001
 19.5007574999999989  8.6040954099999993 10.4203995700000007
 18.9172092499999991 10.4897358599999997 12.6013883100000008
 18.5667372499999992 12.4640836099999994 14.7482920300000000
 18.6081490599999988 14.9749652900000001 16.6231634799999988
 19.2143926600000015 16.7611479699999997 19.0066507199999997
 19.1182546600000016 18.8412070900000010  0.0816165300000000
 18.5891241899999997  0.1975724700000000  1.7148193599999999
 18.5649744800000001  2.0629660400000001  4.1218471200000000
 18.9604454400000009  3.7312365500000002  6.1733406500000001
 19.3001948200000015  6.2081325200000004  8.6579200200000006
 -0.0303964900000000  8.7130893399999998 12.6633639000000002
 -0.0899377800000000 10.8319253700000004 14.5033546799999993
 -0.3205625100000000 12.6541032599999994 17.1380929500000008
 -0.4383258500000000 14.9653619100000004 19.1021177699999996
 -0.0182651300000000 16.6953734699999998  0.2333093500000000
 -0.2196102500000000 19.1075801500000004  1.8442941300000000
 -0.2841031800000000  0.1748299700000000  3.6675790899999998
  0.0468136600000000  1.9820965100000001  5.9196997099999997
 -0.2397569500000000  4.0228479999999998  8.5703207199999998
  0.1365675700000000  6.4177946400000003 10.4928195800000008
  1.9852559400000001  8.9297107600000007 14.7958371999999994
  2.4232111999999999 10.8368849699999998 17.1197097499999984
  1.9724557100000000 12.6615902299999998 19.5234377399999985
  2.3032495700000002 14.7735414100000000  0.2685049500000000
  1.5803826500000000 17.0909330500000003  1.9786201500000000
  1.9156097599999999 19.0847726999999985  3.9038066300000001
  1.8971256100000000 -0.3996688100000000  5.9988845599999996
  1.6960786299999999  2.0044876199999999  8.0470941000000007
  1.9336727899999999  4.0232615000000003 10.6110759600000009
  1.9456156099999999  6.3039429399999998 12.1613632299999992
  4.5652427099999997  8.6601177099999997 16.9041163999999995
  4.1804198799999996 10.9239763300000003 19.2358110800000013
  4.0389352699999996 12.6395747099999998  0.3515055800000000
  4.2910045099999996 14.7824139399999996  1.6697828699999999
  4.0237955100000002 16.8746909900000013  3.9233047100000000
  4.3341371899999999 19.1904593699999992  6.0343951300000001
  4.0068923500000002 -0.1109829200000000  8.3201963800000005