Li                                      
   1.00000000000000     
    20.0207999999999977    0.0000000000000000    0.0000000000000000
     0.0000000000000000   20.0207999999999977    0.0000000000000000
     0.0000000000000000    0.0000000000000000   20.0207999999999977
   Li
   432
Direct
  0.0152942649644388  0.0053388520938213  0.0051369196036148
  0.9111183109566028  0.0758476774154886  0.0907107518181078
  0.8509193089187264  0.1771082743946266  0.1602146942180127
  0.7628209646967150  0.2688493851394540  0.2466605680092684
  0.6770950876088904  0.3378716984336307  0.3414397236873654
  0.5765240799568474  0.4240462993486744  0.4176933139534853
  0.4970595440741619  0.4983703033844833  0.5070402346559604
  0.4208297320786372  0.6052446675457546  0.5845163350115854
  0.3274367847438668  0.6688609426196734  0.6822921726404516
  0.2470100770199011  0.7605505224566471  0.7720743681571136
  0.1794525828138731  0.8404196006153626  0.8432379555262557
  0.0831060896667495  0.9143059997602521  0.9220996648485595
  0.0805809667945354  0.9142449357668028  0.0832647291816500
  0.9941923319747445  0.0009785018580644  0.1777766218133152
  0.9085797530568200  0.0867730505274480  0.2559659574042996
  0.8252518905338420  0.1761344911292255  0.3323296651482437
  0.7617808314353098  0.2596446990130232  0.4362502777111814
  0.6928413774674311  0.3363851679253571  0.5013131273475580
  0.5972613616838487  0.4202058798849180  0.5968488571885260
  0.5012568958283410  0.4969792066251131  0.6643900992967318
  0.4239187784703944  0.5801694817389915  0.7552428883960687
  0.3430888510948620  0.6672872387716779  0.8478991139215211
  0.2491798969072150  0.7397941550787195  0.9376706630104721
  0.1669176965955401  0.8294886992527779  0.0116060332254477
  0.1671984810796801  0.8455730789978446  0.1744325261727795
  0.0862926831095692  0.9178596849276772  0.2465145308878789
  0.9913355580196566  0.9967283075601401  0.3343313948493574
  0.9085731943778441  0.0841379640174225  0.4187184533085571
  0.8402536417126214  0.1719183234436201  0.5138659399224821
  0.7442368591664703  0.2472701055901894  0.5895166806521246
  0.6822153145728436  0.3310951760169445  0.6815613471989153
  0.5917661472069042  0.4166992332973720  0.7530682879804971
  0.4891494136098444  0.4977239705706040  0.8394123231838861
  0.4094237827659200  0.5755460021577576  0.9244526981938819
  0.3298566311036524  0.6605307500199800  0.0214142032286446
  0.2384589402021930  0.7447785153440449  0.0818160168424811
  0.2433276067889381  0.7434062220290869  0.2582250414568819
  0.1731745130064724  0.8355788644809365  0.3361977258650981
  0.0950321950171826  0.9160156247502584  0.4189581160593008
  0.0113930617158147  0.9857332114600794  0.5029864381043723
  0.9117409359266375  0.0714901317629639  0.5868280987772749
  0.8314174763246243  0.1607976069887300  0.6880798114960456
  0.7647909004635167  0.2309587878606223  0.7689674608407273
  0.6711056051706237  0.3162797016103269  0.8363125584392250
  0.5848053319547688  0.4219734546072118  0.9222501378566292
  0.4976318873371710  0.5039455066730625  0.9981404339486915
  0.4195114276152836  0.5734025903060811  0.0875532351354593
  0.3211519934268381  0.6577140493886375  0.1673462758730935
  0.3438405568209078  0.6553627142771532  0.3397168499760284
  0.2478711270278922  0.7408864346080080  0.4104774509510136
  0.1802584192439838  0.8239558823823216  0.5135677335571032
  0.0927795567609664  0.9015388630823935  0.5824315651722216
  0.0012544808399255  0.9822314817589728  0.6638668914329102
  0.9217356124630385  0.0748475260728867  0.7414200361623884
  0.8388428639215206  0.1483776772156986  0.8153121283864806
  0.7551339122312797  0.2460470350835138  0.9138215990370000
  0.6782751718213049  0.3494511912610889  0.9884397836250329
  0.5813678434428198  0.4383483816830491  0.0830836724806190
  0.4909961045512645  0.4946048079996785  0.1741937175337682
  0.4140129934867716  0.5971849431591139  0.2487697864221232
  0.4222156941780568  0.5859642227083839  0.4100453638216237
  0.3401335166426946  0.6698949427595267  0.4887451605330426
  0.2521576775153846  0.7485150898066024  0.5788947020099116
  0.1706710201390536  0.8336245644529683  0.6728017821465642
  0.0965801396547619  0.9047946565571792  0.7522768785463114
  0.0135307889794589  0.9967027021897223  0.8180247797290789
  0.9256473667385947  0.0817600645328866  0.9069435267321992
  0.8489001613322174  0.1726996213937539  0.9869154459362264
  0.7605599121913187  0.2639328513346086  0.0959282541157194
  0.6715388915527853  0.3459909843762503  0.1685749215815520
  0.5800419393830438  0.4179181611124463  0.2659900643330957
  0.4905588597858213  0.4987526437504997  0.3278956690042349
  0.0747843657596121  0.0764788609845795  0.9030888995444712
  0.9937408100575382  0.1494227073843177  0.9767489720690463
  0.9318437559937678  0.2372621613521915  0.0669489151282647
  0.8391768455805959  0.3441473967074273  0.1630545827339560
  0.7619779274554475  0.4137568343922311  0.2404897296811299
  0.6763096090066298  0.5045356184568064  0.3431870544633568
  0.5774980665108274  0.5776468522736380  0.4109394120115084
  0.4972621054103712  0.6640409848757258  0.4905502322584496
  0.4111749500519437  0.7560868192080221  0.5866481489251214
  0.3311042261048485  0.8290436940581785  0.6740169283944724
  0.2581890423959052  0.9313429493326950  0.7529252991888455
  0.1560904873931079  0.9994917600695246  0.8517928629225580
  0.1551299293734516  0.0118963293175085  0.0133479026812111
  0.0636870584592018  0.0881422135978553  0.0975501128826011
  0.9978972918165141  0.1556387966514805  0.1736657915767594
  0.9167294428794079  0.2461046102053857  0.2449236004555289
  0.8411160577998871  0.3223696310836743  0.3361312170342856
  0.7610967558738935  0.4071543774474549  0.4253289638775684
  0.6618486059498139  0.4941153190681717  0.4885616848477596
  0.5931961080476285  0.5776375104890903  0.5749464347079041
  0.5077503386478099  0.6636342378925946  0.6670320601574389
  0.4300127976904022  0.7659595470710485  0.7477031527211722
  0.3337090296092100  0.8535862278230653  0.8488833568089191
  0.2615884355270524  0.9257668944297919  0.9271217618676602
  0.2386061031527191  0.9084212963517970  0.0815996893231059
  0.1630288924518482  0.0061594266962359  0.1597071146008133
  0.0852460825741232  0.0796274319707493  0.2608142217094240
  0.9838326934987620  0.1595735410173447  0.3393072519579619
  0.9201920367817493  0.2335828867977270  0.4314076390553794
  0.8451134155478286  0.3333755883880798  0.5217461819707481
  0.7385569837369133  0.4161623371693466  0.5860674608407237
  0.6826109965635752  0.5076529539279164  0.6698731629105765
  0.5791273630424385  0.5936396567569702  0.7514713433029669
  0.4938377587309191  0.6806199577439429  0.8552387437065434
  0.4074190227163754  0.7506333453208640  0.9321708533125559
  0.3469693079197640  0.8347272436665847  0.0146461734795835
  0.3181524184847788  0.8390009729880958  0.1678550822144942
  0.2527607772916198  0.9213843817429890  0.2392865419963215
  0.1777795787381109  0.9966371713418027  0.3225413749700294
  0.0738804063773699  0.0771204092743574  0.4171972039079392
  0.0069608701949946  0.1668495414768643  0.5155148490569843
  0.9213838952489439  0.2459557125589384  0.5924880838927535
  0.8303874001038949  0.3265395803364513  0.6629009485135455
  0.7539103667186140  0.4027499750259764  0.7487315531846903
  0.6744230390393966  0.4928755918844416  0.8368796996124033
  0.5829479191640701  0.5838842338967467  0.9140445631543201
  0.5047685282306418  0.6624717523775274  0.9997076450491491
  0.4103783380284511  0.7317894384839789  0.0896675842124210
  0.4141049273755328  0.7491926246703429  0.2459518305961765
  0.3257975725245714  0.8295722029089774  0.3253404194637568
  0.2384297975105909  0.9152768126148771  0.4169185127467401
  0.1651081005754023  0.9950534893710525  0.5032597483617067
  0.0812263915527822  0.0800453193678550  0.5836156517222122
  0.0082598182889768  0.1490787046471667  0.6654950391592749
  0.9399308144529712  0.2432168045232928  0.7503733487173321
  0.8514722838248190  0.3293622232877809  0.8355084946655467
  0.7648820896267878  0.4108362168344897  0.9026767406896852
  0.6807674633381282  0.5066223597458617  0.0030167555742011
  0.5784438723727305  0.5825522686406117  0.0872239865539868
  0.5068918684568047  0.6684392476824073  0.1671996323823208
  0.5127274614401003  0.6615138171301851  0.3229309558059583
  0.4275865924438591  0.7460919094142113  0.4076790243147101
  0.3355277661232350  0.8389565212179306  0.4909495374810220
  0.2658894869335882  0.9158659678933887  0.5840581295452765
  0.1717118871373771  0.0035921276872060  0.6610294638575880
  0.0829649279749063  0.0797660652920982  0.7363922545552626
  0.0052002842044274  0.1684644609605996  0.8365858856788932
  0.9062384410213369  0.2582289743666593  0.8986968987253263
  0.8351653984855716  0.3289118511747802  0.0095018211060491
  0.7350748761288273  0.4272743791456861  0.0768936381163599
  0.6625972109006639  0.4898825671301879  0.1669702729161671
  0.5978747137976512  0.5749994855350451  0.2421941840485928
  0.1679499070966202  0.1398800932030682  0.8230186256293450
  0.0992165647726395  0.2327122762327178  0.9092263930512274
  0.0045412481019724  0.3216012711779754  0.9889201430512244
  0.9421865335051578  0.4148180537241259  0.0913485939622802
  0.8235362338168315  0.5068673504555292  0.1602017486813736
  0.7379974321705447  0.5817753061815694  0.2444693358906704
  0.6603016263086374  0.6652366458882781  0.3269291406936787
  0.5759736329217588  0.7560919378845981  0.4248746803324508
  0.4923214067369912  0.8374229930871877  0.4891807999680324
  0.4094893970270945  0.9212592803484370  0.5785787396108049
  0.3333329417405864  0.0017384260369226  0.6676852208702968
  0.2513899124910068  0.0771257871813305  0.7611177595300873
  0.2487153874970005  0.0768453183688962  0.9284649254775061
  0.1769839591824507  0.1468046526612312  0.9903314872532576
  0.0889224351674258  0.2345709761847701  0.0707205955805961
  0.0141012002517371  0.3180161477063876  0.1778946151002927
  0.9155207194517700  0.4310634435187382  0.2550238082394287
  0.8171204652161776  0.5072271872252827  0.3399453857987709
  0.7527101234715872  0.5967006388356140  0.4268146148006053
  0.6657701125829121  0.6674054403420442  0.5078208253416463
  0.5674297066051324  0.7431562859625984  0.5801099046991141
  0.5178790338048458  0.8316094556661042  0.6659095660513046
  0.4308853642212114  0.9184029509310321  0.7471606144609595
  0.3456530897866230  0.0096696136018508  0.8379120659514072
  0.3419012427075856  0.0008275338647792  0.9996748946096048
  0.2457932984695930  0.0793242687604874  0.0804920018181079
  0.1497503626228749  0.1575280782985686  0.1672792890393993
  0.0811399119915279  0.2283121488651787  0.2533290632741938
  0.0045462039478963  0.3369210381203516  0.3332152611284300
  0.9097191870454751  0.4118400583393296  0.4216112288220231
  0.8319375304683163  0.5017169768440795  0.5048391173179922
  0.7573263895548621  0.5949520913250197  0.5734895738432044
  0.6574589302125773  0.6762338867577711  0.6515393875369639
  0.5839101204747053  0.7519710640933397  0.7552222923159917
  0.5022019509709921  0.8368319547670424  0.8437986229321481
  0.4323196555582172  0.9159536981539205  0.9131733237433082
  0.4132293235035576  0.9081080411372184  0.1101533814832578
  0.3137110435147434  0.0071727103812051  0.1572994820386810
  0.2361769739470958  0.1037721674458538  0.2365668864381050
  0.1551084821785338  0.1736536551985921  0.3356234321305820
  0.0825939293135107  0.2478326295652522  0.4155949582434246
  0.9966887187325213  0.3309078982857798  0.4897077284623990
  0.9271272626468487  0.4164891392951304  0.5950617063254242
  0.8394624365659737  0.4977361144409826  0.6760940961400124
  0.7429479701110822  0.5930667345960217  0.7499461559977618
  0.6625259220410769  0.6565260743826400  0.8365682704986810
  0.5937149025013966  0.7587033585071552  0.9135191111244296
  0.4887579577239691  0.8279994300927029  0.9962579562255272
  0.4994441086270314  0.8316374720290867  0.1688065736633888
  0.4111196131023718  0.9069587259250369  0.2408140154239575
  0.3313113661791718  0.9853337613881550  0.3081574997003145
  0.2378162925557419  0.0836375899064947  0.3987469381842885
  0.1715525063933541  0.1638189702709170  0.4898780857907781
  0.0708127931950742  0.2417870244945277  0.5943183604051754
  0.0093635314273186  0.3351791461879614  0.6584190746623477
  0.9213336495045183  0.4107604860944605  0.7506991613721752
  0.8464416032326412  0.5094536731798911  0.8215954851953953
  0.7641500869096163  0.5875914768640627  0.9296426856069715
  0.6668360105490265  0.6723294803404443  0.9935983671981177
  0.5982134565052348  0.7529084047590473  0.0823535423159925
  0.5894192509789846  0.7605907511188335  0.2336518575681268
  0.4974066590745636  0.8291075641333023  0.3353298679373466
  0.4114979671142009  0.9201554338487981  0.4103046132022712
  0.3285466744585648  0.0140827824062981  0.5040684652960934
  0.2565694033205475  0.0838860050547439  0.5865081010748838
  0.1539154759050589  0.1677298544513732  0.6666891402940962
  0.0895244560656892  0.2492619051186793  0.7538600755214588
  0.0080772841245107  0.3386904818988228  0.8251440701670276
  0.9280800317669602  0.4152287266243135  0.9328351239710670
  0.8353144314912484  0.4804906587149347  0.0057858622033109
  0.7466805022776342  0.6004859670942224  0.0872780223567489
  0.6554452819068146  0.6803526467473802  0.1818808294373824
  0.2265668594661534  0.2447495779389470  0.7444919074162897
  0.1443992038280157  0.3436641897426682  0.8297690806561207
  0.0756841230120671  0.4102143675577423  0.9153573493566682
  0.0040308299368661  0.5014171161991499  0.0046310117477830
  0.9225322394709536  0.5760700401582355  0.0864286941580730
  0.8297016777551320  0.6530739480939829  0.1755866104251567
  0.7527188653800039  0.7573114830576202  0.2542066390953437
  0.6692133136537990  0.8253494415807552  0.3245571046112019
  0.5921624895109119  0.9149120080116688  0.4045470350835103
  0.5000261787740783  0.9987146957164583  0.4817151847079018
  0.4139484611004534  0.0775130594182016  0.5836155937824685
  0.3443550802165731  0.1766395134060588  0.6697592149164890
  0.3466556586150418  0.1688082698993014  0.8297578872972124
  0.2414070376808155  0.2369085091504814  0.8987823578478356
  0.1674182325381608  0.3266613576880033  0.9972332314393029
  0.0747471854271566  0.4053851189762625  0.0835350205786014
  0.0041826360585020  0.4953489276152823  0.1794104216614727
  0.9169504620194999  0.5703880204587222  0.2505276667266045
  0.8325001833093566  0.6664142821465688  0.3260562589906471
  0.7466174618396835  0.7467158470191038  0.4048474961040540
  0.6631758516143194  0.8354328723127935  0.5014621258890770
  0.5717786921601515  0.9141896792335942  0.5750667970310843
  0.4856276057899791  0.0004655083712919  0.6476025003995858
  0.4176827019899321  0.0905260958603051  0.7385492337968529
  0.4237591160193404  0.0996343992248043  0.9135315656717040
  0.3401345680492298  0.1674332539159309  0.0036212024494517
  0.2381340595780372  0.2461143575681319  0.0885487862622867
  0.1565724491528826  0.3262463507951736  0.1881598367697563
  0.0767029674138868  0.4260207139574845  0.2446560921641492
  0.9879822764325112  0.5016230345440746  0.3490475994965223
  0.9067808059618017  0.5818739945456741  0.4094933359306339
  0.8358762412091423  0.6720066720610589  0.4859320436745804
  0.7494525683289410  0.7534321635499097  0.5769535682889781
  0.6741208273395642  0.8293267416886465  0.6589111204347446
  0.5688451890034401  0.9124347498601466  0.7550125469511713
  0.5074843997242837  0.0082144944258005  0.8330535238352113
  0.4863411626907990  0.9873864820586604  0.0004199837169310
  0.4297283370294878  0.0876130918844424  0.0912171221929228
  0.3288310542036257  0.1742676416526834  0.1574539723687352
  0.2605511078478386  0.2437073258810827  0.2464088947494574
  0.1588916601734169  0.3373431696036135  0.3239234051586379
  0.0810617003316523  0.4058055931830893  0.4200579067769539
  0.9908168894349885  0.5014557065651744  0.5002969881323409
  0.9239064917485820  0.5871207119595638  0.5879748426636269
  0.8369816950371600  0.6580562445057154  0.6552870025173831
  0.7294812844641569  0.7406075571405708  0.7548400028969837
  0.6698369730480280  0.8280250524454544  0.8300987907576101
  0.5950156692040309  0.9248911836689828  0.9071340590785582
  0.5861504894909331  0.9185356893830416  0.0794105650123882
  0.4981661541996303  0.0012493042236059  0.1702505024774226
  0.4200703523335747  0.0941823373691335  0.2431885868696568
  0.3293445851314658  0.1707650083912711  0.3292795008191476
  0.2495548259809794  0.2578920622552516  0.4220481659074551
  0.1638459537081403  0.3254820681491282  0.5066298124950066
  0.0752719281946810  0.4136679578238613  0.5694985719851360
  0.9919463892551761  0.4970385279309539  0.6673783794853350
  0.9153263765683661  0.5813888216255094  0.7528045442739568
  0.8408196995125081  0.6633761782745964  0.8287946111044491
  0.7476712094421814  0.7422909044593595  0.9214688179293518
  0.6724700341644692  0.8326324013026465  0.9968623306760946
  0.6734513590865490  0.8468963987453080  0.1683985035563040
  0.5838109695916245  0.9300971369775439  0.2622817210101474
  0.4978489131303476  0.9975093912331161  0.3262638845600563
  0.4046005599176823  0.0850900273715354  0.4123509000639345
  0.3313007382322368  0.1768709347278801  0.5052359655957801
  0.2480328483377292  0.2470765748621417  0.5874748596459654
  0.1627553459402193  0.3370972268840404  0.6650323143930308
  0.0775508411252304  0.4132823753296577  0.7414335481099670
  0.0037148180891862  0.5102921791336996  0.8301093307959704
  0.9102960955606179  0.5698996568568688  0.9277816965356038
  0.8325004580236524  0.6809889979421371  0.0142332154559242
  0.7495128586270283  0.7508267871413707  0.1018901527411487
  0.3240842378925919  0.3228596469671530  0.6674326360584999
  0.2602801965955379  0.4060032915767593  0.7509118541716617
  0.1725354286542000  0.5002139879525274  0.8187740829537304
  0.0846916267082207  0.5672938454007834  0.9124549913090405
  0.0055682130584174  0.6692129280548258  0.0139693983257416
  0.9076037066450908  0.7608359421201953  0.0948530043754516
  0.8339230095700501  0.8478821860265313  0.1748078488372116
  0.7552688813633850  0.9226252752137754  0.2451293624630395
  0.6802370529649195  0.0024910163430008  0.3409067814472948
  0.5861130524254747  0.0734162990489864  0.4085992283025632
  0.4894821165987366  0.1709739126308634  0.4865921132022706
  0.4270642891392953  0.2520133106569133  0.5725907616079269
  0.4153447444657559  0.2578810197394716  0.7466435841724604
  0.3311655463318175  0.3346624440581820  0.8175702249660333
  0.2492858142531773  0.4201901317629648  0.8963423199872125
  0.1627908490170213  0.4960500349636376  0.0113910523056049
  0.0677896192959295  0.5835809028610228  0.0877168210061541
  0.9887935636937613  0.6757072339766665  0.1778750829137721
  0.9061222288819621  0.7620200961000592  0.2590532865819526
  0.8190486713817648  0.8608215975385605  0.3507992208103587
  0.7418817444857382  0.9189184533085566  0.4289229771038094
  0.6565883655997737  0.0002685866698613  0.4985030508271393
  0.5750024764245154  0.0994432300407553  0.5776297051066877
  0.5050459087548944  0.1751203388475986  0.6691459127507358
  0.5118635064532882  0.1876619181051709  0.8260153360505100
  0.4125119450771209  0.2560154549268745  0.9095060302285631
  0.3208284788819640  0.3239850085910660  0.0082778045832299
  0.2572016832494199  0.4177415717653616  0.0912128301566355
  0.1644871938184309  0.5067576245704473  0.1592416536801693
  0.0717177884999600  0.5773550577399504  0.2529496663469999
  0.0030486089466919  0.6787748621433707  0.3240594851354572
  0.9181333133541116  0.7499991903420451  0.4091458428234631
  0.8367494545672471  0.8371907326380565  0.4895276837089426
  0.7608773655398409  0.9210256593143100  0.5825433594062162
  0.6552436990529884  0.9841617547750374  0.6566188863581885
  0.5798983781866838  0.0838474226804138  0.7338795917246088
  0.5741724911092447  0.0974571305841891  0.9237972403700141
  0.4962411701830121  0.1904437914568859  0.0027869690521882
  0.4219815491888426  0.2665989041396912  0.0870731454287537
  0.3109445996163984  0.3285943363901538  0.1501909279349505
  0.2432735090505886  0.4299536362183360  0.2365326690242142
  0.1594458742907392  0.4991608721929168  0.3282356694038171
  0.0701940282106577  0.5845007257452224  0.4120133526132790
  0.9991979421401709  0.6633509939662758  0.4852437290218177
  0.9024259210421164  0.7440980185606989  0.5763768745504692
  0.8275167575721269  0.8148400793175128  0.6659486454087755
  0.7523281632102581  0.9085286876648269  0.7392573543514729
  0.6621083892751543  0.9906687824662370  0.8326521123032080
  0.6677089586829723  0.0052848682370339  0.9952087508990672
  0.5765634225405591  0.0816487752737132  0.0811924138895534
  0.5055476914009418  0.1832257761927565  0.1518233567090235
  0.4138406751977968  0.2460146422720371  0.2441364306121656
  0.3226223442619656  0.3478497427675222  0.3259238936506037
  0.2483539294134118  0.4129771972149001  0.4174883551106845
  0.1598396422720398  0.4989523975065921  0.4967432085630961
  0.0671725265723637  0.5821422990090284  0.5868284004635171
  0.9933840740629734  0.6818298594461751  0.6638833682969718
  0.9179080241548760  0.7500644979221605  0.7549499310716854
  0.8344769075161835  0.8265765089307138  0.8350313888555903
  0.7683984226404519  0.9191419613601823  0.9228256303444411
  0.7529429413410043  0.9250528725125875  0.0790542455845937
  0.6709351394549685  0.9957043185087500  0.1620790557819873
  0.5916088467993319  0.0843749230799986  0.2579126238711709
  0.5070828718133171  0.1680499270758418  0.3324695072125010
  0.4013938314153265  0.2499671541596769  0.4126952913969504
  0.3285634285343235  0.3419080995764432  0.4967672101014955
  0.2388525888076387  0.4232929468352893  0.5660142262047501
  0.1595998766283060  0.4989766517821437  0.6513723807240481
  0.0925843772476611  0.5824603237632857  0.7486335680891898
  0.9900130604171693  0.6546423005074757  0.8433183454207622
  0.9113598487572929  0.7506222613481981  0.9211010663909533
  0.8349755374410606  0.8374579032805869  0.0084271762367152
  0.4177415697674434  0.4186380164628787  0.5691984815791571
  0.3314936790737661  0.4901796087069457  0.6513091245105116
  0.2425001508431208  0.5873411691840502  0.7505720525653317
  0.1614162206305423  0.6708363966474877  0.8385711989530904
  0.0865711355190584  0.7495546037121414  0.9198360000599379
  0.9996742512786696  0.8368745050147837  0.0022103822025059
  0.9121050672300797  0.9282686171381798  0.0750041756573196
  0.8271442309997639  0.0029917231079679  0.1477660867697566
  0.7599498646407739  0.0820599386637895  0.2545019309917720
  0.6786492168145131  0.1713304448373663  0.3399034888715704
  0.6001158240429945  0.2399721234915688  0.4163167480819965
  0.5010747997083058  0.3395374690322086  0.4948390733636998
  0.4983562829657160  0.3398214481938808  0.6634830980779967
  0.4144427170742446  0.4083699627387531  0.7376899339686744
  0.3414062200311676  0.5105922460640926  0.8156435337249235
  0.2484318623631410  0.5849029754055763  0.9156243471789338
  0.1519802080835930  0.6613566695636521  0.0103449972029068
  0.0784144584632003  0.7604771172980094  0.0985180672101009
  0.9812461275273705  0.8423018965276086  0.1714765773595488
  0.8909318134140491  0.9253159269359870  0.2657841225125850
  0.8204610864700683  0.9974509250379597  0.3447446765364006
  0.7577694512706756  0.0853770243946315  0.4300470485694845
  0.6677663899544442  0.1516749665348058  0.5002952599296719
  0.5665830726044945  0.2727060127467453  0.5635027751138821
  0.5777089636777788  0.2603406557180534  0.7568616403939927
  0.5065317324982033  0.3357272936146387  0.8389845195996202
  0.4013166172180931  0.4026622172940151  0.9201292890394015
  0.3197180776991928  0.5042500929033835  0.9998246718412815
  0.2518721244905322  0.5951714636777723  0.0912883621034126
  0.1497342249060978  0.6653432729960826  0.1761141892431866
  0.0825500289698695  0.7618165298089963  0.2451805482298397
  0.0045244895308869  0.8471978162710769  0.3471633990649750
  0.9061487857628094  0.9160109895708501  0.4224017102213722
  0.8417394060177443  0.9989419323903164  0.5045002247662467
  0.7441773080995802  0.0699576380564224  0.5933268845400761
  0.6584163435027577  0.1830839027411457  0.6614962933549080
  0.6619655513266238  0.1753943134140528  0.8104945661512062
  0.5847385224366661  0.2619850115879458  0.9158411437105443
  0.5011139454966838  0.3261726314632796  0.0025489580835938
  0.4089015793574688  0.4221484256373387  0.0900684558059623
  0.3261167286022513  0.5103799198833201  0.1791919204027792
  0.2426784209422195  0.5845360824742301  0.2575741698633394
  0.1551848752297644  0.6625231614121319  0.3364452749140909
  0.0983098897146988  0.7568620644529673  0.4170702169743450
  0.9990559458163517  0.8223020059138477  0.5049638490969386
  0.9053500434548098  0.8961596479661154  0.5945108012666793
  0.8308814472948143  0.9903938603851969  0.6698887521977142
  0.7382939587828687  0.0683495964197220  0.7500757217493828
  0.7423133780867914  0.0855975390593784  0.9038829057779907
  0.6748282940741603  0.1732704257572095  0.9974715590785550
  0.6014234201430497  0.2514148515543866  0.0738311935586964
  0.5186771023135961  0.3377236688843581  0.1657634505114700
  0.4157528345520660  0.3988780533245446  0.2357034579037816
  0.3332955840925464  0.4999547435666898  0.3234402801086844
  0.2544919598617454  0.5856901332614086  0.4153505364420980
  0.1627210780787962  0.6512367213098358  0.5151148280788007
  0.0757746858267367  0.7504627607288441  0.5823627247662415
  0.0027834457164531  0.8240196745384765  0.6621114326100823
  0.9261906347398678  0.9059498306761000  0.7451303444417832
  0.8368122512586922  0.9910740949412613  0.8181698533525150
  0.8472966984336310  0.0079066116239090  0.9839044988212251
  0.7579186960561017  0.0818401542395932  0.0654814807600061
  0.6769979656157616  0.1543062375129836  0.1612019185047586
  0.6112332753935874  0.2539237443059221  0.2446716429912925
  0.4952175247742332  0.3220627477423506  0.3241636782745942
  0.4087424053983852  0.4216332908774874  0.4180944837369154
  0.3403892476824097  0.5059869815392020  0.4929591924398622
  0.2623013755694075  0.5796510229361473  0.5891202804083733
  0.1830485904659156  0.6714287810676893  0.6638179967833437
  0.0861427305602191  0.7523250029968835  0.7552844496723381
  0.9981269929273537  0.8145491723607421  0.8467801111843656
  0.9188681541197141  0.9113332664029414  0.9120867392911407
 
  0.00000000E+00  0.00000000E+00  0.00000000E+00
  0.00000000E+00  0.00000000E+00  0.00000000E+00
  0.00000000E+00  0.00000000E+00  0.00000000E+00
  0.00000000E+00  0.00000000E+00  0.00000000E+00
  0.00000000E+00  0.00000000E+00  0.00000000E+00
  0.00000000E+00  0.00000000E+00  0.00000000E+00
  0.00000000E+00  0.00000000E+00  0.00000000E+00
  0.00000000E+00  0.00000000E+00  0.00000000E+00
  0.00000000E+00  0.00000000E+00  0.00000000E+00
  0.00000000E+00  0.00000000E+00  0.00000000E+00
  0.00000000E+00  0.00000000E+00  0.00000000E+00
  0.00000000E+00  0.00000000E+00  0.00000000E+00
  0.00000000E+00  0.00000000E+00  0.00000000E+00
  0.00000000E+00  0.00000000E+00  0.00000000E+00
  0.00000000E+00  0.00000000E+00  0.00000000E+00
  0.00000000E+00  0.00000000E+00  0.00000000E+00
  0.00000000E+00  0.00000000E+00  0.00000000E+00
  0.00000000E+00  0.00000000E+00  0.00000000E+00
  0.00000000E+00  0.00000000E+00  0.00000000E+00
  0.00000000E+00  0.00000000E+00  0.00000000E+00
  0.00000000E+00  0.00000000E+00  0.00000000E+00
  0.00000000E+00  0.00000000E+00  0.00000000E+00
  0.00000000E+00  0.00000000E+00  0.00000000E+00
  0.00000000E+00  0.00000000E+00  0.00000000E+00
  0.00000000E+00  0.00000000E+00  0.00000000E+00
  0.00000000E+00  0.00000000E+00  0.00000000E+00
  0.00000000E+00  0.00000000E+00  0.00000000E+00
  0.00000000E+00  0.00000000E+00  0.00000000E+00
  0.00000000E+00  0.00000000E+00  0.00000000E+00
  0.00000000E+00  0.00000000E+00  0.00000000E+00
  0.00000000E+00  0.00000000E+00  0.00000000E+00
  0.00000000E+00  0.00000000E+00  0.00000000E+00
  0.00000000E+00  0.00000000E+00  0.00000000E+00
  0.00000000E+00  0.00000000E+00  0.00000000E+00
  0.00000000E+00  0.00000000E+00  0.00000000E+00
  0.00000000E+00  0.00000000E+00  0.00000000E+00
  0.00000000E+00  0.00000000E+00  0.00000000E+00
  0.00000000E+00  0.00000000E+00  0.00000000E+00
  0.00000000E+00  0.00000000E+00  0.00000000E+00
  0.00000000E+00  0.00000000E+00  0.00000000E+00
  0.00000000E+00  0.00000000E+00  0.00000000E+00
  0.00000000E+00  0.00000000E+00  0.00000000E+00
  0.00000000E+00  0.00000000E+00  0.00000000E+00
  0.00000000E+00  0.00000000E+00  0.00000000E+00
  0.00000000E+00  0.00000000E+00  0.00000000E+00
  0.00000000E+00  0.00000000E+00  0.00000000E+00
  0.00000000E+00  0.00000000E+00  0.00000000E+00
  0.00000000E+00  0.00000000E+00  0.00000000E+00
  0.00000000E+00  0.00000000E+00  0.00000000E+00
  0.00000000E+00  0.00000000E+00  0.00000000E+00
  0.00000000E+00  0.00000000E+00  0.00000000E+00
  0.00000000E+00  0.00000000E+00  0.00000000E+00
  0.00000000E+00  0.00000000E+00  0.00000000E+00
  0.00000000E+00  0.00000000E+00  0.00000000E+00
  0.00000000E+00  0.00000000E+00  0.00000000E+00
  0.00000000E+00  0.00000000E+00  0.00000000E+00
  0.00000000E+00  0.00000000E+00  0.00000000E+00
  0.00000000E+00  0.00000000E+00  0.00000000E+00
  0.00000000E+00  0.00000000E+00  0.00000000E+00
  0.00000000E+00  0.00000000E+00  0.00000000E+00
  0.00000000E+00  0.00000000E+00  0.00000000E+00
  0.00000000E+00  0.00000000E+00  0.00000000E+00
  0.00000000E+00  0.00000000E+00  0.00000000E+00
  0.00000000E+00  0.00000000E+00  0.00000000E+00
  0.00000000E+00  0.00000000E+00  0.00000000E+00
  0.00000000E+00  0.00000000E+00  0.00000000E+00
  0.00000000E+00  0.00000000E+00  0.00000000E+00
  0.00000000E+00  0.00000000E+00  0.00000000E+00