Li 
 1.0000000000000000
    20.0207999999999977    0.0000000000000000    0.0000000000000000
     0.0000000000000000   20.0207999999999977    0.0000000000000000
     0.0000000000000000    0.0000000000000000   20.0207999999999977
 Li 
 432
Cartesian
  0.3062034200000000  0.1068880900000000  0.1028452400000000
 18.2413174799999993  1.5185311800000001  1.8161018200000001
 17.0360852999999999  3.5458493400000002  3.2076263500000000
 15.2722859700000004  5.3825797700000004  4.9383419000000002
 13.5559853300000004  6.7644617000000000  6.8358964200000001
 11.5424732999999993  8.4897461500000002  8.3625542999999993
  9.9515297199999999  9.9777721699999997 10.1513511300000001
  8.4253479000000002 12.1174824399999999 11.7024846399999998
  6.5555463800000000 13.3911311600000005 13.6600351300000007
  4.9453393500000002 15.2268299000000003 15.4575465100000002
  3.5927842700000001 16.8258727400000012 16.8822984600000012
  1.6638504000000001 18.3051375599999986 18.4611729699999998
  1.6132954200000000 18.3039150100000008  1.6670264900000000
 -0.1162741600000000  0.0195903900000000  3.5592301900000001
 18.1904935200000004  1.7372658900000000  5.1246432400000002
 16.5222030500000017  3.5263534200000000  6.6535057599999998
 15.2514616699999994  5.1982945899999997  8.7340795599999996
 13.8712386500000004  6.7347001700000000 10.0366898599999992
 11.9576502700000002  8.4128578800000007 11.9493916000000002
 10.0355640600000005  9.9499212999999997 13.3016213000000008
  8.4871930800000008 11.6154571600000001 15.1205668200000005
  6.8689132700000002 13.3596243500000007 16.9756185799999990
  4.9887808800000002 14.8112708200000007 18.7729168100000017
  3.3418258199999999 16.6070273499999992  0.2323620700000000
  3.3474473499999999 16.9290495000000014  3.4922787199999998
  1.7276485500000001 18.3762851800000000  4.9354181199999996
 -0.1734690600000000 -0.0655019000000000  6.6935819900000002
 18.1903622100000000  1.6845093499999999  8.3830784099999995
 16.8225501100000017  3.4419423700000000 10.2880072100000000
 14.9002173100000004  4.9505453299999997 11.8025955600000003
 13.6584963699999999  6.6287903000000004 13.6454034199999992
 11.8476316799999992  8.3426520100000001 15.0770295799999996
  9.7931625800000006  9.9648320699999999 16.8057062399999992
  8.1969916699999992 11.5228914000000007 18.5082825799999995
  6.6039936399999997 13.2243540399999997 20.4495294799999989
  4.7741387499999997 14.9110616999999994  1.6380221100000001
  4.8716133499999996 14.8835872899999995  5.1698719100000003
  3.4670922900000001 16.7289573300000001  6.7309474299999996
  1.9026205700000001 18.3393656199999988  8.3878766500000008
  0.2280982100000000 -0.2856325200000000 10.0701908800000002
 18.2537829299999999  1.4312896300000000 11.7487680000000001
 16.6456430100000006  3.2192967299999999 13.7759082900000003
 15.3117256600000005  4.6239796999999996 15.3953437399999995
 13.4360710999999995  6.3321726500000004 16.7436464700000016
 11.7082705899999997  8.4482461400000002 18.4641855600000007
  9.9629884900000008 10.0893922000000007 -0.0372300000000000
  8.3989543900000001 11.4799785799999992  1.7528858100000000
  6.4297198299999998 13.1679614399999991  3.3504063199999998
  6.8839630200000004 13.1208858300000006  6.8014031099999999
  4.9625782599999999 14.8331391299999993  8.2180869500000000
  3.6089177600000002 16.4962559300000002 10.2820368799999997
  1.8575209500000001 18.0495292700000007 11.6607458800000003
  0.0251157100000000 -0.3557399500000000 13.2911462599999997
 18.4538843499999992  1.4985073499999999 14.8438222599999996
 16.7943052100000010  2.9706397999999998 16.3232010599999988
 15.1183850300000007  4.9260584800000000 18.2954394700000016
 13.5796115600000000  6.9962924099999997 -0.2314447800000000
 11.6394493200000007  8.7760852800000002  1.6634015900000001
  9.8301348100000006  9.9023839400000000  3.4874975799999999
  8.2888713400000000 11.9561203099999993  4.9805701400000002
  8.4530959699999997 11.7314725099999997  8.2094362200000006
  6.8097451099999997 13.4118326700000008  9.7850691100000002
  5.0483984299999998 14.9858709099999992 11.5899350499999994
  3.4169703600000001 16.6898306800000000 13.4700299200000000
  1.9336116600000000 18.1147128600000009 15.0611849299999996
  0.2708972200000000 -0.0660145400000000 16.3775105100000005
 18.5322007999999983  1.6369019000000000 18.1577349599999991
 16.9956603500000014  3.4575845799999998 19.7588367600000012
 15.2270178900000008  5.2841468300000001  1.9205603899999999
 13.4447458399999995  6.9270163000000000  3.3750047900000002
 11.6129036600000006  8.3670559200000003  5.3253338799999996
  9.8213808199999999  9.9854269299999991  6.5647336100000002
  1.4972428300000000  1.5311679800000000 18.0805622399999990
 -0.1253139900000000  2.9915621400000001 -0.4655041800000000
 18.6562574699999999  4.7501782800000001  1.3403708400000001
 16.8009917900000012  6.8901062000000000  3.2644831900000000
 15.2554076900000002  8.2837428299999996  4.8147967800000000
 13.5402594199999999 10.1012067099999996  6.8708793799999999
 11.5619732899999992 11.5649520999999993  8.2273357800000007
  9.9555851600000000 13.2946317500000006  9.8212080900000007
  8.2320514399999993 15.1374629899999995 11.7451652600000003
  6.6289714899999996 16.5981179899999987 13.4943581199999993
  5.1691511800000001 18.6462309200000007 15.0741668299999994
  3.1250564299999999 -0.0101753700000000 17.0535745500000004
  3.1058252899999998  0.2381740300000000  0.2672356900000000
  1.2750658600000000  1.7646776300000000  1.9530312999999999
 -0.0420979000000000  3.1160132200000001  3.4769280800000000
 18.3536568299999985  4.9272111799999996  4.9035664199999998
 16.8398163700000012  6.4540979099999998  6.7296158699999999
 15.2377659300000001  8.1515563600000007  8.5154261200000008
 13.2507385699999993  9.8925839799999995  9.7813957800000004
 11.8762606399999999 11.5647650700000000 11.5108875800000003
 10.1655679800000005 13.2864883500000008 13.3545154700000008
  8.6092002200000000 15.3351229000000000 14.9696152799999993
  6.6811217400000000 17.0894791499999990 16.9953239099999998
  5.2372097499999999 18.5345938399999994 18.5617193699999987
  4.7770850700000000 18.1873210900000011  1.6336910600000001
  3.2639688499999999  0.1233166500000000  3.1974642000000002
  1.7066947699999999  1.5942048900000001  5.2217093700000001
 -0.3236824100000000  3.1947899500000001  6.7932026299999997
 18.4229807299999990  4.6765162599999996  8.6371260599999999
 16.9198466699999983  6.6744459799999998 10.4457759600000006
 14.7865016600000008  8.3319029199999992 11.7335394199999996
 13.6664182400000005 10.1636182599999998 13.4113966199999997
 11.5945931099999999 11.8851408400000000 15.0450574699999997
  9.8870269999999998 13.6265560499999996 17.1225638400000015
  8.1568547700000007 15.0282800800000000 18.6628062200000002
  6.9466031199999998 16.7119071999999989 20.3140281099999989
  6.3696659400000000 16.7974706800000000  3.3605930300000000
  5.0604729700000002 18.4468524299999999  4.7907080000000004
  3.5592893900000000 -0.0673265200000000  6.4575363599999998
  1.4791448400000000  1.5440122900000000  8.3526217799999998
  0.1393621900000000  3.3404612999999999 10.3210196900000000
 18.4468426900000004  4.9242301299999998 11.8620854300000005
 16.6250200600000007  6.5375836300000003 13.2718073099999998
 15.0938886700000001  8.0633766999999992 14.9902046799999997
 13.5024887800000002  9.8677636500000006 16.7550010900000004
 11.6710837000000005 11.6898294699999994 18.2999033900000008
 10.1058697500000001 13.2632144600000004 20.0149468199999987
  8.2161026300000000 14.6510099900000004  1.7952167699999999
  8.2907119300000005 14.9994356999999994  4.9241524099999996
  6.5227280399999996 16.6086991600000005  6.5135754700000001
  4.7735552900000000 18.3245740099999992  8.3470421600000009
  3.3055962600000002 -0.0990331000000000 10.0756627699999992
  1.6262173400000000  1.6025713300000000 11.6844522400000006
  0.1653681700000000  2.9846749300000002 13.3237430799999998
 18.8181668500000008  4.8693949999999999 15.0230747400000002
 17.0471563000000010  6.5940951999999999 16.7275484699999986
 15.3135513400000001  8.2252697300000008 18.0723104899999996
 13.6295092300000000 10.1429849399999998 20.0811978599999996
 11.5809090799999996 11.6631624600000006  1.7462939900000001
 10.1483807200000005 13.3826884899999996  3.3474704000000002
 10.2652139600000005 13.2440358299999996  6.4653360800000002
  8.5606256500000004 14.9373568999999993  8.1620602099999999
  6.7175342999999996 16.7965807200000015  9.8292024999999992
  5.3233202400000001 18.3363693699999999 11.6933109999999996
  3.4378093500000002  0.0719172700000000 13.2343386899999995
  1.6610242300000000  1.5969804400000001 14.7431620500000005
  0.1041138500000000  3.3727932799999998 16.7491187000000004
 18.1436185799999983  5.1699506499999996 17.9926308699999993
 16.7206794099999989  6.5850783899999996 20.2110340599999994
 14.7167870799999996  8.5543748900000001  1.5394721499999999
 13.2657262399999993  9.8078409000000004  3.3428784399999998
 11.9699300700000002 11.5119497000000006  4.8489213199999996
  3.3624915000000000  2.8005113700000002 16.4774913000000005
  1.9863949999999999  4.6590859399999998 18.2034397699999992
  0.0909194200000000  6.4387147300000001 -0.2218276000000000
 18.8633281500000010  8.3049892900000000  1.8288719300000000
 16.4878542299999999 10.1478898500000003  3.2073671699999999
 14.7752989899999996 11.6476070499999995  4.8944716799999997
 13.2197668000000004 13.3185698400000003  6.5453829399999996
 11.5314529100000005 15.1375654700000002  8.5063309999999994
  9.8566684200000001 16.7658782600000009  9.7937909600000008
  8.1983053199999993 18.4443477999999992 11.5836092300000004
  6.6735921600000001 20.0556046799999983 13.3675922699999994
  5.0330271599999996  1.5441199600000000 15.2381864399999998
  4.9794810299999996  1.5385047500000000 18.5886105800000010
  3.5433604500000002  2.9391465900000000 -0.1935713600000000
  1.7802982899999999  4.6962986000000004  1.4158828999999999
  0.2823173100000000  6.3669376900000003  3.5615925100000001
 18.3294572199999983  8.6302349899999999  5.1057806599999997
 16.3594054100000008 10.1550940700000005  6.8059785799999997
 15.0698588400000002 11.9464241500000004  8.5451700400000004
 13.3292502699999993 13.3619908400000007 10.1669791800000002
 11.3603966700000001 14.8785833699999994 11.6142643799999998
 10.3683525599999999 16.6494865899999986 13.3320422399999998
  8.6266697000000008 18.3871618000000012 14.9587532299999992
  6.9202513799999998 20.2143933999999987 16.7756698899999996
  6.8451364000000003  0.0165678900000000 -0.0065088700000000
  4.9209784699999997  1.5881353199999999  1.6115142700000000
  2.9981220600000000  3.1538381499999999  3.3490651900000001
  1.6244859500000000  4.5709918700000003  5.0718505100000000
  0.0910186400000000  6.7454287199999996  6.6712360999999998
 18.2133059000000017  8.2453674400000008  8.4409940900000002
 16.6560549100000017 10.0447752500000007 10.1072830000000007
 15.1622801799999998 11.9114168300000003 11.4817200600000007
 13.1628537500000000 13.5387433999999995 13.0443397700000006
 11.6903477400000000 15.0550622799999996 15.1201544699999992
 10.0544848200000008 16.7540452000000002 16.8935234700000017
  8.6553853600000004 18.3381258000000003 18.2824604800000010
  8.2731816400000007 18.1810494700000014  2.2053588199999998
  6.2807460600000002  0.1436034000000000  3.1492614699999999
  4.7284519600000001  2.0776018100000000  4.7362583200000001
  3.1053959000000000  3.4766851000000001  6.7194496099999999
  1.6535965399999999  4.9618075099999999  8.3205435399999992
 -0.0662945000000000  6.6250408500000004  9.8043404899999995
 18.5618295000000018  8.3384457600000008 11.9136114099999997
 16.8067095500000008  9.9650751999999994 13.5359446800000001
 14.8744127200000005 11.8736704799999995 15.0145219999999995
 13.2642989799999995 13.1441772300000004 16.7487660299999988
 11.8866473199999998 15.1898482000000001 18.2893834200000001
  9.7853253200000001 16.5772109900000011 19.9458812899999991
  9.9992706099999999 16.6500474999999994  3.3796426500000001
  8.2309435499999992 18.1580392599999989  4.8212892399999996
  6.6331186000000004 -0.2936298300000000  6.1695596699999999
  4.7612724300000000  1.6744914600000000  7.9832327000000003
  3.4346184200000001  3.2797868399999999  9.8077511800000003
  1.4177287700000001  4.8407696600000003 11.8987290300000002
  0.1874653900000000  6.7105546499999997 13.1820766099999993
 18.4458367299999999  8.2237535400000006 15.0295977700000005
 16.9464380500000011 10.1996701000000005 16.4489988899999986
 15.2988960600000006 11.7640514399999994 18.6121902800000001
 13.3505903999999997 13.4605740600000008 19.8926341899999990
 11.9767119700000002 15.0738285899999997  1.6487837999999999
 11.8006449399999997 15.2276353100000001  4.6778971100000000
  9.9584792400000008 16.5993967200000014  6.7135722199999996
  8.2385184999999996 18.4222479099999994  8.2146266000000008
  6.5777672599999999  0.2819485700000000 10.0918539299999992
  5.1367247100000002  1.6794649300000000 11.7423613899999992
  3.0815109600000001  3.3580858700000000 13.3476499400000002
  1.7923512300000000  4.9904227499999996 15.0928818000000007
  0.1617136900000000  6.7808543999999999 16.5200443999999997
 18.5809047000000014  8.3132112899999999 18.6761054500000014
 16.7236631699999982  9.6198073799999992 20.1366375899999994
 14.9491409999999991 12.0222094500000001  1.7473758300000000
 13.1225389000000003 13.6212042699999998  3.6413997100000000
  4.5360497799999999  4.9000823499999999 14.9053235799999992
  2.8909875800000000  6.8804320099999998 16.6126408099999985
  1.5152566900000000  8.2128198099999992 18.3261864199999991
  0.0807004400000000 10.0387717999999992  0.0927165600000000
 18.4698334600000003 11.5333830600000002  1.7303716000000000
 16.6112913499999983 13.0750629000000007  3.5153844099999998
 15.0700338600000006 15.1619817399999999  5.0894202799999997
 13.3981859100000005 16.5241560999999990  6.4978928800000002
 11.8555667699999994 18.3172703299999995  8.0993552799999993
 10.0109241200000003 -0.0257328200000000  9.6443233700000004
  8.2875793499999997  1.5518734599999999 11.6844510800000005
  6.8942641900000003  3.5364643700000000 13.4091152900000008
  6.9403236100000001  3.3796766100000002 16.6124167100000015
  4.8331620199999996  4.7430978799999997 17.9943418299999998
  3.3518469500000001  6.5400217100000004 -0.0553929200000000
  1.4964984500000000  8.1161343899999991  1.6724379400000000
  0.0837397200000000  9.9172818100000004  3.5919401700000000
 18.3580818100000016 11.4196244799999995  5.0157643099999998
 16.6673196700000013 13.3421470600000003  6.5279071499999999
 14.9478788799999993 14.9498486300000000  8.1053707500000005
 13.2773110899999995 16.7260344500000002 10.0396729300000001
 11.4474668400000006 18.3028087299999989 11.5132973300000003
  9.7226531699999992 20.0301198499999984 12.9655201400000006
  8.3623418399999991  1.8124048600000000 14.7863465000000005
  8.4839965100000008  1.9947603800000000 18.2896327700000008
  6.8097661599999997  3.3521476899999998  0.0724993700000000
  4.7676343799999996  4.9274063300000002  1.7728175399999999
  3.1347056900000001  6.5317129400000002  3.7671104600000000
  1.5356547700000001  8.5292755099999997  4.8982106900000000
 -0.2406044400000000 10.0428944500000004  6.9882121799999997
 18.1544771599999990 11.6495828699999997  8.1983841799999997
 16.7349110500000009 13.4541111799999999  9.7287482599999997
 15.0046399800000003 15.0843146600000004 11.5510719999999996
 13.4964382599999997 16.6037848299999986 13.1919277600000004
 11.3887357599999994 18.2676736400000017 15.1159552000000001
 10.1602436699999998  0.1644607500000000 16.6783979900000006
  9.7369391499999995 -0.2525327200000000  0.0084084100000000
  8.6035050900000005  1.7540841899999999  1.8262397600000000
  6.5834607700000003  3.4889776000000001  3.1523544900000000
  5.2164416200000003  4.8792156300000000  4.9333032000000001
  3.1811381500000002  6.7538801299999998  6.4852057099999998
  1.6229200900000000  8.1245526199999993  8.4098953400000003
 -0.1838532200000000 10.0395444099999995 10.0163459400000008
 18.4973470900000017 11.7546263500000006 11.7717267299999993
 16.7570431199999987 13.1748124600000001 13.1193700199999999
 14.6047989000000005 14.8275557800000009 15.1125007300000007
 13.4106720700000004 16.5777239700000010 16.6192418699999998
 11.9126897100000004 18.5170614100000002 18.1615495699999983
 11.7352017199999992 18.3898193300000017  1.5898630400000000
  9.9736849400000001  0.0250120700000000  3.4085512599999999
  8.4101445100000003  1.8856057399999999  4.8688300599999996
  6.5937420700000002  3.4188520800000002  6.5924390300000004
  4.9962872599999999  5.1632053999999998  8.4497419199999992
  3.2803270699999998  6.5164113900000000 10.1431341499999998
  1.5070042200000000  8.2819634499999992 11.4018170100000003
 -0.1612397300000000  9.9511089599999991 13.3614490600000000
 18.3255663200000001 11.6398693200000007 15.0717492199999992
 16.8338830399999999 13.2813217899999998 16.5931311500000014
 14.9689757500000002 14.8612577399999992 18.4485429100000005
 13.4633880599999998 16.6699667799999993 -0.0628186500000000
 13.4830349700000003 16.9555434200000015  3.3714727600000001
 11.6883626599999992 18.6212887599999988  5.2510898800000003
  9.9673335200000004 -0.0498639800000000  6.5320639800000002
  8.1004268899999996  1.7035704199999999  8.2555949000000002
  6.6329058200000004  3.5410976100000000 10.1152282200000005
  4.9658160499999999  4.9466706900000004 11.7617166700000002
  3.2584922299999999  6.7489561599999996 13.3144789600000006
  1.5526298800000000  8.2742437800000008 14.8440927800000004
  0.0743736300000000 10.2164576599999997 16.6194528900000016
 18.2248560700000013 11.4098470499999998 18.5749317900000008
 16.6673251700000016 13.6339445300000008  0.2849603600000000
 15.0058470400000008 15.0321529399999996  2.0399223700000002
  6.4884257099999996  6.4639084200000001 13.3625353199999992
  5.2110177599999998  8.1285106999999996 15.0338560500000007
  3.4542973099999998 10.0146842100000004 16.3925121599999990
  1.6955941200000000 11.3576766199999994 18.2680788900000017
  0.1114800800000000 13.3981781899999994  0.2796785300000000
 18.1709522899999989 15.2325442300000002  1.8990330300000000
 16.6958057900000014 16.9752796699999990  3.4997929800000001
 15.1210872199999997 18.4716961099999999  4.9076859400000004
 13.6188899899999996  0.0498721400000000  6.8252264900000004
 11.7344521999999998  1.4698530400000001  8.1804834300000007
  9.7998235600000001  3.4230345099999999  9.7419633799999996
  8.5501687200000003  5.0455080900000002 11.4637251199999994
  8.3155340599999992  5.1629843199999996 14.9484018699999996
  6.6301991700000000  6.7002098600000002 16.3684099600000010
  4.9909014300000001  8.4125425899999993 17.9454903200000011
  3.2592030300000001  9.9313185399999995  0.2280579800000000
  1.3572024100000000 11.6837565399999992  1.7561609300000001
 -0.2243618200000000 13.5281993899999993  3.5612014599999999
 18.1412919200000005 15.2562519400000003  5.1864540400000001
 16.3980096400000015 17.2343370399999998  7.0232810399999996
 14.8530660300000008 18.3974825700000011  8.5873811399999997
 13.1454243500000008  0.0053773200000000  9.9804298800000009
 11.5120095800000009  1.9909330199999999 11.5646088000000002
 10.1114231300000004  3.5060492800000000 13.3968364900000001
 10.2479168900000008  3.7571417299999998 16.5374878400000007
  8.2588191500000008  5.1256342200000002 18.2090383299999985
  6.4232428099999996  6.4864390600000004  0.1657282700000000
  5.1493834600000001  8.3635204600000002  1.8261538300000000
  3.2931652100000002 10.1456930500000002  3.1881453000000000
  1.4358474999999999 11.5591101399999996  5.0642546800000003
  0.0610355900000000 13.5896157599999992  6.4879301399999996
 18.3817634400000003 15.0155837900000009  8.1914270899999995
 16.7523934799999985 16.7612282199999996  9.8007358500000006
 15.2333735600000004 18.4396705200000000 11.6629840900000001
 13.1185030499999993 -0.3170943400000000 13.1460354000000006
 11.6100294500000008  1.6786924800000000 14.6928565300000002
 11.4953926099999997  1.9511697200000000 18.4951597899999989
  9.9351452200000008  3.8128370600000001  0.0557973500000000
  8.4484081999999994  5.3375233399999997  1.7432740300000000
  6.2253596399999998  6.5787214900000004  3.0069425299999999
  4.8705302699999997  8.6080157600000007  4.7355732599999998
  3.1922339599999998  9.9935999899999999  6.5715406900000000
  1.4053405999999999 11.7021721299999992  8.2488369299999995
 -0.0160578400000000 13.2808175800000008  9.7149676500000002
 18.0672888799999996 14.8974376100000008 11.5395261300000005
 16.5675474999999999 16.3137502599999991 13.3328246400000001
 15.0622116899999998 18.1894711499999993 14.8005236399999998
 13.2559396399999994 -0.1868184400000000 16.6703614100000017
 13.3680675200000003  0.1058072900000000 -0.0959246400000000
 11.5432609700000004  1.6346738000000001  1.6255370800000000
 10.1214692199999998  3.6683266200000002  3.0396250600000001
  8.2854213899999998  4.9254099499999997  4.8878066499999999
  6.4591574300000003  6.9642301299999998  6.5252570900000002
  4.9722443500000004  8.2681338699999998  8.3584508599999996
  3.2001175100000001  9.9894261600000007  9.9451964299999993
  1.3448477200000000 11.6549545400000003 11.7487740400000007
 -0.1324561300000000 13.6507792499999994 13.2914761400000003
 18.3772529700000007 15.0168912999999993 15.1147015800000002
 16.7068952700000004 16.5487229700000000 16.7179964299999995
 15.3839511400000006 18.4019573799999989 18.4757073799999993
 15.0745200399999995 18.5202985499999997  1.5827292399999999
 13.4326582400000003 -0.0860029800000000  3.2449523600000001
 11.8444824000000004  1.6892534600000000  5.1636170600000000
 10.1522047600000001  3.3644939800000002  6.6563055100000001
  8.0362256199999997  5.0045424000000001  8.2624898899999994
  6.5781026899999997  6.8452736800000000  9.9456769600000001
  4.7820199099999998  8.4746634299999997 11.3320576200000005
  3.1953172099999998  9.9899117499999992 13.0409961600000006
  1.8536132999999999 11.6613216499999997 14.9882429399999992
 -0.1999465200000000 13.1064625699999997 16.8839079299999995
 18.2461532599999998 15.0280581699999995 18.4411802300000005
 16.7168782399999998 16.7665771899999996  0.1687188100000000
  8.3635204200000004  8.3814679999999999 11.3958089600000001
  6.6367686499999996  9.8137879100000003 13.0397297200000004
  4.8550470199999998 11.7590400800000001 15.0270529499999999
  3.2316818700000001 13.4306813300000005 16.7888662599999989
  1.7332233900000000 15.0066828099999992 18.4158525900000001
 -0.0065217500000000 16.7548970900000000  0.0442536200000000
 18.2610731299999998 18.5846803300000012  1.5016436000000000
 16.5600892199999983 20.0806966899999999  2.9583952700000000
 15.2148042500000003  1.6429056200000001  5.0953322600000002
 13.5871002399999998  3.4301725699999999  6.8051397700000003
 12.0147988899999998  4.8044338900000003  8.3349943500000006
 10.0319183499999998  6.7978117600000001  9.9070741200000008
  9.9774914700000004  6.8034972500000004 13.2834624100000003
  8.2974747499999992  8.1758933500000008 14.7691426299999993
  6.8352256499999999 10.2224652400000000 16.3298360600000017
  4.9738046300000001 11.7102254899999991 18.3315319300000006
  3.0427653499999998 13.2408896100000000  0.2071151200000000
  1.5699201899999999 15.2253602699999995  1.9724105199999999
 -0.3754675300000000 16.8635578099999996  3.4330982600000000
 17.8371676500000014 18.5255651099999987  5.3212107599999996
 16.4262873200000001 19.9697654799999995  6.9020642199999998
 15.1711506299999996  1.7093163300000001  8.6098859500000007
 13.3692173400000005  3.0366541699999998 10.0163113399999997
 11.3434463799999996  5.4597925399999996 11.2817763600000003
 11.5661956200000002  5.2122282000000002 15.1529755300000009
 10.1411705100000002  6.7215290000000003 16.7971412700000009
  8.0346797300000006  8.0616197199999995 18.4217244700000009
  6.4010116899999998 10.0954902600000000 -0.0035102100000000
  5.0426814300000000 11.9158088400000004  1.8276660400000000
  2.9977989699999998 13.3207045999999991  3.5259469600000002
  1.6527176200000000 15.2521763799999999  4.9087107200000002
  0.0905839000000000 16.9615780399999991  6.9504889800000003
 18.1418236099999994 18.3392728200000015  8.4568201599999995
 16.8522962999999990 -0.0211833600000000 10.1004980999999994
 14.8990250500000005  1.4006078799999999 11.8788788899999993
 13.1820219299999994  3.6654862000000001 13.2436849900000002
 13.2530799100000003  3.5115344700000000 16.2267496099999988
 11.7069330100000002  5.2451495200000000 18.3358723700000006
 10.0327020800000000  6.5302370200000004  0.0510321800000000
  8.1865367399999993  8.4517492000000001  1.8032425400000001
  6.5291177999999999 10.2182142999999996  3.5875656000000000
  4.8586161299999997 11.7028800000000004  5.1568409400000004
  3.1069253500000000 13.2642437100000006  6.7359035599999997
  1.9682426399999999 15.1529840199999999  8.3500794000000003
 -0.0189007200000000 16.4631439999999998 10.1097802300000001
 18.1258321500000008 17.9418330799999985 11.9025818500000007
 16.6349112800000007 19.8284774000000006 13.4117087300000009
 14.7812356900000008  1.3684136000000000 15.0171160100000005
 14.8617076800000003  1.7137312099999999 18.0964588800000001
 13.5106023099999994  3.4690125400000000 -0.0506214100000000
 12.0409780099999999  5.0335264600000000  1.4781595599999999
 10.3843305299999997  6.7614980300000003  3.3187168900000001
  8.3237043499999999  7.9858577300000002  4.7189717900000003
  6.6728442299999999 10.0094939299999997  6.4755331600000003
  5.0951326300000002 11.7259850199999995  8.3156500199999996
  3.2578061599999999 13.0382801500000003 10.3130109500000007
  1.5170698300000001 15.0248648399999993 11.6593676399999993
  0.0557268100000000 16.4975330999999983 13.2560005699999994
 18.5430774599999992 18.1378403699999993 14.9181056000000005
 16.7536507199999996 19.8420962400000001 16.3804149999999993
 16.9635577399999988  0.1582966900000000 -0.3222448100000000
 15.1741386299999998  1.6385053599999999  1.3109916300000000
 13.5540408699999997  3.0893343199999999  3.2273913699999999
 12.2373791599999997  5.0837564999999998  4.8985220299999996
  9.9146510200000009  6.4479538600000001  6.4900161699999996
  8.1833499500000002  8.4414357899999999  8.3705860399999992
  6.8148650499999999 10.1302641599999994  9.8694374000000007
  5.2514833799999998 11.6050772000000002 11.7946593100000001
  3.6647792199999998 13.4425413400000000 13.2901673500000008
  1.7246463800000000 15.0621484199999998 15.1213989099999999
 -0.0374991000000000 16.3079260700000006 16.9532152499999995
 18.3964755400000008 18.2456210600000013 18.2607061900000005
