Li                                      
   1.00000000000000     
    21.6499999999999986    0.0000000000000006    0.0000000000000000
     0.0000000000000006   21.6499999999999986    0.0000000000000000
    -0.0000000000000006   -0.0000000000000006   21.6499999999999986
   Li
   500
Direct
  0.0045988988452663  0.9874578558891471  0.9992937713625878
  0.9842127658198621  0.0838645921478047  0.0952597025404174
  0.9941036235565832  0.1723327681293298  0.2099475584295618
  0.9989416812933030  0.2822462360277171  0.2999841667436485
  0.0145896688221683  0.3753135288683609  0.4166714124711319
  0.9885195824480348  0.5073570799076208  0.4825573699769024
  0.9994480309468798  0.6025635279445751  0.5838759177829118
  0.9888608937644321  0.7021679357967656  0.6910961399538138
  0.9955159949191668  0.7931975256351009  0.7883382729792174
  0.0063930364896052  0.8885980586605058  0.8909687976905332
  0.1072126540415681  0.9912155986143176  0.1028328826789817
  0.1010066175519597  0.0801842785219407  0.2043709958429574
  0.0967462004618937  0.1750925889145520  0.3010926212471148
  0.0910948803695177  0.2797213524249429  0.4339047270207885
  0.1261320424942269  0.3969637177829100  0.4977343394919203
  0.1023808457274811  0.4887460175519607  0.5996161722863746
  0.1165724041570471  0.6021868240184745  0.6829929939953843
  0.0898327598152449  0.6924708752886843  0.7903918521939985
  0.1021021630484995  0.7733344831408786  0.9109154969976885
  0.0982798106235592  0.8924372466512693  0.0030649450346445
  0.2029679824480368  0.9934724207852170  0.1865615182448011
  0.2206608193995407  0.0903979390300265  0.2993489279445711
  0.2095634337182446  0.1898765196304879  0.4007410032332572
  0.2069919893764407  0.2867327903002277  0.4953386152424955
  0.1947522004618918  0.4094764840646619  0.6135196933025426
  0.2106995995381098  0.5036902683602804  0.6992267025404146
  0.1800815972286358  0.6005598503464213  0.8185511972286363
  0.2119476120092401  0.6906007935334841  0.8782162933025432
  0.2098736290993060  0.7879954799076216  0.0001692900692873
  0.2153714997690557  0.9045820064665122  0.0791784466512695
  0.3089900115473441  0.0027387792147806  0.2689410415704359
  0.3370172263279443  0.1082776355658197  0.3911901778291025
  0.3291374900692858  0.2108295177829120  0.5114015792147839
  0.2979226937644341  0.3131558009237878  0.6117886919168569
  0.3217280535796760  0.4082502318706673  0.7163008882217099
  0.2895410812933008  0.4851289579676674  0.8077840517320993
  0.3019716669745947  0.5902747422632828  0.8951420956120089
  0.2969088586605082  0.6776639316397208  0.0042905482678961
  0.3046448526558905  0.8025973025404127  0.0799014877598125
  0.3135915187066942  0.8908607667436499  0.1929198785219413
  0.3865360161662821  0.0026527579676667  0.3895557265588891
  0.4160901256351011  0.1084518678983812  0.5142726531177857
  0.3885167274826813  0.2057046272517340  0.6293865639722895
  0.4011971644341799  0.3019835515011522  0.7173786397228668
  0.4169465422632825  0.4153461672055414  0.7925315801385651
  0.4022588503464206  0.4902404221708991  0.8993639357967638
  0.3789183214780607  0.5867460757505754  0.0016651815242525
  0.3809149071593509  0.6846673907621224  0.0863964023094681
  0.4068022706697434  0.8129969404157009  0.1878119413394899
  0.3945151759815246  0.8993916872979213  0.2809485533487290
  0.4950130161662827  0.0007875080831425  0.5028308512702111
  0.4964130845265586  0.0977183727482682  0.6045204803695157
  0.5048265085450367  0.2078659441108570  0.6842367011547310
  0.5046202374133983  0.3051178859122388  0.8135907316397208
  0.5019521344110842  0.4015627635103911  0.9027489824480384
  0.5059026471131673  0.5060894355658192  0.0171936337182430
  0.5014716387990745  0.6054440494226299  0.0925718226327916
  0.4771630526558894  0.7134353011547319  0.2101338420323344
  0.5077440143187033  0.7968946651270201  0.2995733002309464
  0.5040062646651293  0.8896099436489635  0.3974567334872958
  0.5972771602771374  0.9936033981524233  0.5995236203233247
  0.6108946886836009  0.0968338277136240  0.7018493963048513
  0.5963229247113162  0.1894158882217098  0.7987931482678974
  0.6045751875288659  0.2879208124711283  0.9021899445727470
  0.5870861926096964  0.4032867501154769  0.9950286055427284
  0.6049093205542704  0.4811579990762098  0.0897428563510374
  0.5831704595842950  0.6033603399538094  0.1859383043879888
  0.6034163639722863  0.7090915002309472  0.2906541131639742
  0.6086736905311767  0.8148159806004642  0.4057941907621228
  0.5879691057736736  0.9050636854503438  0.5150055838337195
  0.6852590092378747  0.9989814859122390  0.7125938332563493
  0.7176777020785252  0.1069166263279442  0.7946446771362616
  0.6926306295612008  0.1884513034642055  0.9062195071593564
  0.7001135533487286  0.3121748115473437  0.0288517311778307
  0.7012136868360273  0.4076592840646640  0.1069876872979236
  0.6888904457274805  0.4992153339491949  0.1936255103926072
  0.6843345279445714  0.6149411122401816  0.3068270789838365
  0.6810420489607409  0.7207807565819877  0.3941471769053138
  0.6916927043879895  0.8102303764434211  0.5093835006928416
  0.6940922018475746  0.8913552734411070  0.6088377270207843
  0.7952251690531185  0.0012319237875289  0.8119059838337179
  0.8034099464203237  0.1182695325635095  0.9069629117782938
  0.8035462512702054  0.1935619621247113  0.0064502254041585
  0.7935493274826797  0.2951116775981504  0.1205581510392619
  0.8042131607390317  0.4015892101616600  0.1992716060046220
  0.7795448808314092  0.5020575861431880  0.2869455200923809
  0.8065850180138554  0.6047187930715907  0.3891943690531150
  0.7751723727482656  0.6879175866050815  0.4994982771362615
  0.7886239801385670  0.7940496374133943  0.5947557154734397
  0.8024953542725157  0.9029083967667404  0.7059291025404164
  0.9211964143187075  0.9998544799076186  0.8993362706697425
  0.9221803357967673  0.1015617898383354  0.9790602193995355
  0.8981262526558922  0.1850917016166278  0.0986137681293329
  0.9329450096997718  0.3083043501154705  0.1973870933025381
  0.9066057390300202  0.4118928323325619  0.3067818138568157
  0.8888911561200956  0.4971484069284031  0.3938044203233275
  0.8912336595842945  0.6044749685912265  0.4880118983833697
  0.8933969551963017  0.7006461408775948  0.6054549542725169
  0.9190686318706724  0.8058321824480359  0.6982559570438767
  0.8782834609699748  0.9025600235565818  0.7978998383371803
  0.0952649621247090  0.1017473542725185  0.9810179542725166
  0.0973522498845298  0.1640928309468848  0.0914400877598140
  0.0765044665127022  0.2669723921478067  0.1889513334872959
  0.1020286942263269  0.3827618217090105  0.3100015542725174
  0.1217871732101585  0.5046085953810646  0.4018515939953815
  0.0969127427251735  0.6048299898383362  0.4969322868360280
  0.1031429436489617  0.7049794387990787  0.5946354946882195
  0.1028380461893761  0.7823006642032340  0.7108321699769036
  0.1230929039261000  0.8887251140877623  0.8014825916859110
  0.1112015648960707  0.9937580757505771  0.8914163256351060
  0.2178864286374136  0.0935279330254062  0.0847168942263252
  0.2054014882217103  0.2009174124711350  0.2008719690531180
  0.1900519348729759  0.2846225510392628  0.3035815214780584
  0.1946480702078546  0.3759431533487287  0.4042182997690560
  0.2031599533487309  0.5162485528868359  0.4967663995381031
  0.1987207385681273  0.5990040665127054  0.5876520397228617
  0.2189882009237891  0.6911705297921458  0.6811981727482674
  0.2097214147806028  0.8032982475750572  0.7924715487297931
  0.1991514318706677  0.8680934406466534  0.9130371297921442
  0.1851494341801398  0.9954490346420357  0.9900262577367229
  0.3077902438799072  0.0928948780600436  0.1655178997690498
  0.3019148378752874  0.1984373344110821  0.2739356725173181
  0.2928533394919199  0.3088523339491900  0.3913128032332551
  0.2838904055427278  0.4244957381062378  0.5114931819861397
  0.3054718083140884  0.5063318757505755  0.6065624508083118
  0.2716719200923805  0.5947711824480351  0.6893610942263280
  0.3135715963048469  0.6875214729792134  0.8061875030023060
  0.2945045972286380  0.7786949833718211  0.8942092484988464
  0.2994668138568102  0.8943944494226344  0.9824700614318687
  0.2959227704387999  0.9993148988452631  0.0778936822170877
  0.3909885967667464  0.0955724757505791  0.2736317986143177
  0.4076245926097002  0.2086139034642045  0.3932329381062374
  0.3754980683602795  0.3029006545034676  0.5141473879907608
  0.3942113339491939  0.4076638378752904  0.6090779889145495
  0.3878185787528849  0.5104024452655906  0.7183672771362595
  0.3972744124711340  0.5720026124711310  0.8035781002309506
  0.3947562217090095  0.6805951621247104  0.8855247043879899
  0.4071978933025378  0.7858874988452627  0.9853898360277142
  0.4046468558891476  0.8927333981524228  0.0783851270207876
  0.4025260494226330  0.0050516369514995  0.1870716942263257
  0.4950795806004606  0.0857990577367218  0.4085757418013856
  0.4972536969976886  0.2080279621247101  0.5197062078521952
  0.4943658628175527  0.3130514748267927  0.6223928484988477
  0.4956439999999986  0.4075043173210133  0.7216235565819886
  0.5188426646651294  0.4925036799076210  0.8002933196304838
  0.4934760799076230  0.5952637445727476  0.8950931690531192
  0.5098202711316375  0.6653992272517328  0.9961210161662848
  0.5060195699769068  0.7749092401847548  0.0977591016166315
  0.4989900872979192  0.9026173427251720  0.1850205898383379
  0.4933641538106244  0.9797428424942254  0.3053138170900667
  0.5964049274826806  0.0867371889145474  0.4884147635103915
  0.5977613491916856  0.1848292060046219  0.6025660891454976
  0.5954391778290997  0.2962385722863772  0.6998942198614344
  0.6063583311778302  0.4099953685912254  0.7949107099307184
  0.6007994535796755  0.5104594193995382  0.9317519528868345
  0.6124148655889172  0.6029543473441095  0.0261827062355664
  0.6029791963048510  0.6930454452655894  0.1294315879907586
  0.5889935385681326  0.7973450540415712  0.2005185773672054
  0.6066469889145480  0.9014807884526590  0.2958194267898406
  0.6049975598152457  0.9792663427251753  0.4008940147805973
  0.6980767376443424  0.0816762023094668  0.5830481510392644
  0.7067292471131665  0.1995278254041537  0.6935255071593502
  0.7162773094688220  0.3015478244803660  0.7954750383371803
  0.7160612304849892  0.4046717353348726  0.9102433205542724
  0.6986267981524250  0.5001635311778259  0.0076399127020750
  0.7072374836027748  0.5978965672055452  0.1093852318706681
  0.6933796073902982  0.6917183459584280  0.1943125136258672
  0.7047578729792150  0.8030563621247140  0.3067430036951535
  0.6999318332563504  0.9025808055427262  0.4229297621247099
  0.7159598364896098  0.9993409903002330  0.4994705247113131
  0.7787759939953816  0.0869959963048501  0.6990176369515027
  0.8027212434180129  0.2230565316397204  0.8033069390300227
  0.8037126060046162  0.2989191445727499  0.9157020050808313
  0.8023159330254046  0.4048423214780570  0.9980925408776002
  0.7912933191685880  0.5044352794457296  0.1050715745958399
  0.7886957842956122  0.6075271750577400  0.2225567898383360
  0.8016063025404137  0.7149016263279435  0.3174315709006947
  0.7873080993071611  0.8178100642032362  0.4338378937644336
  0.8220517806004608  0.8898653727482682  0.5039978050808287
  0.8055929773672048  0.9843489625866084  0.6114424124711348
  0.8940374355658207  0.1071855274826774  0.7943601334872952
  0.9183248974595841  0.2145127030023062  0.8985214817551963
  0.8823661745958447  0.2977029242494211  0.0237417284064634
  0.8833811898383388  0.3919821662817569  0.0917102614318708
  0.9149772928406463  0.4984767385681295  0.2072541963048522
  0.9044294822170897  0.6080094175519619  0.2954265792147837
  0.9163372993071590  0.7165535311778299  0.4116357519630469
  0.9206131588914559  0.8056754660508076  0.5076036923787512
  0.9138720840646641  0.8802998027713613  0.6102637357967637
  0.9110347515011554  0.9953646494226334  0.6953088808314121
  0.9904578591224009  0.1006481404157071  0.8897593542725204
  0.9838746882217109  0.2005344314087765  0.0026107903002313
  0.0088216849884546  0.2845091057736724  0.0867382438799069
  0.0051129801385699  0.4050530914549668  0.2062392318706685
  0.0075675556581984  0.5130882170900719  0.3160470258660482
  0.9960913103926075  0.6101239713625901  0.3969763953810599
  0.0000378933025402  0.7197516369515000  0.4973221963048502
  0.0230699357967694  0.7863311856812913  0.6082016069284037
  0.0073895200923815  0.8967184826789847  0.7082721006928381
  0.0017628374133949  0.0155629898383367  0.8114456951501126
  0.2027597856812946  0.2220787367205546  0.9938240702078502
  0.1846292346420313  0.3029894327944547  0.0999591625866074
  0.1876733889145470  0.3670239773672037  0.1978172628175514
  0.1997945353348740  0.5008450674364866  0.2908676101616621
  0.2188807635103913  0.6014526836027727  0.3935964882217107
  0.2111153307159341  0.6918970831408799  0.4892169616628195
  0.2041850803695127  0.7794476230946898  0.5832956249422665
  0.2158214521939925  0.8946018397228670  0.6903035468822196
  0.1966605154734395  0.9999866891454943  0.8175810110854513
  0.2000919607390301  0.1250338438799048  0.8993001667436502
  0.3005548309468793  0.2001421778291004  0.1002338106235570
  0.2748134221709009  0.3007158184757515  0.1945330198614315
  0.3084932979214798  0.3994123390300217  0.3063967547344078
  0.3045479870669752  0.4991871482679002  0.3880515011547345
  0.3047495579676678  0.5663239150115444  0.4917489542725164
  0.3278750859122397  0.6878712563510376  0.5701805413394894
  0.3301593103926095  0.8018603427251705  0.7112678314087759
  0.2966070803695118  0.9049295325635072  0.8139055639722841
  0.2780224660508068  0.0016386198614313  0.8995665847575083
  0.2799163150115476  0.1058085339491939  0.9900431302540440
  0.4013724780600469  0.2200437025404156  0.1691493413394909
  0.3877101593533467  0.3163409755196298  0.2805541256351063
  0.4223948120092373  0.3910885815242509  0.4054440087759801
  0.4127842129330261  0.4969539418013866  0.5040269722863755
  0.3967085810623558  0.5890804189376411  0.6038974240184771
  0.4020534397228630  0.6778832623556568  0.7022555778290993
  0.4025429565819891  0.7977244688221674  0.8100731732101636
  0.3949965145496535  0.9070616905311795  0.8852103468822179
  0.4061541893764442  0.9898193325635134  0.9700999265588948
  0.4134384055427276  0.0981077127020811  0.0727196882217100
  0.4891786115473451  0.1998597325635103  0.2813072637413399
  0.4871599528868344  0.2984567949191685  0.3986253976905303
  0.5029829879907624  0.3924248674364890  0.5133445718244829
  0.4906150309468842  0.5061602383371806  0.6226148956120099
  0.4901242545034634  0.6045132743648978  0.6865221473441139
  0.5002852979214794  0.6869040572748233  0.8043048785219398
  0.5063265972286359  0.8043540212471143  0.8900380849884542
  0.5088862009237900  0.8980531427251748  0.0014088254041553
  0.4942483612009241  0.9892957588914584  0.0916458429561189
  0.5026345505773691  0.1104092868360311  0.1876089718244813
  0.5840296110854482  0.2021523154734410  0.4282088896073901
  0.5985712434180144  0.3092069889145463  0.5098286203233258
  0.6086009418013845  0.3966517547344139  0.5953794581986145
  0.6062665145496524  0.5009141745958416  0.6852718318706721
  0.5897016286374139  0.5886364942263285  0.8100413819861458
  0.5923651561200955  0.6655713020785186  0.8929022646651248
  0.6186850545034659  0.7922377732101609  0.0087603884526573
  0.6077750032332574  0.9149844840646679  0.0925784586605047
  0.5885020383371824  0.9926215773672027  0.1954711025404166
  0.5799336480369490  0.0972505173210152  0.3048893598152418
  0.6911821297921463  0.1756613625866024  0.4959530826789873
  0.6982745284064649  0.2910298018475785  0.5936357829099279
  0.7022379515011536  0.4022798101616658  0.6835835644341799
  0.7031617404157018  0.5034569404157025  0.8083124240184745
  0.7065176096997661  0.6078502277136266  0.9076369824480395
  0.6988002277136260  0.7060410360277132  0.0145181487297918
  0.6972061136258674  0.8017328729792155  0.1151573981524265
  0.6887895639722856  0.9035850152424914  0.2108043949191654
  0.6809512147805989  0.0232790577367226  0.3133093648960710
  0.7083209108545034  0.0986372286374149  0.4171805228637382
  0.7851713478060063  0.1846789016166284  0.5992729741339460
  0.7976856286374101  0.3110370235565796  0.6962779893764406
  0.7997459579676658  0.3903848009237905  0.8015580849884500
  0.8048572036951498  0.4998717676674360  0.9000819270207856
  0.8188999588914569  0.6055199939953795  0.0131349408775989
  0.7916139524249388  0.7067514886836008  0.1079056480369545
  0.7859813510392613  0.8089612452655857  0.1977341787528886
  0.7858571519630502  0.9001873510392642  0.3026177099307148
  0.8085832300230962  0.0045027949191692  0.3983923390300248
  0.8082463242494242  0.0854732706697447  0.5008434378752895
  0.8820008886835993  0.1994304180138542  0.6907803122401859
  0.9075481648960704  0.3145866545034650  0.8012681584295578
  0.8850298032332589  0.3920816387990769  0.9146203251732103
  0.9085545431870656  0.5121430914549663  0.0141247242494202
  0.9010187505773644  0.5851299695150090  0.1161282175519602
  0.8984886609699743  0.7027445228637390  0.2018511224018482
  0.8820061755196278  0.8020454549653593  0.3096791233256369
  0.9136536295612032  0.9088723468822195  0.4030767967667401
  0.9107816087759844  0.9948491367205534  0.5098961288683626
  0.8854495011547314  0.0941759621247087  0.6213619473441128
  0.9984863108545028  0.1826966702078536  0.7623026115473408
  0.9885622152424958  0.3130532766743670  0.8971777648960710
  0.9919965773672033  0.4095994096997657  0.0003743787528876
  0.0041697376443395  0.5087051824480397  0.1223697916859123
  0.0006640452655873  0.6127554475750543  0.2211730554272506
  0.9990101441108550  0.7109088794457250  0.2986235260969963
  0.0238824554272483  0.8179513127020783  0.3869268623556579
  0.0211561907621274  0.8822870799076199  0.5139144180138544
  0.0187140766743639  0.9756704129330274  0.6003775930715918
  0.9943541011547339  0.0671822133949220  0.6712002277136264
  0.0650570364896055  0.2148695006928421  0.8794441607390269
  0.0866406854503481  0.2915410591224017  0.9855072595842955
  0.0854158678983836  0.3797382826789857  0.0983675062355687
  0.1115929806004630  0.5017377200923789  0.2087068715935345
  0.0982544646651249  0.6083570203233251  0.2988430378752867
  0.1045291357967670  0.6999657584295633  0.4010511939953787
  0.1059881150115487  0.8002719861431871  0.5046178387990778
  0.1314285390300256  0.8807429893764436  0.5865747357967663
  0.1148171847575057  0.9955973907621214  0.7118598946882244
  0.0875890521939979  0.0988962189376466  0.7968719247113185
  0.2910091173210176  0.3184481399538086  0.9965956235565798
  0.2735839274826759  0.4063723745958399  0.1088922378752883
  0.2733518452655872  0.4899907131639694  0.2006538905311785
  0.3095705381062359  0.5897853473441117  0.2916209676674342
  0.2893431870669758  0.7035282983833753  0.4187218960739045
  0.3037883990762111  0.8283437242494216  0.5032268988452628
  0.3135809547344124  0.9165995759815218  0.5975168429561180
  0.2923427528868388  0.0247284863741370  0.7167095995381061
  0.2826493057736741  0.1054278845265557  0.7953923796766773
  0.2987295187067005  0.2122897034642008  0.8755878152424970
  0.3876788000000033  0.3132669233256351  0.0797694563510376
  0.3914306489607355  0.3971862840646665  0.1820450230946875
  0.4011478831408795  0.4965346240184729  0.2934759838337158
  0.4129444900692860  0.5982699048498858  0.3883200743648985
  0.3894662364896107  0.7027709145496530  0.5025772508083151
  0.4057263136258626  0.8038256087759805  0.5769510572748260
  0.3895560411085484  0.9310765445727469  0.7000663224018453
  0.3796518563510389  0.0019361427251710  0.7947857247113177
  0.3808782069284078  0.1016699404157038  0.8923696369515000
  0.3950854632794432  0.2044625575057708  0.0106612956120102
  0.4939933741339502  0.3103639986143207  0.2111267773672054
  0.5021139445727485  0.4079813999999971  0.2986414794457275
  0.5002958235565842  0.4895013939953827  0.3930320475750548
  0.4995845214780630  0.5993951080831437  0.5156903612009245
  0.4932295288683619  0.7059094743648942  0.6067408956120062
  0.4982910341801414  0.8022352993071564  0.7044927071593534
  0.5014795875288698  0.9128925390300253  0.7946834665127014
  0.5150967344110882  0.0012589630484996  0.8923082697459606
  0.5084340304849917  0.1064622050808310  0.9829528983833740
  0.5040522637413360  0.2077536069284065  0.0991039196304868
  0.5932604674364867  0.2832453949191702  0.3242160540415711
  0.6016718799076202  0.4064398651270196  0.4240146415704373
  0.6014288004618962  0.5062903117782938  0.5049609251732079
  0.5949130983833726  0.6155345187066956  0.6051078956120080
  0.5837058078521906  0.7188383418013871  0.7061339357967640
  0.5978429445727471  0.8014086692840650  0.7988983806004626
  0.6149586632794453  0.8959492600461871  0.9105219967667466
  0.6103269907621254  0.0165441321016147  0.0034028281755170
  0.6093094632794447  0.1048150642032297  0.1151598424942293
  0.6008667709006943  0.2234898729792150  0.2083737538106263
  0.6977088147805972  0.2967185944572748  0.4015817293302533
  0.7088683344110862  0.3992280840646671  0.5047179676674389
  0.7084068443418019  0.5308853210161644  0.5869884286374116
  0.6854844646651301  0.5960032715935313  0.6983853468822190
  0.7051825113163943  0.6934216678983844  0.7879321939953812
  0.7120639080831381  0.7697995685912247  0.8796536692840675
  0.7061395695150097  0.8863352799076196  0.9911152124711293
  0.7184887884526532  0.0132822766743672  0.0875085431870701
  0.7030080036951531  0.1131873353348709  0.2134818909930729
  0.7059089732101640  0.2077570420323340  0.3190738064665126
  0.7913174868360286  0.2897510221709041  0.4998060762124723
  0.8014265131639746  0.4164556351039295  0.5987047907621275
  0.7802868702078527  0.5235810318706697  0.7046794692840663
  0.8004095265588944  0.6169371551963039  0.8244101893764437
  0.7971269625866029  0.7148512618937630  0.9225248965357977
  0.7850613990762128  0.8008225076212483  0.0257649732101584
  0.7979151353348755  0.9017039699769072  0.0977950411085473
  0.7799372512702050  0.0034839362586609  0.2071313759815254
  0.8019958475750570  0.1062839676674372  0.3067093362586633
  0.8023127316397236  0.1992296942263252  0.4091732364896075
  0.8799063071593523  0.3190756951501186  0.6145132646651277
  0.8973993108545031  0.4190653099307156  0.6994066725173198
  0.9022931963048535  0.5209189713625832  0.8064962309468839
  0.9219675145496566  0.6064745861431859  0.9033342933025423
  0.8894433713625887  0.7012410397228663  0.0253906452655883
  0.8986808041570455  0.8216683284064672  0.1008249043879914
  0.8937989672055409  0.9029418133949179  0.2123016586605075
  0.9034797510392636  0.0126306323325664  0.2727997108545068
  0.9166510678983855  0.1053822651270195  0.4090233829099290
  0.8968783667436497  0.2100967745958400  0.5171145293302573
  0.9876858692840642  0.3060004766743631  0.6773915903002319
  0.9899897727482667  0.3926705889145481  0.8179955053117780
  0.0023471588914532  0.5005703639722867  0.8883857071593511
  0.9966443505773697  0.5891085168591204  0.0037769944572759
  0.9890576854503479  0.7057552420323319  0.1029686849884541
  0.0016358595842974  0.8096101464203258  0.2119534392609665
  0.0201973205542743  0.8848791459584291  0.3052781233256354
  0.9900520702078524  0.0140261709006921  0.3953444314087733
  0.9816380642032314  0.1019663316397228  0.5312028018475772
  0.9795741607390269  0.1816897454965343  0.6211185732101612
  0.0638020018475771  0.3133849584295589  0.7852401274826804
  0.0826051113163970  0.4053067838337157  0.8953011302540403
  0.1069767293302561  0.4876426484988485  0.9905414581986136
  0.1002298226327909  0.6102598120092395  0.1017709884526568
  0.1134571321016153  0.7171076900692839  0.2076168023094667
  0.1311393547344082  0.8184766503464189  0.2840324295612007
  0.1275632378752860  0.9184309695150148  0.3974080406466527
  0.0854928780600446  0.9971655510392594  0.4958581764434200
  0.0940872988452668  0.0838431311778294  0.5960956540415694
  0.0941757782909960  0.1912663547344096  0.6897774415704419
  0.2064470263279432  0.2980624277136243  0.8972266942263261
  0.1858280484988484  0.3978036443417992  0.9850098064665147
  0.1849885376443439  0.4890229265588886  0.1170088198614323
  0.2004064424942271  0.6138725792147781  0.2310458360277110
  0.2072074060046205  0.7206434942263300  0.3032496886836000
  0.2159631750577375  0.8112435607390296  0.3843723085450321
  0.2118081376443399  0.9090637695150150  0.4899815297921464
  0.2070678933025434  0.0180450129330225  0.5875876244803706
  0.1891504249422624  0.1024492212471131  0.7038475431870665
  0.1831784877598182  0.2219624886836016  0.7930202314087751
  0.3898155958429541  0.4214066383371815  0.0044245307159372
  0.4028632872979188  0.4881887131639715  0.0993369265588910
  0.4028011949191708  0.5869104812933017  0.1907760572748245
  0.3989558743648942  0.6880994937644331  0.3034565935334896
  0.3963793856812927  0.7913600166281753  0.4037314979214770
  0.4039247893764468  0.9081373542725188  0.5032516457274809
  0.3942405302540450  0.0273531140877594  0.6080293893764406
  0.3737811944572726  0.0984439404157058  0.7079489348729808
  0.4095982600461880  0.2016013602771380  0.7846681228637422
  0.3961485404157017  0.3060351376443435  0.8956851482679014
  0.4993273639722844  0.3826307191685885  0.0785899039260940
  0.5287143519630462  0.4833196674364899  0.1712536226327970
  0.5069010323325642  0.5827530535796797  0.3049439648960757
  0.5002392997690563  0.7019171745958417  0.3983388023094676
  0.5166512106235572  0.8026771117782943  0.5049347210161699
  0.4932376794457269  0.8997899371824474  0.6163290743648986
  0.5090650905311804  0.0056475311778286  0.6935280267898349
  0.5044341926097005  0.1017089034641998  0.8099682517321014
  0.4881615565819857  0.2037264711316382  0.9160485404157015
  0.4856824212471125  0.2952179792147831  0.9835119473441125
  0.5914889519630506  0.3788025953810603  0.1997520642032313
  0.6171729639722869  0.4970031140877609  0.2836119242494206
  0.5829903122401845  0.6012451672055406  0.3962171732101609
  0.5902313062355660  0.7302995829099288  0.5009212346420355
  0.5928633353348758  0.7973961995381060  0.6177371367205566
  0.6042275196304843  0.8945293819861462  0.7034374946882238
  0.6154391939953783  0.0047825002309452  0.7919891879907652
  0.5990863561200896  0.1115685348729798  0.9040103528868357
  0.6052641330254076  0.2153962434180130  0.0049513870669742
  0.5844417976905305  0.3073043066974606  0.1001506166281771
  0.6937661976905289  0.3957864595842935  0.3025863672055422
  0.6985943551963061  0.4991220563510410  0.3844294914549664
  0.6980007801385710  0.6075549755196334  0.4821027625866066
  0.6847718928406437  0.7238862471131640  0.6071085709006923
  0.6955541242494192  0.8095591163972315  0.7186126000000002
  0.6994369648960728  0.8917885307159352  0.8108822106235536
  0.7071112896073899  0.0057939722863765  0.8959440923787554
  0.7035687117782885  0.1009217316397226  0.0150260997690523
  0.7009187191685911  0.1962080743648968  0.1055881353348695
  0.6802689912240183  0.3020078849884555  0.2068063935334905
  0.7961866766743668  0.3919133274826763  0.3964611390300234
  0.8015700974595816  0.5111022868360280  0.4944860096997701
  0.8029681547344083  0.6199862180138567  0.6046412702078499
  0.8129666720554241  0.7018473150115483  0.7010070452655910
  0.8130984882217120  0.7738307265588915  0.8044242489607356
  0.7990146471131609  0.8840899926097023  0.9011769912240197
  0.8107542872979181  0.0000948489607424  0.9893288780600429
  0.8230130660508053  0.0930468133949205  0.0907447311778284
  0.8296606891454985  0.1997841769053110  0.2045741639722891
  0.8138703607390312  0.3038761418013891  0.2881377459584300
  0.8727812780600459  0.3988003478060023  0.4787223348729768
  0.8782655371824504  0.4909217579676692  0.5769990840646670
  0.9068822655889122  0.6085366304849913  0.6892029284064662
  0.8999056466512698  0.6992143390300214  0.7869713524249420
  0.9006007108545049  0.7919185431870659  0.9186776817551987
  0.9136137251732066  0.9043718715935327  0.9897989778290963
  0.9096512669745991  0.9890594374133954  0.0991515071593554
  0.9010867916859127  0.0929458715935354  0.2061989972286398
  0.9162310448036948  0.1886800133949222  0.3133821519630473
  0.8887482836027729  0.2844700332563477  0.3927983939953776
  0.9966765621247120  0.4023691879907645  0.5850076096997725
  0.9924927173210136  0.5212507394919186  0.6965237690531154
  0.0182201482679005  0.6162321399538087  0.7920276392609722
  0.9993602882217090  0.6894562545034617  0.9144632004618956
  0.0031793912240161  0.7914713736720529  0.9956670517320987
  0.9991836221709036  0.8903450729792155  0.1108372110854532
  0.9945196286374127  0.0058105307159337  0.2126505870669746
  0.9917246346420328  0.1129327745958406  0.2990757644341784
  0.9938325099307193  0.1891006055427269  0.3929802900692820
  0.9964639140877622  0.2903195676674386  0.5164969316397219
  0.0792571939953817  0.3936765011547365  0.6761771570438810
  0.0986984642032311  0.5130943150115499  0.7881130351039261
  0.0953431930715922  0.5987019907621232  0.9043152272517290
  0.1038086013856798  0.6731211297921504  0.0105149487297922
  0.0956637930715942  0.7882660415704379  0.0963811177829115
  0.1118778069284048  0.8886140900692823  0.1941760808314115
  0.1184455764434205  0.0183329191685928  0.2972071644341767
  0.0967681002309462  0.0904943468822168  0.4195011575057705
  0.0909853653579660  0.2015270355658174  0.5096973288683628
  0.0655324521939988  0.2853217635103960  0.5863642004618939
  0.1926814406466519  0.4090951995381076  0.8178098665127038
  0.1830597168591197  0.4815599542725195  0.8898073635103927
  0.2288837496535763  0.6009066969976899  0.9777268193995354
  0.2165855579676688  0.6943195838337175  0.0920634868360253
  0.2009878775981520  0.8016900803695179  0.1737484207852162
  0.2067880605080816  0.8952373639722850  0.2903117755196334
  0.2268774965357991  0.0140886545034675  0.3771790535796740