Li 
 1.0000000000000000
    21.6499999999999986    0.0000000000000006    0.0000000000000000
     0.0000000000000006   21.6499999999999986    0.0000000000000000
    -0.0000000000000006   -0.0000000000000006   21.6499999999999986
 Li 
 500
Cartesian
  0.0995661600000000 -0.2715374200000000 -0.0152898500000000
 -0.3417936200000000  1.8156684199999999  2.0623725600000000
 -0.1276565500000000  3.7310044300000000  4.5453646399999998
 -0.0229126000000000  6.1106310099999996  6.4946572099999997
  0.3158663300000000  8.1255378999999994  9.0209360800000002
 -0.2485510400000000 10.9842807800000006 10.4473670599999995
 -0.0119501300000000 13.0455003800000000 12.6409136199999992
 -0.2411616500000000 15.2019358100000002 14.9622314299999992
 -0.0970787100000000 17.1727264300000009 17.0675236099999985
  0.1384092400000000 19.2381479700000000 19.2894744699999983
  2.3211539600000002 -0.1901822900000000  2.2263319099999999
  2.1867932699999999  1.7359896300000000  4.4246320600000004
  2.0945552400000000  3.7907545499999999  6.5186552500000001
  1.9722041600000000  6.0559672800000000  9.3940373400000006
  2.7307587199999999  8.5942644900000005 10.7759484499999996
  2.2165453099999999 10.5813512799999998 12.9816901300000005
  2.5237925500000000 13.0373447400000000 14.7867983200000008
  1.9448792500000001 14.9919944500000000 17.1119835999999985
  2.2105118300000002 16.7426915600000008 19.7213205100000017
  2.1277579000000002 19.3212663900000017 21.7163560599999990
  4.3942568199999998 -0.1413220900000000  4.0390568699999996
  4.7773067400000002  1.9571153800000001  6.4809042899999998
  4.5370483400000001  4.1108266499999999  8.6760427199999999
  4.4813765700000001  6.2077649099999999 10.7240810199999999
  4.2163851399999999  8.8651658799999993 13.2827013600000008
  4.5616463300000003 10.9048943099999995 15.1382581100000007
  3.8987665800000002 13.0021207600000004 17.7216334199999999
  4.5886658000000002 14.9515071800000001 19.0133827500000017
  4.5437640699999999 17.0601021400000015  0.0036651300000000
  4.6627929699999999 19.5842004400000000  1.7142133700000000
  6.6896337499999996  0.0592945700000000  5.8225735500000004
  7.2964229500000002  2.3442108099999999  8.4692673500000009
  7.1258266600000004  4.5644590599999999 11.0718441900000002
  6.4500263200000001  6.7798230899999998 13.2452251800000003
  6.9654123600000002  8.8386175199999997 15.5079142300000008
  6.2685644099999998 10.5030419399999992 17.4885247200000009
  6.5376865899999999 12.7794481700000002 19.3798263700000000
  6.4280767900000004 14.6714241199999993  0.0928903700000000
  6.5955610599999996 17.3762316000000006  1.7298672100000001
  6.7892563800000003 19.2871355999999992  4.1767153700000001
  8.3685047499999996  0.0574322100000000  8.4338814800000002
  9.0083512199999998  2.3479829400000001 11.1340029400000002
  8.4113871499999995  4.4535051799999996 13.6262191099999992
  8.6859186099999999  6.5379438900000002 15.5312475499999998
  9.0268926399999998  8.9922445199999999 17.1583087100000000
  8.7089041100000006 10.6137051400000004 19.4712292100000006
  8.2035816599999993 12.7030525399999998  0.0360511800000000
  8.2468077399999995 14.8230490100000001  1.8704821100000000
  8.8072691600000006 17.6013837600000009  4.0661285300000003
  8.5412535599999995 19.4718300299999996  6.0825361800000000
 10.7170318000000009  0.0170495500000000 10.8862879299999999
 10.7473432800000008  2.1156027700000002 13.0878683999999996
 10.9294939099999997  4.5002976900000000 14.8137245800000006
 10.9250281400000002  6.6058022300000001 17.6142393400000010
 10.8672637099999996  8.6938338300000009 19.5445154700000003
 10.9527923099999995 10.9568362799999992  0.3722421700000000
 10.8568609800000004 13.1078636700000004  2.0041799600000001
 10.3305800899999998 15.4458742699999991  4.5493976800000002
 10.9926579100000001 17.2527694999999994  6.4857619499999997
 10.9117356300000008 19.2600552799999996  8.6049382800000007
 12.9310505199999994 -0.1384864300000000 12.9796863800000004
 13.2258700099999995  2.0964523700000002 15.1950394299999996
 12.9103913200000004  4.1008539800000001 17.2938716600000006
 13.0890528100000001  6.2334855899999999 19.5324123000000007
 12.7104160700000008  8.7311581399999998 -0.1076306900000000
 13.0962867900000006 10.4170706800000001  1.9429328400000001
 12.6256404500000006 13.0627513600000000  4.0255642900000002
 13.0639642800000004 15.3518309800000008  6.2926615500000000
 13.1777853999999994 17.6407659800000012  8.7854442299999995
 12.7295311400000006 19.5946287900000016 11.1498708900000008
 14.8358575500000001 -0.0220508300000000 15.4276564900000004
 15.5377222499999998  2.3147449600000001 17.2040572599999990
 14.9954531299999996  4.0799707200000004 19.6196523300000010
 15.1574584300000001  6.7585846700000003  0.6246399800000000
 15.1812763200000003  8.8258235000000003  2.3162834299999999
 14.9144781500000008 10.8080119799999999  4.1919922999999999
 14.8158425299999994 13.3134750799999999  6.6428062600000004
 14.7445603599999995 15.6049033799999997  8.5332863799999998
 14.9751470500000003 17.5414876500000005 11.0281527900000000
 15.0270961700000001 19.2978416700000004 13.1813367899999996
 17.2166249100000002  0.0266711500000000 17.5777645500000013
 17.3938253399999994  2.5605353800000001 19.6357470399999983
 17.3967763399999988  4.1906164800000001  0.1396473800000000
 17.1803429399999992  6.3891678199999999  2.6100839699999998
 17.4112149299999999  8.6944064000000001  4.3142302700000004
 16.8771466699999984 10.8695467400000005  6.2123705100000004
 17.4625656400000011 13.0921618700000000  8.4260580899999997
 16.7824818700000016 14.8934157500000008 10.8141376999999999
 17.0737091700000008 17.1911746500000007 12.8764612399999994
 17.3740244200000014 19.5479667900000003 15.2833650700000003
 19.9439023700000000 -0.0031505100000000 19.4706302600000001
 19.9652042700000010  2.1988127500000001 21.1966537499999994
 19.4444333699999987  4.0072353400000003  2.1349880799999998
 20.1982594599999992  6.6747891800000003  4.2734305700000004
 19.6280142499999997  8.9174798200000005  6.6418262700000001
 19.2444935299999997 10.7632630099999993  8.5258657000000007
 19.2952087299999988 13.0868830700000007 10.5654576000000002
 19.3420440800000009 15.1689889499999992 13.1080997600000000
 19.8978358799999988 17.4462667499999995 15.1172414699999997
 19.0148369300000013 19.5404245100000011 17.2745314999999984
  2.0624864299999999  2.2028302200000001 -0.4109612900000000
  2.1076762100000002  3.5526097900000000  1.9796779000000000
  1.6563216999999999  5.7799522899999998  4.0907963699999996
  2.2089212300000001  8.2867934400000003  6.7115336499999998
  2.6366923000000000 10.9247760899999999  8.7000870100000007
  2.0981608800000000 13.0945692800000000 10.7585840099999999
  2.2330447300000000 15.2628048500000002 12.8738584599999992
  2.2264436999999999 16.9368093799999997 15.3895164799999993
  2.6649613699999999 19.2408987200000006 17.3520981100000000
  2.4075138800000002 21.5148623400000005 19.2991634500000018
  4.7172411800000003  2.0248797500000002  1.8341207600000000
  4.4469422200000004  4.3498619800000000  4.3488781300000001
  4.1146243900000004  6.1620782299999997  6.5725399400000004
  4.2141307200000000  8.1391692700000000  8.7513261900000003
  4.3984129899999997 11.1767811699999999 10.7549925500000008
  4.3023039900000004 12.9684380400000006 12.7226666599999998
  4.7410945499999997 14.9638419700000007 14.7479404400000007
  4.5404686300000003 17.3914070599999988 17.1570090300000011
  4.3116285000000003 18.7942229900000015 19.7672538600000003
  4.0084852499999997 21.5514715999999993 21.4340684800000005
  6.6636587799999996  2.0111741099999998  3.5834625299999998
  6.5364562399999997  4.2961682899999998  5.9307073099999998
  6.3402748000000004  6.6866530300000004  8.4719221900000008
  6.1462272799999997  9.1903327299999997 11.0738273899999999
  6.6134646500000001 10.9620851100000003 13.1320770600000003
  5.8816970700000004 12.8767961000000000 14.9246676899999997
  6.7888250599999997 14.8848398900000003 17.4539594399999984
  6.3760245299999996 16.8587463900000003 19.3596302300000005
  6.4834565199999998 19.3636398300000003 -0.3795231700000000
  6.4067279800000003 21.6351675599999993  1.6863982200000001
  8.4649031200000007  2.0691440999999999  5.9241284399999996
  8.8250724300000005  4.5164910100000002  8.5134931100000006
  8.1295331799999992  6.5577991700000000 11.1312909500000004
  8.5346753799999995  8.8259220900000006 13.1865384599999995
  8.3962722299999992 11.0502129399999998 15.5526515500000002
  8.6009910299999994 12.3838565599999999 17.3974658700000013
  8.5464722000000002 14.7348852600000004 19.1716098499999994
  8.8158343899999991 17.0144643500000008 -0.3163100500000000
  8.7606044300000008 19.3276780700000010  1.6970380000000000
  8.7146889699999992 21.7593679400000006  4.0501021799999997
 10.7184729200000000  1.8575496000000000  8.8456648100000006
 10.7655425400000002  4.5038053800000002 11.2516394000000002
 10.7030209299999992  6.7775644300000000 13.4748051699999998
 10.7306925999999994  8.8224684700000005 15.6231500000000008
 11.2329436900000008 10.6627046700000001 17.3263503700000001
 10.6837571300000000 12.8874600699999995 19.3787671099999983
 11.0376088699999997 14.4058932700000000 -0.0839800000000000
 10.9553236900000002 16.7767850500000009  2.1164845500000000
 10.8031353899999996 19.5416654700000016  4.0056957700000000
 10.6813339299999992 21.2114325400000006  6.6100441400000003
 12.9121666800000003  1.8778601399999999 10.5741796299999997
 12.9415332099999993  4.0015523100000001 13.0455558299999996
 12.8912581999999993  6.4135650899999996 15.1527098599999999
 13.1276578700000002  8.8763997299999993 17.2098168700000009
 13.0073081699999999 11.0514464300000004 20.1724297800000016
 13.2587818399999993 13.0539616200000008  0.5668555900000000
 13.0544995999999998 15.0044338899999996  2.8021938799999999
 12.7517101099999994 17.2625204200000013  4.3412271999999996
 13.1339073099999997 19.5170590699999984  6.4044905900000000
 13.0981971700000006 21.2011163200000006  8.6793554200000003
 15.1133613699999998  1.7682897799999999 12.6229924699999998
 15.3006881999999997  4.3197774200000003 15.0148272299999999
 15.5074037499999999  6.5285104000000000 17.2220345799999990
 15.5027256399999995  8.7611430699999993 19.7067678899999983
 15.1252701799999993 10.8285404500000002  0.1654041100000000
 15.3116915200000001 12.9444606800000006  2.3681902699999999
 15.0116685000000007 14.9757021899999998  4.2068659200000003
 15.2580079499999997 17.3861702399999984  6.6409860299999997
 15.1535241900000006 19.5408744399999996  9.1564293499999998
 15.5005304600000002 21.6357324400000017 10.8135368599999993
 16.8605002699999993  1.8834633199999999 15.1337318399999994
 17.3789149199999997  4.8291739099999997 17.3915952300000001
 17.4003779200000004  6.4715994800000001 19.8249484100000011
 17.3701399499999987  8.7648362599999992 -0.0412964900000000
 17.1315003600000004 10.9210238000000004  2.2747995900000002
 17.0752637299999996 13.1529633399999994  4.8183544999999999
 17.3547764499999992 15.4776202099999995  6.8723935100000002
 17.0452203500000010 17.7055878900000003  9.3925903999999996
 17.7974210500000005 19.2655853199999996 10.9115524799999992
 17.4410879600000008 21.3111550399999992 13.2377282300000001
 19.3559104799999986  2.3205666699999998 17.1978968899999991
 19.8817340300000005  4.6442000200000004 19.4529900799999993
 19.1032276799999998  6.4452683100000003  0.5140084200000000
 19.1252027600000005  8.4864139000000005  1.9855271600000000
 19.8092583900000001 10.7920213900000004  4.4870533500000001
 19.5808982900000004 13.1634038899999997  6.3959854399999996
 19.8387025299999991 15.5133839499999997  8.9119140300000002
 19.9312748900000010 17.4428738400000007 10.9896199400000008
 19.7853306199999999 19.0584907299999990 13.2122098799999996
 19.7239023700000011 21.5496446599999985 15.0534372699999999
 21.4434126499999991  2.1790322400000002 19.2632900199999995
 21.3008869999999995  4.3415704399999999 21.7065236100000014
 21.8409894800000011  6.1596221399999997  1.8778829800000001
 21.7606960200000010  8.7693994300000000  4.4650793699999998
 21.8138375800000013 11.1083599000000000  6.8424181099999997
 21.5653768700000015 13.2091839800000006  8.5945389599999995
 21.6508203899999998 15.5826229400000003 10.7670255499999996
 22.1494641100000003 17.0240701700000017 13.1675647900000001
 21.8099831100000010 19.4139551499999996 15.3340909799999991
 21.6881654300000015 21.9869387299999985 17.5677993000000008
  4.3897493599999997  4.8080046500000000 -0.1337088800000000
  3.9972229300000000  6.5597212200000001  2.1641158699999998
  4.0631288699999999  7.9460691099999998  4.2827437399999999
  4.3255516900000002 10.8432957099999996  6.2972837600000000
  4.7387685299999998 13.0214505999999997  8.5213639699999995
  4.5706469099999998 14.9795718499999992 10.5915472200000007
  4.4206069899999996 16.8750410399999993 12.6283502799999994
  4.6725344399999997 19.3681298300000009 14.9450717900000001
  4.2577001599999997 -0.0002881800000000 17.7006288900000008
  4.3319909499999998  2.7069827200000001 19.4698486099999997
  6.5070120899999999  4.3330781500000004  2.1700620000000002
  5.9497105899999996  6.5104974699999998  4.2116398799999999
  6.6788799000000001  8.6472771399999999  6.6334897399999999
  6.5934639199999996 10.8074017599999994  8.4013150000000003
  6.5978279300000002 12.2609127600000001 10.6463648600000003
  7.0984956099999996 14.8924126999999995 12.3444087200000006
  7.1479490700000001 17.3602764200000017 15.3989485500000001
  6.4215432899999998 19.5917243799999987 17.6210554600000009
  6.0191863899999998  0.0354761200000000 19.4756165599999989
  6.0601882199999997  2.2907547600000000 21.4344337699999983
  8.6897141500000004  4.7639461599999997  3.6620832399999999
  8.3939249500000006  6.8487821200000001  6.0739968199999996
  9.1448476799999998  8.4670677899999998  8.7778627900000004
  8.9367782099999999 10.7590528400000007 10.9121839499999993
  8.5887407800000002 12.7535910700000006 13.0743792299999999
  8.7044569700000007 14.6761726299999999 15.2038332599999997
  8.7150550100000004 17.2707347499999990 17.5380842000000001
  8.5516745400000005 19.6378856000000006 19.1648040100000010
  8.7932381999999993 -0.2204114500000000 -0.6473365900000000
  8.9509414799999991  2.1240319799999998  1.5743812500000001
 10.5907169400000001  4.3269632099999997  6.0903022599999996
 10.5470129799999999  6.4615896099999999  8.6302398599999997
 10.8895816900000000  8.4959983799999996 11.1139099800000007
 10.6218154200000008 10.9583691600000002 13.4796124899999992
 10.6111901100000008 13.0877123900000001 14.8632044899999993
 10.8311767000000003 14.8714728399999991 17.4132006200000014
 10.9619708300000003 17.4142645599999994 19.2693245399999995
 11.0173862499999995 19.4428505399999985  0.0305010700000000
 10.7004770199999992 -0.2317468200000000  1.9841325000000001
 10.8820380199999995  2.3903610600000000  4.0617342399999998
 12.6442410800000005  4.3765976300000000  9.2707224600000000
 12.9590674200000002  6.6943313099999999 11.0377896300000007
 13.1762103899999996  8.5875104899999997 12.8899652699999994
 13.1256700399999993 10.8447918800000007 14.8361351599999995
 12.7670402599999999 12.7439800999999999 17.5373959200000016
 12.8247056300000004 14.4096186900000003 19.3313340300000007
 13.3945314300000007 17.1519477900000012  0.1896624100000000
 13.1583288199999995 19.8094140799999998  2.0043236300000000
 12.7410691299999996 -0.1597428500000000  4.2319493699999997
 12.5555634800000000  2.1054737000000001  6.6008546399999997
 14.9640931100000003  3.8030685000000002 10.7373842400000008
 15.1176435399999995  6.3007952100000004 12.8522146999999993
 15.2034516499999999  8.7093578899999997 14.7995841699999993
 15.2234516800000002 10.8998427600000003 17.4999639800000004
 15.2961062499999993 13.1599574300000004 19.6503406699999985
 15.1290249299999999 15.2857884300000002  0.3143179200000000
 15.0945123599999995 17.3575167000000015  2.4931576700000000
 14.9122940600000007 19.5626155799999992  4.5639151499999997
 14.7425937999999999  0.5039916000000000  6.7831477500000004
 15.3351477200000001  2.1354959999999998  9.0319583199999993
 16.9989596799999987  3.9982982200000001 12.9742598900000008
 17.2698938599999998  6.7339515600000004 15.0744184699999995
 17.3144999900000016  8.4518309400000007 17.3537325399999993
 17.4251584599999987 10.8222237700000008 19.4867737199999986
 17.7291841099999985 13.1095078699999998  0.2843714700000000
 17.1384420700000000 15.3011697299999998  2.3361572800000001
 17.0164962499999994 17.5140109600000002  4.2809449700000002
 17.0138073399999996 19.4890561499999997  6.5516734200000002
 17.5058269300000013  0.0974855100000000  8.6251941399999996
 17.4985329199999988  1.8504963100000000 10.8432604300000008
 19.0953192399999985  4.3176685499999996 14.9553937599999998
 19.6484177699999982  6.8108010700000001 17.3474556299999989
 19.1608952399999986  8.4885674800000004 19.8015300399999994
 19.6702058599999994 11.0878979300000005  0.3058002800000000
 19.5070559500000016 12.6680638400000003  2.5141759100000001
 19.4522795100000003 15.2144189200000000  4.3700767999999997
 19.0954337000000010 17.3642840999999990  6.7045530199999996
 19.7806010800000003 19.6770863100000000  8.7266126499999999
 19.7184218300000005 -0.1115161900000000 11.0392511899999999
 19.1699817000000010  2.0389095799999999 13.4524861599999994
 -0.0327713700000000  3.9553829100000000 16.5038515399999994
 -0.2476280400000000  6.7776034400000000 19.4238986099999984
 -0.1732741000000000  8.8678272200000006  0.0081053000000000
  0.0902748200000000 11.0134671999999991  2.6493059900000002
  0.0143765800000000 13.2661554400000004  4.7883966500000001
 -0.0214303800000000 15.3911772399999993  6.4651993399999999
  0.5170551600000000 17.7086459199999986  8.3769665700000004
  0.4580315300000000 19.1015152800000010 11.1262471499999993
  0.4051597600000000 -0.5267355600000000 12.9981748899999996
 -0.1222337100000000  1.4544949199999999 14.5314849299999995
  1.4084848400000001  4.6519246900000004 19.0399660799999992
  1.8757708399999999  6.3118639300000003 21.3362321699999988
  1.8492535400000001  8.2213338199999999  2.1296565099999998
  2.4159880299999998 10.8626216400000004  4.5185037699999997
  2.1272091600000000 13.1709294900000007  6.4699517699999998
  2.2630557900000001 15.1542586700000008  8.6827583500000003
  2.2946426899999999 17.3258885000000014 10.9249762100000005
  2.8454278700000000 19.0680857199999991 12.6993430299999996
  2.4857920500000001 -0.0953164900000000 15.4117667199999993
  1.8963029800000000  2.1411031399999998 17.2522771699999993
  6.3003473899999998  6.8944022299999999 -0.0737047500000000
  5.9230920300000003  8.7979619099999997  2.3575169499999999
  5.9180674499999997 10.6082989399999992  4.3441567299999999
  6.7022021499999997 12.7688527700000005  6.3135939499999996
  6.2642800000000003 15.2313876599999993  9.0653290500000008
  6.5770188400000000 17.9336416300000003 10.8948623599999994
  6.7890276700000003 19.8443808200000014 12.9362396499999992
  6.3292206000000002  0.5353717300000000 15.5167628299999993
  6.1193574699999997  2.2825137000000000 17.2202450200000001
  6.4674940799999998  4.5960720799999999 18.9564762000000009
  8.3932460199999994  6.7822288899999998  1.7270087300000001
  8.4744735500000008  8.5990830500000008  3.9412747499999998
  8.6848516700000005 10.7499746100000007  6.3537550500000002
  8.9402482100000000 12.9525434399999995  8.4071296100000001
  8.4319440199999995 15.2149903000000002 10.8807974800000000
  8.7839746900000009 17.4028244299999990 12.4909903900000003
  8.4338882900000005 20.1578071899999998 15.1564358800000001
  8.2194626900000003  0.0419174900000000 17.2071109399999997
  8.2460131800000003  2.2011542099999999 19.3198026399999989
  8.5536002799999995  4.4266143700000002 21.8808170500000010
 10.6949565500000006  6.7193805700000002  4.5708947300000000
 10.8707668999999996  8.8327973100000001  6.4655880300000002
 10.8314045799999992 10.5977051800000002  8.5091438299999993
 10.8160048900000003 12.9769040899999997 11.1646963199999991
 10.6784192999999998 15.2829401199999992 13.1359403900000000
 10.7880008899999993 17.3683942299999998 15.2522671100000000
 10.8570330700000000 19.7641234700000012 17.2048970499999996
 11.1518443000000005  0.0272565500000000 19.3184740400000017
 11.0075967600000002  2.3049067399999998 -0.3690697500000000
 10.9127315100000004  4.4978655900000000  2.1455998599999999
 12.8440891199999996  6.1322628000000003  7.0192775699999999
 13.0261961999999993  8.7994230800000004  9.1799169900000006
 13.0209335300000006 10.9611852499999998 10.9324040300000007
 12.8798685800000001 13.3263223300000000 13.1005859400000002
 12.6372307399999997 15.5628501000000004 15.2877997099999998
 12.9432997499999995 17.3504976900000010 17.2961499399999994
 13.3138550599999999 19.3973014799999994 19.7128012300000002
 13.2135793499999998  0.3581804600000000  0.0736712300000000
 13.1915498800000002  2.2692461399999999  2.4932105899999999
 13.0087655899999994  4.8385557500000003  4.5112917699999997
 15.1053958399999999  6.4239575699999998  8.6942444400000003
 15.3469994399999994  8.6432880200000000 10.9271440000000002
 15.3370081799999998 11.4936672000000009 12.7082994800000009
 14.8407386599999995 12.9034708299999998 15.1200427600000005
 15.2672013700000004 15.0125791100000008 17.0587319999999991
 15.4161836099999991 16.6661606599999992 19.0445019400000000
 15.2879216800000002 19.1891588099999986 -0.1923556500000000
 15.5552822699999993  0.2875612900000000  1.8945599600000000
 15.2201232799999993  2.4505058100000001  4.6218829399999999
 15.2829292700000003  4.4979399600000001  6.9079479099999999
 17.1320235899999993  6.2731096300000004 10.8208015500000005
 17.3508840100000015  9.0162645000000001 12.9619587200000002
 16.8932107400000007 11.3355293400000008 15.2563105100000005
 17.3288662500000008 13.3566894099999995 17.8484805999999985
 17.2577987399999984 15.4765298199999997 19.9726640099999990
 16.9965792899999997 17.3378072900000006  0.5578116700000000
 17.2748626799999982 19.5218909499999995  2.1172626399999999
 16.8856414900000011  0.0754272200000000  4.4843942900000000
 17.3632100999999999  2.3010478999999999  6.6402571300000002
 17.3700706400000016  4.3133228800000003  8.8586005700000001
 19.0499715499999986  6.9079888000000000 13.3042121800000004
 19.4286950800000007  9.0727639599999996 15.1421544600000004
 19.5346477000000007 11.2778957299999991 17.4606433999999986
 19.9605966899999991 13.1301747899999999 19.5571874500000007
 19.2564489899999991 15.1818685099999993  0.5497074700000000
 19.4564394100000015 17.7891193100000002  2.1828591799999999
 19.3507476400000016 19.5486902600000008  4.5963309099999998
 19.5603366100000002  0.2734531900000000  5.9061137400000003
 19.8454956200000012  2.2815260400000001  8.8553562400000008
 19.4174166399999990  4.5485951699999996 11.1955295600000007
 -0.2666009300000000  6.6249103199999997 14.6655279299999997
 -0.2167214200000000  8.5013182500000006 17.7096026900000005
  0.0508159900000000 10.8373483799999999 19.2335505600000012
 -0.0726498100000000 12.7541993900000001  0.0817719300000000
 -0.2369011100000000 15.2796009900000005  2.2292720300000002
  0.0354163600000000 17.5280596700000011  4.5887919600000000
  0.4372719900000000 19.1576335100000001  6.6092713700000001
 -0.2153726800000000  0.3036666000000000  8.5592069399999993
 -0.3975359100000000  2.2075710800000001 11.5005406600000004
 -0.4422194200000000  3.9335829900000001 13.4472171100000004
  1.3813133399999999  6.7847843499999998 17.0004487600000012
  1.7884006600000000  8.7748918699999994 19.3832694699999983
  2.3160461899999998 10.5574633400000000 -0.2047774300000000
  2.1699756600000000 13.2121249299999999  2.2033418999999999
  2.4563469100000002 15.5253814899999991  4.4949037699999996
  2.8391670300000000 17.7200194800000013  6.1493020999999999
  2.7617441000000000 19.8840304900000007  8.6038840800000003
  1.8509208100000001 -0.0613658200000000 10.7353295200000005
  2.0369900200000002  1.8152037900000000 12.9054709100000000
  2.0389056000000001  4.1409165799999998 14.9336816100000007
  4.4695781200000004  6.4530515599999996 19.4249579300000015
  4.0231772499999998  8.6124489000000004 21.3254623099999989
  4.0050018400000003 10.5873463599999997  2.5332409500000002
  4.3387994799999996 13.2903413399999994  5.0021423499999997
  4.4860403399999997 15.6019316499999992  6.5653557600000001
  4.6756027400000004 17.5634230900000006  8.3216604800000002
  4.5856461800000003 19.6812306100000001 10.6081001199999996
  4.4830198899999996  0.3906745300000000 12.7212720699999995
  4.0951066999999997  2.2180256400000000 15.2382993100000004
  3.9658142600000001  4.8054878800000003 17.1688880099999999
  8.4395076499999995  9.1234537200000005  0.0957910900000000
  8.7219901699999998 10.5692856400000004  2.1506444600000001
  8.7206458700000002 12.7066119200000003  4.1303016399999999
  8.6373946799999999 14.8973540399999997  6.5698352499999997
  8.5816137000000001 17.1329443599999998  8.7407869300000005
  8.7449716899999999 19.6611737200000007 10.8953981300000002
  8.5353074800000002  0.5921949200000000 13.1638362799999999
  8.0923628599999997  2.1313113100000001 15.3270944399999998
  8.8678023300000000  4.3646694500000001 16.9880648600000015
  8.5766159000000002  6.6256607299999999 19.3915834599999997
 10.8104374300000003  8.2839550699999993  1.7014714200000001
 11.4466657200000004 10.4638708000000005  3.7076409300000002
 10.9744073499999999 12.6166036100000003  6.6020368400000002
 10.8301808400000006 15.1965068300000006  8.6240350699999997
 11.1854987099999992 17.3779594700000004 10.9318367100000007
 10.6785957600000003 19.4804521400000006 13.3435244599999994
 11.0212592100000002  0.1222690500000000 15.0148817799999996
 10.9210002700000004  2.2019977599999998 17.5358126500000004
 10.5686976999999995  4.4106781000000002 19.8324509000000013
 10.5150244199999996  6.3914692500000001 21.2930336599999990
 12.8057358099999998  8.2010761900000002  4.3246321900000000
 13.3617946700000001 10.7601174200000003  6.1401981599999997
 12.6217402599999993 13.0169578700000006  8.5781018000000007
 12.7785077800000000 15.8109859700000008 10.8449447299999999
 12.8354912100000007 17.2636277199999988 13.3740090100000000
 13.0815257999999996 19.3665611200000001 15.2294217599999993
 13.3242585499999997  0.1035411300000000 17.1465659200000005
 12.9702196099999991  2.4154587799999998 19.5718241400000004
 13.1039684800000007  4.6633286700000003  0.1071975300000000
 12.6531649200000000  6.6531382399999996  2.1682608499999998
 15.0200381800000002  8.5687768500000008  6.5509948500000004
 15.1245677900000004 10.8059925200000002  8.3228984900000000
 15.1117168900000003 13.1535652200000008 10.4375248099999993
 14.8253114799999999 15.6721372500000005 13.1439005600000005
 15.0587467900000007 17.5269548700000009 15.5579627899999995
 15.1428102899999999 19.3072216899999987 17.5555998600000009
 15.3089594200000008  0.1254395000000000 19.3971896000000008
 15.2322626099999994  2.1849554900000001  0.3253150600000000
 15.1748902700000006  4.2479048099999996  2.2859831300000000
 14.7278236600000003  6.5384707100000004  4.4773584199999998
 17.2374415499999998  8.4849235400000005  8.5833836600000009
 17.3539926099999988 11.0653645100000002 10.7056221100000002
 17.3842605500000005 13.4227016199999998 13.0904834999999995
 17.6007284499999983 15.1949943699999999 15.1768025299999998
 17.6035822700000004 16.7534352300000009 17.4157849899999988
 17.2986671100000002 19.1405483399999987 19.5104818599999987
 17.5528303200000018  0.0020534800000000 -0.2310297900000000
 17.8182328800000001  2.0144635100000001  1.9646234300000001
 17.9621539199999987  4.3253274299999998  4.4290306499999996
 17.6202933100000010  6.5789184699999996  6.2381821999999998
 18.8957146700000003  8.6340275299999991 10.3643385499999994
 19.0144488799999998 10.6284560599999995 12.4920301699999996
 19.6340010499999984 13.1748180500000007 14.9212433999999998
 19.4829572499999983 15.1379904399999994 17.0379297799999989
 19.4980053899999994 17.1450364600000000 19.8893718100000001
 19.7797371499999990 19.5796510200000000 -0.2208521300000000
 19.6939499299999987 -0.2368631800000000  2.1466301300000001
 19.5085290399999991  2.0122781199999999  4.4642082900000002
 19.8364021199999989  4.0849222899999997  6.7847235899999996
 19.2414003399999984  6.1587762200000000  8.5040852299999994
 -0.0719524300000000  8.7112929200000000 12.6654147500000001
 -0.1625326700000000 11.2850785100000000 15.0797395999999999
  0.3944662100000000 13.3414258300000004 17.1473983899999993
 -0.0138497600000000 14.9267279100000003 19.7981282900000011
  0.0688338200000000 17.1353552399999991 -0.0938083300000000
 -0.0176745800000000 19.2759708299999986  2.3996256200000001
 -0.1186500400000000  0.1257979900000000  4.6038852099999996
 -0.1791616600000000  2.4449945700000000  6.4749903000000000
 -0.1335261600000000  4.0940281100000000  8.5080232799999997
 -0.0765562600000000  6.2854186399999996 11.1821585700000004
  1.7159182500000001  8.5230962500000000 14.6392354499999993
  2.1368217500000002 11.1084919200000005 17.0626472100000015
  2.0641801300000000 12.9618981000000009 19.5784246700000004
  2.2474562200000001 14.5730724600000006  0.2276486400000000
  2.0711211199999999 17.0659598000000017  2.0866511999999999
  2.4221545199999999 19.2384950500000009  4.2039121499999998
  2.5643467300000000  0.3969077000000000  6.4345351099999997
  2.0950293699999998  1.9592026100000000  9.0822000599999999
  1.9698331600000001  4.3630603199999998 11.0349471700000006
  1.4187775899999999  6.1772161800000003 12.6947849399999999
  4.1715531900000000  8.8569110700000007 17.7055836100000015
  3.9632428700000002 10.4257730100000003 19.2643294199999993
  4.9553331800000002 13.0096299900000005 -0.4822143600000000
  4.6890773299999999 15.0320189899999992  1.9931744899999999
  4.3513875500000001 17.3565902399999992  3.7616533099999998
  4.4769615099999998 19.3818889299999988  6.2852499399999999
  4.9118978000000002  0.3050193700000000  8.1659265100000002