Li                                      
   1.00000000000000     
    20.6400000000000006    0.0000000000000000    0.0000000000000000
     0.0000000000000000   20.6400000000000006    0.0000000000000000
     0.0000000000000000    0.0000000000000000   20.6400000000000006
   Li
   432
Direct
  0.0003492853682161  0.0072003657945743  0.0160724660852694
  0.9160339258720924  0.0861756865310070  0.0957894631782921
  0.8072300954457390  0.1602391036821729  0.1624654457364372
  0.7475912688953485  0.2663618585271337  0.2577282940891479
  0.6432182456395381  0.3342546555232531  0.3320140697674390
  0.5762484060077497  0.4240886913759709  0.4265808793604648
  0.5028822877906975  0.5002156390503885  0.5020502466085262
  0.4020139762596884  0.5808342994186049  0.5898438691860477
  0.3171251007751934  0.6703344796511601  0.6663195314922490
  0.2384508880813954  0.7574360954457333  0.7433791104651135
  0.1492926516472863  0.8371837892441860  0.8321983149224792
  0.0706375867248070  0.9312692126937989  0.9094637669573657
  0.0976177587209293  0.9127676792635668  0.0946060678294600
  0.9790591157945769  0.0024652311046509  0.1658673129844956
  0.9141867776162798  0.0658818144379865  0.2352230789728651
  0.8249837281976724  0.1457399631782934  0.3332430697674411
  0.7500398498061998  0.2438353410852727  0.4130929079457388
  0.6641831918604666  0.3333855305232589  0.4946852635658914
  0.5904084132751919  0.4262555697674415  0.5825866477713149
  0.5122151962209287  0.4900741521317826  0.6712341487403108
  0.4031721845930250  0.5842580145348819  0.7446246637596872
  0.3104620765503867  0.6790018711240293  0.8328672819767462
  0.2315841579457398  0.7507541395348838  0.9098150014534880
  0.1674990106589149  0.8457016366279078  0.9992894486434096
  0.1777264471899258  0.8087441637596910  0.1818026981589114
  0.0854613032945721  0.9235599937015522  0.2352040213178270
  0.0060339670542646  0.9919135406976736  0.3202949394379857
  0.9144698953488373  0.0725273498062009  0.4139336070736448
  0.8216791608527103  0.1552244825581397  0.5010393653100778
  0.7515183808139554  0.2514641976744159  0.5883143255813934
  0.6834429137596914  0.3438515644379834  0.6624296884689898
  0.5891870968992237  0.4118895421511652  0.7379663842054285
  0.4927277456395345  0.5061958643410875  0.8192933187984508
  0.4114481240310113  0.6007238880813972  0.9127874447674387
  0.3338960644379867  0.6751847771317827  0.9965284864341086
  0.2486474166666639  0.7576951138565917  0.0623297044573619
  0.2566504849806179  0.7413463512596934  0.2646688871123999
  0.1756397359496091  0.8391737558139525  0.3403943197674408
  0.0817703580426326  0.9108990857558155  0.4059067684108513
  0.9939238168604660  0.9945228740310057  0.4969533706395382
  0.9074290188953498  0.0818174927325614  0.5791743115310055
  0.8297958866279060  0.1734073711240285  0.6710375697674422
  0.7574225101744219  0.2596329404069735  0.7439754219961259
  0.6689984384689893  0.3247905959302315  0.8379680314922453
  0.5762146719961265  0.4134682708333344  0.8912260746124048
  0.5062110101744182  0.4926359966085272  0.9963084980620138
  0.4137958958333314  0.5900428764534880  0.0813419559108510
  0.3390135595930204  0.6693963095930258  0.1822326753875956
  0.3277474287790696  0.6648862601744199  0.3395995581395326
  0.2361011831395317  0.7608080193798443  0.4111663241279047
  0.1789637243217044  0.8408307407945728  0.4998363468992224
  0.0841218246124029  0.9252723134689944  0.5774439389534862
  0.9954336124030974  0.0005826375968994  0.6547735746124062
  0.9267111855620129  0.0864133861434127  0.7372963275193811
  0.8285871022286813  0.1530671409883695  0.8235819006782918
  0.7589120683139541  0.2473402669573659  0.9156809341085292
  0.6620258759689932  0.3467437470930221  0.9846572485465117
  0.5795345411821700  0.4240727611434139  0.0883920014534851
  0.4993773415697689  0.5099296424418611  0.1530520523255845
  0.4180973512596893  0.5848363265503878  0.2510587344961266
  0.4243253386627899  0.5985541952519355  0.4242247248062014
  0.3249403706395384  0.6610693338178280  0.4962208687015490
  0.2496392810077523  0.7542078241279100  0.5867524791666696
  0.1685339345930217  0.8599571632751903  0.6701458120155053
  0.0768710319767436  0.9296566279069793  0.7407586850775161
  0.0093533260658916  0.0132584224806180  0.8195235193798425
  0.9173856826550377  0.0775693120155054  0.9124294811046525
  0.8053401245155030  0.1491773265503866  0.0098890717054232
  0.7443074888565917  0.2658214811046520  0.0911600106589177
  0.6609702538759663  0.3472736516472850  0.1799465271317828
  0.5695385343992214  0.4378660906007781  0.2507603507751952
  0.4991965334302293  0.5146147325581367  0.3307226642441847
  0.0793390891472896  0.0965761971899255  0.9353095155038744
  0.9795381991279086  0.1762371283914703  0.0059817848837227
  0.8869425750968958  0.2392426124031033  0.0993696109496156
  0.8212251681201579  0.3384090431201585  0.1650908362403101
  0.7696770465116245  0.4175945155038789  0.2632379757751906
  0.6643585528100786  0.5050402567829479  0.3233349399224821
  0.5788868914728695  0.5943526778100789  0.4079070319767411
  0.5108326104651155  0.6463733769379871  0.5260410169573646
  0.4074478628875937  0.7428564922480589  0.5767961182170538
  0.3397376802325596  0.8263211676356619  0.6794214985465103
  0.2564696269379851  0.9274227340116283  0.7487114190891475
  0.1617871763565901  0.0015461259689928  0.8291007708333353
  0.1469800256782960  0.9973646414728705  0.0020873076550387
  0.0688237170542649  0.0771753517441880  0.0909593023255795
  0.9924108173449611  0.1778352388565878  0.1646116676356613
  0.8980771201550368  0.2380770896317799  0.2483325978682203
  0.8384465595930237  0.3333826114341107  0.3501966172480593
  0.7343027713178287  0.4162669781976760  0.4102528851744154
  0.6649240576550355  0.5090807369186052  0.4841605557170539
  0.5936081162790714  0.5763787480620124  0.5900786681201566
  0.5068168483527131  0.6674004103682165  0.6540279912790723
  0.4129882921511623  0.7291411138565920  0.7539360959302357
  0.3179953401162763  0.8355556167635640  0.8360369597868242
  0.2353307344961237  0.9162033856589176  0.9191627790697652
  0.2507623154069734  0.9217400692829472  0.0922643376937984
  0.1661119031007772  0.0166540809108540  0.1596423464147279
  0.0928023091085279  0.0924861211240326  0.2447484263565869
  0.9828957068798445  0.1617870649224784  0.3278923265503906
  0.9163259554263590  0.2398223081395372  0.4305247325581405
  0.8294836952519375  0.3442019864341077  0.4966972340116271
  0.7497368086240286  0.4101435300387593  0.5880071114341092
  0.6800170935077503  0.5054813095930228  0.6727557543604661
  0.5759411133720960  0.5840077335271303  0.7522485324612376
  0.4985164171511656  0.6679280799418592  0.8341363158914703
  0.4211254011627901  0.7556068430232585  0.9135742558139555
  0.3376536957364351  0.8361967461240312  0.9936423871124020
  0.3313227097868250  0.8223223551356611  0.1677608187984490
  0.2453057335271325  0.9172485111434128  0.2393226787790681
  0.1661690523255785  0.9928485523255830  0.3329503401162768
  0.0700504699612381  0.0729493943798474  0.4196823110465147
  0.9815113624031042  0.1568125595930212  0.5034880266472896
  0.9092932882751938  0.2561035876938007  0.5839100484496100
  0.8472331807170548  0.3406955000000025  0.6596278924418613
  0.7489302553294550  0.4162919287790672  0.7460000033914724
  0.6707028032945743  0.4987958924418621  0.8352548808139559
  0.5799557868217065  0.5873425111434116  0.9120086545542634
  0.4995552500000002  0.6840162475775173  0.9961710741279077
  0.4217191715116257  0.7504016312984518  0.0970722863372089
  0.4181093968023220  0.7523694665697676  0.2629656821705453
  0.3167444515503846  0.8340322248062009  0.3340835930232586
  0.2546427514534884  0.9357660595930213  0.4173435998062018
  0.1575244326550376  0.9935872630813947  0.5095189723837237
  0.0667232441860435  0.1065362960271301  0.5877080615310106
  0.9866132015503908  0.1735269035852696  0.6679175213178326
  0.9203477112403107  0.2568571492248068  0.7563412529069780
  0.8227343468992245  0.3447962020348854  0.8344841375969025
  0.7466046875000032  0.4249584093992240  0.9119937819767472
  0.6711806177325599  0.5040489113372075  0.9898828662790677
  0.5883238343023223  0.6100647117248030  0.0775325513565903
  0.5078670295542622  0.6770737877906967  0.1753124016472896
  0.5053330082364340  0.6846790968992238  0.3231097737403132
  0.4164799118217033  0.7549362606589156  0.4341627039728664
  0.3244267587209322  0.8545175591085297  0.5044279888565910
  0.2524673992248054  0.9153973769379817  0.6016163066860472
  0.1663710406976762  0.0167573178294589  0.6653832233527126
  0.0966867664728710  0.1016313725775220  0.7468014762596908
  0.0038703221899254  0.1722317088178329  0.8429220658914716
  0.8843682301356566  0.2336797543604661  0.9262579641472897
  0.8226359830426375  0.3430739190891501  0.0033000954457378
  0.7459574365310075  0.4166043817829461  0.0766390610465137
  0.6548718241279090  0.4978848178294584  0.1623580726744152
  0.5937788042635646  0.5856540809108495  0.2354499186046510
  0.1634098178294607  0.1722080639534909  0.8372785813953456
  0.0921204098837194  0.2475173798449646  0.9265121933139540
  0.9810920741279077  0.3295104360465118  0.0181591850775220
  0.9227060770348814  0.4184892969961211  0.0911074559108513
  0.8419190377906958  0.4944388982558152  0.1654464452519377
  0.7510262432170549  0.5733762945736416  0.2381616414728711
  0.6705172674418591  0.6618989622092997  0.3218470828488407
  0.5769564089147252  0.7607501957364349  0.4271366279069753
  0.4942608701550384  0.8328078425387559  0.5118313512596870
  0.4198484510658886  0.9211979835271293  0.5900389777131778
  0.3460381128875980  0.0072410314922493  0.6644480222868197
  0.2618658343023270  0.0865336545542661  0.7421593783914702
  0.2370762829457362  0.0837770523255799  0.9039805775193770
  0.1684180087209270  0.1557321574612374  0.0106471007751949
  0.0702222495155027  0.2560825673449614  0.0917113958333360
  0.9821883837209313  0.3233402354651176  0.1684567674418602
  0.9025951051356600  0.4188053028100782  0.2604940000000013
  0.8331664447674427  0.5059757814922463  0.3409514447674411
  0.7450434844961222  0.5861357417635631  0.4108126211240304
  0.6766725329457373  0.6578914631782951  0.4996611608527104
  0.5815276230620157  0.7510369748062047  0.5752646293604684
  0.4820324137596899  0.8280606109496134  0.6716244287790687
  0.4078433062015492  0.9116755300387567  0.7627747122092998
  0.3362589292635647  0.9941312814922512  0.8424849694767431
  0.3274616216085278  0.9987879970930251  0.9727893900193791
  0.2488398590116248  0.0827836327519407  0.0798077335271330
  0.1505475939922505  0.1582985300387563  0.1564192688953483
  0.0884685780038765  0.2584305712209272  0.2500271875000024
  0.9918364530038772  0.3280358769379816  0.3331673609496093
  0.9035481448643381  0.4332783696705391  0.4232317068798466
  0.8245516593992264  0.5013241807170559  0.5109640169573666
  0.7574899912790727  0.5743557044573677  0.5881070625000007
  0.6723776061046536  0.6596512068798432  0.6687642582364361
  0.5864077945736454  0.7522008628875980  0.7436119215116292
  0.5082406991279100  0.8247542359496123  0.8279343502906968
  0.4327650692829437  0.9089529496124058  0.9175962684108541
  0.4056558691860488  0.9221808367248059  0.0943587277131783
  0.3226295033914752  0.0070271448643382  0.1547828808139542
  0.2602190474806179  0.0754161075581408  0.2600074316860486
  0.1622802238372074  0.1737374878875997  0.3441345314922515
  0.0781960116279095  0.2538881564922448  0.4133116855620145
  0.9834655358527158  0.3403114864341106  0.4929441206395353
  0.9249891719961241  0.4257643192829477  0.5690267403100790
  0.8300675276162792  0.4844301414728704  0.6704240683139560
  0.7668208982558156  0.5845084064922474  0.7542386385658943
  0.6718908493217057  0.6670415663759712  0.8359844263565890
  0.5831528212209278  0.7471948531976764  0.9257702393410838
  0.4958723512596919  0.8429012281976753  0.0032703483527143
  0.5016921550387607  0.8281371317829453  0.1717772194767448
  0.4020799874030985  0.9262148454457346  0.2549265978682200
  0.3351063483527099  0.0034500547480647  0.3385214312015492
  0.2380257596899256  0.0814946749030980  0.4363746535852684
  0.1548597747093012  0.1660854781976724  0.5048013599806183
  0.0717080746124026  0.2564184815891508  0.5768547020348862
  0.0032244496124036  0.3402954980620123  0.6713981836240279
  0.9384127189922467  0.4128502601744160  0.7669667650193830
  0.8494914656007779  0.5013315528100790  0.8252363943798429
  0.7690437887596886  0.5826731128875977  0.9251884370155068
  0.6776454060077484  0.6582909171511631  0.9928820683139534
  0.6050580692829470  0.7627052877906948  0.0811502214147310
  0.6033315760658908  0.7716819903100784  0.2521926429263601
  0.4985782456395356  0.8438978677325579  0.3389932984496156
  0.4005761322674388  0.9231011860465088  0.4123916816860458
  0.3314268372092997  0.9924726647286803  0.5150339486434135
  0.2453961952519350  0.0870852059108529  0.5748094806201536
  0.1807586865310071  0.1784065455426358  0.6568280193798444
  0.0922011027131759  0.2529357781007775  0.7564724249031016
  0.0005702587209271  0.3181883425387610  0.8587272335271336
  0.9080898832364355  0.4230588531976736  0.9186936235465097
  0.8378310654069736  0.4929196385658940  0.0016458018410859
  0.7541091279069789  0.5814024442829435  0.0727105198643443
  0.6716445135658944  0.6632554142441833  0.1548468362403099
  0.2617725741279102  0.2455507519379836  0.7476083619186014
  0.1693542204457330  0.3395913730620137  0.8410646434108529
  0.0780908134689895  0.4263680838178274  0.9140376778100787
  0.9858148977713199  0.5012007562984522  0.9970890513565891
  0.9324172592054296  0.5868854995155033  0.0954769733527101
  0.8403282277131794  0.6752084714147273  0.1548138454457373
  0.7344289796511632  0.7508940213178263  0.2452158294573650
  0.6765832315891487  0.8478370353682152  0.3384922383720905
  0.5753236409883726  0.9105041269379868  0.4267009132751909
  0.5132793687015536  0.9864384888565922  0.4982465155038724
  0.4441821317829451  0.0796358086240332  0.5835460973837243
  0.3378188900193777  0.1584377810077484  0.6689701729651176
  0.3270283561046483  0.1694496986434118  0.8435761429263593
  0.2374582340116262  0.2500834975775206  0.9132590542635626
  0.1542027582364369  0.3269314370155030  0.9932661128875964
  0.0750717320736456  0.4153574980620149  0.0829483265503868
  0.0093277320736433  0.4823677625969012  0.1769889515503849
  0.9218269505813979  0.5818644626938010  0.2328648178294586
  0.8239761308139535  0.6504231666666698  0.3145420343992242
  0.7431310445736443  0.7391661652131774  0.4202615901162758
  0.6731590353682151  0.8389698372093051  0.4971986099806216
  0.5843193643410842  0.8957515547480597  0.5886388498062018
  0.5232924098837231  0.9875919399224813  0.6721917640503889
  0.4230797131782964  0.0759429035852719  0.7581933997092989
  0.4148507015503853  0.0957013846899244  0.8976066816860495
  0.3416319103682142  0.1711939210271325  0.9981626942829465
  0.2551711094961249  0.2519945009689906  0.0824662611434093
  0.1653041395348822  0.3375434496124043  0.1570054840116271
  0.0857928125000029  0.4099179147286804  0.2456185319767457
  0.9931945867248047  0.4970766516472835  0.3447477543604620
  0.9095282277131815  0.5716678938953521  0.4208783231589166
  0.8395485382751957  0.6575458318798439  0.5028847170542647
  0.7441491700581366  0.7380587378875987  0.5926136569767451
  0.6743200591085241  0.8285916550387569  0.6737856894379846
  0.5887104239341099  0.9077866913759678  0.7694188250968992
  0.5092786167635666  0.0105703110465143  0.8380173657945704
  0.5085253522286806  0.0115056569767447  0.9880706264534851
  0.4273552291666647  0.0666860033914745  0.0759390043604640
  0.3373118473837238  0.1611883905038738  0.1657170237403136
  0.2424245600775166  0.2426126928294607  0.2454931850775210
  0.1694153212209315  0.3391153687015489  0.3302227562984470
  0.0850922684108539  0.4036416971899257  0.4136246962209285
  0.0084309539728693  0.4937686608527159  0.4962026279069747
  0.9212460518410879  0.5693196012596928  0.5978266477713206
  0.8497795828488393  0.6609982432170511  0.6538998987403133
  0.7639063788759657  0.7363857039728714  0.7638000634689917
  0.6793558987403117  0.8050868144379848  0.8398547572674389
  0.5952323420542669  0.9111813614341102  0.9119746516472844
  0.5822145528100791  0.9178738749999980  0.0714516114341066
  0.4986970450581367  0.0073672747093028  0.1746420726744162
  0.4115692470930199  0.0807053759689893  0.2586323769379817
  0.3288545595930259  0.1669673459302317  0.3461310644379836
  0.2300280833333304  0.2535895721899237  0.4316800571705457
  0.1703080343992269  0.3447274534883746  0.5065261937984502
  0.0958205799418579  0.4074913619186020  0.5809001409883692
  0.0054709215116304  0.5000619656007785  0.6582786269379852
  0.9220650901162770  0.5920078522286829  0.7443835717054270
  0.8545080062984525  0.6831419966085264  0.8451150358527144
  0.7619890673449632  0.7336461894379838  0.9222567911821713
  0.6809913701550414  0.8264106637596882  0.0017650494186014
  0.6818929084302354  0.8579826075581423  0.1520664748062046
  0.5867536119186028  0.9145151453488367  0.2559017340116299
  0.5025055440891464  0.9925924680232541  0.3305099447674422
  0.4178842480620162  0.0770639985465138  0.4260592122093030
  0.3358529796511647  0.1669568086240290  0.4981471918604683
  0.2488890901162790  0.2526219471899225  0.5872313246124037
  0.1647612000968977  0.3351513633720913  0.6721679428294607
  0.0631131879844986  0.4076310523255842  0.7578731744186058
  0.9972064433139565  0.5071856443798453  0.8438752669573617
  0.9100133657945761  0.5954409229651176  0.9135018289728691
  0.8437554055232539  0.6682271472868209  0.9944230721899245
  0.7674031598837203  0.7424260184108533  0.0855320363372059
  0.3267357461240294  0.3301345818798467  0.6503249975775205
  0.2562664733527100  0.4039724878876001  0.7414503754844972
  0.1602733391472881  0.4850811613372059  0.8375950518410846
  0.0839761346899195  0.5866212950581371  0.9282354612403125
  0.0014233231589174  0.6774350930232558  0.0042621332364376
  0.9295587722868248  0.7769105043604654  0.0713355639534896
  0.8249243318798420  0.8360084481589141  0.1612806860465099
  0.7413643880813936  0.9182423347868252  0.2518337800387584
  0.6621981623062041  0.9805302708333343  0.3569302388565916
  0.5735387969961252  0.0877960872093055  0.4151241874999982
  0.5173282330426332  0.1614058076550364  0.5155305009689926
  0.4211956259689913  0.2535416884689923  0.5983347456395336
  0.4146880833333313  0.2517470111434079  0.7491166322674445
  0.3192400586240325  0.3325332635658924  0.8448890082364358
  0.2427074699612390  0.4235304559108499  0.9305139491279064
  0.1566711414728701  0.4903872737403105  0.0073780939922514
  0.0913611027131793  0.5795692374030992  0.0957784748062025
  0.9927993289728647  0.6798819917635655  0.1531891981589126
  0.9141415101744172  0.7332135571705436  0.2405629326550383
  0.8352488633720938  0.8280633430232527  0.3250822989341060
  0.7694850000000031  0.9112058168604662  0.4345248890503868
  0.6341380508720960  0.9913866778100768  0.5000610513565888
  0.5845367795542629  0.0758399752906982  0.6025183265503884
  0.5120099190891452  0.1714637374031014  0.6857362446705437
  0.5230027262596906  0.1630906099806211  0.8140222088178319
  0.4291247117248034  0.2349286860465085  0.8968330213178319
  0.3443279031007762  0.3314663856589135  0.9767875857558153
  0.2532885053294578  0.4006902495155060  0.0650976240310044
  0.1724793943798417  0.4901861933139529  0.1544357926356597
  0.0834525784883695  0.5935589215116295  0.2408712083333313
  0.9828902519379810  0.6660192485465117  0.3236010436046541
  0.9105681545542623  0.7302650024224775  0.3982166148255786
  0.8400247684108493  0.8217586332364348  0.4980186744186028
  0.7567685232558148  0.9224984224806221  0.5717550460271283
  0.6844256332364367  0.9718880135658949  0.6623443246124054
  0.6006717635658916  0.0775772126937966  0.7573680009689951
  0.6084579990310104  0.0873058439922474  0.9282392873061980
  0.5164534549418605  0.1678986249999994  0.0039091821705455
  0.4266442882751917  0.2468620334302329  0.0824860421511602
  0.3361551303294590  0.3232880862403107  0.1538314660852720
  0.2666031695736422  0.4106389389534897  0.2356456230620125
  0.1636637848837239  0.4866788129844934  0.3248931671511599
  0.0847284442829448  0.5872127553294604  0.4059356933139568
  0.0042869341085279  0.6646650125968989  0.5058407185077485
  0.9197481584302309  0.7576603304263543  0.5810387398255799
  0.8437287596899239  0.8310920339147287  0.6609190218023286
  0.7501603517441850  0.9199966458333364  0.7682619626937992
  0.6822468938953463  0.9964684244186017  0.8388943081395368
  0.6778112088178290  0.9786206855620136  0.0006086705426327
  0.5933211593992240  0.0789570116279066  0.1001550503875990
  0.4960257272286839  0.1590840169573653  0.1629179186046485
  0.4182837257751970  0.2406655634689940  0.2468409413759716
  0.3299310964147253  0.3234431511627918  0.3402049525193789
  0.2672345436046513  0.4203149307170548  0.4061057873062026
  0.1672968091085281  0.4955137940891490  0.4904914156976758
  0.0962096831395343  0.5867090721899189  0.5902129593023275
  0.0037305188953454  0.6755810949612382  0.6556437344961239
  0.9190487800387572  0.7541557248062034  0.7324340557170572
  0.8328328163759693  0.8373782059108521  0.8310344801356564
  0.7661295809108495  0.9156252737403108  0.9066829864341059
  0.7677214762596876  0.9055686250000008  0.0789027533914748
  0.6764579636627914  0.9820143415697657  0.1557115305232557
  0.5986186211240323  0.0707493241279096  0.2630373614341082
  0.4921418391472869  0.1603280639534859  0.3365993536821676
  0.4196470944767441  0.2510405983527164  0.4195084607558144
  0.3469623594961249  0.3380880615310105  0.5123127519379835
  0.2678820082364339  0.4132580159883688  0.5926853129844929
  0.1562998730620180  0.4884392950581429  0.6718543473837215
  0.0739172277131814  0.5750402718023224  0.7501014510658948
  0.0060981652131815  0.6677436099806187  0.8325558139534905
  0.9300898473837194  0.7724135300387616  0.9252533066860451
  0.8445754597868245  0.8312681792635672  0.9934917480620129
  0.4198817940891502  0.4255275988372063  0.5956215973837189
  0.3374074602713151  0.5016100910852686  0.6597252824612383
  0.2510709370155055  0.5664154849806167  0.7477937533914698
  0.1584291681201577  0.6535702218992228  0.8268667156007723
  0.0789354593023290  0.7594614016472860  0.9061831031976766
  0.0166058846899233  0.8607673997093030  0.9980291623062030
  0.9127346923449622  0.9249977049418590  0.0782577315891473
  0.8277782122093029  0.9977051700581399  0.1652098687015524
  0.7411211841085290  0.0686430668604672  0.2638998672480639
  0.6753462189922459  0.1521023657945761  0.3391257500000009
  0.5770300159883703  0.2421038808139500  0.4186982451550421
  0.4937401172480591  0.3327770983527145  0.5081997427325575
  0.4955867848837201  0.3382153905038763  0.6694002466085252
  0.3956724607558115  0.4198864413759722  0.7505723691860453
  0.3140349263565909  0.4951061981589149  0.8337276065891501
  0.2351174016472868  0.5895353546511615  0.9288906531007726
  0.1455759728682153  0.6771927669573614  0.0093556545542626
  0.0925464689922464  0.7693829123061988  0.0904354389534916
  0.9991998556201551  0.8316347427325610  0.1759790901162788
  0.9042299975775165  0.9061438517441829  0.2390478541666639
  0.8372451007751920  0.9891591540697675  0.3364081128875966
  0.7601451889534871  0.0694938905038782  0.4115222698643421
  0.6727426385658930  0.1469409791666649  0.4953365702519363
  0.5870794854651180  0.2503033221899216  0.5787228875968964
  0.5939715910852712  0.2659873187984516  0.7481710208333325
  0.4995508725775224  0.3289723062015497  0.8291893323643436
  0.4045947703488366  0.4261416438953489  0.9118166584302330
  0.3347563546511623  0.5014242984496136  0.9960851114341054
  0.2484245503875968  0.5836337688953463  0.0786437504844955
  0.1820444922480604  0.6622307640503848  0.1640412374030973
  0.0796139859496137  0.7602968086240338  0.2564983178294540
  0.9862455150193767  0.8358944675387576  0.3310276487403101
  0.9175062737403081  0.9083738270348860  0.4106406598837182
  0.8400447592054263  0.0029411235465133  0.4940709505813956
  0.7506845765503840  0.0784073905038767  0.5858460387596907
  0.6748191812015492  0.1675466686046505  0.6604159176356603
  0.6771995654069798  0.1660147126938014  0.8263975392441836
  0.5763765625000019  0.2481169559108523  0.9092737083333304
  0.4992717495155006  0.3276457204457373  0.9843132906976777
  0.4238480300387621  0.4060675678294601  0.0694321676356608
  0.3324113081395339  0.5088336157945719  0.1511751564922506
  0.2486465818798465  0.5755601366279066  0.2499586337209294
  0.1657161187015532  0.6683018333333308  0.3313964166666636
  0.0798728144379837  0.7454789350775215  0.4123684302325614
  0.9986062969961225  0.8119137882751915  0.4933930780038764
  0.9299988706395368  0.9054166046511654  0.5727067383720907
  0.8369702969961210  0.9879125402131805  0.6623900164728695
  0.7456523958333321  0.0757760281007762  0.7444956041666657
  0.7473652669573667  0.0770030668604633  0.9284122848837200
  0.6735169888565906  0.1733590324612422  0.0069776613372099
  0.5850945111434100  0.2645711593992246  0.0903166346899198
  0.4871400620155057  0.3363044888565909  0.1705338284883737
  0.4098974927325614  0.4241355813953476  0.2423213977713203
  0.3545644651162760  0.5105645140503867  0.3187739176356601
  0.2445597369186032  0.5720490901162805  0.4019674607558130
  0.1679687107558152  0.6544589118217061  0.5007194854651189
  0.0863427916666666  0.7468219951550381  0.5726403546511634
  0.0051428498061981  0.8450503057170522  0.6544961739341062
  0.9208513168604640  0.9189759132751902  0.7607258585271310
  0.8419489772286823  0.0176696472868230  0.8323112708333298
  0.8247768749999977  0.0065415562015474  0.0038474990310107
  0.7381549239341112  0.0668711569767453  0.0846206027131799
  0.6790370780038728  0.1692741564922500  0.1725711526162783
  0.5861369733527155  0.2580607005813960  0.2441781259689932
  0.4982163023255808  0.3390566632751941  0.3337239811046544
  0.4131167664728679  0.4135757470930201  0.4199362281976775
  0.3373673110465134  0.5052863372093057  0.4893263444767442
  0.2488803391472842  0.5744127587209320  0.5916721797480591
  0.1640835944767431  0.6647923265503906  0.6702447732558170
  0.0674829883720918  0.7583244685077517  0.7297602936046488
  0.9900806216085272  0.8300271351744186  0.8262385019379863
  0.9130584801356605  0.9294327257751931  0.9193131589147256
 
  0.00000000E+00  0.00000000E+00  0.00000000E+00
  0.00000000E+00  0.00000000E+00  0.00000000E+00
  0.00000000E+00  0.00000000E+00  0.00000000E+00
  0.00000000E+00  0.00000000E+00  0.00000000E+00
  0.00000000E+00  0.00000000E+00  0.00000000E+00
  0.00000000E+00  0.00000000E+00  0.00000000E+00
  0.00000000E+00  0.00000000E+00  0.00000000E+00
  0.00000000E+00  0.00000000E+00  0.00000000E+00
  0.00000000E+00  0.00000000E+00  0.00000000E+00
  0.00000000E+00  0.00000000E+00  0.00000000E+00
  0.00000000E+00  0.00000000E+00  0.00000000E+00
  0.00000000E+00  0.00000000E+00  0.00000000E+00
  0.00000000E+00  0.00000000E+00  0.00000000E+00
  0.00000000E+00  0.00000000E+00  0.00000000E+00
  0.00000000E+00  0.00000000E+00  0.00000000E+00
  0.00000000E+00  0.00000000E+00  0.00000000E+00
  0.00000000E+00  0.00000000E+00  0.00000000E+00
  0.00000000E+00  0.00000000E+00  0.00000000E+00
  0.00000000E+00  0.00000000E+00  0.00000000E+00
  0.00000000E+00  0.00000000E+00  0.00000000E+00
  0.00000000E+00  0.00000000E+00  0.00000000E+00
  0.00000000E+00  0.00000000E+00  0.00000000E+00
  0.00000000E+00  0.00000000E+00  0.00000000E+00
  0.00000000E+00  0.00000000E+00  0.00000000E+00
  0.00000000E+00  0.00000000E+00  0.00000000E+00
  0.00000000E+00  0.00000000E+00  0.00000000E+00
  0.00000000E+00  0.00000000E+00  0.00000000E+00
  0.00000000E+00  0.00000000E+00  0.00000000E+00
  0.00000000E+00  0.00000000E+00  0.00000000E+00
  0.00000000E+00  0.00000000E+00  0.00000000E+00
  0.00000000E+00  0.00000000E+00  0.00000000E+00
  0.00000000E+00  0.00000000E+00  0.00000000E+00
  0.00000000E+00  0.00000000E+00  0.00000000E+00
  0.00000000E+00  0.00000000E+00  0.00000000E+00
  0.00000000E+00  0.00000000E+00  0.00000000E+00
  0.00000000E+00  0.00000000E+00  0.00000000E+00
  0.00000000E+00  0.00000000E+00  0.00000000E+00
  0.00000000E+00  0.00000000E+00  0.00000000E+00
  0.00000000E+00  0.00000000E+00  0.00000000E+00
  0.00000000E+00  0.00000000E+00  0.00000000E+00
  0.00000000E+00  0.00000000E+00  0.00000000E+00
  0.00000000E+00  0.00000000E+00  0.00000000E+00
  0.00000000E+00  0.00000000E+00  0.00000000E+00
  0.00000000E+00  0.00000000E+00  0.00000000E+00
  0.00000000E+00  0.00000000E+00  0.00000000E+00
  0.00000000E+00  0.00000000E+00  0.00000000E+00
  0.00000000E+00  0.00000000E+00  0.00000000E+00
  0.00000000E+00  0.00000000E+00  0.00000000E+00
  0.00000000E+00  0.00000000E+00  0.00000000E+00
  0.00000000E+00  0.00000000E+00  0.00000000E+00
  0.00000000E+00  0.00000000E+00  0.00000000E+00
  0.00000000E+00  0.00000000E+00  0.00000000E+00
  0.00000000E+00  0.00000000E+00  0.00000000E+00
  0.00000000E+00  0.00000000E+00  0.00000000E+00
  0.00000000E+00  0.00000000E+00  0.00000000E+00
  0.00000000E+00  0.00000000E+00  0.00000000E+00
  0.00000000E+00  0.00000000E+00  0.00000000E+00
  0.00000000E+00  0.00000000E+00  0.00000000E+00
  0.00000000E+00  0.00000000E+00  0.00000000E+00
  0.00000000E+00  0.00000000E+00  0.00000000E+00
  0.00000000E+00  0.00000000E+00  0.00000000E+00
  0.00000000E+00  0.00000000E+00  0.00000000E+00
  0.00000000E+00  0.00000000E+00  0.00000000E+00
  0.00000000E+00  0.00000000E+00  0.00000000E+00
  0.00000000E+00  0.00000000E+00  0.00000000E+00
  0.00000000E+00  0.00000000E+00  0.00000000E+00
  0.00000000E+00  0.00000000E+00  0.00000000E+00
  0.00000000E+00  0.00000000E+00  0.00000000E+00