Li 
 1.0000000000000000
    20.6400000000000006    0.0000000000000000    0.0000000000000000
     0.0000000000000000   20.6400000000000006    0.0000000000000000
     0.0000000000000000    0.0000000000000000   20.6400000000000006
 Li 
 432
Cartesian
  0.0072092500000000  0.1486155500000000  0.3317357000000000
 18.9069402300000000  1.7786661699999999  1.9770945200000001
 16.6612291699999986  3.3073351000000000  3.3532867999999998
 15.4302837900000007  5.4977087600000001  5.3195119899999996
 13.2760245900000005  6.8990160899999999  6.8527703999999998
 11.8937670999999998  8.7531905900000009  8.8046293500000008
 10.3794904199999998 10.3244507900000002 10.3623170899999995
  8.2975684699999999 11.9884199400000000 12.1743774600000005
  6.5454620800000001 13.8357036600000001 13.7528351299999994
  4.9216263299999996 15.6334810100000006 15.3433448400000003
  3.0814003300000001 17.2794734100000014 17.1765732200000016
  1.4579597900000001 19.2213965500000015 18.7713321499999992
  2.0148305400000002 18.8395249000000007  1.9526692400000001
 -0.4322198500000000  0.0508823700000000  3.4235013400000001
 18.8688150899999982  1.3598006499999999  4.8550043499999997
 17.0276641499999997  3.0080728400000001  6.8781369600000000
 15.4808225000000004  5.0327614399999998  8.5262376199999999
 13.7087410799999994  6.8810773500000000 10.2103038399999999
 12.1860296500000000  8.7979149600000000 12.0245884099999998
 10.5721216499999997 10.1151304999999994 13.8542728299999993
  8.3214738900000000 12.0590854200000006 15.3690530600000006
  6.4079372599999997 14.0145986199999992 17.1903806999999986
  4.7798970199999999 15.4955654400000000 18.7785816300000015
  3.4571795800000000 17.4552817800000000 -0.0146657800000000
  3.6682738700000002 16.6924795400000008  3.7524076900000001
  1.7639213000000000 19.0622782700000002  4.8546110000000002
  0.1245410800000000 -0.1669045200000000  6.6108875500000002
 18.8746586399999998  1.4969645000000000  8.5435896499999995
 16.9594578799999987  3.2038333200000002 10.3414525000000008
 15.5113393800000008  5.1902210400000000 12.1428076800000007
 14.1062617400000008  7.0970962899999996 13.6725487700000006
 12.1608216799999997  8.5014001500000003 15.2316261700000002
 10.1699006700000005 10.4478826399999996 16.9102141000000010
  8.4922892799999996 12.3989410499999995 18.8399328600000011
  6.8916147700000003 13.9358138000000000 20.5683479600000005
  5.1320826799999999 15.6388271499999991  1.2864850999999999
  5.2972660100000004 15.3013886899999996  5.4627658300000004
  3.6252041500000001 17.3205463199999983  7.0257387600000003
  1.6877401900000000 18.8009571300000005  8.3779157000000009
 -0.1254124200000000 -0.1130478800000000 10.2571175700000001
 18.7293349499999984  1.6887130500000000 11.9541577900000000
 17.1269871000000009  3.5791281399999999 13.8502154399999995
 15.6332006099999994  5.3588238900000000 15.3556527099999993
 13.8081277700000005  6.7036778999999997 17.2956601700000014
 11.8930708299999992  8.5339851099999997 18.3949061799999996
 10.4481952499999995 10.1680069700000004 -0.0761926000000000
  8.5407472900000005 12.1784849699999995  1.6788979700000000
  6.9972398699999996 13.8163398300000004  3.7612824200000001
  6.7647069300000000 13.7232524100000006  7.0093348799999999
  4.8731284199999996 15.7030775200000008  8.4864729299999997
  3.6938112699999999 17.3547464900000001 10.3166221999999994
  1.7362744600000000 19.0976205499999985 11.9184429000000005
 -0.0942502400000000  0.0120256400000000 13.5145265800000001
 19.1273188699999999  1.7835722899999999 15.2177962000000004
 17.1020377900000007  3.1593057899999999 16.9987304299999984
 15.6639450900000003  5.1051031099999999 18.8996544799999988
 13.6642140800000007  7.1567909399999996 -0.3166743900000000
 11.9615929300000001  8.7528617900000008  1.8244109100000001
 10.3071483300000004 10.5249478199999995  3.1589943599999999
  8.6295293300000004 12.0710217800000006  5.1818522800000002
  8.7580749900000008 12.3541585900000008  8.7559983199999998
  6.7067692499999998 13.6444710499999999 10.2419987300000006
  5.1525547600000001 15.5668494899999992 12.1105711700000001
  3.4785404099999999 17.7495158500000016 13.8318095599999999
  1.5866180999999999 19.1881127999999990 15.2892592599999997
  0.1930526500000000  0.2736538400000000 16.9149654399999996
 18.9348404899999991  1.6010306000000001 18.8325444900000001
 16.6222201699999985  3.0790200200000002 20.8441104400000015
 15.3625065700000007  5.4865553699999996  1.8815426200000001
 13.6424260400000001  7.1677281700000002  3.7140963199999999
 11.7552753499999998  9.0375561100000006  5.1756936400000004
 10.3034164500000003 10.6216480799999999  6.8261157900000002
  1.6375588000000001  1.9933327100000000 19.3047883999999996
 -0.4223315700000000  3.6375343299999998  0.1234640400000000
 18.3064947499999988  4.9379675199999999  2.0509887700000000
 16.9500874699999997  6.9847626500000004  3.4074748600000002
 15.8861342400000005  8.6191507999999999  5.4332318199999996
 13.7123605299999998 10.4240309000000000  6.6736331599999996
 11.9482254399999999 12.2674392700000006  8.4192011400000002
 10.5435850799999997 13.3411465000000007 10.8574865900000006
  8.4097238900000004 15.3325580000000006 11.9050718799999995
  7.0121857199999997 17.0552689000000015 14.0232597299999995
  5.2935331000000003 19.1420052299999988 15.4534036900000000
  3.3392873199999999  0.0319120400000000 17.1126399099999986
  3.0336677299999999 -0.0543938000000000  0.0430820300000000
  1.4205215200000001  1.5928992600000000  1.8774000000000000
 -0.1566407300000000  3.6705193299999999  3.3975848200000001
 18.5363117600000002  4.9139111299999998  5.1255848200000003
 17.3055369900000002  6.8810171000000002  7.2280581799999997
 15.1560091999999997  8.5917504299999994  8.4676195500000002
 13.7240325500000004 10.5074264100000008  9.9930738699999999
 12.2520715199999994 11.8964573599999994 12.1792237100000005
 10.4606997499999999 13.7751444700000008 13.4991377400000001
  8.5240783499999999 15.0494725900000006 15.5612410200000006
  6.5634238199999997 17.2458679299999993 17.2558028499999985
  4.8572263600000003 18.9104378799999999 18.9715197599999996
  5.1757341900000000 19.0247150299999994  1.9043359300000000
  3.4285496800000002  0.3437402300000000  3.2950180300000000
  1.9154396600000001  1.9089135399999999  5.0516075200000001
 -0.3530326100000000  3.3392850200000002  6.7676976199999999
 18.9129677200000010  4.9499324400000004  8.8860304800000005
 17.1205434700000012  7.1043289999999999 10.2518309100000007
 15.4745677300000004  8.4653624599999997 12.1364667799999992
 14.0355528100000004 10.4331342300000003 13.8856787700000002
 11.8874245799999994 12.0539196200000003 15.5264097099999994
 10.2893788500000003 13.7860355699999992 17.2165735600000005
  8.6920282800000006 15.5957252400000002 18.8561726400000005
  6.9691722800000004 17.2591008399999986 20.5087788700000004
  6.8385007299999998 16.9727334100000000  3.4625832999999999
  5.0631103399999997 18.9320092699999982  4.9396200900000000
  3.4297292399999999 -0.1476058800000000  6.8720950199999997
  1.4458416999999999  1.5056754999999999  8.6622429000000007
 -0.3816054800000000  3.2366112299999998 10.3919928699999993
 18.7678134700000001  5.2859780499999998 12.0519034000000005
 17.4868928500000003  7.0319551200000001 13.6147197000000002
 15.4579204699999995  8.5922654099999995 15.3974400700000000
 13.8433058599999992 10.2951472200000005 17.2396607400000015
 11.9702874399999999 12.1227494300000007 18.8238586300000001
 10.3108203599999992 14.1180953500000008 20.5609709699999996
  8.7042836999999995 15.4882896700000003  2.0035719900000002
  8.6297779499999994 15.5289057899999996  5.4276116800000000
  6.5376054799999999 17.2144251200000014  6.8954853600000003
  5.2558263900000002 19.3142114700000000  8.6139718999999992
  3.2513042900000002 -0.1323588900000000 10.5164715900000001
  1.3771677600000001  2.1989091500000000 12.1302943899999995
 -0.2763035200000000  3.5815952900000001 13.7858176399999994
 18.9959767600000013  5.3015315599999999 15.6108834600000002
 16.9812369200000006  7.1165936099999998 17.2237526000000010
 15.4099207499999995  8.7711415699999993 18.8235516599999997
 13.8531679499999996 10.4035695300000004 20.4311823600000011
 12.1430039399999998 12.5917356500000004  1.6002718600000001
 10.4823754900000008 13.9748029799999998  3.6184479700000001
 10.4300732899999993 14.1317765600000005  6.6689857300000002
  8.5961453799999994 15.5818844199999997  8.9611182100000004
  6.6961683000000001 17.6372424199999998 10.4113936900000006
  5.2109271200000000 18.8938018599999999 12.4173605699999996
  3.4338982800000002  0.3458710400000000 13.7335097299999997
  1.9956148600000001  2.0976715300000000 15.4139824700000005
  0.0798834500000000  3.5548624700000002 17.3979114400000014
 18.2533602700000017  4.8231501300000001 19.1179643800000001
 16.9792066900000016  7.0810456899999998 20.7081139699999994
 15.3965614899999998  8.5987144400000002  1.5818302200000001
 13.5165544499999992 10.2763426399999993  3.3510706200000002
 12.2555945200000007 12.0879002300000007  4.8596863199999998
  3.3727786399999999  3.5543744400000001 17.2814299200000008
  1.9013652599999999  5.1087587200000000 19.1232116699999999
 -0.3902595900000000  6.8010954000000003  0.3748055800000000
 19.0446534300000003  8.6376190899999994  1.8804578900000000
 17.3772089399999992 10.2052188600000004  3.4148146300000000
 15.5011816600000003 11.8344867199999992  4.9156562800000003
 13.8394764000000006 13.6615945799999992  6.6429237900000002
 11.9083802799999994 15.7018840399999995  8.8161000000000005
 10.2015443599999998 17.1891538699999984 10.5641990900000007
  8.6656720299999996 19.0135263799999983 12.1784044999999992
  7.1422266499999996 20.7894548899999982 13.7142071800000007
  5.4049108199999996  1.7860546300000000 15.3181695700000002
  4.8932544800000004  1.7291583600000000 18.6581591200000005
  3.4761476999999998  3.2143117299999999  0.2197561600000000
  1.4493872299999999  5.2855441900000004  1.8929232100000000
 -0.3676317600000000  6.6737424599999997  3.4769476799999999
 18.6295629699999985  8.6441414499999993  5.3765961600000001
 17.1965554199999993 10.4433401299999993  7.0372378199999996
 15.3776975199999999 12.0978417100000009  8.4791725000000007
 13.9665210799999997 13.5788797999999993 10.3130063599999993
 12.0027301400000006 15.5014031600000006 11.8734619499999994
  9.9491490200000001 17.0911710100000001 13.8623282099999994
  8.4178858400000003 18.8169829399999990 15.7436700599999995
  6.9403842999999998 20.5188696499999992 17.3888897699999987
  6.7588078700000001 -0.0250157400000000 -0.5616269900000000
  5.1360546899999999  1.7086541799999999  1.6472316199999999
  3.1073023399999999  3.2672816600000001  3.2284937100000000
  1.8259914500000001  5.3340069899999998  5.1605611500000004
 -0.1684956100000000  6.7706605000000000  6.8765743300000004
 18.6492337100000007  8.9428655500000005  8.7355024300000004
 17.0187462499999995 10.3473310900000008 10.5462973099999999
 15.6345934199999999 11.8547017399999994 12.1385297699999999
 13.8778737900000007 13.6152009100000004 13.8032942900000002
 12.1034568799999995 15.5254258099999998 15.3481500600000000
 10.4900880300000008 17.0229274299999993 17.0885649899999983
  8.9322710300000008 18.7607888799999998 18.9391869799999988
  8.3727371399999999 19.0338124700000009  1.9475641400000001
  6.6590729499999997  0.1450402700000000  3.1947186599999999
  5.3709211400000001  1.5565884600000000  5.3665533900000000
  3.3494638200000000  3.5859417499999999  7.1029367299999997
  1.6139656800000000  5.2402515500000000  8.5307531900000004
 -0.3412713400000000  7.0240290800000000 10.1743666499999996
 19.0917765099999990  8.7877755499999992 11.7447119200000003
 17.1325937699999997  9.9986381200000007 13.8375527700000003
 15.8271833399999995 12.0642535100000003 15.5674855000000001
 13.8678271300000002 13.7677379299999991 17.2547185600000006
 12.0362742300000001 15.4221017699999994 19.1078977399999985
 10.2348053300000004 17.3974813499999996 20.7074999899999987
 10.3549260800000003 17.0927503999999999  3.5454818100000001
  8.2989309400000000 19.1170744100000007  5.2616849800000001
  6.9165950299999999  0.0712091300000000  6.9870823399999997
  4.9128516800000002  1.6820500899999999  9.0067728500000008
  3.1963057500000001  3.4280042700000002 10.4191000700000007
  1.4800546600000000  5.2924774599999997 11.9062810500000005
  0.0665526400000000  7.0236990800000001 13.8576585100000003
 19.3688385200000006  8.5212293700000004 15.8301940299999995
 17.5335038499999989 10.3474832499999998 17.0328791799999983
 15.8730638000000006 12.0263730500000001 19.0958893399999994
 13.9866011799999992 13.5871245300000005 20.4930858899999997
 12.4883985499999994 15.7422371400000003  1.6749405700000000
 12.4527637299999991 15.9275162800000007  5.2052561500000003
 10.2906549900000002 17.4180519899999986  6.9968216800000000
  8.2678913699999992 19.0528084799999995  8.5117643100000002
  6.8406499199999997 -0.1553642000000000 10.6303006999999994
  5.0649774699999996  1.7974386499999999 11.8640676799999998
  3.7308592900000002  3.6823111000000002 13.5569303199999993
  1.9030307600000000  5.2205944600000000 15.6135908499999996
  0.0117701400000000  6.5674073899999996 17.7241301000000000
 18.7429751899999992  8.7319347300000008 18.9618363899999984
 17.2928331899999996 10.1738613400000002 20.6739693500000001
 15.5648123999999992 12.0001464500000008  1.5007451300000001
 13.8627427599999997 13.6895917499999999  3.1960386999999999
  5.4029859299999998  5.0681675200000003 15.4306365900000007
  3.4954711100000000  7.0091659399999999 17.3595742400000006
  1.6117943900000000  8.8002372500000003 18.8657376700000015
 -0.2927805100000000 10.3447836100000004 -0.0600819800000000
 19.2450922300000009 12.1133167099999994  1.9706447300000001
 17.3443746200000000 13.9363028500000006  3.1953577700000002
 15.1586141399999992 15.4984526000000002  5.0612547200000000
 13.9646778999999999 17.4993564100000007  6.9864797999999997
 11.8746799500000009 18.7928051799999984  8.8071068500000003
 10.5940861700000006 -0.2799095900000000 10.2838080800000000
  9.1679192000000000  1.6436830899999999 12.0443914500000009
  6.9725818899999998  3.2701557999999999 13.8075443700000005
  6.7498652699999999  3.4974417799999999 17.4114115900000002
  4.9011379499999999  5.1617233899999997 18.8496668800000009
  3.1827449300000001  6.7478648600000000 -0.1389874300000000
  1.5494805500000000  8.5729787599999998  1.7120534599999999
  0.1925243900000000  9.9560706200000002  3.6530519600000000
 19.0265082600000000 12.0096825099999993  4.8063298400000001
 17.0068673399999994 13.4247341599999999  6.4921475900000001
 15.3382247599999992 15.2563896499999991  8.6741992200000002
 13.8940024900000001 17.3163374400000016 10.2621793100000005
 12.0603516800000001 18.4883120900000009 12.1495058599999997
 10.8007553400000003 20.3838976400000007 13.8740380099999996
  8.7323652799999998  1.5674615300000001 15.6491117699999993
  8.5625184799999996  1.9752765800000001 18.5266019100000001
  7.0512826300000002  3.5334425299999999 -0.0379219900000000
  5.2667317000000002  5.2011665000000002  1.7021036300000001
  3.4118774400000000  6.9668967999999998  3.2405931899999998
  1.7707636499999999  8.4607057599999997  5.0695664999999996
 -0.1404637300000000 10.2596620900000008  7.1155936500000001
 18.7726626199999984 11.7992253300000005  8.6869285900000008
 17.3282818300000017 13.5717459700000003 10.3795405600000006
 15.3592388700000004 15.2335323500000008 12.2315458800000005
 13.9179660199999997 17.1021317599999989 13.9069366300000006
 12.1509831500000001 18.7367173099999995 15.8808045500000006
 10.5115106500000000  0.2181712200000000 17.2966784300000000
 10.4959632700000007  0.2374767600000000 -0.2462222700000000
  8.8206119300000001  1.3763991099999999  1.5673810500000001
  6.9621165300000003  3.3269283800000000  3.4203993700000002
  5.0036429199999999  5.0075259799999996  5.0669793399999996
  3.4967322300000001  6.9993412099999999  6.8157976900000001
  1.7563044200000000  8.3311646300000000  8.5372137299999995
  0.1740148900000000 10.1913851599999994 10.2416222399999999
 19.0145185099999985 11.7507565700000001 12.3391420099999998
 17.5394505900000013 13.6430037399999993 13.4964939099999999
 15.7670276600000001 15.1990009300000004 15.7648333100000002
 14.0219057500000002 16.6169918500000016 17.3346021899999982
 12.2855955399999992 18.8067832999999993 18.8231568100000004
 12.0169083699999995 18.9449167799999998  1.4747612600000000
 10.2931070099999999  0.1520605500000000  3.6046123799999998
  8.4947892599999992  1.6657589600000000  5.3381722600000003
  6.7875581100000000  3.4462060200000000  7.1441451699999998
  4.7477796400000001  5.2340887699999996  8.9098763800000000
  3.5151578300000001  7.1151746400000002 10.4547006400000004
  1.9777367699999999  8.4106217099999991 11.9897789100000001
  0.1129198200000000 10.3212789699999998 13.5868708599999994
 19.0314234599999992 12.2190420700000004 15.3640769200000005
 17.6370452499999999 14.1000508100000008 17.4431743399999988
 15.7274543500000004 15.1424573500000008 19.0353801699999998
 14.0556618800000006 17.0571160999999982  0.0364306200000000
 14.0742696299999999 17.7087610200000007  3.1386520400000002
 12.1105945500000001 18.8755926000000009  5.2818117899999999
 10.3717144300000008 -0.1528914600000000  6.8217252600000000
  8.6251308800000004  1.5906009299999999  8.7938621399999999
  6.9320054999999998  3.4459885300000002 10.2817580399999997
  5.1370708199999999  5.2141169900000000 12.1204545400000008
  3.4006711699999999  6.9175241400000003 13.8735463400000008
  1.3026561999999999  8.4135049199999994 15.6425023200000002
 -0.0576590100000000 10.4683116999999992 17.4175855099999985
 18.7826758699999985 12.2899006499999999 18.8546777500000005
 17.4151115700000005 13.7922083200000003 -0.1151077900000000
 15.8392012199999996 15.3236730199999993  1.7653812300000000
  6.7438257999999998  6.8139777700000002 13.4227079499999995
  5.2893400100000001  8.3379921499999998 15.3035357500000000
  3.3080417199999999 10.0120751699999992 17.2879618700000002
  1.7332674200000000 12.1078635299999995 19.1587799200000006
  0.0293773900000000 13.9822603200000000  0.0879704300000000
 19.1860930600000010 16.0354328099999996  1.4723660400000000
 17.0264382099999985 17.2552143700000009  3.3288333600000000
 15.3017609700000001 18.9525217899999987  5.1978492200000002
 13.6677700699999995 -0.4018552100000000  7.3670401300000004
 11.8378407699999997  1.8121112399999999  8.5681632299999997
 10.6776547300000004  3.3314158699999998 10.6405495400000003
  8.6934777200000006  5.2331004500000002 12.3496291500000002
  8.5591620400000004  5.1960583099999997 15.4617672899999992
  6.5891148099999999  6.8634865600000001 17.4385091299999999
  5.0094821800000000  8.7416686099999996 19.2058079100000008
  3.2336923600000000 10.1215933299999996  0.1522838600000000
  1.8856931600000000 11.9623090600000008  1.9768677200000000
 -0.1486218500000000 14.0327643099999992  3.1618250500000000
 18.8678807699999993 15.1335278199999994  4.9652189299999998
 17.2395365399999996 17.0912274000000011  6.7096986500000000
 15.8821703999999997 18.8072880600000012  8.9685937100000004
 13.0886093700000004 -0.1777789700000000 10.3212600999999999
 12.0648391299999993  1.5653370900000001 12.4359782600000006
 10.5678847299999994  3.5390115400000002 14.1535960900000006
 10.7947762699999998  3.3661901900000002 16.8014183899999985
  8.8571340500000009  4.8489280800000003 18.5106335599999987
  7.1069279200000004  6.8414662000000002 -0.4791042300000000
  5.2278747499999998  8.2702467500000001  1.3436149600000000
  3.5599747000000002 10.1174430300000004  3.1875547599999998
  1.7224612200000000 12.2510561399999993  4.9715817400000004
 -0.3531452000000000 13.7466372900000007  6.6791255400000002
 18.7941267100000005 15.0726696499999999  8.2191909299999999
 17.3381112199999983 16.9610981900000013 10.2791054400000004
 15.6197023200000000 19.0403674400000007 11.8010241499999999
 14.1265450700000006 -0.5802314000000000 13.6707868599999998
 12.3978652000000000  1.6011936700000000 15.6320755400000007
 12.5585731000000003  1.8019926200000000 19.1588588900000012
 10.6595993100000008  3.4654276199999998  0.0806855200000000
  8.8059381099999996  5.0952323699999997  1.7025119099999999
  6.9382418899999996  6.6726660999999998  3.1750814599999999
  5.5026894200000003  8.4755877000000002  4.8637256600000001
  3.3780205200000002 10.0450507000000009  6.7057949700000004
  1.7487950900000000 12.1200712700000004  8.3785127100000008
  0.0884823200000000 13.7186858600000008 10.4405524300000003
 18.9836019900000004 15.6381092200000005 11.9926395899999996
 17.4145615999999990 17.1537395799999999 13.6413686100000007
 15.4833096599999998 18.9887307700000001 15.8569269100000003
 14.0815758899999999 -0.0728917200000000 17.3147785200000008
 13.9900233499999995 -0.4412690500000000  0.0125629600000000
 12.2461487299999998  1.6296727200000001  2.0672002400000000
 10.2379710100000008  3.2834941099999999  3.3626258400000002
  8.6333760999999996  4.9673372300000000  5.0947970299999996
  6.8097778299999998  6.6758666399999997  7.0218302200000000
  5.5157209800000002  8.6753001699999999  8.3820234500000002
  3.4530061399999998 10.2274047100000001 10.1237428200000004
  1.9857678599999999 12.1096752500000004 12.1819954799999994
  0.0769979100000000 13.9439937999999994 13.5324866799999999
 18.9691668200000016 15.5657741600000001 15.1174389100000006
 17.1896693300000010 17.2834861699999998 17.1525516700000011
 15.8129145500000003 18.8985056500000006 18.7139368399999988
 15.8457712700000002 18.6909364199999999  1.6285528300000001
 13.9620923700000006 -0.3712239900000000  3.2138859900000001
 12.3554883400000008  1.4602660500000000  5.4290911399999997
 10.1578075600000002  3.3091712400000000  6.9474106600000001
  8.6615160299999996  5.1814779499999997  8.6586546299999991
  7.1613030999999996  6.9781375900000002 10.5741352000000006
  5.5290846499999997  8.5296454500000003 12.2330248600000004
  3.2260293799999999 10.0813870500000000 13.8670737299999995
  1.5256515799999999 11.8688312099999997 15.4820939499999994
  0.1258661300000000 13.7822281100000001 17.1839520000000014
 19.1970544499999995 15.9426152600000002 19.0972282500000006
 17.4320374899999990 17.1573752199999987 -0.1343303200000000
  8.6663602300000004  8.7828896400000005 12.2936297700000008
  6.9640899799999998 10.3532322800000003 13.6167298300000006
  5.1821041399999999 11.6908156099999996 15.4344630699999996
  3.2699780299999999 13.4896893799999997 17.0665290100000000
  1.6292278800000000 15.6752833299999992 18.7036192499999991
  0.3427454600000000 17.7662391299999989 -0.0406780900000000
 18.8388440499999987 19.0919526300000015  1.6152395799999999
 17.0853423000000006 20.5926347099999987  3.4099316900000001
 15.2967412399999994  1.4167928999999999  5.4468932600000004
 13.9391459599999994  3.1393928299999998  6.9995554799999997
 11.9098995300000006  4.9970241000000000  8.6419317800000002
 10.1907960200000005  6.8685193099999999 10.4892426899999993
 10.2289112400000004  6.9807656600000003 13.8164210900000004
  8.1666795899999993  8.6664561500000001 15.4918136999999998
  6.4816808799999999 10.2189919299999996 17.2081377999999994
  4.8528231699999997 12.1680097200000006 19.1723030799999989
  3.0046880800000002 13.9772587099999992  0.1931007100000000
  1.9101591200000001 15.8800633100000006  1.8665874600000001
 -0.0165149800000000 17.1649410899999992  3.6322084200000000
 18.6633071500000014 18.7028090999999996  4.9339477100000000
 17.2807388800000012 20.4162449399999986  6.9434634500000003
 15.6893966999999996  1.4343539000000001  8.4938196500000007
 13.8854080599999996  3.0328618100000000 10.2237468099999997
 12.1173205799999995  5.1662605700000004 11.9448404000000004
 12.2595736399999993  5.4899782600000000 15.4422498699999995
 10.3107300100000003  6.7899884000000004 17.1144678200000016
  8.3508360600000007  8.7955635300000008 18.8198958300000001
  6.9093711600000001 10.3493975200000001 -0.0808033000000000
  5.1274827199999997 12.0462009900000009  1.6232070100000000
  3.7573983200000001 13.6684429699999992  3.3858111399999999
  1.6432326700000000 15.6925261299999992  5.2941252800000003
 -0.2838925700000000 17.2528618099999989  6.8324106699999998
 18.9373294899999998 18.7488357900000011  8.4756232199999992
 17.3385238299999997  0.0607047900000000 10.1976244200000004
 15.4941296600000005  1.6183285400000000 12.0918622399999993
 13.9282678999999998  3.4581632400000002 13.6309845400000000
 13.9773990300000008  3.4265436700000000 17.0568452099999988
 11.8964122499999991  5.1211339699999998 18.7674093400000004
 10.3049689099999995  6.7626076700000004 -0.3237736800000000
  8.7482233399999991  8.3812346000000009  1.4330799400000001
  6.8609694000000001 10.5023258300000002  3.1202552300000002
  5.1320654499999998 11.8795612199999994  5.1591462000000003
  3.4203806900000000 13.7937498400000003  6.8400220400000000
  1.6485748899999999 15.3866852200000004  8.5112843999999992
 -0.0287660300000000 16.7579005899999984 10.1836331300000005
 19.1951766900000003 18.6877987200000000 11.8206670799999998
 17.2750669300000013 20.3905148300000008 13.6717299400000005
 15.3902654499999993  1.5640172200000000 15.3663892700000009
 15.4256191099999995  1.5893432999999999 19.1624295599999996
 13.9013906499999997  3.5781304299999999  0.1440189300000000
 12.0763507099999998  5.4607487299999997  1.8641353400000000
 10.0545708800000000  6.9413246500000003  3.5198182199999999
  8.4602842500000008  8.7541583999999997  5.0015136499999997
  7.3182105599999998 10.5380515700000004  6.5794936599999998
  5.0477129700000001 11.8070932200000005  8.2966083899999994
  3.4668741900000000 13.5080319400000004 10.3348501800000001
  1.7821152200000001 15.4144059799999997 11.8192969199999993
  0.1061484200000000 17.4418383100000014 13.5088010300000008
 19.0063711799999986 18.9676628500000000 15.7013817200000005
 17.3778268900000015 21.0047015200000011 17.1789046300000017
 17.0233947000000008  0.1350177200000000  0.0794123800000000
 15.2355176300000004  1.3802206800000001  1.7465692399999999
 14.0153252899999998  3.4938185900000001  3.5618685900000000
 12.0978671299999991  5.3263728600000002  5.0398365199999997
 10.2831844799999992  6.9981295299999999  6.8880629700000000
  8.5267300600000002  8.5362034199999997  8.6674837500000006
  6.9632613000000001 10.4291099999999997 10.0996957500000004
  5.1368901999999999 11.8558793399999995 12.2121137900000001
  3.3866853899999998 13.7213136200000001 13.8338521199999995
  1.3928488800000001 15.6518170300000001 15.0622524599999998
 -0.2047359700000000 17.1317600699999986 17.0535626799999989
 18.8455270299999995 19.1834914599999991 18.9746236000000010
