Li                                      
   1.00000000000000     
    20.2271999999999998    0.0000000000000000    0.0000000000000000
     0.0000000000000000   20.2271999999999998    0.0000000000000000
     0.0000000000000000    0.0000000000000000   20.2271999999999998
   Li
   432
Direct
  0.9919253875969005  0.0138428591203947  0.0037525544810961
  0.9260244131664308  0.0656258488569819  0.0821454660061676
  0.8595567414174994  0.1442408405513333  0.1792904875613033
  0.7558076748141147  0.2394888630161347  0.2417414530928639
  0.6688043446448333  0.3013388585666803  0.3147847003045428
  0.5981125227416584  0.3980989647603224  0.4050120283578522
  0.4981608630952366  0.4844344541014109  0.4772816474845740
  0.4001247058416411  0.5824356999485829  0.5884203191741832
  0.3361031319213765  0.6583661337209321  0.6551284537652293
  0.2431238742880879  0.7379332967489347  0.7293989879963618
  0.1479858714997633  0.8170595435848753  0.8247553699968364
  0.0692736216579632  0.9046957225913630  0.9250571848797691
  0.0815023577163458  0.9485735371183353  0.0696835632218011
  0.0117036292714729  0.0147912157886410  0.1792820429916162
  0.9159942686086069  0.0802133246321759  0.2489370590096485
  0.8431978968913114  0.1814983581514014  0.3417380171254578
  0.7494788715195355  0.2748539041488698  0.4181862991417518
  0.6748088558970124  0.3500506041370031  0.5015264010836873
  0.5914340071784494  0.4194823752175267  0.5984567943165615
  0.4920945889693087  0.5104495253915502  0.6741625360900159
  0.4185956494225564  0.5900598861928472  0.7349447189922458
  0.3333467667299459  0.6601158222591366  0.8391854334757127
  0.2360502956415118  0.7643341500553689  0.9081736068264519
  0.1724184726506905  0.8450995560433441  0.9978503327202972
  0.1461170686006952  0.8630407431577254  0.1395909186639770
  0.0913622038641009  0.9147235603543749  0.2685706232202207
  0.9955184721563057  0.0215295755220666  0.3353604562173729
  0.9136158736750488  0.1120001315060932  0.4343149313795251
  0.8429287503955081  0.1819297569609262  0.4995950882969495
  0.7351274659863947  0.2752456345910446  0.5886236236354989
  0.6471026924141725  0.3214445706771087  0.6687708353108661
  0.5685298400174048  0.4181799804224013  0.7462591505497542
  0.4928690362482229  0.5119838316722038  0.8507127931695919
  0.4018689877986077  0.6018827158479638  0.9383910249564948
  0.3212156383483631  0.6846495426949843  0.0078358265108349
  0.2576795033420325  0.7611600701036210  0.0853571626324978
  0.2359392738490769  0.7570188572812810  0.2512461408400597
  0.1544415341718093  0.8175965867742434  0.3296021283222572
  0.0743189546748937  0.9179725631822464  0.4091237091639002
  0.0059405488648920  0.0036844768430626  0.4937233354097472
  0.9220359842192707  0.1002597675407344  0.5882595796748902
  0.8250415114301504  0.1648571586774210  0.6703133711042568
  0.7531647875138461  0.2508028778080984  0.7541117673232094
  0.6497775104809378  0.3194973866872317  0.8242562287414970
  0.6074335760757776  0.4113743088514497  0.9023423943996178
  0.4975401518747020  0.4698007015306089  0.0077235400846405
  0.4129391087248848  0.5828201031284621  0.0894881352831831
  0.3253399224806230  0.6543861167141287  0.1645828537810488
  0.3277236468715401  0.6652678091876254  0.3108594061461787
  0.2381045236117671  0.7643737605798151  0.4263656863035905
  0.1468145724568899  0.8360537652270210  0.5019340511786083
  0.0817665672955243  0.8974002857538395  0.5957455376918190
  0.9980254459341893  0.0082188345396332  0.6765755828784989
  0.9045324152626151  0.0886119596385058  0.7374207571982296
  0.8493969669553891  0.1596597096978343  0.8353255383839553
  0.7352114993671890  0.2511900945261800  0.9153126206296491
  0.6976124406739430  0.3395548385342479  0.0004949320716676
  0.5942818249683626  0.4014493187391253  0.0733019681419051
  0.4912700675328239  0.4619042650490428  0.1531842687074843
  0.4294716169316573  0.5600914521040963  0.2235662410022172
  0.4337596587763031  0.5842365067829434  0.3978662103504220
  0.3293535491812989  0.6645387878698017  0.4876808480659705
  0.2733719654722364  0.7462760733072287  0.5786916399699393
  0.1532954625454863  0.8403086917615852  0.6748709984575214
  0.0835464345040364  0.9130271115132089  0.7631615488055701
  0.9998379607657029  0.0333353588237628  0.8406947219585490
  0.9018099633167225  0.0924342227297927  0.9331701471286209
  0.8320037706652457  0.1805958980976143  0.0155225720811600
  0.7508274343458297  0.2407519241417475  0.1271012750158178
  0.6700242099746845  0.3389248857973399  0.2123578354888451
  0.6003291246440412  0.4125053947160282  0.2505996742010765
  0.5177876028318309  0.5157229636331309  0.3290878332146789
  0.0905292111612113  0.0915339656502141  0.9213922352080388
  0.9878202865448529  0.1695294415440571  0.0088419375889899
  0.9052806977732928  0.2553886899818067  0.1173481346899194
  0.8454355096108230  0.3479770259848110  0.1983628673271625
  0.7415480506446741  0.4379548375454831  0.2630476872725822
  0.6925261983863322  0.5213580732874519  0.3363905399659899
  0.5705047376799541  0.6089265004548352  0.4121098061026771
  0.4879972902823937  0.6637109585113095  0.4929643262537553
  0.4182317745412121  0.7209773275589271  0.5770978375652618
  0.3421184504034187  0.8288251112363554  0.6723378663383954
  0.2461969135619384  0.9284665865764907  0.7439233927582691
  0.1774350473619677  0.0052530488648941  0.8618432170542647
  0.1869272356035410  0.9972970332028126  0.9793913018114253
  0.0907848288443276  0.0827821853741497  0.1036938775510237
  0.9961396762774868  0.1779319253282736  0.1593403441899994
  0.9393477075423178  0.2718873754152824  0.2565862823326981
  0.8371811629884505  0.3515175021752910  0.3269447723857013
  0.7611088687509877  0.4133401162790733  0.4014217543703538
  0.6762432308970077  0.5194942691029922  0.4954044983981944
  0.5637736528041444  0.5702986775233327  0.5690285130912827
  0.4849654143924980  0.6553529040104422  0.6694490305133698
  0.4120884951945882  0.7284261365883538  0.7420431918406933
  0.3346874658875194  0.8280067854176565  0.8541658499446285
  0.2718219491575695  0.9093174507593744  0.8899645403219409
  0.2656484654326832  0.9462970040341716  0.0827374288087341
  0.1805610875454846  0.0111903525945252  0.1957228528911585
  0.0876256535753868  0.1034021401874696  0.2546052182210090
  0.0134782130003188  0.1627797401518762  0.3190298612759079
  0.9098163062608791  0.2674818358448050  0.4330848941029899
  0.8493973950917564  0.3464446324750838  0.5153454353543765
  0.7460992866041778  0.4163253075067246  0.5852207957601649
  0.6691990013447224  0.5048254137992387  0.6506641853543726
  0.5775008908796053  0.5825145249960428  0.7314389836457806
  0.4849067236196802  0.6517182313913921  0.8238407125059339
  0.4103185280216763  0.7458590091559856  0.9409478163067533
  0.3015184044257211  0.8414937895507038  0.9866785511588390
  0.3452070108566687  0.8475861389613968  0.1723262784765041
  0.2599843013368144  0.9122498076847023  0.2453029262577147
  0.1702270531759211  0.0231767624782506  0.3213884160931784
  0.0955439433040652  0.0911359555450062  0.4208217711794049
  0.0182876033262147  0.1813739568501802  0.5080267708827719
  0.9334836897840546  0.2506847185967445  0.5929180099074500
  0.8545344728879911  0.3293461541884213  0.6694506372607165
  0.7513980432289173  0.3884766018035108  0.7317063360227820
  0.6684091342350911  0.4889180193007405  0.8035242426040199
  0.6015794776340755  0.5810963539194773  0.9232910294059451
  0.5184731406225254  0.6779578789946186  0.0018663972274950
  0.4220193773730401  0.7589869205821884  0.0906179579971536
  0.4226546536347087  0.7557135090373350  0.2268389876008570
  0.3373671447358007  0.8349858754548336  0.3259047352080344
  0.2522236310512582  0.8979407762814446  0.4165341169316576
  0.1480063434385386  0.9830811560670796  0.5032876285397876
  0.0750161500355944  0.0919230615211220  0.5718115137043185
  0.0116478375652562  0.1607332136924526  0.6722090190436631
  0.9130025228405287  0.2473440016413520  0.7373258765424779
  0.8279644864341051  0.3295456301415882  0.8180724588672703
  0.7394749757751953  0.4113644394676470  0.8959756402270216
  0.6764232439487401  0.4944269177147618  0.9805526706612895
  0.5809283321468115  0.5718213114024664  0.0822808045601988
  0.5121050956138262  0.6706430618177492  0.1525940886529042
  0.5003685265385229  0.6675233497468724  0.3029803062213290
  0.4340119764475574  0.7426581088830915  0.3927600399462108
  0.3522419746677770  0.8225348866872366  0.5161680019973076
  0.2282545557467159  0.9093480901953797  0.5999897657609523
  0.1546749471009363  0.0073685522464828  0.6772577786347114
  0.0782372987857940  0.0942083679401975  0.7719480012062974
  0.9980161767323210  0.1724081420068018  0.8294671501740254
  0.8953355550941282  0.2508869467845258  0.9201354908242365
  0.8338072995768044  0.3240804095475411  0.0171661579457378
  0.7461552557941786  0.4089317344961216  0.0948380907886417
  0.6617495782906175  0.4921905434266733  0.1693408242366701
  0.5878517026578081  0.5693895951985439  0.2384925778160110
  0.1676399007277354  0.1623169998813481  0.8487149951550421
  0.0757356440832169  0.2638894488609367  0.9179672510283154
  0.9976279628421167  0.3338314779109339  0.0065876542477454
  0.9341718749999970  0.3976741872330294  0.0864696611493443
  0.8667459242999556  0.4801343656067090  0.1756528654485052
  0.7481519933554850  0.5904883780256256  0.2191876947872160
  0.6555291330485673  0.6675750993711418  0.3367483803986744
  0.5775978504192381  0.7658737566247424  0.4193677043782600
  0.5023945622725847  0.8165275920542641  0.5018737887596885
  0.4182707028160095  0.9071380695301343  0.5799536732716319
  0.3275207947713952  0.9612191029900359  0.6654476655196930
  0.2351228128460718  0.0860605427345362  0.7500096162592911
  0.2743023058060459  0.1021385688577752  0.9410018391077344
  0.1585214834480269  0.1844950976902382  0.0076390093537384
  0.0800793659033374  0.2723890449493780  0.0863261850379686
  0.9898111300624919  0.3360714997626957  0.1804679466263224
  0.9451990883562758  0.4422081083887051  0.2686270912434736
  0.8450753880912814  0.5246622142461632  0.3392930163344374
  0.7555469852475909  0.6186714083016938  0.4143454897365899
  0.6645766289946238  0.6712392323208363  0.5153063271238736
  0.5665373264712841  0.7380364627827873  0.5889972497429170
  0.4932078265899378  0.8190594778318285  0.6593425585350445
  0.4455205371974387  0.8964524274244567  0.7797153140325932
  0.3170046907134960  0.9925911722828644  0.8320763229710479
  0.3425797712980554  0.0019875247191905  0.9809765582977406
  0.2442404905276092  0.0947252145625725  0.0789073633523145
  0.1739912716540104  0.1931626245847156  0.1859404252689458
  0.0722351981490306  0.2522526232004410  0.2631725799912985
  0.0044294885105174  0.3419402448188578  0.3336105021950644
  0.9052579353543777  0.4189704175565581  0.4110170295443751
  0.8262956652428386  0.4926925521080534  0.4800801574118054
  0.7611218868652116  0.5754378574394892  0.5795829274442355
  0.6591962703686107  0.6510530814942257  0.6546579724331565
  0.5716733314546758  0.7360719634947017  0.7516869902903025
  0.5101785966421488  0.7922964290658143  0.8444671882415733
  0.4200380715076761  0.9162455055568728  0.9152347176079729
  0.4234736557704508  0.9323365680865336  0.0852565861809822
  0.3247970910457241  0.0059237353662382  0.1767419212743206
  0.2547934212347727  0.0941740809405189  0.2599042680153474
  0.1625565431695932  0.1737588830881194  0.3463814091915864
  0.0658179397049494  0.2512278471563079  0.4277799700403406
  0.0044633449019145  0.3385144607261523  0.5167870852119947
  0.9073839369759540  0.4150386973975628  0.6185784740349618
  0.8276145042319243  0.4971175056359769  0.6643697590373350
  0.7458466480778370  0.5874068655078304  0.7462453394439166
  0.6657609817473471  0.6517389935334563  0.8124939220455616
  0.5664237249841761  0.7136767995570352  0.9213571512616667
  0.4890586541884190  0.8431831672203742  0.0235270185690553
  0.5477882079576020  0.8426581706810623  0.1673386034646427
  0.4341910936758424  0.9162031581237144  0.2319886168130054
  0.3415861508266076  0.9883111503322226  0.3217200769261197
  0.2632102698346799  0.0651514500276846  0.4138076411960157
  0.1721404460330618  0.1602077044771377  0.4951571211042562
  0.1095203181854103  0.2736633849469996  0.5824266774442322
  0.0135556498180662  0.3279194347215650  0.6815578206573321
  0.9183586561659567  0.4200323846108205  0.7522460370194608
  0.8269502427424484  0.4867199716223709  0.8353404811343168
  0.7508939680232558  0.5567016917813632  0.9097886598243932
  0.6950402097176109  0.6604419613194139  0.0091539990705556
  0.6058113421531388  0.7553131051257722  0.0722553081988622
  0.5883643583887022  0.7508071878460711  0.2543301020408180
  0.5068871410773639  0.8331531492248061  0.3111601037217184
  0.4230032184385379  0.9024191529227963  0.4165159072931530
  0.3212382124070530  0.9705293926000635  0.5039802815021375
  0.2407151187509911  0.0722691113945544  0.5871760505655743
  0.1679817058218660  0.1619979952736941  0.6573343221009367
  0.0973925605125743  0.2523657223936056  0.7746396461200789
  0.9806492950087033  0.3314418367346974  0.8574305064467680
  0.9167362828270811  0.4008757717331122  0.9166406324157563
  0.8169653199651918  0.4636610405790194  0.0172725977891162
  0.7571132643173542  0.5739599420582167  0.0898608462861858
  0.6694583714008857  0.6737806527843730  0.1471585414689116
  0.2457028684148099  0.2363744502452150  0.7451998996400917
  0.1820456894676497  0.3217630710132866  0.8357832334678079
  0.0757362645348820  0.4192538833847479  0.9073413107103292
  0.9971061006960937  0.4829092202578735  0.0048430904920096
  0.8963926129172606  0.5917357068699545  0.0676151854928051
  0.8424871351447578  0.6854077316682492  0.1479953256011726
  0.7528088692453707  0.7340080480738820  0.2703908642817581
  0.6563356055212779  0.8316050021752872  0.3490774491773436
  0.6085660808218663  0.9173521253559542  0.4202222606193615
  0.5056315174616373  0.9879976091599403  0.5103706929283334
  0.3970202464997641  0.0728032901241917  0.5982204472195889
  0.3198387755102061  0.1605884650371792  0.6527683831672206
  0.3285019182091418  0.1713556325146328  0.8255978108685369
  0.2572791706217359  0.2291945138229678  0.9217115255695276
  0.1638016369047648  0.3303990181537699  0.9799993335706390
  0.0598411090017379  0.4122104829140980  0.0899182808297709
  0.9978841515385213  0.5096588727060620  0.1661517822535998
  0.9147766631071050  0.6051386133523167  0.2554445024521428
  0.8301575324315777  0.6667457819174203  0.3390934385382067
  0.7492528239202656  0.7498209806597060  0.4294690051020424
  0.6535665925090939  0.8271884096661921  0.5192646654010460
  0.5707373853029551  0.9052997013921882  0.5993194955307715
  0.4798255492604042  0.9782412746203164  0.6739853776103431
  0.4255564749446279  0.0609121984258820  0.7541350152270212
  0.4123292002847663  0.1068137443640254  0.9026676855916804
  0.3487137448584079  0.1753392308376860  0.0222338583689279
  0.2439712975597246  0.2773887433752549  0.0831884348797658
  0.1615018084559381  0.3456610035002399  0.1744126952816032
  0.0808093354492954  0.4258965828191776  0.2447015563202015
  0.0141550382653080  0.5153570751265590  0.3395856332067737
  0.9248670102634051  0.5967115997271009  0.4282799616358162
  0.8443450052404700  0.6680233101961690  0.5089777987066952
  0.7512970959895569  0.7521760970376548  0.5962889782075607
  0.6684211709974690  0.8165420517916502  0.6687173588039883
  0.5788605071388986  0.9133060443363377  0.7410130858448056
  0.5146166192058246  0.9949895096701482  0.8345577450166104
  0.5286177711200750  0.9977917828468605  0.9767028323247899
  0.4070919820835286  0.0507570484298370  0.0669848718557162
  0.3439501646298027  0.1676251700680282  0.1463129770803704
  0.2576031704833071  0.2472727604413834  0.2661963366160407
  0.1693452405671536  0.3250698025431120  0.3297029712466397
  0.0480089671333630  0.4179287494067410  0.3964471177424471
  0.0084379498892559  0.4789778817631714  0.5025118414807750
  0.9186614909626627  0.5604015464325300  0.5716956420068016
  0.8462049823999394  0.6586530508424318  0.6683958694233496
  0.7684409750237293  0.7463234812529649  0.7450806567394395
  0.6703696794415421  0.8125384220257885  0.8269223728444857
  0.5990031348876741  0.8996471132929926  0.9084212115369397
  0.6247430272108829  0.9318733670503079  0.0660518608606253
  0.5380070647445052  0.9889644572654674  0.1768380037770925
  0.4287837777843677  0.0678068121143838  0.2357169099034948
  0.3422233858368955  0.1579987887596914  0.3216987319055562
  0.2615296917022647  0.2459077959381446  0.4251597017876918
  0.1746213123912383  0.3450752887201389  0.4702723975636758
  0.0898301079734196  0.4276097996756860  0.5934180815931001
  0.0095409325067237  0.4924659058100005  0.6577730887122257
  0.9165492183792097  0.5780869373912338  0.7523698025431074
  0.8451952301850980  0.6615118750988742  0.8406747038641029
  0.7422718463257425  0.7443019894004124  0.8985540099469986
  0.6772136079140978  0.8257956118493937  0.9936148478286668
  0.6744982483981943  0.8243311595277660  0.1729447293743078
  0.6156151533578580  0.9313648048172780  0.2702307580881183
  0.4911431898631520  0.9962650035595644  0.3322954032194261
  0.4118296368256580  0.0486712896495831  0.4007227065535517
  0.3453629128104723  0.1527986216579649  0.4741179050980833
  0.2536741709183659  0.2621041424418635  0.5601790277448160
  0.1708989296590744  0.3498193813281105  0.6653417348916335
  0.0795066613273221  0.3964466362126231  0.7663603049359295
  0.0135039076095538  0.4862364257039999  0.8342992257949717
  0.9011474203053282  0.5674908059444732  0.9319664812727382
  0.8188188019102967  0.6628050417259956  0.0030411861256141
  0.7447166478800824  0.7750730511390600  0.0961886326332859
  0.3407325635777596  0.3286489168050934  0.6704740295245983
  0.2577236097927553  0.4324945998457537  0.7502074681616833
  0.1751271886370844  0.5040208036703078  0.8356312406067090
  0.1010624293031199  0.5665968216065522  0.9185966584598972
  0.0145535378104711  0.6643934701787657  0.0020695494186072
  0.9067509185651019  0.7715656017639603  0.0781194391710187
  0.8329808589424132  0.8579919192967864  0.1775600710923939
  0.7445633063399768  0.9251254790579040  0.2659139218478117
  0.6744536989795904  0.9953829847927551  0.3668161124624234
  0.5926221310908062  0.0665762389258049  0.4139085805252307
  0.4695663601487112  0.1387209767046329  0.4973609629607623
  0.3891653975834544  0.2372035739004872  0.5608287227100135
  0.4126033529109350  0.2477188824948584  0.7360019681419061
  0.3199655261232408  0.3378916780374936  0.8288239756367659
  0.2476525272899863  0.4175581815575100  0.9209461507277297
  0.1462684172796997  0.4957584920305322  0.0003320691939592
  0.0800199567908564  0.5858784067987628  0.0794786885975327
  0.9912781675170095  0.6665533860346500  0.1385336665480139
  0.9034276622567603  0.7612073687905365  0.2494517614894818
  0.8425167264871050  0.8547730531165953  0.3368388649936733
  0.7760962140088594  0.9005353706889707  0.4327711853346017
  0.6799793317908538  0.0061237378381591  0.5136046837921242
  0.5651351625533962  0.0752014218478081  0.6014712990428706
  0.4605358927582657  0.1814817631703818  0.6622570350814740
  0.4785357968478081  0.1676250538878321  0.8225933549873403
  0.3946053472551796  0.2372659636529022  0.9188858166231597
  0.3208315065851934  0.3388643331751311  0.9966192354848928
  0.2360486181972803  0.4162579234891624  0.0986947639811717
  0.1567967207522543  0.5075727851605762  0.1618047915677892
  0.0796839216500587  0.6053008374861548  0.2482114608052512
  0.0026340714483482  0.6910213331553550  0.3209713643015348
  0.9095517792872982  0.7536613495688940  0.4123538878342003
  0.8461281601012516  0.8402767911525046  0.5142613985128932
  0.7443445929243779  0.9103730817908584  0.6074312153931345
  0.6494969541014086  0.0140189749446264  0.6612773493118169
  0.5600677429401983  0.0699327964325249  0.7454910224845719
  0.5916881703844297  0.0935632178452792  0.9038761385658916
  0.4991511054421736  0.1705300491417532  0.0089828167022645
  0.4303652299873448  0.2724760362284471  0.0887382618454353
  0.3394137137122257  0.3133842667299476  0.1815459099628214
  0.2535286539906636  0.4032562554382224  0.2505020724568894
  0.1519132450363898  0.4998122859318173  0.3289953295562427
  0.0803358363985112  0.5988277601447578  0.4215132208115833
  0.0024761894874246  0.6774542793861755  0.5091034473382408
  0.9200310463138734  0.7381949078468608  0.5858656427978133
  0.8254019533103971  0.8552332062766936  0.6816763793308027
  0.7302517100735670  0.9012564180904903  0.7458664095870873
  0.6471913903061193  0.9967888778476492  0.8416868602673659
  0.6675687989439965  0.0113556829417831  0.9565804604690697
  0.5963773977614295  0.0910533331355765  0.0987972324394875
  0.4813445983626039  0.1630867737501944  0.1539310374149636
  0.4236234303314319  0.2607960597611125  0.2666822709025496
  0.3419572793070742  0.3222974425526033  0.3461438464048427
  0.2589034606866036  0.4271727579694655  0.3874208526143050
  0.1543583041646883  0.4962077717133369  0.4860666053630780
  0.0716656185730074  0.5964362002649892  0.5745765736236379
  0.9973067745412152  0.6586927137715577  0.6749460864578367
  0.9210611241298849  0.7509856732518614  0.7520623665163768
  0.8279582838949509  0.8234501923152990  0.8434516240507861
  0.7360948633523208  0.9209025534923256  0.8951590333807928
  0.7472879686758418  0.9267938024046813  0.0684482582858692
  0.6878925891868377  0.9990226783736773  0.1818558411445963
  0.6078076288364187  0.0741087075818712  0.2764282278318291
  0.4811155602357218  0.1437766833768421  0.3449770848164846
  0.4135338029979465  0.2401724875415283  0.4072156047302613
  0.3405551460409768  0.3437082482993219  0.4814821047895919
  0.2473861537929096  0.4292925333214654  0.5825912711596288
  0.1532736859278572  0.5090499540223092  0.6791800738609410
  0.0817389465670004  0.5709532629330809  0.7412664273849074
  0.9890756595079893  0.6636446918011387  0.8392420246005372
  0.9178998333926600  0.7360756342944157  0.9215948193521584
  0.8196164654524623  0.8193629073722519  0.9895280997864262
  0.4306737269617145  0.4109838469981000  0.5818011390602749
  0.3430856732518563  0.5031592167971866  0.6860343374268325
  0.2471043866674592  0.5879238866476797  0.7334398913344415
  0.1691560754825190  0.6680881931260885  0.8159912691820921
  0.0868199236671430  0.7406023992445796  0.9083688221800372
  0.9996919010045886  0.8342507445420040  0.9848661114736572
  0.9065861473659211  0.9293886949256418  0.0733941514396435
  0.8390120036386648  0.0043628267876912  0.1721628045404202
  0.7545688127867436  0.0864411890919143  0.2625105595435855
  0.6789120906502149  0.1700661213613373  0.3392818580920718
  0.5837761548805602  0.2393662419909859  0.4168840724371137
  0.5109867346938799  0.3443780429322914  0.4885700680272080
  0.4919682284250939  0.3129620135263380  0.6478756417101721
  0.4284270324118040  0.4182224736987834  0.7652175872092997
  0.3505462955821841  0.5167789990705600  0.8267761158242379
  0.2549786777210912  0.5946908667536803  0.9117235692532830
  0.1522365710528391  0.6707496158637838  0.9977276241892099
  0.0764746672797045  0.7798991580643886  0.0720298410061702
  0.0009208417378588  0.8283863821982251  0.1591546694549919
  0.9277474588672661  0.9323141863431417  0.2459250252135732
  0.8402210923904434  0.9953681725597221  0.3439241644913764
  0.7701939477535191  0.0798786080129759  0.4296057388071475
  0.6559864889851283  0.1563017184780904  0.5098209781877898
  0.5571712303235259  0.2377674675684247  0.5563568081593075
  0.5659270067038449  0.2434032678769213  0.7195838554026253
  0.4979581390404988  0.3327444485643127  0.8258408454951720
  0.3992667462624553  0.4138550026696706  0.9153032026182544
  0.3228128465630462  0.4871620417062204  0.0213186209658289
  0.2412024580762520  0.5768859342865085  0.0686606959935148
  0.1615731920384462  0.6596119294810947  0.1461498007633253
  0.0836800654564129  0.7648916098125298  0.2295056611888953
  0.9963786796986227  0.8391494675486442  0.3173606994541984
  0.9191757138902048  0.9165073208353078  0.4279652369087188
  0.8388611132534436  0.9903540964641664  0.5087698930153479
  0.7546877733942381  0.0876874540223085  0.5930750385619348
  0.6641389480501516  0.1748960350419253  0.6657200601170672
  0.6573713618296182  0.1734081528832476  0.8258218700561599
  0.5701214621895261  0.2542701451510823  0.9140672272978989
  0.4889436501344733  0.3525076392184801  0.9783552379963609
  0.3890949449256453  0.3992832250632787  0.1059530152467971
  0.3241258088118997  0.4905347003045435  0.1645033232479065
  0.2278022815812406  0.5787814255062500  0.2540281803709874
  0.1634948826332874  0.6763408529109327  0.3169258226546461
  0.0727906769103015  0.7529350943284285  0.3931465645269725
  0.0122016294890059  0.8296482770724580  0.4856966609318150
  0.9340750954160768  0.9276560166508432  0.5922453335113147
  0.8223025683238419  0.9948381990586910  0.6746750291686467
  0.7258119655711113  0.0932956924339479  0.7545967039432071
  0.7660827049715238  0.0948701688815063  0.9059076965669988
  0.6632474613391892  0.1698192636647704  0.0138670330050630
  0.5824095974727115  0.2586825749485868  0.0952231396337595
  0.4956357152744815  0.3492075764317377  0.1842409344842579
  0.4195711942335052  0.4203935720218297  0.2620140968596729
  0.3346471429560225  0.5288713994027816  0.3193058559761113
  0.2445334500079070  0.5890348698781835  0.4145368424695448
  0.1620357755893025  0.6818480338356281  0.4924096350458811
  0.0841832255576662  0.7473322654643226  0.5720809345831341
  0.9960183169197947  0.8339506342944176  0.6573053057269433
  0.9124742223342821  0.9135168555212800  0.7614448846108246
  0.8147378628777062  0.0069953958036706  0.8200088944589439
  0.8159782085508596  0.9960439541805073  0.9792086393569051
  0.7635267451748149  0.1017229611612080  0.1015279559207372
  0.6794407411801942  0.1594087550427119  0.1824930988965363
  0.5637027942572388  0.2240828982755900  0.2463328404326859
  0.5027122765385243  0.3413910467093828  0.3420951940950800
  0.4070633800031658  0.4422624471009300  0.4148652898077856
  0.3445966663700375  0.4977319490586964  0.4816079487027380
  0.2348659725518090  0.5697267323208379  0.5728878658440095
  0.1612162681933214  0.6727704600735649  0.6504194114855224
  0.0764357291172288  0.7238986374782499  0.7478417976783760
  0.9892835839859231  0.8125565871697518  0.8228538739914555
  0.9284590225043488  0.9286432887399130  0.9108040000593292
 
  0.00000000E+00  0.00000000E+00  0.00000000E+00
  0.00000000E+00  0.00000000E+00  0.00000000E+00
  0.00000000E+00  0.00000000E+00  0.00000000E+00
  0.00000000E+00  0.00000000E+00  0.00000000E+00
  0.00000000E+00  0.00000000E+00  0.00000000E+00
  0.00000000E+00  0.00000000E+00  0.00000000E+00
  0.00000000E+00  0.00000000E+00  0.00000000E+00
  0.00000000E+00  0.00000000E+00  0.00000000E+00
  0.00000000E+00  0.00000000E+00  0.00000000E+00
  0.00000000E+00  0.00000000E+00  0.00000000E+00
  0.00000000E+00  0.00000000E+00  0.00000000E+00
  0.00000000E+00  0.00000000E+00  0.00000000E+00
  0.00000000E+00  0.00000000E+00  0.00000000E+00
  0.00000000E+00  0.00000000E+00  0.00000000E+00
  0.00000000E+00  0.00000000E+00  0.00000000E+00
  0.00000000E+00  0.00000000E+00  0.00000000E+00
  0.00000000E+00  0.00000000E+00  0.00000000E+00
  0.00000000E+00  0.00000000E+00  0.00000000E+00
  0.00000000E+00  0.00000000E+00  0.00000000E+00
  0.00000000E+00  0.00000000E+00  0.00000000E+00
  0.00000000E+00  0.00000000E+00  0.00000000E+00
  0.00000000E+00  0.00000000E+00  0.00000000E+00
  0.00000000E+00  0.00000000E+00  0.00000000E+00
  0.00000000E+00  0.00000000E+00  0.00000000E+00
  0.00000000E+00  0.00000000E+00  0.00000000E+00
  0.00000000E+00  0.00000000E+00  0.00000000E+00
  0.00000000E+00  0.00000000E+00  0.00000000E+00
  0.00000000E+00  0.00000000E+00  0.00000000E+00
  0.00000000E+00  0.00000000E+00  0.00000000E+00
  0.00000000E+00  0.00000000E+00  0.00000000E+00
  0.00000000E+00  0.00000000E+00  0.00000000E+00
  0.00000000E+00  0.00000000E+00  0.00000000E+00
  0.00000000E+00  0.00000000E+00  0.00000000E+00
  0.00000000E+00  0.00000000E+00  0.00000000E+00
  0.00000000E+00  0.00000000E+00  0.00000000E+00
  0.00000000E+00  0.00000000E+00  0.00000000E+00
  0.00000000E+00  0.00000000E+00  0.00000000E+00
  0.00000000E+00  0.00000000E+00  0.00000000E+00
  0.00000000E+00  0.00000000E+00  0.00000000E+00
  0.00000000E+00  0.00000000E+00  0.00000000E+00
  0.00000000E+00  0.00000000E+00  0.00000000E+00
  0.00000000E+00  0.00000000E+00  0.00000000E+00
  0.00000000E+00  0.00000000E+00  0.00000000E+00
  0.00000000E+00  0.00000000E+00  0.00000000E+00
  0.00000000E+00  0.00000000E+00  0.00000000E+00
  0.00000000E+00  0.00000000E+00  0.00000000E+00
  0.00000000E+00  0.00000000E+00  0.00000000E+00
  0.00000000E+00  0.00000000E+00  0.00000000E+00
  0.00000000E+00  0.00000000E+00  0.00000000E+00
  0.00000000E+00  0.00000000E+00  0.00000000E+00
  0.00000000E+00  0.00000000E+00  0.00000000E+00
  0.00000000E+00  0.00000000E+00  0.00000000E+00
  0.00000000E+00  0.00000000E+00  0.00000000E+00
  0.00000000E+00  0.00000000E+00  0.00000000E+00
  0.00000000E+00  0.00000000E+00  0.00000000E+00
  0.00000000E+00  0.00000000E+00  0.00000000E+00
  0.00000000E+00  0.00000000E+00  0.00000000E+00
  0.00000000E+00  0.00000000E+00  0.00000000E+00
  0.00000000E+00  0.00000000E+00  0.00000000E+00
  0.00000000E+00  0.00000000E+00  0.00000000E+00
  0.00000000E+00  0.00000000E+00  0.00000000E+00
  0.00000000E+00  0.00000000E+00  0.00000000E+00
  0.00000000E+00  0.00000000E+00  0.00000000E+00
  0.00000000E+00  0.00000000E+00  0.00000000E+00
  0.00000000E+00  0.00000000E+00  0.00000000E+00
  0.00000000E+00  0.00000000E+00  0.00000000E+00
  0.00000000E+00  0.00000000E+00  0.00000000E+00
  0.00000000E+00  0.00000000E+00  0.00000000E+00