Li 
 1.0000000000000000
    20.2271999999999998    0.0000000000000000    0.0000000000000000
     0.0000000000000000   20.2271999999999998    0.0000000000000000
     0.0000000000000000    0.0000000000000000   20.2271999999999998
 Li 
 432
Cartesian
 -0.1633268000000000  0.2800022800000000  0.0759036700000000
 18.7308810100000009  1.3274271700000000  1.6615727700000000
 17.3864261199999994  2.9175883300000001  3.6265445500000002
 15.2878729999999994  4.8441891300000002  4.8897527199999997
 13.5280392400000000  6.0952413600000002  6.3672130899999999
 12.0981416199999998  8.0524273799999992  8.1922592999999999
 10.0763994100000005  9.7987525899999994  9.6540713399999998
  8.0934024499999992 11.7810433900000007 11.9020954799999998
  6.7984252700000001 13.3169034600000007 13.2514142600000007
  4.9177152299999998 14.9263243800000005 14.7536992100000006
  2.9933398200000001 16.5268267999999985 16.6824918199999992
  1.4012114000000000 18.2994613199999989 18.7113166900000003
  1.6485644900000000 19.1869866500000015  1.4095033699999999
  0.2367316500000000  0.2991848800000000  3.6263737400000000
 18.5279992699999987  1.6224909599999999  5.0352996799999996
 17.0555325000000018  3.6712035900000002  6.9124032199999998
 15.1598590299999998  5.5595248899999996  8.4587379100000000
 13.6494936899999999  7.0805435799999996 10.1444748199999992
 11.9630539500000008  8.4849539000000007 12.1051052699999993
  9.9536956700000001 10.3249646399999992 13.6364204499999992
  8.4670179200000000 11.9352593299999992 14.8658738199999991
  6.7426717199999997 13.3522947599999995 16.9743716000000013
  4.7746365400000004 15.4603397200000003 18.3698091800000007
  3.4875429300000000 17.0939977399999989 -0.0434817500000000
  2.9555391700000002 17.4568977200000006  2.8235334299999999
  1.8480015700000001 18.5022963999999988  5.4324317100000004
 -0.0906487600000000  0.4354830300000000  6.7834030199999997
 18.4798909999999985  2.2654490599999999  8.7849749799999994
 17.0500884200000016  3.6799295800000000 10.1054097699999996
 14.8695702799999996  5.5674485000000002 11.9062077599999991
 13.0890755799999994  6.5019236200000003 13.5273614400000000
 11.4997667799999999  8.4586100999999996 15.0947330900000001
  9.9693605699999992 10.3559993600000002 17.2075378100000016
  8.1286843900000001 12.1744020699999993 18.9810229399999990
  6.4972929600000002 13.8485432300000006 20.3856968300000005
  5.2121348500000000 15.3961369700000006  1.7265364000000001
  4.7723908799999997 15.3123718300000000  5.0820059400000002
  3.1239197999999999 16.5376896799999997  6.6669281700000003
  1.5032643600000000 18.5680146300000004  8.2754270900000009
  0.1201606700000000  0.0745266500000000  9.9866406500000000
 18.6502062600000009  2.0279743699999999 11.8988441700000003
 16.6882796599999992  3.3345987199999998 13.5585626200000000
 15.2344147900000007  5.0730399700000000 15.2535695400000009
 13.1431796599999995  6.4625375399999996 16.6723955900000007
 12.2866804300000005  8.3209504200000008 18.2518600800000002
 10.0638441600000004  9.5027527500000009  0.1562255900000000
  8.3526019399999996 11.7888187900000005  1.8100944100000000
  6.5807156800000000 13.2363988599999995  3.3290503000000000
  6.6289317499999996 13.4565050300000006  6.2878153799999996
  4.8161878199999997 15.4611409299999991  8.6241840100000005
  2.9696477200000002 16.9110267199999988 10.1527204399999995
  1.6539087100000001 18.1518950600000011 12.0502641399999995
 -0.0399397000000000  0.1662440100000000 13.6852296300000003
 18.2961580700000006  1.7923718300000000 14.9159571399999997
 17.1809223300000014  3.2294688800000002 16.8962967299999995
 14.8712700400000006  5.0808722800000004 18.5142114400000004
 14.1107463600000003  6.8682436300000003  0.0100110900000000
 12.0206573300000006  8.1201956600000003  1.4826935699999999
  9.9370179099999998  9.3430299500000000  3.0984888399999999
  8.6870082899999996 11.3290818200000007  4.5221190699999996
  8.7737433700000000 11.8174686700000002  8.0477194099999991
  6.6619001100000004 13.4417589700000004  9.8644180499999994
  5.5295494200000004 15.0950753899999999 11.7053115400000003
  3.1007379799999999 16.9970919699999996 13.6507506599999999
  1.6899104400000000 18.4679819899999984 15.4366212800000007
 -0.0032776000000000  0.6742809700000000 17.0049002800000011
 18.2410904900000013  1.8696855100000001 18.8754191999999996
 16.8291066700000016  3.6529493500000001 20.5411781699999985
 15.1871366800000001  4.8697373199999996  2.5709029100000000
 13.5527137000000000  6.8555014500000002  4.2954044099999997
 12.1429772699999994  8.3438291200000005  5.0689297299999998
 10.4733934000000009 10.4316315300000007  6.6565254200000004
  1.8311524600000000  1.8514758300000000 18.6371850200000004
 -0.2463615000000000  3.4291059200000000  0.1788476400000000
 18.3112937299999992  5.1657981099999999  2.3736241900000001
 17.1007931400000004  7.0386008999999996  4.0123253900000000
 14.9994407299999999  8.8586000899999995  5.3207181800000001
 14.0078659200000004 10.5456140200000004  6.8042387299999998
 11.5397134300000008 12.3168781099999993  8.3358274699999999
  9.8708187899999995 13.4250143000000008  9.9712880199999994
  8.4596577499999999 14.5833525999999996 11.6730733799999999
  6.9200983200000001 16.7648112900000008 13.5995124900000004
  4.9798742100000002 18.7802793399999999 15.0474872499999996
  3.5890141899999999  0.1062544700000000 17.4326751199999990
  3.7810145799999999 -0.0546734500000000 -0.4168562600000000
  1.8363228899999999  1.6744518200000000  2.0974368000000001
 -0.0780835400000000  3.5990646399999999  3.2230090100000002
 19.0003739500000002  5.4995203200000002  5.1900220499999996
 16.9338308200000007  7.1102148200000004  6.6131773000000003
 15.3951013099999994  8.3607131999999993  8.1196381100000004
 13.6785070799999993 10.5079144800000002 10.0206458699999992
 11.4035624299999991 11.5355454099999992 11.5098535399999999
  9.8094924300000006 13.2559542599999993 13.5410794299999999
  8.3353964099999995 14.7340211500000002 15.0094560500000007
  6.7697903100000003 16.7482588499999991 17.2773834800000010
  5.4981969299999998 18.3929459400000006 18.0014907499999985
  5.3733246399999999 19.1409387600000009  1.6735465199999999
  3.6522452300000001  0.2263495000000000  3.9589252899999998
  1.7724216200000000  2.0915357700000001  5.1499506700000000
  0.2726265100000000  3.2925783599999998  6.4530808100000003
 18.4030363900000005  5.4104085900000003  8.7600947700000003
 17.1809309900000002  7.0076048699999998 10.4239951899999994
 15.0914994900000003  8.4210952599999995 11.8373780800000006
 13.5360220400000006 10.2112046099999993 13.1611146100000003
 11.6812260200000004 11.7826377999999998 14.7949626100000007
  9.8083052800000008 13.1824350100000007 16.6639908599999984
  8.2995949299999996 15.0866393500000004 19.0327396700000016
  6.0988730699999998 17.0210631799999987 19.9577443899999984
  6.9825712500000003 17.1442943499999991  3.4856780999999999
  5.2587544599999996 18.4522593099999987  4.9617913500000004
  3.4432166500000001  0.4688010100000000  6.5007877699999996
  1.9325864500000001  1.8434252000000000  8.5120461299999999
  0.3699070100000000  3.6686873000000002 10.2759590999999997
 18.8817612900000000  5.0706499400000000 11.9930711700000003
 17.2848396899999983  6.6617505299999999 13.5411119299999996
 15.1986784999999998  7.8577939199999998 14.8003704000000003
 13.5200452400000000  9.8894425600000009 16.2530455600000003
 12.1682684099999996 11.7539521699999998 18.6755923099999990
 10.4872599100000006 13.7131896100000006 20.2649519900000001
  8.5362703500000006 15.3521802399999991  1.8329475600000000
  8.5491202099999999 15.2859682899999996  4.5883175700000001
  6.8239927099999997 16.8894263000000002  6.5921402599999999
  5.1017778299999996 18.1628276699999986  8.4253188899999998
  2.9937539100000001 -0.3422208400000000 10.1800995200000006
  1.5173666699999999  1.8593461499999999 11.5661458499999998
  0.2356031400000000  3.2511828600000001 13.5969062699999999
 18.4674846300000013  5.0030765900000000 14.9140379700000008
 16.7474032599999987  6.6657853700000000 16.5473152399999996
 14.9575082300000002  8.3207507900000000 18.1230784699999994
 13.6821482400000001 10.0008721499999993 19.8338349799999989
 11.7505535600000002 11.5663440299999998  1.6643102900000000
 10.3584521899999995 13.5652313400000004  3.0865511500000000
 10.1210542599999993 13.5021283000000007  6.1284432500000001
  8.7788470499999995 15.0218941000000008  7.9444358800000003
  7.1248688700000002 16.6375776600000016 10.4406334100000002
  4.6169505500000003 18.3935656899999991 12.1361129900000009
  3.1286410899999999  0.1490451800000000 13.6990285400000005
  1.5825214900000000  1.9055715000000000 15.6143466100000001
 -0.0401271900000000  3.4873339699999999 16.7777979399999992
 18.1101313399999988  5.0747404500000002 18.6117646000000008
 16.8655870099999987  6.5552392599999996 20.5744233100000002
 15.0926315899999999  8.2715439800000006  1.9183090300000001
 13.3853410700000008  9.9556365600000003  3.4252907200000000
 11.8905939600000004 11.5171572199999996  4.8240370700000001
  3.3908857999999999  3.2832184199999999 17.1671279500000011
  1.5319200200000000  5.3377446600000003 18.5679071799999988
 -0.0479796700000000  6.7524760700000002  0.1332498000000000
 18.8956813500000003  8.0438353199999995  1.7490391300000001
 17.5318431600000011  9.7117738399999993  3.5529656400000000
 15.1330200000000001 11.9439265199999998  4.4335533399999996
 13.2595188799999999 13.5031750499999994  6.8114768400000001
 11.6831872400000005 15.4914816500000008  8.4826344299999992
 10.1620352900000004 16.5160669099999993 10.1515015000000002
  8.4604451600000008 18.3488631600000005 11.7308389399999999
  6.6248286199999997 19.4427710400000002 13.4601430200000003
  4.7558761599999997  1.7407638100000000 15.1705945100000008
  5.5483675999999997  2.0659772599999999 19.0338324000000014
  3.2064457499999999  3.7318192400000001  0.1545157700000000
  1.6197813500000000  5.5096676899999997  1.7461370100000000
 -0.2060923100000000  6.7977854400000002  3.6503612500000000
 19.1187310000000004  8.9446318500000004  5.4335738999999998
 17.0935088899999990 10.6124475399999998  6.8629477000000003
 15.2825999800000005 12.5139903100000005  8.3810490899999994
 13.4425243900000009 13.5772902000000002 10.4232041399999993
 11.4594638100000008 14.9284111399999997 11.9137651699999996
  9.9762133500000001 16.5672798700000001 13.3366538000000006
  9.0116330100000006 18.1327225399999996 15.7714575999999997
  6.4121172800000004 20.0773401599999985 16.8305742000000009
  6.9294295500000000  0.0402020600000000 -0.3847909600000000
  4.9403012500000001  1.9160258600000000  1.5960750200000000
  3.5193562500000000  3.9071390400000001  3.7610541700000000
  1.4611158000000000  5.1023642599999999  5.3232444100000000
  0.0895961500000000  6.9164937200000001  6.7480063499999998
 18.3108333099999996  8.4745984300000003  8.3137236600000008
 16.7136476800000011  9.9657907899999998  9.7106773600000000
 15.3953646299999996 11.6394966300000000 11.7233397900000007
 13.3336948000000000 13.1689808900000003 13.2418977400000006
 11.5633508099999993 14.8886748200000003 15.2045230900000004
 10.3194845100000006 16.0259383299999989 17.0812067100000000
  8.4961940800000004 18.5330810899999996 18.5126356799999989
  8.5656863300000001 18.8585582299999999  1.7245020200000001
  6.5697357199999997  0.1198205800000000  3.5749941900000000
  5.1537574900000003  1.9048779700000000  5.2571356099999997
  3.2880637099999999  3.5146556800000002  7.0063260400000003
  1.3313126300000000  5.0816359100000001  8.6527910099999996
  0.0902809700000000  6.8471997000000000 10.4531557300000006
 18.3538363699999998  8.3950707399999995 12.5121105099999994
 16.7403240999999987 10.0552952100000006 13.4383399899999993
 15.0863893200000003 11.8815961500000000 15.0944537299999997
 13.4664805300000001 13.1828549699999993 16.4344770599999990
 11.4571659700000001 14.4356833600000005 18.6364753699999994
  9.8922872099999992 17.0552345599999988 20.7030857099999999
 11.0802216399999995 17.0446153500000008  3.3847914000000001
  8.7824700900000003 18.5322245199999998  4.6924801499999997
  6.9093313900000002 -0.2364327000000000  6.5074963400000003
  5.3240067700000004  1.3178314099999999  8.3701699200000004
  3.4819192299999999  3.2405532799999999 10.0156421200000008
  2.2152893800000002  5.5354440199999999 11.7808608899999996
  0.2741928400000000  6.6328919900000001 13.7860063499999992
 18.5758242100000004  8.4960790500000005 15.2158310399999994
 16.7268879499999983  9.8449822099999995 16.8965989800000003
 15.1884824700000003 11.2605164599999998 18.4024771800000018
 14.0587173300000003 13.3588916399999995 20.4123597699999983
 12.2538671800000003 15.2778692399999994  1.4615225700000001
 11.9009635500000002 15.1867271499999994  5.1443858400000000
 10.2529075800000005 16.8523553799999988  6.2938976499999999
  8.5561706999999991 18.2534126900000011  8.4249505599999992
  6.4977495699999999 -0.5961078700000000 10.1941099499999996
  4.8689928499999997  1.4618017699999999 11.8769274100000004
  3.3977995600000002  3.2767658499999999 13.2960328000000008
  1.9699788000000000  5.1046519400000001 15.6687910499999994
 -0.3914105800000000  6.7041403199999996 17.3434183399999995
 18.5430081400000013  8.1085944100000003 18.5410733999999984
 16.5249209199999996  9.3785646000000007 20.5765762899999984
 15.3142814200000004 11.6096025399999991  1.8176333099999999
 13.5412683699999992 13.6286960199999996  2.9766052500000000
  4.9698810599999996  4.7811932800000001 15.0733074100000000
  3.6822745700000001  6.5083659899999997 16.9055546200000002
  1.5319325699999999  8.4803321500000006 18.3529741599999987
 -0.0585354800000000  9.7679013799999996  0.0979621600000000
 18.1315126599999985 11.9691564899999996  1.3676658799999999
 17.0411557800000004 13.8638792700000000  2.9935310500000001
 15.2272155599999994 14.8469275900000000  5.4692500900000001
 13.2758315600000003 16.8210407000000011  7.0608593800000001
 12.3095878299999999 18.5554649100000013  8.4999197100000004
 10.2275098300000007 -0.2427747600000000 10.3233700800000001
  8.0306079300000004  1.4726067100000000 12.1003246299999994
  6.4694428799999999  3.2482549999999999 13.2036766399999994
  6.6446740000000002  3.4660446500000002 16.6995320400000011
  5.2040372399999999  4.6359632700000004 18.6436433699999995
  3.3132484700000000  6.6830470200000001 -0.4045574800000000
  1.2104180800000000  8.3378638800000004  1.8187950500000001
 -0.0427976900000000 10.3089719500000001  3.3607853300000001
 18.5033705200000007 12.2402597600000007  5.1669270400000000
 16.7917624399999994 13.4864002799999998  6.8589108000000003
 15.1552867199999994 15.1667789400000004  8.6869554600000001
 13.2198221799999995 16.7317053999999992 10.5032702400000009
 11.5444192399999999 18.3116781199999998 12.1225553000000001
  9.7055273500000006 19.7870819100000013 13.6328370299999992
  8.6078159299999992  1.2320832200000000 15.2540397799999994
  8.3402651999999993  2.1605429699999998 18.2584398099999987
  7.0535026600000004  3.5466216899999998  0.4497287000000000
  4.9348562300000003  5.6107975899999998  1.6826691100000000
  3.2667293800000001  6.9917542499999996  3.5278804699999999
  1.6345465900000000  8.6146953600000007  4.9496273200000003
  0.2863167900000000 10.4242306300000003  6.8688665200000001
 18.7074699899999999 12.0698048700000005  8.6629044400000002
 17.0787352900000009 13.5122411000000007 10.2951957299999997
 15.1966366199999996 15.2144163500000005 12.0612564199999994
 13.5202887100000009 16.5163593900000016 13.5262797599999995
 11.7087272500000008 18.4736240199999990 14.9886198900000007
 10.4092532799999997 -0.1013481900000000 16.8807664200000005
 10.6924573800000005 -0.0446660500000000 -0.4712364700000000
  8.2343309399999995  1.0266729699999999  1.3549164000000000
  6.9571487699999999  3.3905878399999998  2.9595018500000001
  5.2105908500000000  5.0016355800000003  5.3844065399999996
  3.4253800499999998  6.5752519100000004  6.6689679399999999
  0.9710869800000000  8.4535283999999997  8.0190151400000005
  0.1706761000000000  9.6883814099999999 10.1644075199999993
 18.5819497100000000 11.3353541599999996 11.5638020899999994
 17.1163574199999999 13.3227069900000004 13.5197769300000008
 15.5434092899999996 15.0960343199999993 15.0708954599999991
 13.5597015800000005 16.4353771699999989 16.7263242199999986
 12.1161562099999998 18.1973420899999994 18.3748175300000014
 12.6368021600000002 18.8491889700000002  1.3360441999999999
 10.8823764999999995 -0.2232181300000000  3.5769376700000000
  8.6730952299999995  1.3715419499999999  4.7678930800000003
  6.9222208700000003  3.1958731000000000  6.5070645899999997
  5.2900133800000004  4.9740261700000001  8.5997903200000003
  3.5321002099999999  6.9799068799999997  9.5122938399999999
  1.8170115600000001  8.6493489399999994 12.0031862199999999
  0.1929863500000000  9.9612063699999993 13.3049078200000004
 18.5392243500000014 11.6930800999999995 15.2183344700000003
 17.0959329599999990 13.3805329999999998 17.0044953700000008
 15.0140810899999995 15.0551452000000001 18.1752316699999987
 13.6981350899999992 16.7035330000000002 -0.1291537500000000
 13.6432109700000002 16.6739112300000016  3.4981876299999999
 12.4521708300000000 18.8389021800000016  5.4660115899999999
  9.9344515300000005 -0.0755485200000000  6.7214055799999999
  8.3301604299999994  0.9844839100000000  8.1054983299999996
  6.9857247100000004  3.0906882800000002  9.5900776899999993
  5.1311181899999996  5.3016329100000004 11.3308532300000007
  3.4568068300000001  7.0758665900000004 13.4580003399999999
  1.6081971399999999  8.0190053999999993 15.5013231600000001
  0.2731462400000000  9.8352014299999997 16.8755373000000013
 18.2276890999999992 11.4787500300000005 18.8510724100000004
 16.5624116699999995 13.4066901400000003  0.0615146800000000
 15.0635325800000004 15.6775576200000000  1.9456267100000000
  6.8920657099999998  6.6476473699999996 13.5618122900000007
  5.2130270000000003  8.7481547699999993 15.1745964999999998
  3.5423326700000000 10.1949296000000000 16.9024802299999983
  2.0442099699999998 11.4606672300000003 18.5806383299999993
  0.2943773200000000 13.4388196000000004  0.0418611900000000
 18.3410321799999991 15.6066117400000000  1.5801375200000001
 16.8488704300000016 17.3547741500000008  3.5915430700000002
 15.0604309099999991 18.7126980900000000  5.3786940799999998
 13.6423098599999992 -0.0933892900000000  7.4196628699999998
 11.9870863700000001  1.3466509000000000  8.3722116399999997
  9.4980126800000004  2.8059369400000000 10.0602196700000004
  7.8717263300000004  4.7979641300000004 11.3439947399999994
  8.3458105400000004  5.0106593799999999 14.8872590099999993
  6.4720066899999997  6.8346025499999996 16.7647883200000010
  5.0093171999999999  8.4460328499999999 18.6281619800000016
  2.9586005300000000 10.0278061699999999  0.0067168300000000
  1.6185796699999999 11.8506797099999996  1.6076313300000000
 -0.1764182500000000 13.4825086499999998  2.8021481800000001
 18.2738120100000003 15.3970936900000002  5.0457106700000001
 17.0417543299999998 17.2896655000000017  6.8133070900000003
 15.6982533400000008 18.2153090499999983  8.7537493200000007
 13.7540779400000002  0.1238660700000000 10.3887846600000007
 11.4311019599999995  1.5211142000000000 12.1660802599999993
  9.3153516100000004  3.6708679200000001 13.3956055000000003
  9.6794392699999996  3.3905854899999999 16.6387603099999986
  7.9817612799999997  4.7992261000000003 18.5864871899999997
  6.4895230499999998  6.8542766400000001 -0.0683834000000000
  4.7746026099999996  8.4197322700000008  1.9963187300000000
  3.1715586299999998 10.2667762400000004  3.2728578800000001
  1.6117826200000001 12.2435410999999998  5.0206228599999996
  0.0532798900000000 13.9774267099999996  6.4923519799999996
 18.3976857500000008 15.2444588499999991  8.3407645600000002
 17.1148035199999988 16.9964467100000007 10.4020681600000007
 15.0560069500000004 18.4142983999999998 12.2866326800000003
 13.1375047899999995  0.2835646100000000 13.3757891999999998
 11.3286022499999994  1.4145446600000000 15.0791960100000004
 11.9681949599999999  1.8925219200000001 18.2828834299999983
 10.0964292400000009  3.4493454099999998  0.1816972300000000
  8.7050835800000002  5.5114272800000004  1.7949265700000001
  6.8653890700000000  6.3388862399999999  3.6721654300000002
  5.1281747900000001  8.1567449300000003  5.0669555199999996
  3.0727795900000001 10.1098030699999999  6.6546543299999996
  1.6249690299999999 12.1126088700000007  8.5260322199999994
  0.0500863800000000 13.7030031999999995 10.2977372500000008
 18.6096519799999989 14.9316160399999998 11.8504215300000002
 16.6955703900000003 17.2989731099999986 13.7884044600000006
 14.7709473899999999 18.2298938200000009 15.0867890399999993
 13.0908696899999999 -0.0649520100000000 17.0249684600000002
 13.5030476099999994  0.2296936700000000 -0.8782557100000000
 12.0630448999999995  1.8417539800000000  1.9983913799999999
  9.7362534600000004  3.2987887900000001  3.1135938799999998
  8.5687158500000002  5.2751740600000003  5.3942356299999998
  6.9168382800000003  6.5191748299999999  7.0015208099999997
  5.2368920799999996  8.6405088100000000  7.8364390700000000
  3.1222362900000000 10.0368938399999994  9.8317664400000009
  1.4495948000000001 12.0642343099999998 11.6220752699999998
 -0.0544764100000000 13.3235092599999998 13.6522694799999993
 18.6304875699999997 15.1903374099999997 15.2121159000000006
 16.7472777999999991 16.6560917300000000 17.0606646899999994
 14.8891380200000008 18.6272801299999990 18.1065608000000005
 15.1155431999999994 18.7464435999999992  1.3845166099999999
 13.9141409800000009 -0.0197684800000000  3.6784344700000000
 12.2942464699999991  1.4990116499999999  5.5913690500000000
  9.7316206600000008  2.9081997300000002  6.9779204899999998
  8.3646309399999996  4.8580169399999997  8.2368314799999993
  6.8884770499999997  6.9522554799999998  9.7390348299999996
  5.0039292099999999  8.6833859300000000 11.7841901599999996
  3.1002974999999999 10.2966552300000007 13.7379111900000002
  1.6533500200000000 11.5487858400000007 14.9937442799999996
 -0.2209688200000000 13.4236739099999998 16.9755162800000008
 18.5665435099999989 14.8887490699999994 18.6412827300000004
 16.5785461699999992 16.5734174000000003 -0.2118172200000000
  8.7113236100000009  8.3130524700000006 11.7682079999999996
  6.9396625299999997 10.1775021100000007 13.8765537499999994
  4.9982298500000004 11.8920540399999997 14.8354353700000008
  3.4215537700000000 13.5135535000000004 16.5052185999999992
  1.7561239600000000 14.9803128500000007 18.3737578399999997
 -0.0062319800000000 16.8745566599999997 -0.3061161900000000
 18.3376993199999987 18.7989310100000004  1.4845581800000001
 16.9708636000000013 20.3154477699999987  3.4823714799999999
 15.2628142899999997  1.7484632200000001  5.3098535900000003
 13.7324906400000000  3.4399614500000002  6.8627219999999998
 11.8081570399999993  4.8417088499999998  8.4323975099999995
 10.3358308799999996  6.9658035500000004  9.8824044799999999
  9.9511397499999994  6.3303452399999998 13.1047101799999997
  8.6658792699999996  8.4594696200000001 15.4782091800000003
  7.0905700300000003 10.4529921699999999 16.7233658500000004
  5.1575047100000004 12.0289310999999994 18.4416149800000007
  3.0793195700000000 13.5673866299999997 -0.0459638000000000
  1.5468683900000000 15.7751762499999995  1.4569620000000001
  0.0186260500000000 16.7559370299999983  3.2192533299999999
 18.7657333999999985 18.8581055100000015  4.9743746700000004
 16.9953200799999991 20.1335110999999998  6.9566228600000004
 15.5788670200000006  1.6157205800000001  8.6897211999999993
 13.2687699099999996  3.1615461200000001 10.3122508899999996
 11.2700139099999994  4.8093701199999996 11.2535404299999993
 11.4471187499999996  4.9233665799999997 14.5551665600000000
 10.0722988699999991  6.7304885099999998 16.7044479499999987
  8.0760483300000008  8.3711279100000002 18.5140209400000018
  6.5296000100000002  9.8539240499999998  0.4312160100000000
  4.8788503600000004 11.6687871699999999  1.3888136300000000
  3.2681732700000001 13.3421024199999998  2.9562012499999999
  1.6926134200000000 15.4716155700000009  4.6422569100000004
 -0.0732491700000000 16.9736441099999986  6.4193183400000002
 18.5923510000000007 18.5383768800000013  8.6565384400000003
 16.9678115100000007 -0.1951096200000000 10.2909903800000002
 15.2652205300000006  1.7736716699999999 11.9962474199999996
 13.4336713299999992  3.5376570799999998 13.4656528000000009
 13.2967820099999994  3.5075613899999998 16.7040641299999990
 11.5319608400000000  5.1431730800000004 18.4890206200000016
  9.8899609999999996  7.1302425200000004 -0.4378129300000000
  7.8703012699999997  8.0763816500000001  2.1431328299999999
  6.5561575599999999  9.9221434899999998  3.3274416200000001
  4.6078023100000003 11.7071276500000003  5.1382788100000001
  3.3070436900000000 13.6804816999999996  6.4105220000000003
  1.4723515800000000 15.2297687400000008  7.9522541899999997
  0.2468048000000000 16.7814616299999990  9.8242834999999999
 18.8937237700000011 18.7638837800000005 11.9794648099999996
 16.6328785100000012 20.1227912199999999 13.6467867500000004
 14.6811437900000001  1.8871106300000000 15.2633784499999994
 15.4957080900000008  1.9189578800000000 18.3239761600000008
 13.4156390499999993  3.4349682100000001  0.2804912500000000
 11.7805154099999996  5.2324241799999998  1.9260974900000001
 10.0253227400000000  7.0634914899999997  3.7266782300000001
  8.4867504599999997  8.5033848600000006  5.2998115400000003
  6.7689746900000003 10.6975875699999996  6.4586634099999998
  4.9462270000000004 11.9145261199999997  8.3849196199999998
  3.2775300399999998 13.7918765499999996  9.9600681699999996
  1.7027909400000001 15.1164392000000003 11.5715954799999992
 -0.0805383000000000 16.8684862699999982 13.2954458800000008
 18.4567985899999982 18.4778881400000010 15.4018979700000003
 16.4798657000000013 20.3686972699999984 16.5864839099999983
 16.5049544200000007 -0.0800197300000000 -0.4205510100000000
 15.4440081800000009  2.0575706800000000  2.0536262700000001
 13.7431837600000009  3.2243927700000001  3.6913244100000000
 11.4021291599999994  4.5325696000000004  4.9826236300000000
 10.1684617599999996  6.9053849800000000  6.9196279100000000
  8.2337524000000002  8.9457309699999996  8.3915631899999994
  6.9702256900000004 10.0677236800000003  9.7415803000000007
  4.7506810000000002 11.5239765599999995 11.5879174400000000
  3.2609537000000000 13.6082626500000003 13.1561635199999998
  1.5460807800000000 14.6424425199999995 15.1267456100000004
 -0.2167630900000000 16.4357445999999996 16.6440298800000015
 18.7801263399999989 18.7838535299999982 18.4230146700000006
