Li                                      
   1.00000000000000     
    21.6720000000000006    0.0000000000000000    0.0000000000000000
     0.0000000000000000   21.6720000000000006    0.0000000000000000
     0.0000000000000000    0.0000000000000000   21.6720000000000006
   Li
   432
Direct
  0.9849572600590619  0.9961950442967904  0.0104272780546353
  0.8981272452934661  0.0936754688076746  0.0822536766334423
  0.8201294832041341  0.1652170551864174  0.1912959090070103
  0.7374642834071636  0.2495670657991909  0.2503360861941673
  0.6641232908822445  0.3404126236618694  0.3374879475821331
  0.5778550641380562  0.4268201859542273  0.4203355947766738
  0.4837524400147686  0.5255452602436321  0.5038871262458500
  0.4307955707825784  0.6145533476375036  0.5830855001845663
  0.3408307719638231  0.6730210248246564  0.6601106247692883
  0.2682692340346975  0.7548714931709100  0.7337874261720216
  0.1897700562938383  0.8338080532484327  0.8328977085640474
  0.0798206713731986  0.9191184150055349  0.9239751993355512
  0.0860119956626093  0.9201064820967133  0.0807617326504229
  0.9861882724252524  0.0013510594315278  0.1490865277777758
  0.9095799381690668  0.0850258467146574  0.2569607807308998
  0.8274958956256953  0.1618151070505718  0.3473006755260215
  0.7526290646917673  0.2502224976928744  0.4069159048541877
  0.6693486992432653  0.3297969693613894  0.4870562652270181
  0.5725796179401996  0.4062664484127012  0.5703425682908829
  0.4871369472129956  0.5094174944629017  0.6709389055001864
  0.4168503248431179  0.6132261577150260  0.7432873348098923
  0.3338873246585479  0.6729272296050226  0.8434699280177185
  0.2524463432078292  0.7619031067737154  0.9125359306939842
  0.1621804231266140  0.8467229817275737  0.0015453229974156
  0.1729902906976761  0.8384313325950501  0.1712810146733119
  0.0762886314138029  0.9275833038021375  0.2523136000369135
  0.9980012038575126  0.9970226148947958  0.3393004171280936
  0.9239371327057952  0.0864839336471022  0.4113795625692163
  0.8261354074381657  0.1650528013104449  0.4955767552602452
  0.7320883997785188  0.2284890079365098  0.5735450918235543
  0.6527454485049802  0.3364434330011079  0.6712863888888876
  0.5626740111664787  0.4418357987264656  0.7619264830195647
  0.4917976624215612  0.5252781095422634  0.8469203811369539
  0.4224609108527133  0.5901470062753802  0.9429009007013676
  0.3160914410298972  0.6703090102436349  0.0049307701181220
  0.2491736835548153  0.7672801204318915  0.0723670238095266
  0.2458018281653764  0.7558253400701389  0.2608478852897775
  0.1557788501292023  0.8483310806570685  0.3327844342930959
  0.0985086664820969  0.9127501167404972  0.4185583305647853
  0.0078765051679568  0.0050986927833137  0.5040102048726496
  0.9159950978220763  0.0876928972868214  0.6081936064968616
  0.8147981990586928  0.1806658780915456  0.6839776379660378
  0.7456353792912509  0.2609190222406781  0.7581730038759673
  0.6380183356404601  0.3381624769287583  0.8175910700442941
  0.5791437873754148  0.4328626587301585  0.9087951121262492
  0.5194864534883692  0.5125959311554098  0.9984900387596909
  0.4143355117201892  0.5930215466961997  0.0831490550018472
  0.3210580855481737  0.6669549390919158  0.1701102948504953
  0.3370665545404208  0.6805055984680664  0.3316849815430061
  0.2476409140826874  0.7411259971391644  0.3990894716685105
  0.1608346806939807  0.8289251937984474  0.4914337989110393
  0.0846783245662621  0.8994466915836128  0.5861386106496838
  0.0163121996124005  0.9918613727390166  0.6709237873754148
  0.9256840656146181  0.0912432424326326  0.7451744158361038
  0.8296730864710256  0.1729915208564066  0.8143750166112937
  0.7429361152639373  0.2483945095053528  0.9126896119416728
  0.6634343821520829  0.3205763312107806  0.0188643304724962
  0.5798791763565916  0.4317768812292329  0.0784335229789619
  0.4967669518272402  0.5117562080103326  0.1656160963455164
  0.4118956519933548  0.5900696488556676  0.2437761807862699
  0.4016488708933181  0.5872518890734568  0.4140927782392012
  0.3346694887412340  0.6710983859357711  0.4869848108157981
  0.2549322337578417  0.7533185068290891  0.5673550922849770
  0.1782042400332244  0.8236480421742343  0.6603566459025458
  0.0890276753414554  0.9000896636212659  0.7591460151347391
  0.9766415960686601  0.9824055883167233  0.8281075364525634
  0.9210916149870769  0.0891550738279818  0.9236135912698415
  0.8236623057401289  0.1528867917128096  0.0028054125138439
  0.7406888750461391  0.2292872923588050  0.1043548486526404
  0.6512654360465149  0.3360866255998545  0.1594472600590606
  0.5619831782945752  0.4159181321520862  0.2527902671650040
  0.4957741348283520  0.5116271211701715  0.3406820325765949
  0.0854057502768555  0.0735602334809897  0.9009990845330407
  0.0094695708748631  0.1603153193060152  0.0007471253229951
  0.8971219845884093  0.2367522069951988  0.0869824238648960
  0.8154585460502020  0.3274752690107050  0.1700011637135503
  0.7449603783684040  0.4357958241048365  0.2523558319490604
  0.6687354074381702  0.5126480154115924  0.3265481847545217
  0.5709610035991162  0.5794745178110006  0.4132064788667407
  0.4977463275193799  0.6656452971576243  0.4848202593207844
  0.4134642737172385  0.7585472143779981  0.5688147383720903
  0.3414267875599819  0.8269222023809490  0.6422534159283870
  0.2711664733296431  0.8950312398486560  0.7402642215762256
  0.1671797909745294  0.9980749515503859  0.8085519324474006
  0.1871651541159096  0.0100684122369898  0.9944845062753771
  0.0858085751199695  0.0654793618493912  0.0796971391657451
  0.0000419139904011  0.1655270588778137  0.1658161964747151
  0.9167065688445888  0.2612601208933185  0.2699159671465452
  0.8392681049280171  0.3339073975636779  0.3333356958287226
  0.7547505952380931  0.4222447877445532  0.4012098961794024
  0.6600599312476945  0.5041507747323735  0.5121281266149893
  0.5911243553894394  0.5743935077519353  0.5892886120339611
  0.5055061434108552  0.6930968055555553  0.6682430597083808
  0.4065750849021796  0.7558390143964573  0.7422357212070878
  0.3306568304724991  0.8280615111664815  0.8484856381506063
  0.2468474363233639  0.9367223352713197  0.9175997660575845
  0.2614129323551140  0.9125446973052789  0.0922636208010346
  0.1751044587486135  0.0008724607788864  0.1570814101144364
  0.0707673043558543  0.0598633794758214  0.2376695330380230
  0.0015884071613144  0.1717419329088230  0.3309683979328142
  0.9376403640642295  0.2538876430417147  0.4206125119970494
  0.8122160345145844  0.3332274344776636  0.4974680380214096
  0.7422006206164653  0.4259359772978968  0.5753974635474322
  0.6539430186415629  0.5019922448320386  0.6733745210409765
  0.5775450498338870  0.5870908540974540  0.7510097360649652
  0.5082491292912508  0.6836041454411230  0.8386255495570296
  0.4254318687707652  0.7524698611111091  0.9256287472314497
  0.3298113325950567  0.8494345261166458  0.9927834394610571
  0.3354169716685149  0.8326368706164615  0.1714948062015509
  0.2398882991878892  0.9314259772978986  0.2439290513104453
  0.1690586161867813  0.0124498408084150  0.3382808596345512
  0.0962580749353990  0.1070782410483559  0.4092539876338108
  0.0016966989664056  0.1599510654300502  0.5155125627537842
  0.9100174700073822  0.2586363002953149  0.5797009648394251
  0.8156041071428604  0.3395771682355146  0.6582704586563324
  0.7273589447213027  0.4090030666297508  0.7367147600590656
  0.6772809985234431  0.5111849312476906  0.8264637675341433
  0.5968689544112209  0.5919143429309699  0.9318439031930623
  0.5140281736803232  0.6793760589700995  0.0134556635289798
  0.4127140217792515  0.7684719495201193  0.0800663935031380
  0.4173972374492436  0.7477983854743471  0.2551946004060568
  0.3389703737541510  0.8383550041528238  0.3241201084348475
  0.2426179637320018  0.9233620538021441  0.4209968775378385
  0.1576331270764086  0.0012467571059460  0.5011317344961270
  0.0919253271502427  0.0696457022886676  0.6012184399224836
  0.9957887975267639  0.1766124621631633  0.6741246677740875
  0.9063880315614625  0.2468213842746394  0.7547604849575507
  0.8220656344592072  0.3303947591362117  0.8346623131229265
  0.7315578193060190  0.3972867128091551  0.9092080458656326
  0.6831885986526416  0.4911314497969741  0.9996618636950885
  0.5956275184569932  0.5879854323551115  0.0692153972868184
  0.5030364091915800  0.6734947868217063  0.1629839811738663
  0.4932625955149490  0.6621399580103358  0.3203392857142831
  0.4245269352159440  0.7628879019010668  0.4218035068290860
  0.3253313635105215  0.8418990079365045  0.4982839184200785
  0.2442728096160920  0.9134210871170154  0.5688676347360655
  0.1653991929678824  0.9925004655777059  0.6847005375599835
  0.0673443729235856  0.0798693683093390  0.7562449155592503
  0.9944517977113350  0.1740192783314853  0.8458116117571066
  0.9090226495016580  0.2446342561830903  0.9205289636397183
  0.8201164045773339  0.3340800336840175  0.0122410340531545
  0.7383920810262055  0.4169219066076053  0.1083459154669626
  0.6625787380029564  0.5009803894425957  0.1715881215393154
  0.5909269495201173  0.6062918964562556  0.2618151841085279
  0.1757812255444833  0.1750719352159464  0.8271325825950555
  0.1036388173680294  0.2467315065522300  0.9183394384459191
  0.9974430887781480  0.3277753737541502  0.0071298929494290
  0.8961027916205211  0.4040539705610939  0.0865941449796992
  0.8356418152454808  0.5097024464747122  0.1602304743447789
  0.7533004023624983  0.5950135146733118  0.2576155952380930
  0.6552279951088948  0.6643482881136933  0.3510212647655990
  0.5973870570321154  0.7508193627722406  0.4262378539128804
  0.4979962490771470  0.8353825761351032  0.5029240577703931
  0.4231533808600929  0.9172366136028032  0.5667506925987453
  0.3411843959948300  0.9906319744370649  0.6712159666851250
  0.2501657544296805  0.0640515550018463  0.7526795104282016
  0.2491619153746782  0.0881947808231800  0.8913776379660376
  0.1656095191952716  0.1644807452011818  0.0034600849021800
  0.0904371428571409  0.2481350170727197  0.0885869093761542
  0.9958564424141727  0.3342653008490188  0.1536488953488373
  0.9195376144333736  0.4212430047988178  0.2429431113879659
  0.8517275992063489  0.5129790513104453  0.3113438155223349
  0.7586820833333334  0.5706100636766323  0.4019956533776323
  0.6686008605574045  0.6573130615540776  0.5084826901070514
  0.5876479780361734  0.7464174321705457  0.5856479120524156
  0.5036793341638983  0.8254407673495763  0.6637706399963079
  0.4064897969730552  0.8900232147471385  0.7475044919712062
  0.3430582853451440  0.9876425932078234  0.8217967109634543
  0.3440611987818372  0.9926286221853076  0.9841118484680678
  0.2693377353266868  0.0913156552233261  0.0859142594130660
  0.1681891029900342  0.1586769504429668  0.1710262499999970
  0.0663346077888534  0.2502720311923241  0.2434472655961599
  0.0121360280546341  0.3455216412883004  0.3336988178294575
  0.9117695847176108  0.4264342224990756  0.4050708167220378
  0.8272535889627193  0.5036332507382824  0.5042671622369852
  0.7465191385197514  0.5922085654300488  0.5857590490033218
  0.6702845436507943  0.6544393244739766  0.6707159805278735
  0.6129604512735298  0.7434323468069408  0.7662723971022487
  0.5265297909745286  0.8255083139534918  0.8454044292174245
  0.4379915213178265  0.9002960114433378  0.9039324727759350
  0.4166665070136588  0.9064413561277220  0.0788447005352495
  0.3370111987818376  0.9917310585086767  0.1679352574750865
  0.2556599981543002  0.0818663690476171  0.2618717552602448
  0.1564349210963485  0.1761452399409364  0.3193364318014034
  0.0903279734219282  0.2731771576227402  0.4120944550572148
  0.0103699640088593  0.3477970016611280  0.4981808527131761
  0.9104198749538597  0.4125896451642674  0.5815446880767823
  0.8235085488187508  0.4854924524732382  0.6547726638058293
  0.7407831395348836  0.5727232050572155  0.7334523168143221
  0.6796766763565856  0.6517240111664790  0.8343106021594693
  0.5919052371723907  0.7515445731819881  0.9303766911221842
  0.5180961221853053  0.8332632733481020  0.9947892801771872
  0.5033991574381673  0.8323907036729423  0.1753149930786293
  0.4286288178294555  0.9209984749907747  0.2417670454964949
  0.3372673777224051  0.0070264161129572  0.3478518738464373
  0.2389002897748256  0.1037454300479865  0.4154330204872636
  0.1696522351421166  0.1804871419342930  0.5215191671280905
  0.0963309039313387  0.2553553483757867  0.5921839470284240
  0.0075876245847155  0.3284690351605732  0.6852135520487295
  0.9029661332595040  0.4019983407161334  0.7507724335548147
  0.8074930827796223  0.4863731579918777  0.8333683273348100
  0.7464044970468819  0.5879301001291992  0.9151314225729053
  0.6913045076596518  0.6786036558693240  0.0004587246216303
  0.5916762712255448  0.7555029305094152  0.1000458564045772
  0.5915435345145781  0.7728806404577355  0.2632377297895871
  0.4884871114802536  0.8482789198043577  0.3423097766703549
  0.4140135658914730  0.9133590951458075  0.4280128636028024
  0.3265665314691759  0.0008075978220745  0.5001490923772636
  0.2522891537467729  0.0715257415097810  0.5982678119232219
  0.1616333637873737  0.1675128419158369  0.6817686148025075
  0.0896302081026192  0.2417583001107388  0.7512286544850468
  0.9960714945551885  0.3129883840900689  0.8449954932631982
  0.9069248477297904  0.4196365356220042  0.9213885183647079
  0.8114010598929511  0.4933629480435613  0.9890344416758978
  0.7607804881875211  0.5967652284053173  0.0992186484865272
  0.6622777427094846  0.6698552127168682  0.1671474238648969
  0.2359228105389448  0.2464262993724589  0.7500370279623496
  0.1666058444075276  0.3351471027131794  0.8407266205241797
  0.0827100281469200  0.4118181925987443  0.9096283010335924
  0.9810738136766304  0.4927323712624556  0.0056644190660791
  0.9032806842930938  0.5929660723514232  0.0684326001291993
  0.8372440813030622  0.6712380301771859  0.1775205283314847
  0.7435488187523092  0.7507862726098224  0.2527906026208910
  0.6796366417497239  0.8176424077150273  0.3391399557032102
  0.5958842118863075  0.8941108891657450  0.4148735691214469
  0.5068098721853076  0.9972316076042844  0.5007527477851639
  0.4149836134182365  0.0840435026762663  0.5846933720930210
  0.3306936235695801  0.1638403433001088  0.6641623712624565
  0.3329393401624188  0.1664246894610528  0.8187875609080848
  0.2477536148025123  0.2383343198597245  0.9154693720007359
  0.1707341934293112  0.3299472762089337  0.0037683480989301
  0.0800057899593938  0.4102150627537853  0.0861354531192333
  0.9939016869693589  0.4977296225544450  0.1612278534514573
  0.9250498417312656  0.5846784565337728  0.2532694813584371
  0.8390840840716152  0.6690162989110391  0.3347327177925408
  0.7460873237356935  0.7555461231081608  0.4298387758397908
  0.6650674880029541  0.8366219744370582  0.4952253160760449
  0.5936318863049124  0.9237197508305641  0.5957955550941278
  0.4939680407899587  0.9812767667958653  0.6754260340531530
  0.4182977717792511  0.0873734634551511  0.7537697863602801
  0.4259003585271302  0.0797578326873349  0.8935886863233691
  0.3442496511627908  0.1529982959579215  0.9809626356589121
  0.2575407152085631  0.2414421391657413  0.0837431146179384
  0.1587110594315249  0.3259385746585437  0.1646219596714644
  0.0803581399963065  0.4161197111480277  0.2487821373200418
  0.0056225350682908  0.4960377583979323  0.3142232844222974
  0.9205524690845337  0.5775483522517533  0.4074259426910274
  0.8413200779808037  0.6587491602067175  0.4895526010520470
  0.7626276850313758  0.7399474386304874  0.5666838810446677
  0.6787972623661886  0.8256425433739381  0.6779787670727231
  0.5927025253783711  0.9044921723883377  0.7390632281284581
  0.4872396783868567  0.9902566292912525  0.8134230043373947
  0.5086200890550003  0.9826298698781812  0.0144981847545225
  0.4262614202657815  0.0644506155407925  0.0886792183462504
  0.3270971926910278  0.1516761166482112  0.1810511844776670
  0.2572722886674015  0.2557385377445556  0.2380372369878216
  0.1719616722037642  0.3438470588778131  0.3200498491140635
  0.0775272983573245  0.4133089714839429  0.4174830117201935
  0.9906039308785495  0.4945070948689576  0.4967646470099680
  0.9129958527131805  0.5638554771133286  0.5817971036360277
  0.8283137767626414  0.6769156469176849  0.6582452505537120
  0.7520555943152445  0.7333716597452948  0.7522188999630828
  0.6744029909560751  0.8243479918789234  0.8253108061092647
  0.5839644610557428  0.9183246327057972  0.9081818959948293
  0.5928456644518292  0.9198471073274277  0.0881923666482081
  0.4830307558139566  0.9938562430786249  0.1630415448505005
  0.4285492695644137  0.0674186757105915  0.2491678050018464
  0.3296858328719097  0.1629700821336257  0.3268521899224837
  0.2643128580657077  0.2437442026578083  0.4084996659283888
  0.1722835317460323  0.3332759108527128  0.5086704877260999
  0.1035735442045009  0.4202361434108539  0.5949915434662216
  0.9914069827427099  0.4915473145072013  0.6627034413067534
  0.8932250216869662  0.5807635626614953  0.7348278368401608
  0.8419525410668172  0.6603381399963055  0.8303736909376127
  0.7683367058877835  0.7513017418789190  0.9018918078626825
  0.6705211152639379  0.8397077344038379  0.0069852570136604
  0.6589172033038011  0.8533211498708013  0.1890030749353997
  0.5816973468069406  0.9169575124584739  0.2736601665743805
  0.4923068415466929  0.9952706921373178  0.3407685372831324
  0.4136574815430052  0.0771751559616121  0.4353084057770360
  0.3209062643041705  0.1700949049464739  0.5119327464008876
  0.2607672231450735  0.2699822254521962  0.5896358328719060
  0.1616860741971209  0.3429288238279824  0.6855911770948708
  0.0821722374492424  0.4305456118493893  0.7597491057585799
  0.0031930698597264  0.5214357507382772  0.8305507834994472
  0.8998573246585480  0.5751063072166858  0.9243617414174992
  0.8265812938353605  0.6820132798080465  0.0089592815614594
  0.7432823246585443  0.7680490794573629  0.1121522951273519
  0.3239502150239915  0.3459855052602450  0.6782867774086370
  0.2449725166112984  0.4216777653193091  0.7615330361757131
  0.1711283254891072  0.4969001504245085  0.8266877823920282
  0.0761282239756369  0.5816873269656710  0.9205143318567721
  0.9932155011074215  0.6831830020302689  0.9803325729051338
  0.9241703220745663  0.7636362038575086  0.0940890803802148
  0.8414749677002575  0.8492772577519361  0.1900588307493507
  0.7540979752676265  0.9107558822443735  0.2566533647102247
  0.6537308236434143  0.0069979314322595  0.3378332092100393
  0.5782396751568868  0.0908196894610569  0.4036532779623485
  0.5046059334625355  0.1815291546696187  0.4946446903839075
  0.4046011660206688  0.2663032332041340  0.5864244342931002
  0.4221175207641181  0.2490115083979347  0.7533929964931687
  0.3356742257290506  0.3310324247877432  0.8397363667404960
  0.2622435774270926  0.4070346673126579  0.9129210834256156
  0.1630478779069762  0.4831105860095946  0.9911956132336641
  0.0939477237910680  0.5872925752122526  0.0705118027870029
  0.9945370510335891  0.6745309426910282  0.1532701005906247
  0.9232064848652612  0.7561697102251728  0.2588869716685096
  0.8319977570136601  0.8365488925802893  0.3398552570136602
  0.7553021350129185  0.9163615762273878  0.4209528271502379
  0.6444196419342916  0.0076117035806575  0.4936956935215946
  0.5874631838316731  0.0803872360649720  0.5947300198412719
  0.4882666652823886  0.1665565979143580  0.6634065873015871
  0.5047097711332569  0.1589132133628652  0.8220669218346259
  0.4367655227943885  0.2300171696197850  0.9080567727943887
  0.3312091315983778  0.3291460741971193  0.9988700143041740
  0.2595777777777784  0.4009413058324114  0.0773874801587269
  0.1660848103543771  0.4876686572536002  0.1577598652639338
  0.0946514193429309  0.5861446608527103  0.2203996917681792
  0.0055202990033223  0.6588695104282039  0.3201872886674053
  0.9200832641196044  0.7434025770579566  0.4025386918604639
  0.8474339345699491  0.8392553193060195  0.4970560889627151
  0.7347871363971947  0.9111278765226984  0.5865691417497203
  0.6628196622369842  0.9978769019933580  0.6713219587486137
  0.5835558222591359  0.0794312144702829  0.7329158462532277
  0.5825853054632688  0.0732647785160552  0.9033941066814322
  0.5085911766334448  0.1572298038944240  0.9974996137873759
  0.4120688644333725  0.2446925715208579  0.0752610931155431
  0.3330674137135503  0.3440391597452930  0.1372021419342957
  0.2504028146917676  0.4172079595791800  0.2355769887412293
  0.1675648320413430  0.4949244670542612  0.3411587744555220
  0.0852147356035431  0.5798785755813967  0.4160974446290169
  0.9941159500738266  0.6590064834809866  0.4883999367847878
  0.9266365748431156  0.7394538667404973  0.5882627311738631
  0.8357064899409394  0.8359793987633779  0.6688158314876347
  0.7487791638981207  0.9058082978036168  0.7644260488187555
  0.6675676250461393  0.0011801864156524  0.8222346377814702
  0.6605549187892237  0.0059213828903637  0.0021929171280917
  0.5769064036544833  0.0749675193798467  0.0914939700996698
  0.4934740550018475  0.1625220731819894  0.1564925655223348
  0.3991824547803589  0.2579017400332191  0.2262819896640806
  0.3229916311369507  0.3327123491140611  0.3394465037836838
  0.2463803391472865  0.4122531819859745  0.4097720238095235
  0.1786027044112188  0.4954682950350673  0.4987267358803962
  0.0851467995570303  0.5675677284053151  0.5860777819306051
  0.9921495399593923  0.6485988990402376  0.6654141869693646
  0.9188964248800318  0.7494877076411939  0.7460716735880411
  0.8392800696751550  0.8244245810262072  0.8370780878552964
  0.7531141648209640  0.9129819306016955  0.9147508351790350
  0.7524186267995603  0.9217097346806966  0.1004774746216341
  0.6745259680693962  0.0034180297157604  0.1820576961055735
  0.5730775332225946  0.0672621931524517  0.2570383134920604
  0.4744905537098560  0.1721666805094131  0.3422092021963792
  0.3977618406238435  0.2454394772056077  0.4259944472129931
  0.3391878917497237  0.3406047822074569  0.4987694522886699
  0.2638964544112241  0.4191214368770773  0.5936376190476196
  0.1735970330380212  0.5073813455149505  0.6647188948874145
  0.0922641080657058  0.5690708803986695  0.7386939502583942
  0.9949118826135077  0.6555998629568123  0.8211609606865977
  0.9142056999815438  0.7599181279992635  0.9131671903839020
  0.8288387822997407  0.8320734403839083  0.0110044633628661
  0.4302206183093418  0.4129772918973771  0.5982454517349609
  0.3532037712255445  0.5083447914359525  0.6639501951827214
  0.2468573537283163  0.5802105827796211  0.7483130772425284
  0.1790258785529701  0.6778102214839450  0.8398499326319708
  0.0764562177002617  0.7649348366555913  0.9108183896271669
  0.9996613851974914  0.8275002136397163  0.0036453889811767
  0.9107917806386112  0.9081861434108518  0.0908029000553725
  0.8298681944444439  0.9959172037652237  0.1800700046142509
  0.7493164756367676  0.0881408970099642  0.2643248154300508
  0.6611442386489443  0.1646123255813947  0.3322481413805818
  0.5802499866186750  0.2537831556847578  0.4046950244555205
  0.4944076910298989  0.3344901471945363  0.4858940909929856
  0.5096542155777044  0.3215998481912123  0.6716030057216713
  0.4136597254521988  0.4164783328719111  0.7667011171096334
  0.3418248385012888  0.5052800249169422  0.8496375719822780
  0.2414637689184218  0.5796156921373168  0.9213463764304137
  0.1717167534145432  0.6824035169804361  0.9942724312476940
  0.0790811913990410  0.7485295805647851  0.0985923431155413
  0.0119458748615742  0.8416957613510547  0.1665851079734253
  0.9100926947212997  0.9270427196382443  0.2659683305647818
  0.8205277320967141  0.0167204438907333  0.3423789705610929
  0.7459467723329638  0.0701234851421191  0.4298093766149904
  0.6616313962716873  0.1617407959579182  0.4921214627168666
  0.5888689027316332  0.2494452057954959  0.5665346188630522
  0.5819383711701747  0.2457943360095953  0.7477184422296048
  0.5006783379475834  0.3216352025655240  0.8477455647840557
  0.4136557295127332  0.4176645888704300  0.9389635695828744
  0.3197386244924303  0.5080368074012540  0.0116675115356202
  0.2469161295681062  0.5884150332225886  0.0756307041343689
  0.1837638316722021  0.6832479577334780  0.1496938035252882
  0.1046020708748614  0.7455020828719086  0.2454827219453648
  0.0120115388519721  0.8385162449243282  0.3359468078626833
  0.9101324649317064  0.9187645173495724  0.4111630993909188
  0.8416180089516416  0.0054859431524577  0.5172289987080134
  0.7334508545588747  0.0876124718530846  0.5884078003875999
  0.6683247153008480  0.1821061918604627  0.6778520090439244
  0.6709079471207104  0.1756414041159076  0.8237478479143618
  0.5954007991878925  0.2530584246954604  0.9063559814507229
  0.5127495685677346  0.3254077044112194  0.9941908725544479
  0.4275275322997416  0.4149364382613498  0.0705437269287543
  0.3329790503875998  0.4993313833517874  0.1609297249907726
  0.2413228852897760  0.5752073057401219  0.2380431423034324
  0.1938112504614224  0.6499664922480619  0.3199721027131801
  0.1028875692137348  0.7352221926910332  0.3996007041343645
  0.0117651075119980  0.8151235645071964  0.4773923592654086
  0.9341269748984899  0.9005979106681465  0.5631282359726839
  0.8354858324104839  0.9949380781653758  0.6604637749169413
  0.7587226684200843  0.0715165933001103  0.7565991588224463
  0.7555716029900310  0.0787989091915833  0.9141152219453659
  0.6561557216685117  0.1554411157253597  0.9969060151347335
  0.5957106344592091  0.2350755149501680  0.0812224732373537
  0.4926169762827612  0.3303319043004791  0.1449480366371390
  0.4022440785345154  0.4190091362126225  0.2439507069029148
  0.3224881722960475  0.5001365729974125  0.3110135469730508
  0.2652688372093053  0.5663760903469921  0.4179711281838294
  0.1758693627722394  0.6501777376338111  0.4832329688076769
  0.0909419116832808  0.7300534186969330  0.5712261314138090
  0.0095671170173475  0.8116365697674439  0.6733575189184222
  0.9245129420450340  0.9054344379844963  0.7454773301956408
  0.8448813524363246  0.9976725622923581  0.8422459819121428
  0.8289467681801383  0.0109116929678876  0.0003113875046168
  0.7402667474160225  0.0853109616094514  0.0951570118124749
  0.6470712167774053  0.1597639728682196  0.1899293526208936
  0.5587655477113316  0.2454031667589547  0.2536543696936135
  0.4842451162790695  0.3216877436323387  0.3229259800664437
  0.4245330274086356  0.4248929180509435  0.3958771806939865
  0.3497765065522316  0.4995643124769273  0.5071864936323394
  0.2755448145071995  0.5871971442414150  0.5975729715762270
  0.1759904023624941  0.6680365983757852  0.6632279365079370
  0.0940166251384298  0.7422203912882992  0.7440935557401289
  0.9876457479697294  0.8308139954780387  0.8404418913805856
  0.9050327796234754  0.9101944015319319  0.9240060617386519
 
  0.00000000E+00  0.00000000E+00  0.00000000E+00
  0.00000000E+00  0.00000000E+00  0.00000000E+00
  0.00000000E+00  0.00000000E+00  0.00000000E+00
  0.00000000E+00  0.00000000E+00  0.00000000E+00
  0.00000000E+00  0.00000000E+00  0.00000000E+00
  0.00000000E+00  0.00000000E+00  0.00000000E+00
  0.00000000E+00  0.00000000E+00  0.00000000E+00
  0.00000000E+00  0.00000000E+00  0.00000000E+00
  0.00000000E+00  0.00000000E+00  0.00000000E+00
  0.00000000E+00  0.00000000E+00  0.00000000E+00
  0.00000000E+00  0.00000000E+00  0.00000000E+00
  0.00000000E+00  0.00000000E+00  0.00000000E+00
  0.00000000E+00  0.00000000E+00  0.00000000E+00
  0.00000000E+00  0.00000000E+00  0.00000000E+00
  0.00000000E+00  0.00000000E+00  0.00000000E+00
  0.00000000E+00  0.00000000E+00  0.00000000E+00
  0.00000000E+00  0.00000000E+00  0.00000000E+00
  0.00000000E+00  0.00000000E+00  0.00000000E+00
  0.00000000E+00  0.00000000E+00  0.00000000E+00
  0.00000000E+00  0.00000000E+00  0.00000000E+00
  0.00000000E+00  0.00000000E+00  0.00000000E+00
  0.00000000E+00  0.00000000E+00  0.00000000E+00
  0.00000000E+00  0.00000000E+00  0.00000000E+00
  0.00000000E+00  0.00000000E+00  0.00000000E+00
  0.00000000E+00  0.00000000E+00  0.00000000E+00
  0.00000000E+00  0.00000000E+00  0.00000000E+00
  0.00000000E+00  0.00000000E+00  0.00000000E+00
  0.00000000E+00  0.00000000E+00  0.00000000E+00
  0.00000000E+00  0.00000000E+00  0.00000000E+00
  0.00000000E+00  0.00000000E+00  0.00000000E+00
  0.00000000E+00  0.00000000E+00  0.00000000E+00
  0.00000000E+00  0.00000000E+00  0.00000000E+00
  0.00000000E+00  0.00000000E+00  0.00000000E+00
  0.00000000E+00  0.00000000E+00  0.00000000E+00
  0.00000000E+00  0.00000000E+00  0.00000000E+00
  0.00000000E+00  0.00000000E+00  0.00000000E+00
  0.00000000E+00  0.00000000E+00  0.00000000E+00
  0.00000000E+00  0.00000000E+00  0.00000000E+00
  0.00000000E+00  0.00000000E+00  0.00000000E+00
  0.00000000E+00  0.00000000E+00  0.00000000E+00
  0.00000000E+00  0.00000000E+00  0.00000000E+00
  0.00000000E+00  0.00000000E+00  0.00000000E+00
  0.00000000E+00  0.00000000E+00  0.00000000E+00
  0.00000000E+00  0.00000000E+00  0.00000000E+00
  0.00000000E+00  0.00000000E+00  0.00000000E+00
  0.00000000E+00  0.00000000E+00  0.00000000E+00
  0.00000000E+00  0.00000000E+00  0.00000000E+00
  0.00000000E+00  0.00000000E+00  0.00000000E+00
  0.00000000E+00  0.00000000E+00  0.00000000E+00
  0.00000000E+00  0.00000000E+00  0.00000000E+00
  0.00000000E+00  0.00000000E+00  0.00000000E+00
  0.00000000E+00  0.00000000E+00  0.00000000E+00
  0.00000000E+00  0.00000000E+00  0.00000000E+00
  0.00000000E+00  0.00000000E+00  0.00000000E+00
  0.00000000E+00  0.00000000E+00  0.00000000E+00
  0.00000000E+00  0.00000000E+00  0.00000000E+00
  0.00000000E+00  0.00000000E+00  0.00000000E+00
  0.00000000E+00  0.00000000E+00  0.00000000E+00
  0.00000000E+00  0.00000000E+00  0.00000000E+00
  0.00000000E+00  0.00000000E+00  0.00000000E+00
  0.00000000E+00  0.00000000E+00  0.00000000E+00
  0.00000000E+00  0.00000000E+00  0.00000000E+00
  0.00000000E+00  0.00000000E+00  0.00000000E+00
  0.00000000E+00  0.00000000E+00  0.00000000E+00
  0.00000000E+00  0.00000000E+00  0.00000000E+00
  0.00000000E+00  0.00000000E+00  0.00000000E+00
  0.00000000E+00  0.00000000E+00  0.00000000E+00
  0.00000000E+00  0.00000000E+00  0.00000000E+00