Li 
 1.0000000000000000
    21.6720000000000006    0.0000000000000000    0.0000000000000000
     0.0000000000000000   21.6720000000000006    0.0000000000000000
     0.0000000000000000    0.0000000000000000   21.6720000000000006
 Li 
 432
Cartesian
 -0.3260062600000000 -0.0824610000000000  0.2259799700000000
 19.4642136599999986  2.0301347600000001  1.7826016800000000
 17.7738461600000015  3.5805840199999999  4.1457649400000003
 15.9823259499999999  5.4086174500000004  5.4252836599999998
 14.3928799600000001  7.3774223799999996  7.3140387999999996
 12.5232749499999994  9.2500470700000008  9.1095130100000006
 10.4838828799999995 11.3896168800000002 10.9202417999999994
  9.3362016099999998 13.3186001500000000 12.6366289599999995
  7.3864844900000000 14.5857116500000004 14.3059174599999999
  5.8139308400000003 16.3595749999999995 15.9026411000000003
  4.1126966600000001 18.0702881300000016 18.0505591400000007
  1.7298735900000000 19.9191342899999988 20.0243905200000007
  1.8640519700000000 19.9405476800000017  1.7502682700000001
 -0.2993277600000000  0.0292801600000000  3.2310032299999998
 19.7124164200000003  1.8426801500000001  5.5688540399999997
 17.9334910500000007  3.5068570000000001  7.5267002400000003
 16.3109770900000015  5.4228219700000002  8.8186814899999995
 14.5061250099999999  7.1473599200000004 10.5554833800000001
 12.4089454799999999  8.8046064699999995 12.3604641399999995
 10.5572319199999995 11.0400959400000005 14.5405879599999999
  9.0339802400000000 13.2898372899999995 16.1085231200000010
  7.2360061000000000 14.5836789200000005 18.2796802800000009
  5.4710171499999998 16.5119641299999991 19.7764786900000011
  3.5147741300000002 18.3501804600000007  0.0334902400000000
  3.7490455800000002 18.1704838399999993  3.7120021500000000
  1.6533272200000000 20.1025853599999991  5.4681403399999997
 -0.0433179100000000 -0.0645258900000000  7.3533186400000004
 20.0235655399999999  1.8742798100000000  8.9154178799999997
 17.9040065499999983  3.5770243100000001 10.7401394400000001
 15.8658198000000006  4.9518137800000002 12.4298692299999995
 14.1462993600000004  7.2914020800000001 14.5481186200000003
 12.1942711700000004  9.5754654299999995 16.5124707400000013
 10.6582389400000004 11.3838271899999999 18.3544584999999998
  9.1555728599999995 12.7896659199999991 20.4345483200000011
  6.8503337100000001 14.5269368700000001 21.7788596500000011
  5.4000920700000004 16.6284947699999996  1.5683381400000000
  5.3270172200000001 16.3802467699999994  5.6530953700000000
  3.3760392399999999 18.3850311799999986  7.2121042600000003
  2.1348798200000001 19.7811205299999990  9.0709961400000001
  0.1706996200000000  0.1104988700000000 10.9229091599999997
 19.8514457600000007  1.9004804700000000 13.1807718400000002
 17.6583065700000006  3.9153909100000002 14.8231633699999996
 16.1594099399999998  5.6546370499999998 16.4311253400000012
 13.8271333700000003  7.3286572000000003 17.7188336699999986
 12.5512041599999993  9.3809995399999995 19.6954076700000016
 11.2583104200000008 11.1089790199999996 -0.0327238800000000
  8.9794792099999992 12.8519629599999998  1.8020063200000001
  6.9579708299999998 14.4542474399999996  3.6866303100000000
  7.3049063700000003 14.7479173299999999  7.1882769199999998
  5.3668738899999999 16.0616826099999983  8.6490670299999994
  3.4856091999999999 17.9644668000000003 10.6503532900000000
  1.8351486500000000 19.4928087000000012 12.7027959700000004
  0.3535179900000000 -0.1763803300000000 14.5402603199999998
 20.0614250699999985  1.9774235499999999 16.1494199400000014
 17.9806751300000016  3.7490722399999998 17.6491353599999989
 16.1009114900000014  5.3832058099999998 19.7798092700000012
 14.3779499299999998  6.9475302499999998  0.4088277700000000
 12.5671415100000008  9.3574685700000000  1.6998113100000001
 10.7659333799999999 11.0907805400000008  3.5892320400000002
  8.9266025700000000 12.7879894299999997  5.2831173900000001
  8.7045343299999995 12.7269229399999997  8.9742186900000007
  7.2529571600000002 14.5440442200000000 10.5539348200000003
  5.5248913699999997 16.3259186800000009 12.2957195600000002
  3.8620422900000002 17.8501003699999998 14.3112492299999996
  1.9294077800000000 19.5067431900000017 16.4522124400000003
 -0.5062233300000000 -0.3813060900000000 17.9467465299999986
 19.9618974800000011  1.9321687599999999 20.0165537499999999
 17.8504094900000005  3.3133625499999999 21.7327988999999988
 16.0522093000000012  4.9691141999999999  2.2615782800000002
 14.1142245299999995  7.2836693500000003  3.4555410200000001
 12.1792994399999994  9.0137777600000000  5.4784706700000001
 10.7444170499999991 11.0879829700000005  7.3832610100000000
  1.8509134199999999  1.5941973800000000 19.5264521600000016
  0.2052245400000000  3.4743536000000002  0.0161917000000000
 19.4424276499999991  5.1308938299999998  1.8850830900000000
 17.6726176099999996  7.0970440300000002  3.6842652199999999
 16.1447813199999999  9.4445671000000004  5.4690555900000000
 14.4928337500000008 11.1101077900000007  7.0769522599999997
 12.3738668700000005 12.5583717499999992  8.9550108099999992
 10.7871584100000000 14.4258648800000007 10.5070246600000008
  8.9605977400000008 16.4392352300000013 12.3273530099999995
  7.3994013399999998 17.9210579699999997 13.9189160300000001
  5.8767198100000000 19.3971170300000004 16.0430062100000015
  3.6231204300000002 -0.0417196500000000 17.5229374799999995
  4.0562432199999998  0.2182026300000000 -0.1195317800000000
  1.8596434399999999  1.4190687300000000  1.7271964000000000
  0.0009083600000000  3.5873024199999999  3.5935686100000002
 19.8668647599999986  5.6620293400000001  5.8496188399999998
 18.1886183700000004  7.2364411200000003  7.2240511999999999
 16.3569549000000016  9.1508890399999991  8.6950208700000005
 14.3048188300000003 10.9259555899999992 11.0988407599999999
 12.8108470299999997 12.4482561000000000 12.7710627999999993
 10.9553291399999999 15.0207939699999997 14.4821635900000008
  8.8112952399999998 16.3805431199999987 16.0857325499999995
  7.1659948299999998 17.9457490700000015 18.3883807499999996
  5.3496776400000003 20.3006464499999986 19.8862221300000002
  5.6653410700000002 19.7766686800000002  1.9995371900000001
  3.7948638300000002  0.0189079700000000  3.4042683199999999
  1.5336690200000000  1.2973591600000001  5.1507741200000003
  0.0344239600000000  3.7219911699999999  7.1727471200000004
 20.3205419700000007  5.5022529999999996  9.1155143600000006
 17.6023458999999995  7.2217049600000003 10.7811273199999995
 16.0849718499999987  9.2308845000000002 12.4700138299999992
 14.1722531000000007 10.8791759300000006 14.5933726200000002
 12.5165563199999994 12.7234329899999992 16.2758830000000003
 11.0147751300000003 14.8150690399999991 18.1746929100000010
  9.2199594600000001 16.3075268300000005 20.0602262099999997
  7.1476711999999996 18.4089450499999998 21.5156026999999987
  7.2691566099999996 18.0449062600000012  3.7166354400000001
  5.1988592200000001 20.1858637799999983  5.2864304000000004
  3.6638383299999999  0.2698129500000000  7.3312227900000000
  2.0861049999999999  2.3205996400000002  8.8693524200000002
  0.0367708600000000  3.4664594900000001 11.1721882600000004
 19.7218986100000002  5.6051659000000003 12.5632793100000004
 17.6757722100000016  7.3593163900000000 14.2660373800000002
 15.7633230500000003  8.8639144600000002 15.9660822800000002
 14.6780337999999997 11.0783998300000004 17.9111227699999986
 12.9353439800000007 12.8279676400000007 20.1949210699999995
 11.1400185799999996 14.7234379499999992 21.9636111400000011
  8.9443382800000002 16.6543240899999994  1.7351988800000000
  9.0458329299999995 16.2062866099999994  5.5305773800000004
  7.3461659399999997 18.1688296499999993  7.0243309900000002
  5.2580165100000000 20.0111024300000011  9.1238443300000007
  3.4162251299999999  0.0270197200000000 10.8605269500000006
  1.9922056900000000  1.5093616599999999 13.0296060300000001
 -0.0912651800000000  3.8275452799999998 14.6096298000000004
 19.6432414199999990  5.3491130399999998 16.3571692300000002
 17.8158064299999985  7.1603152200000002 18.0888016500000006
 15.8543210600000002  8.6099976399999996 19.7043567700000004
 14.8060633100000008 10.6438007799999994 21.6646719099999991
 12.9084395799999996 12.7428202899999992  1.5000360900000000
 10.9018050599999992 14.5959790199999997  3.5321888399999999
 10.6899869699999996 14.3498971700000002  6.9423930000000000
  9.2003477399999998 16.5333066100000003  9.1413256000000001
  7.0505813100000001 18.2456353000000000 10.7988090799999998
  5.2938803300000004 19.7956618000000013 12.3284993800000002
  3.5845313100000000 -0.1625299100000000 14.8388300500000003
  1.4594872500000000  1.7309289500000000 16.3893398099999992
 -0.1202406400000000  3.7713458000000002 18.3304292500000017
 19.7003388599999987  5.3017136000000002 19.9497037000000006
 17.7735627200000010  7.2401824899999996 21.9372876900000016
 16.0024331800000006  9.0355315600000008  2.3480726800000000
 14.3594064100000001 10.8572469999999992  3.7186577700000001
 12.8065688499999997 13.1395579799999993  5.6740586700000000
  3.8095307200000001  3.7941589800000002 17.9256173300000015
  2.2460604499999999  5.3471652100000000 19.9022523100000015
 -0.0554133800000000  7.1035478999999997  0.1545190400000000
 19.4203396999999995  8.7566576499999993  1.8766683099999999
 18.1100294200000000 11.0462714200000001  3.4725148400000001
 16.3255263200000016 12.8951328899999993  5.5830451800000001
 14.2001011100000003 14.3977561000000005  7.6073328499999997
 12.9465722999999997 16.2717572299999986  9.2374267700000008
 10.7925747100000002 18.1044111900000004 10.8993701800000000
  9.1705800699999998 19.8783518900000011 12.2826210099999997
  7.3941482299999999 21.4689761499999996 14.5465924300000005
  5.4215922299999999  1.3881253000000000 16.3120703499999991
  5.3998370299999996  1.9113572900000000 19.3179361699999994
  3.5890895000000000  3.5646267100000002  0.0749869600000000
  1.9599537600000001  5.3775820899999998  1.9198554999999999
 -0.0897991800000000  7.2441975999999997  3.3298788600000000
 19.9282191799999993  9.1291784000000007  5.2650631099999998
 18.4586405300000003 11.1172819999999994  6.7474431700000004
 16.4421581100000012 12.3662612999999997  8.7120498000000008
 14.4899178499999994 14.2452886700000008 11.0198368599999998
 12.7355069800000003 16.1763585899999995 12.6921615499999998
 10.9157385300000005 17.8889523100000005 14.3852373100000008
  8.8094468799999994 19.2885831100000011 16.1999173499999998
  7.4347591599999996 21.4041902800000017 17.8099783199999990
  7.4564943000000001 -0.1597525000000000 -0.3443280200000000
  5.8370873999999997  1.9789928800000001  1.8619338299999999
  3.6449942399999999  3.4388468699999999  3.7064808899999999
  1.4376036200000000  5.4238954599999998  5.2759891400000001
  0.2630120000000000  7.4881450100000002  7.2319207800000003
 19.7598704400000003  9.2416824700000006  8.7786947400000006
 17.9282397799999984 10.9147398100000004 10.9284779400000005
 16.1785627699999992 12.8343440300000005 12.6945701100000008
 14.5264066300000003 14.1830090400000000 14.5357567299999992
 13.2840789000000008 16.1116658199999989 16.6066553900000002
 11.4109536299999998 17.8904161799999990 18.3216047899999985
  9.4921522500000002 19.5112151599999990 19.5900245499999990
  9.0299965400000008 19.6443970700000001  1.7087223499999999
  7.3037067000000002 -0.1792045000000000  3.6394929000000000
  5.5406634800000001  1.7742079500000001  5.6752846799999999
  3.3902576099999999  3.8174196399999998  6.9206591499999996
  1.9575878400000000  5.9202953599999999  8.9309110300000007
  0.2247378600000000  7.5374566200000004 10.7965754399999998
 19.7306195299999985  8.9416427899999995 12.6032364799999996
 17.8470772699999998 10.5215924300000001 14.1902331700000008
 16.0542522000000005 12.4120573000000007 15.8953786099999999
 14.7299529299999996 14.1241627699999999 18.0811793700000010
 12.8277702999999992 16.2874739899999987 20.1631236499999993
 11.2281791599999998 18.0584816600000018 21.5590732799999998
 10.9096665399999999 18.0395713300000011  3.7994265299999999
  9.2892437399999999 19.9598789500000002  5.2395754099999996
  7.3092586099999997  0.1522764900000000  7.5386458100000002
  5.1774470800000003  2.2483709599999999  9.0032644200000007
  3.6767032400000002  3.9115173400000001 11.3023633900000000
  2.0876833499999998  5.5340611099999997 12.8338105000000002
  0.1644390000000000  7.1185809300000003 14.8499481000000007
 19.5690820400000014  8.7121080400000004 16.2707401800000007
 17.4999900900000007 10.5406790800000003 18.0607583900000002
 16.1760782600000006 12.7416211300000004 19.8327281900000010
 14.9819512899999996 14.7066984299999994 21.6819414799999990
 12.8228081500000002 16.3732595100000005  2.1681938000000001
 12.8199314799999993 16.7498692399999989  5.7048880799999999
 10.5864926799999992 18.3839007499999987  7.4185374800000004
  8.9725020000000004 19.7943183100000013  9.2758947799999998
  7.0773498699999999  0.0175022600000000 10.8392311299999999
  5.4676105399999999  1.5501058700000001 12.9656600199999996
  3.5029182600000000  3.6303383100000000 14.7752894200000000
  1.9424658699999999  5.2393858800000004 16.2806274000000002
 -0.0851385700000000  6.7830842599999999 18.3127423299999990
 19.6548753000000005  9.0943629999999995 19.9683319700000013
 17.5846837700000016 10.6921618100000000 21.4343544199999982
 16.4876347400000007 12.9330960299999997  2.1502665500000000
 14.3528832400000006 14.5171021699999994  3.6224189700000000
  5.1129191499999997  5.3405507600000002 16.2548024700000013
  3.6106818600000001  7.2633080100000003 18.2202273199999993
  1.7924917300000001  8.9249238700000006 19.7134645400000004
 -0.4101683100000000 10.6784959500000003  0.1227592900000000
 19.5758989899999989 12.8507607200000002  1.4830713099999999
 18.1447537300000015 14.5470705900000006  3.8472248900000001
 16.1141900000000007 16.2710401000000005  5.4784779400000003
 14.7290852999999995 17.7199462600000004  7.3498411199999998
 12.9140026399999996 19.3771711899999985  8.9911399900000006
 10.9835835500000005 -0.0599966000000000 10.8523135499999999
  8.9935248699999999  1.8213907899999999 12.6714747600000006
  7.1667922099999997  3.5507479200000001 14.3937269099999998
  7.2154613799999998  3.6067558700000002 17.7447640200000016
  5.3693163400000001  5.1651813799999999 19.8400522300000013
  3.7001514400000000  7.1506173700000000  0.0816676400000000
  1.7338854800000001  8.8901808399999993  1.8667275400000001
 -0.1321626400000000 10.7867963800000002  3.4941300399999999
 20.0476801699999996 12.6711515099999996  5.4888561999999999
 18.1846302699999995 14.4989212300000005  7.2543274599999998
 16.1692044800000012 16.3741955799999985  9.3154659500000001
 14.4133426000000000 18.1312714300000017 10.7325230499999993
 12.8651902400000004 20.0188544399999984 12.9120812699999998
 10.7052753799999998 21.2662300900000005 14.6378330099999996
  9.0653493100000002  1.8935576999999999 16.3356988100000002
  9.2301125699999993  1.7285117500000000 19.3658540099999996
  7.4605784399999999  3.3157790700000001 -0.4125777600000000
  5.5814223800000002  5.2325340400000000  1.8148807800000000
  3.4395860800000002  7.0637407899999998  3.5676871100000001
  1.7415216099999999  9.0181463799999992  5.3916064800000001
  0.1218515800000000 10.7501303000000004  6.8098470200000003
 19.9502131100000000 12.5166278900000005  8.8297350300000002
 18.2330887299999986 14.2764118000000000 10.6095839699999992
 16.5276671899999990 16.0361408899999986 12.2811730699999995
 14.7108942700000007 17.8933251999999996 14.6931558399999993
 12.8450491299999996 19.6021543600000001 16.0169782800000000
 10.5594583100000001 -0.2111583300000000 17.6285033499999990
 11.0228145699999995 -0.3764454600000000  0.3142046600000000
  9.2379374999999992  1.3967737400000000  1.9218560200000001
  7.0888503600000004  3.2871248000000000  3.9237412699999998
  5.5756050400000001  5.5423655900000002  5.1587430000000003
  3.7267533600000000  7.4518534599999997  6.9361203299999996
  1.6801716099999999  8.9572320300000001  9.0476918299999998
 -0.2036316100000000 10.7169577599999997 10.7658834300000006
 19.7864461200000008 12.2198758999999999 12.6087068299999991
 17.9512161699999986 14.6701159000000008 14.2654910699999995
 16.2985488399999987 15.8936306100000007 16.3020880000000012
 14.6156616199999991 17.8652696800000008 17.8861357900000009
 12.6556777999999994 19.9019314399999985 19.6821180499999997
 12.8481512400000000 19.9349265100000004  1.9113049700000000
 10.4682425400000003 -0.1331475000000000  3.5334363600000001
  9.2875197699999994  1.4610975399999999  5.3999646700000001
  7.1449513700000002  3.5318876200000000  7.0835406599999997
  5.7281882599999996  5.2824243600000003  8.8530047599999993
  3.7337286999999999  7.2227555399999996 11.0239068099999997
  2.2446458499999999  9.1073576999999997 12.8946567299999995
 -0.1862278700000000 10.6528133999999994 14.3621089800000004
 19.3579726699999988 12.5863079300000003 15.9251888800000003
 18.2467954699999986 14.3108481699999999 17.9958586300000007
 16.6513930899999991 16.2822113500000007 19.5457992599999990
 14.5315336100000003 18.1981460199999994  0.1513844900000000
 14.2800536299999994 18.4931759599999985  4.0960746400000003
 12.6065448999999994 19.8723032099999983  5.9307631299999999
 10.6692738699999996 -0.1024935600000000  7.3851357399999999
  8.9647849399999995  1.6725399800000000  9.4340037700000003
  6.9546805599999999  3.6862967800000002 11.0946064799999995
  5.6513472599999997  5.8510547900000001 12.7785877699999997
  3.5040605999999999  7.4319534699999998 14.8581319900000004
  1.7808367300000001  9.3307845000000000 16.4652826200000000
  0.0692002100000000 11.3005555900000001 17.9996965799999984
 19.5017079399999993 12.4637038899999997 20.0327676600000011
 17.9136698000000010 14.7805917999999998  0.1941655500000000
 16.1084145399999983 16.6451596500000001  2.4305645400000002
  7.0206490600000002  7.4981978700000003 14.6998310399999994
  5.3090443799999996  9.1386005299999997 16.5039439600000009
  3.7086930699999998 10.7688200599999995 17.9159776199999996
  1.6498508700000001 12.6063277500000002 19.9493866000000004
 -0.1470336600000000 14.8059420199999998 -0.4262324800000000
 20.0286192199999995 16.5495238100000002  2.0390985499999998
 18.2364454999999985 18.4055367300000015  4.1189549799999998
 16.3428113199999991 19.7379014800000014  5.5621917200000004
 14.1676544100000008  0.1516591700000000  7.3215213099999996
 12.5316102399999991  1.9682443100000000  8.7479738400000002
 10.9358197900000000  3.9340998400000000 10.7199397300000001
  8.7685164699999998  5.7713236700000001 12.7089903399999997
  9.1481309100000008  5.3965774099999999 16.3275330200000006
  7.2747318200000004  7.1741347099999997 18.1987665400000012
  5.6833428100000001  8.8212553099999997 19.7848257200000006
  3.5335736099999999 10.4699726200000001 -0.1908086700000000
  2.0360350700000001 12.7278046899999993  1.5281317900000000
 -0.1183930300000000 14.6184345899999997  3.3216696200000002
 20.0077309399999983 16.3877099599999987  5.6105984500000003
 18.0310553899999988 18.1296876000000005  7.3653431300000003
 16.3689078700000010 19.8593880799999987  9.1228896699999993
 13.9658624800000002  0.1649608400000000 10.6993730700000000
 12.7315021200000000  1.7421521799999999 12.8889889899999996
 10.5817151700000007  3.6096145900000001 14.3773475600000005
 10.9380701600000005  3.4439671600000001 17.8158343300000013
  9.4655824099999997  4.9849321000000000 19.6794063799999996
  7.1779643000000002  7.1332537199999999 -0.0244890500000000
  5.6255696000000004  8.6891999799999997  1.6771414700000000
  3.5993900100000000 10.5687551400000004  3.4189718000000000
  2.0512855600000002 12.7029270899999993  4.7765021200000000
  0.1196359200000000 14.2790200299999999  6.9390989200000002
 19.9400444999999991 16.1110206500000004  8.7238185300000008
 18.3655882300000002 18.1883412799999995 10.7721995600000007
 15.9243068200000000 19.7459633399999994 12.7121264400000005
 14.3646277199999997 -0.0460117800000000 14.5488894900000005
 12.6468217799999998  1.7214332800000001 15.8837522199999999
 12.6257887400000008  1.5877942800000000 19.5783570800000000
 11.0221879800000000  3.4074843100000001 -0.0541883700000000
  8.9303564299999998  5.3029774099999996  1.6310584100000001
  7.2182369900000003  7.4560166700000003  2.9734448200000001
  5.4267298000000004  9.0417308999999992  5.1054244999999998
  3.6314650400000001 10.7260030499999992  7.3935929600000003
  1.8467737500000001 12.5671284900000000  9.0176638199999992
 -0.1275191300000000 14.2819885099999997 10.5846034299999996
 20.0820678500000014 16.0254441999999990 12.7488299099999995
 18.1114310500000002 18.1173455300000015 14.4945766999999996
 16.2275420399999994 19.6306774299999987 16.5666413299999995
 14.4675255699999994  0.0255770000000000 17.8194690700000002
 14.3155462000000000  0.1283282100000000  0.0475249000000000
 12.5027155800000003  1.6246960800000001  1.9828573199999999
 10.6945697200000005  3.5221783699999998  3.3915068800000001
  8.6510821599999996  5.5892465099999997  4.9039832800000003
  6.9998746299999999  7.2105420300000000  7.3564846299999997
  5.3395547099999998  8.9343509599999997  8.8805793000000008
  3.8706778100000001 10.7377888899999991 10.8084058200000008
  1.8453014400000001 12.3003278100000006 12.7014776900000008
 -0.1701351700000000 14.0564353400000002 14.4208562600000008
 19.9143233200000012 16.2428975999999992 16.1688653100000010
 18.1888776700000001 17.8669295199999993 18.1411563200000003
 16.3214901800000014 19.7861444000000013 19.8244800999999988
 16.3064164799999993 19.9752933699999993  2.1775478300000000
 14.6183267800000003  0.0740755400000000  3.9455543899999999
 12.4197363000000003  1.4577062500000000  5.5705343300000001
 10.2831592799999996  3.7311963000000001  7.4163578299999999
  8.6202946100000002  5.3191643500000003  9.2321516599999995
  7.3508799900000001  7.3815868399999998 10.8093315699999994
  5.7191639600000004  9.0831997799999993 12.8653144800000003
  3.7621948999999999 10.9959685199999999 14.4057878899999992
  1.9995477500000001 12.3329041200000002 16.0089752899999986
 -0.1102696800000000 14.2081602300000007 17.7962003399999986
 19.8126659300000014 16.4689456700000001 19.7901593499999997
 17.9625940899999996 18.0326956000000003  0.2384887300000000
  9.3237412400000004  8.9500438700000000 12.9651754300000004
  7.6546321300000004 11.0168483199999994 14.3891286300000001
  5.3498925699999997 12.5743237499999996 16.2174410100000017
  3.8798488400000002 14.6895031199999995 18.2012277400000002
  1.6569591500000000 16.5776677799999987 19.7392561399999984
 -0.0073384600000000 17.9335846299999986  0.0790028700000000
 19.7386794700000010 19.6822100999999989  1.9678804500000000
 17.9849035099999988 21.5835176400000002  3.9024771399999998
 16.2391866600000014  1.9101895200000001  5.7284474000000003
 14.3283179399999998  3.5674783200000002  7.2004817200000000
 12.5751777100000002  5.4999885500000003  8.7705505699999993
 10.7148034800000005  7.2490704700000004 10.5302967400000007
 11.0452261600000003  6.9697119100000000 14.5549803400000002
  8.9648335699999997  9.0259184300000008 16.6159466100000017
  7.4080279000000004 10.9504286999999998 18.4133454599999986
  5.2330028000000004 12.5614312800000008 19.9674186700000007
  3.7214454799999999 14.7890490200000002 -0.1241278700000000
  1.7138475799999999 16.2221330700000017  2.1366932599999999
  0.2588910000000000 18.2412305400000001  3.6102324600000002
 19.7235288799999999 20.0908698200000018  5.7640656600000000
 17.7824770100000009 22.0343654600000001  7.4200370500000004
 16.1661584500000011  1.5197161699999999  9.3148288099999998
 14.3388756199999996  3.5052465300000000 10.6652563399999991
 12.7619668599999994  5.4059765000000004 12.2779382600000009
 12.6117683799999991  5.3268548500000001 16.2045540800000012
 10.8507009399999994  6.9704781100000002 18.3723418800000005
  8.9647469700000002  9.0516269699999992 20.3492184800000011
  6.9293754700000001 11.0101736900000002  0.2528583100000000
  5.3511663599999997 12.7521305999999992  1.6390686200000000
  3.9825297599999998 14.8073497399999994  3.2441641099999998
  2.2669360799999998 16.1565211399999988  5.3201015500000004
  0.2603140700000000 18.1723240600000011  7.2806392200000003
 19.7243907800000002 19.9114646200000003  8.9107266900000006
 18.2395454900000011  0.1188913600000000 11.2093868600000004
 15.8953469199999997  1.8987374900000000 12.7519738500000006
 14.4839332299999999  3.9466053900000002 14.6904087400000005
 14.5399170299999998  3.8065005099999998 17.8522633599999985
 12.9035261200000004  5.4842821800000001 19.6425468300000006
 11.1123086499999992  7.0522357700000002 -0.1258954100000000
  9.2653766799999993  8.9925024899999997  1.5288236500000001
  7.2163219800000000 10.8215097399999998  3.4876689999999999
  5.2299495699999996 12.4658927300000002  5.1588709799999997
  4.2002774199999999 14.0860738199999993  6.9344354099999999
  2.2297794000000000 15.9337353600000000  8.6601464600000000
  0.2549734100000000 17.6653578899999992 10.3460472100000000
 20.2443998000000001 19.5177579200000011 12.2041151299999999
 18.1066489600000011 21.5622980300000009 14.3135709299999991
 16.4430376699999989  1.5499076100000000 16.3970169699999992
 16.3747477799999999  1.7077299600000000 19.8107050899999990
 14.2202067999999997  3.3687198600000001 -0.0670528400000000
 12.9102408700000009  5.0945565600000000  1.7602534400000001
 10.6759951100000006  7.1589530300000002  3.1413138500000000
  8.7174336700000001  9.0807660000000006  5.2868997200000001
  6.9889636700000004 10.8389598100000004  6.7402855900000000
  5.7489062400000002 12.2745026300000006  9.0582702899999994
  3.8114408300000000 14.0906519299999999 10.4726248999999996
  1.9708931100000000 15.8217176899999998 12.3796127200000008
  0.2073385600000000 17.5897877399999985 14.5930041500000005
 20.0360444800000010 19.6225751399999986 16.1559847000000012
 18.3102686699999992 21.6215597700000011 18.2531549200000001
 17.9649343600000009  0.2364782100000000  0.0067483900000000
 16.0430609500000010  1.8488591599999999  2.0622427600000002
 14.0233274100000003  3.4624048200000002  4.1161489299999996
 12.1095669499999996  5.3183774300000000  5.4971975000000004
 10.4945601600000007  6.9716167799999997  6.9984518400000004
  9.2004797699999994  9.2082793200000008  8.5794502599999998
  7.5803564500000000 10.8265577799999999 10.9917456900000001
  5.9716072200000001 12.7257365100000008 12.9506014399999998
  3.8140640000000001 14.4776891600000006 14.3734758399999993
  2.0375283000000000 16.0854003200000015 16.1259955400000017
 -0.2677413500000000 18.0054009099999988 18.2140566700000015
 19.6138703999999997 19.7257330700000004 20.0250593700000010
