Li 
 1.0000000000000000
   -11.1791050000000016   19.3627778431472777   -0.0000000000000023
   -19.1641800000000018  -11.0644444817984429   -0.0000000000000019
     0.0000000000000000   -0.0000000000000001   23.4479499999999987
 Li 
 504
Cartesian
  0.0964591500000000 -0.1441544300000000  0.6780862500000000
 -11.2336201399999993 17.3239553899999983 16.1943828100000005
 -11.4167299599999996 15.5188891800000004  8.4814120499999994
 -11.1234234599999997 13.5307728199999993  0.3313726500000000
 -11.1586914700000008 11.8603016900000000 14.9921537499999999
 -11.3448934300000008  9.6432204299999995  7.6753739100000002
 -11.2661540700000007  8.1763574099999996  0.0942443200000000
 -11.5612570500000000  6.5684988700000000 15.4906144599999998
 -10.9770669900000009  4.3339626999999998  7.8522569799999999
 -11.2981032599999995  2.7478539099999999 -0.5617228700000000
 -11.1085463099999995  1.0082803499999999 15.7988611799999994
 -11.2841148100000002 -0.8626110600000000  7.5780567500000000
 -1.8126962099999999  0.7950927700000000 15.3826421799999995
 -1.6201245600000000 -0.7464895700000000  8.0163420399999996
 -12.6338079299999997 16.6248177499999983  0.7254710100000000
 -13.1774493499999998 14.7281287899999995 16.0571669200000002
 -12.9187944899999998 12.5230542099999997  7.9220862299999997
 -12.8363379399999999 11.2334449799999998 -0.2501752400000000
 -13.1134454199999997  9.3428939399999997 15.8513147500000002
 -12.7890662299999995  7.1772890000000000  7.6101133499999998
 -12.6139887300000009  5.5432436599999999  0.1669324600000000
 -12.9196175800000006  3.6957997200000001 15.6367768300000005
 -12.5707919399999994  2.0461057899999999  7.4952401300000000
 -12.8878007799999992  0.2206050800000000 -0.1659871500000000
 -3.1361113000000000  2.0335346400000001  7.3899416000000002
 -3.1063504800000001 -0.1212646400000000  0.6380156700000000
 -3.2163067000000001 -1.7992988000000001 15.6131159400000001
 -14.3611676399999997 15.4855215899999994  7.7452257700000002
 -14.2312665700000007 13.3268311300000004  0.1193187400000000
 -14.5775496400000009 11.9200011400000001 15.2952923999999992
 -14.1920663900000008  9.9298826899999995  8.0343826299999996
 -14.1522024799999997  8.5085679699999996  0.3528804900000000
 -14.6658609200000001  6.2948112299999996 15.0882267900000002
 -14.3057263700000004  4.5389185400000001  7.9760326600000004
 -14.3970762800000003  2.8669390799999999 -0.3476122600000000
 -14.3129199299999996  1.2099706200000000 15.2224471599999998
 -4.9082593900000004  2.9205160700000001  0.1598137800000000
 -4.8978400899999999  1.0673466599999999 15.2013964700000006
 -4.8290216499999996 -1.2472369900000000  7.7607559500000001
 -4.5951842100000002 -3.0190332700000000 -0.4230309500000000
 -16.3305444299999998 14.9689743699999998 15.8481113300000001
 -15.7481575800000009 12.6974693300000006  7.8300433500000004
 -15.8717722499999994 10.8131665699999999  0.2906603300000000
 -16.1504109100000015  9.2463049000000002 15.1261797500000004
 -15.7220201900000003  7.3354161600000003  7.3858704599999996
 -15.8840211000000000  5.5591767499999998 -0.3453891600000000
 -16.3107838899999997  3.7315834899999998 15.2352732000000000
 -15.9282341200000008  2.0561713699999999  7.5111615299999999
 -6.5763317199999998  3.8745284099999999 15.5319337599999994
 -6.4803185499999998  1.7180096000000000  7.6900861599999999
 -6.3659310199999997  0.0867519000000000 -0.3168411500000000
 -6.5714196100000004 -1.9738790100000001 15.9336203300000001
 -17.4114983000000016 15.3190757800000004  7.7333683600000001
 -17.1894728000000008 13.8667962599999992 -0.5411666200000000
 -17.5726250999999998 12.3039033000000000 15.2311642599999999
 -17.4823678200000003  9.8097664600000005  7.3948158199999998
 -17.2832498500000007  8.3509096799999991 -0.3239593000000000
 -17.6636551799999992  6.2596242000000002 15.5911536799999997
 -17.6502180799999984  4.6568667899999996  8.0260977600000007
 -17.5772584800000011  2.9227515799999999 -0.2999246200000000
 -7.9714095199999999  4.4980130599999999  7.8973078299999999
 -8.2569471799999992  2.9668728199999999 -0.2858478100000000
 -7.8392586099999999  0.9744552200000000 15.2754040900000003
 -7.7973150000000002 -1.1631733799999999  7.9619082399999996
 -7.8142482500000003 -2.7617992500000001 -0.1078734800000000
 -18.9357760699999993 14.8639384299999993 15.7336178300000000
 -18.9077439799999993 12.6147339800000005  7.6658809100000003
 -19.1217770599999994 11.1233777499999995 -0.0625741800000000
 -18.9597358999999983  9.2388716599999992 15.3455014700000003
 -19.3279420199999983  7.2982012899999997  7.4386836000000001
 -19.6109687999999984  5.3405749800000004 -0.6432803700000000
 -19.0453581199999995  3.6090508099999998 15.2337374699999994
 -9.5364313500000009  5.4231842700000001  0.4242086800000000
 -9.7956823400000008  3.8012489100000000 15.4571886500000009
 -9.5524451500000005  1.7751249800000000  7.9342425499999996
 -9.6713132599999998  0.3959322600000000 -0.0190056300000000
 -9.6028457800000009 -1.5539267100000000 15.6551391300000002
 -9.7003304400000001 -3.7183061600000000  7.6753114199999999
 -20.7118262500000014 14.0424293999999996 -0.5827340500000000
 -20.2692467399999998 12.2246027399999999 15.5827448400000002
 -20.8622102200000015  9.9649603700000000  8.1258630600000004
 -20.7306754700000013  8.2842797499999996 -0.7064930200000000
 -20.7048506699999990  6.4935218299999997 14.9992911699999993
 -20.9993565099999984  4.8030928099999999  7.8790321199999998
 -11.2213781699999995 -2.3251711700000000 -0.5943029000000000
 -11.3488720099999991 -4.5128909699999999 14.8985966899999998
 -22.4679445700000002 12.8591442399999991  8.0386457500000006
 -22.4980374699999999 10.8641576200000003  0.4627977800000000
 -22.1592466799999990  9.5609947099999992 15.8726416500000003
 -22.4396790700000004  7.3459880200000001  7.3396070000000000
 -22.4774356399999995  5.6891850599999998  0.1593126200000000
 -12.7658773199999995 -1.8078427600000000 15.3462519299999993
 -12.3619053099999991 -3.8536465500000001  7.2595999400000002
 -12.9702817800000005 -5.3874150500000004 -0.4097889800000000
 -23.9943741800000012 11.9738713600000004 15.7635878700000003
 -23.7846109599999984  9.9637742700000000  8.0338440200000001
 -23.9168418500000008  8.0995224799999992  0.2458653600000000
 -23.6147283500000000  6.3600135299999998 15.5854316700000002
 -14.0434211399999995 -0.6771998000000000  7.3355291300000003
 -14.0276154999999996 -2.7881596100000001 -0.5665197000000000
 -14.2629194800000008 -4.5396080699999999 15.3527795999999999
 -14.0574520100000004 -6.7468434000000004  7.7560315099999997
 -25.4349382599999991 11.0783507199999995  0.2021314300000000
 -25.2588607900000000  9.1661656699999998 15.8135141699999995
 -25.5178337199999987  7.2777029899999999  8.0295463799999993
 -15.7948851700000006  0.1132419900000000 -0.1010632600000000
 -15.8783734600000006 -1.8309479000000000 15.8022507399999999
 -15.8936650700000008 -3.2745050800000000  7.2489638899999997
 -15.7159872499999995 -5.1167517900000004  0.0967687300000000
 -15.6395890499999997 -7.6905629099999997 16.1599791900000014
 -27.2238520699999995 10.0100450199999997  8.5899755100000004
 -27.1192505900000000  8.3225940600000001  0.5004685100000000
 -17.4904817000000001  0.8619612900000000 15.1505015899999993
 -17.5087780700000017 -0.7369868900000000  7.3891561399999999
 -17.3790800700000005 -2.6976006799999999 -0.0157827400000000
 -17.3951649400000008 -4.8627782899999996 15.2593420399999999
 -17.5803710500000001 -6.2386209600000004  7.6430909600000003
 -17.6040798100000018 -7.9797939099999997  0.1573704500000000
 -28.5865980700000009  8.9186030400000007 15.8980751900000001
 -28.8532212900000005  7.4589801400000004  8.3991652899999991
 -9.5428660399999998 16.2247078800000004  0.6161312900000000
 -9.3229068500000007 14.6736064099999997 16.1451306599999995
 -9.9577528599999994 12.5484840500000008  8.4931777299999993
 -9.7635397099999999 10.9486048300000007  0.0413979500000000
 -9.7406976600000004  8.8627323800000006 15.7096475600000005
 -9.7687390999999995  7.3831254800000004  7.7564739500000002
 -19.1778488799999991 -9.1254747700000003  7.6221707800000003
 -1.6362293400000001  2.7876949700000000  0.1760429800000000
 -3.2597861099999998  3.7535465399999999 15.6751933500000007
 -4.7166558199999997  4.6478855699999997  7.4441419000000000
 -6.4681182699999997  5.4627249100000004  0.0093784300000000
 -8.2597014499999997  6.4980718900000003 15.8269570200000000
 -26.9909481599999985  6.2555781100000001 15.5239481399999999
 -27.3153727300000000  4.5251947499999998  7.9804732100000004
 -8.0228149999999996 14.2636094100000008  0.5758371799999999
 -8.1204801199999999 11.9849355000000006 15.9754994099999994
 -8.5976784700000000 10.0511734799999992  7.7926728399999998
 -7.9976489500000003  8.1718311600000000  0.3583605500000000
 -19.1585333300000009 -7.5682980300000002 16.4229855700000016
 -20.9604274000000004 -6.5055484899999998  7.9242820399999996
 -3.1729273000000000  5.5085509500000001 -0.0427668700000000
 -4.8266638000000004  6.6343193400000002 15.5815842300000007
 -6.6498359000000002  7.2263552000000004  7.7914073600000000
 -25.5735007299999992  5.5848108300000003  0.6623195200000001
 -25.5495764700000016  3.5165194400000002 16.2694918000000008
 -25.8695563300000018  1.7746475200000000  8.3015070899999994
 -6.1475680099999996 11.3391473999999999  0.1120432400000000
 -6.3871353400000004  9.0566513499999992 15.7786668900000002
 -19.1391109200000002 -5.6069935099999997  0.4141526300000000
 -20.5449273300000002 -4.5614652299999996 15.9558814600000005
 -22.6349333100000010 -3.7687721100000000  7.5884652499999996
 -4.8225161700000001  7.9943377900000003  0.2565209800000000
 -23.9245969800000005  4.7990987799999996  8.3407751999999995
 -24.2250871399999994  2.7639233499999998  0.4710501800000000
 -23.8645609100000016  0.7190918800000000 15.9421149000000000
 -24.2985204099999983 -0.8214401800000000  8.1358557800000000
 -19.0540979399999983 -3.4473443399999999  8.0106558600000000
 -20.7318507399999987 -2.8873650899999999  0.2162240400000000
 -22.1277347499999983 -1.9241692699999999 15.6282125000000001
 -22.4363935400000010  3.3223434500000000 15.3549408900000000
 -22.4298135999999992  1.9241481700000000  7.7478457299999999
 -22.4234039100000011  0.0084319300000000  0.2416539100000000
 -18.9086147900000014 -1.9024408399999999 15.7328901499999994
 -20.8080039399999990 -0.9403335000000000  7.7399007500000003
 -20.8695281799999997  2.5500079699999998 -0.1667949800000000
 -20.3486052499999985  0.5972636300000000 15.4365393100000006
 -19.3070936400000015  0.0796069200000000  0.1975999400000000
 -19.1436444600000009  1.9880145800000000  8.0430277799999992
  0.1176196000000000 -0.3798233700000000 18.3500015300000001
 -11.0053752199999995 17.7124750499999983 11.5373440699999996
 -11.3471019000000002 15.8063649900000005  3.4442944199999999
 -11.3020061799999993 14.3848947200000001 18.9558384900000014
 -11.5504581200000001 11.6914255899999997 10.6823719199999996
 -11.0576011300000001 10.2628516600000008  2.7276938799999999
 -11.4329871300000008  8.7193016300000004 18.6022094200000012
 -11.3966796600000002  6.6120727099999996 10.3247006399999997
 -11.2169640099999999  4.5960240700000003  2.2352114200000002
 -11.1548174600000003  2.9967534699999998 18.1428105200000012
 -11.6692885099999994  0.7823660000000000 10.2217510800000007
 -11.0910808999999997 -1.0267558600000000  2.4309509199999999
 -1.8652288100000001  0.6244236399999999 10.5147096399999995
 -1.3644144400000000 -0.5150030100000000  3.1350731000000001
 -12.8478169199999996 16.5051887899999983 18.5504940000000005
 -12.8647260800000005 14.9501493700000001 10.4689417799999998
 -12.6539161799999995 12.8856798200000000  3.0538522299999999
 -13.0128966899999998 11.1268138499999996 18.8062804899999989
 -12.5567996900000001  9.3642114200000002 10.5546458800000007
 -12.8127598700000007  7.3761450100000001  2.3622350900000000
 -12.8527508000000008  5.6662131899999997 17.7600529899999984
 -13.2659514400000003  4.1586032800000003 10.3768430699999996
 -13.0681631700000001  1.9495772400000000  2.3774523300000001
 -12.7503415899999997 -0.4117008900000000 18.3004386699999984
 -3.2774213400000001  2.2525165500000002  2.9071524599999998
 -2.6533365999999998 -0.0600692400000000 17.9084379700000014
 -3.5039277900000001 -1.6770977600000001 10.4523697400000000
 -14.3004595499999994 15.9131871599999997  3.0174152500000000
 -13.9740473699999992 13.2839846000000001 18.1790843200000012
 -14.9483937499999993 12.2112393499999996 10.6566046900000000
 -14.5838597700000001  9.8743830999999993  2.5450291900000002
 -14.3404279300000006  7.6665490600000004 17.6939141100000015
 -14.5496935500000006  7.1900158899999997  9.6204670799999992
 -14.2910651099999999  4.8704933099999996  2.4963003900000000
 -14.3473539799999994  2.5546015099999999 18.1150111900000006
 -14.8370968800000007  1.1684207400000000 10.0364590200000006
 -4.4065878100000004  2.4802681099999999 18.0599345900000010
 -4.9372305399999998  0.8055637900000000 10.7803867499999999
 -4.7896964999999998 -0.4680292600000000  2.8491855199999998
 -15.8698079599999993 16.3279244100000014 18.9456552999999985
 -16.3015973900000013 14.3453911099999996 10.2415167700000005
 -16.0338606100000014 12.8983846100000008  2.5163709999999999
 -16.1286066900000016 10.3808948799999996 17.8404168100000007
 -16.0864794599999996  9.1946404099999999  9.9290061000000005
 -15.9418405500000002  7.4102174800000000  2.0505353799999999
 -16.0283043800000016  5.3562944100000003 17.5683341900000016
 -16.4224985900000000  4.1650844899999999  9.8334098000000001
 -15.7118209800000006  2.5223535500000001  2.1042757299999999
 -6.1348221199999999  3.6914185300000000  9.9377682699999994
 -6.5251576699999996  1.6010799000000000  2.4481691600000000
 -5.9513568899999996 -0.4287682200000000 18.0532141000000017
 -6.4589835899999999 -2.0953679900000002  9.8981873199999999
 -17.2391944399999986 15.7683866699999999  2.1676635000000002
 -17.6197550900000017 13.4045042999999993 18.1868841699999990
 -17.7514236899999993 11.6245221500000007 10.4261621600000005
 -18.0604182000000009 10.5451952799999997  2.8767782799999999
 -17.8561090000000000  7.5068309199999996 17.7569566999999999
 -17.9278664799999987  6.5965670500000000  9.8492857800000007
 -17.4857716500000002  4.7082404300000000  2.4027690599999998
 -17.4514810800000006  2.6293542300000001 17.5701885100000013
 -7.9132372499999999  4.0418649499999999  2.6906692900000002
 -7.6381035300000004  2.3439569300000000 18.3601753300000006
 -8.4060177300000003  0.5607159300000000 10.0405881699999995
 -7.7145984099999998 -1.1998282600000001  1.8597809000000001
 -7.7869219899999997 -3.0446040499999998 18.2125458100000017
 -18.7908565100000011 14.8203757300000003 10.2408391900000009
 -19.6543038500000016 13.0691791100000003  2.3507939900000001
 -19.3296653700000007 10.9352408200000006 17.9123035600000016
 -19.1428757300000001  9.2048965900000006 10.1893855500000008
 -19.0106878100000003  7.4562073099999999  2.2084539599999999
 -19.1623110200000006  5.2861715299999998 17.5972879300000002
 -19.3001052900000012  3.7690366000000002 10.4480203199999995
 -9.4227706199999997  5.1758240500000001 17.9201938299999988
 -9.7362859700000008  3.8294089400000000  9.9690131300000004
 -9.6764309300000004  1.5683345700000000  2.7725871999999998
 -9.3395825299999995  0.1666689100000000 18.2971487400000008
 -9.7885515200000004 -1.6305000199999999 10.4878315700000009
 -9.3462545000000006 -3.8673316299999998  2.2674063200000001
 -20.8549528700000018 13.4722820500000005 17.9297062199999999
 -20.8000957699999987 12.5436870500000008 10.5411291100000000
 -20.8737703699999990 10.1139912499999998  2.7844153999999999
 -21.2309353700000010  8.3021216500000001 17.8002061599999983
 -21.1465723099999998  6.7816486800000000 10.0215378699999995
 -20.7264288800000003  4.6971281200000004  2.7089764800000000
 -10.9564023499999994 -2.7672279600000000 17.7164647500000001
 -11.4042424800000006 -4.3023175499999997 10.2369772399999999
 -22.4444214799999990 13.0300665200000001  2.8055789199999999
 -22.5084926199999984 10.7542720200000002 18.5958645599999990
 -22.2510921099999983  9.6218364800000007 10.6895093899999996
 -22.4920847700000017  7.4162104900000001  2.7897208099999999
 -22.4736158300000000  5.2507391999999999 18.2011338900000013
 -12.9163485100000006 -1.8603479599999999 10.2754720499999994
 -12.6912956200000000 -3.5992730700000002  2.1072375800000001
 -13.0035883699999992 -5.5658467500000004 17.5289862099999993
 -23.9981102700000015 12.0787107500000008 10.6736382899999995
 -24.1910207300000017 10.5466459100000005  2.7249693700000002
 -24.3266706500000005  7.8001647199999997 18.0554282899999983
 -23.7242663900000004  6.6373614800000000 10.4026250299999994
 -14.5779978000000003 -0.6986577400000000  2.7232845999999999
 -14.0346894599999992 -2.8581854299999998 18.4622356399999994
 -14.6065073800000000 -4.1489631899999999 10.0011273200000002
 -13.9745282500000005 -6.4555556599999999  2.2770844000000001
 -25.5779827900000001 11.1776524300000002 18.4076472100000004
 -25.6149213600000003  9.3216700899999996 10.8794682500000004
 -25.5312656199999992  7.7957571600000000  2.7535121000000000
 -15.5483688699999991 -0.0247405600000000 18.2414458099999983
 -15.6826775999999999 -1.3023924899999999 10.0469467699999999
 -15.9529669300000005 -3.8653719999999998  2.4758741799999999
 -15.7823181300000002 -5.4896867399999998 17.9600560199999997
 -16.3829543099999988 -7.3603085899999998  9.9456311199999998
 -27.3884539700000005 10.3033251900000007  3.0628257300000001
 -27.3640721999999990  8.1708612499999997 18.3697625600000016
 -17.8595849000000015  1.1142671000000000 10.4005128700000000
 -17.2490895000000002 -0.6569879400000000  2.2500744899999998
 -17.1225845399999983 -3.2323409500000002 18.3290557800000009
 -17.5526286700000007 -4.4752949400000004  9.8841801100000009
 -17.3875870500000005 -6.2840515999999997  2.3965093300000002
 -17.3275867199999993 -8.4094157400000000 18.7153615400000000
 -29.0673287599999988  9.2810152800000001 11.1284431999999995
 -28.8653121900000009  7.6466540500000004  2.5491369000000001
 -9.5210004799999997 16.5840027700000014 19.0144667200000015
 -9.7242886500000001 14.7037816200000009 10.8535297499999999
 -9.7304945000000007 13.1478515700000003  3.3116778500000001
 -9.7153856300000001 11.0895466999999996 18.2721245799999998
 -9.6278738100000005  9.5733422800000003 10.3643074899999998
 -9.7977537899999998  7.0672428700000003  2.7098292300000000
 -19.5700235900000017 -8.7196313799999992  2.8668106000000000
 -1.2893322000000000  2.5551177900000002 18.2772997400000001
 -2.9614072600000001  3.4857680300000000 10.1259288299999994
 -5.2887474399999999  4.7181511699999996  2.3081511600000000
 -6.3343137299999999  5.3814745500000001 17.9780027800000006
 -7.8382629399999999  6.2756401999999998 11.0289157699999993
 -26.4847729100000002  6.3623095000000003 10.2694209399999998
 -27.1128329000000008  4.4829362799999997  3.4511202399999998
 -8.2352278900000009 14.1917909499999997 18.6188987899999994
 -7.8868537800000000 11.7035305500000000 10.8803504699999998
 -7.9862195500000004 10.0634499700000006  2.6329705799999998
 -8.4647526800000001  8.3513528899999994 18.6268125299999987
 -19.2722334199999992 -7.3996400199999997  9.8388892499999994
 -20.6183553999999987 -5.8373365300000000  2.7863561699999999
 -3.1039050900000000  5.6189957499999998 18.5946764100000017
 -4.4259447400000003  6.7264467300000002 10.1892458399999999
 -6.3816312599999998  7.4269228600000003  3.0803737999999998
 -25.3990036299999993  5.6268707899999999 18.2204083399999988
 -25.5275162800000004  3.5692966500000001 10.6609943400000002
 -25.9085443499999997  1.8180324400000001  3.1462259900000000
 -6.5190315300000004 11.5813137099999999 18.1058268499999997
 -6.3238262900000004  9.2334690699999999 10.4571634400000004
 -18.6968300700000007 -5.7389925699999997 18.1826358100000007
 -20.7133638699999985 -4.4506286399999997 10.4816700100000002
 -22.5379908600000007 -3.2491181600000001  3.0360656600000002
 -5.0887269000000002  8.0062314400000005 18.0311847599999986
 -24.0483693800000005  4.7113114200000004  3.1067420800000001
 -23.6958641099999987  2.3554282600000001 18.4075243399999984
 -23.8159706100000008  0.8698453000000000 11.1522685799999994
 -23.9694356299999995 -0.5318360000000000  2.3466099699999998
 -18.5762291899999994 -3.7709272700000001  2.4320735500000001
 -20.2927003200000016 -2.7348429699999999 18.7831827999999987
 -21.7806319799999990 -1.8782706700000000 10.9745894499999999
 -22.3685571400000001  3.4823668400000001 11.0321517300000007
 -22.1947691300000010  1.9748130600000000  2.7446948099999999
 -22.5393138399999984 -0.4360644200000000 19.2548770500000010
 -18.8739083799999996 -1.9055174300000000 10.3664358900000000
 -20.1343562300000016 -0.9897657200000000  2.4760129800000001
 -20.9760291199999998  2.4940500399999999 18.3899964000000011
 -20.7334916999999983  0.8623156000000000  9.9780265600000000
 -18.8131611800000016  0.2151610800000000 18.1895024599999999
 -18.7543963799999993  2.3738336400000000  2.6659608900000000
  0.3305987400000000 -0.2186020600000000  5.4688021100000004
 -11.2473079200000008 17.3743365800000014 21.5620582100000000
 -11.2124285100000005 15.4508699499999995 13.8936708299999996
 -11.0276803599999997 14.2831447800000007  6.3695826599999998
 -11.4024299599999992 12.3473184099999997 20.2993581200000008
 -11.3935615299999995 10.2023528599999995 12.9425144000000003
 -11.2826730099999999  8.1074907700000001  5.1452963699999996
 -11.1581759300000005  7.0505286199999997 20.7636576400000017
 -10.6796925300000005  4.4317574799999999 13.1714342599999998
 -11.3765373400000005  3.0303087000000000  5.2275184799999996
 -10.9229873499999997  1.3346604399999999 20.7554456499999986
 -11.2013795100000006 -1.4256933599999999 13.3831003800000001
 -1.4437453200000001  0.8837611600000000 20.6245676399999986
 -1.4947933200000001 -0.7118739300000000 12.9656721699999995
 -12.7532180600000000 16.8814377600000007  5.7303776199999996
 -13.1625165400000004 14.6021620599999995 21.2863978799999991
 -13.0622377699999994 12.7408620900000003 13.1651582299999994
 -12.7157851700000002 10.9999812800000001  5.3132401900000001
 -13.2810135299999992  9.0676728099999995 20.9571343100000007
 -12.9760074900000006  6.5340060700000002 12.4150963099999991
 -12.8136249200000005  5.5627787000000000  5.4518278300000000
 -12.9122458299999998  3.7289789099999999 20.2511133900000004
 -13.1258856399999999  1.8931643600000001 12.4324271999999993
 -12.5992979799999993 -0.2519224200000000  4.8873540499999999
 -3.1705896899999999  2.1024667699999999 12.9726067999999994
 -3.0334448799999998  0.4604654800000000  5.4442576499999999
 -3.1890671099999999 -1.9109836099999999 21.0177499800000014
 -14.3241824999999992 15.4058404200000005 12.5215376299999992
 -14.6713540699999996 13.9211295899999996  5.4536048800000003
 -14.6576392000000002 11.3497892399999998 21.0217994099999999
 -14.5673487999999995 10.0754061900000007 12.4368504899999994
 -14.1805901199999997  8.2579967900000000  5.2364571099999999
 -14.6209083900000003  6.4225087500000004 20.4046980699999985
 -14.5304565599999993  4.7165864800000001 12.5354606600000000
 -14.0803993799999994  2.4610338899999999  4.7813962200000004
 -13.8933508900000007  1.3995356000000001 20.4383464900000007
 -4.8699789999999998  3.4087693400000001  4.5509674999999996
 -4.7372600100000000  0.5398817600000000 21.0021180299999983
 -4.3973531599999998 -1.0481889200000001 13.3190381299999991
 -15.8554454600000003 17.0141650099999993  5.0094605000000003
 -15.9954015700000003 14.5646840500000003 20.4604563000000006
 -16.1476638100000010 13.2791199599999992 13.6218329199999992
 -16.0035067300000016 11.2630908800000000  5.2725964300000001
 -15.8660402299999994  8.9546995900000006 20.4872850200000016
 -16.0816180499999994  7.0782674600000002 12.3941038500000005
 -15.6287784599999995  5.6182476299999999  4.8294679699999996
 -16.4121357299999993  3.6573177600000002 20.5666526300000001
 -16.1755374699999983  2.2874136400000000 12.2544081299999998
 -6.6138070600000001  3.5662649599999998 20.8775017500000004
 -6.4711623999999999  1.5657337700000000 12.8868813800000002
 -6.4415141399999998  0.3861964600000000  4.9855140200000001
 -6.0925501700000000 -2.0459784800000000 21.0282190399999998
 -17.5465952499999993 15.9261385299999993 13.4928148799999992
 -17.2914124099999995 14.0859525100000003  5.1153518900000003
 -17.6941129299999993 11.6732816800000005 20.8288655100000000
 -17.3411064099999983 10.3120169700000002 12.4527503700000004
 -17.5023957999999986  8.8853991600000004  4.4757498900000003
 -17.6211555699999991  5.9829840699999997 20.2794977000000003
 -17.8532262099999990  4.4642289300000000 12.4274067200000005
 -17.2608087800000014  2.8708043700000001  4.9335045800000001
 -7.8652860799999997  4.7073513399999998 13.0054078600000000
 -7.8095165399999997  2.7860245899999998  4.7082265999999997
 -7.9674795200000004  0.8734067400000000 20.8601406800000007
 -7.8044501999999998 -0.8850336100000000 12.8378619700000005
 -7.4661309400000002 -2.4271534699999999  4.3567560199999997
 -19.0815547000000016 14.5887408799999996 20.6061427399999992
 -19.0680112299999998 12.6885774999999992 13.0354972500000006
 -19.3666388599999983 11.1288041300000007  5.1670604000000004
 -18.9444931600000004  9.1379078099999997 19.9988533599999982
 -19.3740511300000016  7.3830574400000000 12.8058631999999992
 -19.3230060899999998  5.1514456300000004  5.4001614800000004
 -19.3695582399999999  3.4172525800000000 20.3082674700000005
 -9.5511057099999999  5.2144254999999999  5.2284904100000000
 -9.3945704899999996  4.1508546800000001 20.6570508799999999
 -9.3659521399999992  1.9505280599999999 13.0067118500000003
 -9.4504700699999997  0.2188318500000000  5.1721688700000001
 -9.5202618399999999 -1.7556494199999999 20.4235985999999983
 -9.3439721700000007 -3.8334230200000001 12.8557399199999995
 -20.6557343700000011 13.9644042699999993  5.0743223500000001
 -21.0931101800000000 11.7875050199999993 20.7704519999999988
 -20.7221502000000015 10.2221956400000007 13.2780419100000007
 -20.6256593300000013  7.9369511199999998  5.3364010400000002
 -20.7798956399999994  6.2748054399999997 20.5140501999999998
 -21.0998662299999999  4.6346917799999998 12.4637097600000004
 -11.0991392100000006 -2.7231887399999999  5.0694908500000002
 -11.0009193399999994 -4.7631145000000004 20.5698539800000013
 -22.2192937000000015 12.9880095999999998 12.8384070200000000
 -22.4617104199999993 11.2553146700000006  5.2045674399999999
 -22.2845571500000013  9.2428783899999996 21.3072668000000007
 -22.4914155800000017  7.9376873799999998 12.5658713300000002
 -22.0242518400000016  4.9749363500000001  5.7326103899999996
 -12.1045119099999994 -1.9363385300000000 20.4468638499999997
 -12.9672146300000009 -3.3041151499999999 12.7283785199999997
 -12.8613499099999995 -5.8398710800000000  4.9429195899999998
 -23.9336339199999983 11.3422942899999999 20.5840245999999993
 -23.9323465599999992 10.2618510100000009 13.3256591300000000
 -23.9809237199999998  7.5900713099999999  5.8075595299999998
 -23.7341453099999988  6.6230956699999997 20.9623451000000003
 -14.9508865499999999 -0.6109286200000000 13.0479500000000002
 -14.0279670299999992 -3.0928129400000000  4.6409085799999996
 -14.1808915100000004 -4.5189882299999997 20.7294771000000004
 -14.4175289899999992 -6.0399599600000000 12.9976933100000007
 -25.5727662600000016 10.6727278600000002  5.3298779400000003
 -25.8016313199999985  8.9974593699999996 20.9472943399999991
 -25.9620068999999987  7.6247763099999997 13.1129262700000009
 -15.3295068099999998 -0.1747423200000000  4.5377877800000004
 -15.4393993100000007 -0.9450417900000000 20.9802236800000017
 -16.3739364199999997 -3.3326062300000001 12.6361859400000007
 -15.9907955499999996 -5.6463029599999999  4.8222458699999997
 -15.7199343099999993 -7.1125295099999999 21.6328454599999986
 -27.5731148600000004 10.7817209199999997 13.1442971800000006
 -26.9667375500000013  8.1626517799999991  6.1272851199999998
 -17.4710272099999990  1.0203977600000000 20.6030478499999994
 -17.6376830300000016 -0.6845072900000000 12.8295798300000001
 -17.3699264100000015 -2.7948673500000001  5.0465663699999999
 -16.8262166499999992 -4.4853282500000002 20.7650246799999998
 -18.2357089099999996 -5.9708093499999997 13.0811311900000007
 -17.2990581699999986 -8.0691189699999999  4.9769404599999998
 -28.8831818100000000  8.7144183799999997 21.5934495499999990
 -29.1317610599999988  7.4543786000000001 13.2525973500000003
 -9.4308017700000004 16.4476996299999989  5.8689275099999998
 -9.5089585299999992 15.2171909799999998 21.7214450799999987
 -9.6265794200000006 12.8280585400000007 13.3040543800000002
 -9.5946956700000001 10.9113217700000007  5.0183474500000003
 -9.8160706999999991  9.6000915100000004 21.1656251500000003
 -9.4878787599999992  7.5451743200000001 12.9891275499999992
 -19.0375182299999999 -8.8969684699999991 12.9651986200000007
 -1.6252722700000000  2.9913956599999998  5.1731566700000000
 -3.2005056299999999  3.6538978599999998 21.4484861799999997
 -4.8964835200000003  4.9749358900000002 13.0303655099999993
 -6.5493008399999999  5.3016732299999996  5.2650708300000000
 -7.7473332900000003  6.6552131699999997 20.9942401499999995
 -27.1138342899999998  6.1219943900000002 20.7990520200000013
 -27.1092245200000015  4.4460012500000001 13.0807204600000002
 -8.1085628199999995 13.7520295499999996  5.7134226799999999
 -7.9055984700000002 12.2135437800000002 21.4559581799999997
 -8.1959078200000004 10.3422566800000002 13.4555091299999994
 -7.9134673700000002  8.3074673800000003  5.1553967299999996
 -18.8016159599999995 -7.6198192699999998 21.1147214500000011
 -20.8769132199999987 -6.3515862800000003 13.2537381900000000
 -3.0910778600000000  5.5195871199999997  4.9134212000000002
 -4.6874174599999998  6.6880817300000004 20.3793199999999999
 -6.2565527799999998  7.5582842299999999 13.1587591400000008
 -25.4327256599999991  5.2840942699999998  5.7664726999999996
 -25.6680438100000003  3.7075546899999998 21.1757099199999992
 -25.6569136899999997  1.7197966600000001 13.4664228300000008