Li                                      
   1.00000000000000     
   -10.8535000000000021   18.7988134399488125    0.0000000000000014
   -18.6059999999999981  -10.7421791085421763    0.0000000000000014
     0.0000000000000001    0.0000000000000001   22.7650000000000006
   Li
   504
Direct
  0.0112358358154552  0.9985546332353508  0.0155327190863161
  0.9496377592019059  0.0516383263733289  0.6574982249066537
  0.8637598487930873  0.0998706783362522  0.3545866088293437
  0.7982406349053122  0.1203162033244780  0.0162013406545114
  0.7239380069414239  0.1646884618758051  0.6788388952339091
  0.6567627388730983  0.2140190048178425  0.3382924221392472
  0.5527093238747582  0.2510938021780760  0.9849042341313421
  0.4975478974872871  0.2731271581544519  0.6746737386338708
  0.4255600897087177  0.3492640893446435  0.3515275277838796
  0.3414953599362178  0.3719605213873081  0.0054999187348983
  0.2959361927479449  0.4108761884343863  0.6342906044366359
  0.2156086269900257  0.4574866202818271  0.3425134162090941
  0.0586708505957461  0.0146115991109923  0.6781159112672981
  0.0171030565862083  0.0874013745749522  0.3586671724137958
  0.9318527069845643  0.1109598685769697  0.0143594350977381
  0.8730336464579480  0.1828667821223604  0.6559410507357768
  0.8056908694813174  0.2175791496336927  0.3245556485833490
  0.7317412793953650  0.2600582814190275  0.0029911179442124
  0.6412383474254639  0.2885104141791714  0.6655903918295607
  0.6000181081430824  0.2997854376689801  0.3448806299143428
  0.4814710520697574  0.3807981912480329  0.0005259569514635
  0.4128206624368147  0.4130985633796627  0.6592342284208215
  0.3603055278522476  0.4815041843198813  0.3288558198989691
  0.2902030964956666  0.4778313383953687  0.9976183149571725
  0.1325025369434769  0.0763256248137125  0.3316042965077983
  0.0561358711381246  0.1336259304849179  0.0084892005271229
  0.0087004779277535  0.1618435527685236  0.6587639055567749
  0.9373630999442213  0.2239352329762099  0.3402633244014908
  0.8648522074685729  0.2511568234031927  0.0042140245991646
  0.7792335015225760  0.2972238918211687  0.6598349729848465
  0.7247589468798594  0.3590852370224340  0.3788949150010978
  0.6133266956646821  0.3605001192412871  0.9882457663079265
  0.5840059848621451  0.4268932803019823  0.6559539112672965
  0.5419420526689223  0.4463093293216076  0.3194379376235474
  0.4108387584571034  0.5098850846547265  0.0064024256534125
  0.3654091620451680  0.5512117268484786  0.6619725868658008
  0.2031512683100090  0.1152164156399706  0.9955904678234120
  0.1347408594032160  0.1598923171271238  0.6647857728969910
  0.0743508271651550  0.2102865644073404  0.3292505482099699
  0.0037907669158557  0.2311310680038048  0.0147163061717563
  0.9089760779522891  0.3027903992230918  0.6435275449154432
  0.8482102524720077  0.3541624865524611  0.3516779692510426
  0.7904263960852163  0.4058343985858883  0.9906323443883167
  0.7077601566752278  0.4199953864089778  0.6672864230177922
  0.6423253550279426  0.4614447801356647  0.3390375497474167
  0.5539273846634458  0.4899677803157729  0.0077592435756628
  0.5027345026371890  0.5504756721287336  0.6847992716889948
  0.4457682626131430  0.5785364695113557  0.3474400180101043
  0.2685446882073634  0.1512098315888082  0.6697306637381928
  0.2144359740699784  0.2122109172004443  0.3500079226883344
  0.1434705350661645  0.2453794575760142  0.9919966795519457
  0.0680324295675945  0.2999943967369703  0.6767207067867318
  0.9922059139195767  0.3308749969511879  0.3324472321546210
  0.9244655193557492  0.3721593365404914  0.9984756762574136
  0.8526163000606246  0.4313913177089077  0.6816327832198539
  0.7889577290873859  0.4647073727480375  0.3570226303536117
  0.7112006741229351  0.4968301028381532  0.9888525148253891
  0.6476658059151461  0.5629661966838668  0.6741586782341287
  0.6035418684360678  0.5821969048118447  0.3357546813090266
  0.5000035724887084  0.6274711397395336  0.0089633068306583
  0.3447429374958730  0.2196658017783761  0.3367591693388974
  0.2913618285454405  0.2283934705945398  0.0099632615857672
  0.2144044310846738  0.2851004781910405  0.6464977245772019
  0.1499161588027107  0.3408471487925837  0.3330261405666590
  0.0853034781826807  0.3539680984383651  0.0085186742806940
  0.0035270358699648  0.4379499170259820  0.6856562582912389
  0.9299052836586199  0.4666355274541090  0.3425860206457259
  0.8514073935305362  0.5035465362956231  0.0184933823852376
  0.7852492061761751  0.5504892481332320  0.6469089540961974
  0.7331879820693814  0.5902439334951026  0.3426160882934326
  0.6427186992566050  0.6029375098150282  0.0084293033164968
  0.5749383109737067  0.7035663528886857  0.6459170735778628
  0.4126096758816047  0.2344586452122428  0.9909384493740419
  0.3458349509511720  0.2868406868672153  0.6687060764331179
  0.2853440890445782  0.3130851703512150  0.3351321748297806
  0.2061446285501418  0.3705837366457629  0.9980757452229270
  0.1422860489047721  0.4118972029566805  0.6765763549308161
  0.0727666447654656  0.4598141643038858  0.3332987862947476
  0.9943022701792330  0.4914345931747661  0.9970101282670782
  0.9053838400136343  0.5672559057514803  0.6679460513946864
  0.8832902016754929  0.5966054130987359  0.3539822982648815
  0.7887151890790065  0.6160847449925271  0.0078301063035369
  0.7033170198744685  0.7026628321397652  0.6468013630573282
  0.6661865320169369  0.7190498653528010  0.3135139262025035
  0.1268907859737709  0.4760549131696052  0.0172344344388335
  0.0599531328154299  0.5470978718148842  0.6949337500549078
  0.0157756771906534  0.5877344650978884  0.3415806799912176
  0.9358352853778698  0.6372309185290419  0.0366432998023285
  0.8434943844849130  0.6833955910992700  0.6730615418405463
  0.8136790370990923  0.7001036542429873  0.3464620320667677
  0.7091904204417006  0.7227223944822114  0.9949612523610796
  0.2303890330111145  0.5212354498663814  0.6480148508675612
  0.1622686002806972  0.5710224603274980  0.3183282156819658
  0.0728577671654449  0.6257609843098919  0.0043123527344591
  0.9828944015903431  0.6729337403170561  0.6762195809356442
  0.9630528403363527  0.7204646478237891  0.3429959841862527
  0.8472320908409330  0.7362605069363610  0.0129332923347221
  0.7873988417743547  0.8140633795980889  0.6731467867340228
  0.2992633679411156  0.6012884776981124  0.3356782459916516
  0.1937763307860507  0.6052799088365930  0.9980169980232816
  0.1589796427184496  0.6606970040715510  0.6714787586206867
  0.0870745837085849  0.6954445042308350  0.3393252800351405
  0.9813382031350883  0.7641085946615789  0.9896483013397770
  0.9194552681476509  0.7916620432741865  0.6661795897210609
  0.8740911552208033  0.8296514735467611  0.3334633164946155
  0.3524492024873780  0.6243028743847816  0.9954432519218130
  0.3024032035557411  0.6568735305926978  0.6764033432901400
  0.2331284877208475  0.7172789841191971  0.3464780210849980
  0.1422226189772431  0.7510720571283684  0.0103185662200715
  0.0749342569697191  0.7755958965913763  0.6468871794421247
  0.0084190672939428  0.8309516249126716  0.3471889589281787
  0.9164151859630536  0.8793909474981163  0.0202694157698247
  0.4408110570054689  0.6740543207992644  0.6555997522512627
  0.3593399027425264  0.7249521092972131  0.3282864423457070
  0.3037217346159338  0.7270313776924624  0.0049385895014282
  0.2119057143238052  0.7883576539603681  0.6775221019108244
  0.1444884241830167  0.8172079586224683  0.3504107423676714
  0.0584170328520628  0.8555239983843990  0.9982877702613635
  0.0182972471465348  0.9053974614691569  0.6665777311662637
  0.9299935850112888  0.9685837184284622  0.3257985328354920
  0.8712722607149459  0.9900930645130757  0.9849934535471121
  0.8213266088934930  0.0552956078885529  0.6835724941796641
  0.7045221650799292  0.0962764114428154  0.3219257711399095
  0.6356478758897737  0.1092486347968560  0.9868276406764735
  0.5834641254034523  0.1531535571822857  0.6407054337799281
  0.4906667674054859  0.1923592588393319  0.3359022631232165
  0.0608892384163155  0.9610153488578206  0.3442610740171332
  0.1321767731936703  0.9987419107891284  0.0034910898308809
  0.2077820222220197  0.0294641756322349  0.6554540474412462
  0.2788876891386565  0.0966868647712360  0.3337588969909930
  0.3363794602467749  0.1056726318505667  0.9878382912365495
  0.4277124579703866  0.1759562295720940  0.6756739811113519
  0.8770052174551495  0.9360194916881923  0.6555674126949285
  0.7831246244486465  0.9786833359425202  0.3410260039534379
  0.7140761074837272  0.9856614843290004  0.9833071750494184
  0.6494078474322436  0.0624733299953846  0.6691119301559425
  0.5899225726673336  0.0828566111767799  0.3266112387436877
  0.4788073176588767  0.1135331999241842  0.9926851390292128
  0.1380755453235665  0.9157671723546557  0.6842211882275393
  0.2032965808467608  0.9466945033741681  0.3453077882714695
  0.2688263672100106  0.9747381464842633  0.9699511421041080
  0.3711657156475994  0.0528204173502473  0.6416080540303071
  0.4380384145951339  0.0811158570994195  0.3131988987480767
  0.7643430471369541  0.8625309253949851  0.9785366004831957
  0.7149597406318549  0.9526005662180026  0.6477106672523618
  0.6349014867862479  0.9724568699970675  0.3191838462552141
  0.5740924148574535  0.9797639339645627  0.9839969800131811
  0.5060255285407322  0.0590419867775580  0.6463179841862541
  0.1998508993845505  0.8627450184633858  0.0136674166483601
  0.2830404854837312  0.9011313668065313  0.6634279657368793
  0.3451527876691216  0.9733582365383810  0.3348624177465425
  0.4181501885384122  0.9850280725947727  0.9883021120140540
  0.7222997218796081  0.8639836922809678  0.3224790072479706
  0.6410682843740148  0.8512199143043446  0.9751845504063255
  0.5389625392462705  0.9333428259857399  0.6428170551284893
  0.5108602519879000  0.9658142827609026  0.3101015537008536
  0.2903719686125044  0.8454218342827104  0.3265213735998245
  0.3395912562970551  0.8446460109523812  0.0059145662200777
  0.4234760727457783  0.9119422473639531  0.6663753643751349
  0.6438971378905691  0.8155310939430649  0.6447478339556341
  0.5851561805122287  0.8264076348925400  0.3105774632110680
  0.5003407498949457  0.8576375976037411  0.0082984063255012
  0.3720577530140829  0.7899933143965185  0.6574456138809595
  0.4284131402878799  0.8648534162036725  0.3270162512629042
  0.5849168689056370  0.7076886495395414  0.0113697575225160
  0.5139260519276547  0.8129749712675007  0.6523271438611928
  0.4369812148314409  0.7353960536830542  0.0139538879859415
  0.5285434117017118  0.7289579453453428  0.3478868003514179
  0.9911704461107291  0.9989112314918387  0.7899059802328168
  0.9377810548766234  0.0547768913735638  0.4288168600922475
  0.8477362516233313  0.0720050711064246  0.1144790476608861
  0.7904957463347415  0.1359342667502901  0.7834496740610604
  0.7231755117131087  0.1588499727841395  0.4304959903360412
  0.6288953158959529  0.2022937455080793  0.0883209764990127
  0.5748247549531342  0.2653978825172629  0.7737330094443209
  0.4935489836529285  0.2862164283523043  0.4519895361300215
  0.4217317951670623  0.3121945217217146  0.1137703531737344
  0.3500358400659280  0.3836550548126638  0.7715665745662221
  0.2798339607733311  0.4357157393715241  0.4232892027234811
  0.2182413305087678  0.4484328382953393  0.1143232005271244
  0.0871795097759858  0.0417979523082010  0.4524057061278270
  0.0109738561297377  0.0670211562128316  0.1266515695146069
  0.9124103302784263  0.1232955879997348  0.7818045829123648
  0.8455817053578443  0.1803562775931766  0.4486917430265791
  0.7731977169032405  0.1993842953665848  0.1197301695585296
  0.7243416077955587  0.2531832623772345  0.7976957135954308
  0.6635302772174185  0.2765434911437552  0.4569497755326140
  0.5773475372372516  0.3323421715895662  0.1118066984405885
  0.4943020904790600  0.3738336515632312  0.7727176411157473
  0.4269870176549588  0.4375963078513294  0.4428685174610152
  0.3583804053424373  0.4474735676994399  0.1265175040632585
  0.2704400067622856  0.4797899208107879  0.7874686413353800
  0.1350312839321290  0.0699267865120206  0.1199275295409592
  0.0570987760012827  0.1203697019601222  0.7909294438831509
  0.0020817864791098  0.1894947361307615  0.4445154236766982
  0.9313771928534464  0.1936360806925208  0.1079170270151550
  0.8544275484732111  0.2460241767519094  0.7744781423237441
  0.7942205725020202  0.2913460715010885  0.4477743052932155
  0.7167454330205700  0.3432490160545640  0.1131087551065235
  0.6411615595920495  0.3812290311172575  0.7635778080386544
  0.5755094727798848  0.4146577688478743  0.4614022394025881
  0.4930026531827565  0.4515618743244616  0.1233596582473098
  0.4236415711678987  0.4950584530435975  0.7767481774654073
  0.3487979049239840  0.5597525448192826  0.4399694992312746
  0.2047187701472879  0.1229136578633998  0.7790759679332311
  0.1383523430331550  0.1554951512893510  0.4346877768504314
  0.0646816985857797  0.2055691440610161  0.1293382833296732
  0.9746214035551333  0.2544010086270205  0.7758734719964835
  0.9280028671963265  0.3252532495369564  0.4564347287502741
  0.8480127467949501  0.3406637801064747  0.1146413692071135
  0.7902722264576454  0.3785614129926884  0.7873426505600705
  0.7247270063614693  0.4326327908446643  0.4759483197891470
  0.6396031357304324  0.4598139711033937  0.1005597342411590
  0.5637905547213222  0.4973648422192909  0.7802451038875446
  0.5138515577603187  0.5471543371949039  0.4412953419723280
  0.4098195958739055  0.5674198638171859  0.1250650278936973
  0.2940484667879204  0.1621088023066335  0.4530673472435751
  0.2061444669529777  0.2047657308355255  0.0953096828464766
  0.1357141182260477  0.2307835965728060  0.7897097891500096
  0.0844540361013912  0.3142906373843672  0.4276541937184248
  0.9916541605461617  0.3313875104005248  0.0963454517900288
  0.9087388879672531  0.3635558754943276  0.7687528868877678
  0.8442396654483630  0.4339484989280962  0.4436403883153943
  0.8000281069925990  0.4696360346531137  0.1226381537447807
  0.7035941130432377  0.5080940462262262  0.7618457179881375
  0.6507116537591031  0.5473670195595801  0.4544062389633226
  0.5621506299223924  0.5797334939340715  0.1130700601800996
  0.4986851952671145  0.6173149743721567  0.7656490683066082
  0.3609884274098434  0.2124175493446856  0.1150206176147606
  0.2794928323289128  0.2341063621583430  0.7859744810015385
  0.2293193132185039  0.2985764578083945  0.4488098001317837
  0.1645417600951333  0.3197091973990851  0.1159959951680207
  0.0733522537509543  0.3720751910090314  0.7796022394025925
  0.9924281523544707  0.4289668643674460  0.4299561730726964
  0.9402973823311171  0.4572283527286487  0.1016261207994731
  0.8455032397965141  0.4999848004336513  0.7818475642433569
  0.7988948467649664  0.5591506417626846  0.4564175141664819
  0.7126423712230689  0.5694967458846847  0.1101398638260491
  0.6416226109430951  0.6196419650719704  0.7709073727212825
  0.5723600140651328  0.6763557367163315  0.4228570103228648
  0.4191429734678991  0.2444357877816898  0.7853951363935892
  0.3617795163858659  0.2925509743580577  0.4430119420162555
  0.2684201441864289  0.3363840564910561  0.1071482697122761
  0.1967788937528141  0.3612911806220467  0.7662176204700231
  0.1407290500178817  0.4451775322815692  0.4463959679332277
  0.0756317945576299  0.4582079070068161  0.1097693894135716
  0.9746328359683645  0.5039369034084373  0.7933110019767184
  0.9492964633071637  0.5517075709715016  0.4609693244014963
  0.8673647219878688  0.5675652483018752  0.1292136578080374
  0.7863097215311257  0.6069108022875369  0.7744675875247111
  0.7189672243300222  0.6573233231610303  0.4400347963979812
  0.6508186175191213  0.6776963901298600  0.1195631210191053
  0.1293628791921293  0.4734931097865314  0.7715447274324632
  0.0808065569252321  0.5498398750087077  0.4425309255436005
  0.0121057704258263  0.5773216269312726  0.1297297197452210
  0.9210761363687254  0.6181649416275405  0.7964005288820530
  0.8688232047934790  0.6950755190139759  0.4455704682626873
  0.7942862683597198  0.7060618185723797  0.1098253156160780
  0.7146865067205042  0.7429859507314305  0.7641242618054065
  0.2213452150242503  0.5694653944283701  0.4527086641774645
  0.1284574805247090  0.5772594730261744  0.1254089975840103
  0.0768097426183161  0.6291535863964342  0.7864146654952791
  0.9865106884125154  0.6709456596428396  0.4341105455743488
  0.9178159025057511  0.7144423068985191  0.1129683632769627
  0.8665859956578572  0.7329140151632458  0.7996865095541423
  0.7799811025973895  0.8129495008577479  0.4317245591917427
  0.2739401366813254  0.5794668363178133  0.1203933696463864
  0.1919372420720578  0.6088240123170436  0.7947015717109593
  0.1440697757938949  0.6555002971310842  0.4486181884471776
  0.0742156443420825  0.7042789908703213  0.1103673309905560
  0.9944843390481779  0.7495365165076109  0.7897578106742813
  0.9246888933873407  0.8085181525110485  0.4480050217439029
  0.8537249451991684  0.8369003191057089  0.1081392888205599
  0.3433074652161991  0.6250002502566900  0.7696789659565155
  0.2807403709385810  0.6930879175544504  0.4654398256094865
  0.2053701876412148  0.7062021734083714  0.1120438387876135
  0.1307910184916352  0.7284316521982745  0.7723597122776198
  0.0717163210327172  0.8050180258879607  0.4768912918954555
  0.0141020172928421  0.8232811520645029  0.1173049866022424
  0.9220596616269390  0.8857669699307777  0.7766872633428505
  0.4312286779008758  0.6677265900463780  0.4375299521194833
  0.3487063597790083  0.6931454742630621  0.1152418440588647
  0.2707194363037573  0.7646427828698918  0.7735647590599584
  0.1943676660813551  0.7895979649675340  0.4577979718866700
  0.1522964469276999  0.8126916238455451  0.1278502749835297
  0.0670704559225399  0.8592408043988371  0.7814682082143634
  0.9881333546619544  0.9212175069964772  0.4535727691631877
  0.9333997303739565  0.9535728526489464  0.1207216402372069
  0.8573103934314190  0.0220349320053828  0.7829512712497220
  0.7865785784402703  0.0681640088626523  0.4439318989677119
  0.6884820532682383  0.0603910230491849  0.1201692396222285
  0.6253009148995545  0.1528032623958779  0.7773463694267519
  0.5821826119722360  0.1613745770697221  0.4488342433560319
  0.4939079873530190  0.1926123228670349  0.0954183984186230
  0.0774532154791672  0.9399981191979379  0.1181833709641964
  0.1198965962229792  0.9903477809789223  0.8093773990775333
  0.2051582305239705  0.0454308177474019  0.4334134522293027
  0.2697369372215235  0.0874141960585959  0.1008346061937218
  0.3574632109526306  0.1122224943526575  0.7742274144520067
  0.4176361525268248  0.1763397247420215  0.4351213450472216
  0.8577978170240428  0.9406201124868048  0.4394084783659125
  0.7705841741678512  0.9548453899639497  0.0894174074236744
  0.7251109273681138  0.0218802418472634  0.7605022521414426
  0.6509801511813080  0.0319975743928680  0.4370731197012958
  0.5705190475047317  0.0424313059178445  0.0957925679771563
  0.5182706931981684  0.1403460701587491  0.7564336485833536
  0.1279366772699291  0.9274456101929900  0.4421772176586884
  0.1969748256594741  0.9479674121092572  0.1058479833077115
  0.2711977053424377  0.9854457451932603  0.7617000755545789
  0.3587215112668076  0.0399673001970200  0.4516500685262486
  0.4093682866915458  0.0834657540789721  0.1135508130902707
  0.7899819933083734  0.8887648852858021  0.7678870213046309
  0.7229065441491329  0.9322944159452575  0.4425531631891033
  0.6237271817744556  0.9379357359244835  0.1073363395563334
  0.5713866237610361  0.0128831516182686  0.7591984968152872
  0.4763698784924983  0.0510441520897373  0.4337473819459703
  0.1913105404440358  0.8814432559008196  0.7814438976499005
  0.2854865482258617  0.9117283821794402  0.4598920913683315
  0.3410524902821663  0.9429636357477449  0.0896196683505366
  0.4303526625994962  0.0137730767750384  0.7579788811772445
  0.7228685472533485  0.8360390885943119  0.1063557004173106
  0.6414256326778727  0.8846036840659295  0.7434464968152881
  0.5708969069644567  0.9270949699162259  0.4174894724357543
  0.4798196153846703  0.9417664863174480  0.0986373933670137
  0.2874665220653156  0.8161369597314945  0.1218993432901385
  0.3365304167714029  0.8835491138112204  0.7688896059740813
  0.4364171696163766  0.9172338390609838  0.4165533006808673
  0.6556111389694976  0.7968660170479751  0.4310762508236294
  0.5520635771902533  0.8044812804990684  0.1023003334065464
  0.4796112911384967  0.8895606477280609  0.7604267379749601
  0.3387989448950748  0.7982427663969318  0.4342383799692513
  0.4133079248924219  0.8102479585714306  0.1065434645288832
  0.5646505224297798  0.7508478278409285  0.7579908289040205
  0.4922790368813708  0.7995840311301734  0.4257997267735547
  0.4423125919695892  0.7679848432257330  0.7770829611245347
  0.4933013851048429  0.6946843161756746  0.1093345921370528
  0.0217798086930401  0.9926044279452952  0.2378629013836999
  0.9151527397974633  0.0487793630338729  0.8917628289040209
  0.9019807245122848  0.1008732842365845  0.5594255049417995
  0.7833736087698639  0.1378107076865689  0.2328746378212188
  0.7080589685081193  0.1734391844188465  0.8973387985943333
  0.6700282832969862  0.2068895086120719  0.5567111710959836
  0.5573215492812764  0.2489964879541944  0.2138469251043276
  0.4986804045838298  0.2873434654869058  0.8941444647485142
  0.4500633938680068  0.3417081218237996  0.5600169145618281
  0.3692651722866742  0.3613115034175323  0.2358917056885588
  0.2704272210992542  0.4090985910888563  0.8807660039534397
  0.2221269434871829  0.4715015053671863  0.5229626918515251
  0.0654845327975906  0.0554406940385590  0.9045478835932386
  0.0136920146001316  0.1046783596440619  0.5639628789808881
  0.9391942143072285  0.1334353695053494  0.2540073520755541
  0.8465200309855447  0.1609237081424482  0.8795830871952575
  0.7909556894236189  0.2075914078706234  0.5566677236986592
  0.7114712578536597  0.2663589198583907  0.2306940109817717
  0.6701330621485297  0.2940896742970551  0.8792765890621581
  0.5902842684048153  0.3297399114730908  0.5454521221172826
  0.5023222505014147  0.3656672360627198  0.2384157030529295
  0.4238436503549821  0.4099833000576254  0.8791549422358855
  0.3603978283383498  0.4693750903004243  0.5379137895892825
  0.2834203288737029  0.5023326964726067  0.2322510582033814
  0.1391404060986758  0.0760276148773542  0.5487660588622916
  0.0576703876379483  0.1238736605273303  0.2210863303316515
  0.9979375382642743  0.1854445188889997  0.8869516740610592
  0.9402189774303551  0.2282922835891483  0.5266661036679139
  0.8501499076105503  0.2740241592899579  0.2147967515923597
  0.8053574310958069  0.2810045959153840  0.8892479292774027
  0.7165724319426232  0.3380081161942741  0.5595115598506482
  0.6457889666293113  0.3825356702509310  0.2399666958049664
  0.5655270147160962  0.3826254555400865  0.8880393608609722
  0.5253452127649112  0.4580501383024824  0.5664492457720200
  0.4283885690919575  0.4816566078340543  0.2405538915001131
  0.3374960967505558  0.5116438344575869  0.8767866821875714
  0.2162137739489296  0.1283516459446048  0.2162241137711405
  0.1384895466506464  0.1604295509742641  0.8986364458598715
  0.0910041962931061  0.2199338211078512  0.5432892444542077
  0.9934693169815247  0.2578235412308416  0.2206768688776606
  0.9258172047426427  0.2688465945569050  0.8887121313419755
  0.8386068448426940  0.3342755589325890  0.5580617553261575
  0.7942282840899182  0.3877978694308339  0.2353599898967715
  0.7129761605020235  0.4127025079002067  0.8735961555018648
  0.6559334896248075  0.4989128636115865  0.5672947792664189
  0.5755944206741290  0.4919705785882726  0.2178366509993381
  0.4905682826523119  0.5252733926815623  0.8808290287722400
  0.4285818445016076  0.5943377534505956  0.5554863413134186
  0.2814805421654540  0.1564125166939263  0.8955358893037584
  0.2250056703578522  0.2069886088772961  0.5498299898967716
  0.1294471488794144  0.2563596011844140  0.2043971658247301
  0.0755084230020344  0.2970072864101567  0.8826534548649221
  0.0220665170239798  0.3523979155906858  0.5647255493081502
  0.9189190754744061  0.3853679578812503  0.2248984946189339
  0.8677831182080666  0.4185135287825830  0.8641230401932773
  0.7817932913646146  0.4695903747271899  0.5686878862288580
  0.7045043776595961  0.5064177769037670  0.2254788969909924
  0.6266413978056633  0.5170406846671085  0.8857506299143409
  0.5702870088051952  0.5989318880969989  0.5678166360641370
  0.5231983484695206  0.6148721081847839  0.2376161045464542
  0.3505863605791575  0.2256171017657778  0.5647129993410971
  0.2802059774831775  0.2573300060940724  0.2330437645508425
  0.2207094935261225  0.2854089353979532  0.8905214873709610
  0.1557709019739519  0.3395799035486249  0.5554696485833546
  0.0762143838845262  0.3643344450451096  0.2090298919393803
  0.0038223827744233  0.4207860979553786  0.8983007788271493
  0.9116309183015616  0.4672044022473401  0.5613905815945515
  0.8520260334685545  0.5213459720385387  0.2613157658686589
  0.7815058080318025  0.5201481571819215  0.9063792352295224
  0.7234351415480802  0.6112896206174341  0.5520598370305265
  0.6464193015547437  0.6249843179928831  0.2184582771798844
  0.5583166086063045  0.6520238105176546  0.8870405407423689
  0.4161797173507580  0.2446719960084707  0.2337206277179860
  0.3516409216310450  0.2881308570932717  0.9019180061497920
  0.3071216044658840  0.3530648025330265  0.5445120368987446
  0.2224387874301996  0.3804506632605751  0.2187578537228205
  0.1549771509969702  0.4173948361633038  0.8815261330990580
  0.0649644336534791  0.4590668214200804  0.5592091688996277
  0.0062299459265915  0.4880248372506628  0.2341816231056413
  0.9261331085450735  0.5308288560897552  0.9282060153744780
  0.8570429914360389  0.5944061685719078  0.5317201691192608
  0.7915187793291949  0.6333550370069077  0.2165850792883788
  0.7136644451686038  0.6537228380287345  0.8830803140786259
  0.6366127493897551  0.7321427477425715  0.5214042271030124
  0.1618112354931114  0.4865820394268212  0.2368789545354701
  0.0677653319641749  0.5319582559135156  0.8908768390072481
  0.9924851779311368  0.5978873901604018  0.5681740808258269
  0.9413804798434526  0.6382628438148501  0.2340438207775080
  0.8690665767295229  0.6559456411623188  0.9058128302218336
  0.7855808541210934  0.7203472191656815  0.5564241743905143
  0.7313803260984599  0.7499572063146474  0.2180272492861874
  0.1999491085883065  0.5355029442081474  0.8914503386777923
  0.1334577040625433  0.5816718998687094  0.5524270828025450
  0.0896963358808662  0.6109173034782884  0.2322013762354516
  0.0022885700558035  0.6817435948027111  0.8936869571710986
  0.9248622226574099  0.7339067680526625  0.5665737509334505
  0.8698526985120978  0.7483139275878159  0.2332126650560085
  0.7795122143069761  0.7581761008287202  0.8933031860311900
  0.2811521103725880  0.5852057406251276  0.5550307559850651
  0.2165137894609899  0.6218371791940882  0.2317534715572123
  0.1334698752153543  0.6568896350290316  0.8921103900724816
  0.0522450940848174  0.7096529716946378  0.5570629576103698
  0.0257197369519488  0.7412510074702823  0.2209242714693573
  0.9327286256446499  0.8209101360617979  0.8947467836591230
  0.8634256785092518  0.8281979382080920  0.5418557056885547
  0.3666272038047893  0.6089400335109474  0.2445068556995409
  0.2846082999460577  0.6488727951486339  0.8810720140566630
  0.2087500130907287  0.7109550431538096  0.5625550112014039
  0.1677546281256639  0.7355696137610508  0.2294244783659138
  0.0725121668936168  0.7725872566172285  0.8814205609488255
  0.9908486576299111  0.8272631132115293  0.5646223105644594
  0.9429280993166387  0.8722699883944358  0.2144919841862531
  0.3989587972029511  0.6383987726839635  0.8811152154623301
  0.3677024796334365  0.7218688738739374  0.5598268890841211
  0.3003979754035342  0.7463129460366389  0.2083729097298459
  0.2140091273144762  0.7894478274047287  0.8924237553261563
  0.1374101621710722  0.8448222210510750  0.5680180887327069
  0.0853930512742451  0.8626526216271628  0.2337632141445170
  0.9941906750450329  0.9108090104481761  0.9072220180101027
  0.9429951199068753  0.9777729488385845  0.5595984164287273
  0.8608733599055611  0.0136879656167395  0.2285645714913258
  0.7780392701396650  0.0465951855067814  0.9022384032506068
  0.7321349833960795  0.0698597945668382  0.5638387827805857
  0.6293151481512496  0.1353499360174339  0.2192008394465219
  0.5552073592752009  0.1699426763466931  0.8933824309246674
  0.4936925001524770  0.2101787369448047  0.5545509887985958
  0.0810701164322296  0.9585298560304665  0.5644172286404583
  0.1401296801145406  0.9873827903298320  0.2295252910169125
  0.2131269707179300  0.0312973483453121  0.8867062688337342
  0.2751601791473135  0.0944231439118894  0.5561318089172005
  0.3505608933442943  0.1181919125060560  0.2128452523610775
  0.4136024439054040  0.1356281734425835  0.8859228429606887
  0.8601093707190657  0.9232700626088715  0.8950436635185568
  0.8122917217017118  0.9628415967166788  0.5471916463869988
  0.7112613639583643  0.9943108887605021  0.2208797048100166
  0.6443879670356338  0.0324969665580355  0.8669972514825375
  0.5864063709878593  0.0649477513964953  0.5392276463869976
  0.5026373570000544  0.1254738157476041  0.2175031095980700
  0.1422038790903386  0.9082639690579910  0.9029233437294124
  0.2131213111312391  0.9520695340017795  0.5706607208433994
  0.2830805374631424  0.9995164875117553  0.2066525025258059
  0.3493836147358067  0.0312102943923946  0.8706534794640888
  0.4347018360794053  0.0940104859782949  0.5492916402372074
  0.7897466466233922  0.8847219617796966  0.2174749413573451
  0.7087534052770650  0.9110494865003389  0.8605448855699507
  0.6647625948268185  0.9591543333896126  0.5474709158796429
  0.5711828688170755  0.9936800356494615  0.2083865012079968
  0.5001703883053708  0.0262132575796912  0.8592559363057291
  0.2221356315912715  0.8768385344794183  0.2280382543377968
  0.2873453898375331  0.9086273229817436  0.8947086321106994
  0.3809861906613534  0.9493998339061065  0.5358838045244880