Li 
 1.0000000000000000
   -10.8535000000000021   18.7988134399488125    0.0000000000000014
   -18.6059999999999981  -10.7421791085421763    0.0000000000000014
     0.0000000000000001    0.0000000000000001   22.7650000000000006
 Li 
 504
Cartesian
 -0.0950556500000000  0.2267467700000000  0.3536023500000000
 -11.2676761200000009 17.2973549200000001 14.9679470899999991
 -11.2330113600000008 15.1648315399999998  8.0721641500000008
 -10.9023080100000005 13.7135185699999997  0.3688235200000000
 -10.9214546800000001 11.8400625799999997 15.4537674500000008
 -11.1102119899999998 10.0473297200000005  7.7012269900000003
 -10.6706819300000006  7.6929848700000001 -0.3436551100000000
 -10.4819400100000006  6.4193292499999997 15.3589476600000001
 -11.1172240799999997  4.2481673300000002  8.0025241699999992
 -10.6271173500000007  2.4240410200000002  0.1252056500000000
 -10.8567058299999992  1.1495436699999999 14.4396256100000002
 -10.8521042899999998 -0.8612168600000000  7.7973179200000002
 -0.9086474900000000  0.9459819600000000 15.4373087200000008
 -1.8118179999999999 -0.6173640500000001  8.1650581800000008
 -12.1783826699999995 16.3257744100000011  0.3268925400000000
 -12.8778900299999997 14.4476089200000004 14.9324980200000006
 -12.7928435100000009 12.8087581499999992  7.3885093399999997
 -12.7805983600000008 10.9622751600000008  0.0680928000000000
 -12.3277051699999998  8.9552895199999991 15.1521652699999994
 -12.0901043900000005  8.0592796100000008  7.8512075399999999
 -12.3107772099999995  4.9604821100000001  0.0119734100000000
 -12.1666609300000008  3.3229598600000001 15.0074672099999997
 -12.8694428999999992  1.6009122099999999  7.4864027399999999
 -12.0402491900000008  0.3225240500000000 -0.0542190600000000
 -2.8582308599999999  1.6709869399999999  7.5489718100000003
 -3.0955147400000000 -0.3801459100000000  0.1932566500000000
 -3.1056917799999999 -1.5749937700000001 14.9967603100000009
 -14.3402093500000003 15.2157616600000001  7.7460945800000003
 -14.0596972900000008 13.5602237199999998  0.0959322700000000
 -13.9875585400000002 11.4558329400000005 15.0211431599999994
 -14.5473111500000005  9.7672503000000006  8.6255427400000002
 -13.3642065100000007  7.6572572799999996 -0.2675851300000000
 -14.2812853299999993  6.3928554799999997 14.9327907900000003
 -14.1859994500000006  5.3935327900000001  7.2720046500000004
 -13.9459603500000000  2.2460042699999998  0.1457512200000000
 -14.2218137299999992  0.9480435699999999 15.0698059400000002
 -4.3486189199999998  2.5813274200000000 -0.1003830000000000
 -4.4373663700000003  0.8153763700000000 15.1338481199999997
 -4.7195585199999996 -0.8612286100000000  7.4953887300000002
 -4.3415677400000003 -2.4115894099999999  0.3350167100000000
 -15.4992900299999992 13.8350430099999997 14.6499045599999995
 -15.7955971999999996 12.1408694300000004  8.0059489700000004
 -16.1298477099999999 10.4995325600000005 -0.2132546800000000
 -15.4961090200000005  8.7933854799999995 15.1907754199999996
 -15.5571198200000005  7.1180320400000001  7.7181898200000001
 -15.1283913900000009  5.1498559100000003  0.1766391800000000
 -15.6985792800000006  3.5375038600000002 15.5894554200000002
 -15.6023953899999999  2.1651720299999999  7.9094720100000000
 -5.7280598999999999  3.4239983999999999 15.2464185600000004
 -6.2757771699999996  1.7515341900000001  7.9679303600000004
 -6.1226876399999997  0.0611657400000000 -0.1821955900000000
 -6.3200857199999998 -1.9436645900000000 15.4055468900000001
 -16.9251670800000014 15.0979753900000002  7.5681612400000002
 -16.9580831299999986 13.3810525800000004 -0.0347012300000000
 -17.2803378700000003 11.3940919600000008 15.5173703100000004
 -17.2092980900000008  9.8394993300000007  8.1276201799999992
 -16.9630374099999983  8.0326908400000008 -0.2537725000000000
 -17.5039898799999989  6.1278649400000003 15.3472223099999994
 -17.3828972800000017  5.0918075600000003  7.6434553200000002
 -17.1015167999999989  2.6590665100000002  0.2040496800000000
 -7.8287693799999998  4.1210687799999999  7.6663224899999998
 -7.4117845200000003  3.0238130900000000  0.2268136500000000
 -7.6316179899999996  0.9679485000000000 14.7175206999999997
 -7.9689170799999998 -0.8431952200000000  7.5813400900000003
 -7.5117717400000004 -2.1987845400000001  0.1939276200000000
 -19.0402768400000006 14.1605810800000000 15.6089647199999995
 -18.7749476199999989 12.4684335300000004  7.7989707599999996
 -18.6097369999999991 10.5962616700000005  0.4210018500000000
 -18.7651052100000015  8.8482992300000003 14.7268823399999995
 -18.9397343900000017  7.4425580399999998  7.7996552499999998
 -18.1940027099999995  5.6054861999999996  0.1918930900000000
 -19.3306485200000004  3.2503222699999998 14.7043021800000009
 -8.8405966700000000  5.2379755599999998 -0.2062862000000000
 -9.0904774600000007  3.4199926899999999 15.2230938299999998
 -8.9222447500000008  2.0009133200000000  7.6292839600000004
 -9.1324717300000007 -0.1056024600000000 -0.0438056600000000
 -9.2080609899999999 -1.7498646400000000 15.4022607199999992
 -9.3450751200000006 -3.5714795300000000  7.5875468699999997
 -19.9352917299999994 13.4126244600000000 -0.0680644300000000
 -20.3809468900000006 10.9265773599999996 15.2057918599999997
 -20.6872305200000000 10.1959655100000006  8.0584070200000006
 -20.0231930700000014  8.2088170199999997  0.1782523700000000
 -20.7071959300000010  5.6733954500000001 14.7244330300000001
 -20.6090973200000001  4.7993538899999999  7.1371445299999996
 -10.2346868600000001 -2.7284709299999998  0.3923419000000000
 -10.8300043299999995 -4.7499755700000001 15.8201668200000007
 -21.9601087700000015 12.7818285599999992  7.7760841799999998
 -22.0134067400000006 10.7473442800000001  0.8341847200000000
 -21.8701246699999992  8.5155357299999999 15.3222459999999998
 -21.8573940200000010  7.7755615699999998  7.8872081600000001
 -21.1441711000000012  5.5683249999999997 -0.1147070900000000
 -12.1986341500000002 -1.2681641100000001 14.7520580799999994
 -12.3856261500000002 -3.0835683999999999  7.2467418300000004
 -12.4336706499999998 -5.3523969999999998  0.0981707100000000
 -23.1884495599999987 11.2484737199999998 15.3941387600000006
 -23.8574592400000007 10.3648903899999993  7.8083035799999996
 -22.8942964899999986  8.0179157799999992  0.2944264000000000
 -23.6924965699999994  6.0573493000000003 15.3241866000000009
 -14.4356283800000007 -0.8333523000000000  7.6417152699999997
 -13.3649893899999999 -2.8592601000000002 -0.0451430400000000
 -14.0184140100000008 -4.1086969099999999 15.2862139399999997
 -13.8845044400000006 -5.8336905699999999  7.7247399999999997
 -24.8679586999999991 10.2398024200000002 -0.2356564200000000
 -24.7089717299999982  8.7804925899999997 15.1655783599999996
 -24.9234436700000010  7.5196118299999997  7.5912924000000004
 -15.4410866999999996 -0.0807464900000000 -0.1037343700000000
 -15.5039220800000006 -1.3714317100000000 15.3983221100000005
 -15.8759528200000002 -3.3226003700000000  7.8875721499999996
 -15.5180598900000000 -5.3945340799999997  0.2349021600000000
 -15.2440362100000009 -6.9229149200000002 14.7263866399999994
 -26.4055622800000016 10.0308507299999992  7.9037566500000001
 -26.3082601899999986  7.7809430500000003  0.4614332500000000
 -17.3257975000000002  1.0459125800000000 14.9247283599999996
 -17.3885545800000010 -1.0324016100000000  7.4734408600000002
 -16.8235896599999997 -2.1002930499999999  0.1124269900000000
 -16.9681011800000014 -4.4851031299999997 15.4237906500000008
 -16.7731763899999997 -6.0623833300000003  7.9771005500000003
 -16.5519087800000015 -8.0920211200000001 -0.0389789100000000
 -27.8979143399999998  9.4168382800000003 15.1746420499999992
 -28.1151540400000002  7.0780761200000004  7.4168035999999997
 -9.2720250400000008 16.4853067600000003 -0.3416240300000000
 -9.9430984299999992 14.8459703699999999 15.5615278299999993
 -9.4378502300000005 12.2099622900000000  7.3286401799999998
 -8.9316843200000005 10.7758574300000003 -0.2998687600000000
 -9.1822029700000005  9.3232303000000005 14.5856592000000003
 -8.9044881300000007  7.1575954099999999  7.6468150200000000
 -18.5415129299999997 -9.1787535699999996  7.8371033499999996
 -1.4111726000000000  2.4982811200000001  0.0794746600000000
 -2.8033726300000001  3.5895460199999998 14.9214113899999994
 -4.8258633399999997  4.2041300200000000  7.5980212900000001
 -5.6170394600000000  5.1883803799999999 -0.2768613000000000
 -7.9160187700000000  6.1503333700000002 15.3817181800000000
 -26.9341547900000009  6.4317684399999999 14.9239921500000001
 -26.7090252600000007  4.2086220299999999  7.7634569800000000
 -7.4834426100000000 13.5778104299999995 -0.3800121600000000
 -8.2107268500000004 11.5369972700000005 15.2323330899999991
 -7.9443547499999996 10.1997838299999994  7.4353048499999996
 -7.3091339399999997  7.7814154699999998 -0.1665228100000000
 -18.5373669399999983 -7.2416785700000004 15.5762953500000005
 -19.8206773699999985 -6.3478274199999998  7.8609318000000004
 -2.4476849299999999  5.3249840800000001 -0.6840622500000000
 -5.0112237799999999  6.4100686600000003 14.6062073500000000
 -6.2634915700000002  7.3632413699999999  7.1299729300000001
 -24.3440476600000011  5.1032806600000002 -0.4886142900000000
 -25.4839016799999989  3.2073888799999999 14.7451333400000006
 -24.9844358100000008  1.4890887300000000  7.2662202599999999
 -5.8543997799999996 11.0096356499999999 -0.3643087500000000
 -6.5906832800000004  8.8784399100000009 14.7134289099999993
 -18.2213155499999999 -5.5108017399999998  0.3111387400000000
 -19.8384301200000017 -4.3592892599999997 15.1029376400000004
 -21.8564191299999990 -3.9675256499999998  7.6231429400000001
 -4.2598253899999996  8.0215585100000002 -0.2663024200000000
 -23.9147606099999983  4.2973101500000004  7.3412345999999999
 -22.7956323500000018  2.9073663000000001 -0.5649237100000000
 -23.2154065400000000  0.1057204200000000 14.6337302600000001
 -23.5145622900000006 -0.7713834400000000  7.0594618699999998
 -18.8814708099999997 -3.6230243000000000  7.4332590700000001
 -19.4012373800000013 -2.6894260600000002  0.1346451000000000
 -21.5637950099999998 -1.8353992699999999 15.1700351700000002
 -22.1623091199999998  3.3439210899999998 14.6776844400000002
 -21.7271330599999999  2.1228230400000001  7.0702959500000002
 -21.3876534700000001  0.1929157300000000  0.1889132200000000
 -18.7367444300000017 -1.4920053900000001 14.9667493999999994
 -20.7412446800000012 -1.2367516000000001  7.4445249599999999
 -19.5156502500000002  3.3936248700000000  0.2588325300000000
 -20.7041087200000007  0.9280772200000000 14.8502274300000003
 -18.4255545900000008  0.3149722100000000  0.3176602600000000
 -19.2995374499999990  2.1053921799999999  7.9196430099999997
  0.1160891900000000 -0.1542893900000000 17.9822096400000007
 -11.1973855199999992 17.0407479200000012  9.7620158200000002
 -10.5406317600000001 15.1629442700000006  2.6061155199999999
 -11.1088385499999998 13.4001518199999996 17.8352318300000015
 -10.8045480099999995 11.8884466700000004  9.8002412200000002
 -10.5895927400000005  9.6494100700000001  2.0106270300000002
 -11.1768534800000001  7.9550717400000002 17.6140319599999984
 -10.6820767599999993  6.2035471299999996 10.2895417899999995
 -10.3859573100000002  4.5744078699999999  2.5899820899999999
 -10.9373999400000006  2.4589671399999999 17.5647130699999998
 -11.1441049400000001  0.5800099100000000  9.6361787000000003
 -10.7122236700000002 -0.7144678100000000  2.6025676600000001
 -1.7238955100000000  1.1898702500000000 10.2990159000000006
 -1.3661003800000000 -0.5136577900000000  2.8832229800000002
 -12.1968832299999992 15.8277682899999999 17.7977813299999994
 -12.5332299400000000 13.9585132900000009 10.2144675300000003
 -12.1016456199999993 12.3933778199999995  2.7256573099999999
 -12.5723694199999994 10.8970228000000002 18.1595429199999998
 -12.3469940600000001  9.5029021799999995 10.4024616400000003
 -12.4497999400000001  7.2833695100000000  2.5452794900000000
 -12.3204566599999996  5.2765047400000000 17.5909170999999986
 -12.7762205000000009  3.3261113700000000 10.0819018000000007
 -12.2153749299999994  1.9302851700000001  2.8801709799999999
 -11.8621918799999992 -0.0700380300000000 17.9267236200000006
 -2.7666198299999998  1.7872618499999999  2.7301502100000001
 -2.8593202400000002 -0.2196436600000000 18.0055087900000004
 -3.5483337300000000 -1.9964512800000001 10.1193936200000003
 -13.7114952799999994 15.4287126299999997  2.4567311200000002
 -13.8510552300000001 13.4193883100000004 17.6309949099999983
 -14.0408579899999992 11.8007126899999992 10.1935820600000007
 -14.1656877500000000  9.7867212699999993  2.5749208100000001
 -14.0519943400000002  7.9578460099999999 17.3828488000000014
 -13.9614145100000009  6.3645671899999998 10.5038219799999997
 -13.7525645300000008  4.4171063699999999  2.8082826200000000
 -13.8090513700000006  2.6459522899999999 17.6826722600000004
 -14.2004339099999992  0.5440246500000000 10.0159056500000005
 -4.5088466900000004  2.5281094400000002 17.7356644099999983
 -4.3947499399999996  0.9305031200000000  9.8956672399999999
 -4.5268423100000001 -0.9923213800000000  2.9443860200000000
 -4.4579385699999996 -3.2099087000000002 17.6627595900000003
 -16.1237410799999985 13.9514241099999996 10.3907366000000003
 -15.5422966400000000 12.2821620800000009  2.6098107700000002
 -15.6207332599999997 10.7896056500000004 17.9238554400000005
 -15.9153902699999996  8.9765888599999997 10.8349635000000006
 -15.4972313800000006  7.0843759899999998  2.2892423499999999
 -15.3730710399999992  5.2558112399999999 17.7622797900000009
 -15.7574414800000007  3.7821696800000000 10.0460884600000000
 -15.0053909700000006  1.6087963199999999  2.8471053600000000
 -6.2076514100000004  3.7863604799999999 10.3140781599999993
 -6.0472601600000004  1.6756412199999999  2.1697249300000001
 -5.7669327800000003  0.0721456600000000 17.9777433500000008
 -6.7643134800000002 -1.7885306500000000  9.7355477199999996
 -16.9287144500000011 15.0820975700000002  2.1933042100000000
 -16.6273181399999999 13.1778304899999998 17.5006594699999987
 -17.2370009800000012 11.2091514700000001 10.0994734400000006
 -17.4211531199999996  9.9946647300000002  2.7918575699999999
 -17.0900565299999982  7.7686972200000000 17.3434177699999985
 -17.2468097000000000  6.3526924200000003 10.3445580300000000
 -16.8878232500000003  4.3401637900000001  2.5740399200000001
 -16.8982421800000004  2.7433819300000000 17.4300010400000005
 -7.8702288200000003  4.5043267399999998  2.6184443599999998
 -7.3892584299999999  2.7393211399999999 17.8927090600000014
 -8.0442307399999997  1.1035691999999999 10.2171550999999994
 -7.7343633199999999 -0.3411836100000000  2.6406488299999999
 -7.7189596900000002 -2.6179630100000000 17.7476449800000005
 -18.7526764300000011 14.0484328000000005  9.7879522800000007
 -18.7127083700000014 12.7648462100000000  2.3135186399999998
 -18.4793866099999988 10.5235313900000005 17.7987597999999991
 -19.0743620599999986  9.0117788399999998 10.3903447100000008
 -18.3307204299999995  7.2791949400000000  2.5073340000000002
 -18.4929094099999993  5.4054387899999998 17.5497063400000002
 -18.7963842499999991  3.4941546600000000  9.6263398400000000
 -9.0971405300000008  5.2536175500000004 17.8795202800000013
 -9.3697774099999993  3.6583906700000002 10.0851668599999993
 -9.1720597900000005  1.4324824300000001  2.4392303599999998
 -8.8579234299999996 -0.1818448600000000 17.4429441300000008
 -9.8103759099999994 -2.1366376300000001 10.1622042100000005
 -9.3462859999999992 -3.5003634099999998  2.4989001499999999
 -19.9544275099999986 12.9085603800000008 18.0597249600000005
 -20.5682602299999999 11.9191055699999993 10.4939666700000007
 -19.9740620200000016 10.2085400400000008  2.9415489199999998
 -19.8263949500000010  8.2621452200000007 17.6307546299999984
 -20.0334685199999996  6.4546458500000004 10.0173921400000001
 -19.6728789000000006  4.9546817699999997  2.7218544499999999
 -10.2138528100000006 -2.6544791600000002 17.5642157200000000
 -11.1073546800000003 -4.3874110300000000 10.0742165200000002
 -21.7265361699999993 12.8246952400000005  2.9532970700000001
 -21.4984767499999982 10.6746999299999992 18.1300580400000015
 -22.3623477599999987  8.8662196200000007 10.1434117100000005
 -21.7577722099999988  7.3469968600000000  2.5001733100000001
 -21.5808466000000010  5.4539701500000000 17.3952888200000011
 -12.9978434200000006 -1.9562718600000000 10.3059127400000001
 -12.1347030199999999 -3.7861764400000002  2.8549358300000001
 -12.5396861699999995 -5.3145484900000000 17.9027298600000009
 -23.1907086999999983 11.3378119399999999  9.8825265699999996
 -23.2544284599999997  9.5791827000000005  2.5717247900000002
 -23.0420892700000017  8.4176948399999993 18.2048633899999999
 -23.5912633099999987  5.9298700899999996  9.8282095900000002
 -13.7547692300000008 -1.0749870200000000  2.7407550600000001
 -13.4109704300000008 -2.9319041800000001 18.0913812800000002
 -13.7598998399999992 -4.3331607600000002 10.2127930599999992
 -13.9093143999999995 -6.1703250100000000  2.5125122900000001
 -24.7395122000000001 10.6434700499999995 17.9788365600000013
 -25.0793996499999992  8.6978071900000007 10.1988343199999996
 -24.8372710300000001  7.0588828499999998  2.4617909099999999
 -15.3548422299999991 -0.2600916400000000 17.5217416600000000
 -15.9426094099999993 -2.1676886899999999 10.5957376300000004
 -15.3685829700000003 -3.7254343900000002  2.5506779900000001
 -14.9727396400000003 -5.3662273200000001 17.5827688500000008
 -15.7565384799999997 -7.2994660800000002 10.8564302599999998
 -26.3245253599999991 10.2200810400000002  2.6704480199999998
 -26.4881547799999986  7.8185601199999999 17.6812855499999984
 -17.1040613899999983  0.9337488400000000  9.9603693599999996
 -16.6813491700000007 -0.8906270300000000  2.6234805799999998
 -17.1651970200000008 -3.1247255500000000 17.6102017400000008
 -16.8008291999999990 -4.8281212699999996 10.4217708299999998
 -16.7738898399999989 -5.8670864900000002  2.9105115100000001
 -16.7149836000000001 -7.9692736300000000 17.7901237600000002
 -27.8648783000000009  8.6798511299999994 10.3255840899999995
 -27.8728304700000002  7.3033570200000000  2.7482281400000002
 -9.7148003000000003 15.8797149599999994 17.8238856900000009
 -9.8053901499999991 14.0545139599999995 10.1061096799999994
 -8.5960753400000005 12.2939144900000006  2.7356527399999999
 -9.6297609800000004 10.1134752300000006 17.6962900999999988
 -9.3212543599999993  9.2108276999999994 10.2177115500000006
 -8.9443752199999995  7.2158080399999998  2.1721998400000002
 -18.3302434800000000 -8.6415996100000001  2.6904444399999998
 -1.1217085200000001  2.3575996099999998 18.4254764900000012
 -3.0719706499999999  3.3687053200000001  9.8666572400000003
 -4.5540183799999996  4.1317154100000000  2.2954998099999999
 -5.9677386900000000  5.5143700800000000 17.6252870900000005
 -7.8137908999999999  5.9567912099999996  9.9055374199999999
 -26.8112864199999983  6.0212714099999998 10.0031340100000001
 -26.1293886600000000  4.2289479300000004  2.0355872800000001
 -8.2770952300000005 13.3961835699999998 17.3128337700000010
 -7.6607599400000002 11.8939307400000001  9.9499695700000004
 -6.9816053599999996 10.2692764499999996  2.1807178100000000
 -8.2363299500000000  8.2352514499999998 17.2202120100000009
 -18.6446137500000013 -7.5577291300000002 10.0661643600000001
 -19.7757479399999987 -6.4803427300000003  2.4096293400000000
 -2.6726478299999998  5.2545394800000000 17.3401022199999986
 -4.6370155100000003  6.3142028699999999 10.2818138099999992
 -5.9960425199999996  6.7990339700000000  2.5849842600000001
 -25.1104290200000015  5.3034525300000004 17.4809480400000012
 -25.1923360800000005  3.5749116600000002 10.0747227600000002
 -24.2208552700000013  1.6498572600000001  2.4435117700000002
 -6.4412486400000004 10.6029974199999995 17.2831537799999992
 -6.1200079699999996  8.4068630500000001  9.8742591500000003
 -18.4765221699999991 -5.8722101699999998 17.7895703300000001
 -20.0621465299999997 -4.4271412200000002 10.4694434600000008
 -21.2463946099999994 -3.7181021300000001  2.0401917500000000
 -4.9270944900000000  7.9421665600000004 17.2553892299999987
 -23.4009970600000017  4.6081893300000001  2.4211875200000001
 -23.4206492500000003  2.5554695900000000 16.9245595000000009
 -23.4457585900000005  0.7731642300000000  9.5041478399999999
 -22.7302294399999987 -1.0965848400000000  2.2454802599999999
 -18.3050621699999994 -3.3630598799999998  2.7750385500000001
 -20.0918476900000016 -3.1648703100000000 17.5037718799999986
 -21.8027065600000007 -1.6489652299999999  9.4828358900000005
 -21.9421646099999990  3.7646340100000000  9.8134508500000006
 -20.9600007400000017  1.7362581900000000  2.3288670900000001
 -21.7566265600000008 -0.5396966200000000 17.3111146900000001
 -18.5292592599999999 -2.2058486099999999  9.8854367199999995
 -19.5613110799999994 -0.9341301200000000  2.4254619700000002
 -20.0987091299999996  2.5490179799999999 17.2556612200000004
 -20.2200110100000003  0.6649869000000000  9.6933307800000001
 -19.0897657100000018  0.0651211600000000 17.6902936100000012
 -18.2793429699999983  1.8110573599999999  2.4890019900000002
 -0.0987851400000000  0.4888791200000000  5.4149489500000003
 -10.8401990900000005 16.6797889700000006 20.3009808000000014
 -11.6664961199999997 15.8725684800000000 12.7353216200000006
 -11.0664514900000004 13.2461070200000002  5.3013911299999998
 -10.9119274799999992 11.4475536699999996 20.4279177499999989
 -11.1215381699999991 10.3732925399999996 12.6735298099999998
 -10.6817180900000004  7.8022189600000003  4.8682252500000001
 -10.7587402900000004  6.2879049199999999 20.3551987399999987
 -11.2425843600000004  4.7899679300000004 12.7487850599999994
 -10.7303813800000007  3.0604741999999998  5.3700746800000001
 -10.5467702299999999  0.6891005400000000 20.0506380799999988
 -11.1836117900000005 -0.8892306500000000 11.9052456800000002
 -1.7422659300000001  0.6354776500000000 20.5920325700000006
 -2.0962518399999999 -0.8670800600000000 12.8386149399999994
 -12.6762428899999993 16.2223501799999994  5.7824773699999996
 -12.1818516700000004 14.1849008399999992 20.0237089799999985
 -12.4470833100000000 12.6390443599999998 12.6725407299999997
 -12.6778273600000002 10.5135402199999994  5.2517491600000001
 -12.7451216699999996  9.4385424600000007 20.0167315499999994
 -12.5417910999999993  7.5545186500000003 12.4172175599999992
 -12.2555591400000008  5.5149993300000002  5.4275334800000001
 -12.2283363400000002  3.5636436699999998 20.0139622599999996
 -12.6447707600000001  1.7329402500000000 12.2456074200000007
 -12.4225046900000002 -0.0681819100000000  5.2871953400000002
 -2.9247301999999999  1.7989722800000001 12.4926593300000004
 -2.9307188800000001 -0.2465381900000000  5.0330303100000000
 -3.4279957900000002 -2.0308500700000001 20.1914548600000003
 -14.4522729000000005 15.2226445500000001 11.9895538500000001
 -14.3255955299999993 13.0381929099999994  4.8898480500000003
 -13.9693183899999998 12.1211623999999993 20.2437291100000003
 -14.0662979000000004  9.8397677399999992 12.7372806599999997
 -14.1265292299999992  8.0307996199999998  5.4628418300000003
 -13.2570766800000008  6.5210056700000001 20.2162160499999999
 -14.2243151399999999  4.9554100200000004 12.8952170800000001
 -13.6112181799999998  2.8791552399999998  5.4762093399999996
 -13.1826590699999997  0.8483564500000000 19.9600488200000008
 -4.7347869200000003  2.6857860300000000  4.9223419499999999
 -4.4880485200000004  0.8800761800000000 20.4574586899999993
 -5.0798027200000000 -0.6517975900000000 12.3679796500000005
 -4.7261840399999997 -2.8923557500000001  5.0237089199999998
 -15.0505167699999998 14.5162666399999996 20.2315316699999990
 -15.3213504399999998 12.1739657000000001 12.7042758599999992
 -15.8355238400000005 10.7647551700000008  5.3579701699999998
 -15.4170296199999992  8.9697815700000003 19.8874164799999988
 -16.4019468699999997  6.9713599600000000 12.9144656500000004
 -15.4008186299999998  5.5356560600000000  4.9590513600000001
 -15.0976195999999998  3.5795207599999999 20.0520728400000010
 -15.7098612899999992  1.6723475400000001 12.6456465599999994
 -5.9652603500000003  3.6112889300000002 20.3868745199999992
 -6.2933291000000002  2.0063309100000000 12.5168797200000004
 -6.1747813699999998 -0.3204079500000000  4.6531014800000001
 -6.3456482400000001 -1.7710367100000000 20.0936059000000000
 -17.6497145599999996 15.4281162500000004 12.8559771299999994
 -17.1436444100000003 13.1348966399999991  5.1198142300000002
 -17.2053467900000001 11.8175456600000004 19.6717610100000009
 -17.2223919999999993  9.6523623199999999 12.9461797300000008
 -17.0687474200000011  7.8038159000000000  5.1330270899999997
 -16.4213113899999996  6.2259710899999998 20.1641130900000007
 -17.3333367600000017  4.2868854699999996 12.9263457200000005
 -17.1188437200000010  3.2304418300000002  5.4093306200000004
 -8.0029208599999997  4.1669882700000000 12.8556914300000003
 -7.8290976700000003  2.5032548800000001  5.3052412999999996
 -7.7057891400000003  1.0831626900000000 20.2727216599999984
 -8.0088831700000007 -0.7195200200000000 12.6452665500000005
 -7.6059995000000002 -2.4810058800000001  4.7585654899999996
 -18.7241323699999995 14.3505100700000003 20.4498172300000007
 -18.5871912799999990 12.1187861899999998 12.7800565899999992
 -18.9476277099999990 10.4166866400000000  5.9488534099999999
 -18.1599499000000009  9.1038572200000001 20.6337232899999989
 -19.2254579899999989  7.0331396699999997 12.5676421900000008
 -18.6443701100000006  5.4382223700000001  4.9732026800000000
 -18.1912443300000000  3.4915332100000001 20.1934779099999986
 -9.0693737199999998  5.1953744600000000  5.3206500900000000
 -9.1774974700000005  3.5152788099999999 20.5321634099999990
 -9.9024680499999995  1.9808364000000001 12.3958165200000003
 -9.4929044200000003  0.0947161000000000  4.9800225400000002
 -9.4480928300000002 -1.5703435400000001 20.0679424200000014
 -9.2464887600000001 -3.7101237500000002 12.7303967300000007
 -20.0013068400000016 13.6734788199999997  5.3311446499999997
 -19.9283873900000010 11.7079448799999994 21.1306099399999994
 -20.3614372800000005  9.7261737799999999 12.1046096500000004
 -20.3749528899999994  8.0760006200000003  4.9305593300000004
 -19.9089241799999996  6.3936369500000003 20.1033233500000001
 -20.5317244400000014  4.1027557799999999 11.8697672300000008
 -10.8095636699999993 -2.1850921900000002  5.3925494000000000
 -10.6331063399999994 -4.4404830300000002 20.2808112399999985
 -21.8962306600000005 12.2349302699999996 12.9344829499999996
 -22.0927915100000014 10.8405022300000002  5.3280075800000004
 -21.6369386900000009  9.2911348799999995 20.6208290800000000
 -21.9290821600000001  7.0298890700000003 12.6669963299999999
 -21.8917401500000004  5.6929076700000003  4.9633903300000002
 -12.1337154300000005 -1.9936625500000000 20.2938669599999990
 -12.2710705600000001 -3.7395772500000000 12.5760025399999993
 -12.3402465299999999 -4.8763984100000002  5.2860643300000003
 -23.5628603199999986 11.5184240399999993 20.3447835800000014
 -23.6930614599999991  9.5025544300000000 12.8980514399999997
 -23.3640751999999985  8.3136763600000005  5.3090863199999996
 -22.5670603499999984  6.5094412200000002 20.3360470299999996
 -13.9398224400000004 -1.0010588100000000 12.6352751600000008
 -13.9198349700000001 -2.6096840200000000  5.2758677799999996
 -13.6707038399999998 -4.5473508300000001 20.3088930300000001
 -13.7708453199999994 -6.6410735499999998 12.6815382299999992
 -24.9243654100000001 11.3196628900000000  5.0293410400000003
 -25.3972241300000015  8.7158277099999992 20.3689105300000008
 -24.7806414400000001  7.3347276600000004 12.3353451399999994
 -15.3091266200000007  0.3508135000000000  5.5661985700000001
 -15.1619234100000000 -1.6200094500000000 20.0576043999999989
 -15.4936977999999996 -3.7129538599999998 12.8065648299999992
 -15.5067330900000009 -4.7480325800000003  5.2228482500000002
 -15.1617692999999996 -6.9361279900000001 20.0655390699999998
 -26.1462333899999990  9.7401705300000003 12.8536269000000001
 -26.4635255299999983  8.3558489799999993  4.8829100199999997
 -16.2081468700000002  0.6421580400000000 20.0585878800000010
 -17.4219511300000001 -0.8420744200000000 12.7444591299999992
 -17.1462681000000003 -2.3699018399999998  4.7436092900000002
 -17.0112143399999987 -4.4572722999999996 20.3160267899999987
 -17.2101434399999995 -6.4920836099999999 12.9309317900000007
 -16.9773281599999990 -7.6614809299999997  5.3216195700000002
 -27.7369609399999995  8.9055315000000004 20.6529092399999996
 -28.4272410200000003  7.2237771899999998 12.7392579500000007
 -9.5981673000000001 16.0363591099999994  5.2032724699999999
 -9.3113992400000001 14.1256812600000003 20.5394572500000017
 -9.2460383799999999 13.0128225400000002 12.8357898899999991
 -9.3485928699999992 10.3764248099999996  4.9901071100000003
 -9.1878965099999999  8.6116849000000002 20.3378510400000003
 -9.2688771299999999  7.0230555700000004 12.6243532599999995
 -18.7143010099999998 -8.7726773999999992 12.8489582099999993
 -1.2861416800000001  2.7698080400000000  5.2251432500000004
 -2.8954920400000002  3.6703324400000001 20.1858682099999989
 -4.7432880199999996  4.1583745499999996 12.6603406300000003
 -6.0038913799999998  5.3204901400000004  4.8454221700000000
 -7.0125319199999998  6.3182930500000003 20.1680335200000016
 -26.5135598399999992  6.2511032200000001 20.3756689999999985
 -26.7308389499999990  4.9271036500000003 12.4568178300000003
 -7.6138236099999999 13.4319831399999998  5.0283264799999996
 -7.5985033599999996 11.7646409399999996 19.7371924300000003
 -7.5729794100000003 10.3260635900000004 12.2755173699999993
 -7.7899403700000001  8.1011237000000005  4.9514582899999997
 -18.4425692099999985 -7.0834700399999999 20.5550499199999983
 -20.0273178999999999 -6.2208736900000003 12.9910913099999998
 -3.0634183799999999  5.3267721899999998  4.7044442200000001
 -4.3727337999999998  6.2327308199999996 19.8204264600000002
 -6.4671954800000000  7.1620012400000004 12.5046241899999995
 -25.0326520499999994  5.3424581000000000  4.9508170399999996
 -24.6434418300000004  3.5370662799999999 19.5903043200000013
 -25.0610263499999988  2.1933403600000001 12.4631754000000008