Li                                      
   1.00000000000000     
    22.0829999999999984   -0.0000000000000006    0.0000000000000000
    -0.0000000000000006   22.0829999999999984    0.0000000000000000
     0.0000000000000006    0.0000000000000006   22.0829999999999984
   Li
   500
Direct
  0.9971668505184965  0.9878655567631185  0.0058600163021296
  0.9889629932527271  0.1183150862654543  0.0909461662817534
  0.9722060761671898  0.2188616220622208  0.1749732934836743
  0.9725799230177046  0.2871490381741637  0.3071356079337022
  0.9988440782502366  0.3976763188878323  0.4047046551646076
  0.0044505062717946  0.4877477951365279  0.5072897545623363
  0.0279506199338826  0.6324328931757464  0.6087230226871370
  0.9978470955033316  0.7206142381017102  0.7284418031970290
  0.9883277516641726  0.8003958325408718  0.7934589032287249
  0.0116330616311160  0.8868825721142954  0.9055926490965902
  0.0900481777838138  0.9954388937191538  0.0902714001720781
  0.0890698646017327  0.0991234850337364  0.1805186319793535
  0.0975006253679283  0.1978055631028397  0.2909349255083100
  0.1036984608069531  0.2927425585291843  0.4022875030566482
  0.1102734017117228  0.3713643268577655  0.5228018244803678
  0.1136057569170887  0.4911652470225931  0.6027541180998952
  0.1136225191323632  0.6262474020739930  0.7102928963456066
  0.1087073595073136  0.7133706308019754  0.8145348136575663
  0.0991402703437032  0.8093582099352474  0.8929391056468745
  0.1179821917311941  0.8881299375084879  0.0059986845084481
  0.2105119114250797  0.0044031019336117  0.1981883023139943
  0.1768654517049342  0.1014577050219643  0.3018945881447266
  0.2075381325001118  0.1927840832314445  0.3984002463433427
  0.2069113467373072  0.2887657107277093  0.5087690639858735
  0.1985429316668927  0.3876640202870973  0.6236100538876030
  0.1963234592220289  0.5069744065570774  0.6968964361726222
  0.2199792845174997  0.6024498709414488  0.8208306068016142
  0.1962939084363526  0.6901039935697142  0.9059198415070426
  0.1983708024272062  0.7926928451750186  0.0242731635194460
  0.2268641298736611  0.8933898849793991  0.0952347276185321
  0.3164998818095341  0.0012653194765235  0.2906062346601459
  0.3218867798759248  0.0831268627450967  0.3846708821265210
  0.3226449689806614  0.1932971960331500  0.4847338821718097
  0.2977934166553453  0.2800847013539851  0.6071953140424782
  0.2950254639315304  0.4095978847982593  0.6985815740614925
  0.3048387488112994  0.5091024770185228  0.7952019942942528
  0.3013357075578469  0.6133697849024173  0.8827107390300242
  0.2824986383190691  0.6875509179006443  0.0186911809989567
  0.3102889879092530  0.7926623792057228  0.1086330072906776
  0.3087840433817846  0.9026316247792394  0.2013264384368085
  0.4101476457003130  0.9889194502558496  0.4090476864556436
  0.3972401530589167  0.1165476230584588  0.4920291790064724
  0.4068677539283598  0.2144958135217152  0.6006709120137685
  0.4020085803559326  0.3031008413711902  0.7120459869582945
  0.3899306434814136  0.3895569134628474  0.7945278943078407
  0.4013334406557050  0.5012757514830426  0.8810874002626434
  0.3939746864103597  0.5974114368518784  0.9941456351039264
  0.4161539020966387  0.7034114151157027  0.0860124765656849
  0.4190406919349741  0.7889921749762294  0.2026825150568285
  0.4241756056695181  0.8898872775438136  0.2976254435538621
  0.5076214069646312  0.0146289679844216  0.5088594946338816
  0.5131425834352186  0.1134038586242809  0.6047770656160836
  0.4974120993524451  0.1941174274328645  0.7042345935787679
  0.4958043440655686  0.3096762328488012  0.7920216841008951
  0.5146456654440072  0.4179313354163838  0.8970721718063643
  0.4809503989494175  0.5035120142190834  0.0075323130915166
  0.4679230543857287  0.6211254657428782  0.0867374296970524
  0.5132601430965025  0.6962297215052331  0.1882021093148580
  0.5157911108092179  0.7846767866684772  0.3038251424172458
  0.5060497015804017  0.8897373087895701  0.3952730675179978
  0.5927922832042753  0.9896384318253837  0.6022310890730438
  0.6098796033147664  0.0981865262871864  0.7208498541864756
  0.6030187216410781  0.1968789000588700  0.7991137825476642
  0.6039596567495380  0.3198860100529828  0.8949611588099415
  0.5835695376533963  0.4212808259747334  0.9932573903002293
  0.5922233591450450  0.5326814617579103  0.0942670896164444
  0.6047964479463843  0.6160285364307398  0.1991510637141687
  0.6051167083276709  0.7080395358420475  0.2982771584476751
  0.6049274939999094  0.7988378390617186  0.4127493225558112
  0.6012578200425693  0.8951808599375113  0.4925285477516610
  0.7051213920210131  0.0121571204093627  0.7075699311687700
  0.7023988420957323  0.0941234220893890  0.8053426246433943
  0.7068289584748442  0.2036352855137409  0.9052223524883374
  0.6859392845175023  0.3295210342797645  0.0065965353439310
  0.6811709971471274  0.4164153656658982  0.0971304184214077
  0.7265431766517239  0.5180560639405911  0.2211019684825430
  0.7006702114748933  0.6101856287642065  0.3067836584703159
  0.7185682502377375  0.6910301915500625  0.3938700937372630
  0.7102001716252317  0.7847247543359117  0.5135770271249385
  0.6832126558891432  0.8872597115428178  0.6257968781415570
  0.8029725825295486  0.0064239872299936  0.7930233088801373
  0.7810779481954455  0.0756593048951686  0.9185912362450779
  0.7837289892677646  0.2116755988769654  0.9880942557623484
  0.7956502495132014  0.3126681519721046  0.0889898428655513
  0.7842031309151807  0.4215668862926236  0.1976520255400089
  0.7987871104469519  0.5137899606031766  0.2999778707603156
  0.8029641819499176  0.6000842829325705  0.4092880718199510
  0.8043029520445586  0.6804159874111306  0.4936967608567642
  0.7958549508671808  0.8109193107820474  0.5918404243082946
  0.7860389734184636  0.8965847547887549  0.7111823760358646
  0.9055823266766296  0.0015455880088737  0.9134300656613661
  0.8847036983199743  0.0967575818502908  0.9987012353394036
  0.8891729837431512  0.1958421998822644  0.0861660105058206
  0.8847629257800094  0.3117429846488236  0.1975274763392676
  0.8901597405243820  0.4052169075759622  0.2941206828782299
  0.8843041706289938  0.4932563469637259  0.4062422225241136
  0.9039865009283190  0.6184237023955106  0.5045697926006412
  0.9138766983652573  0.7036074555087595  0.5864275320382220
  0.8998908291445886  0.7956617456867292  0.6955202336639061
  0.8963991368926330  0.8906817642530456  0.8019385894126714
  0.0932605859711089  0.1159363773038109  0.0100954295159141
  0.1200434275234343  0.2102094248969806  0.0934425603405344
  0.0981004600824136  0.2883568382918966  0.2164338758320881
  0.0931215976090201  0.4070361404700478  0.2951206221980698
  0.0789550110945072  0.4981575057736691  0.3990822496943380
  0.0794492808948064  0.6069236403568325  0.4944837599058118
  0.1061537426980053  0.7138789924376212  0.5941391694968985
  0.1001988864737555  0.8101890377213223  0.7110319829733314
  0.1148876343793859  0.9089995666349679  0.8061546642213457
  0.1073312738305461  0.0093345487479084  0.9205186858669592
  0.2006415197210529  0.0908576787574162  0.1036279871394257
  0.2002891291944024  0.2031615428157423  0.1902706914821337
  0.2166970044830876  0.2969164728524234  0.3005667970837322
  0.1977462536792984  0.4037091355341218  0.4004865964769309
  0.1936649875469811  0.4903906398587168  0.5050501394738021
  0.1853436897160705  0.6161913068876501  0.6101971208622032
  0.2004605397817301  0.6971238626998115  0.7032962699814362
  0.1997313159443905  0.8063959321650174  0.7844609790336463
  0.1969699307159374  0.9023567780645720  0.9196464900602308
  0.1926997776570190  0.0232314083231415  0.0236840515328538
  0.3065936960557920  0.0983672503735917  0.1988315976090220
  0.3057380346873160  0.1870112385092639  0.3107463800208308
  0.3047075080378576  0.2851553289861002  0.4072458502015124
  0.2747445451252091  0.3896253271747483  0.4969857184259396
  0.3004993506317106  0.5047329665353431  0.5815527256260467
  0.2963380038943981  0.6020376678893271  0.7059253362314877
  0.3048809880903889  0.7079771724856201  0.7857258212199412
  0.2826375841144753  0.7759628773264495  0.8894062681700845
  0.2965311488475280  0.8954134868450865  0.0042927369469723
  0.3279245365213086  0.9944984114477222  0.1070188774170191
  0.4203536045827079  0.1050392894987127  0.3058550273966389
  0.4215438119820689  0.2065310311099040  0.3747118385183157
  0.3895002223429813  0.2993180700086029  0.4912364909659033
  0.3848641289679833  0.3922055508762412  0.5937796232395982
  0.3820641497984880  0.5047941855726137  0.6799849155458944
  0.3973214726260039  0.6099968165557215  0.7886715804012141
  0.4082330095548627  0.6964699171308268  0.8913770669745986
  0.4040508327672896  0.7679700950957766  0.0005711755649145
  0.4149659366933847  0.8800968269709699  0.1163907585020141
  0.4123350536611881  0.9953988987003584  0.1847138577186058
  0.4920352184938608  0.0994669804827240  0.3887181048770572
  0.5102621935425447  0.2116499474709030  0.4805348901870232
  0.4931534270705953  0.3028240207399335  0.6147727405696699
  0.5036499882262362  0.3898770909749558  0.6881039922112038
  0.4800615754200095  0.4927317678757390  0.7766414848526040
  0.4881300828691764  0.5786698143368199  0.8791708649187129
  0.5041570995788618  0.6818422035049565  0.9867386509985039
  0.5223389620975425  0.7852151804555518  0.0942095462573036
  0.5171230892541772  0.8842286233754493  0.1950045804465006
  0.5090451514739840  0.0098706819725578  0.2915353819680320
  0.6018945931259339  0.0866648222614685  0.5023736937916041
  0.5944526178508340  0.1848154467237251  0.6291137078295534
  0.6028935837522056  0.2858777398904166  0.6999718955757857
  0.6012229253271784  0.4136083838246591  0.7744639962867339
  0.6090462215278691  0.5248134071457713  0.8518860345061796
  0.5766299787166602  0.6009882611058259  0.9928982085767331
  0.5941282121994291  0.6816805651406028  0.0962882330299308
  0.6037717882534110  0.7818771244849003  0.2003419499162220
  0.6075676891726687  0.8987836562061347  0.2844033917493078
  0.5781338912285463  0.0126458248426360  0.4156752664945884
  0.6967255146492803  0.1022481415568564  0.5976392147805996
  0.6976594914640231  0.2063466077978546  0.7219453077027609
  0.7094424013947389  0.3031052664945904  0.7915598202237035
  0.6862238604356321  0.4026278553638534  0.8885333405787250
  0.6827674337725824  0.5078534574106754  0.9974989367386655
  0.7148755513290794  0.5953426758139742  0.0992112856043121
  0.7074456418964843  0.6717049463388136  0.1950134343159888
  0.7009115740614931  0.7633666961010732  0.2925157772947529
  0.6959300480007258  0.8824173862246951  0.3842088026989074
  0.6759419567087832  0.9929028619299913  0.5002635217135349
  0.7937592206674822  0.1019698075442648  0.6902153611375255
  0.7932007263505838  0.1767068106688399  0.8250801621156540
  0.7909792034596776  0.3334308531449537  0.8936805837069244
  0.7941976416247769  0.4027676470588233  0.0158323479599716
  0.8136244364443215  0.4940499610560138  0.0801881193678398
  0.8200581089525869  0.6215345645972050  0.1894236983199775
  0.8047116315717986  0.7038899651315518  0.2955485649594678
  0.8100590313816056  0.8096364542860996  0.4124249073948292
  0.7739598999230211  0.9212494565955680  0.4992200244532015
  0.7853430448761500  0.9975970642575760  0.5865462894534232
  0.8809805923108271  0.1046915921749729  0.8072704994792375
  0.8817309192591622  0.1988013295295019  0.9155883240501765
  0.8928443590091959  0.3212904184214125  0.0119676801159230
  0.9188719698410566  0.4026721469003292  0.0897285699406751
  0.8993788982475195  0.5081082891817204  0.1996874935470743
  0.8830367993479129  0.5966275755105741  0.3057882035955259
  0.9078891147036217  0.7272606144998406  0.4123774410179806
  0.8853407775211721  0.8298264538332631  0.5134414065117952
  0.8788105443101060  0.9089489190780213  0.6296475949825648
  0.8730359308065019  0.0118092107050671  0.7033911502060377
  0.9970327115880977  0.0958757465018323  0.9259079884979400
  0.9862738223973224  0.2114796581080469  0.9792180364986649
  0.0178445356156303  0.2996014622107523  0.0893161794140269
  0.9987845904089099  0.4021078675904519  0.2057280346873185
  0.9907285242041368  0.4981237544717629  0.2923720930127232
  0.9718163985871513  0.5947640936466954  0.4031251627949075
  0.0048311076393617  0.7154459715618344  0.4991349653579675
  0.0074224992075358  0.8004859163157150  0.6116866508173686
  0.9763856772177704  0.8976907412942055  0.7160889457954056
  0.0047285808087665  0.0035748317710471  0.8210790236833745
  0.1973473499977345  0.2100946415794951  0.9934131395190846
  0.1793901526060750  0.2974125585291887  0.0974885328080433
  0.1786537164334590  0.3950818548204467  0.1972189426255468
  0.1848552714757972  0.4796151428700810  0.2872146660326962
  0.1855323810170688  0.5882414957206876  0.3983002209844670
  0.1907247208259761  0.7066650586423933  0.4791987243581062
  0.2027487284336402  0.8107794208214472  0.5911529407236316
  0.2138109609201635  0.9121956921613901  0.6948200606801578
  0.2037390685142384  0.0047947430149904  0.8192030358194060
  0.1954356600099629  0.1173751030204215  0.9119150011320940
  0.3172619290857241  0.1837804718561813  0.1170854847620362
  0.3044361753384948  0.3073169678032883  0.1960634021645618
  0.2971391011185105  0.3884446030883453  0.2845344608975253
  0.2928142104786460  0.4908418561789603  0.3722139804374436
  0.2868787546981864  0.6073461712629609  0.4760122084861678
  0.2834472123352825  0.6792008187293419  0.5842178476656272
  0.2944575628311341  0.7919640370420709  0.6889986034506208
  0.2946072553547978  0.8956324675089462  0.7972118978399649
  0.2915683272200340  0.9980614726259986  0.9152428026083399
  0.2998075315853796  0.1029704342707092  0.0150265824389777
  0.4108135982429957  0.1948147375809413  0.2052524661504336
  0.3805475352080805  0.2961143418013847  0.3033786568853856
  0.4043025666802507  0.3861987909251496  0.3742656355567604
  0.3852317488565831  0.4764549594710843  0.4839066997237680
  0.3927246166734619  0.6044451211339066  0.5711785654123105
  0.3890038002083074  0.7012689679844257  0.6800560000905662
  0.3993493338767351  0.8032450350948679  0.8005507634832227
  0.3820625155096664  0.8902708585790009  0.9029234773355057
  0.4154647638454918  0.9843353774396562  0.0098241624779263
  0.4221363392654993  0.1046127786079794  0.1129633890322879
  0.4943468958022024  0.2233084422406364  0.3127708508807672
  0.5096883353711021  0.3156166689308506  0.3885238726622262
  0.5068281225376978  0.3796147470905211  0.5060780392156872
  0.4934424919621421  0.5078250296608218  0.5971371860707322
  0.4697888674546036  0.5941426866820620  0.6736414323235067
  0.4980152479282722  0.6841201920029008  0.7743863107367659
  0.5114076130960470  0.7975568269709754  0.8863803935153740
  0.5131319567087829  0.8921338070008602  0.9919401290585483
  0.5081868038762849  0.9858893963682505  0.0962295512385083
  0.5082159529955135  0.1011119616899876  0.2122173115065920
  0.6092643739528114  0.2193370225965694  0.4029517936874498
  0.5961444781053302  0.2992603812887751  0.5221794579540813
  0.6117775057736736  0.4162210252230238  0.5944944142553084
  0.5812281565004724  0.4974774346782596  0.7137178159670370
  0.5930076366435699  0.5937618602544958  0.7712662419055363
  0.5952096363718695  0.6945111932255585  0.8957477172485611
  0.5982922940723654  0.7856703373635838  0.0123267558755629
  0.6100797713173023  0.9100001018883290  0.1064683005026481
  0.5938520948240722  0.0104661640175721  0.1989376724176992
  0.5940163994928227  0.1086540460988061  0.3203968536883579
  0.6907082040483630  0.2270875234343137  0.4868273010913384
  0.6998870705972919  0.3183121324095453  0.5979602214373045
  0.7251227351356277  0.4022695765973836  0.7030795571253918
  0.7083641901009798  0.5451307892949302  0.7768456817461384
  0.7024460322419941  0.6079266589684380  0.9057406099714740
  0.6918198464882508  0.6957838903228719  0.0154599891319123
  0.7055434474482638  0.7755409745052759  0.1153401331340831
  0.6996911674138460  0.9036118502920800  0.2100720327853978
  0.6945085690350012  0.0184057505773652  0.3031034207308778
  0.6983703129103844  0.1084445904089151  0.4045707906534446
  0.8045169302178152  0.2149516745913118  0.5901113865869689
  0.8113960458271094  0.2926184250328276  0.7045302617397979
  0.8082088063216020  0.4454820273513533  0.7959119961056018
  0.7970450600009045  0.5087399225648710  0.9099965167776105
  0.8282940424761165  0.5868717253090594  0.9893599800751716
  0.8203077969478798  0.6845301920028959  0.0996665122492431
  0.7831692061766944  0.7823937291128900  0.2213053380428391
  0.7936709903545704  0.8939642978761952  0.2963832151428676
  0.7768833437485867  0.9978138174161089  0.3867043494996167
  0.7849875483403537  0.0910709749581144  0.5057183847303364
  0.9066785151473979  0.2051678146085223  0.6998105166870445
  0.8910880582348426  0.3031826309831089  0.7947306733686545
  0.8988583294842201  0.4039971724856244  0.9070133559751881
  0.9022357424262992  0.4964000000000013  0.9806238156047655
  0.9170399995471641  0.5938013508128392  0.1093228614771533
  0.9086658320880332  0.6915360127700012  0.1937089177195119
  0.9178212896798428  0.8114992374224528  0.3098240316080236
  0.8928419173119622  0.9097486206584264  0.4132544138024699
  0.8804904673278102  0.0002852732871474  0.4928501240773429
  0.8820113634922819  0.0998500932844237  0.6199989770411634
  0.9761074066023667  0.1923376746818803  0.8303385907711842
  0.9904949956980502  0.3107507476339251  0.8948573952814414
  0.9960889842865583  0.4040520961825820  0.0048606217452374
  0.9917281021600317  0.4934307738984742  0.1086944455010652
  0.9957583693338776  0.5883445808993315  0.1973269537653408
  0.0000448498845245  0.6926287619435740  0.2870528922700686
  0.9981590395326734  0.8364202087578647  0.3951614993433878
  0.9948579558936714  0.9144144948603028  0.4991860951863458
  0.9982891984784672  0.0131337635285078  0.6094480002717049
  0.9980863922474299  0.0908062183580114  0.7091083738622501
  0.0786727192863310  0.2272269433500895  0.9106712996422601
  0.0971151306434805  0.3185252941176486  0.9896798428655558
  0.0994281836706961  0.4154700566046259  0.0964324041117592
  0.0839534786940206  0.4935532907666556  0.1904489630032131
  0.0810392872345247  0.5883276475116617  0.3094259883168036
  0.0696185681293287  0.7016406724629789  0.3906619594258061
  0.0956818290087398  0.8108484422406406  0.4799465326269043
  0.0895041013449287  0.9081052592491972  0.6055393877643453
  0.0892056174432838  0.9980352932119700  0.7226000076982331
  0.0686904102703423  0.1032132269166297  0.8158068727075118
  0.3078963976814748  0.3073916306661246  0.0206225073586026
  0.3013610007698233  0.4249729841959891  0.1425545913145854
  0.2880232712946622  0.5168802884571875  0.2118116700629429
  0.2859924838110786  0.5990851193225524  0.2881425784540141
  0.2898101639270010  0.7025648154689108  0.3866401557759360
  0.2992370225965644  0.8063880274419262  0.4850621115790403
  0.3023589208893753  0.8968015767785147  0.5891705352533592
  0.3136574989811152  0.0148562151881535  0.7151074147534331
  0.3101632785400525  0.1091483023139972  0.8271699778109891
  0.3081268034234483  0.2075663415296845  0.9083215690802859
  0.3918163623601885  0.2921562953403054  0.0934114753430251
  0.4057743553864981  0.4138910243173513  0.2112511959425802
  0.4141322632794484  0.4896747466376823  0.2802768423674351
  0.3932506303491365  0.6120029556672577  0.3929844663315691
  0.3963320961825829  0.6992975913598727  0.4954367857628057
  0.3974805311778269  0.7775708386541709  0.6015148390164384
  0.3919384331838955  0.8950518670470515  0.7186205655934401
  0.4096866254584981  0.9850755486120519  0.8199032821627483
  0.4175404931395192  0.0869686428474381  0.9199332024634330
  0.4325940673821478  0.1859229823846391  0.9946683860888470
  0.4816064723995837  0.3133746039940206  0.2085164628900031
  0.5124831386134119  0.3977840035321307  0.2800425381515197
  0.4909693619526365  0.4931447756192568  0.3795848308653689
  0.4792190268532366  0.5971016994973510  0.4898125644160700
  0.5188382017841775  0.6853205805370663  0.5863897418828969
  0.5114477326450242  0.8041873653941920  0.7078983761264297
  0.5015176375492487  0.8983520703708763  0.8082020214644743
  0.5117557600869418  0.9844326952859674  0.9087062650002267
  0.5140804922338447  0.0961524743014976  0.0080828605714771
  0.5179450613594199  0.1857509559389570  0.0978757474075067
  0.6046110365439503  0.3027696341076833  0.2935530285740171
  0.6168192111579032  0.3765424321876552  0.3944458877869863
  0.5854148467146700  0.4979209052212141  0.4840919313499086
  0.5890325218493899  0.5839674315083982  0.5971011334510692
  0.6003480677444202  0.6740609957886150  0.6911915197210519
  0.5998902418149683  0.7949338486618700  0.7883601494362154
  0.6113159208440919  0.8883338133405800  0.8881975030566522
  0.6097233627677383  0.9767866028166452  0.9927641131186888
  0.6126371285604293  0.1058212946610482  0.1028892799891352
  0.5887469800298888  0.1939466653081539  0.2073135321287864
  0.7049113376805707  0.2772912905855165  0.4035075578499274
  0.7020872399583382  0.3871156595571250  0.4965386768102178
  0.6896195285966584  0.4887843427070564  0.6160359625050944
  0.7112345043698767  0.6096355952542680  0.6751319001041551
  0.6976170927863095  0.6896959018249333  0.7938270035774124
  0.7055886532626943  0.7780512511886997  0.8977150758502006
  0.7039128315899106  0.8715908486165844  0.9959844029343827
  0.6941082547661068  0.9799010736765865  0.1031610379024599
  0.7011320703708748  0.0904683263143582  0.1997157025766398
  0.7014901462663587  0.2035110791106263  0.3072056930670684
  0.8042259131458565  0.3063376044921426  0.5098627935515978
  0.8023998034687310  0.3918018915002506  0.6010821219942954
  0.8357655816691576  0.5259133419372404  0.7013613304351765
  0.8127121047864847  0.6062548593941059  0.7937331938595307
  0.7977439473803400  0.7096018598016585  0.9081885626952868
  0.8138714296064862  0.8053681488022448  0.0081847792419509
  0.7914094335008812  0.8899735973373168  0.1188758606167610
  0.7823335212606963  0.9923766340624027  0.1976975583027638
  0.8055929013268113  0.1117240076076627  0.2989902486075238
  0.8000517606303461  0.1867793356880867  0.3970372227505337
  0.9116120853144949  0.3103912140560610  0.5964835094869372
  0.8904985260154845  0.4170252180410259  0.6952476860028085
  0.9047483761264346  0.5177722324865286  0.8088956894443697
  0.9181082674455467  0.6205897151655151  0.8964747824118078
  0.9300383041253468  0.6944674749807547  0.9960471774668278
  0.9005840316080267  0.7896708721641090  0.1012744944074626
  0.8822645310872588  0.8967298161481665  0.2022768745188586
  0.8946147611284729  0.0089331001222632  0.2925934030702351
  0.9174301775121165  0.0929701335869240  0.3799852008332181
  0.8957220146719180  0.1771861572250160  0.5151834017117238
  0.0047693216501372  0.2977175515102104  0.6872682538604380
  0.9927921632024663  0.4099275496988639  0.7847053892134213
  0.0098859122401862  0.5139822152787232  0.8843017719512716
  0.0234000987184686  0.5820137952270983  0.0155581972558068
  0.0027717656115556  0.6978267821401047  0.0935046307114078
  0.9917953643073858  0.8017259208440919  0.1914733233709214
  0.9931978177783805  0.9241064533804320  0.2932622650907959
  0.0086389041344006  0.0152257836344702  0.3986301014354936
  0.9847683485033727  0.0837589263234193  0.4902045700312456
  0.9834990798351697  0.1573735765068136  0.6102382208033319
  0.0971149925281907  0.2935664379839693  0.8042866757234037
  0.0963317465923978  0.3989443938776418  0.8963408934474515
  0.1005941461757942  0.4837675506045400  0.9894593827831386
  0.0937567848571277  0.5783509668070437  0.1102777915138375
  0.0872303192501036  0.6962596757686939  0.2036356355567648
  0.0842220640311524  0.8065430996694261  0.2985586043562947
  0.0818711832631465  0.9271378653262659  0.4054285563555666
  0.1166409704297422  0.0161568038762852  0.4797311524702295
  0.0913447674681862  0.1116447221844865  0.6083714083231442
  0.1050088312276429  0.2002560050717719  0.7273224670561049
  0.1989457437848117  0.3066908907304295  0.9095959815242480
  0.1981103283068393  0.4185173839605127  0.0217661898292789
  0.2027535588461689  0.5206530276683452  0.1214794294253494
  0.1877051976633624  0.6079187171127103  0.2243872222976933
  0.1865944717656092  0.7125964266630476  0.3104701938142469
  0.1944720142190803  0.8198334664674150  0.3742166752705671
  0.1984454240818749  0.9196046986369595  0.5002766988180980
  0.2013150296608259  0.0199381130281182  0.6105095104831761
  0.1997819082552184  0.0891877666078003  0.7194318806321576
  0.2011768631979365  0.1973622148258869  0.8240036688855668
  0.3942972331657870  0.4099481447267124  0.0134779789883623
  0.3872303278540059  0.4997447620341404  0.1048541180998939
  0.3970417071955836  0.6277870049359251  0.1901297581850301
  0.3975634565050044  0.6904169324820018  0.2752638640583243
  0.4053322080333288  0.8024069139156822  0.4112560172983777
  0.4229239645881435  0.8966768029706103  0.5005654729882707
  0.4039584363537543  0.0117138522845650  0.6232402653624973
  0.4138185160530696  0.1045784263913418  0.7125650699633184
  0.4059458755603842  0.2066201693610452  0.8144125345288202
  0.4284221632024625  0.3169125802653596  0.9273142621020725
  0.4906968038762827  0.4047380645745591  0.1306676511343596
  0.4949733310691471  0.5330368405560861  0.1984073767151173
  0.4970955495177307  0.6020642254222679  0.3054702531358942
  0.4897467513471909  0.6974376764932302  0.3779375949825692
  0.5095257999366041  0.7986419761807753  0.5095361060544334
  0.4867202137390763  0.8969319345197633  0.6169066526287210
  0.5027675669066696  0.9993707159353349  0.7007154435538681
  0.5098080464610817  0.0724261898292795  0.8125063501335887
  0.5093328900058864  0.2064955255173686  0.8988093429334754
  0.5201663252275495  0.3192624462256006  0.0002170026717394
  0.6022872136937920  0.4211289145496551  0.2003605338948518
  0.6049353742698003  0.5117274917357264  0.3041881940859454
  0.5969154834035209  0.5987662989630067  0.4063073468278802
  0.6164315704387988  0.6854297971290109  0.4924952397772060
  0.5948809283159022  0.7943156495947079  0.6151900099624115
  0.6136339695693493  0.9109776769460680  0.7168487913779842
  0.6032659892224785  0.9751778073631314  0.8004887175655497
  0.6070096965991922  0.0929783634469956  0.8920969759543524
  0.6040374256215202  0.2161022238826220  0.9869958492958375
  0.5912170814653805  0.3191012362450749  0.1021414440972706
  0.7002708676357372  0.3922830367250825  0.3006304609880885
  0.7005139577955930  0.4953781343114585  0.4069361395643725
  0.6904646714667422  0.5909307892949300  0.4963689403613643
  0.6994915962505104  0.6934096209754088  0.5803921423719629
  0.7111880609518622  0.7685573182991448  0.7095867898383403
  0.7006238550015880  0.8960295770502213  0.8088901023411665
  0.7086300362269640  0.9898030109133700  0.8910483054838565
  0.6954239487388492  0.1017303618167844  0.9935533740886626
  0.6928179146855058  0.2225014504369867  0.1075428691753828
  0.6941024385273735  0.3047161975275117  0.2133154231761978
  0.7865856966897624  0.3915077679663099  0.3982994651994716
  0.7883398079971045  0.4929435520536174  0.4900682357469535
  0.8005463446995407  0.6043809849205246  0.5873370855409163
  0.8132542978761919  0.6872883389937954  0.6834377217769330
  0.7945612584340864  0.8059684771090900  0.7928929212516422
  0.8046652714757982  0.8923290082869144  0.8810723995833882
  0.7916296227867576  0.9802121582212564  0.9990775093963649
  0.7821159896753187  0.0845304609880912  0.0831733482769579
  0.7992148793189315  0.1914438020196556  0.2044136697912435
  0.7867846221075041  0.2889106167640278  0.3048889906262744
  0.8969815147398421  0.4056702789476034  0.5034598963003205
  0.9179631897839968  0.4984657193316124  0.5947592913100550
  0.9277408277860815  0.6148792827061555  0.6702432817099151
  0.8966929841959868  0.7037078780057087  0.7892085110718625
  0.9003991346284508  0.7838309803921604  0.8928679581578578
  0.8923362219807061  0.8885479871394253  0.9885995589367411
  0.8756861540551526  0.9910613295295008  0.0897855377439640
  0.8851001652855146  0.0961237467735359  0.1938037227731755
  0.9083755712539059  0.1862905352533630  0.2961540651179675
  0.9068926807951811  0.2965655169134607  0.3980338242086674
  0.0136917755739674  0.3924638386994488  0.6009729601956266
  0.0034512552642312  0.4938230693293519  0.6944432522755051
  0.0120469818412374  0.5928667386677517  0.7911216650817394
  0.0241042177240445  0.6831238341710844  0.8978481347642955
  0.9930960426572497  0.7775427555132879  0.0008451007562371
  0.9923148331295550  0.8884472798079983  0.0874211954897461
  0.9947502834759803  0.9763610415251520  0.1673621591269310
  0.9987418702169109  0.0974763727754393  0.2635874383009522
  0.0116398012045451  0.1886135502422661  0.4018830693293509
  0.0079168876511346  0.2918029063080212  0.4819355825748346
  0.1039445677670585  0.3679961323189787  0.6871875560385803
  0.1189568550468678  0.5006532767287055  0.7643686967350476
  0.1372203776660754  0.5766633523524902  0.8989408069555793
  0.1065418290087408  0.6956120314268901  0.0032988706244623
  0.1035953135896364  0.8130096821084081  0.1037311112620571
  0.1155637417923288  0.9011295820314302  0.2070191794593157
  0.1014247629398213  0.0233608164651571  0.2798335108454495
  0.0982060530725022  0.1018226092469305  0.4016008413711916
  0.0974359896753185  0.1845535017887059  0.4897342648190914
  0.1039510868088556  0.2569662179051733  0.6046482425395112
  0.2095265878730217  0.3919065661368464  0.7933977380790651
  0.2248290422496950  0.4846877131730309  0.8793432287279828
  0.2093582457093675  0.5828948313182067  0.0180783444278418
  0.1913885323552051  0.6846785966580597  0.1166608205406874
  0.2067569601050607  0.8050200674727179  0.2032722827514348
  0.1852748163745872  0.9008916782140091  0.3015657551057345
  0.2024892152334345  0.9997876615496111  0.3837298464882508