Li 
 1.0000000000000000
    22.0829999999999984   -0.0000000000000006    0.0000000000000000
    -0.0000000000000006   22.0829999999999984    0.0000000000000000
     0.0000000000000006    0.0000000000000006   22.0829999999999984
 Li 
 500
Cartesian
 -0.0625644400000000 -0.2679649100000000  0.1294067400000000
 -0.2437302200000000  2.6127520500000001  2.0083641900000000
 -0.6137732200000000  4.8331211999999999  3.8639352400000000
 -0.6055175600000000  6.3411122100000004  6.7824756300000004
 -0.0255262200000000  8.7818861500000001  8.9370928999999997
  0.0982805300000000 10.7709345600000006 11.2024796500000008
  0.6172335400000000 13.9660155800000005 13.4424305099999994
 -0.0475425900000000 15.9133242199999998 16.0861803399999985
 -0.2577582600000000 17.6751411699999998 17.5219529600000001
  0.2568929000000000 19.5850278399999986 19.9982024699999990
  1.9885339099999999 -0.1007229100000000  1.9934633300000000
  1.9669298200000001  2.1889439199999998  3.9863929499999999
  2.1531063100000001  4.3681402499999997  6.4247159600000003
  2.2899731100000000  6.4646339199999998  8.8837149300000000
  2.4351675300000002  8.2008384299999992 11.5450326899999993
  2.5087559300000000 10.8464021499999994 13.3106191900000006
  2.5091260900000001 13.8294213799999994 15.6853980300000000
  2.4005846200000001 15.7533636399999999 17.9873722899999997
  2.1893145899999999 17.8730573499999998 19.7187742700000008
  2.6054007399999999 19.6125734099999995 22.2154689500000018
  4.6487345400000004  0.0972337000000000  4.3765922799999997
  3.9057197700000001  2.2404904999999999  6.6667381900000002
  4.5830645800000003  4.2572509099999998  8.7978726399999996
  4.5692232700000002  6.3768131900000000 11.2351472399999999
  4.3844235600000001  8.5607845600000001 13.7711808199999997
  4.3354109500000000 11.1955158200000007 15.3895640000000000
  4.8578025399999998 13.3039004999999992 18.1264022900000015
  4.3347583800000002 15.2395664899999996 20.0054278600000011
  4.3806224299999998 17.5050361000000017  0.5360242700000000
  5.0098405799999997 19.7287288300000014  2.1030684900000001
  6.9892668899999997  0.0279420500000000  6.4174574800000004
  7.1082257599999998  1.8356905100000001  8.4946870899999993
  7.1249688500000001  4.2685819800000004 10.7043783200000000
  6.5761720199999996  6.1851104599999998 13.4086941199999998
  6.5150473199999999  9.0451500899999999 15.4267769000000001
  6.7317540899999999 11.2425099999999993 17.5604456400000011
  6.6543964300000003 13.5450449600000002 19.4929012499999992
  6.2384174300000002 15.1831869200000007  0.4127573500000000
  6.8521117199999999 17.5043633199999995  2.3989427000000001
  6.8188780299999996 19.9328141700000003  4.4458917400000004
  9.0572904600000008 -0.2446917800000000  9.0330000600000009
  8.7722543000000002  2.5737211599999998 10.8654803599999994
  8.9848606100000001  4.7367110500000003 13.2646157500000008
  8.8775554799999998  6.6933758799999996 15.7241115300000001
  8.6108384000000004  8.6025853199999993 17.5455594899999987
  8.8626463700000002 11.0696724199999998 19.4570530599999998
  8.7001430000000006 13.1926367599999992 -0.1292819400000000
  9.1899266199999996 15.5334342799999998  1.8994135200000000
  9.2536755999999993 17.4233142000000001  4.4758379799999997
  9.3670699000000006 19.6513807500000013  6.5724626700000002
 11.2098035300000003  0.3230515000000000 11.2371442199999994
 11.3317276699999994  2.5042974099999999 13.3552919400000007
 10.9843513900000005  4.2866951499999999 15.5516125299999999
 10.9488473299999995  6.8385802499999997 17.4902148500000010
 11.3649202299999992  9.2291776799999994 19.8100447700000011
 10.6208276599999998 11.1190558100000008  0.1663360700000000
 10.3331448100000003 13.7163136600000009  1.9154226599999999
 11.3343237400000003 15.3748409400000003  4.1560671800000000
 11.3902151000000007 17.3280174799999998  6.7093706199999996
 11.1750955600000008 19.6480689899999987  8.7288151500000009
 13.0906319900000003 -0.2288145100000000 13.2990691400000003
 13.4679712800000004  2.1682530600000001 15.9185273299999999
 13.3164624299999996  4.3476767499999998 17.6468296600000016
 13.3372411000000000  7.0640427600000004 19.7634272700000011
 12.8869661000000004  9.3031444800000003 -0.1488970500000000
 13.0780684399999991 11.7632047199999992  2.0817001400000001
 13.3557199600000001 13.6037581700000008  4.3978529399999999
 13.3627922699999999 15.6356370699999996  6.5868544900000003
 13.3586138499999993 17.6407360000000004  9.1147432899999998
 13.2775764400000007 19.7682789300000010 10.8765079199999999
 15.5711957000000005  0.2684656900000000 15.6252667899999995
 15.5110736300000003  2.0785275300000001 17.7843811800000005
 15.6089038900000006  4.4968780099999996 19.9900252099999989
 15.1475972199999998  7.2768129999999998  0.1456712900000000
 15.0422991300000000  9.1957005200000008  2.1449310300000000
 16.0442529699999987 11.4402320599999996  4.8825947699999999
 15.4729002799999993 13.4747292400000003  6.7747035300000000
 15.8681426699999992 15.2600197200000007  8.6978332799999993
 15.6833503899999993 17.3290767499999987 11.3413214900000003
 15.0873850800000007 19.5933562099999996 13.8194724600000001
 17.7320435399999994  0.1418609100000000 17.5123337300000017
 17.2485443300000014  1.6707844300000001 20.2852502699999988
 17.3070872700000002  4.6744322499999997 -0.2629145500000000
 17.5703444600000012  6.9046507999999998  1.9651627000000000
 17.3175577400000016  9.3094615500000000  4.3647496800000001
 17.6396157600000016 11.3460236999999999  6.6244113200000001
 17.7318580300000015 13.2516612200000008  9.0383084900000004
 17.7614220899999999 15.0256262500000002 10.9023055699999993
 17.5748648799999998 17.9075311399999997 13.0696120899999997
 17.3580986499999987 19.7992811400000015 15.7050404100000005
 19.9979745199999996  0.0341312200000000 20.1712761399999998
 19.5369117699999997  2.1366976800000002 22.0543193799999990
 19.6356070000000003  4.3247833000000000  1.9028040100000001
 19.5382196899999983  6.8842203299999998  4.3619992600000002
 19.6573975499999989  8.9484049700000003  6.4950670400000003
 19.5280890000000014 10.8925799100000003  8.9710470000000004
 19.9627338999999999 13.6566506200000006 11.1424147300000005
 20.1811391299999983 15.5377634400000009 12.9500791900000003
 19.8722891799999992 17.5705983299999993 15.3591733200000000
 19.7951821400000014 19.6689253999999991 17.7092098699999987
  2.0594735200000001  2.5602230200000000  0.2229373700000000
  2.6509190100000000  4.6420547299999999  2.0634920600000002
  2.1663524600000001  6.3677840600000000  4.7795092800000001
  2.0564042400000000  8.9885790900000000  6.5171486999999999
  1.7435635100000000 11.0008122000000004  8.8129333200000008
  1.7544784700000000 13.4026947500000002 10.9196848699999993
  2.3441931000000000 15.7645897900000005 13.1203752799999993
  2.2126920100000000 17.8914045199999983 15.7017192800000007
  2.5370636300000000 20.0734374299999985 17.8023134499999998
  2.3701965199999999 22.2891348399999991 20.3278141400000010
  4.4307666799999996  2.0064101200000000  2.2884168400000000
  4.4229848399999998  4.4864163499999998  4.2017476800000004
  4.7853199499999999  6.5568064699999997  6.6374165800000000
  4.3668305199999997  8.9151088400000003  8.8439455099999993
  4.2767039200000001 10.8292964999999999 11.1530222299999995
  4.0929447000000003 13.6073526299999994 13.4749830199999998
  4.4267700999999997 15.3945862600000005 15.5308915299999999
  4.4106666499999996 17.8076413699999989 17.3232518000000013
  4.3496869800000004 19.9267447299999994 20.3085534400000007
  4.2553891899999998 22.5960191899999998 22.6060149099999990
  6.7705085900000004  2.1722439900000001  4.3907981700000001
  6.7516130199999997  4.1297691800000003  6.8622123100000003
  6.7288559000000001  6.2970851300000001  8.9932101099999997
  6.0671837899999996  8.6040960999999996 10.9749356200000001
  6.6359271599999996 11.1460180999999992 12.8424288400000002
  6.5440321399999997 13.2947978199999994 15.5889492000000001
  6.7326868600000003 15.6342599000000000 17.3511833099999997
  6.2414857699999997 17.1355882199999989 19.6407586199999997
  6.5482973600000003 19.7734160299999999  0.0947965100000000
  7.2415575399999996 21.9615084200000013  2.3632978699999998
  9.2826686499999997  2.3195826300000002  6.7541965700000004
  9.3089519999999997  4.5608247600000000  8.2747615299999993
  8.6013334100000005  6.6098409399999998 10.8479754300000000
  8.4989545599999996  8.6610751799999992 13.1124354200000006
  8.4371226200000002 11.1473700000000004 15.0161068899999997
  8.7740500800000003 13.4705597000000008 17.4162345099999989
  9.0150095500000003 15.3801451799999995 19.6842797699999998
  8.9226545399999999 16.9590836100000004  0.0126132700000000
  9.1636927799999999 19.4351782300000018  2.5702571200000000
  9.1055949900000002 21.9813938799999988  4.0790361199999996
 10.8656137299999997  2.1965293300000002  8.5840619100000009
 11.2681200199999996  4.6738657899999998 10.6116519799999995
 10.8903071300000001  6.6872628499999998 13.5760264300000006
 11.1221026900000002  8.6096558000000005 15.1954004600000001
 10.6011997699999991 10.8809956299999993 17.1505739099999985
 10.7793766200000007 12.7787655099999995 19.4147302099999983
 11.1333012300000007 15.0571213799999999 -0.2928503700000000
 11.5348112999999994 17.3399068300000003  2.0804294099999998
 11.4196291799999994 19.5264206899999984  4.3062861500000000
 11.2412440799999995 22.3009742700000011  6.4379758400000000
 13.2916383000000007  1.9138192700000001 11.0939182800000005
 13.1272971599999995  4.0812795099999999 13.8927180099999994
 13.3136990100000006  6.3130381299999998 15.4574793699999997
 13.2768058599999996  9.1337139399999998 17.1024884300000011
 13.4495677100000002 11.5894544699999997 18.8121992999999996
 12.7337198199999992 13.2716237699999997 -0.1568288600000000
 13.1201333099999999 15.0535519200000003  2.1263330499999999
 13.3330924000000000 17.2661925399999987  4.4241512800000002
 13.4169172799999998 19.8478394800000011  6.2804801000000001
 12.7669307199999995 22.3622577500000013  9.1793569099999992
 15.3857895399999993  2.2579457100000000 13.1976667800000005
 15.4064145499999992  4.5567521400000004 15.9427182300000005
 15.6666165500000005  6.6934735999999999 17.4800155100000012
 15.1538815099999997  8.8912309300000008 19.6214817600000018
 15.0775532400000003 11.2149278999999993 -0.0552309800000000
 15.7865967999999999 13.1469523099999996  2.1908828200000001
 15.6225221100000002 14.8332603299999999  4.3064816700000002
 15.4782302900000008 16.8574267499999983  6.4596259099999997
 15.3682232499999998 19.4864231399999994  8.4844829900000001
 14.9268262299999996 21.9262739000000018 11.0473193500000004
 17.5285848699999995  2.2517992599999999 15.2420258200000003
 17.5162516400000001  3.9022165000000002 18.2202452199999989
 17.4671937499999999  7.3631535299999999 19.7351483300000012
 17.5382665200000005  8.8943179499999996  0.3496257400000000
 17.9672684300000007 10.9101052900000006  1.7707942400000001
 18.1093432199999995 13.7253477900000007  4.1830435300000000
 17.7704469600000010 15.5440021000000002  6.5265989600000003
 17.8885335900000015 17.8792018199999987  9.1075792300000007
 17.0913564700000009 20.3439517499999987 11.0242757999999998
 17.3427304599999985 22.0299359700000004 12.9527017099999995
 19.4546944199999992  2.3119044299999998 17.8269544400000015
 19.4712638899999995  4.3901297599999998 20.2189369600000006
 19.7166819800000006  7.0950563100000004  0.2642822800000000
 20.2914497099999984  8.8922090199999992  1.9814760100000000
 19.8609842100000016 11.2205553499999997  4.4096989200000003
 19.5001016400000005 13.1753267500000000  6.7527208999999999
 20.0489153199999990 16.0600961499999997  9.1065310299999993
 19.5509803899999994 18.3250575799999993 11.3383265800000004
 19.4067732500000005 20.0723189799999986 13.9045078400000008
 19.2792524599999986 22.3437827999999996 15.5329867700000008
 22.0174733700000012  2.1172241100000000 20.4468261099999999
 21.7798848199999995  4.6701052900000004 21.6240719000000006
 22.4770608799999998  6.6160990899999996  1.9723691900000000
 22.0561601100000004  8.8797480400000008  4.5430921900000003
 21.8782579999999989 11.0000668699999995  6.4564529300000002
 21.4606215300000009 13.1341754799999997  8.9022129700000008
 22.1896853500000013 15.7991933899999992 11.0223974400000007
 22.2469110500000014 17.6771304899999997 13.5078763100000003
 21.5615249099999993 19.8237046399999990 15.8133921900000001
 22.1874212499999999 22.1619430100000017 18.1318880799999995
  4.3580215300000003  4.6395199700000003 -0.1454576400000000
  3.9614727400000000  6.5677615300000003  2.1528392699999999
  3.9452100200000002  8.7245925999999994  4.3551859100000003
  4.0821589600000001 10.5913412000000005  6.3425614699999997
  4.0971115700000000 12.9901369500000001  8.7956637799999999
  4.2117740100000001 15.6052844900000007 10.5821454300000006
  4.4773001700000004 17.9044419499999989 13.0544303900000003
  4.7215874500000004 20.1440174700000014 15.3437114000000001
  4.4991698500000004  0.1058823100000000 18.0904606399999999
  4.3158056800000004  2.5919943999999999 20.1378189700000014
  7.0060951800000000  4.0584241600000004  2.5855987599999999
  6.7228640600000000  6.7864806000000000  4.3296681100000001
  6.5617227700000003  8.5780221700000006  6.2833744999999999
  6.4662162099999998 10.8392607099999996  8.2196013299999997
  6.3351435399999998 13.4120255000000004 10.5117776000000003
  6.2593647900000002 14.9987916800000001 12.9012827300000001
  6.5025063599999999 17.4889418300000017 15.2151561599999994
  6.5058120199999996 19.7782517800000015 17.6048303399999995
  6.4387033699999998 -0.0428085000000000 20.2113068100000000
  6.6206497200000003  2.2738961000000000 22.4148320199999986
  9.0719966900000006  4.3020938500000003  4.5325902100000004
  8.4036312199999994  6.5390930100000002  6.6995108800000001
  8.9282135799999995  8.5284279000000005  8.2649080300000008
  8.5070727099999992 10.5215548699999992 10.6861116500000009
  8.6725377100000003 13.3479616100000005 12.6133362600000005
  8.5903709199999998 15.4861226199999997 15.0176766500000003
  8.8188313399999991 17.7380601099999993 17.6785625099999990
  8.4370865300000002 19.6598513699999984 19.9392591500000016
  9.1747083800000002 -0.3459218600000000  0.2169469800000000
  9.3220367799999995  2.3101639899999999  2.4945705199999999
 10.9166624999999993  4.9313203300000001  6.9069187000000003
 11.2554475099999998  6.9697629000000001  8.5797726799999996
 11.1922854300000001  8.3830324600000008 11.1757213400000008
 10.8966905500000006 11.2143001299999998 13.1865804799999999
 10.3743475600000004 13.1204529500000007 14.8760237499999999
 10.9976707200000003 15.1074262000000008 17.1007728999999991
 11.2934143200000001 17.6124474100000015 19.5739382299999995
 11.3314930000000000 19.7009908600000010 -0.1779861300000000
 11.2222891899999997 -0.3116044600000000  2.1250371800000001
 11.2229328899999992  2.2328554500000002  4.6863948899999999
 13.4543851700000001  4.8436194700000001  8.8983844600000008
 13.1646585100000006  6.6085669999999999 11.5312889700000003
 13.5098826600000006  9.1914089000000008 13.1282201500000006
 12.8352613800000004 10.9857941900000000 15.7610305299999993
 13.0953876400000002 13.1120431600000007 17.0318724199999991
 13.1440143999999997 15.3368906799999998 19.7807968400000007
 13.2120887299999996 17.3499580599999987  0.2722117500000000
 13.4723915900000009 20.0955322500000015  2.3511394800000001
 13.1140358100000007  0.2311243000000000  4.3931406199999996
 13.1176641499999995  2.3994073000000000  7.0753237200000001
 15.2529092700000000  5.0147737799999996 10.7506072899999996
 15.4556061800000002  7.0292868200000003 13.2047555699999997
 16.0128853599999985  8.8833190599999998 15.5261058599999995
 15.6428064100000004 12.0381232199999992 17.1550831899999991
 15.5121157299999997 13.4248444100000004 20.0014698899999992
 15.2774576700000004 15.3649956499999991  0.3414029400000000
 15.5805159500000006 17.1262713399999988  2.5470561599999999
 15.4512800499999994 19.9544604899999989  4.6390206999999997
 15.3368327299999994  0.4064541900000000  6.6934328399999998
 15.4221116200000008  2.3947818900000000  8.9341367700000003
 17.7661473699999988  4.7467778300000001 13.0314297499999991
 17.9180588800000002  6.4618926800000001 15.5581417700000006
 17.8476750700000011  9.8375796100000006 17.5761246100000008
 17.6011460600000014 11.2345037100000003 20.0954530799999986
 18.2912173399999993 12.9598883100000002 -0.2349635600000000
 18.1148570800000002 15.1164802300000005  2.2009355899999998
 17.2947255800000015 17.2776007199999988  4.8870857799999996
 17.5266364800000005 19.7414135900000005  6.5450305400000000
 17.1559148800000010 -0.0482774700000000  8.5395921500000007
 17.3348800300000008  2.0111203400000002 11.1677790899999998
 20.0221816500000003  4.5307208499999998 15.4539156400000000
 19.6778975900000006  6.6951820399999997 17.5500374599999986
 19.8494884899999988  8.9214695600000002 20.0295759400000009
 19.9240719000000013 10.9620011999999996 -0.4278842800000000
 20.2509943099999994 13.1129152300000005  2.4141767500000002
 20.0660675700000013 15.2711897699999994  4.2776740300000000
 20.2682475400000008 17.9203376600000013  6.8418440900000004
 19.7166280600000015 20.0899787900000000  9.1258972200000006
 19.4438709900000006  0.0062996900000000 10.8836092900000008
 19.4774569399999997  2.2049896100000002 13.6914374100000007
 -0.5276201400000000  4.2473928699999997 18.3363671000000004
 -0.2098990100000000  6.8623087600000003 19.7611358599999996
 -0.0863669600000000  8.9226824400000009  0.1073371100000000
 -0.1826683200000000 10.8964317800000003  2.4002994400000000
 -0.0936679300000000 12.9924133800000003  4.3575711200000002
  0.0009904200000000 15.2953209500000007  6.3389890199999996
 -0.0406539300000000 18.4706674699999986  8.7263513899999996
 -0.1135517600000000 20.1930152900000017 11.0235265400000007
 -0.0377796300000000  0.2900329000000000 13.4584401899999992
 -0.0422582000000000  2.0052737199999999 15.6592402199999992
  1.7373296600000001  5.0178525900000004 20.1103543100000017
  2.1445934300000000  7.0339940700000003 21.8550999700000013
  2.1956725800000001  9.1748252600000004  2.1295167799999999
  1.8539446700000000 10.8991373199999995  4.2056844499999997
  1.7895905800000000 12.9920394399999992  6.8330541000000000
  1.5373868399999999 15.4943309700000000  8.6269880499999996
  2.1129418300000000 17.9059661500000011 10.5986592799999997
  1.9765190699999999 20.0536884399999984 13.3721262999999997
  1.9699276500000000 -0.0433866200000000 15.9571759699999998
  1.5168903300000001  2.2792576900000001 18.0154631700000003
  6.7992761499999999  6.7881293800000000  0.4554068300000000
  6.6549549800000003  9.3846784099999994  3.1480330400000001
  6.3604178999999998 11.4142674100000008  4.6774371099999996
  6.3155720200000003 13.2295966899999993  6.3630525599999999
  6.3998778500000002 15.5147388199999998  8.5381745599999999
  6.6080511700000004 17.8074668100000011 10.7116266099999997
  6.6769920500000000 19.8040692199999988 13.0106529299999991
  6.9264985499999998  0.3280698000000000 15.7917170400000000
  6.8493356800000003  2.4103219600000001 18.2663946199999998
  6.8043642000000002  4.5836875199999998 20.0584652100000014
  8.6524807300000006  6.4516874700000004  2.0628056099999998
  8.9607150900000008  9.1399554900000002  4.6650601600000003
  9.1452827699999997 10.8134874300000003  6.1893535100000001
  8.6841536700000006 13.5148612700000008  8.6782759699999996
  8.7522016800000006 15.4425887100000008 10.9407305400000006
  8.7775625700000006 17.1710968299999998 13.2832521900000007
  8.6551764200000001 19.7654303800000015 15.8692979500000000
  9.0471097500000006 -0.3295766600000000 18.1059241799999988
  9.2205467100000007  1.9205285400000001 20.3148849100000000
  9.5529747900000004  4.1057372200000000 21.9652619700000002
 10.6353157300000003  6.9202513799999998  4.6046690500000000
 11.3171651499999992  8.7842641500000003  6.1841793699999998
 10.8420764199999997 10.8901160800000003  8.3823718199999995
 10.5825937700000008 13.1857968299999992 10.8165308600000003
 11.4575040099999992 15.1339343799999995 12.9492446700000006
 11.2943002799999999 17.7588695899999998 15.6325198400000005
 11.0750139900000004 19.8383087700000011 17.8475252399999995
 11.3011024500000001 -0.3437727900000000 20.0669604499999998
 11.3524395100000000  2.1233350899999999  0.1784938100000000
 11.4377807899999997  4.1019383600000001  2.1613901300000000
 13.3516255200000007  6.6860618299999999  6.4825315300000002
 13.6212186400000004  8.3151865300000001  8.7105485399999996
 12.9277160599999998 10.9955873499999992 10.6902021200000004
 13.0076051800000005 12.8957527899999995 13.1857843300000006
 13.2574863799999996 14.8852889699999995 15.2635823300000002
 13.2473762100000005 17.5545241800000014 17.4093571800000007
 13.4996894800000007 19.6170755999999997 19.6140654599999991
 13.4645210199999994 -0.5126214500000000 -0.1597900900000000
 13.5288657099999998  2.3368516499999998  2.2721039699999999
 13.0012995599999996  4.2829242100000000  4.5781047299999997
 15.5665570700000000  6.1234235699999999  8.9106573999999998
 15.5041925200000001  8.5486751099999996 10.9650636000000006
 15.2288680500000009 10.7938246400000004 13.6039221599999998
 15.7061915600000006 13.4625828500000004 14.9089377499999998
 15.4054782600000006 15.2305545999999996 17.5300817199999983
 15.5815142299999998 17.1817057800000015 19.8242420199999998
 15.5445070600000008 19.2473407099999996 -0.0886764300000000
 15.3279925899999991 -0.4438445900000000  2.2781052000000002
 15.4830995100000006  1.9978120500000001  4.4103218599999998
 15.4910069000000004  4.4941351599999999  6.7840233200000002
 17.7597208400000000  6.7648533200000003 11.2593000700000001
 17.7193948600000013  8.6521611699999994 13.2736964999999998
 18.4562113399999994 11.6137443299999994 15.4881622599999993
 17.9471214100000012 13.3879260599999999 17.5280101200000011
 17.6165795900000006 15.6701378699999996 20.0555280300000014
 17.9727227800000016 17.7849448300000006  0.1807444800000000
 17.4766945199999988 19.6532869499999983  2.6251356299999999
 17.2762711499999995 -0.1683467900000000  4.3657551799999998
 17.7899080400000003  2.4672012600000000  6.6026016600000004
 17.6675430300000009  4.1246480700000001  8.7677729899999992
 20.1311296800000008  6.8543691800000000 13.1721453400000001
 19.6648789499999985  9.2091678899999998 15.3531546500000005
 19.9795583900000011 11.4339642099999992 17.8628435100000011
 20.2745848700000018 13.7044826799999999 19.7968526199999992
 20.5380358700000016 15.3359252500000007 -0.0872901800000000
 19.8875971699999994 17.4383018700000001  2.2364446600000001
 19.4830476399999988 19.8024845300000010  4.4668802200000002
 19.7557777700000017  0.1972696500000000  6.4613401200000000
 20.2596106099999993  2.0530594600000001  8.3912131900000002
 19.7802292500000014  3.9128019100000002 11.3767950599999992
  0.1053209300000000  6.5744966900000001 15.1769448499999999
 -0.1591706600000000  9.0524300800000006 17.3286491100000006
  0.2183106000000000 11.3502692599999992 19.5280360299999991
  0.5167443800000000 12.8526106400000000  0.3435716700000000
  0.0612089000000000 15.4101088300000004  2.0648627600000000
 -0.1811829700000000 17.7045135100000017  4.2283054000000000
 -0.1502125900000000 20.4070428100000001  6.4761106000000002
  0.1907729200000000  0.3362309800000000  8.8029485300000001
 -0.3363605600000000  1.8496483699999999 10.8251875200000001
 -0.3643898200000000  3.4752806900000000 13.4758906300000003
  2.1445903799999999  6.4828276499999999 17.7610626600000003
  2.1272939599999998  8.8098890500000007 19.7938959499999996
  2.2214205300000001 10.6830388200000002 -0.2327684500000000
  2.0704310800000001 12.7717244000000001  2.4352644699999999
  1.9263071400000000 15.3755024200000001  4.4968857399999997
  1.8598758399999999 17.8108912699999991  6.5930696600000003
  1.8079613400000001 20.4739854799999996  8.9530788099999992
  2.5757825500000000  0.3567907000000000 10.5939030400000007
  2.0171665000000001  2.4654503999999999 13.4346658100000003
  2.3189100200000001  4.4222533600000000 16.0614620399999986
  4.3933188599999999  6.7726549399999998 20.0866080599999997
  4.3748703799999999  9.2421193899999992 22.5636627700000005
  4.4774068400000004 11.4975808100000005  2.6826302399999999
  4.1450938800000001 13.4246690300000004  4.9551430300000003
  4.1205657200000001 15.7362668899999996  6.8561132899999997
  4.2945254899999998 18.1043824399999984  8.2638268400000001
  4.3822703000000001 20.3076305599999998 11.0476103400000003
  4.4456398000000004  0.4402933500000000 13.4818815200000000
  4.4117838799999998  1.9695334499999999 15.8872142200000006
  4.4425886700000001  4.3583497900000001 18.1964730199999991
  8.7072658000000001  9.0528848800000006  0.2976342100000000
  8.5512073300000004 11.0358635799999991  2.3154934900000002
  8.7678720200000004 13.8634204299999997  4.1986354500000003
  8.7793938100000002 15.2464771199999998  6.0786519099999996
  8.9509511499999999 17.7195518800000009  9.0817666300000006
  9.3394299099999998 19.8013138399999988 11.0539873400000008
  8.9206141500000005  0.2586770000000000 13.7630147800000007
  9.1383542900000005  2.3094053899999998 15.7355744400000006
  8.9645027699999993  4.5627931999999998 17.9846719999999998
  9.4608466300000007  6.9983805099999996 20.4778808499999982
 10.8360575200000007  8.9378306799999994  2.8855337400000001
 10.9304960700000002 11.7710525500000003  4.3814301000000002
 10.9773610200000000 13.2953842899999994  6.7456996000000000
 10.8150775100000001 15.4015162100000005  8.3459959099999992
 11.2518582400000007 17.6364107600000004 11.2520858300000004
 10.7482424800000000 19.8069479100000017 13.6231496100000005
 11.1026161800000001 -0.0138964800000000 15.4738991400000003
 11.2580910900000006  1.5993875500000001 17.9425777300000000
 11.2475982099999996  4.5600406900000001 19.8484067199999998
 11.4868329599999992  7.0502725999999996 22.0877920699999990
 13.3003085399999996  9.2997898200000009  4.4245616700000001
 13.3587878700000005 11.3004782000000006  6.7173878900000004
 13.1816846200000004 13.2225561799999998  8.9724851399999999
 13.6126583700000001 15.1363462099999992 10.8757723800000008
 13.1367555399999993 17.5408724900000017 13.5852409900000008
 13.5508789499999995 20.1171200399999996 15.8301718600000001
 13.3219228399999992 -0.5481484800000000 17.6771923499999986
 13.4045951300000006  2.0532412000000000 19.7001775200000004
 13.3389584699999997  4.7721854099999996 -0.2871706600000000
 13.0558468100000002  7.0467126000000002  2.2555895100000001
 15.4640815699999994  8.6627863000000005  6.6388224700000000
 15.4694497299999991 10.9394353399999993  8.9863707700000006
 15.2475313400000001 13.0495246199999997 10.9613153099999998
 15.4468729200000006 15.3125646599999996 12.8167996800000008
 15.7051659499999996 16.9720512600000006 15.6698050799999997
 15.4718765900000008 19.7870211500000011 17.8627201299999996
 15.6486770899999996 -0.2251801100000000 19.6770197300000014
 15.3570470599999993  2.2465115800000000 -0.1423608400000000
 15.2994980100000006  4.9134995300000002  2.3748691800000001
 15.3278641499999999  6.7290477900000001  4.7106444900000000
 17.3701719399999988  8.6456660400000001  8.7956470899999992
 17.4089079799999986 10.8856724600000003 10.8221768500000000
 17.6784649300000005 13.3465452899999999 12.9701648600000006
 17.9590946600000017 15.1773883900000008 15.0923552099999991
 17.5462962699999991 17.7982018800000006 17.5094543800000011
 17.7694231900000013 19.7053014900000001 19.4567218000000004
 17.4815569599999989 -0.4369749100000000 -0.0203713600000000
 17.2714673999999988  1.8666861699999999  1.8367170500000001
 17.6490621800000014  4.2276534799999999  4.5140670700000003
 17.3745648099999990  6.3800131499999999  6.7328635800000001
 19.8080427899999982  8.9584167699999995 11.1179048900000002
 20.2713811200000009 11.0076184799999996 13.1340694300000003
 20.4873006999999987 13.5783792000000005 14.8009823899999997
 19.8016711699999988 15.5399810699999996 17.4280915500000013
 19.8835140899999985 17.3093395399999999 19.7172031200000006
 19.7054607900000001 19.6218052000000007 -0.2517559400000000
 19.3377773399999988 -0.1973926600000000  1.9827340300000000
 19.5456669500000011  2.1227007000000002  4.2797676100000004
 20.0596577399999987  4.1138538899999997  6.5399702199999998
 20.0269110700000006  6.5490563100000001  8.7897809400000000
  0.3023554800000000  8.6667789499999994 13.2712858800000006
  0.0762140700000000 10.9050948400000003 15.3353903400000000
  0.2660335000000000 13.0922761899999998 17.4703397299999992
  0.5322934400000000 15.0854236299999993 19.8271803599999998
 -0.1524600900000000 17.1704766699999993  0.0186623600000000
 -0.1697115400000000 19.6195812799999985  1.9305222600000000
 -0.1159294900000000 -0.5220191199999999  3.6958585600000000
 -0.0277832800000000  2.1525707399999998  5.8208013999999997
  0.2570417300000000  4.1651530299999999  8.8747838199999993
  0.1748286300000000  6.4438835799999996 10.6425834699999999
  2.2954078899999999  8.1264585900000004 15.1751628000000007
  2.6269242300000002 11.0559263100000003 16.8795539300000002
  3.0302376000000000 12.7344568099999993 19.8513098399999990
  2.3527632100000000 15.3612004899999999  0.0728489600000000
  2.2876953100000001 17.9536928099999997  2.2906941299999999
  2.5519941099999999 19.8996445599999987  4.5716045400000000
  2.2397630400000001  0.5158769100000000  6.1795634200000000
  2.1686842700000000  2.2485486799999999  8.8685513799999995
  2.1516789599999999  4.0754949800000002 10.8148017700000008
  2.2955518499999998  5.6745849899999996 13.3524471400000007
  4.6269756400000004  8.6544726999999995 17.5206022499999996
  4.9648997399999999 10.7033587699999995 19.4185365200000000
  4.6232581399999999 12.8720665600000004  0.3992240800000000
  4.2264329600000003 15.1197574499999998  2.5762209000000000
  4.5658139499999999 17.7772581500000015  4.4888618200000003
  4.0914237699999996 19.8943909300000001  6.6594765699999998
  4.4715693400000003 -0.0046890700000000  8.4739062000000001