bcc
1.0
-1.7544 1.7544 1.7544
1.7544 -1.7544 1.7544
1.7544 1.7544 -1.7544
Li
1
Direct
0.0 0.0 0.0
