Li                                      
   1.00000000000000     
   -10.6364300000000007   18.4228371711498369    0.0000000000000014
   -18.2338799999999992  -10.5273355263713349    0.0000000000000078
    -0.0000000000000001    0.0000000000000000   22.3096999999999994
   Li
   504
Direct
  0.0025617621653211  0.0010073268032897  0.0044384043711929
  0.9348868961080399  0.0471143756364256  0.6629145228308744
  0.8666179997094829  0.0845667696261074  0.3317449741592213
  0.7823015960758894  0.1277477116472454  0.0045419189859146
  0.7203220503840555  0.1710930045406371  0.6691395621635436
  0.6368534836811079  0.2121212956633372  0.3467776787675305
  0.5737681289612055  0.2470737621435006  0.0032857335598422
  0.4987458745080460  0.2912278713036613  0.6577800952052257
  0.4361946782366459  0.3375390157532792  0.3284391139280203
  0.3548500257771749  0.3812193954508203  0.9979366275655863
  0.2847135517926205  0.4190197684917578  0.6628740153386161
  0.2151087252866333  0.4648792287269359  0.3159316127065779
  0.0714194123286944  0.0370096814350376  0.6607102690757856
  0.0023858628428783  0.0779659231541530  0.3281257547165595
  0.9406248854337775  0.1257645640875964  0.0087444703424993
  0.8601342961993623  0.1627267003992685  0.6577772659426202
  0.7848258973119471  0.2220971582051803  0.3289327377777411
  0.7148988262855767  0.2600172221782344  0.0088257955059916
  0.6389813524474093  0.2995327140130257  0.6667365500208433
  0.5681591286866237  0.3302717868530323  0.3332411560890520
  0.5003810097648937  0.3728890892287566  0.9978980842413847
  0.4254273859750910  0.4288414165823724  0.6745772130508243
  0.3567678796750968  0.4595640742171980  0.3334033254593294
  0.2837163556717925  0.4916473385281606  0.0129946238631646
  0.1449073265238141  0.0929616880741975  0.3498076881356553
  0.0758376481208956  0.1296949346160758  0.9989032694298885
  0.9995435837154005  0.1692138217352550  0.6757644163749390
  0.9251876595935471  0.2102969018041918  0.3289506671985691
  0.8572181409724280  0.2509406795929650  0.0065851230630614
  0.7814830118424752  0.3030878764337785  0.6654339511512930
  0.7163364980244822  0.3319916349299987  0.3317456527878022
  0.6388314523850909  0.3792852215166320  0.9850433663384095
  0.5671000512590609  0.4210233456503261  0.6549773811391475
  0.4917408995984403  0.4573804617165536  0.3275596646301864
  0.4269333653675034  0.5082359681320767  0.9914980604849006
  0.3551534714098850  0.5435215967249860  0.6685479625454391
  0.2117051438117841  0.1259763915966374  0.9888434407455051
  0.1420541875908157  0.1754534129589231  0.6833637435734232
  0.0723086932743016  0.2165293626807028  0.3360465792906240
  0.9979833644740239  0.2542459395700476  0.9916816165165798
  0.9261099629438831  0.2889892330565260  0.6626163511835657
  0.8564832922664465  0.3330646947132720  0.3272375845484277
  0.7868982427059663  0.3732764948730036  0.0062095214189313
  0.7141934727159764  0.4159699389816964  0.6726758342783654
  0.6479954939888657  0.4638239715228991  0.3552815510741993
  0.5774597556941075  0.5021788522652599  0.0030679937426328
  0.4959672259367238  0.5378705277774003  0.6821878882279933
  0.4283112308272337  0.5883851558248878  0.3415784165632019
  0.2872707038362421  0.1662494794083926  0.6790194955557425
  0.2255798559350737  0.2075142242318435  0.3250350847389285
  0.1481811271856373  0.2486676891242539  0.9932049588295655
  0.0772694596497274  0.2995644164213971  0.6570084797195861
  0.0091303118485158  0.3312476942452776  0.3355708543817286
  0.9300527796597464  0.3727586900233888  0.9961696401117024
  0.8565090437562120  0.4171303771726116  0.6563452879240899
  0.7837345378779190  0.4580204311577774  0.3389589362474652
  0.7098681293864644  0.4993788701335049  0.9899012779194720
  0.6444141992121146  0.5362576626079729  0.6624471615485632
  0.5755266923996913  0.5856386486671639  0.3431252262468760
  0.5037645609202102  0.6206906583399388  0.0007156967597055
  0.3557560761607235  0.2121049441392486  0.3426423080543444
  0.2854597715981697  0.2457256980730449  0.9937964356311397
  0.2237788951384161  0.2935324251548721  0.6692645329161735
  0.1422341410026249  0.3269615213885047  0.3154940595346432
  0.0778306186387496  0.3726471388970509  0.0093589591074732
  0.9989340369858795  0.4111365831617988  0.6639838312482880
  0.9319925620549512  0.4595296296335079  0.3315845295992332
  0.8529292038177800  0.5038633970738218  0.9884285741179824
  0.7860959272937293  0.5416392367425473  0.6659852010560456
  0.7149825676135109  0.5768502161009366  0.3343394146940568
  0.6475203457542591  0.6335532222877944  0.0003055666369320
  0.5777290521444698  0.6673012358257822  0.6789003841378403
  0.4290503598748856  0.2471267607725807  0.0088684473569813
  0.3553584092271578  0.2938147457010771  0.6773748575731631
  0.2891199882032041  0.3422762974131572  0.3258253634069490
  0.2118826472560116  0.3845313726012662  0.9942672962881645
  0.1473016228112343  0.4230867270203547  0.6636620523808006
  0.0773115606218937  0.4603246444121822  0.3227659533745424
  0.0024809581051883  0.4994091187822463  0.0074875170889825
  0.9247034159984437  0.5430501782929156  0.6654414792668675
  0.8536830620422009  0.5845383746302204  0.3373263916592322
  0.7798851380587095  0.6254894663669077  0.0052029570097289
  0.7168538636923643  0.6738272840781363  0.6526483395115150
  0.6365744395979291  0.7161862913119634  0.3272492234319628
  0.1436260254106045  0.5095478743164890  0.9992789405505249
  0.0708187197616397  0.5387048677827053  0.6583227336091468
  0.9948214484766567  0.5859209943675978  0.3276033622146386
  0.9296125796095609  0.6261453223265434  0.0046889989556078
  0.8647233500897258  0.6658464916630535  0.6617506183409034
  0.7859330066498060  0.7049198755327879  0.3315691954620661
  0.7164616672474509  0.7496293174376021  0.0139536098647639
  0.2153522363987292  0.5463325075190468  0.6715197398441006
  0.1473594209613083  0.5782031676255670  0.3252036459477239
  0.0704674189639647  0.6267777396203726  0.9982851790925054
  0.9975480025773606  0.6674174157637367  0.6716317355231141
  0.9321139641295986  0.7056161397636203  0.3229590599604677
  0.8660631401053465  0.7498448966807558  0.0138375858931283
  0.7901982704299115  0.7924690790139692  0.6548454156712111
  0.2834909396521255  0.5828957075924563  0.3307920729548144
  0.2201735837416123  0.6210810775700608  0.0111781265548174
  0.1466199400701953  0.6613384891662761  0.6775416020834015
  0.0724204531604471  0.7129104233103760  0.3249655822355280
  0.9989526342071642  0.7438205528905470  0.0045622648444379
  0.9278915717531433  0.7923492937025856  0.6626374886260251
  0.8555781785572378  0.8302186739327269  0.3257213548366877
  0.3558581288978857  0.6255376574841307  0.0013879971492230
  0.2794187040851241  0.6650933505818770  0.6680705173086139
  0.2150327344216265  0.7058033777021535  0.3227833305692158
  0.1409903429020360  0.7495284490764718  0.0037607126048300
  0.0745811919345911  0.7896654185873260  0.6641785340009037
  0.9911691644067488  0.8355193033314450  0.3224460678538961
  0.9272761870763233  0.8742473947122491  0.0164421946507574
  0.4197077685634341  0.6658710252134412  0.6553082824959517
  0.3524293625384090  0.7128758698321818  0.3378636436168989
  0.2886072508513067  0.7487117228383440  0.0060175215265090
  0.2206913905024166  0.7895865094712917  0.6611558098047041
  0.1510048244707036  0.8354440714129439  0.3218800817581595
  0.0750989497479324  0.8707136976843444  0.9984262527062242
  0.0018114479481852  0.9163248941366575  0.6559921388454342
  0.9235305604275155  0.9684522718780570  0.3349820468226810
  0.8636043261486535  0.0001058939305665  0.9991901271644181
  0.7881504556637751  0.0441463160262217  0.6649586050014094
  0.7210623233272173  0.0843994181322145  0.3341950003810013
  0.6465275139640383  0.1280217043573515  0.0006442776012250
  0.5722530555763683  0.1664325915315814  0.6634025894566022
  0.4967705026396771  0.2093731472735527  0.3297320838021136
  0.0726992235937942  0.9585224498126692  0.3353794932249201
  0.1404602560124388  0.0025455135792072  0.9892842140414260
  0.2089362617227835  0.0386756969840718  0.6692477550123925
  0.2743198624897474  0.0799196926281311  0.3419232073940961
  0.3592536402358988  0.1258578549044813  0.0087002424954150
  0.4250465552091569  0.1670630989551682  0.6781448585144574
  0.8590874738164374  0.9142697040275891  0.6555449732627494
  0.7931178082477928  0.9594499437760291  0.3337578430010240
  0.7216678223366557  0.0008587132559654  0.0004001237130069
  0.6413432614764218  0.0492536554663232  0.6573210953083191
  0.5731351737293551  0.0832116902211624  0.3320952070175736
  0.4985683200894968  0.1256736708342103  0.0123359583499578
  0.1407686089452653  0.9218158096223235  0.6516961841710085
  0.2147229108091011  0.9549703984989861  0.3285560029942118
  0.2784537883725449  0.0003540262270363  0.9915701121037017
  0.3603547777109384  0.0456345057503924  0.6738079369063712
  0.4206167149968607  0.0796683927998814  0.3241006315638515
  0.7867245140474282  0.8706146923776217  0.0215423815649700
  0.7119298073746805  0.9126050494434423  0.6684048418400934
  0.6452011496973640  0.9629774949338525  0.3322267847617866
  0.5789864887607123  0.9995904915109080  0.0192234140306695
  0.4940939363984853  0.0480284290602455  0.6680718579810545
  0.2096737601382657  0.8776100038747927  0.0023464376481996
  0.2767350197223806  0.9153877098113128  0.6546409655889605
  0.3516900051547935  0.9541654062915512  0.3330480620537273
  0.4335727393910673  0.0036273660657358  0.0092385271877262
  0.7135202758695911  0.8360320651519260  0.3353331680838352
  0.6392700369392941  0.8816376542457078  0.0162272616843779
  0.5687579854458136  0.9139565753895837  0.6575820490638620
  0.4982621697913956  0.9570917928255369  0.3235584965284133
  0.2862278523020336  0.8398276101926214  0.3194940581899317
  0.3579533447504915  0.8766842523530656  0.0145018476268177
  0.4376064318701225  0.9166187925917910  0.6538125523875280
  0.6385420434558711  0.7906879639837854  0.6679950384810169
  0.5748469066568234  0.8373377249728620  0.3342877802032262
  0.4999591132810295  0.8750004227692756  0.0064512700753454
  0.3525575343952596  0.7933717148753985  0.6750155241890283
  0.4307044191629217  0.8344090602155418  0.3340832687127104
  0.5700273652598113  0.7486011568206834  0.0025076572074028
  0.5061908527448438  0.7921501434768246  0.6698761368373383
  0.4207671834905469  0.7536783195077348  0.0049800351416636
  0.5045470481297585  0.7082410705160456  0.3351575041349690
  0.0036728318779637  0.9975816771212891  0.7694837797012042
  0.9396939156512474  0.0439164760736404  0.4413851481642510
  0.8643253838340641  0.0825822248268508  0.1195991210101468
  0.7895786436252621  0.1281473552302046  0.7743337422735408
  0.7204678684694557  0.1632573867863201  0.4473839545130573
  0.6454894669133253  0.2057636311876081  0.1086113479786803
  0.5578506438718023  0.2477131721829124  0.7659870778181670
  0.5017591994436117  0.3035831994211904  0.4422886560554389
  0.4299119050309912  0.3223419160360379  0.1139880150786396
  0.3552011556040569  0.3725124418115229  0.7838208649152634
  0.2779241282834732  0.4124991134197344  0.4359501261782981
  0.2072014855554585  0.4570940679105746  0.1189164610012696
  0.0568979468808948  0.0389019528952517  0.4488150463699654
  0.0028103665885482  0.0821177518173073  0.1124341698902285
  0.9226007914000149  0.1207664542230802  0.7679644759902615
  0.8683757593412835  0.1677262564012452  0.4384045312128819
  0.7847154639132867  0.2019309427378460  0.1212119504072220
  0.7100704161159328  0.2533446948160218  0.7728422574037310
  0.6549044975231766  0.2889092812615601  0.4377608035966389
  0.5804114182561833  0.3310544792725096  0.1225378723156325
  0.4991332745333779  0.3663808884754616  0.7713533933670078
  0.4203719414745848  0.4089779838707628  0.4394790194399718
  0.3654792846969528  0.4550679000778075  0.1137238533014795
  0.2761093936265837  0.5043850542149215  0.7710149450687354
  0.1484268256615593  0.0789306932330689  0.1040984943768848
  0.0701189503456376  0.1266139852283317  0.7783840862943023
  0.0040873458142272  0.1710728343260541  0.4466369453645740
  0.9341810866757925  0.2080959529320694  0.1066226681667644
  0.8571074750912047  0.2524577083273343  0.7717576421915098
  0.7949691396617453  0.3016289694693413  0.4342394626552561
  0.7107609966608592  0.3185273453750170  0.1170798943957081
  0.6512166736821712  0.3641268849826105  0.7801468338883950
  0.5762945526045229  0.4242011926063327  0.4327737732914372
  0.5064778619707369  0.4567565002401324  0.1099565207062412
  0.4283589797548188  0.4927538256787045  0.7846511396388109
  0.3408882565622662  0.5323905702600555  0.4402252455210061
  0.2073531334628527  0.1166023759420227  0.7851064581773812
  0.1467332711560516  0.1617236239723923  0.4531252437280671
  0.0821625910776120  0.2154250780077760  0.1128973881316213
  0.9957402305684866  0.2397990388976154  0.7861374397683534
  0.9350416083898878  0.2972487427400878  0.4389554834892451
  0.8546475897732790  0.3382126983783920  0.1017389933526687
  0.7868974088493417  0.3774936263479063  0.7764613069651318
  0.7167000389465059  0.4294383556735113  0.4440685410382059
  0.6472032860507255  0.4483564557928119  0.0976004966449580
  0.5625506406306187  0.4933711431399814  0.7860020538151531
  0.4977429893296303  0.5292969195807302  0.4462849182194262
  0.4202690939565059  0.5771956095448800  0.1082000887506354
  0.2926147730043738  0.1605149567713013  0.4335543875533929
  0.2205637352035978  0.2047909002345278  0.1061854099337936
  0.1366082594031965  0.2593511370830583  0.7734477339453250
  0.0740780193509565  0.2823135494274851  0.4498988794112009
  0.0035031240631653  0.3311574012838108  0.1144913723626928
  0.9331774527667562  0.3605682743370053  0.7638572522266074
  0.8663784171419167  0.4236352357566915  0.4413104927453091
  0.7805827248801407  0.4586414755171759  0.1105957422107835
  0.7131846801202286  0.4790157872503684  0.7766112354715631
  0.6274890992343884  0.5400572516782205  0.4623040507044038
  0.5734646427246091  0.5792761540705911  0.1135083335948011
  0.4943462646324264  0.6252513091276128  0.7875440933764253
  0.3485626896689382  0.2006344958245094  0.1177811727634150
  0.2891450842896433  0.2402527268529298  0.7761678494107969
  0.2055202463984358  0.2954343828960333  0.4300030018332848
  0.1499937896285104  0.3299826156682855  0.0984533579564015
  0.0658764444029529  0.3699513850293599  0.7802673052528704
  0.0184245594486967  0.4232612002022123  0.4446655253096168
  0.9296824398646635  0.4594673978412871  0.1114285095720717
  0.8583854177320802  0.5004058451230335  0.7844064778997506
  0.7884966010137759  0.5402208190510791  0.4459376625414038
  0.7266757622822624  0.5876164865507576  0.1070985701286915
  0.6397880046131235  0.6192886886440476  0.7686342478832060
  0.5690484510525806  0.6549540374166583  0.4355028906708753
  0.4244525439844438  0.2367220326988857  0.7745592769064586
  0.3495399968412869  0.2862513623758289  0.4435435362196714
  0.2893166019722955  0.3271940549835719  0.0999218918228379
  0.2189117559400060  0.3722660444056345  0.7735199913042337
  0.1443753385853128  0.4223811650296625  0.4441127796429356
  0.0740624729897803  0.4568722093387336  0.1181912078602565
  0.0023612779641340  0.4910091967383750  0.7734090068445596
  0.9357793169964594  0.5509819451109337  0.4587694948833914
  0.8710371836973820  0.5863936539126939  0.1122693787903941
  0.7907978527964232  0.6083566588449898  0.7678772798379185
  0.7155551732216097  0.6662427178905688  0.4414709767500256
  0.6306540047275391  0.7093306802773682  0.1151335450499076
  0.1530626325797400  0.5042292585533019  0.7736115958529268
  0.0743298283694429  0.5491790520523594  0.4348889384438124
  0.0022271902354021  0.5875602376984190  0.1057656992250031
  0.9300427296974405  0.6197509108628694  0.7829938753098418
  0.8638396973043712  0.6674091689975370  0.4387004670614090
  0.7955987368590201  0.6994151857591788  0.1209315284383052
  0.7098244975768893  0.7531243750226650  0.7743309869697939
  0.2202536153386134  0.5422055787470299  0.4401056652487512
  0.1381686717732933  0.5754212912715460  0.1122905256457969
  0.0748229199165849  0.6236667012128834  0.7778775398145186
  0.0064464341698312  0.6714650170014806  0.4402815784165597
  0.9359769476669300  0.7165462394469557  0.1163270147066058
  0.8551820874700837  0.7492814814713356  0.7705407728476814
  0.7913011848851141  0.7931169289285904  0.4406782646113570
  0.2798765334480748  0.5818135138180622  0.1239594324441811
  0.2152566674961989  0.6353514893233623  0.7923563060014231
  0.1536192986590237  0.6715356091607561  0.4311637753981472
  0.0733103332507596  0.7050742311620795  0.1285516950026206
  0.9953936025076047  0.7499647142835215  0.7640431207053453
  0.9359427665482087  0.7941022102593394  0.4350496990098449
  0.8611554527654874  0.8256635530968452  0.1214237892037957
  0.3526922967488559  0.6329282217548666  0.7921317310407545
  0.2835235997397518  0.6646046166817001  0.4416536551365553
  0.2086092903428565  0.7108388261806340  0.1121638641487763
  0.1283123416199174  0.7523096406373000  0.7787248425572741
  0.0685093532708478  0.7985270260410502  0.4262399866425781
  0.0103131396252536  0.8365197775951003  0.1178426213709756
  0.9306435952598520  0.8684332124633016  0.7753147675674725
  0.4347201607563775  0.6484715310469369  0.4454618663630612
  0.3558389927963219  0.7004912586817156  0.1145245148971057
  0.2699735421004590  0.7559093055123967  0.7845784936597084
  0.2086781077158690  0.7964346428049183  0.4460940806017106
  0.1450673130033735  0.8363823936513555  0.1215875489137019
  0.0758608402337870  0.8702836529094284  0.7832942132794258
  0.9966164915497799  0.9160593297084958  0.4223971097773642
  0.9309642438340759  0.9566754836576692  0.1220375303119283
  0.8598711746688892  0.9990298028514317  0.7716266646346668
  0.7933057294242545  0.0475831627925629  0.4292522436428996
  0.7186005619144851  0.0777626372026106  0.1171377916332332
  0.6443002595546332  0.1333157879872715  0.7777849818688765
  0.5630422721792314  0.1722667037912231  0.4359990049171429
  0.4951000516549371  0.2100203636075193  0.1034918586982343
  0.0579066199095521  0.9611051680056804  0.0971546551499998
  0.1310898148597985  0.9824347703577487  0.7738650846941013
  0.2191824510918323  0.0333349266164547  0.4435254041963788
  0.2786812318561118  0.0899993492909203  0.1157181755021384
  0.3526423818449729  0.1222469491119114  0.7770767101305722
  0.4225976785308845  0.1660307545154254  0.4409545897076157
  0.8541681065558109  0.9149707805681828  0.4582994674962038
  0.7930451726813317  0.9603395170932956  0.1225767675047180
  0.7095507653179567  0.9912088224365334  0.7734848281240900
  0.6407932994670418  0.0451249506824567  0.4437224252231076
  0.5618381718035224  0.0766228561493136  0.1125479885430991
  0.5116134381244493  0.1253411845602770  0.7871591003016647
  0.1387324912561354  0.9287401358366125  0.4440122274167706
  0.2172148198602954  0.9558536775274007  0.1173062040278410
  0.2774055675540055  0.0001479350034970  0.7653942468970882
  0.3584817778739335  0.0465460962432758  0.4457153955454345
  0.4207845380651989  0.0915747452427667  0.1152026046966128
  0.7778717861017270  0.8691946183782022  0.7654957556578523
  0.7203271013080226  0.9130214243942802  0.4478734608712784
  0.6467970835603154  0.9445780386021241  0.1128788379045886
  0.5662415452318967  0.9968559709205707  0.7793883606682286
  0.4964199236349245  0.0459349130109317  0.4319036109853585
  0.2157323470448631  0.8735585998109912  0.7684603073999199
  0.2920114830654867  0.9166909139019097  0.4428092340999683
  0.3408860677420904  0.9581079870266791  0.1217332747638906
  0.4193018478400177  0.0034469151151058  0.7824140979036045
  0.7098526848524003  0.8333472830387905  0.1238458320820115
  0.6378696028533497  0.8788431447460781  0.7805999457634982
  0.5563613173424358  0.9214564685837274  0.4435106209406641
  0.4823344759018227  0.9610043041022323  0.1233553642585932
  0.2751497258177196  0.8303172008272881  0.1282589846568953
  0.3499362699601960  0.8765649483328417  0.7800408485994907
  0.4256176911264973  0.9225502993093855  0.4412325042470329
  0.6506223506322968  0.7942086841124407  0.4525935745438048
  0.5629258987760224  0.8334792009425200  0.1193921693254509
  0.4865988652313789  0.8796021489604513  0.7803959712591393
  0.3533122602793100  0.7825776162504781  0.4358733770512373
  0.4094078581024334  0.8286208029143296  0.1298346804304842
  0.5722975498106564  0.7568740878116671  0.7812417042811006
  0.5056937404204476  0.7845364107134500  0.4320194238380637
  0.4170485975771996  0.7522243463964813  0.7842566619004288
  0.4950641615511628  0.7029807057056630  0.1206288869863812
  0.9992570772961500  0.9968608900209333  0.2183723752448472
  0.9188733131959239  0.0355158367458515  0.8927139190576270
  0.8602212697782150  0.0908705020266041  0.5428143596731445
  0.7835740398657833  0.1194965435305235  0.2299951048198778
  0.7153824640984823  0.1687146853762869  0.8879235292271943
  0.6451552999236441  0.2070967991032688  0.5507893423040215
  0.5764694871308933  0.2434414975307675  0.2336811570751749
  0.4951929278617015  0.2788634874367872  0.8961066370233581
  0.4231030374082678  0.3376490856482306  0.5613926251809715
  0.3503949271160849  0.3773469429092842  0.2245918905229587
  0.2881245522748443  0.4224815671950921  0.8904861835883011
  0.2211218600256188  0.4651390392153303  0.5458393653881473
  0.0753569150947229  0.0408363374980567  0.8859685549335055
  0.0122417905709540  0.0757657597569690  0.5566860791494292
  0.9296833677759437  0.1185766466866554  0.2270315512983174
  0.8492220049374524  0.1739196413502313  0.8978517577555962
  0.7887026474417098  0.2190060480639104  0.5483714702573295
  0.7115302409593340  0.2394184791801308  0.2305343733891547
  0.6330947599550782  0.2914725002232643  0.8996623912468564
  0.5661248320841139  0.3262638956862460  0.5591074357790546
  0.4922325435005206  0.3850251404163387  0.2289237125555275
  0.4229639965757528  0.4204173142469827  0.8843107970972284
  0.3473787979416869  0.4574167090169041  0.5524494955109205
  0.2933055516153402  0.4928690888407772  0.2133811467657551
  0.1455918426833804  0.0830924557322561  0.5591481454255316
  0.0797230723336639  0.1264324412433382  0.2181692954185834
  0.9962148864855678  0.1548044960775385  0.9001280559577225
  0.9354582366000486  0.2187441843688873  0.5499970631608662
  0.8602563897644799  0.2507572013316590  0.2130109418773003
  0.7817562203196857  0.2901041119885122  0.8869608927955070
  0.7110864375528791  0.3472744403834724  0.5549606915377581
  0.6355988497068239  0.3733668328963944  0.2326529393044297
  0.5643495569524717  0.4081221392234724  0.8840778616476257
  0.4831604357315982  0.4538822300339476  0.5451298009386036
  0.4370227651265708  0.5003725718456451  0.2206757468724376
  0.3720047850299224  0.5493699319269538  0.8924828527501489
  0.2206536879434324  0.1360219659199160  0.2336336064581772
  0.1408247960129572  0.1776225210950102  0.8761028059543605
  0.0660159452871554  0.2000101502844913  0.5727585825896355
  0.9979635679142547  0.2503450152863707  0.2231007902392221
  0.9227139399207402  0.2847474266589884  0.8898379906498093
  0.8637596934652834  0.3400671669241575  0.5552396536035928
  0.7844844726920712  0.3573609879040447  0.2199423914261516
  0.7170626876105146  0.4047692727833478  0.8873979107742400
  0.6376878424260966  0.4608562199698483  0.5448125783851836
  0.5795804380277048  0.5008321767802002  0.2217402125532857
  0.4988738483275270  0.5441660410967728  0.8902045428670036
  0.4235634014426566  0.5838055290477584  0.5494136649080872
  0.2753692024343195  0.1629864474347471  0.8743036437065470
  0.2181090935934620  0.2073319608130433  0.5592796389014651
  0.1533444319015302  0.2426011438152287  0.2223719184928541
  0.0671134239285607  0.2866371498728455  0.8973636140333596
  0.0037915340466412  0.3375535088264456  0.5491575807832447
  0.9238762955050319  0.3737420364838115  0.2250707799746294
  0.8572874235613241  0.4077482115386104  0.8892188057212778
  0.7917621146630083  0.4612343659569405  0.5433444595848442
  0.7144520352117993  0.5057235990975144  0.2274995589362447
  0.6377809642925172  0.5291859893763800  0.8891755698194075
  0.5571744869234081  0.5849767154359498  0.5540858362057790
  0.4931742568699633  0.6285806465217831  0.2094156779338121
  0.3647330377034663  0.2066792408296934  0.5677154560572291
  0.2804781707250896  0.2533317231743624  0.2188157859585758
  0.2085817867246007  0.2893368370433933  0.8899539827967189
  0.1352341582649998  0.3321502358250399  0.5558922724196194
  0.0708247165165332  0.3819156965221921  0.2181639744147148
  0.9888587155371127  0.4073287880747074  0.8962245175865178
  0.9360929911567908  0.4630834669346342  0.5523389005679178
  0.8622638069033570  0.4962157223991213  0.2260052344944157
  0.7840093383172757  0.5302182187028777  0.8973213077719535
  0.7077315570237630  0.5810984033527546  0.5525808993397519
  0.6432752842694072  0.6229629085053929  0.2163831822032591
  0.5696564455138855  0.6722719867215758  0.8915940931523068
  0.4288923605080868  0.2534851287779105  0.2312328588013273
  0.3533443267299674  0.2882223444949474  0.8955060722466044
  0.2768701781762886  0.3367196334921800  0.5552670286915529
  0.2132661467668484  0.3718324979952001  0.2085163834565265
  0.1485090821140744  0.4171712440648605  0.8848407853982820
  0.0882885283493948  0.4685770553721227  0.5470414429597881
  0.9997496996773165  0.5040671037574711  0.2179472265427123
  0.9262212647407040  0.5376755201347194  0.9029283939273043
  0.8617757826464540  0.5926346439806451  0.5572788845210823
  0.7919551116140013  0.6332311116545455  0.2305954024482588
  0.7099227811260818  0.6627332132901529  0.8839663339265016
  0.6469666543226609  0.7054310047539403  0.5510588416697644
  0.1433612478866095  0.4936254528460964  0.2112833601527555
  0.0757300455623167  0.5391424947120171  0.8979453556076535
  0.0039853004820571  0.5841717818913850  0.5435316301877648
  0.9275150309273386  0.6334553336752009  0.2237043434021970
  0.8546965217954892  0.6725970635256360  0.8932894763264372
  0.7894886052238022  0.7107243474641365  0.5484324405975869
  0.7208631208888576  0.7418477134369681  0.2162213718696364
  0.2145911419774507  0.5513401365884150  0.9045805582325173
  0.1451727609721090  0.6035604347518699  0.5448731982052664
  0.0633025913747858  0.6269219221593829  0.2144659206533461
  0.9916936054487309  0.6664910070811558  0.8864712421054506
  0.9346531663721933  0.7119094757453581  0.5496832001326766
  0.8614261941634709  0.7428455405878438  0.2243668493973487
  0.7845074497216444  0.7959027177187323  0.8922561562907632
  0.2851152043766447  0.5876366284472709  0.5602359722452590
  0.2110631379199006  0.6215811822790656  0.2222957171095956
  0.1322059966334308  0.6731934876849195  0.8877437948515663
  0.0814858337952558  0.7147665654729067  0.5563383106899664
  0.0123473260866547  0.7465763392318152  0.2191678507555039
  0.9323055689042263  0.7844991317119607  0.8770540554108734
  0.8642221178863565  0.8318185865350642  0.5507249703043939
  0.3628157848013842  0.6236387517119226  0.2330337624441370
  0.2891280592923309  0.6675679036113706  0.9004014513866139
  0.2166300206699319  0.7113768824433251  0.5533761556632300
  0.1438411995379170  0.7519427017178444  0.2183206766563401
  0.0760227374788371  0.7869604206234797  0.8897576466738712
  0.0001629232444671  0.8424113117073730  0.5438469755308191
  0.9414255942823431  0.8787142301148947  0.2237302245211694
  0.4236647764804076  0.6774443470890716  0.9052991797289991
  0.3684905876862672  0.7042589140882924  0.5400355661438709
  0.2994285507836167  0.7497840470370889  0.2244168164520346
  0.2146069314562666  0.7786089968811183  0.8917662281429131
  0.1419542901904549  0.8411671634994633  0.5491643504843182
  0.0822484278978877  0.8888593548961623  0.2134972030103484
  0.0010424891107732  0.9214002882297976  0.8997929192234793
  0.9385730820917431  0.9591822422022602  0.5388843915426946
  0.8628719085653316  0.0041550885263248  0.2316611012250291
  0.7898900955864434  0.0366262710186476  0.8934212320201524
  0.7197444566944995  0.0837159676646380  0.5533416536304827
  0.6372555036993433  0.1171610421252751  0.2223617390641763
  0.5711484206455566  0.1590567736649007  0.8825830481808339
  0.4933779614170675  0.2192217405096812  0.5639522821911527
  0.0774021190476333  0.9548872258070276  0.5511116196094079
  0.1471808031375659  0.0123741216945277  0.2153000277906045
  0.2024857686330606  0.0358858320850146  0.8805994813914992
  0.2853288156661904  0.0809117453434851  0.5510188577165991
  0.3526580476121808  0.1265810218470449  0.2437989623347718
  0.4303674201752870  0.1483096735870220  0.8994354038826131
  0.8515970322369313  0.9185242805373406  0.8952449069238924
  0.7881038925045871  0.9594214338718601  0.5581228730103973
  0.7194999855485307  0.9922975323251038  0.2452564010273548
  0.6503528625449917  0.0355328724462680  0.8914969833749424
  0.5663062517730779  0.0862595604694860  0.5423857313186673
  0.4822159091286906  0.1277645157073692  0.2060594109288800
  0.1408358543706427  0.9118852599389982  0.8926643191078298
  0.2208250434190262  0.9572590569547756  0.5551530845327335
  0.2868709379818668  0.0028389376875140  0.2284667328561127
  0.3512265221300410  0.0366782968419415  0.8827408073618201
  0.4235855746471131  0.0859293576713327  0.5494261119602655
  0.7956797935830622  0.8700710673284746  0.2174021927681693
  0.7173007371844662  0.9162201983334910  0.8899548882324737
  0.6420439741791242  0.9622494873127323  0.5395654231119167
  0.5618507257136756  0.9929269001165579  0.2151012783677047
  0.4890924984889509  0.0378721586572439  0.9023088194821085
  0.2139079476106716  0.8746967896462792  0.2267963939452358
  0.2803663806109142  0.9286480243523911  0.8881651783753242
  0.3668295023953334  0.9601824551788880  0.5594586690990937