Li 
 1.0000000000000000
   -10.6364300000000007   18.4228371711498369    0.0000000000000014
   -18.2338799999999992  -10.5273355263713349    0.0000000000000078
    -0.0000000000000001    0.0000000000000000   22.3096999999999994
 Li 
 504
Cartesian
 -0.0456154800000000  0.0365904600000000  0.0990194700000000
 -10.8029369000000006 16.7272802200000008 14.7894241300000004
 -10.7597020200000006 15.0752995399999996  7.4011308500000004
 -10.6502326099999998 13.0673718999999995  0.1013288500000000
 -10.7813443800000002 11.4692223799999997 14.9283028899999994
 -10.6416417499999998  9.4995759799999995  7.7365059799999996
 -10.6079578699999999  7.9694084199999997  0.0733037300000000
 -10.6150896400000008  6.1224605199999997 14.6748765900000002
 -10.7942000700000005  4.4825570600000004  7.3273780999999998
 -10.7254461699999997  2.5241197600000000 -0.0460332200000000
 -10.6686919400000004  0.8340697100000000 14.7885204199999993
 -10.7645409700000005 -0.9310266000000000  7.0483395000000000
 -1.4344776699999999  0.9261348700000001 14.7402478899999991
 -1.4469983500000001 -0.7768190699999999  7.3203871500000002
 -12.2980667199999996 16.0050133400000014  0.1950865100000000
 -12.1158973599999999 14.1330355099999991 14.6748134700000001
 -12.3974386499999998 12.1206284100000001  7.3383906999999997
 -12.3450941499999995 10.4331761299999997  0.1969008500000000
 -12.2581239899999996  8.6185680300000005 14.8746924099999998
 -12.0653209300000004  6.9902211999999997  7.4345102199999999
 -12.1214824900000000  5.2929093099999998 -0.0468931100000000
 -12.3444715400000007  3.3230219800000000 15.0496152500000004
 -12.1743727600000007  1.7346913500000001  7.4381281699999997
 -11.9823677300000000  0.0511237300000000  0.2899061600000000
 -3.2363488999999999  1.6909651999999999  7.8041045799999997
 -3.1714837100000000  0.0318025500000000 -0.0244677300000000
 -3.0805698800000001 -1.7897791599999999 15.0761014000000007
 -13.6752222499999991 14.8307155599999998  7.3387906999999997
 -13.6933629900000007 13.1506535000000007  0.1469121200000000
 -13.8386573199999994 11.2064265100000000 14.8456318199999995
 -13.6727586500000005  9.7019633299999999  7.4011459899999998
 -13.7107272400000006  7.7762250399999999 -0.3336780100000000
 -13.7088091599999995  6.0153378799999997 14.6123488800000008
 -13.5701881100000001  4.2442649399999999  7.3077578499999998
 -13.8081605100000004  2.5149533100000001 -0.1896757200000000
 -13.6880726100000008  0.8211003600000000 14.9151044800000001
 -4.5488253500000004  2.5740136499999999 -0.2488994900000000
 -4.7101458999999997  0.7699842200000000 15.2456401100000001
 -4.7172767699999998 -0.9473459700000000  7.4970983699999998
 -4.6144401500000001 -2.7136844600000001 -0.1855806400000000
 -15.1198987900000006 14.0192864299999993 14.7827720100000004
 -15.1829862599999998 12.2725684400000006  7.3005723400000004
 -15.1760668899999995 10.5672912900000000  0.1385325600000000
 -15.1812148300000000  8.7784149399999993 15.0071960600000001
 -15.3496693499999992  7.0550848999999998  7.9262248199999998
 -15.2987792000000002  5.3518417800000000  0.0684460200000000
 -15.0827873399999994  3.4747799300000000 15.2194071300000004
 -15.2842467499999994  1.6965801100000000  7.6205119999999997
 -6.0869077899999997  3.5421773499999998 15.1487212400000004
 -6.1831538100000003  1.9712490899999999  7.2514352300000002
 -6.1102949899999999  0.1121085800000000 -0.1515953300000000
 -6.2840928199999997 -1.7300924499999999 14.6576620799999997
 -16.7734746299999991 15.1038878000000008  7.4864850900000004
 -16.6892785100000012 13.2100551199999998 -0.0854541800000000
 -16.7161037300000004 11.3880552099999992 14.6428664699999995
 -16.6876271299999992  9.6168790200000007  7.5620721800000004
 -16.6560770600000012  7.8206560400000003 -0.2252994600000000
 -16.6323243900000008  6.2265735199999996 14.7789974399999995
 -16.8000142200000013  4.4376199900000000  7.6550208599999996
 -16.6758554699999983  2.7465536600000000  0.0159669800000000
 -7.6514707000000000  4.3211363499999997  7.6442471000000003
 -7.5168057700000004  2.6721420199999999 -0.1383996600000000
 -7.7324435700000000  1.0325278200000001 14.9310909499999998
 -7.4746406299999997 -0.8216772200000000  7.0385778200000004
 -7.6226431400000001 -2.4891206499999998  0.2087955700000000
 -18.1217070800000002 14.0750263499999999 14.8132800800000002
 -18.2920817699999994 12.3323246199999996  7.3975513800000003
 -18.2595064899999997 10.4090368000000009 -0.2581550400000000
 -18.2374391500000002  8.7800992900000008 14.8579300399999994
 -18.1230796500000011  7.0993116499999998  7.4590120400000002
 -18.4394382599999993  5.2595345499999997  0.0068171000000000
 -18.3124652800000014  3.6185042500000000 15.1460638999999997
 -9.0696438199999996  5.3027385899999997  0.1978524000000000
 -9.1371276600000009  3.4536237000000001 15.1120298599999998
 -9.3162294499999998  1.7231530399999999  7.2690661099999998
 -9.2651738500000000 -0.1446112700000000 -0.1278949000000000
 -9.2812760099999991 -1.7402621199999999 14.8061012900000009
 -9.2158233299999992 -3.4216936900000001  7.2008115899999998
 -19.7689844800000003 13.2110961000000007  0.1670442600000000
 -19.7374549399999992 11.3187890299999996 14.8457997699999993
 -19.7385427100000008  9.5736324499999998  7.5256505999999996
 -19.7002935500000014  7.7829594300000000  0.1160764100000000
 -19.9112517800000006  6.1128761000000003 14.5603886599999992
 -19.8297343599999998  4.1879738599999996  7.3008319999999998
 -10.8187029599999995 -2.7181825599999998 -0.0160866200000000
 -10.5759382700000000 -4.3664451499999997 14.6869826900000007
 -21.2649617999999982 12.1592466600000009  7.3087327300000000
 -21.3048177999999986 10.5344592899999991  0.1046101600000000
 -21.3385344100000012  8.9210680500000006 14.7634577700000005
 -21.2129458299999989  7.0581877600000000  7.3972092800000002
 -21.2892453900000014  5.3076572899999999  0.3113008500000000
 -12.2523403700000006 -1.7840264299999999 14.9814039399999999
 -12.1102653399999998 -3.3721601300000001  7.2551957800000002
 -12.1781118599999996 -5.3000897800000004 -0.0382571400000000
 -22.7799585700000016 11.3515373499999992 14.9839025299999999
 -22.7804849500000017  9.7439259299999996  7.2051197399999998
 -22.8844018300000016  8.0614713899999995  0.3087123900000000
 -22.8546746799999987  6.2151061800000003 14.6094047699999994
 -13.6437819200000003 -0.9136312700000000  7.3798719100000003
 -13.6665787499999993 -2.4821068099999999  0.2493806500000000
 -13.6182793800000006 -4.2609768900000002 15.1157498799999992
 -13.7694181899999997 -6.1708570099999998  7.2498846500000003
 -24.1880244699999984 10.5730931899999998  0.1017827600000000
 -24.3170556900000001  8.7530684700000005 14.7832435800000006
 -24.2384050799999997  7.0221869300000002  7.2667457100000004
 -15.1910386600000002 -0.0293284400000000  0.0309658000000000
 -15.0992498299999998 -1.8539755700000000 14.9044528199999995
 -15.1567147200000001 -3.4687159200000002  7.2011992700000000
 -15.1664457099999996 -5.2930953399999998  0.0839003700000000
 -15.1919421099999994 -6.9390756600000003 14.8176238399999995
 -25.7772601500000000  9.4643560799999999  7.1936750399999996
 -25.8038303400000011  7.8795625500000002  0.3668204300000000
 -16.6056046700000017  0.7223601800000000 14.6197311899999995
 -16.7470833100000007 -1.0119347100000000  7.5376365300000003
 -16.7216705300000008 -2.5649751300000001  0.1342491000000000
 -16.7445941900000008 -4.2464805600000002 14.7501877700000001
 -16.8395391900000000 -6.0130627600000004  7.1810480600000002
 -16.6752737999999994 -7.7827595199999999 -0.0351098300000000
 -27.3638554999999997  8.8097495699999993 14.6349878199999992
 -27.4817106699999982  6.8188311300000004  7.4733489700000000
 -9.1875978200000006 15.9089270999999997 -0.0180680200000000
 -9.1880657800000005 14.0552244300000009 14.8350269899999994
 -9.2084577900000006 12.3955127800000007  7.4557902000000000
 -9.2110770399999993 10.5631436799999996  0.0143736400000000
 -9.1214414700000006  8.7904331300000003 14.8003127499999998
 -9.1015495200000007  6.9477807100000000  7.3562238700000000
 -18.2508435300000009 -8.7513614799999999  7.4822158800000000
 -1.5404102700000000  2.5608789500000002 -0.2390659700000000
 -2.9275439400000001  3.4420466900000002 14.9307166400000000
 -4.3750301000000000  4.2124087399999999  7.6282041800000000
 -6.1160532200000004  5.2935234500000004  0.1940998000000000
 -7.5671864299999996  6.0718341799999997 15.1292083500000007
 -25.8083078499999985  6.2020047099999998 14.6250116899999991
 -25.9304371899999992  4.5110287600000003  7.4460373500000001
 -7.6916269499999999 13.2861288200000001  0.0089266400000000
 -7.7196879500000000 11.2968527200000004 14.6646364400000007
 -7.6133841300000000  9.6827786000000007  7.4089444400000000
 -7.5945056700000002  7.8620340799999999  0.2752115300000000
 -18.3055543100000015 -7.1109071600000000 14.5391463600000002
 -19.6967008600000000 -6.0974885800000003  7.3299858599999999
 -2.9682094999999999  5.1261818500000000 -0.1880682700000000
 -4.6649824700000000  6.1583476399999997 15.0324529299999998
 -5.9265241599999996  6.9102573500000002  7.2305878600000000
 -24.2426240499999999  5.3284446399999998  0.4806040700000000
 -24.2127225199999998  3.5084673600000000 14.9119115000000004
 -24.4214529499999990  1.7488485300000001  7.4118798999999997
 -6.1508823300000000 10.6708848399999994  0.4288686000000000
 -6.1311401800000001  8.5970007499999994 14.9044827299999998
 -18.2324157699999994 -5.3761094299999996  0.0523483200000000
 -19.6345423200000013 -4.5383493499999998 14.6048435500000000
 -21.1388636400000003 -3.5656916800000000  7.4302023500000001
 -4.6778070500000002  7.9494534799999998  0.2061087700000000
 -22.8334168200000001  4.3438777999999996  7.4811823799999999
 -22.8752261899999993  2.4958724000000001  0.3620253400000000
 -22.7145290200000005  0.8566082300000000 14.6704582400000003
 -22.7512275899999992 -0.8962236099999999  7.2184929899999997
 -18.3577583799999999 -3.5680179200000000  7.1278165900000001
 -19.7927011499999992 -2.6346330899999999  0.3235318700000000
 -21.3680872499999985 -1.5876015400000001 14.5863619000000000
 -21.2091172000000014  3.4399185999999999 14.9027689100000007
 -21.3822344800000010  1.7753757800000001  7.4578600899999996
 -21.2724328199999988 -0.0007577000000000  0.1439259000000000
 -18.2161981799999992 -1.8569801900000000 15.0593938400000003
 -19.7956720799999992 -0.8493067600000000  7.4532974999999997
 -19.7129598299999991  2.6207457800000000  0.0559450800000000
 -19.8280342300000001  0.9862413100000000 14.9447356500000001
 -18.2179407299999987 -0.1824992400000000  0.1111030900000000
 -18.2805620500000003  1.8392967300000000  7.4772633700000002
  0.0050295900000000  0.0931224800000000 17.1669522800000003
 -10.7957563099999998 16.8495045200000000  9.8471702400000005
 -10.6991308200000006 15.0539550200000001  2.6682205099999998
 -10.7349214699999997 13.1972285800000009 17.2751534900000010
 -10.6400216499999996 11.5543969400000002  9.9810018100000004
 -10.6175728899999999  9.7256045600000007  2.4230865900000000
 -10.4503115799999993  7.6694319000000002 17.0889419099999991
 -10.8724262300000003  6.0479058300000004  9.8673272300000008
 -10.4502717000000001  4.5267955200000003  2.5430384199999998
 -10.5704193899999996  2.6222495900000000 17.4868083500000004
 -10.4775798699999996  0.7776343900000000  9.7259165299999992
 -10.5384824800000008 -0.9947433900000000  2.6529905700000000
 -1.3145245699999999  0.6386877000000000 10.0129290399999995
 -1.5272174999999999 -0.8127062000000000  2.5083726000000000
 -12.0152197699999999 15.7255751700000008 17.1330570699999996
 -12.2947184099999998 14.2322346399999997  9.7806735699999994
 -12.0285556800000002 12.3308904300000002  2.7042022499999998
 -12.1720710400000005 10.4144670500000007 17.2418789100000005
 -12.2337830099999998  9.0237539800000004  9.7663121999999998
 -12.2099130700000007  7.2077034700000002  2.7337831700000002
 -11.9895412900000000  5.3384365000000003 17.2086627999999990
 -11.9285122099999992  3.4389953700000002  9.8046450800000002
 -12.1850483100000009  1.9425128800000000  2.5371450499999999
 -12.1337147900000009 -0.2231123000000000 17.2011121200000012
 -3.0179443300000002  1.9035133500000001  2.3224061800000002
 -3.0544795200000001 -0.0411179000000000 17.3655154500000002
 -3.1627963000000001 -1.7256406200000001  9.9643362599999996
 -13.7307483700000006 15.0195701300000000  2.3787197400000002
 -13.7198472200000001 13.1326444500000008 17.2176814699999987
 -13.9555000400000004 11.4702376499999996  9.6877521400000006
 -13.3679489799999995  9.7409898699999999  2.6120173200000001
 -13.5660664900000008  8.1639728500000004 17.4048418200000015
 -13.8645503100000003  6.1512724199999997  9.6550530499999994
 -13.7155595399999992  4.5223302500000004  2.4530969900000001
 -13.5410244300000002  2.7042028800000000 17.5053315299999994
 -13.3333798500000000  0.6754746800000000  9.8212931599999997
 -4.3316108199999999  2.5925206799999998 17.5154895500000016
 -4.5095673200000004  1.0007243100000001 10.1090882499999992
 -4.8019516700000002 -0.7541840400000001  2.5187068600000000
 -4.3271581599999998 -2.6029219800000001 17.5384904400000003
 -15.3655025199999997 14.0968820499999996  9.7929651500000006
 -15.2573290200000002 12.1845548299999997  2.2697664199999998
 -15.2529526900000008 10.5228807700000004 17.3226188199999989
 -15.4534572400000005  8.6828064600000001  9.9070359299999993
 -15.0592102600000004  7.2033219099999997  2.1774377999999999
 -14.9796007299999996  5.1698952900000004 17.5354700200000018
 -14.9453449799999998  3.5977517799999998  9.9564826400000008
 -14.9946782800000005  1.6662172399999999  2.4139115200000001
 -6.0391870100000000  3.7009995099999999  9.6724683200000001
 -6.0801434299999997  1.9075072600000000  2.3689646400000002
 -6.1820016999999998 -0.2135647200000000 17.2553869099999986
 -5.9355970500000002 -1.6072821700000000 10.0371090299999999
 -16.7119750499999995 15.0011695799999991  2.5542681699999998
 -16.5002352999999999 13.3959530600000001 17.0414261399999987
 -16.9396874400000002 11.5013982400000003  9.8455046999999993
 -16.6654271399999985  9.5522757400000007  2.4673578300000001
 -16.3200553100000008  8.0961253200000005 17.3259636800000010
 -16.5215829999999997  5.8747656099999999 10.3138646800000000
 -16.6620684099999998  4.4666113000000003  2.5323368700000000
 -16.6588367800000015  2.5250304200000002 17.5698724599999991
 -7.3658079699999996  4.3093670199999998  2.6276626300000001
 -7.4562108399999998  2.7976517400000001 17.3160718699999983
 -7.5729167999999998  0.6761291600000000  9.5932379700000006
 -7.6122618600000003 -0.7105265500000000  2.1964648800000002
 -7.4463393499999997 -2.6809713500000001 17.4075294999999990
 -18.5500954699999987 14.3064571600000008  9.9203544699999995
 -18.2663755899999991 12.2904207499999991  2.4859366199999999
 -18.2544965400000017 10.5459545499999994 17.4998731999999997
 -18.2371104899999992  8.8392586699999995  9.9487354700000008
 -18.4437643800000011  7.2013933300000001  2.3893369700000000
 -18.0970959600000008  5.2672504199999999 17.1479994799999993
 -17.9949973400000012  3.5885660499999998  9.7159388399999997
 -8.8310209099999994  5.3275678400000004 17.2801851000000006
 -8.9373307000000004  3.4260543100000000  9.8953232300000007
 -9.0433129200000000  1.8855510499999999  2.2292274299999999
 -9.1162939499999993  0.1140060800000000 17.2569989499999998
 -9.2372856599999995 -1.7867448900000000  9.9080228800000008
 -9.1183133499999993 -3.4452061600000001  2.6368103899999999
 -19.6145483399999989 13.2973200499999997 17.2545229199999994
 -19.9998898700000005 11.4393381800000000 10.2350098000000003
 -19.9569575499999985  9.8738134599999992  2.5046961599999999
 -19.5039683199999985  8.1643654100000003 17.1311117499999988
 -19.7591422799999989  6.1687958099999998  9.8490850499999993
 -19.6417576800000013  4.1510739699999997  2.5685948500000002
 -10.8220957700000007 -2.4883426300000000 17.2590426199999989
 -10.8042689500000009 -4.4120258200000002  9.7022417500000007
 -21.3736222200000014 12.2784245700000003  2.3596010199999999
 -21.1927981299999999 10.6096999899999993 17.4683584600000010
 -21.3576291699999992  8.8883378299999993  9.7872758100000006
 -21.2153828400000002  7.2942076499999997  2.6979461200000001
 -21.2823780599999992  5.1485881500000001 17.2750920199999989
 -12.2292236200000008 -1.6502835600000001  9.8186253600000004
 -11.9617841800000004 -3.5121940600000001  2.5051679400000002
 -12.1677125400000001 -5.1870981499999997 17.3542145499999982
 -22.9484095900000007 11.4728612499999993  9.8225499299999992
 -23.0208714299999997  9.7000282200000001  2.5952207999999999
 -22.7583930300000006  7.8669427900000004 17.1905334799999991
 -22.8782185700000014  6.2286048599999999  9.8313998799999993
 -13.5856049500000005 -0.9688262700000000  2.7654977500000002
 -13.8744852900000009 -2.7229197699999999 17.6772314799999997
 -13.8786606300000006 -4.2393773499999998  9.6191344799999996
 -13.6359991500000000 -6.0719686700000004  2.8679497500000002
 -24.2622009799999994 10.4428440800000004 17.0455728099999995
 -24.4346541299999984  8.8829407800000002  9.7058282699999996
 -24.2146698399999991  7.1728894299999997  2.7089283100000001
 -15.2921241699999992 -0.1654550000000000 17.6722212799999987
 -15.1339997499999992 -1.7732066799999999  9.8531605500000001
 -15.1802079699999997 -3.6400638399999998  2.5023421600000000
 -15.0823089499999998 -5.5559386300000000 17.3731176199999986
 -15.2889409100000009 -7.1442252699999997  9.5092862300000007
 -25.9991262300000017  9.8065100899999997  2.6290335300000001
 -25.7336324400000009  8.0028076099999996 17.2970398699999990
 -16.4480226400000014  1.1821013499999999  9.9381205999999995
 -16.5575300900000002 -0.8187426900000000  2.5550075699999999
 -16.6547142500000014 -2.9840322800000001 17.5037108199999984
 -16.7416837899999997 -4.5398919099999997  9.9522251100000005
 -16.7934945199999994 -6.1323265999999998  2.7125817400000001
 -16.6755362100000006 -7.7641961100000003 17.4750589100000013
 -27.3037574399999983  8.7168394199999994  9.4235527999999995
 -27.3460419799999990  7.0797588700000000  2.7226206899999998
 -9.1282691000000007 15.8514802299999999 17.2147593999999984
 -9.3055665399999992 14.1140183599999993  9.5764887800000000
 -9.0612591699999996 12.4200277700000008  2.6133089900000002
 -9.2839186900000001 10.4663787399999997 17.3521496100000014
 -9.1298501200000004  8.5593267100000006  9.7270070000000004
 -9.0955831499999995  6.9101927999999999  2.3088723199999999
 -18.1405960099999994 -9.0510723500000001  2.1674912100000001
 -1.0740453500000000  2.5999613799999999 17.2646978799999999
 -2.9391438499999998  3.6870346500000002  9.8949187100000007
 -4.6052107500000004  4.1866456100000002  2.5816377799999999
 -5.9798922100000000  5.2097385300000001 17.3363482799999993
 -7.5223154799999996  6.0375867599999999  9.8375646099999994
 -25.7687666899999996  6.1039955399999997 10.2245236300000002
 -25.9458849799999989  4.5003257699999999  2.7346509100000000
 -7.3867897700000000 13.1644858899999999 17.2562144699999997
 -7.6385560100000003 11.3301851199999994  9.8993141900000001
 -7.3730843500000001  9.5440186400000009  2.5109118600000002
 -7.7271966399999998  8.1058623599999997 17.5612833799999990
 -18.4101546200000001 -7.2213129299999999  9.9057795899999999
 -19.7393114800000014 -6.0608791200000001  2.6170662199999999
 -2.9533023300000001  5.1090402399999997 17.0757160299999988
 -4.6616822700000000  6.1142450500000001  9.9437767600000004
 -6.1454082000000003  6.7880069599999997  2.5701355499999998
 -24.1225691699999985  5.1803018700000001 17.0779806600000015
 -24.3096318800000013  3.6587860200000000  9.9919225500000000
 -24.1029345100000008  1.9719474100000001  2.5182930099999998
 -24.1993407100000013 -0.0624614900000000 17.3879205100000007
 -6.1177074600000001  8.6618911799999996  9.6356399899999996
 -18.2229846900000005 -5.2218425799999997 17.1441189200000004
 -19.8207918200000002 -4.2706328200000003  9.8789411699999992
 -21.0958368599999986 -3.8062357300000000  2.7158328400000000
 -22.7566053900000007 -2.8388926900000002 17.4554237999999984
 -22.7454527499999983  4.3045739699999999  2.7629633600000001
 -22.8093758199999996  2.4994911700000002 17.4149506100000018
 -22.7194248799999983  0.5492725400000000  9.8945889000000005
 -22.6531540500000013 -1.2308452400000001  2.7520211699999999
 -18.0665149999999990 -3.6719891699999998  2.8614194700000000
 -19.7052527200000007 -2.7810744000000001 17.4024773199999991
 -21.3487242299999984 -1.8709111199999999  9.8437648000000006
 -21.4018049300000008  3.6254083300000000 10.0972268700000001
 -21.1850816500000008  1.5963769699999999  2.6636034799999999
 -21.2142347999999998 -0.2953352900000000 17.4103999999999992
 -18.0274074700000000 -1.7294429000000000  9.7242042800000004
 -19.4636103100000000 -1.1807149100000001  2.8965727700000001
 -19.8879541199999998  2.5754771000000001 17.4292680500000010
 -19.6839188400000005  1.0572354100000001  9.6382237400000008
 -18.1518766800000009 -0.2356996800000000 17.4965308499999992
 -18.0837811299999984  1.7199726799999999  2.6911942799999999
  0.0651402000000000  0.0193597200000000  4.8718221799999997
 -10.4211231800000004 16.5543663000000016 19.9161797199999988
 -10.8066051499999993 14.8910921199999997 12.1100255200000007
 -10.5133160599999993 13.1776767400000008  5.1311217899999999
 -10.6854388300000007 11.4032585500000003 19.8093075600000006
 -10.6383273700000007  9.7054135499999994 12.2879449899999997
 -10.5704604000000000  8.0574131700000002  5.2133565099999997
 -10.3518482800000005  6.1871691799999997 19.9918702400000008
 -10.6569587499999994  4.2402131499999998 12.5245010499999996
 -10.6074499899999992  2.4828108100000001  5.0105776999999998
 -10.7680948300000008  0.8604665000000000 19.8664796099999990
 -10.8332366100000002 -0.8229827100000000 12.1775124899999998
 -1.5461334300000000  0.9583903499999999 19.7656926700000000
 -1.5117127200000000 -0.5720830600000000 12.4194994199999993
 -12.0506244099999993 15.8791091600000005  5.0650057999999998
 -12.2039202800000002 13.8141683000000004 20.0308033600000002
 -12.3823105000000009 12.2245902999999991 12.2340029900000005
 -11.9336694199999993 10.5879671099999992  5.1431527099999998
 -12.0485426899999997  8.5949728699999994 20.0711980499999996
 -11.9706038699999997  6.9949361000000003 12.4735191600000004
 -12.2560991999999995  5.0150311600000004  5.1072193500000003
 -12.1646657999999999  3.3663227099999999 19.7287085900000001
 -12.0353516500000008  1.5843238600000000 12.3249825099999999
 -12.1066397899999991  0.2149221500000000  4.7604693700000000
 -3.0636753099999998  1.8074726500000000 12.4744273799999998
 -3.1533228400000000  0.1377284500000000  4.8672915300000001
 -13.4188565099999995 16.7234257699999986 20.0815868900000005
 -13.9384912599999993 14.9310013500000007 12.2702694799999996
 -13.7223335899999999 13.2085582000000006  4.7522102100000003
 -13.6048188799999998 11.3481442300000008 19.7878314300000007
 -13.8955815900000008  9.4443550999999992 12.3810065399999996
 -13.5684287000000001  7.7789761899999998  5.1904172800000001
 -13.4443146700000007  6.1004813000000002 19.7235118699999994
 -13.4151362699999996  4.1230155100000001 12.1616823200000006
 -13.7720954800000008  2.7836092899999998  4.9232097100000001
 -13.9739482699999993  1.0699819800000001 19.9110246999999987
 -4.8271757099999997  2.6331180900000000  5.2122956699999996
 -4.7366208199999997  0.7245004100000000 19.5455907700000004
 -4.3491350600000001 -0.8893729500000001 12.7780721499999999
 -4.5431005999999998 -2.6729828300000000  4.9773116999999996
 -15.0064326399999999 14.0013769700000008 19.8520186199999991
 -15.3880634300000008 12.3329030199999998 12.3872301000000000
 -14.8601915499999997 10.6903706799999991  4.9068487699999999
 -15.0075014299999996  8.9491871900000000 19.7975811700000008
 -15.1859191100000004  6.8964312300000001 12.1546051800000008
 -15.2967805699999992  5.4050876700000003  4.9469576200000001
 -15.2284950600000002  3.4620531799999998 19.8601962900000011
 -15.1502424300000005  1.6573228900000001 12.2572540399999994
 -5.9008205699999996  3.3572689599999999 19.5054519999999982
 -6.1003682000000001  1.8355352000000000 12.4773609600000004
 -6.0545974600000001  0.2710958600000000  4.9610507899999998
 -5.9403546299999999 -1.7811057699999999 20.0199130200000006
 -16.8316685600000007 14.9391489400000008 12.2515408800000003
 -16.6415129899999990 13.0859147399999998  5.0212615800000000
 -16.5533096300000011 11.5011643800000005 19.8382047899999989
 -16.8316143899999986  9.7309355899999996 12.1218518900000003
 -16.8205224800000011  7.8383114999999997  5.0754469100000001
 -16.4328264100000005  6.1788163899999997 19.8372402100000009
 -16.5927426599999990  4.1064886899999999 12.3614887800000002
 -16.7070775400000002  2.4683896600000002  4.6720009500000002
 -7.6480218999999998  4.5436356499999997 12.6655615099999999
 -7.6025066700000004  2.5002956200000002  4.8817145399999999
 -7.4942987399999996  0.7967223300000000 19.8546063699999991
 -7.4947961999999997 -1.0052601000000001 12.4017898300000002
 -7.7171271199999998 -2.7157624600000001  4.8671728200000004
 -17.9451107500000013 13.9294962800000004 19.9945001200000014
 -18.4004959399999990 12.3704537200000004 12.3225151700000009
 -18.2193465600000017 10.6615163099999997  5.0421089800000001
 -18.0069958200000002  8.8618912900000009 20.0189691799999991
 -18.1234157200000006  6.9210053699999996 12.3279140900000002
 -18.2011834499999985  5.2928162600000004  4.8274438799999997
 -18.3172376399999983  3.4174551700000002 19.8911967400000016
 -9.1839009899999997  5.2328911199999997  5.1587357100000002
 -9.0137338400000004  3.4753916700000000 19.9784718199999993
 -9.0846156600000008  1.5559736500000001 12.3878408300000000
 -9.0483395899999994  0.0145620300000000  4.6519379599999997
 -9.1862568600000003 -1.6557430200000001 19.7405324700000016
 -9.4830525500000000 -3.3063427000000001 12.2043304799999994
 -19.8248667800000007 13.1117424000000007  4.8623372399999996
 -19.6555985600000014 11.4033329400000003 20.1440615899999997
 -19.9722467700000017  9.6374911799999996 12.4327247300000003
 -19.9698352099999994  7.9238236899999999  5.1445142500000003
 -19.6352418499999999  6.1019769000000004 19.7210237200000016
 -19.7441598200000001  4.4926524499999996 12.2939574399999998
 -10.5255591499999994 -2.5554398400000000  4.7136683799999997
 -10.6361568799999997 -4.2805716399999998 20.0328915000000016
 -21.3305375400000017 12.3464853600000009 12.1260276099999995
 -21.4157972399999998 10.4188615500000008  4.9907767900000000
 -21.3549738699999985  8.6652798900000008 19.9290202299999990
 -21.3566027500000004  7.0625863500000001 12.2353632200000000
 -21.1941723099999990  5.4706641100000004  4.8238339400000001
 -12.3355535500000002 -1.8507649399999999 20.1809208799999986
 -12.5493684499999993 -3.6793890700000000 12.1559575899999999
 -12.1045326800000002 -5.4336040900000002  4.7846703499999998
 -22.7007966600000017 11.2534353599999992 19.7769074700000012
 -22.9222449300000015  9.7244531799999994 12.2632672899999999
 -22.7074558599999996  8.0497302600000005  5.0055570999999999
 -22.8567532200000016  6.0741180500000000 19.9059671700000003
 -13.7475036799999994 -0.9336169700000000 12.4986964700000005
 -13.5787949799999996 -2.6552118400000002  4.9593507600000004
 -13.6811290999999997 -4.6513241699999996 19.8052977400000003
 -13.8996861500000009 -6.0233872100000001 12.4117408099999995
 -24.3807448499999992 10.7908503299999996  4.8895689999999998
 -24.2208659500000003  8.9170281100000004 19.5668128599999989
 -24.3595183499999983  7.1645899999999996 12.2865088700000005
 -15.2304188600000003  0.1188417400000000  5.1989133299999999
 -15.2476434100000002 -1.7011521500000000 20.0876862600000017
 -15.2753307599999992 -3.4979635299999998 12.3456560199999998
 -15.2407898399999997 -5.2659901199999997  4.8706687999999998
 -15.1579523999999992 -6.8840418799999998 19.8502261699999991
 -25.9985896899999993  9.5574921499999999 12.1330628699999998
 -26.0357772599999997  8.0932109000000008  4.9913541900000000
 -16.8587196699999993  0.6734232500000000 20.1969531099999990
 -16.7607968700000001 -0.6253277900000000 12.0480314699999997
 -16.8563231599999988 -2.3769048000000002  5.0066718500000000
 -16.4797146199999993 -4.2430095999999997 19.8950370200000002
 -16.8476279899999994 -6.2400481900000004 12.2516919099999999
 -17.0821844600000006 -7.8420712699999999  4.7630585500000002
 -27.4482206499999997  8.7421527900000005 20.0741100900000013
 -27.4726807899999983  7.1935457700000001 12.0223491100000004
 -9.2536400400000005 15.8528066600000006  5.1682896700000001
 -9.0694497399999996 14.1664395699999996 19.9319596600000004
 -9.1819784400000000 12.3784288500000006 12.3448862899999998
 -8.9144239400000007 10.5066607800000007  4.9608236899999998
 -8.9752023199999993  8.8477303299999992 19.6901630300000008
 -9.2450430600000004  6.7816010300000000 12.5816062300000002
 -18.2345813099999994 -8.6264515799999995 12.2951349000000008
 -1.7911065600000000  2.5812214400000002  4.8032790299999997
 -2.8080636600000002  3.3525801500000001 19.6459102500000000
 -4.5102150300000003  4.4047812200000003 12.2930654100000005
 -6.0590858000000001  5.1644009000000004  5.4390817100000000
 -7.2818337299999998  6.3672832100000001 20.0661340300000006
 -25.8062137299999996  6.0192201699999996 19.9726452999999999
 -25.8765871800000014  4.4189583399999997 12.4515538600000006
 -7.5124653600000002 13.3363175399999996  5.4715967299999999
 -7.5653348300000003 11.6072784200000001 19.8890302500000011
 -7.5963232800000000  9.5248845299999996 12.1004629500000007
 -7.4586986099999999  7.5387652500000000  4.5971236400000004
 -18.1251971099999984 -7.0051260800000001 19.9150731599999986
 -19.8033368900000006 -6.0091634599999999 12.3852987700000003
 -3.1030475000000002  5.2550901300000001  5.0970242700000004
 -4.4045839800000000  6.0844642899999997 19.6936825900000017
 -6.0722639100000002  6.8990408900000002 12.2575317300000002
 -24.3279638600000006  5.4991492199999996  4.8501776999999997
 -24.3357682299999993  3.5693572400000000 19.8546265700000006
 -24.3745974700000012  1.6983483800000001 12.0375427199999994