Li                                      
   1.00000000000000     
    21.6499999999999986    0.0000000000000006    0.0000000000000000
     0.0000000000000006   21.6499999999999986    0.0000000000000000
    -0.0000000000000006   -0.0000000000000006   21.6499999999999986
   Li
   500
Direct
  0.0149426434180171  0.9876736581986165  0.0275530660508068
  0.0097025334872995  0.1051310032332538  0.1121351334872998
  0.0167386928406472  0.2054605321016183  0.2163232729792171
  0.9935558184757483  0.3208036193995412  0.3065786914549662
  0.0058835205542707  0.3960318678983867  0.3924832840646673
  0.9914071371824491  0.5120015658198582  0.4828894064665121
  0.0053189515011525  0.6021526332563525  0.5943990628175513
  0.0167980997690549  0.7023269829099306  0.6831607454965365
  0.0127791122401817  0.7993595334872978  0.7952135662817525
  0.0042219935334842  0.9126211667436479  0.9019443302540395
  0.1130198983833708  0.0095544471131674  0.1098493297921479
  0.1006358678983830  0.1119089976905343  0.2104489533487310
  0.1129789838337203  0.2110235612009248  0.3043298808314105
  0.1076591339491912  0.3242254411085455  0.3974268415704358
  0.0997828184757523  0.4114663501154752  0.4892815736720522
  0.0868113154734402  0.4938204023094670  0.5733015224018487
  0.1116092549653587  0.5932606993071587  0.6811060101616633
  0.1120375949191654  0.6993340868360249  0.7991699413394926
  0.0952162041570404  0.7972286018475785  0.8899423053117772
  0.0947438106235552  0.8843999330254064  0.9982332586605054
  0.2026694240184739  0.9963219916859103  0.1967966452655858
  0.1997688545034677  0.0782371769053114  0.2750996351039277
  0.1958675006928416  0.2112347071593561  0.3908653667436468
  0.1798310739030029  0.3135800203233288  0.5107178609699758
  0.1924122734411071  0.3981100762124683  0.5950501422632826
  0.1722524808314105  0.4989911173210189  0.6971694318706696
  0.1827058000000008  0.5722460840646661  0.7900717501154730
  0.2218452304849876  0.6787541297921464  0.8932938831408777
  0.1960242230946889  0.7995487939953776  0.9969495270207887
  0.1821423362586572  0.8888254106235536  0.1114829635103902
  0.3017284674364902  0.0047871838337201  0.2999678332563533
  0.2935730937644365  0.1038408766743615  0.4012616267898395
  0.2818238794457244  0.2065063468822146  0.5137863501154740
  0.2864204845265590  0.2969788803695153  0.6110262323325628
  0.2974934161662830  0.4064145870669762  0.7008277390300250
  0.2956602785219431  0.4887846896073924  0.8079680822170872
  0.2976587210161696  0.5977873150115443  0.8992464281755161
  0.2882348249422648  0.7030791565819854  0.9849925330254052
  0.2952034956120073  0.7930422184757475  0.1018638868360284
  0.2819902545034623  0.9065628882217069  0.2040859681293270
  0.3908859967667411  0.0123656277136277  0.3968019538106233
  0.4012455487297899  0.1148626318706718  0.5115224822170887
  0.3950728475750580  0.2079446618937624  0.6015722452655865
  0.4058994387990751  0.3016751953810655  0.6883541330254062
  0.4089681528868354  0.3981554743648985  0.8039366364896097
  0.4083637745958413  0.4874412803695165  0.9029323353348744
  0.3887554535796767  0.5880033879907600  0.9977414018475770
  0.3889723810623522  0.6867354466512694  0.1030708517320988
  0.3892070711316364  0.8110791233256336  0.1935251496535813
  0.3991547501154713  0.9030599856812955  0.2942376586605064
  0.5101396974595858  0.9882432240184755  0.5008697103926067
  0.4824563214780611  0.0907868702078503  0.5980297907621264
  0.4819993076212441  0.1693743099307170  0.6984018286374152
  0.4903966170900702  0.2881846817551974  0.7900233635103930
  0.4946670969976878  0.3945293020785243  0.9067379454965376
  0.4772256942263269  0.5019572997690531  0.0102428558891461
  0.5014275191685940  0.6000243533487293  0.0960822803695152
  0.4935501778290998  0.7186569039260959  0.1939572965357996
  0.5092390956120099  0.8238903625866030  0.3116654683602746
  0.5007474969976897  0.9054025653579671  0.4006624540415729
  0.6108005205542710  0.0011547482679006  0.5945141399538088
  0.6137224586605114  0.0876690900692836  0.7065333256351067
  0.5947520087759841  0.1797258863741362  0.7708585995381085
  0.5872141450346433  0.3009819852194013  0.8735552840646648
  0.6070096743648961  0.4137993972286367  0.9982633612009266
  0.6035477325635128  0.5096743066974625  0.0976292762124729
  0.5947117681293292  0.6148360697459552  0.1765131228637387
  0.5973742133949216  0.7188438540415731  0.3070441025404165
  0.6058520346420337  0.8097568484988429  0.4114062845265565
  0.6114789344110889  0.9158621413394954  0.4971692157043890
  0.6902399561200951  0.9985438632794441  0.7185085071593562
  0.6956753838337164  0.0917640928406485  0.7987145057736740
  0.7002049182448005  0.2048219764434194  0.8823856748267929
  0.7056547732101635  0.3013391579676679  0.9942344369515013
  0.7049916143187076  0.4160857745958424  0.0887571704387966
  0.6891961131639732  0.5158575879907588  0.1992011976905346
  0.6776702193995376  0.6179279635103896  0.3034835930715900
  0.6908735501154766  0.7019585681293279  0.4163658683602804
  0.7054452392609676  0.8100142170900710  0.5135805048498838
  0.6875183330254018  0.9082995205542730  0.5961343127020768
  0.8074289672055457  0.9703636558891446  0.8072487265588890
  0.8157757967667436  0.0848324309468822  0.9114524258660524
  0.8159765648960757  0.1941458471131625  0.9934871792147817
  0.7999452600461865  0.2981981847575028  0.0982819782909914
  0.7910626845265583  0.4063267815242497  0.2065166106235594
  0.7863996170900691  0.4966463025404124  0.2929074498845239
  0.7846783630484992  0.5907785247113182  0.4047657953810599
  0.7772076692840670  0.7024307459584307  0.5038512078521933
  0.8023485034642022  0.8181453025404153  0.5935128586605103
  0.8077917224018449  0.8882025200923778  0.7114673177829118
  0.9077889099307157  0.9882927787528857  0.9064833870669773
  0.9026527330254055  0.1054484240184763  0.0272153727482660
  0.8855286780600480  0.2152967279445761  0.1069457307159354
  0.8851374318706675  0.3015561778290987  0.2073265316397226
  0.8892642632794434  0.4091184484988446  0.3056215972286367
  0.8807952415704392  0.5056406859122404  0.4127715371824507
  0.8804646951501169  0.6065157071593532  0.5206555113163986
  0.8840751690531192  0.7137399903002333  0.6007986230946898
  0.9126129487297945  0.8075262448036966  0.7095642623556557
  0.9022699103926115  0.8886243016166304  0.8268098397228627
  0.1266424374133948  0.1023293339491929  0.0135534484988469
  0.0979381630484966  0.2049840484988437  0.1205523099307158
  0.0962154272517353  0.3158497182448059  0.2040088909930731
  0.0998750974595808  0.4091096064665152  0.2821639117782908
  0.1099297053117780  0.5012078032332568  0.4083442180138590
  0.1237252046189354  0.6022298859122373  0.4835835889145486
  0.1070264023094722  0.7096920009237877  0.5776298434180163
  0.1158077228637424  0.7968730863741342  0.7144132803695129
  0.1189121464203211  0.9013228193995388  0.8040189187066957
  0.0928505644341797  0.9979087561200899  0.8941352780600482
  0.2253852739030009  0.1093216882217121  0.1252069829099298
  0.2083690267898390  0.2216487464203212  0.2137470868360296
  0.1898452050808288  0.3119427173210170  0.3030314771362583
  0.2143373357967633  0.4065768471131648  0.4073128558891455
  0.1992128739030008  0.4978585745958455  0.5024296891454938
  0.2059485662817551  0.5909500692840624  0.6120223565819884
  0.1995914369515006  0.6987175903002338  0.6917865704388007
  0.2169024397228654  0.7993147778290961  0.8080313551963059
  0.1868481801385684  0.8892636475750564  0.8993782484988486
  0.1819051381062380  0.9795195912240189  0.9980009648960717
  0.3091577413394901  0.1138911528868363  0.1932528669745963
  0.2850864535796802  0.2103604605080847  0.3051112558891447
  0.3105817750577344  0.3152950969976871  0.4216217408775975
  0.3083457413394939  0.4251143598152396  0.5066289745958414
  0.3024203621247139  0.5023138863741323  0.6001492993071622
  0.2984084933025386  0.5934558443418041  0.7027156106235566
  0.3010779468822165  0.6825426526558900  0.7914716341801409
  0.3068458678983816  0.7883303515011519  0.8962058023094670
  0.3006598110854526  0.8996244364896100  0.9958270170900718
  0.3040912254041572  0.9988950327944579  0.0990238508083152
  0.3947747750577335  0.1039368831408751  0.3004305039260942
  0.3938713062355674  0.1936565316397250  0.4247230540415714
  0.3963993967667463  0.3082176859122399  0.5157256064665106
  0.3830086129330255  0.3923170863741348  0.5880858337182460
  0.3825847963048474  0.4914864725173231  0.7090436757505785
  0.3851269094688234  0.5959173621247089  0.7920310170900677
  0.3743071339491948  0.7002992383371804  0.8875565191685908
  0.3907097782909901  0.7969701524249402  0.9866652863741336
  0.3969955408775974  0.8996014688221692  0.0977352212471132
  0.4019829080831414  0.0019237242494228  0.2057916254041601
  0.5233813136258689  0.0876798434180159  0.3895339644341789
  0.5229917939953808  0.1874518900692834  0.5160993898383381
  0.5143366836027710  0.2919025468822198  0.6027744849884513
  0.4921437801385693  0.4073025034642015  0.6904924600461868
  0.4857796688221683  0.4765918369514992  0.8117466762124721
  0.4867104526558919  0.5866451066974605  0.9144746046189383
  0.4850988355658217  0.7046089441108521  0.9892087551963016
  0.4799736993071591  0.8035069228637397  0.0743828013856813
  0.4740636438799086  0.8883554064665162  0.1836959741339470
  0.5063376997690554  0.9852686614318742  0.2922329057736732
  0.6189066669745955  0.0922930577367183  0.4855153427251722
  0.6116039334872951  0.1888963607390295  0.6078840254041538
  0.6037518586605088  0.2749245972286403  0.7173292572748267
  0.6031104360277126  0.4018852762124681  0.7885018508083164
  0.5843500152424923  0.4944950882217114  0.9023879542725197
  0.5892183145496546  0.5993279159353335  0.9955474965357993
  0.5906858859122366  0.7060831538106243  0.1033165385681301
  0.5901548055427241  0.8261223570438787  0.1909574808314076
  0.6005379034642004  0.9093768133949212  0.2984869898383380
  0.5940995528868385  0.0305738960739035  0.3883462083140898
  0.7116198018475757  0.0911851806004620  0.5884512360277157
  0.7128415815242519  0.1864190822170926  0.6894152914549636
  0.7033665695150120  0.3049615390300247  0.7928353584295635
  0.7019917667436459  0.4046628369515020  0.8985364859122384
  0.7160747699769061  0.5291676836027719  0.9870960997690545
  0.7074874221708995  0.6049185829099315  0.0790566383371853
  0.6953884471131673  0.7059643773672022  0.1934801621247146
  0.6973968933025390  0.8143327736720565  0.3029972988452627
  0.7086019182448027  0.9142377939953832  0.3805200383371812
  0.7202766023094682  0.0109276221709038  0.4938464254041577
  0.8123465034642052  0.0696230448036985  0.6840500812933001
  0.8036861399538111  0.1828803718244814  0.7904509385681280
  0.7974602646651263  0.2924683672055437  0.8860103478060068
  0.8115904979214790  0.4050224314087743  0.9972730697459582
  0.7989545043879929  0.5060286900692859  0.1133052129330281
  0.7945035242494214  0.6014820406466512  0.1957237593533492
  0.7998733173210155  0.7103839879907596  0.3049312711316432
  0.7782399967667430  0.8073604808314059  0.4209384655889110
  0.8202074498845278  0.8989863108545038  0.4910972868360304
  0.7968652235565798  0.9845496706697432  0.6206870794457302
  0.8896368133949224  0.0851396281755186  0.8041976254041572
  0.8992664748267885  0.1992514069284042  0.8799075889145485
  0.9097997136258655  0.3020503709006945  0.9890750785219424
  0.9077057630484973  0.4090849191685919  0.0967021399538126
  0.8967315214780598  0.5092157658198602  0.2009532586605047
  0.8908047459584267  0.5979764387990798  0.3053340822170867
  0.8962593995381027  0.7160674849884501  0.4226519963048503
  0.9085219829099316  0.8000289722863769  0.5071571159353354
  0.9037772226327974  0.9094296545034624  0.5876681473441110
  0.9006637921478031  0.9709371454965350  0.6993091302540435
  0.9962123570438806  0.0940020896073932  0.9174503459584287
  0.9912929695150083  0.1903119750577389  0.0093911556582000
  0.9849943445727476  0.3086935519630458  0.1063000618937622
  0.9948156831408781  0.4018082406466519  0.2077644129330238
  0.9910695002309495  0.5038278808314089  0.3043694863741351
  0.9938947459584284  0.6243999150115442  0.4110686720554284
  0.0122846438799087  0.7053558069284094  0.5000862198614300
  0.0187330217090036  0.8068399722863759  0.5927318942263256
  0.0122384064665155  0.9153461445727515  0.6989487413394926
  0.0038449154734437  0.9920539427251711  0.8004786581986139
  0.2141530383371801  0.2093515570438811  0.0054231593533487
  0.2175174267898399  0.2906559616628144  0.1042358660508071
  0.2078493616628165  0.4059584120092410  0.1779011602771376
  0.2001410628175506  0.4970903066974586  0.2933794346420342
  0.2219866429561179  0.6055480170900722  0.3853122965357940
  0.2299158905311813  0.6924283297921505  0.4894576642032362
  0.1970883339491891  0.7851086193995371  0.5798402803695168
  0.2065472508083133  0.8887670198614330  0.7014597150115449
  0.1853789773672077  0.0061628863741348  0.8022432863741358
  0.2157890632794448  0.0977556655889131  0.9106781616628155
  0.3196687284064694  0.1872279376443444  0.1188083930715962
  0.3159327824480371  0.3175433630485003  0.2124246859122394
  0.3117738637413368  0.3789292018475763  0.3112003422632768
  0.2952989889145528  0.4960131482678989  0.3713135279445723
  0.3027072050808286  0.5942522942263295  0.5001038064665124
  0.3018210812933049  0.7280312143187047  0.6013685030023126
  0.2922585482678954  0.8052666000000031  0.6922530983833752
  0.3037053487297925  0.9036030212471147  0.8048273357967659
  0.2943634346420296  0.9984892942263315  0.8872584660508096
  0.2905534332563491  0.1027067274826763  0.9942148023094717
  0.4313912060046192  0.2050661796766775  0.2359959542725178
  0.4188170826789843  0.2979421847575026  0.3271725588914549
  0.4022662138568123  0.3952136822170900  0.4268025755196305
  0.4086568341801353  0.5180713755196322  0.4991587080831437
  0.3994502341801365  0.5983883598152460  0.5923087491916874
  0.4125254249422667  0.6922280706697492  0.6902672711316384
  0.3845236448036928  0.8016328411085425  0.7777764032332541
  0.3812873907621253  0.8941744655889181  0.9060835898383388
  0.4085181870669743  0.0137473875288663  0.0101427662817528
  0.4179065173210148  0.1007284960739057  0.1017923653579658
  0.5239990863741326  0.2049081990762147  0.3195585048498870
  0.5142578863741321  0.2923486752886859  0.4105254198614290
  0.4935564923787510  0.3948081145496545  0.5096424457274793
  0.4988356489607355  0.4990312235565852  0.6187963131639691
  0.5249756489607407  0.5915408974595877  0.6985675685912227
  0.5021170905311791  0.7042237399538109  0.8073678387990739
  0.4762363898383342  0.8012345260969980  0.8923226484988476
  0.4917244618937673  0.9115584974595876  0.9859608628175494
  0.5083466859122368  0.0180976281755179  0.0931702503464180
  0.5206617237875264  0.1008017357967645  0.2154114143187087
  0.6228559501154720  0.2141964586605098  0.4036176822170887
  0.6237787847575049  0.3011538244803660  0.5115633722863748
  0.6095466378752903  0.3999294997690512  0.6176457898383347
  0.5995765986143198  0.4832875939953780  0.7187802775981496
  0.5938313066974601  0.5722987648960753  0.8166677838337151
  0.5997941427251732  0.7040562170900699  0.8929606180138592
  0.5730008120092407  0.7890596494226330  0.9913143353348701
  0.5736719847575031  0.8950484697459586  0.0790720997690499
  0.5952677251732084  0.9735991722863773  0.2108204678983867
  0.6202678877598160  0.0970120143187074  0.2799072471131652
  0.7165943385681288  0.2052278286374118  0.5032604919168620
  0.6959031782909904  0.2901875676674379  0.5995615856812933
  0.7013041210161646  0.3805223607390289  0.6957496734411066
  0.7022442646651257  0.4805411750577377  0.7942147893764400
  0.6994160383371835  0.5944422614318725  0.9059757704388005
  0.6794166729792153  0.7174065819861397  0.9962087487297921
  0.7050004632794469  0.7877429445727486  0.0980047039260938
  0.7074885145496523  0.8955508872979223  0.2050002549653556
  0.7205807755196290  0.0016814184757479  0.3104560725173187
  0.7186739639722859  0.0885284549653562  0.3802805570438821
  0.8117725427251727  0.1796490808314104  0.5904603819861407
  0.8127627565819893  0.3068789260969993  0.6981882327944575
  0.8178231325635110  0.4081660812933023  0.7933879561200925
  0.8084183260969979  0.5005274420323360  0.9011266692840678
  0.8148762614318699  0.6215836000000010  0.0029605237875288
  0.8045315782909910  0.7099849792147808  0.1120311062355626
  0.8237035043879928  0.7788592517321007  0.2092141935334908
  0.8056275418013854  0.8848103066974602  0.3065204272517335
  0.8191742775981510  0.9944979787528894  0.4004844235565841
  0.8044092143187100  0.0754558018475748  0.5005033196304822
  0.8985010018475776  0.1760450702078487  0.6810765025404137
  0.9122683612009226  0.2889778905311786  0.7953351214780611
  0.9028040882217070  0.4002365043879905  0.9023645806004623
  0.8822548027713637  0.5138155399538107  0.9945096240184768
  0.9273294147806013  0.6145111173210154  0.0988609709006951
  0.8952712064665107  0.6909305053117762  0.1945945256351038
  0.9092677755196306  0.7987814055427265  0.3209591316397251
  0.9143165672055460  0.8947921094688240  0.4052081935334897
  0.9001694933025419  0.9925930845265611  0.4917831981524259
  0.9221436637413376  0.0627462027713648  0.5883824503464226
  0.9914658175519619  0.1826135796766764  0.7788564013856814
  0.0040174369515000  0.2979325200923810  0.8815319704388003
  0.9979742281755222  0.4180644152424975  0.9967489127020812
  0.0030805150115469  0.4867078535796736  0.1061588743648940
  0.9891143556581952  0.6116291667436471  0.2076759722863741
  0.0032557270207860  0.7119103297921470  0.3015994942263305
  0.0235835912240177  0.7979003958429587  0.4072452521939951
  0.0107406757505757  0.9232244734411097  0.4870257644341791
  0.0093492974595861  0.0004047408775989  0.5999744923787560
  0.0181182060046154  0.0797224817551978  0.6962909939953832
  0.0841078909930744  0.1883073210161683  0.8810089173210187
  0.0928698965357952  0.2810678845265571  0.9954346249422628
  0.1054507801385682  0.3823725103926066  0.0951263616628211
  0.0934022545034665  0.4992873482678988  0.1834164489607417
  0.0870279685912223  0.5725075279445733  0.2999369039260955
  0.1187637625866031  0.7058332064665152  0.4053538129330221
  0.1158169570438830  0.7936375732101624  0.4860389473441131
  0.1077825542725179  0.8910802581986133  0.5941587676674374
  0.1037771233256350  0.0057366267898402  0.7064241330254077
  0.0969896189376414  0.1105754443417979  0.8095065394919203
  0.2988763939953785  0.2913281297921486  0.9943958494226308
  0.3049803861431855  0.3786061570438832  0.0864837025404128
  0.2964863325635108  0.4812576845265610  0.1896233117782913
  0.3208467551963068  0.5920652581986161  0.2741044360277129
  0.3066946503464223  0.6891366420323308  0.3733512392609697
  0.2960121330254069  0.8158636914549646  0.4902781727482690
  0.3076427769053112  0.8862361136258627  0.5766371131639687
  0.2811603418013888  0.9870747030023068  0.6947284734411099
  0.2803777473441116  0.0782059173210143  0.7891595196304877
  0.2992625131639741  0.2084106346420356  0.9163829242494259
  0.4075036092378781  0.2971631538106223  0.0952937362586610
  0.3956422933025436  0.4049390928406496  0.2182116517321049
  0.3933484743648989  0.4961219921478062  0.3030787496535794
  0.4108442854503451  0.6091675833718213  0.3979839080831411
  0.3867509732101624  0.7103914840646652  0.4901782678983864
  0.3927130087759849  0.7963704600461909  0.6044429824480346
  0.3970306674364892  0.9067590909930701  0.6845990392609735
  0.3967122711316406  0.0112789815242493  0.7856524983833708
  0.3844162748267905  0.1021216623556569  0.8838172157043900
  0.4137561284064688  0.1775659912240215  0.9930125755196286
  0.5171096092378775  0.2980935524249446  0.2098643219399534
  0.4947392429561219  0.3938720309468806  0.3149863297921485
  0.4908795270207875  0.4986903829099276  0.4018344965357983
  0.4983660318706669  0.6109712069284043  0.4942623903002286
  0.5052836526558906  0.7071189524249419  0.6014116734411061
  0.4801382244803705  0.8095851801385692  0.6920200249422663
  0.4832313376443409  0.8981471672055434  0.8131821852193966
  0.4842377330254024  0.0075622480369546  0.9194249330254038
  0.5156851903002320  0.1004946018475721  0.9929516369515028
  0.5132252263279469  0.2061450711316368  0.1022741196304864
  0.6029057972286367  0.3111158138568157  0.3129914812933023
  0.5938812577367187  0.3951908849884518  0.4156898263279416
  0.5881213699769035  0.4839237741339488  0.5226668429561201
  0.6077428466512700  0.6014067482678982  0.6104339847575062
  0.5778395468822168  0.7140082637413414  0.7083430794457257
  0.5899703570438817  0.7871641478060027  0.8046679006928414
  0.5832938678983837  0.8910732545034676  0.9037373695150137
  0.6153615732101585  0.0117194032332577  0.9809989357967694
  0.6034805736720585  0.1183293468822200  0.1085015224018449
  0.6172827376443450  0.2192036674364886  0.2048665445727451
  0.7260701136258660  0.3088290762124686  0.4079923884526551
  0.7069843187066951  0.3970944568129298  0.5280191390300217
  0.6819260665127018  0.5179946725173181  0.6127764503464235
  0.6728808304849849  0.6036240678983802  0.7169518600461871
  0.6839671745958427  0.6939092120092383  0.7975950341801408
  0.6786049542725152  0.8104289861431866  0.9099716545034653
  0.6843629736720587  0.8936183385681318  0.0130473219399505
  0.6819754258660495  0.0054914734411113  0.0951026249422640
  0.6990417870669745  0.0783818184757479  0.1995351237875269
  0.7101089237875300  0.1981363690531168  0.3010773787528862
  0.8228482909930719  0.3035495681293270  0.5288222563510416
  0.8031702281755173  0.4113635921478078  0.6219640120092365
  0.7856146263279413  0.4965825903002283  0.7039765385681278
  0.7962307856812956  0.6116094110854533  0.8035306508083124
  0.7930309150115491  0.7026898397228649  0.9046899154734405
  0.8036382133949189  0.8116385085450375  0.9954457699769037
  0.8019228346420348  0.8771820314087790  0.1115417930715950
  0.8143361565819873  0.9981130166281744  0.1783416868360277
  0.8070210078521924  0.0954375413394928  0.2715254789838326
  0.7916030517321033  0.1935855736720526  0.4217389177829105
  0.9001126327944604  0.2892068960738996  0.6004364669745925
  0.9278661122401815  0.4063177709006922  0.6854236923787553
  0.9132373644341811  0.5176334974595846  0.7954904988452682
  0.9208132697459561  0.5946549334872984  0.9011703999999980
  0.8951116115473425  0.7249814618937620  0.0024164669745943
  0.9026901025404186  0.8034057431870636  0.1093545533487301
  0.8959028558891475  0.9057338267898416  0.1909844434180172
  0.8974894660508070  0.9875324618937640  0.2919023251732114
  0.9027499325635091  0.1024750632794422  0.3993188096997713
  0.8950960572748272  0.1947542281755190  0.4896556757505763
  0.9882540286374137  0.2912377385681282  0.6758465709006956
  0.9902712729792142  0.3885491727482702  0.7944420143187045
  0.9929029565819860  0.5116365242494254  0.9069857861431885
  0.0137722184757507  0.5928956078521921  0.0021691390300234
  0.9983075478060073  0.6845737930715927  0.0968779450346418
  0.9986096189376426  0.7928348859122423  0.2163880300230971
  0.9884963750577356  0.8984244794457297  0.3110149464203218
  0.9922254221709039  0.9916100170900677  0.3958471431870692
  0.0089423903002341  0.0998244928406464  0.4700773182448046
  0.9926298785219387  0.1834778341801382  0.5909474406466515
  0.0797219575057753  0.2793733325635088  0.7871262558891488
  0.0915012568129328  0.4032826508083147  0.8966542203233274
  0.0979944032332583  0.4942675422632803  0.0145413293302568
  0.1132668965357979  0.6099603330254055  0.1101161311778256
  0.1117689117782916  0.6666073773672068  0.2170651491916828
  0.0914271579676651  0.8046528549653544  0.2801219464203228
  0.1185881903002297  0.9087489930715904  0.3822914702078535
  0.0903157431870696  0.9924905875288701  0.4908573362586637
  0.0925215187066968  0.0960999219399525  0.6030267071593514
  0.0976808443418022  0.2058776309468797  0.6631497260969965
  0.1874518688221727  0.3045851745958430  0.8905333224018506
  0.1999658969976892  0.3781001907621260  0.0053828397228628
  0.1987294212471156  0.4922514572748256  0.1031934900692875
  0.2175092780600494  0.5816918157043887  0.2034366143187043
  0.2066310387990740  0.7027806484988446  0.2871201348729784
  0.2190698563510409  0.8092369030023079  0.3903490799076224
  0.2147951482678963  0.9260792346420317  0.5023566960739032
  0.2046275584295643  0.9988708909930750  0.5911881690531189
  0.1899328249422609  0.1134778900692837  0.6989543103926081
  0.2036689224018460  0.1940416217090046  0.7992622729792132
  0.3878331325635074  0.3923386868360268  0.0026960143187083
  0.3805694748267925  0.5004062364896100  0.1099315131639713
  0.3861662457274804  0.5969425127020784  0.1993275177829119
  0.3963721741339512  0.7127305824480388  0.2928973191685884
  0.4104325316397208  0.8161487704388009  0.3951566411085423
  0.4002313043879937  0.9064055251732128  0.4892635099307157
  0.3845326392609678  0.9793460512702055  0.5845220309468857
  0.3953769750577365  0.0700488207852175  0.6830103866050834
  0.3822148341801395  0.2183603782909955  0.7794792027713626
  0.3918697524249453  0.2878746378752908  0.8926456969976897
  0.4948488267898412  0.3957096863741327  0.1068225875288675
  0.5023071953810643  0.4947800808314113  0.1926666157043897
  0.5065932254041599  0.6119640683602796  0.2862560651270201
  0.4913098327944567  0.7247569667436480  0.3991820872979233
  0.4834605528868394  0.8062270877598152  0.4962200683602802
  0.4931684083140908  0.9111779339491903  0.6010754660508084
  0.4903309709006933  0.9949662147806038  0.6851343404157078
  0.5053526161662845  0.0990672900692857  0.7901925491916870
  0.4943523625866035  0.1913918909930743  0.8652061958429584
  0.5085037658198601  0.2910644909930724  0.0021261533487262
  0.5880847011547345  0.3890542563510380  0.1893078406466486
  0.6018683833718228  0.5147667459584326  0.2968035893764451
  0.5799039745958439  0.5973992739030010  0.3963156281755218
  0.5917991866050798  0.7064103394919172  0.5117349173210144
  0.5886080868360253  0.8023552073902991  0.6038892230946900
  0.6029522665127018  0.8904130960738996  0.7042418706697475
  0.5842900484988434  0.9862532545034668  0.8178250443418023
  0.6106597676674355  0.0819159515011521  0.8956850812933013
  0.5936618309468855  0.1987440175519595  0.9546702512702083
  0.6089952374133958  0.3025430517321013  0.0847481662817557
  0.6865448406466541  0.4208831588914563  0.2997276877598125
  0.7080790540415691  0.4888814822170886  0.4152390933025387
  0.6741090078521950  0.6171352554272502  0.4832366688221725
  0.6964044715935316  0.6942652323325618  0.6000057394919196
  0.7000887704387964  0.7964589288683612  0.7059762549653570
  0.6924710489607406  0.8967111043879896  0.8089431127020816
  0.7147349265588900  0.9982897173210148  0.9164526018475740
  0.7103426018475716  0.1127296346420295  0.0135857769053089
  0.6944763547344124  0.2022253034642034  0.0796352845265602
  0.6893682198614286  0.3010144124711331  0.2003609043879919
  0.8068068438799045  0.4020553916859129  0.4039777182448034
  0.7991863491916860  0.5119982346420358  0.5118009852194021
  0.7807144429561177  0.5950088789838333  0.6077823459584266
  0.8026258937644357  0.7189761491916826  0.7067025367205559
  0.7957143648960709  0.7934331094688218  0.8164739362586602
  0.7965342729792155  0.8931562646651301  0.9104050831408799
  0.7997903113164000  0.9915129385681283  0.0299993325635128
  0.7948172854503497  0.0997741976905289  0.1233125441108527
  0.7841280364896051  0.1919703122401870  0.1971409016166277
  0.7804875732101593  0.3040269570438809  0.3077552272517323
  0.8980723260970009  0.4036607755196329  0.5063068983833716
  0.9038280812933053  0.5058031473441105  0.6165917676674368
  0.8798620411085452  0.6059256517321003  0.6865607704388026
  0.8919066217090048  0.6991536854503480  0.8111064909930690
  0.9122922277136283  0.8149021210161678  0.9158567704388005
  0.9158470286374154  0.8982628734411051  0.9952356540415721
  0.9000561801385700  0.0088435385681294  0.1155523732101642
  0.9205534637413422  0.1045946309468846  0.2112201016166253
  0.8736940503464226  0.1967143182448012  0.2956733464203225
  0.8978396923787528  0.2956123168591205  0.4027699404157019
  0.0102315690531185  0.4097153672055427  0.5852966849884496
  0.0073799394919192  0.5180220775981539  0.6934574748267863
  0.0010733353348726  0.6336982290993092  0.7840229496535827
  0.9963438069284081  0.7019620129330235  0.8971924498845283
  0.0017007625866086  0.7978653842956120  0.0075578203233277
  0.9924408203233241  0.8815125191685880  0.1117404069284049
  0.0086737501154701  0.0066469893764420  0.2050332794457290
  0.0000893473441081  0.0866985787528876  0.3285321565819856
  0.0143984840646638  0.2232193108545033  0.3979443441108543
  0.9954209454965337  0.2963503561200937  0.5020901071593542
  0.0866271381062376  0.4053689131639757  0.7058004812933021
  0.0977366882217083  0.4979720392609721  0.8071510157043846
  0.0824299547344083  0.5994801662817579  0.9001973875288698
  0.0985874083140885  0.6941070064665098  0.9937854480369523
  0.0899748896073902  0.7804079284064684  0.1315511297921503
  0.0925296101616624  0.8907993722863736  0.2247500203233272
  0.1135407588914532  0.9977895482678960  0.3087050739029991
  0.1148142702078516  0.1116528036951507  0.4068739431870654
  0.1259162720554272  0.2079859967667446  0.4947167030023110
  0.0903457607390266  0.3040808711316387  0.5984178387990795
  0.1809231371824467  0.4134376494226331  0.8117360752886853
  0.1925927136258636  0.5004917976905290  0.9254145293302543
  0.2013360799076196  0.5978936780600463  0.9868079782909902
  0.2044174032332577  0.6823939621247135  0.0940148471131650
  0.1900618642032299  0.8010048457274834  0.2012252545034627
  0.2002819478060047  0.9046207926096983  0.3071566734411064
  0.1991330896073933  0.9887726965357970  0.3870878669745963