Li 
 1.0000000000000000
    21.6499999999999986    0.0000000000000006    0.0000000000000000
     0.0000000000000006   21.6499999999999986    0.0000000000000000
    -0.0000000000000006   -0.0000000000000006   21.6499999999999986
 Li 
 500
Cartesian
  0.3235082300000000 -0.2668653000000000  0.5965238800000000
  0.2100598500000000  2.2760862199999998  2.4277256399999998
  0.3623927000000000  4.4482205199999996  4.6833988599999996
 -0.1395165300000000  6.9453983600000004  6.6374286700000003
  0.1273782200000000  8.5740899400000004  8.4972630999999996
 -0.1860354800000000 11.0848338999999996 10.4545556499999996
  0.1151553000000000 13.0366045100000001 12.8687397099999998
  0.3636788600000000 15.2053791799999996 14.7904301399999998
  0.2766677800000000 17.3061338999999990 17.2163737099999992
  0.0914061600000000 19.7582482599999985 19.5270947499999998
  2.4468808000000002  0.2068537800000000  2.3782379900000001
  2.1787665399999998  2.4228298000000001  4.5562198399999998
  2.4459949999999999  4.5686600999999998  6.5887419200000004
  2.3308202499999999  7.0194808000000002  8.6042911199999992
  2.1602980199999999  8.9082464800000007 10.5929460700000000
  1.8794649800000001 10.6912117099999993 12.4119779599999998
  2.4163403699999999 12.8440941399999993 14.7459451200000000
  2.4256139299999999 15.1405829799999996 17.3020292299999987
  2.0614308200000000 17.2599992299999982 19.2672509100000013
  2.0512035000000002 19.1472585500000001 21.6117500500000013
  4.3877930300000001 -0.0796288800000000  4.2606473700000000
  4.3249956999999997  1.6938348800000000  5.9559071000000001
  4.2405313900000001  4.5732314100000000  8.4622351899999995
  3.8933427500000000  6.7890074399999998 11.0570416900000001
  4.1657257200000002  8.6190831499999998 12.8828355800000001
  3.7292662100000000 10.8031576900000008 15.0937181999999996
  3.9555805700000000 12.3891277199999994 17.1050533899999984
  4.8029492400000002 14.6950269099999993 19.3398125699999994
  4.2439244299999999 17.3102313899999984 -0.0660427400000000
  3.9433815800000001 19.2430701400000004  2.4136061600000001
  6.5324213200000001  0.1036425300000000  6.4943035900000003
  6.3558574800000001  2.2481549799999998  8.6873142199999993
  6.1014869899999997  4.4708624099999996 11.1234744800000005
  6.2010034899999997  6.4295927600000002 13.2287179300000002
  6.4407324600000004  8.7988758100000002 15.1729205500000006
  6.4010450299999997 10.5821885299999998 17.4925089800000002
  6.4443113099999998 12.9420953700000005 19.4686851700000005
  6.2402839600000002 15.2216637400000003 -0.3249116600000000
  6.3911556799999998 17.1693640300000006  2.2053531500000001
  6.1050890100000004 19.6270865299999997  4.4184612100000002
  8.4626818299999993  0.2677158400000000  8.5907622999999997
  8.6869661300000001  2.4867759800000000 11.0744617400000003
  8.5533271499999994  4.5020019299999996 13.0240391100000004
  8.7877228499999998  6.5312679800000000 14.9028669800000007
  8.8541605099999998  8.6200660199999994 17.4052281800000017
  8.8410757199999992 10.5531037199999993 19.5484850600000009
  8.4165555699999999 12.7302733499999992 -0.0488986500000000
  8.4212520499999997 14.8678224199999995  2.2314839399999999
  8.4263330900000000 17.5598630200000017  4.1898194899999996
  8.6417003399999999 19.5512486900000013  6.3702453099999996
 11.0445244500000008 -0.2545342000000000 10.8438292300000008
 10.4451793599999991  1.9655357400000000 12.9473449699999996
 10.4352850099999994  3.6669538099999999 15.1203995899999999
 10.6170867599999994  6.2391983599999996 17.1040058200000011
 10.7095426499999995  8.5415593899999998 19.6308765200000011
 10.3319362800000007 10.8673755399999994  0.2217578300000000
 10.8559057899999996 12.9905272499999995  2.0801813700000000
 10.6853613500000009 15.5589219700000001  4.1991754700000001
 11.0250264199999997 17.8372263500000017  6.7475573899999999
 10.8411833099999999 19.6019655399999984  8.6743421299999994
 13.2238312699999998  0.0250003000000000 12.8712311300000000
 13.2870912299999997  1.8980357999999999 15.2964465000000001
 12.8763809899999995  3.8910654400000002 16.6890886800000011
 12.7131862400000006  6.5162599800000001 18.9124718999999999
 13.1417594500000003  8.9587569499999997 -0.0375982300000000
 13.0668084100000002 11.0344487400000002  2.1136738300000002
 12.8755097799999998 13.3112009100000002  3.8215091100000000
 12.9331517199999997 15.5629694399999998  6.6475048200000000
 13.1166965500000003 17.5312357699999986  8.9069460599999992
 13.2385189299999997 19.8284153600000010 10.7637135199999996
 14.9436950500000005 -0.0315253600000000 15.5557091799999991
 15.0613720600000001  1.9866926100000000 17.2921690499999983
 15.1594364800000001  4.4343957899999999 19.1036498600000009
 15.2774258399999994  6.5239927700000004 -0.1248244400000000
 15.2630684500000005  9.0082570200000003  1.9215927399999999
 14.9210958500000004 11.1683167799999996  4.3127059299999999
 14.6715602500000006 13.3781404100000003  6.5704197899999999
 14.9574123599999993 15.1974029999999996  9.0143210499999995
 15.2728894299999993 17.5368077999999983 11.1190179300000000
 14.8847719099999996 19.6646846199999992 12.9063078699999991
 17.4808371399999984 -0.6416268500000000 17.4769349299999988
 17.6615460000000013  1.8366221300000001 19.7329450199999989
 17.6658926299999983  4.2032575899999998 -0.1410025700000000
 17.3188148800000015  6.4559907000000001  2.1278048300000001
 17.1265071199999994  8.7969748200000009  4.4710846200000001
 17.0255517099999985 10.7523924500000003  6.3414462900000004
 16.9882865599999988 12.7903550599999996  8.7631794700000007
 16.8265460400000002 15.2076256500000007 10.9083786499999995
 17.3708451000000004 17.7128458000000002 12.8495533900000005
 17.4886907899999997 19.2295845599999993 15.4032674299999996
 19.6536298999999985 -0.2534613400000000 19.6253653300000011
 19.5424316699999991  2.2829583800000002 22.2392128199999988
 19.1716958800000015  4.6611741599999998  2.3153750700000000
 19.1632254000000017  6.5286912499999996  4.4886194100000001
 19.2525712999999996  8.8574144100000005  6.6167075799999999
 19.0692169800000002 10.9471208499999992  8.9365037800000007
 19.0620606499999994 13.1310650599999992 11.2721918199999998
 19.1402274100000014 15.4524707899999996 13.0072901900000009
 19.7580703399999997 17.4829432000000011 15.3620662800000005
 19.5341435600000004 19.2387161300000002 17.9004330299999985
  2.7418087700000000  2.2154300800000000  0.2934321600000000
  2.1203612299999999  4.4379046500000001  2.6099575100000001
  2.0830639999999998  6.8381464000000003  4.4167924899999997
  2.1622958600000000  8.8572229799999995  6.1088486900000003
  2.3799781200000001 10.8511489399999999  8.8406523200000002
  2.6786506800000001 13.0382770299999997 10.4695847000000004
  2.3171216100000001 15.3648318199999991 12.5056861099999992
  2.5072372000000001 17.2523023199999983 15.4670475199999995
  2.5744479700000000 19.5136390400000010 17.4070095900000013
  2.0102147200000000 21.6047245699999984 19.3580287700000007
  4.8795911800000003  2.3668145500000000  2.7107311799999998
  4.5111894299999999  4.7986953600000000  4.6276244300000000
  4.1101486899999999  6.7535598300000004  6.5606314799999996
  4.6404033199999999  8.8023887399999996  8.8183233300000001
  4.3129587200000001 10.7786381400000000 10.8776027699999993
  4.4587864599999998 12.7940690000000004 13.2502840200000005
  4.3211546099999998 15.1272358300000000 14.9771792500000007
  4.6959378200000002 17.3051649400000009 17.4938788400000007
  4.0452630999999997 19.2525579700000016 19.4715390799999994
  3.9382462399999998 21.2065991499999988 21.6067208899999983
  6.6932650999999996  2.4657434600000001  4.1839245700000003
  6.1721217199999998  4.5543039700000003  6.6056586900000003
  6.7240954300000002  6.8261388500000004  9.1281106899999997
  6.6756852999999996  9.2037258899999994 10.9685173000000002
  6.5474008399999999 10.8750956399999996 12.9932323299999997
  6.4605438800000003 12.8483190300000008 15.2137929700000001
  6.5183375500000000 14.7770484300000007 17.1353608800000003
  6.6432130400000000 17.0673521100000016 19.4028556200000004
  6.5092849099999999 19.4768690500000012 -0.0903450800000000
  6.5835750300000004 21.6260774600000012  2.1438663700000000
  8.5468738799999997  2.2502335200000001  6.5043204100000001
  8.5273137800000001  4.1926639100000003  9.1952541199999995
  8.5820469399999997  6.6729129000000000 11.1654593799999997
  8.2921364700000009  8.4936649200000005 12.7320583000000003
  8.2829608399999994 10.6406821300000001 15.3507955799999998
  8.3379975900000005 12.9016108900000006 17.1474715199999999
  8.1037494500000005 15.1614785100000002 19.2155986399999996
  8.4588666999999997 17.2544037999999986 -0.2886965500000000
  8.5949534599999993 19.4763717999999990  2.1159675400000002
  8.7029299600000005 21.6916486299999995  4.4553886900000004
 11.3312054399999997  1.8982686099999999  8.4334103299999992
 11.3227723400000002  4.0583334200000003 11.1735517899999994
 11.1353892000000005  6.3196901399999996 13.0500676000000002
 10.6549128399999997  8.8180992000000007 14.9491617600000009
 10.5171298300000000 10.3182132699999993 17.5743155400000006
 10.5372813000000001 12.7008665599999997 19.7983751900000016
 10.5023897900000005 15.2547836399999994 -0.2336304500000000
 10.3914305900000006 17.3959248799999990  1.6103876500000001
 10.2634778900000008 19.2328945500000010  3.9770178399999998
 10.9622112000000005 21.3310665200000003  6.3268424100000002
 13.3993293399999995  1.9981447000000001 10.5114071700000000
 13.2412251600000008  4.0896062100000004 13.1606891499999996
 13.0712277399999994  5.9521175299999998 15.5301784200000004
 13.0573409399999996  8.7008162299999992 17.0710650699999995
 12.6511778300000000 10.7058186600000003 19.5366992099999983
 12.7565765100000004 12.9754493800000006 -0.0963967000000000
 12.7883494300000002 15.2867002799999998  2.2368030600000002
 12.7768515399999991 17.8855490300000000  4.1342294600000002
 13.0016456100000006 19.6880080100000008  6.4622433299999997
 12.8622553199999992 22.3119248500000005  8.4076954100000005
 15.4065687100000002  1.9741591599999999 12.7399692600000005
 15.4330202399999994  4.0359731300000004 14.9258410599999998
 15.2278862299999993  6.6024173199999998 17.1648855100000013
 15.1981217500000003  8.7609504200000003 19.4533149200000004
 15.5030187700000006 11.4564803499999996 -0.2793694400000000
 15.3171026900000005 13.0964873199999996  1.7115762200000000
 15.0551598799999997 15.2841287700000006  4.1888455100000002
 15.0986427400000007 17.6303045500000017  6.5598915199999999
 15.3412315299999999 19.7932482400000005  8.2382588299999995
 15.5939884400000004 21.8865830199999998 10.6917751100000000
 17.5873017999999988  1.5073389200000000 14.8096842599999992
 17.3998049299999984  3.9593600499999999 17.1132628199999992
 17.2650147300000008  6.3319401500000003 19.1821240300000007
 17.5709342799999995  8.7687356399999992 -0.0590380400000000
 17.2973650200000009 10.9555211400000001  2.4530578599999999
 17.2010013000000015 13.0220861800000005  4.2374193900000003
 17.3172573199999995 15.3798133400000001  6.6017620199999998
 16.8488959300000012 17.4793544099999991  9.1133177799999991
 17.7574912900000008 19.4630536300000010 10.6322562600000001
 17.2521320899999999 21.3155003699999988 13.4378752699999993
 19.2606370099999999  1.8432729500000000 17.4108785899999994
 19.4691191799999999  4.3137929599999998 19.0499992999999996
 19.6971637999999984  6.5393905300000004 -0.2365245500000000
 19.6518297699999991  8.8566885000000006  2.0936013299999998
 19.4142374400000008 11.0245213300000007  4.3506380499999997
 19.2859227500000010 12.9461899000000003  6.6104828800000002
 19.4040159999999986 15.5028610499999999  9.1504157199999998
 19.6695009300000017 17.3206272500000011 10.9799515599999999
 19.5667768700000018 19.6891520200000016 12.7230153900000005
 19.4993711000000012 21.0207891999999994 15.1400426699999997
 21.5679975299999995  2.0351452399999999 19.8627999899999992
 21.4614927900000012  4.1202542600000003 21.8533185199999984
 21.3251275599999985  6.6832153999999999  2.3013963400000002
 21.5377595399999997  8.6991484099999994  4.4980995400000001
 21.4566546799999998 10.9078736200000002  6.5895993800000001
 21.5178212500000008 13.5182581600000002  8.8996367500000009
 21.9159625399999989 15.2709532200000009 10.8268666600000003
 22.0555699199999999 17.4680853999999997 12.8326455100000008
 21.9149615000000004 19.8172440300000012 15.1322402500000006
 21.7332424199999998 21.4779678599999997 17.3303629500000014
  4.6364132800000002  4.5324612100000001  0.1174114000000000
  4.7092522900000002  6.2927015700000002  2.2567064999999999
  4.4999386799999996  8.7889996200000002  3.8515601199999998
  4.3330540099999997 10.7620051399999994  6.3516647600000002
  4.8060108200000000 13.1101145700000004  8.3420112199999998
  4.9776790300000000 14.9910733399999998 10.5967584299999995
  4.2669624300000004 16.9976016100000002 12.5535420700000007
  4.4717479800000000 19.2418059799999988 15.1866028300000000
  4.0134548600000004  0.1334264900000000 17.3685671500000005
  4.6718332199999999  2.1164101600000000 19.7161821999999987
  6.9208279700000004  4.0534848500000003  2.5722017099999999
  6.8399447400000000  6.8748138100000000  4.5989944500000002
  6.7499041499999999  8.2038172199999995  6.7374874100000000
  6.3932231100000001 10.7386846600000005  8.0389378800000006
  6.5536109900000001 12.8655621700000005 10.8272474100000000
  6.5344264100000000 15.7618757899999995 13.0196280899999994
  6.3273975699999996 17.4340218900000004 14.9872795799999992
  6.5752208000000003 19.5630054099999988 17.4245118199999993
  6.3729683599999998 -0.0327067800000000 19.2091457900000009
  6.2904818300000001  2.2236006499999998 21.5247504700000007
  9.3396196099999997  4.4396827900000000  5.1093124100000002
  9.0673898400000006  6.4504482999999997  7.0832858999999999
  8.7090635299999999  8.5563762200000006  9.2402757599999994
  8.8474204600000004 11.2162452800000008 10.8067860299999996
  8.6480975699999991 12.9551079900000001 12.8234844199999998
  8.9311754499999996 14.9867377299999998 14.9442864199999992
  8.3249369099999999 17.3553510099999997 16.8388591299999995
  8.2548720099999997 19.3588771800000004 19.6167097199999994
  8.8444187500000009  0.2976309400000000  0.2195908900000000
  9.0476761000000003  2.1807719400000001  2.2038047100000000
 11.3445802199999992  4.4362625099999997  6.9184416300000002
 11.1336832399999999  6.3293488199999999  8.8878753400000008
 10.6854980600000005  8.5475956800000006 11.0337589499999993
 10.7997917999999995 10.8040259899999995 13.3969401799999996
 11.3657228000000003 12.8068604300000004 15.1239878599999997
 10.8708350100000004 15.2464439699999996 17.4795137099999991
 10.3105178399999993 17.3467274899999992 19.3187853400000016
 10.6458346000000006 19.7352414699999983 -0.3039473200000000
 11.0057057500000006  0.3918136500000000  2.0171359199999999
 11.2723263199999995  2.1823575800000001  4.6636571199999999
 13.4848313199999996  4.6373533299999998  8.7383228200000005
 13.5048106899999993  6.5199803000000003 11.0753470099999998
 13.1966847099999995  8.6584736699999993 13.3720313500000003
 12.9808333600000001 10.4631764100000009 15.5615930099999993
 12.8564477900000007 12.3902682599999991 17.6808575200000000
 12.9855431899999996 15.2428170999999999 19.3325973799999993
 12.4054675799999998 17.0831414099999996 -0.1880446400000000
 12.4199984699999995 19.3777993700000017  1.7119109600000000
 12.8875462499999998 -0.5715779200000000  4.5642631299999996
 13.4287997699999995  2.1003101100000001  6.0599919000000000
 15.5142674300000003  4.4431824899999999 10.8955896499999998
 15.0663038100000009  6.2825608400000004 12.9805083299999993
 15.1832342199999992  8.2383091099999994 15.0629804299999996
 15.2035883300000005 10.4037164400000002 17.1947501900000006
 15.1423572300000000 12.8696749599999993 19.6143754299999991
 14.7093709700000002 15.5318524999999994 -0.0820805900000000
 15.2632600299999996 17.0546347500000017  2.1218018399999998
 15.3171263399999997 19.3886767099999986  4.4382555200000002
 15.6005737900000003  0.0364027100000000  6.7213739700000001
 15.5592913199999998  1.9166410500000000  8.2330740599999999
 17.5748755500000016  3.8894025999999999 12.7834672699999992
 17.5963136800000015  6.6439287499999997 15.1157752399999996
 17.7058708200000012  8.8367956599999999 17.1768492500000001
 17.5022567600000016 10.8364191200000004 19.5093923899999986
 17.6420710599999992 13.4572849399999992  0.0640953400000000
 17.4181086699999987 15.3711748000000004  2.4254734500000001
 17.8331808699999996 16.8623027999999984  4.5294872899999996
 17.4418362800000004 19.1561431400000011  6.6361672499999997
 17.7351231100000000 -0.1191187600000000  8.6704877699999994
 17.4154594899999999  1.6336181100000000 10.8358968699999991
 19.4525466899999984  3.8113757700000002 14.7453062799999994
 19.7506100199999999  6.2563713300000003 17.2190053799999987
 19.5457085100000008  8.6651203199999998 19.5361931700000007
 19.1008164799999989 11.1241064400000003 -0.1188666400000000
 20.0766818299999983 13.3041656899999996  2.1403400200000000
 19.3826216199999983 14.9586454399999997  4.2129714800000002
 19.6856473399999992 17.2936174300000012  6.9487652000000004
 19.7949536799999990 19.3722491699999999  8.7727573900000007
 19.4886695299999992 -0.1603597200000000 10.6471062399999994
 19.9644103199999989  1.3584552900000000 12.7384800499999997
 -0.1847650500000000  3.9535840000000002 16.8622410900000013
  0.0869775100000000  6.4502390600000004 19.0851671600000010
 -0.0438579600000000  9.0510945899999999 -0.0703860400000000
  0.0666931500000000 10.5372250300000001  2.2983396300000001
 -0.2356742000000000 13.2417714600000007  4.4961848000000000
  0.0704864900000000 15.4128586399999996  6.5296290499999996
  0.5105847500000000 17.2745435699999987  8.8168597099999992
  0.2325356300000000 19.9878098500000014 10.5441078000000008
  0.2024122900000000  0.0087626400000000 12.9894477599999991
  0.3922591600000000  1.7259917300000001 15.0747000199999999
  1.8209358400000000  4.0768535000000004 19.0738430600000015
  2.0106332600000001  6.0851196999999999 21.5511596300000008
  2.2830093900000001  8.2783648500000009  2.0594857300000000
  2.0221588100000001 10.8095710900000004  3.9709661199999999
  1.8841555200000000 12.3947879800000003  6.4936339700000003
  2.5712354600000000 15.2812889199999997  8.7759100500000002
  2.5074371200000001 17.1822534599999983 10.5227432099999998
  2.3334923000000001 19.2918875900000018 12.8635373200000007
  2.2467747199999999  0.1241979700000000 15.2940824800000001
  2.0998252499999999  2.3939583700000000 17.5258165800000008
  6.4706739300000002  6.3072540100000003 -0.1213298600000000
  6.6028253599999998  8.1968233000000001  1.8723721600000001
  6.4189290999999997 10.4192288699999995  4.1053446999999998
  6.9463322500000002 12.8182128399999993  5.9343610399999998
  6.6399391799999998 14.9198082999999997  8.0830543299999995
  6.4086626799999999 17.6634489200000004 10.6145224400000000
  6.6604661199999997 19.1870118599999984 12.4841934999999999
  6.0871214000000000 -0.2798326800000000 15.0408714499999991
  6.0701782299999998  1.6931581099999999 17.0853035999999996
  6.4790334100000004  4.5120902400000000 19.8396903100000017
  8.8224531400000004  6.4335822800000004  2.0631093900000002
  8.5656556500000001  8.7669313599999992  4.7242822599999998
  8.5159944700000008 10.7410411299999993  6.5616549300000004
  8.8947787799999993 13.1884781800000006  8.6163516100000006
  8.3731585699999993 15.3799756300000006 10.6123595000000002
  8.5022366399999996 17.2414204600000005 13.0861905699999994
  8.5957139500000004 19.6313343200000006 14.8215692000000008
  8.5888206700000005  0.2441899500000000 17.0093765899999987
  8.3226123500000000  2.2109339900000000 19.1346427199999987
  8.9578201800000006  3.8443037100000002 21.4987222600000010
 11.1954230399999997  6.4537254099999997  4.5435625699999997
 10.7111046099999996  8.5273294699999997  6.8194540400000001
 10.6275417599999997 10.7966467900000005  8.6997168499999997
 10.7896245900000007 13.2275266299999998 10.7007807499999998
 10.9393910800000000 15.3091253199999997 13.0205627300000000
 10.3949925600000004 17.5275191499999998 14.9822335399999993
 10.4619584600000000 19.4448861700000002 17.6053943100000012
 10.4837469199999997  0.1637226700000000 19.9055497999999993
 11.1645843700000000  2.1757081299999999 -0.1525970600000000
 11.1113261500000000  4.4630407900000000  2.2142346900000001
 13.0529105100000002  6.7356573700000002  6.7762655699999996
 12.8575292300000008  8.5558826600000000  8.9996847399999993
 12.7328276599999999 10.4769497099999995 11.3157371500000004
 13.1576326300000002 13.0204561000000005 13.2158957699999995
 12.5102261899999991 15.4582789100000006 15.3356276699999992
 12.7728582300000006 17.0421037999999996 17.4210600500000012
 12.6283122399999996 19.2917359600000005 19.5659140499999999
 13.3225780599999997  0.2537250800000000 -0.4113730400000000
 13.0653544200000002  2.5618303600000001  2.3490579600000001
 13.3641712699999999  4.7457593999999999  4.4353606900000004
 15.7194179599999995  6.6861495000000000  8.8330352100000002
 15.3062105000000006  8.5970949900000004 11.4316143599999993
 14.7636993400000005 11.2145846599999999 13.2666101500000000
 14.5678699799999993 13.0684610699999997 15.5220077700000001
 14.8078893300000001 15.0231344399999998 17.2679324899999997
 14.6917972599999995 17.5457875500000000 19.7008863199999986
 14.8164583800000003 19.3468370299999997  0.2824745200000000
 14.7647679699999994  0.1188904000000000  2.0589718299999999
 15.1342546900000006  1.6969663699999999  4.3199354300000001
 15.3738582000000008  4.2896523899999996  6.5183252500000002
 17.8146655000000003  6.5718481500000001 11.4490018500000001
 17.3886354400000016  8.9060217700000006 13.4655208599999998
 17.0085566600000000 10.7510130799999999 15.2410920599999997
 17.2383965100000012 13.2413437500000004 17.3964385899999989
 17.1691193099999992 15.2132350299999999 19.5865366700000010
 17.3987673200000010 17.5719737100000017 -0.0985990800000000
 17.3616293699999993 18.9909909799999994  2.4148798199999999
 17.6303777900000007 -0.0408531900000000  3.8610975199999999
 17.4720048199999987  2.0662227700000000  5.8785266199999997
 17.1382060699999990  4.1911276700000002  9.1306475700000007
 19.4874384999999997  6.2613292999999999 12.9994495099999998
 20.0883013300000002  8.7967797399999998 14.8394229400000004
 19.7715889400000009 11.2067652199999994 17.2223693000000004
 19.9356072900000001 12.8742793100000004 19.5103391600000009
 19.3791663900000017 15.6958486500000003  0.0523165100000000
 19.5432407200000000 17.3937343400000017  2.3675260800000002
 19.3962968300000007 19.6091373500000010  4.1348132000000000
 19.4306469399999990 -0.2699222000000000  6.3196853400000004
 19.5445360400000006  2.2185851200000002  8.6452522300000005
 19.3788296399999993  4.2164290400000004 10.6010453800000004
 -0.2543002800000000  6.3052970400000001 14.6320782600000001
 -0.2106269400000000  8.4120895900000008 17.1996696100000008
 -0.1536509900000000 11.0769307500000007 19.6362422700000003
  0.2981685300000000 12.8361899099999999  0.0469618600000000
 -0.0366415900000000 14.8210226200000008  2.0974075100000000
 -0.0301017500000000 17.1648752800000004  4.6848008500000002
 -0.2490534800000000 19.4508899799999995  6.7334735900000000
 -0.1683196100000000 -0.1816431300000000  8.5700906499999991
  0.1936027500000000  2.1612002700000001 10.1771739399999994
 -0.1595631300000000  3.9722951100000001 12.7940120900000007
  1.7259803800000000  6.0484326499999996 17.0412834400000008
  1.9810022100000000  8.7310693900000000 19.4125638699999996
  2.1215788299999998 10.7008922900000005  0.3148197800000000
  2.4522283100000002 13.2056412099999996  2.3840142400000000
  2.4197969399999999 14.4320497200000002  4.6994604799999999
  1.9793979700000000 17.4207343100000003  6.0646401399999998
  2.5674343199999998 19.6744157000000008  8.2766103300000005
  1.9553358400000000 -0.1625787800000000 10.6270613300000001
  2.0030908799999998  2.0805633100000001 13.0555282100000003
  2.1147902799999998  4.4572507100000003 14.3571915699999995
  4.0583329600000004  6.5942690300000004 19.2800464299999987
  4.3292616700000002  8.1858691300000004 21.7665384800000012
  4.3024919700000002 10.6572440499999992  2.2341390600000000
  4.7090758700000004 12.5936278099999992  4.4044027000000003
  4.4735619900000003 15.2152010400000002  6.2161509199999996
  4.7428623900000000 17.5199789499999987  8.4510575800000005
  4.6503149600000002 20.0496154299999993 10.8760224700000006
  4.4301866399999996 -0.0244452100000000 12.7992238599999997
  4.1120456599999997  2.4567963200000000 15.1323608200000006
  4.4094321699999997  4.2010011100000000 17.3040282099999985
  8.3965873200000001  8.4941325699999997  0.0583687100000000
  8.2393291299999998 10.8337950200000002  2.3800172599999998
  8.3604992199999995 12.9238054000000009  4.3154407600000004
  8.5814575699999995 15.4306171100000000  6.3412269600000002
  8.8858643100000005 17.6696208800000001  8.5551412800000008
  8.6650077400000001 19.6236796200000008 10.5925549900000000
  8.3251316400000004 -0.4471579900000000 12.6549019699999992
  8.5599115099999992  1.5165569699999999 14.7871748699999994
  8.2749511600000005  4.7275021900000000 16.8757247399999990
  8.4839801399999999  6.2324859100000003 19.3257793400000004
 10.7134771000000004  8.5671147100000002  2.3127090199999998
 10.8749507800000007 10.7119887499999997  4.1712322300000002
 10.9677433299999993 13.2490220799999996  6.1974438100000002
 10.6368578800000009 15.6909883299999997  8.6422921899999992
 10.4669209700000003 17.4548164499999992 10.7431644800000008
 10.6770960400000003 19.7270022699999998 13.0132838399999997
 10.6156655200000003 -0.1089814500000000 14.8331584700000008
 10.9408841399999996  2.1448068299999998 17.1076686900000006
 10.7027286499999992  4.1436344399999996 18.7317141400000011
 11.0091065300000004  6.3015462299999996 21.6960312199999983
 12.7320337800000001  8.4230246500000003  4.0985147499999997
 13.0304505000000006 11.1447000500000009  6.4257977100000003
 12.5549210500000008 12.9336942799999992  8.5802333500000003
 12.8124523900000007 15.2937838500000005 11.0790609599999996
 12.7433650800000002 17.3709902400000011 13.0742016799999998
 13.0539165700000002 19.2774435299999993 15.2468365000000006
 12.6498795499999996 -0.2976170400000000 17.7059122100000010
 13.2207839699999994  1.7734803500000000 19.3915820100000005
 12.8527786400000004  4.3028079799999999 -0.9813890600000000
 13.1847468899999996  6.5500570700000003  1.8347978000000000
 14.8636958000000003  9.1121203899999994  6.4891044400000002
 15.3299115199999996 10.5842840900000006  8.9899263699999992
 14.5944600199999996 13.3609782799999994 10.4620738800000002
 15.0771568100000000 15.0308422799999999 12.9901242600000000
 15.1569218800000005 17.2433358100000014 15.2843859200000001
 14.9919982100000002 19.4137954099999988 17.5136183900000013
 15.4740111599999999 -0.0370276200000000 19.8411988299999997
 15.3789173300000002  2.4405965900000002  0.2941320700000000
 15.0354130799999997  4.3781778200000003  1.7241039100000000
 14.9248219599999992  6.5169620300000002  4.3378135799999997
 17.4673681700000003  8.7044992299999997  8.7461175999999998
 17.3023844599999990 11.0847617799999991 11.0804913299999992
 16.9024676900000017 12.8819422299999999 13.1584877900000006
 17.3768506000000009 15.5658336300000002 15.3001099200000006
 17.2272159999999985 17.1778268199999999 17.6766607200000010
 17.2449670099999999 19.3368331299999987 19.7102700499999983
 17.3154602400000002 -0.1837448800000000  0.6494855500000000
 17.2077942300000011  2.1601113800000000  2.6697165799999998
 16.9763719900000005  4.1561572599999996  4.2681005200000000
 16.8975559599999983  6.5821836200000003  6.6629006700000000
 19.4432658600000003  8.7392557899999996 10.9615443500000005
 19.5678779600000006 10.9506381400000006 13.3492117700000001
 19.0490131900000002 13.1182903599999996 14.8640406800000004
 19.3097783599999993 15.1366772899999997 17.5604555299999987
 19.7511267299999993 17.6426309199999984 19.8282990800000007
 19.8280881700000009 19.4473912099999993 -0.1031480900000000
 19.4862162999999988  0.1914626100000000  2.5017088799999998
 19.9299824900000004  2.2644737600000000  4.5729151999999997
 18.9154761899999997  4.2588649900000002  6.4013279499999998
 19.4382293399999995  6.4000066599999998  8.7199692100000004
  0.2215134700000000  8.8703377000000003 12.6716732299999997
  0.1597756900000000 11.2151779800000000 15.0133543300000003
  0.0232377100000000 13.7195666599999999 16.9740968599999995
 -0.0791565800000000 15.1974775799999993 19.4242165399999998
  0.0368215100000000 17.2737855700000011  0.1636268100000000
 -0.1636562400000000 19.0847460399999989  2.4191798100000002
  0.1877866900000000  0.1439073200000000  4.4389704999999999
  0.0019343700000000  1.8770242300000000  7.1127211900000002
  0.3117271800000000  4.8326980800000001  8.6154950499999998
 -0.0991365300000000  6.4159852099999997 10.8702508200000008
  1.8754775400000001  8.7762369699999994 15.2805804199999997
  2.1159992999999999 10.7810946500000000 17.4748194900000016
  1.7846085199999999 12.9787455999999999 19.4892734400000016
  2.1344173899999999 15.0274166900000008 -0.1345450500000000
  1.9479563600000001 16.8958316500000016  2.8480819600000000
  2.0032660600000001 19.2858064099999993  4.8658379399999996
  2.4581574300000000 -0.0478562800000000  6.6834648500000000
  2.4857289499999999  2.4172832000000000  8.8088208699999999
  2.7260872900000002  4.5028968300000001 10.7106166199999997
  1.9559857199999999  6.5833508600000004 12.9557462099999992
  3.9169859200000001  8.9509251100000000 17.5740860300000001
  4.1696322500000003 10.8356474200000008 20.0352245599999996
  4.3589261300000004 12.9443981299999997 -0.2856072700000000
  4.4256367799999996 14.7738292799999993  2.0354214399999999
  4.1148393600000004 17.3417549099999988  4.3565267600000004
  4.3361041699999996 19.5850401599999984  6.6499419800000004
  4.3112313899999997 -0.2430711200000000  8.3804523199999998