Li                                      
   1.00000000000000     
    22.7325000000000017   -0.0000000000000006    0.0000000000000000
    -0.0000000000000006   22.7325000000000017    0.0000000000000000
     0.0000000000000006    0.0000000000000006   22.7325000000000017
   Li
   500
Direct
  0.0000445111624359  0.0315818000659860  0.9913931265808884
  0.9878748826569890  0.1076059434730041  0.1206664238425148
  0.9837801570438813  0.2260194936764535  0.2123833581876156
  0.0008687896183872  0.3106971252611928  0.2784642898933214
  0.9760305105025822  0.3750372867040568  0.4320767975365669
  0.0035273375123737  0.4958941805784676  0.5380878508742981
  0.9865390515781343  0.6245477659738228  0.6269910172660289
  0.0000199111404342  0.7702593990982081  0.6837064651930049
  0.9855290482788988  0.8224751311998233  0.8189209488617593
  0.9804614327504666  0.9221079511712276  0.9058295528428459
  0.1032384735510803  0.0089840576267477  0.1080936390630143
  0.0871572211591314  0.1085676309248882  0.2068330007698194
  0.1042025100626844  0.2017878130429978  0.3190721561640828
  0.0950896592983597  0.3077527526668860  0.4165879502914294
  0.1226772048828764  0.3986938260200148  0.5461209985703306
  0.1330369840536676  0.5330223961288922  0.6350767856593009
  0.1088872495326072  0.6331835671395609  0.7182400769822905
  0.0751883664357180  0.7131592851644086  0.8066987075772545
  0.0944108883756769  0.8477862267678447  0.9124720593863387
  0.1025210451996017  0.9294730566369722  0.0002552526119004
  0.1744141774991732  0.9983496465412927  0.2027401464863061
  0.1824204117452979  0.0921704159243362  0.3072168982733956
  0.1936297864291205  0.2029577859892200  0.4421985311778300
  0.2137556911910252  0.2995752622896717  0.5222470709336875
  0.2036833177169228  0.4020783371824450  0.6130792649290697
  0.2006388993731463  0.5381624819091613  0.7174807377103249
  0.2040681324095459  0.6282274752007027  0.8381727526668854
  0.1768532545914425  0.7236732805454764  0.9170062052128003
  0.1921705184207667  0.7993917052677872  0.0093428984933439
  0.2085272336962518  0.9064053720444321  0.1006736518200810
  0.3022499113603843  0.9808374934565052  0.2804109763554408
  0.3063804333003404  0.1003707278126029  0.3657651938854087
  0.3088172638293187  0.2056656716155274  0.4951180015396446
  0.3259107968767196  0.3139465179808667  0.6055734199933980
  0.2862173381722215  0.3999493614868612  0.7300614133949210
  0.3015568657208831  0.5075030929286299  0.8207263327834582
  0.2838621123941465  0.6196732603101296  0.9426273639063041
  0.2664326950401374  0.7005264946662280  0.0053145324975290
  0.3111835451446154  0.8010948830968871  0.0955019826239933
  0.2899938510942448  0.8990131859672275  0.1957488529638169
  0.4030798024854292  0.0164520576267435  0.3982966237765311
  0.4145536232266593  0.1009661379082800  0.4673471294402276
  0.4231466459914230  0.2192281029363272  0.5908812739469909
  0.4131878328384460  0.3059527042780132  0.6983899408336072
  0.4101573804025094  0.4260741132739483  0.8071207865390946
  0.4081952992411715  0.4998942096117887  0.9316121772792272
  0.4092840219949423  0.6218568753986560  0.0124569273067223
  0.4019077580556498  0.6799913432310589  0.1090581370284838
  0.4098009787748822  0.8156815651600127  0.1798492334763040
  0.3885648789178475  0.9032729457824686  0.2944343464203243
  0.5163618836467592  0.9841422258880428  0.5006775660398119
  0.5212276577587147  0.0967005965028065  0.5830371701308721
  0.5225128793577483  0.2012002806554491  0.6736124948861786
  0.4962461972946244  0.3145443690751151  0.7811439995601006
  0.5071183622566835  0.4023295018145845  0.9095098761684781
  0.5061389671175647  0.5202931494556253  0.0020438293192555
  0.4761164003079301  0.5937982241284487  0.1038935150115492
  0.4951394782799952  0.7037109451226229  0.1865522617397986
  0.4900499126800852  0.8310116080501473  0.2929875939733861
  0.4820438121632051  0.9065588329484200  0.3927245899043186
  0.6267087209941735  0.9993823591773889  0.5814912301770576
  0.6171336975695567  0.1010951360387082  0.6853656377433168
  0.6043612616298262  0.2130720958979424  0.7803176843725907
  0.5821675095128143  0.2951770311228401  0.8871551597932452
  0.6054988914549639  0.4226708487847759  0.9802242740569653
  0.6090146974595854  0.5099514831188827  0.0904571243813947
  0.6099358231606757  0.5766840026393965  0.2045614459474336
  0.6122688626415922  0.6974829772352393  0.3046788932145574
  0.5858308901352700  0.8060102650390419  0.3531536122291854
  0.5948398200813827  0.9009717101066741  0.5014038429561225
  0.7016898000659850  0.9904887992961591  0.6876166989992285
  0.6789384581546258  0.0907140560871014  0.7706438706697440
  0.6829694512262208  0.1987918020455268  0.8899588980534503
  0.6724373078192016  0.2785082406246531  0.9986475213900832
  0.7191389235675771  0.4278771177829128  0.0721411982843918
  0.7258720426701828  0.4621295326074986  0.1884581057956680
  0.6823494974155935  0.5856660261739819  0.3158205234796014
  0.7144703719344534  0.7008103569778967  0.3937400233146349
  0.6891817595952929  0.8254665817661930  0.4935982250082489
  0.6912612299571066  0.8829333702848317  0.6125032666886625
  0.7971546165181991  0.9884012185197406  0.7973738915649378
  0.7792534292312752  0.0912762956120119  0.9149986138788080
  0.7897510335422879  0.1886974626635904  0.0084509231276826
  0.7975121222918702  0.3020327641042542  0.0787923312438110
  0.7964784594743222  0.3845332972616333  0.1835666195974923
  0.8009563492796659  0.4756406831628723  0.3155061431870649
  0.7934052620697258  0.6182878134829011  0.4177652097217646
  0.7872882428241468  0.7208258141427493  0.5187585404157034
  0.7937968771582504  0.8234369537006501  0.5675495282085095
  0.8047625751677145  0.9051389970306829  0.6696280052787884
  0.8849347546464301  0.9972738053447685  0.8890396762344679
  0.9111510898493336  0.0832718772682313  0.9985442419443515
  0.8855453672055447  0.1870296285054422  0.0945787467282528
  0.8744567042780176  0.3124063033102402  0.1805921557241845
  0.8858372677884105  0.3715166479709637  0.2951560505883677
  0.9136778546134394  0.4936436498405357  0.4237957848894780
  0.8984264383591807  0.6051857587154927  0.5057436573188170
  0.9102420472891239  0.7274724346200401  0.5561929990102286
  0.9051618510942490  0.8131608551633107  0.6605615642802150
  0.8811369506213538  0.8814164315407425  0.7709594193335505
  0.1083870511382372  0.0851899848234936  0.0282177675134747
  0.0976412867040608  0.1914993634664057  0.1130971397778495
  0.0993688296491797  0.3142126611679288  0.2012485133619251
  0.1080619725063201  0.3998963611569337  0.3246876595183110
  0.1024828039151018  0.5064223886506127  0.4462969237875285
  0.1098483932695515  0.6034412325965022  0.5367344797096649
  0.1251073344330820  0.7144001095348074  0.5994747784009675
  0.1242601130539995  0.8227553859012460  0.7030063948091936
  0.1138350718134831  0.8847798631914685  0.7906410500384879
  0.1127327007588264  0.9885383006708466  0.8861724069064110
  0.1912991562740558  0.0777576971296625  0.1075292523919487
  0.1949426737050501  0.1811640321126120  0.2082236018915680
  0.2007369686572105  0.2771043457604776  0.2929866956999874
  0.1984959208182104  0.3855573940393739  0.4105617837897313
  0.2001280175959508  0.4966145056637004  0.5442041702408460
  0.2258185791268019  0.6339198363576344  0.6333727711426391
  0.2269323985483354  0.7074400114373702  0.7241454283514770
  0.2178209422632804  0.8227066552292968  0.8175773434510063
  0.2253989618387777  0.8861007280325524  0.9021943626965765
  0.2231520831408744  0.9867719665676873  0.0047484508962938
  0.3070668382272075  0.0878394993951375  0.2143298088639582
  0.2870853487297893  0.2093662087319927  0.3199814375893553
  0.2891066239964815  0.2980361495655970  0.4234834501264686
  0.3092253394919169  0.3937254160343144  0.5041829517211056
  0.2771743552182997  0.5071760074782787  0.6277651943253062
  0.3220885063235457  0.6093704748707793  0.7214507339711886
  0.3013798684702493  0.6958540785219398  0.8064534116353244
  0.3246787458484519  0.7957642507423301  0.9120734309908727
  0.3098082881337305  0.8834386978994857  0.9988778528538447
  0.3035234905971649  0.9792145553722662  0.1018428580226569
  0.4040155345870460  0.1121112640492683  0.2941206250962267
  0.3956228567029569  0.2249391681513231  0.3999127311118471
  0.4154643281645249  0.3011495216100286  0.5251531226217949
  0.3816869376443393  0.4111231549543604  0.6110424238425196
  0.4197439318156810  0.5264702571208630  0.6879555530627925
  0.3832680761024960  0.5859710572968240  0.8134855480039604
  0.3891003620367286  0.6978973905201826  0.8964458436159717
  0.3916290957879696  0.7920754092158830  0.9990209954910370
  0.4072787885186386  0.9003802344660699  0.0882634637633330
  0.4095557606950422  0.0039505918838643  0.2139946151985015
  0.4984672952820830  0.0748353454305501  0.4101475174309925
  0.4938937072473308  0.1921988492246811  0.4842500459694250
  0.4773903310238623  0.3028464568349278  0.5896770592763687
  0.5062333302540409  0.3982948949741569  0.6960279793247537
  0.5192981035961708  0.5101036643571959  0.8183064471571555
  0.4875417002089506  0.6111681403277274  0.8938984924667324
  0.4925699355548190  0.7147477316617170  0.0163085907841207
  0.5028280387110939  0.8109527016386266  0.1056588483448806
  0.4837765089629400  0.9079091529748169  0.1995681610029720
  0.4668109297261651  0.9856078570328819  0.2994247658638542
  0.6135406158583550  0.1142800787418921  0.4638850984273617
  0.6000630009897705  0.1901513968987132  0.5892269134499060
  0.5857948193115590  0.3022732220389344  0.6703589081711172
  0.5895535207302345  0.4181520202353468  0.7794547946772212
  0.6006860164962049  0.4984141717804889  0.9033851859672239
  0.5810912182997896  0.6218173584075686  0.9973738097437561
  0.5992196696359855  0.6764780323325610  0.1266151703508172
  0.5911516969097121  0.7969135884746521  0.2131419663477416
  0.6062833599472128  0.9241146393929398  0.2730947066974565
  0.5911146798636295  0.9951310484988483  0.3934205107225353
  0.7365153353128804  0.1187626393929406  0.6086752029033349
  0.7040090522379856  0.2187171855273320  0.6637940710436609
  0.6856999498515322  0.2870109719564482  0.7842051287803784
  0.6848598521939948  0.4150009057516755  0.9005739689871319
  0.6976720378312962  0.5291478645111596  0.0123898480149549
  0.6992519375343704  0.5713803554382508  0.0916602190696167
  0.6987396181678207  0.6892416865720890  0.1974570478389950
  0.6850097802705406  0.7980222989112491  0.2905317848894740
  0.6832763937094484  0.9018783899703067  0.3870000013196986
  0.7142331336192669  0.0099047790608182  0.5150418906851399
  0.7945331001869604  0.1231314342901157  0.7037076137688345
  0.7970878856263042  0.1899666547894014  0.8051110537776296
  0.7992643127680665  0.2907058620917198  0.9047529400637870
  0.7989508122731763  0.4152275323875543  0.9976610306829414
  0.8239044099857011  0.4979900657648741  0.0981128336082691
  0.8008974820191384  0.5753217182448012  0.2029010817112038
  0.7997120057186820  0.6959994752007006  0.3297176241064577
  0.7998014292312803  0.8107705364566158  0.3970139896623763
  0.8110200849004698  0.8994377072473299  0.5012025298581335
  0.7989119071813491  0.0134632772462311  0.5912602898933272
  0.8724939804245011  0.0957572106015618  0.8058946481909146
  0.8999222412845072  0.1647863090289263  0.9075755930935898
  0.8891167346310382  0.3060260103376251  0.9876746077202228
  0.8844169405036837  0.4205418805674697  0.0691953643462000
  0.9216722661387848  0.4729153502694388  0.2237363967887376
  0.9228352565709912  0.6027800827009813  0.3059732031232798
  0.9081996647970954  0.7218112798856282  0.4036099465522938
  0.9213397272627262  0.8180568943143101  0.5175378436159690
  0.9198029130100096  0.9181402612999037  0.6001590155064349
  0.8860059355548202  0.0136969686572073  0.6950396964698129
  0.0089152882437062  0.0824156045309579  0.8865057741119529
  0.9966470982074114  0.1838250535576833  0.0196439054217521
  0.9829188131529776  0.3216336285054453  0.0901051622126943
  0.0124150106675458  0.3763016526998797  0.1888446299351116
  0.0109503420213315  0.4812016852523939  0.3209097160453069
  0.0304642920928160  0.6011132515121531  0.4418750058286562
  0.0109306389530417  0.7107016399428119  0.5132414573848010
  0.0401434747608036  0.8230506064005283  0.6115601614428670
  0.9953975510832507  0.9181849462223681  0.6895831641922356
  0.9927241909160927  0.9822880541075563  0.8073281530847893
  0.2047921552842880  0.1874919071813466  0.0009765423952501
  0.1754754901572610  0.3108573575277660  0.1050328767183544
  0.1771218387770830  0.4077801728802370  0.1983319982404055
  0.1866936320246353  0.5097962120312332  0.3091277914879598
  0.1836842481029350  0.5959219601891590  0.4176766682063118
  0.1831796392829617  0.7017431606730469  0.5101816531397745
  0.2146417512372167  0.7942921306499500  0.5982910471791456
  0.2285506354338480  0.9038755702188510  0.6889552112614084
  0.2230793480699447  0.9930788461453872  0.8027141647421061
  0.2063483510392601  0.1048215801165711  0.9078601306499507
  0.2862911193225557  0.2017412620697243  0.1258877875288675
  0.2721343838117249  0.3156220780820433  0.1834799221379058
  0.2776055312878043  0.3742703961288925  0.2789858708896986
  0.2993344845485524  0.4844816588584635  0.3904880598262395
  0.3124055620807198  0.6031225017046111  0.4847952988012736
  0.3124690667546446  0.7114697314417668  0.6005904414384702
  0.3070632548113963  0.8064512363356400  0.7170978805674721
  0.3062083527988548  0.9109787220939154  0.7984973355328293
  0.3121982764764084  0.9949377719124612  0.8886989715165541
  0.3028987792807669  0.0808053738040257  0.0269412334763004
  0.3876783618167821  0.1871816812933034  0.2142568380072589
  0.3776473155174287  0.2756402529418267  0.3211929378642893
  0.3938004548553806  0.3726301871769522  0.4051548223908483
  0.3930400184757517  0.4873019254371513  0.5097079102606372
  0.3965761878367999  0.6107147608050170  0.5886684940063773
  0.3716425219399540  0.7011313625866080  0.6927167896183875
  0.4061172831848694  0.8037695220499259  0.8130529202683405
  0.4062973434510084  0.8987368564830120  0.8947648512042221
  0.3988961249312624  0.0117551100846782  0.9654195891344983
  0.4013901176729320  0.1066784920268304  0.0960068162322685
  0.4896183376223462  0.1798774182338079  0.3131751641922378
  0.4876755205102796  0.2624526620477283  0.3868473850214471
  0.4732772594303327  0.3900223173870003  0.4937940094578224
  0.4989294842186283  0.5000424946662250  0.5931964733311332
  0.5035825883646794  0.6115703305839659  0.7055887984163647
  0.4844369176289476  0.6850797708127132  0.8104264726712884
  0.5102199670075862  0.7970505580116551  0.8938711435169893
  0.5062707581656198  0.9128365529528182  0.9720174067964393
  0.4940124341801351  0.9980994356098094  0.0769359326954770
  0.5000854389090534  0.0853439639282954  0.1919362120312300
  0.6105439124601375  0.1866220481689211  0.3848664867480451
  0.5753598565929821  0.2952955495436029  0.4900403941493465
  0.5939148976135513  0.3962444680523447  0.5702580041790384
  0.6131352530518015  0.5109992007038358  0.6764184959859207
  0.6182003448806768  0.6005069657978694  0.8047661203123297
  0.5973988259100409  0.6883481451666142  0.8927633568679170
  0.5951966682063130  0.7935617002089543  0.9948430982074115
  0.5863873647860984  0.8952399036621586  0.1163231320796214
  0.5792457208841952  0.0298127948971754  0.2018413003409236
  0.5691247566259747  0.0845110124271429  0.3057717233036428
  0.7039586411525320  0.2150477127460704  0.5024788135928731
  0.7048091996040924  0.3110244069064123  0.5853861220719239
  0.7124514492466716  0.4000872055427251  0.6862922120312334
  0.7001388294292283  0.5227150951281203  0.7958399419333517
  0.7111306767843431  0.5727491661717821  0.9239924896073930
  0.6987657881887159  0.6992199876828309  0.0063845657098867
  0.6699003321236106  0.8070677114263702  0.1005327539865846
  0.7101890777521191  0.9144190542175323  0.1933050856702963
  0.7137609598592292  0.0188394650830332  0.3107702909930694
  0.7086599995600977  0.0971531217419965  0.3765475024744305
  0.8147129695370054  0.2070694490267257  0.5959513344330816
  0.8136017943472993  0.2962947484878455  0.7056704000879819
  0.7722632319366554  0.4085473674254914  0.7831078139227969
  0.8028746939403959  0.5054996929506217  0.9118862909930741
  0.8352366061805796  0.5880218700098965  0.9920258308588998
  0.8156542404047045  0.6811832376553397  0.0806996999890046
  0.7825982175299657  0.7829783363026479  0.1985948593423501
  0.7922126110194654  0.8752394444077893  0.2892618475750552
  0.8079977811503340  0.0011026675464620  0.4004174930166045
  0.8029983283844686  0.1230411538546150  0.4972220459694299
  0.8966767152754898  0.1887627687231941  0.7021087390300238
  0.9065572295172117  0.2780441596832759  0.8256570531177800
  0.9000614252721846  0.3980162819751456  0.8891137252831882
  0.9104137864291246  0.4877784607940185  0.9594396177279236
  0.9256049554602441  0.5488472776861357  0.1210135999120183
  0.8913050056087073  0.6825510819311589  0.1962121002969326
  0.9185021480259508  0.8039766924007452  0.2781667251732074
  0.9042981220719213  0.8983426829429249  0.4112141735400883
  0.9084252163202464  0.9925087768613210  0.4942712680083616
  0.8946088129330221  0.0925109649180698  0.5961515112724101
  0.9819204900472869  0.1673517123061714  0.7916582777961096
  0.0029452158803451  0.2506555645001640  0.9071588874958749
  0.0006212708676969  0.4116238596722752  0.9655378290993042
  0.9896818607720235  0.4920544854283548  0.1167776496205875
  0.0133738348179904  0.5816143587374896  0.2084121794787208
  0.9932439634883963  0.7036238992631709  0.3295258264599141
  0.9952854820191348  0.8078485960629038  0.4042532620697230
  0.9957388017156035  0.9103914919168616  0.4826428523039681
  0.9903606510502598  0.9944762252281976  0.6115114835587789
  0.9915107819201552  0.0481621845375528  0.6959206629275272
  0.0902228668206320  0.1571765401957563  0.8985867920378325
  0.0908999463323426  0.2920453412515087  0.0202871391180039
  0.0900931107445260  0.4157149939513900  0.0746427018585720
  0.0727526338942042  0.4813634030572942  0.1838037936874528
  0.1108742628395447  0.6022824291213027  0.3095286312548140
  0.1098934644231804  0.7108875974925795  0.4024107005388728
  0.1118258018255816  0.8383825553722630  0.4728539931815661
  0.1137943446607252  0.9489585443747970  0.5951804583745712
  0.1206706376333457  0.9943030594963176  0.7094546319146602
  0.1004609906521523  0.0593234584845490  0.8117104247223139
  0.3004919159793218  0.3031953498295366  0.0128686805234821
  0.2955846567689449  0.3983277039480910  0.0966575097327649
  0.2722586305949619  0.4892422571208641  0.1970903112284148
  0.2783878627515648  0.6079279212581099  0.2588814811393405
  0.2590526594083329  0.6890799938414176  0.3732493566479675
  0.3091385945232616  0.7849739298361342  0.4767663648960720
  0.2906844055867168  0.8959038702298443  0.5876215594413310
  0.3308720563070509  0.9917132541515485  0.7126516300450874
  0.3128384256021093  0.0903198706697452  0.7831153951391201
  0.3219038988232725  0.1939398214010808  0.8988198477950107
  0.4120150550973278  0.2970067370504808  0.1083395451446165
  0.3958977991861872  0.3966562489827368  0.2099760206752421
  0.3909969968107347  0.5172708391070060  0.3104127711426372
  0.4138069640382724  0.6088235988122719  0.3715530179258764
  0.3785899320356307  0.6847219843835930  0.4625522177499164
  0.3925319564500143  0.8186523330034063  0.5911642410645541
  0.3942144893874442  0.9128841002969352  0.6713280193555491
  0.4247851833278347  0.9977749314857576  0.7883820230946910
  0.3933308659408326  0.1238368366875591  0.8695541748597790
  0.3928769290663112  0.2053199107005383  0.9996486066204753
  0.4822164245023615  0.3009420626855857  0.2069580864401175
  0.4951309380842375  0.3960395253491669  0.2849403879907655
  0.5022207900582885  0.4747548034752000  0.3890251608929916
  0.5094647289123486  0.5889597580556440  0.4995261766193764
  0.4979042630594961  0.6859972150005476  0.5910050104475957
  0.4893396318046825  0.8159784154844374  0.7164922872539350
  0.5102967799406102  0.9051281394479247  0.8219555108325096
  0.5365277470581731  0.0412001187726858  0.8774532031232809
  0.5036273542285272  0.1196207645441518  0.0120825518530765
  0.5106996982294092  0.2013475086330132  0.1101058854063552
  0.5783065632904396  0.3090301150335435  0.3007945993621490
  0.6157810364016285  0.4014380424502377  0.4096733601671616
  0.6028690069284082  0.5115939320356304  0.5090802102716410
  0.6056952834048133  0.6060270876498421  0.6139967240734663
  0.6122640118772651  0.6992144251622108  0.7136823877708096
  0.5910664212031236  0.7945218884856473  0.8102547269328042
  0.6011427172550299  0.8952952024634300  0.9011769893324555
  0.6028966536896547  0.0065037092268767  0.0033345632904442
  0.5765693021005163  0.0930947062575598  0.0984349504014048
  0.5792890152864842  0.1763063446607305  0.2118001016166247
  0.6906803396018901  0.2739806127790629  0.3915414529858126
  0.6893682419443508  0.3879756274056945  0.4918015044539743
  0.6993029020125405  0.4795824599142193  0.6002784322005965
  0.7060318121632037  0.6289466037611362  0.6955559608490063
  0.7334426970196830  0.6905508012757053  0.8079159238975038
  0.6824195675794584  0.8120254525459174  0.9100522076322477
  0.6856302087319932  0.8821962155504224  0.0025953595073105
  0.6952161104146057  0.9895874206532511  0.0947969871329590
  0.6758849391839874  0.1054064546354354  0.2045609515011577
  0.6795797549763520  0.1896580860002217  0.2748992125811043
  0.8038178453755620  0.2828546099197169  0.4841869156494027
  0.7920497811503324  0.3864057085670325  0.5825752235785799
  0.8125091296601781  0.5126050403607181  0.6834762709776783
  0.8166572633894233  0.6137168226107974  0.8123133782030152
  0.7966271285604307  0.7094089215880359  0.9145013086990019
  0.8002935761574861  0.8303256663367407  0.0089501000769800
  0.7907777529968101  0.9234781722203920  0.1117286959199362
  0.8005892928626395  0.0123261326294966  0.2039119582096092
  0.7888320259540293  0.1145668399868001  0.2887940164962046
  0.7699960083580777  0.1938463367425527  0.4152212849444652
  0.9223952319366546  0.3039666829429208  0.6080074378093059
  0.9141387911580310  0.3796922837347410  0.7041806312548147
  0.8847123470801748  0.4930103692950638  0.7874438909050951
  0.8920435081931188  0.6314212290773114  0.8733916150885292
  0.9010040822610819  0.7007591905861688  0.0200908294292290
  0.9215053650060483  0.8344536892114789  0.1210951734301133
  0.8822254230726898  0.8957717677334216  0.2015668523039693
  0.8781870867700405  0.9879660499285166  0.2838596256461017
  0.9018270146266332  0.0971673766633643  0.3850615321676045
  0.9312880835807746  0.1801437853293777  0.5049113401517644
  0.0157770979874599  0.3041193036401637  0.7116479252171999
  0.9984756687561855  0.3922116722753799  0.8165033621467046
  0.9782392213790843  0.5263454947762014  0.8531308474650814
  0.9831686884416584  0.5749922982514022  0.9845253650060499
  0.9983706965797836  0.6905571072253380  0.1021079775651614
  0.0113990397008692  0.7873641746398334  0.2051138972836242
  0.0238868351479127  0.8995523756735935  0.3137397906081603
  0.9905836084900486  0.9908468325085238  0.3897053812823046
  0.0088051657318786  0.0925800646651282  0.4852612440338717
  0.0121895295282073  0.1681411490157245  0.6148068998130398
  0.0929560285934201  0.2760742329264261  0.7828550590564163
  0.0903122973716037  0.3910143723743573  0.8659893425712113
  0.1033172321566056  0.5010456808534016  0.9695178766083785
  0.1060056487407905  0.5656823248652785  0.0795463279445698
  0.0959213839216986  0.7041263451006259  0.1742986292752633
  0.1233286910810492  0.7863019601891565  0.3001175488837546
  0.1161932391949847  0.9126019623886492  0.4079479335752794
  0.1111848899153216  0.0018493425712052  0.4930854125151214
  0.1034815286484090  0.0759347937974297  0.5929490786319178
  0.1202137178049014  0.1650918552732890  0.7085843642362235
  0.1801171520950149  0.2610136632574509  0.8977775985923273
  0.1863068905751675  0.3668717703728177  0.9843446554492488
  0.1926452581106375  0.4826423050698310  0.0785569325855064
  0.1829908127130793  0.6118488586825066  0.1817795077532196
  0.1890382843945915  0.6944728199714092  0.3073710317826865
  0.2265151272407380  0.7813634791597934  0.3777007025184176
  0.1930074250522367  0.9002124077862064  0.4935669253271726
  0.2466318693500469  0.0009822360057186  0.6066559291762914
  0.2114996661167936  0.0942036933905186  0.6974916639172974
  0.1930010878697885  0.1839235614208761  0.8202882516221237
  0.4000658568129296  0.3718616953700646  0.0009799568899140
  0.3884726228967352  0.4964929981304280  0.0905072270977669
  0.3843041306499515  0.6100234422082949  0.2100996885516366
  0.3907675680193563  0.6939090913889814  0.2955185311778266
  0.3709427172550335  0.7901054450676313  0.3964851881667215
  0.3744892303970104  0.9003838024854289  0.4930651903662167
  0.3703718618717673  0.0013786706257548  0.6003746147586071
  0.4193477796106890  0.1090589297261602  0.6965522736170655
  0.4111976984493566  0.1968403637963263  0.7813922283074888
  0.4373466468712195  0.2720758310788511  0.9169784920268356
  0.5041738084240635  0.3838902681183356  0.0983991756296021
  0.5265343530188034  0.5061682107115359  0.2017252022434874
  0.5114852801055747  0.6057665628505475  0.2713447372704252
  0.4970541462663576  0.6872003228857366  0.3594106055207291
  0.4805389358847449  0.7958810192455701  0.5077222201693630
  0.4930094411085477  0.9337491714505646  0.6076558957439815
  0.5117173927196745  0.0166702276476443  0.6760466833828218
  0.5403345536126665  0.1220478909050939  0.7778142219289563
  0.4983455150115503  0.1946397870889669  0.8976715152314938
  0.5104685780270515  0.3113411331793685  0.0032355407456279
  0.6187725564720097  0.4002622645991423  0.1939931292202814
  0.6247804948861742  0.4907295524029465  0.3118157945672522
  0.6114208806774428  0.5895609880127566  0.3957379764654121
  0.6035702021335112  0.7104578110634563  0.4901441922357890
  0.5773913397118662  0.7906777811503360  0.6214831012867066
  0.5969124412185209  0.9235184990652172  0.7171808723193678
  0.6096498123831537  0.0304198803475231  0.7778715873749036
  0.6009671043659992  0.1167107814802577  0.9361766418123807
  0.6117644060266159  0.2190943992081813  0.0147617384801464
  0.6064542514021767  0.2836094556252036  0.1181843132079621
  0.7089189376443414  0.3683179813043012  0.3167986851424160
  0.7066723413614895  0.5179320980974396  0.4117030652150007
  0.7015332669086121  0.6172072627295719  0.5296175660398106
  0.7054760263939315  0.7245413267348511  0.5896494050368446
  0.6993830797316605  0.7990193634663996  0.7086153617068049
  0.7150569449026705  0.8974856192675702  0.7827158513142010
  0.6756151404376993  0.9984346037611331  0.8901418779280732
  0.6694759164192234  0.0840596823930468  0.0032052405146814
  0.6838772550313408  0.1859264801495684  0.1199185426151956
  0.7048064929066342  0.2940536491806895  0.1876386829429251
  0.7909525582316093  0.3931022492026841  0.4216542030133041
  0.8153480541075524  0.5069768204113032  0.5033592926426920
  0.7977885305179839  0.6043526695260084  0.5913516815132525
  0.8158940560871031  0.7306120866600665  0.6707694067964383
  0.7864946952600889  0.7974898642912152  0.7955119819641467
  0.7928471483558752  0.9082197708127140  0.9141326145386586
  0.7746186965797861  0.0059505492136793  0.0077737538766058
  0.7981025870449798  0.0809190920488305  0.0878134296711721
  0.8018416500604886  0.1993535787968739  0.2054435332673492
  0.7970184533157365  0.2953791602331464  0.3036466649070704
  0.9161831782689944  0.3780070093478471  0.5282447113163968
  0.9178877255031352  0.5107846550093456  0.6237889242274264
  0.8971261348289872  0.6440721939953775  0.6946626877818076
  0.9034874430880890  0.7319219540305753  0.8003766598482329
  0.8818008749587563  0.8009757897283620  0.9016888212911027
  0.8857380494886158  0.8907076111294430  0.0286719648080975
  0.8961174481469243  0.9997660750027464  0.1257244271417548
  0.8950176210271650  0.0918166435719812  0.2030628188716577
  0.8910327187946763  0.2129864678324012  0.3027524596942683
  0.8954010271637500  0.2885749723963471  0.4021211547344095
  0.0253896157483808  0.4000239929616214  0.6269187462883536
  0.0048502689981333  0.4862023631364778  0.7250163246453312
  0.9894894221928965  0.6093328863961318  0.7742127891784918
  0.9810251045859459  0.6981931147036207  0.9146894516661135
  0.0074473911800297  0.8115274993951402  0.0159282445837476
  0.9968798992631704  0.9102059830638964  0.0983480321126109
  0.0203598891454959  0.9950157914879583  0.2297469231276779
  0.9941728248102919  0.1227670203453215  0.2859455717584964
  0.0230498788078748  0.2046964187836764  0.4043055290883117
  0.0147848424062431  0.2634669275266717  0.5200851362586576
  0.1153863459804256  0.4175931542945150  0.6913564267018586
  0.0778188443857886  0.5146734591443973  0.7915866187176945
  0.1055345175409670  0.5953854067964386  0.8678776980094582
  0.0833122634993941  0.7138311633124346  0.9809382870339789
  0.1050861889365464  0.8030977186847039  0.0753874914769597
  0.0892358121632029  0.8933608102936290  0.1798400985373334
  0.1164317118662694  0.0077514839986819  0.2991822742769159
  0.0848044416584202  0.0925033207962187  0.4142969805344805
  0.0937397769712973  0.1941727979764636  0.5225689796546789
  0.1088512675684612  0.2635700173760043  0.6072358627515655
  0.2018045283184833  0.4099749767953398  0.8257672169800969
  0.2159210192455703  0.4953051432970383  0.8976959168591208
  0.1708219452325963  0.5949173760035222  0.9878632715275515
  0.1637245947432078  0.7006342549213684  0.0816477523369628
  0.1715531692510694  0.7860389583195868  0.1941838328384478
  0.2104268003959078  0.8691199577697120  0.3053613949191671
  0.2055360448696817  0.0045363774331904  0.3887657305619712