Li 
 1.0000000000000000
    22.7325000000000017   -0.0000000000000006    0.0000000000000000
    -0.0000000000000006   22.7325000000000017    0.0000000000000000
     0.0000000000000006    0.0000000000000006   22.7325000000000017
 Li 
 500
Cartesian
  0.0010118500000000  0.7179332700000000 -0.1956557500000000
 -0.2756342300000000  2.4461521099999999  2.7430494799999998
 -0.3687175800000000  5.1379881400000000  4.8280046900000002
  0.0197497600000000  7.0629223999999997  6.3301894699999997
 -0.5448864200000000  8.5255351200000007  9.8221857999999997
  0.0801852000000000 11.2729144600000009 12.2320820700000006
 -0.3060010100000000 14.1975320899999993 14.2530733000000005
  0.0004526300000000 17.5099217899999999 15.5423572199999995
 -0.3289609100000000 18.6969159199999986 18.6161204699999985
 -0.4441604800000000 20.9618189999999984 20.5917703100000011
  2.3468686000000001  0.2042300900000000  2.4572386499999999
  1.9813015300000001  2.4680136699999999  4.7018311900000000
  2.3687835599999998  4.5871414599999998  7.2533077900000000
  2.1616256800000002  6.9959894499999997  9.4700855799999992
  2.7887595599999999  9.0633073999999993 12.4146955999999999
  3.0242632399999998 12.1169316200000008 14.4368830300000006
  2.4752793999999998 14.3938454399999998 16.3273925499999990
  1.7092195400000001 16.2118934500000016 18.3382783700000012
  2.1461955200000000 19.2723003999999989 20.7427710900000015
  2.3305596600000000 21.1292462599999986 22.7383025299999986
  3.9648702899999999 -0.0375166600000000  4.6087903800000003
  4.1468720100000001  2.0952639799999999  6.9838081399999998
  4.4016891200000003  4.6137378699999996 10.0522781099999996
  4.8592012499999999  6.8100946499999999 11.8719815400000002
  4.6302310200000001  9.1402458000000006 13.9368243900000000
  4.5610237800000002 12.2337786200000007 16.3101308699999983
  4.6389788200000002 14.2811810799999996 19.0537621000000001
  4.0203166100000001 16.4509028499999985 20.8458435599999987
  4.3685163100000004 18.1721719399999984  0.2123874400000000
  4.7403453400000002 20.6048601200000014  2.2885637900000000
  6.8708961100000003 -0.4356116800000000  6.3744425199999997
  6.9647931999999999  2.2816775699999998  8.3147572699999994
  7.0201884500000000  4.6752948800000000 11.2552699700000005
  7.4087671899999998  7.1367892199999998 13.7661977699999998
  6.5064356400000003  9.0918488600000007 16.5961210799999996
  6.8551414499999996 11.5368140599999993 18.6571613599999999
  6.4528954699999996 14.0867223900000003 21.4282765499999996
  6.0566812399999996 15.9247185400000006  0.1208126100000000
  7.0739799400000001 18.2108894300000017  2.1709988199999999
  6.5922852199999999 20.4368172500000007  4.4498607999999997
  9.1630116099999999  0.3739964000000000  9.0542780000000000
  9.4238402400000005  2.2952127299999998 10.6239686199999994
  9.6191811299999994  4.9836028499999996 13.4322085599999994
  9.3927924100000002  6.9550698500000001 15.8761493300000005
  9.3239026500000008  9.6857297800000008 18.3478732800000017
  9.2792996399999996 11.3638451200000006 21.1778738199999985
  9.3040490299999998 14.1363614200000001  0.2831771000000000
  9.1363681099999994 15.4579032099999996  2.4791641000000002
  9.3158007499999993 18.5424811799999993  4.0884226999999997
  8.8330511099999995 20.5336522399999986  6.6932287800000001
 11.7381965200000007 -0.3604868500000000 11.3816527700000005
 11.8488077300000008  2.1982463100000000 13.2538924700000003
 11.8780240300000006  4.5737853800000003 15.3128960400000000
 11.2809166800000007  7.1503798700000001 17.7573559699999990
 11.5280681699999992  9.1459554000000001 20.6754332599999984
 11.5058040699999999 11.8275640200000005  0.0464613500000000
 10.8233160700000006 13.4985181300000008  2.3617593299999999
 11.2557581899999999 15.9971090599999997  4.2407992900000000
 11.1400596400000005 18.8909713799999999  6.6603404800000003
 10.9580609599999992 20.6083486700000016  8.9276117399999997
 14.2466559999999998 -0.0140405200000000 13.2187493899999993
 14.0289917800000001  2.2981451800000001 15.5800743599999993
 13.7386423799999999  4.8436614200000001 17.7385717599999992
 13.2341229100000000  6.7101118599999996 20.1672546699999984
 13.7645035500000006  9.6083650699999996 -0.4495516900000000
 13.8444266099999993 11.5924720899999993  2.0563165799999998
 13.8653660999999992 13.1094690899999993  4.6501930700000003
 13.9184019200000009 15.8555317799999997  6.9261129400000003
 13.3174007099999994 18.3226283499999987  8.0280644900000002
 13.5221962100000006 20.4813393999999995 11.3981628599999993
 15.9511633800000006 -0.2162133700000000 15.6312466099999998
 15.4339685000000006  2.0621572800000001 17.5186617899999995
 15.5256030500000008  4.5190346400000001 20.2309906499999990
 15.2861811000000003  6.3311885800000001 -0.0307452200000000
 16.3478255799999985  9.7267165799999997  1.6399497900000000
 16.5008862100000009 10.5053596000000002  4.2841238900000000
 15.5115099500000007 13.3136529400000008  7.1793900500000003
 16.2416977299999985 15.9311714400000000  8.9506950799999991
 15.6668243500000006 18.7649190700000013 11.2207216499999998
 15.7140959099999993 20.0712828399999985 13.9237305100000004
 18.1213173199999993 -0.2636693000000000 18.1263019900000018
 17.7143785800000018  2.0749383899999998 20.8002059899999985
 17.9530153699999993  4.2895650700000001  0.1921106100000000
 18.1294443200000011  6.8659598099999997  1.7911466700000001
 18.1059465800000012  8.7414031800000007  4.1729281800000004
 18.2077402100000008 10.8125018300000004  7.1722434000000002
 18.0360851199999992 14.0552277199999995  9.4968476299999995
 17.8970299799999992 16.3861728199999988 11.7926785200000008
 18.0449875099999986 18.7187805500000017 12.9018196500000002
 18.2942652400000014 20.5760722499999993 15.2223186300000002
 20.1167793099999983 -0.0619732200000000 20.2100944399999989
 20.7127421500000004  1.8929779499999999 22.6994069799999991
 20.1306600600000003  4.2516510299999997  2.1500113600000001
 19.8785870299999985  7.1017762900000001  4.1053111800000002
 20.1372956899999984  8.4455022000000000  6.7096349200000001
 20.7701818299999985 11.2217542699999999  9.6339376800000007
 20.4234790100000012 13.7573852599999995 11.4968176900000003
 20.6920773400000009 16.5372671199999992 12.6436573499999998
 20.5765917800000011 18.4851791399999996 15.0162157599999997
 20.0304457300000003 20.0367990300000010 17.5258350000000007
  2.4639086400000001  1.9365813300000001  0.6414604000000000
  2.2196305500000002  4.3532592799999996  2.5709807300000000
  2.2589019200000000  7.1428393200000002  4.5748818299999998
  2.4565187900000001  9.0906440300000000  7.3809622199999998
  2.3296903400000000 11.5122469499999998 10.1454448199999998
  2.4971285999999999 13.7177278200000003 12.2013165600000004
  2.8440024799999999 16.2401004899999997 13.6275604000000001
  2.8247430200000001 18.7032868100000016 15.9810928699999995
  2.5877557699999998 20.1132582400000004 17.9732476699999992
  2.5626961200000000 22.4719469200000006 20.1449142399999985
  4.3487080699999998  1.7676268500000001  2.4444087300000001
  4.4315343299999999  4.1183113599999999  4.7334430300000001
  4.5632531399999996  6.2992745399999999  6.6603200600000001
  4.5123085200000004  8.7646834600000005  9.3330957500000000
  4.5494101599999999 11.2892892499999995 12.3711213000000004
  5.1334208500000003 14.4105826799999992 14.3981465199999992
  5.1587407499999998 16.0818800599999996 16.4616359500000016
  4.9516145700000003 18.7021790400000008 18.5855769600000009
  5.1238818999999998 20.1432848000000000 20.5091333499999990
  5.0728047299999997 22.4317937299999990 22.8404441600000006
  6.9803968999999997  1.9968114200000000  4.8722523799999999
  6.5261676900000003  4.7594173399999997  7.2739780300000003
  6.5721163300000001  6.7751067699999998  9.6268375299999995
  7.0294650299999999  8.9503630199999993 11.4613389500000000
  6.3008660299999999 11.5293785900000003 14.2706722799999994
  7.3218769699999999 13.8525143199999992 16.4003788099999994
  6.8511178599999996 15.8185028400000007 18.3327021799999983
  7.3807595900000003 18.0897108300000014 20.7337092699999985
  7.0427169100000002 20.0827701999999988 -0.0255092100000000
  6.8998477500000002 22.2599948800000007  2.3151427700000000
  9.1842831399999998  2.5485693100000000  6.6860971100000004
  8.9934965899999995  5.1134296399999997  9.0910161600000006
  9.4445428400000004  6.8458815000000000 11.9380433600000000
  8.6766983100000008  9.3458571199999998 13.8905218999999995
  9.5418289299999994 11.9679851199999998 15.6389496099999992
  8.7126415399999999 13.3205870599999994 18.4925602200000014
  8.8452239800000001 15.8649524300000007 20.3784551399999998
  8.9027084199999997 18.0058542400000015 -0.0222552200000000
  9.2584650600000007 20.4678936799999995  2.0064491900000001
  9.3102263300000008 22.8223068299999987  4.8646325900000003
 11.3314077900000001  1.7011944900000000  9.3236784400000001
 11.2274387000000004  4.3691603399999996 11.0082141700000005
 10.8522756999999999  6.8844570799999998 13.4048337499999999
 11.5079491800000007  9.0542387000000009 15.8224560400000005
 11.8049441399999999 11.5959315499999995 18.6021513100000000
 11.0830417000000008 13.8933797499999994 20.3205474799999983
 11.1973460599999992 16.2480028099999991  0.3707350400000000
 11.4305383900000006 18.4349822900000007  2.4018897699999999
 10.9974494899999993 20.6390448199999987  4.5366832199999996
 10.6117794599999993 22.4053306100000000  6.8066734899999997
 13.9473120500000007  2.5978718900000000 10.5452680000000001
 13.6409321699999992  4.3226166299999997 13.3946008100000000
 13.3165807300000001  6.8714260200000004 15.2389338799999994
 13.4020254100000002  9.5056408000000001 17.7189561200000014
 13.6550948699999992 11.3302001600000004 20.5362037400000013
 13.2096561200000000 14.1354631000000008 -0.0596998700000000
 13.6217611400000003 15.3780368700000007  2.8782793600000001
 13.4383559500000000 18.1158381499999983  4.8452497499999998
 13.7823364799999997 21.0074360400000018  6.2081254200000000
 13.4375144599999992 22.6218165599999992  8.9434317599999993
 16.7428348599999985  2.6997716999999999 13.8367090499999996
 16.0038857800000009  4.9719884199999997 15.0896987199999995
 15.5876741100000000  6.5244769199999997 17.8269430900000003
 15.5685765899999993  9.4340080900000007 20.4722977499999992
 15.8598295999999994 12.0288538299999992  0.2816522200000000
 15.8957446699999991 12.9889039299999993  2.0836659300000000
 15.8840983700000002 15.6681866400000001  4.4886923400000001
 15.5719848299999999 18.1410419099999984  6.6045138000000003
 15.5325806199999992 20.5019504999999995  8.7974775300000001
 16.2363047099999989 22.9576603900000009 11.7081897799999997
 18.0617237000000017  2.7990853300000000 15.9970333300000007
 18.1198003599999993  4.3184169800000003 18.3021870299999989
 18.1692759899999992  6.6084710099999997 20.5672962099999985
 18.1621493399999991  9.4391598800000001 -0.0531706200000000
 18.7294069999999984 11.3205591699999992  2.2303499900000001
 18.2064020100000015 13.0785009599999995  4.6124488399999999
 18.1794531699999986 15.8218080699999994  7.4953058900000000
 18.1814859899999988 18.4308412200000014  9.0251205199999998
 18.4365140799999985 20.4464676800000014 11.3935865100000004
 18.1612649300000015 23.0385539500000007 13.4408245399999995
 19.8339694100000017  2.1768007900000002 18.3200000900000006
 20.4574823499999994  3.7460047699999999 20.6314621699999989
 20.2118461700000012  6.9567362800000003 -0.2801869800000000
 20.1050080999999992  9.5599682999999995  1.5729836200000000
 20.9519147900000000 10.7505482000000008  5.0860876399999997
 20.9783524700000008 13.7026982299999993  6.9555358399999996
 20.6456488799999995 16.4085749199999995  9.1750631100000000
 20.9443553499999986 18.5964783500000017 11.7649290299999993
 20.9094197199999989 20.8716234900000011 13.6431148199999992
 20.1411299300000017 23.0438663400000010 15.7999898999999999
 22.9351667900000002  1.8735127300000001 20.1524925099999983
 22.6562801600000014  4.1788030300000001 23.1790550800000013
 22.3442019199999997  7.3115364600000001  2.0483156000000000
 23.0147242299999988  8.5542773200000006  4.2929105500000002
 22.9814286500000016 10.9389173100000008  7.2950801199999997
 23.4250295199999989 13.6648069900000007 10.0449235699999999
 22.9809807500000005 16.1560250299999986 11.6672614299999999
 23.6450615400000004 18.7099979099999985 13.9022913700000004
 22.6278748299999997 20.8726392899999986 15.6759492799999993
 22.5671026700000006 22.3298631900000011 18.3525872399999983
  4.6554376700000004  4.2621597800000002  0.0221992500000000
  3.9889965799999998  7.0665648799999996  2.3876598699999998
  4.0264221999999998  9.2698627800000004  4.5085821499999996
  4.2440129899999999 11.5889423899999997  7.0272475200000004
  4.1756021700000003 13.5467959600000007  9.4948348599999992
  4.1641311500000002 15.9523764000000003 11.5977044300000003
  4.8793436100000003 18.0562458600000006 13.6006512300000004
  5.1955273200000001 20.5473514000000002 15.6616743399999994
  5.0711512799999996 -0.1573351300000000 18.2476997499999989
  4.6908138900000003  2.3828565700000000 20.6379304200000000
  6.5081128699999997  4.5860832399999998  2.8617441299999999
  6.1862948800000002  7.1748788899999996  4.1709573300000002
  6.3106677400000004  8.5081017800000005  6.3420463099999997
  6.8046211699999999 11.0134793099999992  8.8767698199999998
  7.1017594400000004 13.7104822700000000 11.0206091300000004
  7.1032030600000002 16.1734856700000016 13.6529222099999998
  6.9803154400000000 18.3326527299999995 16.3014275700000013
  6.9608813800000000 20.7088238000000011 18.1518406799999994
  7.0970473199999997 -0.1150771000000000 20.2023493700000003
  6.8856465000000000  1.8369081599999999 23.3449415900000012
  8.8128983600000002  4.2551075699999998  4.8705935699999996
  8.5848676000000008  6.2659920500000004  7.3015184599999996
  8.9520688400000008  8.4708157300000000  9.2101819999999996
  8.9347822200000007 11.0775910199999998 11.5869350699999991
  9.0151681900000007 13.8830732999999995 13.3819065399999992
  8.4483636299999993 15.9384686999999996 15.7471844200000000
  9.2320611400000008 18.2716906600000009 18.4827255100000016
  9.2361543600000005 20.4305355900000016 20.3402419799999983
  9.0679061599999997  0.2672230400000000 -0.7860991899999999
  9.1246008500000002  2.4250688199999999  2.1824749500000000
 11.1302488600000000  4.0890634099999996  7.1192544199999999
 11.0860837700000001  5.9662051399999996  8.7940081800000005
 10.7587752999999999  8.8661823299999991 11.2251723200000004
 11.3419144999999997 11.3672160099999999 13.4848388299999993
 11.4476911900000005 13.9025225399999997 16.0397973600000014
 11.0124622300000006 15.5735758900000008 18.4230197900000014
 11.5985753999999996 18.1189518099999987 20.3199257700000011
 11.5088000099999999 20.7510569400000016 -0.6361143000000000
 11.2301376600000005 -0.0432045800000000  1.7489460900000000
 11.3681922400000008  1.9400816599999999  4.3631899399999998
 13.8791894899999999  4.2423857099999998  8.7489774100000002
 13.0793679399999991  6.7128060800000000 11.1398432599999992
 13.5011704100000003  9.0076273699999998 12.9633900799999999
 13.9380971400000000 11.6162893300000007 15.3766834600000006
 14.0532393399999993 13.6510245999999995 18.2943458300000010
 13.5803688099999995 15.6478742099999995 20.2947430100000012
 13.5303082600000000 18.0396413500000001 -0.1172292700000000
 13.3300507699999997 20.3510411100000006  2.6443156000000001
 13.1677033500000000  0.6777193600000000  4.5883573599999998
 12.9376285299999996  1.9211465900000000  6.9509556999999997
 16.0027398100000013  4.8885721300000000 11.4225996300000006
 16.0220751300000011  7.0703623300000000 13.3072900199999999
 16.1958025700000015  9.0949823999999992 15.6011377099999997
 15.9159059400000000 11.8826208999999992 18.0914314800000007
 16.1657781100000015 13.0200204199999998 21.0046592700000012
 15.8846932800000005 15.8950183700000007  0.1451371400000000
 15.2285093000000007 18.3466667500000007  2.2853608300000001
 16.1443732100000013 20.7870311500000007  4.3943078599999996
 16.2255710200000003  0.4282681400000000  7.0645856399999998
 16.1096134400000004  2.2085333399999998  8.5598661000000007
 18.5204625800000002  4.7072062499999996 13.5474637100000006
 18.4952027900000004  6.7355203699999997 16.0416523700000013
 17.5554739200000007  9.2873030300000003 17.8019983800000006
 18.2513489799999995 11.4912717700000009 20.7294551100000000
 18.9870161499999988 13.3672071599999995 -0.1812728000000000
 18.5418600200000014 15.4849979500000003  1.8345059300000000
 17.7904139800000003 17.7990550300000017  4.5145576399999996
 18.0089731800000017 19.8963806699999992  6.5756449500000000
 18.3678095600000013  0.0250663900000000  9.1024906600000008
 18.2541595000000001  2.7970330300000001 11.3031001599999996
 20.3837034300000006  4.2910496399999998 15.9606869099999997
 20.6083122199999984  6.3206388599999999 18.7692489599999988
 20.4606463500000011  9.0479051300000002 20.2117777600000004
 20.6959814000000009 11.0884238600000007 -0.9220388900000001
 21.0413146500000003 12.4766707399999994  2.7509416600000001
 20.2615910399999990 15.5160924700000002  4.4603915699999996
 20.8798500800000006 18.2764001600000014  6.3234250799999998
 20.5569570599999984 20.4215750400000005  9.3479261999999999
 20.6507762300000017 -0.1702942300000000 11.2360216000000008
 20.3366948399999998  2.1030055100000000 13.5520142299999993
 -0.4109924600000000  3.8043228000000000 17.9963717999999986
  0.0669521200000000  5.6980276200000004 20.6219894100000012
  0.0141230400000000  9.3572393900000002 -0.7834113000000000
 -0.2345571000000000 11.1856285900000003  2.6546479199999999
  0.3040207000000000 13.2215484100000005  4.7377298699999999
 -0.1535816000000000 15.9951302900000005  7.4909458500000001
 -0.1071727800000000 18.3644182100000002  9.1896872799999993
 -0.0968676900000000 20.6954745899999999 10.9716786400000004
 -0.2191265000000000 -0.1255692100000000 13.9011847999999993
 -0.1929811500000000  1.0948468600000001 15.8200164700000006
  2.0509913200000001  3.5730157000000000 20.4271242499999985
  2.0663830299999999  6.6389207199999998 23.1936773900000013
  2.0480416400000001  9.4502410999999995  1.6968152200000000
  1.6538492499999999 10.9425935600000006  4.1783197400000001
  2.5204491800000000 13.6913853200000002  7.0363596099999999
  2.4981531800000001 16.1602523100000006  9.1478012500000006
  2.5420800400000001 19.0585314399999994 10.7491534000000009
  2.5868299399999999 21.5722001100000007 13.5299397700000004
  2.7431452699999999 -0.1295057000000000 16.1276774200000013
  2.2837294699999999  1.3485705200000000 18.4522072299999991
  6.8309324800000004  6.8923882900000004  0.2925372800000000
  6.7193782100000004  9.0549845300000005  2.1972668400000002
  6.1891193199999996 11.1216996100000003  4.4803554999999999
  6.3284520899999999 13.8197214699999993  5.8850232699999996
  5.8889145799999998 15.6645109599999994  8.4848909999999993
  7.0274931000000000 17.8444198599999986 10.8380913900000007
  6.6079832500000002 20.3661347299999989 13.3581070999999998
  7.5215490200000001 -0.1883784500000000 16.2003531800000005
  7.1115995099999996  2.0531964600000001 17.8021707199999994
  7.3176803799999997  4.4087369900000004 20.4324221900000005
  9.3661322400000007  6.7517056499999999  2.4628287100000001
  8.9997467199999992  9.0169881800000002  4.7732798900000004
  8.8883392299999997 11.7588593499999998  7.0564583200000000
  9.4068668100000004 13.8400824599999996  8.4463289800000005
  8.6062956300000000 15.5654425100000005 10.5149682900000006
  8.9232326999999998 18.6100141599999986 13.4386411100000007
  8.9614808799999999 20.7521378100000007 15.2609642000000001
  9.6564291799999999 -0.0505813700000000 17.9218943400000015
  8.9413939100000004  2.8151208900000002 19.7671402799999996
  8.9310747900000003  4.6674348700000001 22.7245119500000001
 10.9619848700000002  6.8411654400000002  4.7046747000000000
 11.2555640500000003  9.0029685100000005  6.4774073699999999
 11.4167341100000002 10.7923635699999991  8.8435144700000006
 11.5814069499999999 13.3885276999999991 11.3554788099999993
 11.3186086600000007 15.5944316900000004 13.4350214000000001
 11.1239131800000006 18.5492293299999993 16.2876609200000004
 11.6003215500000003 20.5758254299999983 18.6851036499999985
 12.1966170100000006  0.9365817000000000 19.9467049400000001
 11.4487088299999993  2.7192790300000000  0.2746666100000000
 11.6094808900000004  4.5771322400000001  2.5029820400000000
 13.1463539500000000  7.0250270900000000  6.8378132300000001
 13.9982424099999996  9.1256903000000005  9.3128996599999994
 13.7047197000000001 11.6298090599999995 11.5726658800000006
 13.7689680299999999 13.7765107699999998 13.9576805299999993
 13.9182916500000005 15.8948919199999992 16.2237848800000002
 13.4364174199999997 18.0614688299999990 18.4191155799999997
 13.6654768200000003 20.3522981899999991 20.4860059099999994
 13.7053481799999997  0.1478455700000000  0.0758029600000000
 13.1068616599999999  2.1162754100000001  2.2376725099999999
 13.1686875400000005  4.0078839799999999  4.8147458099999998
 15.7008908199999997  6.2282642800000003  8.9007160800000005
 15.6710635600000003  8.8196559499999996 11.1798777000000005
 15.8969032200000004 10.9021082699999994 13.6458294599999999
 16.0498681699999999 14.2975286700000002 15.8117258799999991
 16.6729861100000001 15.6979460900000003 18.3659487400000003
 15.5131028200000003 18.4593686000000012 20.6877618100000014
 15.5860887199999993 20.0545254700000015  0.0589990100000000
 15.8040002299999998 -0.2367039600000000  2.1549725099999999
 15.3645543799999995  2.3961522300000002  4.6501818300000002
 15.4485467799999991  4.3114024400000002  6.2491463500000002
 18.2727891699999994  6.4299924199999996 11.0067790599999995
 18.0052716500000010  8.7839677700000003 13.2433912700000000
 18.4703637900000004 11.6527940799999996 15.5371243299999993
 18.5646612399999995 13.9513176699999999 18.4659138700000014
 18.1093262000000017 16.1266383100000006 20.7889009999999992
 18.1926737199999984 18.8753782100000009  0.2034581500000000
 17.9763552699999991 20.9929675499999995  2.5398725799999999
 18.1993961000000013  0.2802038100000000  4.6354285900000001
 17.9321240300000007  2.6043906899999998  6.5650099800000001
 17.5039342600000012  4.4066118500000000  9.4390178599999999
 20.9683496100000006  6.9099226199999997 13.8215290799999995
 20.7806600699999997  8.6313548400000002 16.0077862000000017
 20.1117234300000014 11.2073582199999997 17.9005682499999992
 20.2783790500000016 14.3537830900000003 19.8543748899999990
 20.4820753000000018 15.9300083000000008  0.4567147800000000
 20.9481207100000013 18.9692184899999994  2.7527960299999998
 20.0551894299999987 20.3631317100000011  4.5821184700000002
 19.9633879500000013 -0.2735617700000000  6.4528389400000004
 20.5007826100000017  2.2088573899999999  8.7534112799999999
 21.1705063600000010  4.0951186000000002 11.4778970400000002
  0.3586528800000000  6.9133920699999996 16.1775364599999989
 -0.0346518600000000  8.9159518400000000 18.5611626799999989
 -0.4946769000000000 11.9651489600000005 19.3937969899999985
 -0.3826177900000000 13.0710124200000006 -0.3517771400000000
 -0.0370381400000000 15.6980894400000004  2.3211696000000002
  0.2591286700000000 17.8987560999999999  4.6627516699999996
  0.5430074800000000 20.4490743799999990  7.1320897900000002
 -0.2140581200000000 -0.2080743800000000  8.8589775799999995
  0.2001634300000000  2.1045763200000001 11.0312012300000006
  0.2770984800000000  3.8222686700000001 13.9760978500000004
  2.1131229199999999  6.2758574999999999 17.7962526300000015
  2.0530243000000001  8.8887342199999999 19.6861027300000018
  2.3486589800000002 11.3900209399999994 -0.6929348700000000
  2.4097734100000001 12.8593734499999997  1.8082868999999999
  2.1805328600000000 16.0065521400000002  3.9622435899999999
  2.8035694699999998 17.8746093100000003  6.8224221800000002
  2.6413628099999999 20.7457241100000012  9.2736763999999994
  2.5275105099999999  0.0420401800000000 11.2090641400000006
  2.3523938499999999  1.7261877000000001 13.4792149299999995
  2.7327583400000002  3.7529506000000001 16.1078940599999996
  4.0945131600000000  5.9334930999999997 20.4087292600000012
  4.2352213900000004  8.3399125200000004 22.3766148800000018
  4.3793083299999997 10.9716661999999996  1.7857954700000001
  4.1598386500000002 13.9088541800000005  4.1323026599999997
  4.2973128000000003 15.7871033799999996  6.9873119800000003
  5.1492551300000002 17.7623452899999990  8.5860812200000005
  4.3875412899999997 20.4640785600000008 11.2200101300000004
  5.6065589700000000  0.0223286800000000 13.7908059099999996
  4.8079161600000004  2.1414854600000002 15.8557292499999996
  4.3873972300000004  4.1810423600000002 18.6472026799999995
  9.0944970900000008  8.4533459900000008  0.0222768700000000
  8.8309539000000008 11.2865270800000008  2.0574555399999999
  8.7361936500000006 13.8673579000000000  4.7760911699999999
  8.8831237400000003 15.7742884199999995  6.7178750100000002
  8.4324553200000008 17.9610720300000004  9.0130995400000007
  8.5130764299999999 20.4679747899999995 11.2086044400000002
  8.4194783500000003  0.0313406300000000 13.6480159299999997
  9.5328233999999998  2.4791821199999999 15.8343745600000005
  9.3475516800000005  4.4746735700000002 17.7629988300000008
  9.9419826499999999  6.1849638300000001 20.8452135699999985
 11.4611310999999993  8.7267855200000000  2.2368592600000001
 11.9694421799999997 11.5064688499999992  4.5857181599999999
 11.6273391299999993 13.7705883900000003  6.1683442399999997
 11.2992833800000003 15.6217813400000001  8.1703015899999993
 10.9238513600000005 18.0923652699999984 11.5417953700000009
 11.2073371200000000 21.2264530399999991 13.8135376500000007
 11.6326156300000001  0.3789559500000000 15.3682312299999992
 12.2831552399999993  2.7744536800000001 17.6816618000000005
 11.3286394200000000  4.4246489599999999 20.4063177200000005
 11.6042269499999993  7.0775623100000002 22.8060519299999989
 14.0662471399999998  9.0989619299999998  4.4099488100000004
 14.2028225999999993 11.1555095499999997  7.0883525499999998
 13.8991251699999996 13.4021951599999998  8.9961135500000005
 13.7206596199999993 16.1504821900000017 11.1422028500000003
 13.1255486300000008 17.9740826600000005 14.1278646000000006
 13.5693120700000005 20.9938842799999996 16.3033141800000010
 13.8588643600000001  0.6915199300000000 17.6829658599999995
 13.6614847000000008  2.6531278399999998 21.2816355100000010
 13.9069343599999993  4.9805634300000001  0.3355712200000000
 13.7862212700000004  6.4471519500000003  2.6866249000000000
 16.1154997500000015  8.3727885099999995  7.2016261100000003
 16.0644290000000005 11.7738914200000000  9.3590399299999998
 15.9476049900000003 14.0306640999999992 12.0395313200000000
 16.0372337700000003 16.4706357099999998 13.4042051000000004
 15.8987258600000008 18.1637076800000017 16.1085987099999990
 16.2550319999999999 20.4020918400000006 17.7930880900000012
 15.3584211800000006 -0.0355853700000000 20.2351502399999994
 15.2188612699999997  1.9108867300000001  0.0728631300000000
 15.5462396999999992  4.2265737100000003  2.7260482700000002
 16.0220136000000011  6.6845745799999996  4.2654963600000002
 17.9803290300000000  8.9361968800000007  9.5852541700000007
 18.5348996399999990 11.5248505699999999 11.4426151199999993
 18.1357277699999990 13.7384470600000004 13.4429020999999995
 18.5473116299999994 16.6086392600000003 15.2482655400000002
 17.8789906599999995 18.1289383400000013 18.0839761299999999
 18.0233978000000015 20.6461059400000018 20.7805196599999995
 17.6090195200000004  0.1352708600000000  0.1767168600000000
 18.1428670600000004  1.8394932600000000  1.9962187899999999
 18.2278653099999985  4.5318052299999998  4.6702451199999997
 18.1182219899999986  6.7147067600000003  6.9026478100000004
 20.8271340999999985  8.5930443400000005 12.0083228999999996
 20.8658827199999983 11.6114121699999995 14.1802817200000000
 20.3939198600000005 14.6413711499999994 15.7914195500000005
 20.5385282999999994 16.6384158199999987 18.1945624200000005
 20.0455383900000008 18.2081821400000017 20.4976411300000017
 20.1350402099999997 20.2480107700000005  0.6517854400000000
 20.3709898900000006 -0.0053177000000000  2.8580305400000001
 20.3459880700000006  2.0872218500000002  4.6161255299999997
 20.2554012800000010  4.8417148799999996  6.8823202900000000
 20.3547038499999999  6.5600305600000004  9.1412191499999995
  0.5771694400000000  9.0935454199999999 14.2514304000000003
  0.1102587400000000 11.0525952200000006 16.4814335999999990
 -0.2389317100000000 13.8516598399999999 17.5997922299999985
 -0.4313468100000000 15.8716749799999999 20.7931779600000013
  0.1692978200000000 18.4480488800000018  0.3620888200000000
 -0.0709276900000000 20.6912575099999998  2.2356966400000000
  0.4628311800000000 -0.1133035200000000  5.2227219299999996
 -0.1324662600000000  2.7908012900000001  6.5002577099999996
  0.5239813700000000  4.6532613400000002  9.1908754399999992
  0.3360964300000000  5.9892619299999996 11.8228353599999991
  2.6230201100000001  9.4929363799999997 15.7162599699999994
  1.7690168799999999 11.6998144100000001 17.9947428100000018
  2.3990634200000001 13.5345987599999997 19.7290297700000004
  1.8938960300000001 16.2271669199999984 -0.4333203900000000
  2.3888717900000001 18.2564188899999991  1.7137461500000000
  2.0285530999999999 20.3083246200000005  4.0882150399999997
  2.6467838900000000  0.1762106100000000  6.8011610500000002
  1.9278169700000001  2.1028317400000001  9.4180061100000003
  2.1309394799999999  4.4140331300000000 11.8792993300000003
  2.4744614399999998  5.9916054200000000 13.8039892500000008
  4.5875214399999997  9.3197561600000007 18.7717532600000006
  4.9084245700000002 11.2595241700000006 20.4068724300000000
  3.8832098700000000 13.5239592500000008 -0.2758981800000000
  3.7218693500000000 15.9271682000000006  1.8560575300000000
  3.8998324200000001 17.8686306200000011  4.4142839800000004
  4.7835272399999997 19.7572694400000017  6.9416279100000002
  4.6723481400000004  0.1031232000000000  8.8376169699999991