Li                                      
   1.00000000000000     
    21.6720000000000006    0.0000000000000000    0.0000000000000000
     0.0000000000000000   21.6720000000000006    0.0000000000000000
     0.0000000000000000    0.0000000000000000   21.6720000000000006
   Li
   432
Direct
  0.9912275249169440  0.9956329134366939  0.0083904365079377
  0.9062878313030609  0.0833741588224441  0.0737788372093036
  0.8452247323735662  0.1684430938538171  0.1517601582687362
  0.7539072646733089  0.2570851121262479  0.2593792271133282
  0.6630535589700983  0.3584954157438176  0.3521905047988199
  0.5852556169250676  0.4305841297526740  0.4246696405500217
  0.4954950064599473  0.5103469901255053  0.4996716786637165
  0.4085508231819830  0.5960459159283857  0.5843223952565495
  0.3305119006090820  0.6883148855666263  0.6796854734219266
  0.2390996677740844  0.7508532276670365  0.7370822522148401
  0.1588224127906983  0.8480091375968968  0.8142935266703546
  0.0927219010705045  0.9151411060354349  0.9253820519564400
  0.0894287310815827  0.9073339258028810  0.0674908573274280
  0.0065094919712081  0.0025180181801403  0.1514376130490973
  0.9135863672019227  0.0855549515503853  0.2399721940753068
  0.8349850355297121  0.1673771728497613  0.3496586152639338
  0.7490500221483956  0.2733512241602085  0.4351783564045775
  0.6751961032668845  0.3395358467146536  0.4935236457179784
  0.5953771160944967  0.4382903377630143  0.5838930071059423
  0.5010775710594331  0.5210850632152102  0.6682439419527526
  0.3914856515319300  0.5869257599667748  0.7545054618863034
  0.3049408273348106  0.6618193521594691  0.8384116477482451
  0.2462375613695116  0.7651241758951670  0.8874453220745693
  0.1762411175710596  0.8189787121631582  0.0058982521225559
  0.1806213164451833  0.8556427805463258  0.1646553119232195
  0.0623269033776310  0.9167570579549675  0.2664426185861970
  0.9968830800110737  0.9910658988556662  0.3332363893503114
  0.9390297180693992  0.0667614728682153  0.4326603202288695
  0.8444216851236632  0.1456479752676287  0.4992549561646342
  0.7391061937061636  0.2590808910114433  0.5681944993540071
  0.6797038441306782  0.3326168613879688  0.6665039497969758
  0.5815670311923213  0.4412330758582499  0.7460887140088559
  0.4620499515503909  0.4910932567368036  0.8046355878552944
  0.3953112910668111  0.5670606247692902  0.9078372679032825
  0.3016812601513479  0.6736988976559601  0.9580729254337399
  0.2645362693798461  0.7553243184754521  0.0782898980251048
  0.2460986355666321  0.7757053903654452  0.2426000115356217
  0.1524929272794395  0.8350037813768907  0.3479544882798109
  0.0685239128829807  0.9239801614987044  0.4374304217423415
  0.9908905509413088  0.9884723126615000  0.5469985963455173
  0.9323867852528593  0.0937032073643422  0.5897370348837185
  0.8146015328534517  0.1618814760981877  0.6579233042635693
  0.7551955633997807  0.2291774755444820  0.7470747097637513
  0.6743313718161659  0.3232899441675912  0.8361679134366895
  0.5916276098191204  0.4082484085455889  0.9082829683462563
  0.4792121031746035  0.4780044255260236  0.9895916597452938
  0.4119639742524939  0.6198496594684357  0.0597306912144688
  0.3559269412144701  0.6794845496493167  0.1628763519749015
  0.3149017368032503  0.6883998883351765  0.3321904858803961
  0.2423442105020328  0.7659164636397193  0.4198174524732394
  0.1611970219638224  0.8428060160575868  0.5004832092100386
  0.0877955574012574  0.9163642340347025  0.5894206455334086
  0.0047048754152854  0.9989937375415252  0.6659523823366555
  0.9106625221483924  0.0980757585825032  0.7471109422296038
  0.8433771594684387  0.1641292391103732  0.8434950609080829
  0.7621185686600214  0.2384208504060510  0.9326062458471753
  0.6662093092469519  0.3541854452750073  0.0114823971022489
  0.5568092580287924  0.4294400562938350  0.0846346968438567
  0.4824257152085636  0.5129924700073829  0.1673773583425628
  0.4150441782022867  0.5928961918604685  0.2465431330749368
  0.4025964677925415  0.5982608208748630  0.4062140831487611
  0.3108823006644528  0.6577876573458852  0.4880439964008829
  0.2673227371723854  0.7435627154854174  0.5892687942967854
  0.1586211650978200  0.8284684265411570  0.6642584205426374
  0.0710222665190088  0.9074883914728673  0.7113849146363975
  0.0019800802879288  0.0082626139719437  0.8326437375415310
  0.9196513870431886  0.0955035894241405  0.9484526038205985
  0.8280145828719085  0.1750906967515675  0.0245049501661114
  0.7517519905869321  0.2298059251568816  0.0750290937615361
  0.6658097937430796  0.3343501328903642  0.1514276015134755
  0.5677684722222196  0.4352291911221826  0.2570216085271326
  0.4813821954595809  0.5081887564599512  0.3471914271871555
  0.0704188838132183  0.0725391966592852  0.9215356423034322
  0.9984653815983791  0.1606613247508335  0.0113165845330414
  0.9133910386674060  0.2689676393503149  0.0671970671834643
  0.8330378903654463  0.3409313662790723  0.1559689908637907
  0.7492740236249560  0.4198958540974544  0.2400669684385406
  0.6743122489848616  0.5035198592654098  0.3388472268364708
  0.5762888898117353  0.5708602094868951  0.4088556376891859
  0.5020063708933193  0.6502367266518974  0.5026515351605738
  0.4048850258397962  0.7331662693798435  0.5850347480620144
  0.3396954069767446  0.8259514184200825  0.6603936461794007
  0.2499406492248042  0.9243799561646355  0.7420098569582905
  0.1470107631967537  0.9875901384274641  0.8331427173311212
  0.1939913265965316  0.0073367035806555  0.9868111198781833
  0.1093618064784039  0.0648015766888150  0.0741810414359563
  0.0144040794573641  0.1411291482096715  0.1530316980435558
  0.9219375341454423  0.2355073375784400  0.2242501061277196
  0.8533757950350704  0.3218968683093379  0.3193608051864132
  0.7865540646917708  0.3895441209856045  0.4072155532484345
  0.6735919947397591  0.5055516039128847  0.4884533564045768
  0.6063238109080871  0.5846788335179056  0.5730253308416380
  0.5143914853266907  0.6682961701734982  0.6700922619047631
  0.4138494799741608  0.7370615277777759  0.7601975987449237
  0.3362649967700264  0.8163777519379849  0.8008047397563658
  0.2354040886858613  0.9024630421742330  0.8955732641195979
  0.2615547969730514  0.9133206132336653  0.0818709952934640
  0.1763145777962336  0.9758000816722046  0.1849213598191213
  0.0747976573458828  0.0712396705426386  0.2555178631413781
  0.9949546322443723  0.1664324090993006  0.3370065490033198
  0.9078371774640104  0.2457961955518613  0.4387721077888500
  0.8480196345514983  0.3486547360649652  0.5068146654669619
  0.7452432618124760  0.3980699054079011  0.5777058997785147
  0.7001644462901453  0.5133789641011433  0.6645336572535996
  0.5659562901439656  0.5550478709856037  0.7263336424880009
  0.4912558983942432  0.6724370704134373  0.8158419001476531
  0.4239826864156484  0.7728168867663356  0.8995863076781063
  0.3276879784976003  0.8487229434293084  0.0011032452011790
  0.3254130311000338  0.8329866435954258  0.1431274427833173
  0.2735228497600559  0.8951547752860805  0.2720947217607943
  0.1537407221299389  0.0123056063122888  0.3193139221114834
  0.0559397646733117  0.0840868863049096  0.4257135631229261
  0.9818706058508653  0.1827822992801771  0.5056232913436673
  0.9060835271317842  0.2391220699520105  0.5839135151347392
  0.8466215969915112  0.3203415245478070  0.6661762661498685
  0.7434469490586935  0.3911690060908057  0.7709134066998899
  0.6668174589331883  0.5067675226098203  0.8518239862495420
  0.5436468087855317  0.5682365785345169  0.9275153276116654
  0.4849867695644150  0.6665488482834974  0.9647577634736066
  0.4276180753968220  0.7487431944444438  0.0707522960502018
  0.4063123052787034  0.7660212966039097  0.2520831021594674
  0.3597309477667068  0.8248975498338851  0.3674579951088930
  0.2445034196197824  0.9128862924510912  0.4016372457548911
  0.1623017418789203  0.0074383051864189  0.4814702990033197
  0.0756721382428935  0.0948129494278334  0.5833451199704669
  0.9914635474344777  0.1908702796234749  0.6721884113141385
  0.9191382318198578  0.2303754614248774  0.7444413690476210
  0.8329642972499087  0.3237917751015118  0.8471949114064259
  0.7679992289590274  0.4303838985788104  0.9155690471576250
  0.6617363058324131  0.4927416315983777  0.0071666745108914
  0.5521533139534895  0.5902380800110762  0.0814548237356973
  0.4948554019010700  0.6662332728866716  0.1801012850682895
  0.5064726028977447  0.6725897060723511  0.3222969730527865
  0.4365780924695457  0.7628397872831272  0.4283155440199309
  0.3378264368770729  0.8570052288667398  0.4968071530084899
  0.2310581935215978  0.9101584339239537  0.5677171774640115
  0.1725155938538236  0.0126911120339628  0.6587855569398329
  0.0866739908637868  0.0759824031007739  0.7195708333333357
  0.0039717201919558  0.1562403848283509  0.8323634671465499
  0.9211165305463282  0.2369771027131762  0.9110793600036899
  0.8346697831303089  0.3308218198597288  0.0058125932078283
  0.7695607954964956  0.4086225461424888  0.0853176910298998
  0.6525730075673692  0.4932748315799174  0.1494511577150206
  0.5735748094315269  0.5716587652270206  0.2628313902731634
  0.1623902237910642  0.1466666260612755  0.8280403239202627
  0.1025237057032129  0.2280273994093776  0.9385596008674781
  0.0030805237172373  0.3463574178663720  0.9895131086194198
  0.9245097637504642  0.4335027579365089  0.0655348961794004
  0.8199373398855698  0.5166758167220351  0.1614000489110339
  0.7388771802325564  0.5731403479143609  0.2524713104466585
  0.6679997356035443  0.6610176024363241  0.3328945657991866
  0.5738509648394228  0.7445336332595076  0.4471978880583265
  0.4970611023440412  0.8433718992248060  0.5095640956072316
  0.4178246050203001  0.9113533928571442  0.5965261600221510
  0.3232212356958257  0.0069641371354763  0.6763236401808754
  0.2351979637320056  0.1001498431155383  0.7510785100590596
  0.2571577270210383  0.0815183467146525  0.8887141915836096
  0.1865618779992602  0.1468913035252868  0.0045070948689556
  0.1069129678848313  0.2789034214654862  0.0834937093946095
  0.9962873855666317  0.3453141948135823  0.1399911572535970
  0.9094249372462144  0.4218022056109234  0.2260014511812471
  0.8280453797526732  0.4747241228313044  0.3184059449981547
  0.7522299104835710  0.5659066574381697  0.4038076771871530
  0.6778701148947945  0.6572642700258413  0.4978653806755275
  0.5845527187153934  0.7546929918789189  0.5709042248061991
  0.5128233107235118  0.8111440310077498  0.6851362153931362
  0.4401218489294934  0.9195967008121073  0.7478234643780013
  0.3389514091915871  0.0043514258028807  0.8042202431709100
  0.3123844804355826  0.0214592607973429  0.9930836148025080
  0.2310789276485821  0.0673148380398700  0.1077257041343671
  0.1400530707825780  0.1542016477482449  0.1847654009782218
  0.0686532604281993  0.2529274183277934  0.2382562592284998
  0.9790346548541891  0.3392113242894084  0.3148972665190115
  0.9250435262089312  0.4112005477113314  0.4254407202842359
  0.8355351937984494  0.4808786429494276  0.5062106695274977
  0.7462986641749723  0.5756553017718744  0.5912474861572505
  0.6583496248615717  0.6625189073458841  0.6895876555001834
  0.5646603045404177  0.7635352081026241  0.7579336097268339
  0.5038120648763353  0.8425808628645228  0.8502105306386127
  0.4003561461794050  0.9164176112033928  0.9236152639350337
  0.4132382308970080  0.9373490088593570  0.0653857613510525
  0.3324945579549663  0.9961502879291260  0.1555878580657080
  0.2532568761535643  0.0936162038575148  0.2525030357142839
  0.1727369176818030  0.1644490139350339  0.3295195168881477
  0.0643914119601305  0.2542151042820251  0.4164679983388737
  0.0024654300479909  0.3352455274086381  0.5157494213732008
  0.9085601001292005  0.4004492787929124  0.5804692086563321
  0.8277004078995915  0.4973740365448478  0.6710827560908115
  0.7528238039867077  0.5874123412698395  0.7865517898671115
  0.6552905873938712  0.6433844725913644  0.8200528608342594
  0.6011705961609479  0.7489527076411946  0.9056961655592488
  0.5051985640457701  0.8488843055555577  0.0016575978220743
  0.5087532078257624  0.8397298048172743  0.1557433540974529
  0.4212733407161338  0.8909401776485808  0.2783807682724273
  0.3462489631782972  0.9954702334809866  0.3350590310077521
  0.2597681243078611  0.0885160589701002  0.4147210372831296
  0.1615199787744572  0.1687985746585454  0.4997608947028453
  0.0833862093946109  0.2278213219822831  0.5633253525286079
  0.9968044725913643  0.3212074806201528  0.6404308983942428
  0.9283788418235517  0.4212209819121426  0.7512446350129167
  0.8378791126799570  0.5148200516795853  0.8323885252860848
  0.7368106810631261  0.5881278206902891  0.9165831339977828
  0.6507458116463667  0.6775419532115166  0.9878744882798074
  0.5696307387412318  0.7426272374492413  0.0841487546142474
  0.5834536300295312  0.7444882253599090  0.2463338828903687
  0.5145837716869721  0.8658979868032475  0.3582283882428925
  0.4083258268733871  0.9383086969361401  0.4118634417681832
  0.3363190231635258  0.0031142146548575  0.5117600267626443
  0.2632014479512748  0.0994424598560357  0.5842381750645984
  0.1578263478220734  0.1703814747139134  0.6666642603359207
  0.1057382133628622  0.2572281386120352  0.7261508993170906
  0.9998573214285713  0.3168969878183816  0.8376521825396850
  0.9048282142857147  0.4192938099852341  0.9214253769841250
  0.8243190259320770  0.5026655883167237  0.0085620048911039
  0.7367015411590998  0.5833272711332569  0.0892706921373190
  0.6558235954226674  0.6712072789774837  0.1601487190845319
  0.2574594592100397  0.2586816472868207  0.7458162615356230
  0.1526665397748275  0.3313156704503513  0.8385122249907724
  0.0693866449796943  0.4265760598929518  0.9074393696936127
  0.9962609449981557  0.5050808384090075  0.9960001001292014
  0.9006739484126953  0.5999384140826862  0.1031631630675491
  0.7990276448874098  0.6561119905869290  0.1738767317275745
  0.7370799566260615  0.7477301877999238  0.2690227731635275
  0.6550678479143599  0.8366297383720962  0.3411292275747542
  0.5700257396640822  0.9312222803617587  0.4359218978405295
  0.4653139055001816  0.0015457161314103  0.4947872462163190
  0.4285704517349558  0.1055060995754857  0.5716816468253967
  0.3445539493355483  0.1596464304171263  0.6619939654854221
  0.3447970639534859  0.1523921244001443  0.8324289613325959
  0.2813676278146886  0.2416659048541874  0.8866063750461421
  0.1615336092654118  0.3450201827242552  0.9767924418604679
  0.0811737163159805  0.4090648112772257  0.0675395925618290
  0.9950804102067181  0.4918140979143573  0.1490272397563643
  0.8995264622554444  0.5985624312476929  0.2453460225175377
  0.8338445921004052  0.6769160174418616  0.3487641708194928
  0.7575590125507574  0.7451479789590252  0.4227652450166133
  0.6761150133813203  0.8389921733111834  0.5291678456072333
  0.5767438141380552  0.9163309066998906  0.6142525258397953
  0.5073081081579929  0.0140295293466224  0.6715481506090839
  0.4337428834440757  0.0942134745293473  0.7408392584902188
  0.4236505444813616  0.0710018710778897  0.9156864862495411
  0.3239194043004829  0.1436773818752286  0.9744341089885538
  0.2128483859357715  0.2318009685308198  0.0686121908453288
  0.1676916292912480  0.3479658744001455  0.1717801075119993
  0.0738717926356571  0.4069673311184943  0.2536526088962745
  0.0124435672757457  0.5098661051125859  0.3244717580287926
  0.9025222134551498  0.5733321746954587  0.4223495473421934
  0.8111456459948343  0.6516490942229609  0.4912829411221864
  0.7619877819305998  0.7427465430047988  0.5853644564414893
  0.6948334316168356  0.8264535801956470  0.6738095621077917
  0.5968761955518644  0.9276689511812464  0.7349087195459560
  0.5121537181616844  0.0156452906976767  0.8498896160945009
  0.5245181602990030  0.9920927777777777  0.0062346340900703
  0.4254186424880047  0.0791763358250250  0.0773435912698446
  0.3003262043189352  0.1625667280361753  0.1395239590254675
  0.2525495699520093  0.2490299021779236  0.2390678045404186
  0.1457910585086779  0.3272379720376506  0.3330050678294540
  0.0811125507567354  0.4008362495385782  0.4397975682908850
  0.0146591025286114  0.4945329572720567  0.4994690905315622
  0.9064051864156539  0.5794379697305274  0.5785143475452230
  0.8400734330011090  0.6549616163713523  0.6637216842008087
  0.7440052565522350  0.7310052814691801  0.7688102953119227
  0.6782568332410506  0.8385554074381716  0.8282801541159088
  0.6148691865079385  0.9278373205057235  0.9250549760059030
  0.6026027394795150  0.9157331884459197  0.0702815683831659
  0.5153409154669646  0.0011184343853827  0.1605158744001471
  0.4110026661129567  0.0983497969730536  0.2336291537467687
  0.3384905449427862  0.1835447425249157  0.3232696557770396
  0.2427248878737558  0.2457191426725700  0.4181488847360626
  0.1969194061461792  0.3221748532668869  0.5005168281653738
  0.0895058730158738  0.4098016832779621  0.5875603894426007
  0.0061292501845713  0.4903112919896628  0.6587625950535241
  0.9385089184200837  0.5720972268364690  0.7464617432631968
  0.8551782105943175  0.6544769116832754  0.8441176010520479
  0.7546769975083052  0.7153292571059424  0.9024055601698038
  0.6800201771871528  0.8137780726282742  0.0148010622000712
  0.6650408448689547  0.8283730237172406  0.1859384726836453
  0.5903850950535272  0.9101581570690271  0.2476046871539310
  0.4793508637873742  0.0119431026208900  0.3082494144518293
  0.4156997065337791  0.0860205555555567  0.4060365268549262
  0.3220480084902206  0.1701148214285695  0.4923743498523407
  0.2494050669066041  0.2246982502768518  0.5951871751568873
  0.1793940383905479  0.3210977422480639  0.6425216283683994
  0.0914771488556667  0.3883006450719790  0.7511542603359160
  0.0236880703211497  0.4926683859357723  0.8426600705980078
  0.9008790356219976  0.5837560760428175  0.9306002814691752
  0.8217087020118115  0.6816802464008873  0.0260829974160188
  0.7705577247139175  0.7547038796603900  0.0819617977113296
  0.3299746244001511  0.3236269199889250  0.6586187970653370
  0.2553902394795102  0.4014481829088226  0.7470412347729791
  0.1626879614248793  0.5034376250461392  0.8378533993170905
  0.0743286387966009  0.5817993715393115  0.9273844324473970
  0.9956191537467731  0.6730151610372843  0.9992696534699164
  0.9150746936138816  0.7269016915836133  0.0837330103359193
  0.8507397379106649  0.8365912666112933  0.1755483527131787
  0.7533565550018437  0.9093431187707637  0.2664477505537093
  0.6547858264119597  0.9848028336101891  0.3506356284606866
  0.5760281413805828  0.0831078677556292  0.4187137416943543
  0.5000996220930247  0.1783858236434099  0.4937755297157622
  0.4167089294942770  0.2532424487818403  0.5793848657253591
  0.4240283024178666  0.2589382304355823  0.7573875599852329
  0.3350619896640836  0.3394873140457761  0.8337017811000393
  0.2304904877261009  0.4105017197305258  0.9124300950535229
  0.1724710571243975  0.4938505380214124  0.0186626624215549
  0.1008895768733851  0.5974548034330027  0.0633570376522670
  0.0014491671280936  0.6733361466408283  0.1593838930417135
  0.9075214262643030  0.7538398712624570  0.2437903769841299
  0.8260853502214829  0.8241815591546668  0.3429780389442598
  0.7415037864525686  0.9318408771686961  0.4459769019933546
  0.6763916223698772  0.0003649266334449  0.4978881889073463
  0.5836062679955702  0.0683209039313368  0.5874431026208953
  0.5147464539497975  0.1832866066814347  0.6655280855481749
  0.5071689760981926  0.1826342603359166  0.8430136960132870
  0.4133377736249528  0.2596234897563647  0.9268326176633437
  0.3095012975267650  0.3273751831856799  0.0197746636212628
  0.2413273325027703  0.4204778774455491  0.0837554217423389
  0.1619816468253958  0.4978936166482129  0.1685328857511976
  0.0914672845145788  0.5910447785160571  0.2693117188076783
  0.9836798288113684  0.6808779711148034  0.3190500018457030
  0.9384947669804333  0.7471321982281296  0.4333327053340739
  0.8181417197305265  0.8081221405500187  0.5256020717977137
  0.7694256556847563  0.9327211918604661  0.5986318097083796
  0.6723024275562963  0.0063596996124033  0.6771024335548148
  0.5970880057216661  0.0773197559062382  0.7674180564784052
  0.5875404918789187  0.0782219153746766  0.9236325101513501
  0.5090471779254315  0.1652321350129213  0.9917808084163866
  0.4185948398855643  0.2391348661867880  0.0669452897748215
  0.3475844144518305  0.3184618037098588  0.1468560326688788
  0.2487144006090816  0.4195703908268769  0.2569097236064977
  0.1637437744555186  0.4879589530269470  0.3355454844961230
  0.0798803626799582  0.5877978945182747  0.4304097858988527
  0.0070459408453303  0.6590420422665204  0.5029123301956417
  0.9195712223145094  0.7161459500738303  0.5901944126061309
  0.8341659256183078  0.8142566269841254  0.6691096760797350
  0.7801954171280912  0.9389020547249913  0.7465680527870049
  0.6877540342377273  0.0256590240863801  0.8496599810815795
  0.6977905740125507  0.0001980684754557  0.0373065176264333
  0.5831995847176046  0.0870280080287955  0.0878145524178677
  0.5108595279623458  0.1778208600959772  0.1764968337024726
  0.4082759200812092  0.2450326148947966  0.2439489954780356
  0.3233346677740840  0.3409967529531173  0.3215771654669624
  0.2349242497231430  0.4132918563122914  0.4000082175156905
  0.1598842543373920  0.4802795754891136  0.5029110045219625
  0.1028265873015854  0.5774116966592828  0.5967431183093410
  0.0030221040974538  0.6382280430970866  0.6635640743816893
  0.9042682715024029  0.7369334952934636  0.7500557650424540
  0.8442206390734555  0.8271472093023249  0.8368397582133653
  0.7598886346437794  0.9247225609080871  0.9244909477667065
  0.7652297037652289  0.8925344915097853  0.1055222937430784
  0.6458001227390184  0.9842498154300472  0.1967455370985576
  0.5974243683093405  0.0855131076965705  0.2726493309339233
  0.5082855407899558  0.1605253036175682  0.3170276301218138
  0.4238222854374314  0.2591035921926874  0.4246942460317484
  0.3059337444628980  0.3219597771317808  0.5127126513473570
  0.2649129531192287  0.4256093060169803  0.5788594213732026
  0.1683822079180501  0.4612251328903625  0.6565029618863036
  0.0844925332225941  0.5598598615725336  0.7519647245293442
  0.0020391901993335  0.6698012624584706  0.8314655509413100
  0.9076625170727226  0.7481674667774101  0.9135959496124002
  0.8255328945182754  0.8213370893318555  0.9899458674787738
  0.4215014304171305  0.4041936964747137  0.5730915425433736
  0.3484965213178270  0.5087304305094165  0.6619802021040968
  0.2345010446659259  0.5782674289405705  0.7386070584163917
  0.1652885885012907  0.6844801107419727  0.8240966459025501
  0.0949090905315586  0.7703581893687712  0.9278126781100013
  0.0034954586563316  0.8130281113879647  0.0154935160575889
  0.9238797379106671  0.9161554102067200  0.0738478451458136
  0.8195850978220776  0.9873359482281288  0.1586383388704320
  0.7375745344222935  0.0839573098929520  0.2403609569952039
  0.6785510838870437  0.2000447176079732  0.3519013787375442
  0.5821490877630140  0.2701375553709866  0.4418651997969718
  0.4902780052602438  0.3452746040974546  0.5095790434662248
  0.4995553363787408  0.3325820155038741  0.6421998846437802
  0.4203203732927250  0.4093957327427091  0.7408381298449598
  0.3088156602990040  0.4783823191214438  0.8234249773901823
  0.2235570270394973  0.5783158365633057  0.8958576739571811
  0.1754686088039890  0.6790680924695494  0.9862618240125514
  0.0989827939276466  0.7490614719453674  0.0735387320044296
  0.0286503100775164  0.8143510455887792  0.1697937703026966
  0.9214509016242118  0.9140593147840548  0.2374281473791058
  0.8565459823735679  0.0117320856404604  0.3467596345514963
  0.7317250493724643  0.0813133425618275  0.4080072762089344
  0.6574008471760777  0.1560674838501299  0.4871845279623486
  0.5994112661498718  0.2422179014396448  0.5680059431524569
  0.5887208900885952  0.2782844236803257  0.7461493632336627
  0.5039751582687302  0.3458037735326656  0.8300664479512747
  0.4161688824289413  0.3935588145994799  0.9240488732004408
  0.3286434353082299  0.4862546433185670  0.9928729014396467
  0.2546280740125511  0.5968749852344004  0.0838813750461398
  0.1772122863602803  0.6656240886858598  0.1721108019564426
  0.1067345874861587  0.7423797009966790  0.2361665346991515
  0.0290033554817271  0.8242079743447732  0.3191798703396103
  0.9432759016242187  0.8966760732742713  0.4195963870431925
  0.8434928289959416  0.0042374552417854  0.4995828082318212
  0.7344252782392005  0.0781392751015133  0.5940446599298639
  0.6736788099852333  0.1565901416574391  0.6621416006829079
  0.6639835299003352  0.1934098108158011  0.8244545450350671
  0.5874908070321183  0.2364785612772238  0.9290503728313055
  0.4914193180140245  0.3380431612218544  0.0002740896087090
  0.4004675590623847  0.4137625378368384  0.0822066772794372
  0.3513023518826159  0.5047011720191961  0.1563464668696923
  0.2597126232004427  0.5843240360834230  0.2587972429863399
  0.1792127330195612  0.6764887882982649  0.3538706575304573
  0.0687370662606099  0.7671916832779644  0.4103670385751172
  0.0047405038759720  0.8153666925064584  0.5045174764673277
  0.9102675844407528  0.8952855352528601  0.5942190328534522
  0.8438980744739766  0.0175352200996670  0.6656180020302713
  0.7627589516426738  0.0738335898855667  0.7502419970468779
  0.7559827011812459  0.1176286724806204  0.9293722845145780
  0.6470515213178274  0.1603176734957543  0.9920300419896648
  0.5692626762643016  0.2549784560723509  0.0774040665374685
  0.4916368646179379  0.3421337739940924  0.1678050645994844
  0.4247843170911807  0.4139535954226616  0.2399556487633845
  0.3523591029900359  0.5036905869324499  0.3255521571613116
  0.2451332161314141  0.5772840402362505  0.4239226093576960
  0.1685565868401611  0.6807225909007002  0.4941785155961611
  0.1005984399224786  0.7514847997416041  0.5853620085825000
  0.9937564954780385  0.8090126116648193  0.6834312929125161
  0.9099834256183073  0.9484960714285720  0.7630931990586944
  0.8441219024547806  0.0382265310077514  0.8632329148209692
  0.8183071871539340  0.0134603931339967  0.0206685931155377
  0.7287817349575505  0.1157039216500522  0.1140691431339960
  0.6525947434477644  0.1858918258582491  0.1745421207087503
  0.5983806819859723  0.2656279277408657  0.2696713229051326
  0.5026898006644487  0.3340632267441848  0.3157535612772264
  0.4160917898671102  0.4264122512919926  0.4249065891472839
  0.3410227025655246  0.5133946530084899  0.4909206487633782
  0.2438869287559982  0.5946932535068257  0.5851867045035064
  0.1538740143964574  0.6754169485972668  0.6616816177556260
  0.0787464493355472  0.7406461097268391  0.7368533730158759
  0.9886937869139913  0.8496158744001505  0.8232046433185687
  0.9268940656146185  0.9265915651531955  0.9203287472314514
 
  0.00000000E+00  0.00000000E+00  0.00000000E+00
  0.00000000E+00  0.00000000E+00  0.00000000E+00
  0.00000000E+00  0.00000000E+00  0.00000000E+00
  0.00000000E+00  0.00000000E+00  0.00000000E+00
  0.00000000E+00  0.00000000E+00  0.00000000E+00
  0.00000000E+00  0.00000000E+00  0.00000000E+00
  0.00000000E+00  0.00000000E+00  0.00000000E+00
  0.00000000E+00  0.00000000E+00  0.00000000E+00
  0.00000000E+00  0.00000000E+00  0.00000000E+00
  0.00000000E+00  0.00000000E+00  0.00000000E+00
  0.00000000E+00  0.00000000E+00  0.00000000E+00
  0.00000000E+00  0.00000000E+00  0.00000000E+00
  0.00000000E+00  0.00000000E+00  0.00000000E+00
  0.00000000E+00  0.00000000E+00  0.00000000E+00
  0.00000000E+00  0.00000000E+00  0.00000000E+00
  0.00000000E+00  0.00000000E+00  0.00000000E+00
  0.00000000E+00  0.00000000E+00  0.00000000E+00
  0.00000000E+00  0.00000000E+00  0.00000000E+00
  0.00000000E+00  0.00000000E+00  0.00000000E+00
  0.00000000E+00  0.00000000E+00  0.00000000E+00
  0.00000000E+00  0.00000000E+00  0.00000000E+00
  0.00000000E+00  0.00000000E+00  0.00000000E+00
  0.00000000E+00  0.00000000E+00  0.00000000E+00
  0.00000000E+00  0.00000000E+00  0.00000000E+00
  0.00000000E+00  0.00000000E+00  0.00000000E+00
  0.00000000E+00  0.00000000E+00  0.00000000E+00
  0.00000000E+00  0.00000000E+00  0.00000000E+00
  0.00000000E+00  0.00000000E+00  0.00000000E+00
  0.00000000E+00  0.00000000E+00  0.00000000E+00
  0.00000000E+00  0.00000000E+00  0.00000000E+00
  0.00000000E+00  0.00000000E+00  0.00000000E+00
  0.00000000E+00  0.00000000E+00  0.00000000E+00
  0.00000000E+00  0.00000000E+00  0.00000000E+00
  0.00000000E+00  0.00000000E+00  0.00000000E+00
  0.00000000E+00  0.00000000E+00  0.00000000E+00
  0.00000000E+00  0.00000000E+00  0.00000000E+00
  0.00000000E+00  0.00000000E+00  0.00000000E+00
  0.00000000E+00  0.00000000E+00  0.00000000E+00
  0.00000000E+00  0.00000000E+00  0.00000000E+00
  0.00000000E+00  0.00000000E+00  0.00000000E+00
  0.00000000E+00  0.00000000E+00  0.00000000E+00
  0.00000000E+00  0.00000000E+00  0.00000000E+00
  0.00000000E+00  0.00000000E+00  0.00000000E+00
  0.00000000E+00  0.00000000E+00  0.00000000E+00
  0.00000000E+00  0.00000000E+00  0.00000000E+00
  0.00000000E+00  0.00000000E+00  0.00000000E+00
  0.00000000E+00  0.00000000E+00  0.00000000E+00
  0.00000000E+00  0.00000000E+00  0.00000000E+00
  0.00000000E+00  0.00000000E+00  0.00000000E+00
  0.00000000E+00  0.00000000E+00  0.00000000E+00
  0.00000000E+00  0.00000000E+00  0.00000000E+00
  0.00000000E+00  0.00000000E+00  0.00000000E+00
  0.00000000E+00  0.00000000E+00  0.00000000E+00
  0.00000000E+00  0.00000000E+00  0.00000000E+00
  0.00000000E+00  0.00000000E+00  0.00000000E+00
  0.00000000E+00  0.00000000E+00  0.00000000E+00
  0.00000000E+00  0.00000000E+00  0.00000000E+00
  0.00000000E+00  0.00000000E+00  0.00000000E+00
  0.00000000E+00  0.00000000E+00  0.00000000E+00
  0.00000000E+00  0.00000000E+00  0.00000000E+00
  0.00000000E+00  0.00000000E+00  0.00000000E+00
  0.00000000E+00  0.00000000E+00  0.00000000E+00
  0.00000000E+00  0.00000000E+00  0.00000000E+00
  0.00000000E+00  0.00000000E+00  0.00000000E+00
  0.00000000E+00  0.00000000E+00  0.00000000E+00
  0.00000000E+00  0.00000000E+00  0.00000000E+00
  0.00000000E+00  0.00000000E+00  0.00000000E+00
  0.00000000E+00  0.00000000E+00  0.00000000E+00