Li 
 1.0000000000000000
    21.6720000000000006    0.0000000000000000    0.0000000000000000
     0.0000000000000000   21.6720000000000006    0.0000000000000000
     0.0000000000000000    0.0000000000000000   21.6720000000000006
 Li 
 432
Cartesian
 -0.1901170800000000 -0.0946435000000000  0.1818375400000000
 19.6410698799999999  1.8068847699999999  1.5989349600000000
 18.3177103999999993  3.6504987299999998  3.2889461500000001
 16.3386782400000001  5.5715485500000002  5.6212666100000002
 14.3696967299999994  7.7693126499999998  7.6326726200000001
 12.6836597300000005  9.3316192600000001  9.2034404500000004
 10.7383677800000008 11.0602399699999996 10.8288846200000002
  8.8541134400000008 12.9175070900000009 12.6634349499999992
  7.1628539099999999 14.9171601999999996 14.7301435800000000
  5.1817679999999999 16.2724911500000005 15.9740465700000005
  3.4419993299999998 18.3780540300000013 17.6473693099999984
  2.0094690399999999 19.8329380499999992 20.0548798300000009
  1.9380994600000001 19.6637408399999991  1.4626618600000001
  0.1410737100000000  0.0545704900000000  3.2819559500000000
 19.7992437499999987  1.8541469100000001  5.2006773900000001
 18.0957956899999992  3.6273980899999998  7.5778015099999996
 16.2334120800000008  5.9240677300000000  9.4311853400000007
 14.6328499500000007  7.3584208699999998 10.6956444499999996
 12.9030128600000005  9.4986282000000006 12.6541292500000004
 10.8593531199999997 11.2929554900000007 14.4821827100000000
  8.4842770400000003 12.7198550699999995 16.3516423700000004
  6.6086776100000000 14.3429490000000008 18.1700572300000012
  5.3364604299999998 16.5817711400000007 19.2327150200000005
  3.8194975000000002 17.7489066499999986  0.1278269200000000
  3.9144251699999999 18.5434903400000017  3.5684099200000001
  1.3507486500000001 19.8679589599999993  5.7743444300000002
 -0.0675498900000000 -0.1936198400000000  7.2218990300000003
 20.3506520500000008  1.4468546400000000  9.3766144600000008
 18.3003067600000016  3.1564829200000002 10.8198534100000003
 16.0179094299999996  5.6148010700000004 12.3139111900000007
 14.7305417100000007  7.2084726200000002 14.4444736000000002
 12.6037207000000002  9.5624032200000002 16.1692346100000002
 10.0135465499999992 10.6429730599999992 17.4380624600000012
  8.5671862999999995 12.2893378599999998 19.6746492699999997
  6.5380362700000001 14.6004025100000003 20.7633564399999990
  5.7330300300000001 16.3693886299999996  1.6966986700000000
  5.3334496299999996 16.8110872200000010  5.2576274500000002
  3.3048267199999999 18.0962019500000011  7.5408696700000002
  1.4850502400000001 20.0244980599999991  9.4799921000000005
 -0.1974199800000000 -0.2498280400000000 11.8545535799999993
 20.2066864099999997  2.0307359100000002 12.7807810199999992
 17.6540444200000017  3.5082953500000000 14.2585138499999999
 16.3665982499999991  4.9667342500000000 16.1906031100000014
 14.6141094900000006  7.0063396700000000 18.1214310199999993
 12.8217535599999994  8.8475595100000000 19.6843084899999994
 10.3854846999999992 10.3593119100000006 -0.2255695500000000
  8.9280832500000002 13.4333818199999993  1.2944835400000001
  7.7136486700000004 14.7257891599999997  3.5298563000000001
  6.8245504400000003 14.9190023800000002  7.1992322099999999
  5.2520837299999998 16.5989415999999999  9.0982838299999997
  3.4934618600000000 18.2652919800000006 10.8464721100000006
  1.9027053199999999 19.8594456800000003 12.7739242300000004
  0.1019640600000000 -0.0218077200000000 14.4325200299999992
 19.7358781800000003  2.1254978400000000 16.1913883399999996
 18.2776698000000017  3.5570088700000002 18.2802249600000017
 16.5166336200000003  5.1670566700000000 20.2114425599999983
 14.4380881500000005  7.6759069699999998  0.2488465100000000
 12.0671702399999994  9.3068249000000005  1.8342031500000000
 10.4551300999999999 11.1175728100000004  3.6274021099999998
  8.9948374300000005 12.8492462700000001  5.3430827799999996
  8.7250706499999993 12.9655085099999994  8.8034716100000008
  6.7374412200000000 14.2555741099999995 10.5768894899999992
  5.7934183600000004 16.1144911700000009 12.7706333099999991
  3.4376378900000000 17.9545677400000017 14.3958084900000003
  1.5391945600000001 19.6670884199999989 15.4171338700000007
  0.0429123000000000  0.1790673700000000 18.0450550800000009
 19.9306848599999995  2.0697537900000000 20.5548648299999996
 17.9447320400000017  3.7945655800000000 22.2030712799999996
 16.2919691399999991  4.9803540100000001  1.6260305200000000
 14.4294298500000000  7.2460360799999997  3.2817389800000001
 12.3046783299999998  9.4322870299999995  5.5701723000000003
 10.4325149400000008 11.0134667299999993  7.5243326100000001
  1.5261180500000000  1.5720694700000000 19.9715204399999990
 -0.0332582500000000  3.4818522299999999  0.2452530200000000
 19.7950105900000004  5.8290666800000004  1.4562948400000000
 18.0535971599999989  7.3886645700000004  3.3801599699999998
 16.2382666399999991  9.0999829499999993  5.2027313399999997
 14.6136950599999995 10.9122823899999997  7.3434971000000004
 12.4893328199999996 12.3716824600000006  8.8607193800000008
 10.8794820699999999 14.0919303399999993 10.8934640700000003
  8.7746682800000002 15.8891793900000007 12.6788730600000008
  7.3618788600000000 17.9000191400000013 14.3120510999999997
  5.4167137500000004 20.0331624099999992 16.0808376200000005
  3.1860172599999999 -0.2689465200000000 18.0558689699999988
  4.2041800299999998  0.1590010400000000 -0.2858294100000000
  2.3700890700000001  1.4043797700000000  1.6076515300000001
  0.3121652100000000  3.0585509000000002  3.3165029600000002
 19.9802302400000009  5.1039150199999996  4.8599483000000001
 18.4943602300000016  6.9761489299999999  6.9211873700000002
 17.0461996900000017  8.4422001899999994  8.8251754699999996
 14.5980857099999994 10.9563143600000004 10.5857611400000007
 13.1402496299999996 12.6711596800000006 12.4186049700000005
 11.1478922699999998 14.4833145999999999 14.5222394999999995
  8.9689459300000003 15.9735974299999999 16.4750023600000013
  7.2875350100000000 17.6925386399999987 17.3550403200000005
  5.1016774099999997 19.5581790499999997 19.4088637800000008
  5.6684155599999997 19.7934843299999983  1.7743082100000001
  3.8210895300000001 -0.5244606300000000  4.0076157099999996
  1.6210148300000000  1.5439061400000000  5.5375831299999998
 -0.1093432100000000  3.6069231700000000  7.3036059299999998
 19.6746473100000010  5.3268951500000004  9.5090691199999995
 18.3782815200000016  7.5560454400000001 10.9836874299999998
 16.1509119699999992  8.6269709900000002 12.5200422600000003
 15.1739638800000005 11.1259489100000000 14.4017734199999996
 12.2654047199999994 12.0289974599999994 15.7411027000000008
 10.6464978299999995 14.5730561900000009 17.6809256599999998
  9.1885527800000002 16.7484875700000018 19.4958344600000011
  7.1016538699999998 18.3935236300000007 21.6959095300000016
  7.0523512100000003 18.0524865400000003  3.1018579399999999
  5.9277872000000000 19.3997942899999991  5.8968368099999999
  3.3318689300000002  0.2666871000000000  6.9201713199999997
  1.2123265800000000  1.8223309999999999  9.2260643400000006
 -0.3929002300000000  3.9612579900000000 10.9578679700000006
 19.6366422000000007  5.1822534999999998 12.6545737000000003
 18.3479832499999986  6.9424415200000000 14.4373720399999996
 16.1119822799999994  8.4774147000000006 16.7072353500000013
 14.4512679700000000 10.9826657500000007 18.4607294300000007
 11.7819136400000009 12.3148231300000006 20.1011121800000012
 10.5106332699999996 14.4454466400000001 20.9082302499999990
  9.2673389299999993 16.2267625100000004  1.5333437599999999
  8.8056002800000002 16.6012135399999998  5.4631449900000000
  7.7960890999999997 17.8771796999999992  7.9635496699999999
  5.2988781100000004 19.7840717300000009  8.7042823899999995
  3.5174033499999999  0.1612029500000000 10.4344243199999998
  1.6399665800000001  2.0547862399999999 12.6422554399999996
 -0.1850020000000000  4.1365407000000003 14.5676672499999995
 19.9195637599999991  4.9926969999999997 16.1335333500000004
 18.0520022500000010  7.0172153499999999 18.3604081199999989
 16.6440792900000005  9.3272798500000000 19.8422123900000003
 14.3411492200000001 10.6786966400000001 21.8273161699999996
 11.9662666200000007 12.7916396700000004  1.7652889400000000
 10.7245062699999991 14.4386074900000008  3.9031550500000001
 10.9762742499999995 14.5763641100000001  6.9848200000000000
  9.4615204199999994 16.5322638700000013  9.2824544699999993
  7.3213745399999999 18.5730173200000017 10.7668046200000003
  5.0074931700000000 19.7249535800000011 12.3035666700000004
  3.7387579500000001  0.2750417800000000 14.2772005899999996
  1.8783987300000000  1.6466906400000001 15.5945391000000004
  0.0860751200000000  3.3860416199999999 18.0389810600000011
 19.9624374499999995  5.1357677700000002 19.7449118900000009
 18.0889635400000017  7.1695704800000000 21.7979705199999998
 16.6779215600000015  8.8556678200000007  1.8490050000000000
 14.1425622200000003 10.6902521499999992  3.2389054900000001
 12.4305132700000005 12.3889887600000002  5.6960818900000003
  3.5193209300000001  3.1785591200000001 17.9452898999999988
  2.2218937500000000  4.9418097999999997 20.3404636699999983
  0.0667611100000000  7.5062579600000001 -0.2272719100000000
 20.0359756000000004  9.3948717700000000  1.4202722699999999
 17.7696820299999985 11.1973982999999997  3.4978618600000000
 16.0129462499999988 12.4210976199999994  5.4715582400000002
 14.4768902700000002 14.3255734799999992  7.2144910299999996
 12.4364981100000005 16.1355329000000012  9.6916726299999993
 10.7723082100000003 18.2775557999999982 11.0432730800000005
  9.0550948400000006 19.7508507299999998 12.9279149400000009
  7.0048506200000000 21.8229267799999995 14.6572859300000005
  5.0972102699999997  2.1704474000000000 16.2773734700000006
  5.5731222599999999  1.7666656100000000 19.2602139600000015
  4.0431690199999997  3.1834283299999999  0.0976777600000000
  2.3170178400000001  6.0443949500000000  1.8094756700000001
 -0.0804597800000000  7.4836492300000002  3.0338883600000002
 19.7090572399999999  9.1412973999999991  4.8979034500000003
 17.9453994700000017 10.2882211899999998  6.9004936399999997
 16.3023266199999988 12.2643290799999995  8.7513199799999999
 14.6908011300000005 14.2442312599999994 10.7897385299999993
 12.6684265200000006 16.3557065199999982 12.3726363599999996
 11.1139067899999997 17.5791134400000004 14.8482720599999993
  9.5383207100000007 19.9294997000000009 16.2068301199999993
  7.3457549400000000 21.7663040999999993 17.4290611099999992
  6.7699964599999998  0.4650651000000000 -0.1498919000000000
  5.0079425200000003  1.4588471700000001  2.3346314600000002
  3.0352301499999998  3.3418581100000000  4.0042357700000002
  1.4878534600000000  5.4814430099999996  5.1634896499999998
 -0.4543609600000000  7.3513878200000002  6.8244535600000003
 20.0475433000000010  8.9115382699999994  9.2201512900000004
 18.1077187200000012 10.4216019499999994 10.9705976300000003
 16.1737846500000018 12.4756017000000003 12.8135155199999993
 14.2677530699999995 14.3581097599999996 14.9447436699999994
 12.2373181199999994 16.5473350299999993 16.4259371899999991
 10.9186150699999995 18.2604124600000013 18.4257626200000004
  8.6765184000000009 19.8606024699999999 20.0165900000000008
  8.9556989399999996 20.3142277200000017  1.4170402200000001
  7.2058220600000000 -0.0834309600000000  3.3719000600000002
  5.4885830200000001  2.0288503699999998  5.4722457899999997
  3.7435544799999998  3.5639390299999998  7.1413469699999998
  1.3954906800000000  5.5093497400000002  9.0256944600000004
  0.0534308000000000  7.2654410699999996 11.1773214599999999
 19.6903144899999987  8.6785367699999991 12.5799286899999991
 17.9379232399999999 10.7790901199999993 14.5437054900000007
 16.3151974799999984 12.7304002599999997 17.0461503900000011
 14.2014576100000003 13.9434282899999999 17.7721856000000002
 13.0285691600000000 16.2313030800000000 19.6282473000000017
 10.9486632799999999 18.3970206699999999 21.7079234599999999
 11.0256995199999999 18.1986243300000012  3.3752699700000002
  9.1298358400000001 19.3084555299999998  6.0330680100000000
  7.5039075300000002 -0.0981691000000000  7.2613993199999998
  5.6296947900000003  1.9183200300000001  8.9878343199999993
  3.5004609800000002  3.6582027099999999 10.8308181099999992
  1.8071459299999999  4.9373436899999996 12.2083870399999999
 -0.0692534700000000  6.9612085199999996 13.8794184299999994
 20.1198262600000000  9.1287011200000006 16.2809737299999995
 18.1585161299999989 11.1571801599999993 18.0395241199999994
 15.9681610799999998 12.7459061299999998 19.8641896799999991
 14.1029632300000003 14.6836892100000007 21.4092159100000003
 12.3450373700000000 16.0942174899999983  1.8236718100000000
 12.6446070699999993 16.1345488199999991  5.3385479100000000
 11.1520595000000000 18.7657411699999983  7.7635256300000002
  8.8492373200000003 20.3350260799999987  8.9259045100000005
  7.2887058700000003  0.0674912600000000 11.0908633000000005
  5.7041017800000002  2.1551169899999998 12.6616097300000003
  3.4204126100000001  3.6925073199999998 14.4479478500000003
  2.2915585599999999  5.5746482200000003 15.7371422899999995
 -0.0030921300000000  6.8677915199999999 18.1535981000000000
 19.6094370600000012  9.0869354500000004 19.9691307699999996
 17.8646419300000012 10.8937686300000003 21.8575557700000012
 15.9657958000000004 12.6418686200000003  1.9346744400000000
 14.2130089599999998 14.5464041500000008  3.4707430399999999
  5.5796614000000000  5.6061486599999997 16.1633300200000001
  3.3085892499999998  7.1802732100000002 18.1722369400000012
  1.5037473699999999  9.2447563699999993 19.6660260200000003
 -0.0810328000000000 10.9461119300000007 -0.0866858300000000
 19.5194058099999985 13.0018653099999995  2.2357520700000002
 17.3165271199999999 14.2192590600000006  3.7682565299999999
 15.9739968200000000 16.2048086299999987  5.8302615400000004
 14.1966304000000001 18.1314396900000006  7.3929526200000000
 12.3535978300000000 20.1814492600000008  9.4472993699999996
 10.0842829599999995  0.0334987600000000 10.7230291999999992
  9.2879788300000001  2.2865281899999998 12.3894846500000000
  7.4671731899999996  3.4598574400000000 14.3467332200000008
  7.4724419700000002  3.3026421199999998 18.0404004499999999
  6.0977992299999997  5.2373834900000000 19.2145333600000008
  3.5007563799999999  7.4772774000000002 -0.5029542000000000
  1.7591967799999999  8.8652525900000008  1.4637180500000000
 -0.1066173500000000 10.6585951300000001  3.2297183399999998
 19.4945374899999990 12.9720450100000004  5.3171390000000001
 18.0710799999999985 14.6701239300000008  7.5584171099999997
 16.4178189199999984 16.1488470000000000  9.1621683899999997
 14.6527645700000004 18.1826383800000002 11.4681255499999999
 12.4991919399999993 19.8587234099999996 13.3120807400000007
 10.9943813200000005 21.9760479599999989 14.5537915200000008
  9.4000757700000008  2.0417944200000000 16.0554684099999996
  9.1813546000000006  1.5387525500000001 19.8447575299999990
  7.0199813300000002  3.1137762200000001 -0.5540639900000000
  4.6128502200000003  5.0235905900000004  1.4869634000000000
  3.6342129900000000  7.5411164299999998  3.7228184899999999
  1.6009494900000001  8.8197960000000002  5.4971593399999996
  0.2696769900000000 11.0498182299999996  7.0319519399999999
 19.5594614100000008 12.4252548899999997  9.1531593900000008
 17.5791484400000009 14.1225391699999996 10.6470839000000002
 16.5137992099999984 16.0968030800000008 12.6860184999999994
 15.0584301299999996 17.9109019899999993 14.6028008299999996
 12.9355009100000000 20.1044415100000009 15.9269417700000009
 11.0993953800000007  0.3390647400000000 18.4188077600000000
 11.3673575699999994 -0.1713653200000000  0.1351169900000000
  9.2196728199999995  1.7159095499999999  1.6761903100000000
  6.5086694999999999  3.5231461300000002  3.0237632400000001
  5.4732542799999999  5.3969760400000002  5.1810774600000000
  3.1595838199999999  7.0919013299999998  7.2168858299999998
  1.7578712000000001  8.6869232000000007  9.5312929000000004
  0.3176920700000000 10.7175182499999995 10.8244941299999997
 19.6436132000000008 12.5575796799999999 12.5375629400000008
 18.2060714399999988 14.1943281500000005 14.3841763399999998
 16.1240819199999983 15.8423464599999999 16.6616567199999999
 14.6991820900000008 18.1731727899999989 17.9504875000000013
 13.3254450099999993 20.1080904099999991 20.0477914400000010
 13.0596065699999997 19.8457696599999984  1.5231421500000000
 11.1684683200000006  0.0242387100000000  3.4787000300000002
  8.9072497800000008  2.1314367999999999  5.0632110199999998
  7.3357670900000000  3.9777816600000002  7.0058999799999997
  5.2603337699999999  5.3252252599999998  9.0621226299999993
  4.2676373700000001  6.9821734199999996 10.8472007000000001
  1.9397712800000000  8.8812220800000006 12.7336087599999992
  0.1328331100000000 10.6260263199999994 14.2767029599999997
 20.3393652799999991 12.3984910999999993 16.1773188999999995
 18.5334221799999987 14.1838236299999991 18.2937166500000004
 16.3553598899999990 15.5026156600000000 19.5569333000000007
 14.7373972799999997 17.6361983900000006  0.3207686200000000
 14.4127651900000000 17.9525001700000004  4.0296585800000004
 12.7948257800000000 19.7249475799999985  5.3660887800000001
 10.3884919199999999  0.2588309200000000  6.6803813099999996
  9.0090440399999991  1.8642374799999999  8.7996236099999994
  6.9794244399999998  3.6867284100000002 10.6707369100000005
  5.4051066099999998  4.8696604800000003 12.8988964599999996
  3.8878276000000001  6.9588302700000000 13.9247287300000000
  1.9824927699999999  8.4152515799999996 16.2790151300000012
  0.5133678600000000 10.6771092599999999 18.2621290499999986
 19.5238504599999985 12.6511616799999995 20.1679692999999993
 17.8080709900000009 14.7733743000000004  0.5652707200000000
 16.6995270100000006 16.3559424799999995  1.7762760799999999
  7.1512100600000004  7.0136426099999998 14.2735865700000009
  5.5348172699999996  8.7001850199999993 16.1898776399999988
  3.5257735000000001 10.9105002100000004 18.1579588700000016
  1.6108502600000001 12.6087559799999998 20.0982754200000002
 -0.0949417000000000 14.5855845700000000 -0.0158280700000000
 19.8314987599999988 15.7534134600000009  1.8146618000000001
 18.4372316000000005 18.1306059300000015  3.8044839000000001
 16.3267432600000006 19.7072840700000000  5.7744556500000002
 14.1905184299999991 -0.3293529900000000  7.5989753400000000
 12.4836818800000007  1.8011137100000001  9.0743642100000006
 10.8381590100000000  3.8659775700000001 10.7011032799999999
  9.0309159200000000  5.4882703499999996 12.5564288099999999
  9.1895413700000006  5.6117093300000001 16.4141031999999996
  7.2614634400000000  7.3573690699999998 18.0679850000000002
  4.9951898500000000  8.8963932700000008 19.7741850200000009
  3.7377927500000001 10.7027288600000006  0.4044572200000000
  2.1864789099999999 12.9480404999999994  1.3730737200000001
  0.0314063500000000 14.5925409699999999  3.4541677300000000
 19.6678043500000008 16.3372176899999992  5.2834250500000000
 17.9029217100000011 17.8616627500000007  7.4330200599999996
 16.0698700599999995 20.1948554899999984  9.6652114200000003
 14.6587592400000002  0.0079086900000000 10.7902328300000008
 12.6479150400000009  1.4806506300000000 12.7310669200000000
 11.1555851500000003  3.9721873400000001 14.4233246699999995
 10.9913660499999999  3.9580496900000002 18.2697928199999993
  8.9578562300000009  5.6265602699999997 20.0863164900000015
  6.7075121199999996  7.0948749700000002  0.4285565100000000
  5.2300459500000001  9.1125965600000001  1.8151474999999999
  3.5104662499999999 10.7903504600000009  3.6524447000000002
  1.9822789900000000 12.8091224399999994  5.8365235699999998
 -0.3536907500000000 14.7559873899999996  6.9144516400000002
 20.3390585900000005 16.1918490000000013  9.3911863899999997
 17.7307673500000007 17.5136230300000015 11.3908480999999995
 16.6749928099999991 20.2139336699999994 12.9735485799999992
 14.5701382099999996  0.1378274100000000 14.6741639399999997
 12.9400912600000009  1.6756737500000001 16.6314841199999996
 12.7331775399999998  1.6952253500000001 20.0169637599999994
 11.0320704400000000  3.5809108300000001 -0.1781263200000000
  9.0717873699999991  5.1825308200000002  1.4508383199999999
  7.5328494299999997  6.9017042100000001  3.1826639399999999
  5.3901384900000000  9.0929295099999994  5.5677475300000001
  3.5486550800000001 10.5750464300000004  7.2719417399999999
  1.7311672199999999 12.7387559699999997  9.3278408800000001
  0.1526996300000000 14.2827591399999996 10.8991160199999992
 19.9289475299999985 15.5203150300000008 12.7906933100000000
 18.0780439400000006 17.6465696200000011 14.5009449000000004
 16.9083950799999982 20.3478853300000004 16.1796228400000004
 14.9050054299999992  0.5560823700000000 18.4138311100000003
 15.1225173200000000  0.0042925400000000  0.8085068500000000
 12.6391013999999995  1.8860709899999999  1.9031169800000001
 11.0713476899999996  3.8537336799999999  3.8250393800000002
  8.8481557399999993  5.3103468300000003  5.2868626299999999
  7.0073089199999998  7.3900816300000001  6.9692203299999997
  5.0912783399999997  8.9568611100000002  8.6689780899999995
  3.4650115600000002 10.4086189600000001 10.8990872900000006
  2.2284578000000002 12.5136662899999997 12.9326168599999995
  0.0654950400000000 13.8316781500000001 14.3807606200000002
 19.5973019800000010 15.9708227100000002 16.2552085400000017
 18.2959496900000005 17.9259343199999996 18.1359912399999992
 16.4683064899999998 20.0405873399999983 20.0355678200000007
 16.5840581399999998 19.3430074999999988  2.2868791499999999
 13.9957802600000001 -0.3413380000000000  4.2638692799999998
 12.9473809099999997  1.8532400700000000  5.9088563000000001
 11.0155642399999998  3.4789043799999999  6.8706227999999996
  9.1850765699999997  5.6152930500000000  9.2039737000000006
  6.6301961100000000  6.9775122900000000 11.1115085800000006
  5.7411935200000004  9.2238048799999994 12.5450413800000007
  3.6491792099999998  9.9956710799999993 14.2277321899999993
  1.8311221799999999 12.1332829199999992 16.2965795100000008
  0.0441933300000000 14.5159329600000007 18.0195214200000002
 19.6708620699999983 16.2142853400000000 19.7994514200000005
 17.8909488900000007 17.8000174000000015 -0.2178931600000000
  9.1347790000000000  8.7596857900000007 12.4200399099999998
  7.5526166100000003 11.0252058900000005 14.3464349400000000
  5.0821066400000001 12.5322117199999994 16.0070921700000000
  3.5821342899999999 14.8340529599999993 17.8598225100000008
  2.0568698099999998 16.6952026800000013 20.1075563600000002
  0.0757535800000000 17.6199452299999990  0.3357754800000000
 20.0223216800000010 19.8549200500000005  1.6004305000000001
 17.7620482399999986 21.3975446699999985  3.4380100800000002
 15.9847153100000003  1.8195228200000000  5.2091026600000001
 14.7055590899999995  4.3353691200000002  7.6264066799999997
 12.6163350300000001  5.8544210999999997  9.5761026099999995
 10.6253049300000004  7.4827912200000002 11.0435970300000008
 10.8263632500000000  7.2077174399999997 13.9177558999999995
  9.1091831299999999  8.8724243200000004 16.0554439500000008
  6.6926529900000000 10.3675016200000005 17.8452661100000007
  4.8449278900000001 12.5332608099999998 19.4150275100000016
  3.8027556900000001 14.7167636999999996 -0.2977337500000000
  2.1451551100000001 16.2336602200000009  1.5937314000000000
  0.6209095200000000 17.6486158599999996  3.6797705900000000
 19.9696839399999995 19.8094934699999996  5.1455428100000002
 18.5630645299999983 21.9262577599999986  7.5149748000000001
 15.8579452700000001  1.7622227600000000  8.8423336900000002
 14.2471911599999999  3.3822945099999999 10.5582630900000005
 12.9904409600000008  5.2493463599999997 12.3098247999999995
 12.7587591299999996  6.0309800300000003 16.1705490000000012
 10.9221496299999998  7.4942593799999999 17.9892000600000017
  9.0192120199999994  8.5292066299999991 20.0259871800000013
  7.1223605299999999 10.5381106300000003 -0.1544584800000000
  5.5182996199999996 12.9354746800000004  1.8178771600000001
  3.8405446699999999 14.4254052500000007  3.7299853000000001
  2.3131519800000002 16.0888528800000010  5.1182011400000000
  0.6285607200000000 17.8622352199999987  6.9172661499999997
 20.4426753400000010 19.4327638600000014  9.0934928999999993
 18.2801765899999999  0.0918341300000000 10.8269586199999992
 15.9164646300000001  1.6934343700000001 12.8741358699999999
 14.5999671699999993  3.3936215500000002 14.3499327700000006
 14.3898510599999998  4.1915774199999998 17.8675789000000016
 12.7321007700000006  5.1249633799999996 20.1343796799999986
 10.6500394600000003  7.3260713900000001  0.0059400700000000
  8.6789329399999993  8.9670617200000002  1.7815831099999999
  7.6134245700000003 10.9378837999999998  3.3883406300000001
  5.6284919699999998 12.6634705099999998  5.6086538499999996
  3.8838983499999999 14.6608650199999992  7.6690848899999997
  1.4896697000000001 16.6265781600000011  8.8934744600000002
  0.1027362000000000 17.6706269599999999 10.9339027499999997
 19.7273190900000017 19.4026281199999993 12.8779148800000005
 18.2889590700000007 22.0520232900000011 14.4252733400000004
 16.5305120000000016  1.6001215600000001 16.2592445599999991
 16.3836571000000006  2.5492485899999999 20.1413561500000000
 14.0229005699999991  3.4744046200000001 -0.1727249300000000
 12.3370607200000002  5.5258931000000002  1.6775009299999999
 10.6547541300000006  7.4147231500000004  3.6366713599999998
  9.2059257199999998  8.9712023199999997  5.2003188199999997
  7.6363264800000001 10.9159824000000008  7.0553663499999999
  5.3125270599999999 12.5108997199999994  9.1872507900000002
  3.6529583500000000 14.7526199899999995 10.7098367900000007
  2.1801693900000001 16.2861785800000014 12.6859654499999994
 -0.1353092300000000 17.5329213199999998 14.8113229799999999
 19.7211607999999998 20.5558068600000006 16.5377558100000002
 18.2938098700000005 22.5004453799999986 18.7079837299999987
 17.7343533600000001  0.2917136400000000  0.4479297500000000
 15.7941577599999992  2.5075353900000001  2.4721064699999999
 14.1430332799999992  4.0286476499999999  3.7826768400000002
 12.9681061399999997  5.7566884500000004  5.8443169099999999
 10.8942933600000007  7.2398182499999999  6.8430111800000004
  9.0175412700000006  9.2412063100000008  9.2085755999999996
  7.3906440099999999 11.1262889200000004 10.6392322999999998
  5.2855175200000000 12.8881921899999998 12.6821662600000007
  3.3347576399999999 14.6376361100000008 14.3399640200000000
  1.7065930499999999 16.0512824899999984 15.9690863000000007
 -0.2450282500000000 18.4128752300000009 17.8404910299999990
 20.0876481899999995 20.0810923999999993 19.9453646099999986
