 cell
        1.000000000000
     0.00000000000000    -1.43229054780562    -5.69125000000000 
    -1.24040000000000     0.71614527390281    -5.69125000000000 
     1.24040000000000     0.71614527390281    -5.69125000000000 
  Li
  3
 Direct coordinates
   0.00000000000000   0.00000000000000   0.00000000000000  site 1 species 1: Li
   0.22230024436951   0.22230024436951   0.22230024436951  site 2 species 1: Li
   0.77769975563049   0.77769975563049   0.77769975563049  site 3 species 1: Li
