 cell
        1.000000000000
     0.00000000000000    -1.79036318475703    -8.34716666666667 
    -1.55050000000000     0.89518159237851    -8.34716666666667 
     1.55050000000000     0.89518159237851    -8.34716666666667 
  Li
  3
 Direct coordinates
   0.00000000000000   0.00000000000000   0.00000000000000  site 1 species 1: Li
   0.22224765880374   0.22224765880374   0.22224765880374  site 2 species 1: Li
   0.77775234119626   0.77775234119626   0.77775234119626  site 3 species 1: Li
