 cell
        1.000000000000
     0.00000000000000    -1.43229054780562    -6.82950000000000 
    -1.24040000000000     0.71614527390281    -6.82950000000000 
     1.24040000000000     0.71614527390281    -6.82950000000000 
  Li
  3
 Direct coordinates
   0.00000000000000   0.00000000000000   0.00000000000000  site 1 species 1: Li
   0.22224210170087   0.22224210170087   0.22224210170087  site 2 species 1: Li
   0.77775789829913   0.77775789829913   0.77775789829913  site 3 species 1: Li
