 cell
        1.000000000000
     0.00000000000000    -1.61132686628133    -7.20891666666667 
    -1.39545000000000     0.80566343314066    -7.20891666666667 
     1.39545000000000     0.80566343314066    -7.20891666666667 
  Li
  3
 Direct coordinates
   0.00000000000000   0.00000000000000   0.00000000000000  site 1 species 1: Li
   0.22223875812682   0.22223875812682   0.22223875812682  site 2 species 1: Li
   0.77776124187318   0.77776124187318   0.77776124187318  site 3 species 1: Li
