 cell
        1.000000000000
     0.00000000000000    -1.70084502551918    -7.58833333333333 
    -1.47297500000000     0.85042251275959    -7.58833333333333 
     1.47297500000000     0.85042251275959    -7.58833333333333 
  Li
  3
 Direct coordinates
   0.00000000000000   0.00000000000000   0.00000000000000  site 1 species 1: Li
   0.22223427488384   0.22223427488384   0.22223427488384  site 2 species 1: Li
   0.77776572511616   0.77776572511616   0.77776572511616  site 3 species 1: Li
