 cell
        1.000000000000
     0.00000000000000    -1.96939950323273    -7.58833333333333 
    -1.70555000000000     0.98469975161637    -7.58833333333333 
     1.70555000000000     0.98469975161637    -7.58833333333333 
  Li
  3
 Direct coordinates
   0.00000000000000   0.00000000000000   0.00000000000000  site 1 species 1: Li
   0.22229225317430   0.22229225317430   0.22229225317430  site 2 species 1: Li
   0.77770774682570   0.77770774682570   0.77770774682570  site 3 species 1: Li
