 cell
        1.000000000000
     0.00000000000000    -1.61132686628133    -5.69125000000000 
    -1.39545000000000     0.80566343314066    -5.69125000000000 
     1.39545000000000     0.80566343314066    -5.69125000000000 
  Li
  3
 Direct coordinates
   0.00000000000000   0.00000000000000   0.00000000000000  site 1 species 1: Li
   0.22232782801070   0.22232782801070   0.22232782801070  site 2 species 1: Li
   0.77767217198930   0.77767217198930   0.77767217198930  site 3 species 1: Li
