 cell
        1.000000000000
     0.00000000000000    -1.52180870704347    -6.45008333333333 
    -1.31792500000000     0.76090435352174    -6.45008333333333 
     1.31792500000000     0.76090435352174    -6.45008333333333 
  Li
  3
 Direct coordinates
   0.00000000000000   0.00000000000000   0.00000000000000  site 1 species 1: Li
   0.22224759761264   0.22224759761264   0.22224759761264  site 2 species 1: Li
   0.77775240238736   0.77775240238736   0.77775240238736  site 3 species 1: Li
