 cell
        1.000000000000
     0.00000000000000    -1.70084502551918    -6.45008333333333 
    -1.47297500000000     0.85042251275959    -6.45008333333333 
     1.47297500000000     0.85042251275959    -6.45008333333333 
  Li
  3
 Direct coordinates
   0.00000000000000   0.00000000000000   0.00000000000000  site 1 species 1: Li
   0.22229448211495   0.22229448211495   0.22229448211495  site 2 species 1: Li
   0.77770551788505   0.77770551788505   0.77770551788505  site 3 species 1: Li
