 cell
        1.000000000000
     0.00000000000000    -1.43229054780562    -6.45008333333333 
    -1.24040000000000     0.71614527390281    -6.45008333333333 
     1.24040000000000     0.71614527390281    -6.45008333333333 
  Li
  3
 Direct coordinates
   0.00000000000000   0.00000000000000   0.00000000000000  site 1 species 1: Li
   0.22224879776002   0.22224879776001   0.22224879776002  site 2 species 1: Li
   0.77775120223998   0.77775120223998   0.77775120223998  site 3 species 1: Li
