 cell
        1.000000000000
     0.00000000000000    -1.79036318475703    -7.20891666666667 
    -1.55050000000000     0.89518159237851    -7.20891666666667 
     1.55050000000000     0.89518159237851    -7.20891666666667 
  Li
  3
 Direct coordinates
   0.00000000000000   0.00000000000000   0.00000000000000  site 1 species 1: Li
   0.22222644962046   0.22222644962046   0.22222644962046  site 2 species 1: Li
   0.77777355037954   0.77777355037954   0.77777355037954  site 3 species 1: Li
