 cell
        1.000000000000
     0.00000000000000    -1.79036318475703    -7.58833333333333 
    -1.55050000000000     0.89518159237851    -7.58833333333333 
     1.55050000000000     0.89518159237851    -7.58833333333333 
  Li
  3
 Direct coordinates
   0.00000000000000   0.00000000000000   0.00000000000000  site 1 species 1: Li
   0.22220993606053   0.22220993606053   0.22220993606053  site 2 species 1: Li
   0.77779006393947   0.77779006393947   0.77779006393947  site 3 species 1: Li
