 cell
        1.000000000000
     0.00000000000000    -1.70084502551918    -7.20891666666667 
    -1.47297500000000     0.85042251275959    -7.20891666666667 
     1.47297500000000     0.85042251275959    -7.20891666666667 
  Li
  3
 Direct coordinates
   0.00000000000000   0.00000000000000   0.00000000000000  site 1 species 1: Li
   0.22226029410673   0.22226029410673   0.22226029410673  site 2 species 1: Li
   0.77773970589327   0.77773970589327   0.77773970589327  site 3 species 1: Li
