 cell
        1.000000000000
     0.00000000000000    -1.79036318475703    -7.96775000000000 
    -1.55050000000000     0.89518159237851    -7.96775000000000 
     1.55050000000000     0.89518159237851    -7.96775000000000 
  Li
  3
 Direct coordinates
   0.00000000000000   0.00000000000000   0.00000000000000  site 1 species 1: Li
   0.22225262399180   0.22225262399180   0.22225262399180  site 2 species 1: Li
   0.77774737600820   0.77774737600820   0.77774737600820  site 3 species 1: Li
