 cell
        1.000000000000
     0.00000000000000    -1.52180870704347    -4.93241666666667 
    -1.31792500000000     0.76090435352174    -4.93241666666667 
     1.31792500000000     0.76090435352174    -4.93241666666667 
  Li
  3
 Direct coordinates
   0.00000000000000   0.00000000000000   0.00000000000000  site 1 species 1: Li
   0.22259296409339   0.22259296409339   0.22259296409339  site 2 species 1: Li
   0.77740703590661   0.77740703590661   0.77740703590661  site 3 species 1: Li
