 cell
        1.000000000000
     0.00000000000000    -1.52180870704347    -5.69125000000000 
    -1.31792500000000     0.76090435352174    -5.69125000000000 
     1.31792500000000     0.76090435352174    -5.69125000000000 
  Li
  3
 Direct coordinates
   0.00000000000000   0.00000000000000   0.00000000000000  site 1 species 1: Li
   0.22234576468278   0.22234576468278   0.22234576468278  site 2 species 1: Li
   0.77765423531722   0.77765423531722   0.77765423531722  site 3 species 1: Li
