 cell
        1.000000000000
     0.00000000000000    -1.87988134399488    -8.34716666666667 
    -1.62802500000000     0.93994067199744    -8.34716666666667 
     1.62802500000000     0.93994067199744    -8.34716666666667 
  Li
  3
 Direct coordinates
   0.00000000000000   0.00000000000000   0.00000000000000  site 1 species 1: Li
   0.22222810786869   0.22222810786869   0.22222810786869  site 2 species 1: Li
   0.77777189213131   0.77777189213131   0.77777189213131  site 3 species 1: Li
