 cell
        1.000000000000
     0.00000000000000    -1.52180870704347    -6.07066666666667 
    -1.31792500000000     0.76090435352174    -6.07066666666667 
     1.31792500000000     0.76090435352174    -6.07066666666667 
  Li
  3
 Direct coordinates
   0.00000000000000   0.00000000000000   0.00000000000000  site 1 species 1: Li
   0.22226752936201   0.22226752936201   0.22226752936201  site 2 species 1: Li
   0.77773247063799   0.77773247063799   0.77773247063799  site 3 species 1: Li
