 cell
        1.000000000000
     0.00000000000000    -1.96939950323273    -8.34716666666667 
    -1.70555000000000     0.98469975161637    -8.34716666666667 
     1.70555000000000     0.98469975161637    -8.34716666666667 
  Li
  3
 Direct coordinates
   0.00000000000000   0.00000000000000   0.00000000000000  site 1 species 1: Li
   0.22223394912548   0.22223394912548   0.22223394912548  site 2 species 1: Li
   0.77776605087452   0.77776605087452   0.77776605087452  site 3 species 1: Li
