 cell
        1.000000000000
     0.00000000000000    -1.43229054780562    -5.31183333333333 
    -1.24040000000000     0.71614527390281    -5.31183333333333 
     1.24040000000000     0.71614527390281    -5.31183333333333 
  Li
  3
 Direct coordinates
   0.00000000000000   0.00000000000000   0.00000000000000  site 1 species 1: Li
   0.22236127395803   0.22236127395803   0.22236127395803  site 2 species 1: Li
   0.77763872604197   0.77763872604197   0.77763872604197  site 3 species 1: Li
