 cell
        1.000000000000
     0.00000000000000    -1.61132686628133    -6.45008333333333 
    -1.39545000000000     0.80566343314066    -6.45008333333333 
     1.39545000000000     0.80566343314066    -6.45008333333333 
  Li
  3
 Direct coordinates
   0.00000000000000   0.00000000000000   0.00000000000000  site 1 species 1: Li
   0.22225898352982   0.22225898352982   0.22225898352982  site 2 species 1: Li
   0.77774101647018   0.77774101647018   0.77774101647018  site 3 species 1: Li
