 cell
        1.000000000000
     0.00000000000000    -1.34277238856777    -6.07066666666667 
    -1.16287500000000     0.67138619428389    -6.07066666666667 
     1.16287500000000     0.67138619428389    -6.07066666666667 
  Li
  3
 Direct coordinates
   0.00000000000000   0.00000000000000   0.00000000000000  site 1 species 1: Li
   0.22226345192155   0.22226345192155   0.22226345192155  site 2 species 1: Li
   0.77773654807845   0.77773654807845   0.77773654807845  site 3 species 1: Li
