 cell
        1.000000000000
     0.00000000000000    -1.87988134399488    -7.58833333333333 
    -1.62802500000000     0.93994067199744    -7.58833333333333 
     1.62802500000000     0.93994067199744    -7.58833333333333 
  Li
  3
 Direct coordinates
   0.00000000000000   0.00000000000000   0.00000000000000  site 1 species 1: Li
   0.22228782728876   0.22228782728876   0.22228782728876  site 2 species 1: Li
   0.77771217271124   0.77771217271124   0.77771217271124  site 3 species 1: Li
