 cell
        1.000000000000
     0.00000000000000    -1.61132686628133    -6.07066666666667 
    -1.39545000000000     0.80566343314066    -6.07066666666667 
     1.39545000000000     0.80566343314066    -6.07066666666667 
  Li
  3
 Direct coordinates
   0.00000000000000   0.00000000000000   0.00000000000000  site 1 species 1: Li
   0.22230282791033   0.22230282791033   0.22230282791033  site 2 species 1: Li
   0.77769717208967   0.77769717208967   0.77769717208967  site 3 species 1: Li
