 cell
        1.000000000000
     0.00000000000000    -1.34277238856777    -6.45008333333333 
    -1.16287500000000     0.67138619428389    -6.45008333333333 
     1.16287500000000     0.67138619428389    -6.45008333333333 
  Li
  3
 Direct coordinates
   0.00000000000000   0.00000000000000   0.00000000000000  site 1 species 1: Li
   0.22223203387332   0.22223203387332   0.22223203387332  site 2 species 1: Li
   0.77776796612668   0.77776796612668   0.77776796612668  site 3 species 1: Li
