 cell
        1.000000000000
     0.00000000000000    -1.87988134399488    -7.96775000000000 
    -1.62802500000000     0.93994067199744    -7.96775000000000 
     1.62802500000000     0.93994067199744    -7.96775000000000 
  Li
  3
 Direct coordinates
   0.00000000000000   0.00000000000000   0.00000000000000  site 1 species 1: Li
   0.22227367960686   0.22227367960686   0.22227367960686  site 2 species 1: Li
   0.77772632039314   0.77772632039314   0.77772632039314  site 3 species 1: Li
