 cell
        1.000000000000
     0.00000000000000    -1.43229054780562    -6.07066666666667 
    -1.24040000000000     0.71614527390281    -6.07066666666667 
     1.24040000000000     0.71614527390281    -6.07066666666667 
  Li
  3
 Direct coordinates
   0.00000000000000   0.00000000000000   0.00000000000000  site 1 species 1: Li
   0.22227087555725   0.22227087555725   0.22227087555725  site 2 species 1: Li
   0.77772912444275   0.77772912444275   0.77772912444275  site 3 species 1: Li
