 cell
        1.000000000000
     0.00000000000000    -1.61132686628133    -6.82950000000000 
    -1.39545000000000     0.80566343314066    -6.82950000000000 
     1.39545000000000     0.80566343314066    -6.82950000000000 
  Li
  3
 Direct coordinates
   0.00000000000000   0.00000000000000   0.00000000000000  site 1 species 1: Li
   0.22223944800365   0.22223944800365   0.22223944800365  site 2 species 1: Li
   0.77776055199635   0.77776055199635   0.77776055199635  site 3 species 1: Li
