 cell
        1.000000000000
     0.00000000000000    -1.96939950323273    -7.96775000000000 
    -1.70555000000000     0.98469975161637    -7.96775000000000 
     1.70555000000000     0.98469975161637    -7.96775000000000 
  Li
  3
 Direct coordinates
   0.00000000000000   0.00000000000000   0.00000000000000  site 1 species 1: Li
   0.22221729244369   0.22221729244369   0.22221729244369  site 2 species 1: Li
   0.77778270755631   0.77778270755631   0.77778270755631  site 3 species 1: Li
