Li 
 1.0000000000000000
   -10.5278949999999991   18.2348490367503473   -0.0000000000000021
   -18.0478199999999980  -10.4199137352859115    0.0000000000000046
    -0.0000000000000002   -0.0000000000000000   22.0820499999999988
 Li 
 504
Cartesian
  0.1733584300000000 -0.1460035400000000  0.3427392700000000
 -10.5164323100000008 16.8913586299999992 14.2802501999999993
 -10.5385244199999999 14.4555471900000008  7.0998574500000000
 -10.7571303000000000 12.9512057100000000 -0.3488942200000000
 -10.4622708600000003 11.2892752999999999 14.5421852600000001
 -10.6757484199999997  9.7144110300000008  7.3463328600000004
 -10.0271843999999994  7.3872669599999998 -0.2707177900000000
 -10.8285369399999993  5.9879628000000000 14.7368596200000006
 -10.4789973300000003  5.1468869799999997  7.3046408500000002
 -10.7608626800000007  2.6036964399999998  0.0546637100000000
 -10.3387370900000004  0.8788868800000000 14.7072419900000000
 -10.6643357499999993 -0.5837076700000000  7.6872334799999997
 -1.9758103600000001  1.0767471900000001 14.5925591800000003
 -1.8588230500000000 -0.9311793700000000  7.5525436499999996
 -12.0455559599999997 15.4766347300000007 -0.1531161800000000
 -11.7904119900000008 14.3136062699999993 15.0564182500000001
 -11.9603328799999993 12.5099095800000004  7.2691587999999996
 -11.7905902800000000  9.7264659899999995 -0.2167179300000000
 -12.3621891000000002  8.4730605400000005 14.6242449600000004
 -12.1879757299999998  7.5505455899999996  7.4483884600000003
 -12.0596383100000004  5.2015989800000000 -0.6817465600000000
 -12.0959945100000006  3.4447619199999999 14.8262199500000005
 -11.8690261800000005  1.8634107000000000  7.5921828800000002
 -12.0225141299999994  0.0016645600000000  0.0368309800000000
 -3.4294212100000001  1.7806888500000000  7.7546011100000003
 -2.9724606200000001 -0.4500898100000000  0.5574677400000000
 -3.0626533899999999 -1.3555026200000000 14.8366391800000006
 -13.3472660500000000 14.9989799799999997  6.8694500500000002
 -13.3329812699999994 12.9534731399999998 -0.2809083400000000
 -12.9023419300000004 11.4597718900000007 14.7647713399999994
 -13.4762881199999995  9.7353488099999996  6.9367118100000003
 -12.9259266999999998  7.3145298399999996 -0.3329438900000000
 -14.0770462700000003  6.3172022800000001 14.5479628699999992
 -13.4068594500000007  4.6502055000000002  7.2019783799999999
 -13.7809287000000005  2.5919427300000000  0.2560218100000000
 -13.2691183800000001  1.0636380400000001 14.5475425999999999
 -4.5029339400000001  2.1159236300000002 -0.0402600700000000
 -4.7316295300000002  1.3085742199999999 15.1219552400000001
 -4.5524022999999998 -0.2701256400000000  7.7177254900000003
 -4.4818586199999997 -3.0948306900000002 -0.0013987300000000
 -14.4611199900000003 14.0090905800000005 14.7584736599999999
 -14.9482514000000002 12.5123213799999995  7.0106561699999999
 -15.0989151400000008 10.1749837000000003  0.4332151500000000
 -15.4593502399999991  8.8879655500000005 14.6319371399999998
 -15.0257994299999993  7.0784359300000004  7.2288437300000004
 -15.0255319899999993  5.0461745400000000 -0.1664717800000000
 -15.3336658200000002  3.5243445499999999 14.8335081899999999
 -15.1155582699999993  1.7943577200000000  7.5147651900000003
 -6.1055979300000001  3.6725451599999999 14.5841582499999998
 -6.1924479999999997  2.1076275099999999  7.6417249600000003
 -6.2664333399999999 -0.7261976400000000  0.4600098600000000
 -5.8767678600000002 -1.8557737000000001 14.6203382200000007
 -16.3714718599999998 14.9556970699999994  7.5965991400000004
 -16.3747424799999983 12.9796930199999991  0.4651300700000000
 -16.6235229199999992 11.5685420600000004 14.2809293600000000
 -16.3196426700000004  9.6102119500000001  7.4297160599999996
 -15.7837002000000002  7.9337848500000003 -0.0296207600000000
 -16.9734578899999988  5.9643044999999999 14.9042773000000004
 -16.2991765000000015  3.9926873600000001  7.4933009100000003
 -16.5801533600000006  2.7702360599999998 -0.1718609500000000
 -7.5432232700000004  4.8738586300000000  7.3492506999999998
 -7.4965394800000000  2.2881475299999998  0.2246566200000000
 -8.2727195699999996  0.7308717700000000 15.0416648700000000
 -7.4715097100000003 -0.6711980300000000  7.5759177299999996
 -7.6856486100000003 -2.7327081899999999 -0.0574134900000000
 -17.7438794100000017 14.0851557500000002 14.9658349200000007
 -18.0725976400000015 11.9078520900000004  7.6163961100000002
 -17.9477029500000000 10.4675354299999999  0.3618793700000000
 -18.3500399899999991  8.6264096499999994 14.7336536999999996
 -18.6220070799999995  6.5087907600000001  7.6182847599999999
 -18.0481338499999993  5.1859033500000002  0.0522688000000000
 -18.4877543300000013  3.2379649100000001 14.4733166000000004
 -9.2491476499999994  4.5289411900000003 -0.0610447600000000
 -9.2727171899999998  3.6432145100000000 14.3349367300000008
 -9.0612220499999996  2.0765618699999999  7.2143576600000001
 -9.0613430499999996 -0.0912016000000000 -0.0154353100000000
 -8.8726429699999994 -1.5939657899999999 14.9844978300000005
 -9.1747552199999998 -3.2836999499999999  7.5211550799999998
 -19.5575427899999994 12.5647660400000003 -0.0549219900000000
 -19.4055656100000000 11.5878020799999994 14.6346076000000007
 -19.6407192299999984  9.7432994799999992  7.1619929000000004
 -18.7241520299999991  7.9833953800000002 -0.0849636600000000
 -19.6613296200000001  5.8676732400000002 14.9251007100000006
 -19.6018564399999988  4.2581821700000004  7.1643426799999999
 -10.9378642500000005 -2.7150671300000000 -0.0752898100000000
 -10.2818629399999999 -4.2177976499999996 14.6578286000000002
 -21.3465251000000009 12.2113311000000007  7.6668167399999998
 -20.5419363699999984 10.2038952900000002 -0.2085534900000000
 -21.4774784600000004  8.4897057100000008 14.6921710599999997
 -21.1120687599999997  7.0873525800000001  7.3126820400000003
 -21.1151841900000008  5.4074989200000001  0.4464209600000000
 -12.1172234599999999 -1.4723613300000000 14.7061126499999997
 -11.9971957200000006 -3.7808801600000002  7.2330921600000000
 -11.6328850700000004 -5.1608627800000004 -0.1639343500000000
 -22.7248076599999997 11.6047182499999995 14.6427278600000008
 -22.6697037899999998  9.7001530900000006  7.4442502099999999
 -22.5727485500000000  7.9161603999999999 -0.3966809200000000
 -22.4984686600000003  6.1519037299999999 14.9898281600000001
 -13.3890906300000001 -1.0448012600000001  7.3339228299999997
 -13.2483051900000000 -2.7623096000000000 -0.0922814800000000
 -13.5908519099999996 -4.6051272799999996 14.8245966199999994
 -13.6353882399999993 -6.2592996699999999  7.4805857099999997
 -23.8065889199999994 10.2885084500000001 -0.2688547200000000
 -24.5597610899999985  8.6180945199999996 14.3544654800000000
 -23.8341327300000003  7.2025682800000004  7.0897864799999999
 -15.2482407299999991  0.0584225300000000  0.5986855200000000
 -15.1676223100000005 -1.6894668900000001 14.8171685699999998
 -15.1497201100000005 -3.1215018300000001  7.5872226400000002
 -14.5688815399999996 -4.9164817999999997 -0.1365486500000000
 -15.4975307400000002 -6.6823553699999998 14.6537449399999993
 -25.6574300099999988  9.2121777500000004  7.3971079599999996
 -25.6325856300000012  7.7219149500000004  0.1559320200000000
 -16.5339596899999997  0.9743678000000000 14.7215527599999998
 -16.3780968800000011 -0.5827816099999999  7.0866770900000002
 -16.5092047099999988 -2.7578233200000000  0.3326972300000000
 -16.4826513800000001 -4.0828610599999999 15.0715327200000004
 -16.6076261100000018 -6.2581145300000003  7.6735812000000001
 -16.3910627399999989 -7.9495871999999999  0.0991226800000000
 -27.5970942599999987  8.7442186300000007 14.3344049699999996
 -27.0597854399999989  6.4598463900000000  6.9501493999999999
 -9.0952998699999998 15.5227800899999995 -0.4691400400000000
 -9.3599918500000001 14.1482861500000006 14.7037585499999999
 -8.9497147500000001 12.5307761000000006  6.9692018400000002
 -8.5283684300000004 10.3688607600000005  0.0856763600000000
 -9.1777832499999992  8.5361390200000002 14.5110600200000004
 -8.6935313700000005  7.3709207899999996  6.9837505499999999
 -17.9477524099999997 -9.2524773099999997  7.1741638200000004
 -1.1686245000000000  2.3229310100000000  0.4149951800000000
 -3.2299978700000000  3.7254138900000000 14.7441737400000008
 -4.3155202900000003  4.5538795900000002  7.3750029200000000
 -5.8998649900000002  4.8140254300000000 -0.2297362200000000
 -7.4244795799999999  6.3980158999999999 14.1919648499999997
 -25.4741051600000006  5.8656248199999999 14.4700718599999991
 -25.4984629399999996  4.4759747299999999  7.3425259000000000
 -7.7183070499999999 13.0948558300000002 -0.4665434500000000
 -7.6200403300000001 11.1767809600000003 14.3877597799999997
 -7.2984997700000003 10.1302660000000007  7.4344446900000003
 -7.2060918799999998  7.6883062000000004 -0.0328861400000000
 -18.2932278900000007 -6.8382326899999999 14.8886808100000003
 -19.3683392300000001 -6.5078268300000000  7.4571754300000004
 -2.7949992699999999  4.8903124199999999  0.3787839800000000
 -4.5225791199999996  6.4319558299999997 14.9011890600000001
 -5.6834150499999998  7.7098768099999999  7.3375879499999996
 -24.0312399799999987  5.0215506400000001  0.0079858800000000
 -24.1782891100000015  3.4188780300000001 14.8229586199999996
 -24.1211427299999990  1.7501620600000001  6.9157950499999998
 -5.8086891899999999 10.6363905899999995 -0.3403549400000000
 -5.8823098800000002  9.1130466400000003 14.7287147100000002
 -17.4365046300000017 -5.2460643200000003  0.3199728100000000
 -19.1632119500000009 -4.3243698000000004 14.6878974800000002
 -21.0701500000000017 -3.8175750399999999  7.2556016799999998
 -4.4797497399999999  8.0652980900000006  0.2357342100000000
 -22.6572655999999988  4.2778589299999998  7.5270782499999997
 -22.5623500200000002  2.5893350200000000  0.2293801700000000
 -22.7020603500000000  1.1131751800000000 14.7493706099999997
 -22.3087775800000010 -0.8954838800000000  7.0405419399999998
 -17.7898466500000012 -3.5971179700000002  7.2650550899999997
 -19.4087737300000001 -2.7639971900000000  0.0441427600000000
 -21.1585056599999994 -1.0697863100000000 14.6416598899999997
 -21.3848377300000010  3.8079252100000001 14.8983862299999998
 -21.3787754399999983  1.8817379200000000  7.1960338100000003
 -21.2377378499999985 -0.2024167600000000  0.2559753400000000
 -18.1227186099999997 -1.8325566200000001 14.8245653900000001
 -19.3767942499999997 -1.0982185499999999  7.4387286799999996
 -19.4091615600000011  2.6810692000000000  0.2148980500000000
 -19.8601660299999985  0.8211830200000000 14.4717447299999993
 -18.0039343199999990 -0.1164415500000000 -0.1144297300000000
 -18.1428023899999999  1.9274441000000000  7.2603409399999999
  0.0943807900000000  0.0387655800000000 17.1764840399999983
 -10.8255716300000007 16.8691789999999990  9.9419725700000008
 -10.5480637500000007 15.0919640800000003  1.8775029500000000
 -10.4445835999999996 12.4475235099999999 16.8566759499999996
 -10.5346304499999999 11.6192319099999999  9.7353661500000008
 -10.5443677099999995  9.6047067699999999  2.1798747399999998
 -10.6636987199999993  7.4790007400000000 16.9249638199999985
 -10.5845663900000009  6.5969312100000002  9.4326686800000008
 -10.8120332099999992  4.0870781000000003  2.1556073499999999
 -10.8467926000000006  2.3218121599999999 16.9848866799999989
 -10.4815847299999998  0.8489098899999999 10.3447616500000006
 -10.5408745600000007 -1.0475348600000001  2.7833878300000001
 -1.6378881700000001  1.5507823900000000  9.9012070399999992
 -0.9935942900000000 -0.5427263300000000  2.6293994700000001
 -11.7373142099999992 15.9702827299999992 16.9804233199999999
 -12.3978414000000008 14.2262716900000008  9.9943612599999998
 -12.3093046099999999 12.5919751899999994  2.2424764100000001
 -11.9326555600000006 10.0686361099999999 17.1658387899999987
 -11.9246265400000002  8.8981288900000006 10.0268513499999994
 -12.1753422100000002  6.7358955399999996  2.2215701299999999
 -12.3194216900000004  4.9244054400000001 16.9195439800000003
 -11.7155564499999993  3.8724404200000002  9.6819077300000007
 -12.0284752299999997  1.4743932700000000  2.4136933400000000
 -12.0235973000000005 -0.1504472600000000 17.2025570700000010
 -2.5583161699999999  1.7107648300000000  2.6886133800000001
 -2.7352535499999999  0.0880617800000000 17.9084563599999989
 -3.4065902600000002 -1.5907829000000000  9.6360240299999997
 -13.2144159499999994 14.7661587500000007  2.2895068900000002
 -13.2435633900000003 12.9349635099999993 17.2372939500000015
 -13.6860579700000002 11.0263090800000008  9.4377215999999997
 -13.8704621400000008  9.1219772500000005  2.4939497099999999
 -13.5468850399999994  7.3889146600000002 17.1937565700000015
 -13.5965671500000003  5.8960061300000000  9.6311974100000004
 -13.4526159300000003  4.2163139999999997  2.5711686800000000
 -13.6850707499999995  2.3809197599999998 17.4102980500000015
 -13.5602580400000008  0.9742799400000000 10.1047445800000002
 -4.5899367599999996  2.9752349200000001 17.2570196100000004
 -4.6248985200000003  1.1805921399999999  9.8964534700000009
 -4.5417316699999999 -1.2501329999999999  2.7664320800000000
 -14.9514591499999998 15.7835707400000000 17.3280838999999993
 -15.1284894199999993 14.1083432400000000  9.5967329400000008
 -15.4426640699999993 12.1581106400000003  2.8019486300000001
 -14.8278608199999997  9.7804990299999996 16.9927771099999987
 -14.7652040600000003  8.3876846500000006  9.7109637800000002
 -15.2133496200000007  6.7683341500000003  2.5679355500000001
 -15.5914757500000007  5.0663682000000003 17.0275513399999987
 -14.7266492699999993  3.3293804200000001  9.9648624100000003
 -14.9729832100000007  1.8421600600000001  2.3441204500000001
 -6.0685338800000004  3.6095495299999998  9.7274296400000004
 -6.1510471300000003  1.2831842899999999  2.5199145600000001
 -5.7992778100000004  0.0536103900000000 16.8652286400000015
 -5.9292384499999997 -1.4058695500000000 10.0820445599999999
 -16.3388964600000008 14.9477931200000000  2.7847368200000000
 -16.3926920699999989 12.8043487299999992 17.3982870600000012
 -16.3313753099999985 11.3724681400000005 10.0965794599999992
 -17.2596345599999985  9.3252530700000005  2.7400517700000000
 -16.5543231800000008  7.4359618799999998 17.2400851300000006
 -16.5164085800000002  5.8252520600000004 10.0477381300000008
 -16.6225929400000005  4.1792706900000001  2.1564197200000002
 -16.9268907199999994  2.3346889700000002 17.1131818399999993
 -7.6451348100000001  4.7401543000000004  2.7697097700000000
 -7.7080761100000004  1.8759194900000000 17.1433006799999994
 -7.6360825099999996  1.0459592400000000  9.7340683299999995
 -7.6296709500000004 -1.1751579299999999  2.6892801799999999
 -7.3324141500000000 -2.3950328600000002 17.3490996700000011
 -18.0968603500000000 13.5654715499999998  9.8254228200000000
 -18.0147719399999993 12.1367323599999999  2.5642343400000001
 -17.9170410199999992 10.2966039600000006 17.0023186600000002
 -17.9588087700000010  8.4269483300000001  9.7853579699999997
 -18.0349429400000005  7.0621894799999998  2.7370155199999999
 -18.3361588299999987  4.6511544300000001 16.8931390000000015
 -18.0982071399999995  3.3172008599999998  9.7988848599999994
 -9.1094761500000008  4.7530585700000003 16.9423922100000013
 -9.3805159099999997  3.7459329700000001  9.1506265599999992
 -9.0374118699999997  1.8425024299999999  2.2445938600000002
 -9.1494443400000005 -0.6216609100000000 17.6064822999999997
 -8.4980623899999994 -1.7278692300000000 10.4589307500000004
 -9.1646227299999996 -3.5803759300000002  2.2504698699999999
 -19.0404708900000017 12.8731368600000007 17.3590848300000005
 -19.8398573399999982 10.7852660999999994  9.9091433900000006
 -19.9518199799999998  9.9421420900000008  2.2614286099999998
 -19.5145835100000014  7.6236664699999999 17.2525024699999996
 -19.7480702699999995  5.7426343800000001  9.9239631700000004
 -19.4543896200000006  4.1353356100000003  2.8026272799999998
 -10.3131120299999992 -2.7306297900000001 17.0337143799999993
 -10.5608606300000005 -4.5155918899999996  9.7461565399999994
 -21.0517022999999988 12.5278092700000006  2.7860221599999999
 -21.0012717699999989 10.2435276399999999 17.4068907599999996
 -21.0424896600000011  8.8070938699999992  9.6404107299999993
 -20.8271710699999986  7.0434325900000001  2.1186630499999999
 -21.3511558500000014  4.8549510400000004 17.3097501600000001
 -11.7603310600000004 -2.0566184700000001  9.9646991400000005
 -12.3244748800000004 -3.0648673799999999  2.8193329700000000
 -11.9001299500000002 -5.3400426599999999 17.3239331300000003
 -22.8043104800000016 11.0532467899999993  9.8799115400000002
 -22.6713632599999997  9.5622222000000008  1.8739886200000000
 -22.4586359400000006  7.7127788600000002 17.0008797600000001
 -22.7552761299999986  6.0709068000000004  9.8549788300000003
 -13.7711826700000000 -0.6408332900000000  2.6487007299999998
 -13.7941821200000003 -2.8360569199999999 17.3253336000000004
 -13.9089039700000008 -4.6274747300000003  9.8014913900000007
 -13.4221779899999998 -5.8191021000000003  2.3637073700000002
 -23.9671389099999992 10.2194251699999992 16.8704917799999983
 -24.2427745299999984  8.4516818499999999 10.1513348099999998
 -23.7724344499999987  7.1095462400000002  2.6245452899999999
 -14.7324317400000009 -0.4803384300000000 17.1773653899999985
 -14.9952058400000006 -1.4642940799999999  9.6214959300000000
 -15.0351602399999997 -3.1462309799999999  2.1721139400000000
 -14.7904160900000008 -5.4097620800000001 17.3140081300000013
 -14.8934866100000001 -7.0922116199999996  9.6803201300000001
 -25.5775469599999994  9.4929366900000005  2.4703583199999999
 -25.6604165399999999  8.0244305800000006 16.9537645200000000
 -16.2521946100000001  1.0562447500000001  9.7074727900000006
 -16.8029801399999990 -0.6746645400000000  2.8064026200000001
 -16.7464204400000014 -2.6964433699999999 17.6518877399999994
 -16.6228812200000000 -4.1996372099999997  9.7552795099999994
 -16.3479968699999993 -5.9130309499999996  2.5975331800000001
 -16.3582545199999991 -7.5785346799999997 17.2482047700000010
 -27.1069643900000017  8.6058903200000003  9.4220424499999993
 -26.8493180900000006  6.7498576500000000  2.0483846699999999
 -8.6892520500000003 15.8125777400000000 17.1391099599999990
 -9.0329039099999999 14.0186919999999997  9.1815682499999998
 -9.1135287700000003 12.3200290500000005  2.1503749900000000
 -8.5799381100000005 10.5328318099999994 17.4194843500000012
 -9.3494687800000005  8.8605282899999995  9.4799498900000003
 -9.0665420399999999  7.2467367600000001  1.9458109200000000
 -17.9446353199999997 -9.1022411600000002  2.4775686399999999
 -1.3982514500000001  2.6124428100000001 17.4810110700000010
 -3.0825354599999999  4.0375916399999996  9.7388230500000006
 -4.5202238299999999  3.7591120800000000  2.5893569900000002
 -6.2327447200000003  4.7984509500000003 16.8840217599999995
 -7.0740657899999997  6.2657615399999997 10.0737058200000007
 -25.5824062499999982  6.1774799500000004  9.7877810000000007
 -25.3871357800000013  3.7978897599999999  2.1629495099999998
 -7.5107396199999998 13.0832715499999992 16.6748273100000013
 -7.8794982300000003 11.3264118899999993  9.5749303099999992
 -7.5095290700000001  9.6833702899999992  2.0721763700000002
 -7.1852646499999997  7.6557368099999996 16.9907233200000007
 -17.9386564899999996 -6.7741840000000000  9.6010675699999997
 -19.2995089799999988 -6.2121185399999996  2.8817584200000002
 -2.8939024000000000  5.6407860100000002 17.6377315299999999
 -4.6176066699999998  6.0802327900000002  9.8888617700000001
 -5.8618301500000003  6.7349767800000002  2.6951921400000001
 -24.0497937600000000  5.2102691099999996 17.1651289399999989
 -24.3016164100000012  3.4991778099999999  9.3048345399999999
 -24.0033727900000002  1.5822312800000000  2.5096404200000002
 -24.2734807400000001 -0.0946428700000000 17.4516704000000011
 -6.1526757099999996  8.9687526399999999  9.4073104300000008
 -17.8711873799999985 -4.9414462300000004 17.5607342200000005
 -19.7379385300000010 -3.9348089700000002  9.3308828399999992
 -20.9377620600000007 -3.7642788000000000  2.4801292899999998
 -22.7953718499999987 -2.7557396100000000 17.1570484599999986
 -22.2417600700000015  4.9239582100000003  2.7752178999999999
 -22.5445275199999990  2.6773862899999998 17.1951760200000017
 -22.8107476899999995  1.0944248400000001  9.7089059500000001
 -22.5804863800000000 -1.1483500600000001  2.5400161799999998
 -18.3198237699999993 -3.4123335199999998  2.6752560999999999
 -19.3808054500000004 -2.7535514999999999 17.3538687899999999
 -21.6171048399999997 -1.4873274200000000  9.7754919800000000
 -21.1397933500000015  3.3956454599999999  9.8996971800000004
 -21.7191967499999983  1.6649860999999999  2.5951950799999999
 -21.4703835400000003 -0.3070285500000000 17.3749334399999995
 -17.4227324099999983 -1.7666308300000000  9.9092646200000001
 -20.1480361700000010 -1.0979068599999999  2.4101162600000001
 -20.0219129299999992  2.4370131399999999 17.0623390400000012
 -19.4375477299999986  0.5573757800000000  9.7744648900000008
 -18.1280608200000017 -0.0126817000000000 17.3057019600000004
 -18.2582366699999987  1.6437104199999999  2.4665263500000001
  0.2198054700000000 -0.6537490600000000  4.9656650600000001
 -10.3144804400000005 16.4172088299999999 19.8587109300000009
 -10.6228245300000008 14.8641366999999995 12.4076969600000009
 -10.4476148200000001 12.9018061900000003  4.4027233099999998
 -10.5028580900000001 10.9734427199999995 19.8479634300000001
 -10.6070786199999993  9.6252181799999992 12.4219611899999993
 -10.1970087199999995  7.9427604000000001  5.0455558099999998
 -10.5681205200000008  5.9979550200000000 19.4199200400000009
 -10.3508486499999997  4.6079588600000001 12.3022271500000002
 -10.7544588900000004  2.9299089000000000  5.0731392800000004
 -10.1668822300000006  0.7399041900000000 19.5704852900000006
 -10.8532908700000004 -0.7818979700000001 12.4453312900000004
 -1.1793047400000001  0.6316625400000000 20.1591340400000014
 -1.7219927200000000 -0.8529835000000000 12.1326883700000003
 -11.8959870500000005 15.4039501300000001  4.4375975900000002
 -12.2389351699999995 14.2412800799999992 19.1768712500000014
 -12.5687983600000006 12.4662382199999993 12.3536584999999999
 -11.8330289700000009 10.6491269600000003  4.5798928700000001
 -11.7625498700000009  8.5892987200000004 19.3760432599999994
 -12.1045354100000004  7.0854397400000000 11.9936517400000007
 -12.0980256700000002  5.3968927999999998  4.5232789499999999
 -11.7990781899999995  3.3152974899999998 19.3467899400000007
 -12.0021620799999997  2.0476098700000001 12.5218037300000002
 -12.3094516499999997 -0.5191056600000000  5.1843905799999996
 -3.3836275100000002  2.1059158899999999 12.3661174599999999
 -3.0095372000000000 -0.0077399000000000  5.2660755500000000
 -13.6312087599999998 16.4310842500000014 19.7214047500000014
 -13.2481625199999993 15.2715699399999991 12.2493008200000002
 -13.5372460700000001 13.0409429100000001  4.7097412299999997
 -13.5937913699999999 11.4699663100000002 20.2882538900000000
 -13.5497927800000006  9.5599781600000000 11.8430578900000008
 -13.4423590599999994  7.6786341199999999  4.5715409899999999
 -13.5178830899999998  6.0380378099999996 19.6989199699999986
 -13.4318051300000008  4.1631658399999996 12.3756770599999992
 -13.8689361600000005  2.6546710000000000  4.8981906700000000
 -13.4058660799999991  0.8218107500000000 19.7856475299999985
 -4.7846554200000000  2.4269822599999999  5.1242378899999999
 -4.3234913400000003  0.6405817000000000 19.6954351900000013
 -4.5944147199999996 -0.3687760500000000 12.4381467600000004
 -4.1043988000000002 -2.8005403100000001  4.8716210499999999
 -15.4832150700000000 13.4708386999999998 19.6803285400000014
 -14.9049001800000003 12.4815671300000002 12.2456086499999994
 -15.0519733400000000 10.2880944099999994  4.7598500499999998
 -14.5954241600000003  8.2858751200000000 19.7938413299999993
 -15.1097355400000009  6.7033127900000000 12.5712684400000008
 -14.9729041499999997  5.1715734700000002  4.9883040000000003
 -14.6581863400000003  3.5913632199999999 19.7512689899999998
 -14.8764378100000005  1.8586454299999999 12.0817929300000007
 -6.3982323200000000  3.0397473700000002 19.5299403500000004
 -6.5080293999999999  2.1037140399999998 12.7656506400000005
 -5.5561269800000002  0.0556432600000000  5.3754364700000004
 -6.0608264500000004 -1.9996637799999999 19.8367507399999994
 -16.3614766500000002 14.9220777899999995 12.1487592299999996
 -17.0122870800000001 13.3337914800000004  5.2373589899999997
 -16.6372038099999990 10.8150922200000004 19.7093753400000011
 -16.5116713100000005  9.8891470800000008 12.0237017099999992
 -16.7521965199999983  7.9869079899999997  4.9756782299999998
 -16.7670398100000000  5.4924059400000003 19.7293058399999985
 -16.9623267099999993  4.7196608900000001 12.5857252200000005
 -16.6688855499999988  2.8146860999999999  4.9143720399999999
 -7.6508527800000001  4.6496025200000002 12.2126880399999997
 -7.3095168099999999  2.4956173100000001  4.9330374900000002
 -7.3615056900000004  0.4003338500000000 19.6294403799999984
 -7.9339420499999997 -0.6144304700000000 12.2914160999999993
 -7.6790704099999996 -2.0753585999999999  5.0167127000000002
 -17.9687526400000017 13.8823069900000000 19.9134540499999986
 -18.1116355499999990 12.4493459000000009 12.2828412500000006
 -18.1057908999999988 10.4918920399999998  4.8718390899999999
 -17.6620350100000003  8.5047697800000002 19.5171135199999988
 -18.1779974499999994  7.3046709600000002 12.0226134800000004
 -17.9261504900000013  5.2005682699999998  4.9753894200000000
 -18.1246501299999991  2.8824662800000000 19.5432293199999982
 -8.9744322400000005  5.2272207499999999  4.6816533199999997
 -8.8670652099999998  3.1752966900000001 19.3463863099999998
 -9.0382935199999999  2.0404457900000001 12.5644439200000004
 -8.8967160700000001 -0.1660068000000000  5.0751919000000001
 -8.9729820999999994 -1.8855384700000000 19.6673041600000005
 -9.1006282899999995 -3.3625097899999998 12.4635469899999993
 -19.7309533799999990 13.5540203300000002  5.3414802799999999
 -19.1566518700000010 11.0235589600000008 19.6760669300000011
 -19.5710750500000010  9.6981370499999997 12.2852344000000002
 -19.6510648699999990  7.8492172199999999  4.8253381099999997
 -19.3004058299999990  5.5187021700000001 20.0284366300000016
 -19.6036384400000010  4.5498681500000000 12.0689755299999995
 -10.2995633899999994 -2.6597410400000001  5.1525202300000004
 -10.4191115599999993 -4.5275979599999996 19.3855035800000017
 -21.2737029399999997 12.0753672999999999 12.4358923099999998
 -21.0859768699999996 10.9394005100000005  4.8406866800000001
 -20.7670101299999992  8.4323833900000000 19.5033985500000000
 -21.1315250699999986  7.3779385000000000 12.1842018799999998
 -20.9896684700000016  5.6433391700000000  4.9294314300000002
 -12.0794642900000007 -1.9181330000000001 19.5074683600000007
 -12.0689707199999994 -3.7872677100000001 12.1547070099999992
 -12.3630980200000007 -4.9824789000000003  5.3957675800000002
 -22.3981925799999999 11.1253563000000000 19.5850408700000003
 -22.4705123200000010  9.5734758099999997 12.0914218499999997
 -22.5262276899999989  8.2115488699999997  4.5474583300000004
 -22.5795538100000002  5.7722115699999996 19.7348085299999987
 -13.4866136099999991 -0.9726201600000000 11.8499187700000004
 -14.0982945199999996 -2.6865603500000002  5.3331877399999996
 -13.6959265000000006 -4.3697372699999999 19.9354214799999987
 -13.5151082700000007 -6.2607112300000001 12.4951127799999995
 -24.2341295599999995 10.5704878000000004  4.8171968200000004
 -23.9156390399999985  8.9381287700000005 19.4575394199999998
 -24.0697667099999997  6.7462472399999998 12.4515033400000004
 -14.9295996599999992  0.1266788800000000  4.7955930799999997
 -15.0535343299999997 -1.5967232800000000 19.9828938600000008
 -14.9603883100000008 -3.3037703000000000 12.5035022500000004
 -14.8620322100000006 -5.0383060799999999  4.7125387600000002
 -14.9718533800000007 -7.1249093300000004 19.6232806800000006
 -25.6820009899999988  9.5840922800000001 12.2938469399999999
 -25.7821681100000006  8.1005929200000004  4.7088659899999996
 -16.2202458999999983  0.3421478300000000 19.4773579999999988
 -16.0359428800000003 -0.9883020300000001 12.5090701099999997
 -16.0364410100000008 -2.5096715399999998  4.7243391499999996
 -16.3677991799999987 -4.4630758400000001 20.0532810400000017
 -16.7985165599999995 -5.8136229600000000 12.0692033999999992
 -16.7290065599999984 -7.8398687000000002  4.9783870500000003
 -26.7140990699999996  8.6263976800000002 19.6001096799999992
 -26.9732686400000006  6.9404843100000004 12.1551929699999999
 -8.9492610399999997 15.4494888800000005  4.4575544699999998
 -9.0438369600000001 13.5522401899999991 19.0973972699999983
 -9.4398985999999994 12.0279707100000000 12.1439643700000008
 -8.6717374199999995 10.3394180299999991  4.5313449700000001
 -8.7501227600000000  8.5064877600000006 19.8361162299999982
 -9.1051303699999995  7.2085444200000000 12.0136480799999994
 -17.9454252300000014 -8.6673612599999998 12.0713127199999999
 -1.7206263500000001  2.3176466699999998  5.4703559700000000
 -2.8473247900000000  2.9160545700000000 20.0492793999999996
 -4.5857305500000001  4.4261158299999996 12.2933138500000005
 -6.0259874000000000  5.4892723999999999  5.3717884900000001
 -7.3437066000000000  6.1371006799999996 19.5208038899999998
 -25.3726613199999989  5.9103846500000001 19.6466388199999997
 -26.0273681699999990  4.1625585200000002 12.0441960699999999
 -7.4686448800000003 13.0756732299999996  4.7754282400000001
 -7.4711789000000000 11.6723683400000002 19.2555737799999989
 -7.1212983300000001  9.5299739599999995 11.8770221700000000
 -7.2526693000000000  8.0309606900000006  4.3810729999999998
 -18.0781154000000015 -7.0668601000000004 20.0471306399999989
 -20.1059381100000003 -6.0596306599999998 12.4824811800000006
 -3.0187050499999999  4.9794688200000001  4.6826629100000003
 -4.5314727699999997  6.2881490700000002 19.6330151800000010
 -5.6856617500000004  7.1317875500000003 11.9252969600000007
 -23.9230865100000010  5.4983265499999998  4.9820435999999999
 -24.3874067399999994  3.1615943999999998 19.3735643899999985