Li                                      
   1.00000000000000     
    20.2271999999999998    0.0000000000000000    0.0000000000000000
     0.0000000000000000   20.2271999999999998    0.0000000000000000
     0.0000000000000000    0.0000000000000000   20.2271999999999998
   Li
   432
Direct
  0.9883460933792136  0.9924249822021807  0.9611268316919777
  0.9286716856510040  0.0615722690238911  0.0658384709697799
  0.8295117643569085  0.1485210266373969  0.1210119838633119
  0.7693495684029443  0.2285629311026725  0.2262292863075430
  0.6746880858448066  0.3389085444352133  0.3191953310393956
  0.5934535358329356  0.4169019889060266  0.4061923256802729
  0.5354081696922961  0.4773750271911084  0.4866361770289487
  0.4275444396654038  0.5782883093062807  0.5840259947002053
  0.3484502486750500  0.6370989543782599  0.6889876127195080
  0.2857017733546883  0.7416394201866794  0.7544175995688960
  0.1991368894360050  0.8333869982004458  0.8255914397444997
  0.0920404672915680  0.8962718453369689  0.9256703117584237
  0.0931230140602750  0.9223503218438509  0.0814445093735188
  0.0134398621657965  0.0125993647168201  0.1585847289788020
  0.9138040761944310  0.0949602055647816  0.2115526172678344
  0.8342241897049547  0.1428868162672075  0.3417617233230530
  0.7635315421808286  0.2201684162909316  0.4170478845317191
  0.6603862576135100  0.3552712609753215  0.4986300832542341
  0.5915988367149154  0.4133755373951900  0.5849434716619228
  0.4894749307862654  0.4689272815812373  0.6627368998180643
  0.4162470154049984  0.5567978257000448  0.7627517145230200
  0.3332092993592752  0.6250007870590082  0.8409225068224941
  0.2391766388822987  0.7175920068027182  0.8994340882573937
  0.1949040391156487  0.8279079630398698  0.0037060566959326
  0.1438232864657465  0.8394855610267342  0.1462429935927858
  0.0886444495530796  0.9177896194233526  0.2654244443126075
  0.9925287533618103  0.0123445538680613  0.3246311936402435
  0.9240817661366876  0.0769087243909183  0.4357154717410197
  0.8281905315614608  0.1827764599153596  0.5068433604255631
  0.7536828735564001  0.2799361256130339  0.5695329333768413
  0.6744042007791506  0.3583848407095402  0.6661855679481121
  0.5819297099944620  0.4067892629726302  0.7596604265543405
  0.4987704091520300  0.5403573940041113  0.8510732177464035
  0.3829910091362123  0.5740608012972643  0.9494423958827696
  0.3124516408598339  0.6520875558653714  0.0086508928571405
  0.2361421491852553  0.7070682877511487  0.0942643554224034
  0.2416662731371630  0.7496614766255334  0.2722005087209283
  0.1613283316524274  0.8357829684780924  0.3548660818106342
  0.0895820652388863  0.9174710088395841  0.4424726704635376
  0.0053579061857292  0.9948763516453099  0.5099305227614295
  0.9429370372567618  0.0879396520526825  0.5684399649976299
  0.8074672416350239  0.1424614316366046  0.6496288433396629
  0.7364048993434551  0.2434628361809814  0.7394536925526012
  0.6673416048686889  0.3140121114143355  0.8467254840017375
  0.5986672732755878  0.4301569693284293  0.9229881931260877
  0.4977610044890071  0.4971146614459769  0.0129967805726920
  0.3916576683871256  0.5867090121222915  0.0914228731608944
  0.3504410783499452  0.6659964666389797  0.1870123363589613
  0.3496379726309158  0.6506348990468283  0.3276002368098432
  0.2612388501621581  0.7406649882336680  0.4250450210607468
  0.1926045473421922  0.8291047253203629  0.4800632311936397
  0.0993494467845295  0.8863171724212933  0.5751194164293594
  0.0411467583254250  0.9911121361335233  0.6639468132020241
  0.9345091698307257  0.0581472032708419  0.7057386588356280
  0.8445713509531743  0.1649190130121809  0.8235165875652584
  0.7388062371460222  0.2448553156146147  0.9309337387280507
  0.6555104972512282  0.3426172416350255  0.0058573129251727
  0.5898347710014207  0.4252449365211177  0.0936385767679155
  0.5353523952895145  0.5321967919435195  0.1782945632613533
  0.4352364474568873  0.5869116704239801  0.2363113045799707
  0.4233686214602130  0.5674266917813640  0.4220074943640242
  0.3399410823050175  0.6418705737818371  0.4975189175961106
  0.2834318798449615  0.7252381387438689  0.5944805835706362
  0.1970855768470159  0.7849399719190018  0.6747872211675343
  0.0890839972907784  0.9007792269814914  0.7745861641749698
  0.9863194984970747  0.9946073396218935  0.8414087476269572
  0.9180746845831322  0.0827775885935793  0.9149829487027361
  0.8257492045364643  0.1352225097887967  0.9873095144162320
  0.7473335142778055  0.2201342410219880  0.0637839018747002
  0.6934572249248561  0.3489782990230950  0.1431509106549598
  0.6120452746796374  0.4146021668841939  0.2170383671491862
  0.5277703275787076  0.4930583026815398  0.3166194836655620
  0.0984051178610983  0.0943551524679620  0.9241853701945928
  0.9877214310433473  0.1648353489360872  0.0023283113826906
  0.9016419796116111  0.2468053205584582  0.0655573534646408
  0.8399923296353435  0.3085911534962804  0.1470779025272932
  0.7558436857301061  0.4075850320360672  0.2304264307467179
  0.6881453201629455  0.5147225241259292  0.3178713435374121
  0.5816381377550996  0.5877920315219143  0.3935380635975321
  0.5034444297777227  0.6657362136133500  0.4957368365369419
  0.4267480882178418  0.7366778011786081  0.5836774239637705
  0.3466565540460351  0.8125610608487577  0.7104993924023120
  0.2639997404485044  0.9087979107340587  0.7649460444352130
  0.1844632890365432  0.0092477920819505  0.8363750316405643
  0.1794666320597997  0.0019117633681347  0.9976210142778044
  0.0892093680786274  0.0632912494067384  0.0690830485682667
  0.9884260322733738  0.1642021584796680  0.1356571146772652
  0.8927278585271310  0.2199561071230818  0.2316938073485204
  0.8225270057150738  0.3074744596385059  0.3299581360741968
  0.7416409844170246  0.4052127031917436  0.4231413680588503
  0.6661656620787824  0.5217382613510537  0.4809753717766156
  0.5735642857142835  0.5396780938538228  0.5764098303274778
  0.5103184459539634  0.6384228439922452  0.6608439863154558
  0.4274905409547571  0.7415518831078955  0.7491259986552734
  0.3332116254350552  0.8241627496638202  0.8613253945182748
  0.2602313394834681  0.9064862452539160  0.9245156690001579
  0.2438534646416741  0.9011438157530449  0.0724953226348646
  0.2042530419435238  0.9861992806715705  0.1613938122923599
  0.1012832478049361  0.0716139094882138  0.2354924186244247
  0.9969124866516381  0.1526248828310415  0.3207301089621879
  0.9339141171294116  0.2286269216698287  0.3942299557032101
  0.8438481406225264  0.3383301109397223  0.4678749901123211
  0.7536710859634539  0.4200449785437428  0.5735613980185121
  0.6623631773058065  0.5115556676158803  0.6485546101289330
  0.5673086106826446  0.5671965432684729  0.7579910719229588
  0.4513852223738297  0.6350754548330926  0.8638246252570809
  0.4028713989084025  0.7353310655948420  0.9363429723342804
  0.2950243607617438  0.7936008775312473  0.0130917047342223
  0.3071034082819182  0.8364196359357692  0.1649196581830381
  0.2350294578587224  0.8957776993355466  0.2477612981529802
  0.1790674121974405  0.0014514693086554  0.3329150974924886
  0.0889750494383819  0.0804171012300259  0.4296405157411769
  0.9977427988055680  0.1661203972868250  0.4985775880991952
  0.9366459055133660  0.2455016294890058  0.5883850379686777
  0.8330914471602568  0.3690357296116105  0.6489279826174652
  0.7368042106668256  0.4378769261192872  0.7399070439803808
  0.6533292319253263  0.4845520343893384  0.8390138204991331
  0.5907253960014245  0.5941980377906972  0.9424055019973139
  0.5070564309444734  0.6594614830525245  0.0310449291053629
  0.3863599321705422  0.7560564635737990  0.0900211601210259
  0.4235443847887979  0.7428782273374495  0.2553881046313862
  0.3528354438577779  0.8522768786584436  0.3341401395151067
  0.2526917161050477  0.9146089137399116  0.4185558347176084
  0.1891934118414795  0.9811802424458165  0.5232833031759228
  0.0887186946290157  0.0689330619166242  0.5835881980699256
  0.0194464785041930  0.1722423068936862  0.6697259225201719
  0.9002383083175118  0.2403409092706852  0.7465491615250741
  0.8427680870313239  0.3194881525866151  0.8409002466975153
  0.7694515231964871  0.4137465368414794  0.9138020719625075
  0.6816973214285724  0.4986806908519199  0.0124317473501065
  0.6032523557388103  0.5733934049201110  0.0667554219071320
  0.5023736824671730  0.6774134887675984  0.1862755769458957
  0.4840995560433470  0.6413456924339513  0.3335327133760515
  0.4118729384195561  0.7493929832107256  0.4083403303472579
  0.3587508191939577  0.8281313726071815  0.5044874782471140
  0.2471145630635974  0.8806120530770443  0.5989792269814913
  0.1673896347492487  0.9783772257158674  0.6664862734337902
  0.1050646545246039  0.0758431582225896  0.7359320746321814
  0.9682669089147282  0.1497310468082560  0.8391400811778169
  0.8860399476941936  0.2268164550703986  0.9188760589700991
  0.8241267733546920  0.3174440599786408  0.9918973644399642
  0.7605993681775018  0.4220829615567183  0.0638964073129245
  0.6954916355204901  0.5257876616635002  0.1573885871499741
  0.5944132628342018  0.5874421828033505  0.2289607043980411
  0.1808180296828041  0.1478411277883254  0.8271475310473022
  0.0959682417734555  0.2523178368731180  0.8977943007435556
  0.9744665850933387  0.3207811382692611  0.9755646807269400
  0.9034873264712857  0.4004464700996664  0.0760701767916458
  0.8521436788087300  0.5208147044573650  0.1634204729275410
  0.7645369858408486  0.6132113599509594  0.2427182966500538
  0.6765668436560688  0.6770252971246649  0.3472527942572370
  0.5809128109674120  0.7449762957799422  0.3893060858645754
  0.5067856890721387  0.8720985479947814  0.4811115814349023
  0.4197001423825313  0.9058340600775168  0.6147072802958391
  0.3351852075423167  0.9914547119719970  0.6667889327242520
  0.2595962871776649  0.0927640261627900  0.7190713514475533
  0.2728405592469514  0.0972850908677430  0.8925334692888782
  0.2044513002293940  0.1521140167694952  0.0033773290420811
  0.0853690144953347  0.2561997315496001  0.0656163720139205
  0.9838744532115200  0.3119554046037010  0.1512010673746218
  0.9072990483111880  0.3936105219704160  0.2323120476388212
  0.8327214775154275  0.4979191504508762  0.3217124737976604
  0.7608796368256634  0.6003467247073218  0.4042964878974828
  0.6271645724568913  0.6544816193046969  0.5100368810314819
  0.5603880546986204  0.7574761761390576  0.6029834678057284
  0.5197625430113888  0.8576158949335522  0.6726929654129066
  0.4037678902665718  0.9247631501146998  0.7779366684464506
  0.3625137171729165  0.0020409053156172  0.8298214330208822
  0.3271271416706227  0.0019794534092696  0.0038423810512569
  0.2726253717766198  0.0977189096859661  0.0727258681379510
  0.1828514312411045  0.1675864232320805  0.1543976595870902
  0.0556748897524102  0.2465978029583908  0.2207740117267818
  0.9756025307506704  0.3303909473382376  0.2946199493750967
  0.9014932229868720  0.4083858334322130  0.4072529143925010
  0.8369986186916591  0.5054907426633477  0.4929504676870735
  0.7447662202380982  0.6082400287731389  0.5821654989321274
  0.6533286698109464  0.6687606752293931  0.6526302048726436
  0.5663677152547066  0.7418831385461147  0.7580923820400258
  0.4935036035635179  0.8330777344367988  0.8615995614815688
  0.4027033425288735  0.9042316371025123  0.9505578275787059
  0.4312834114459747  0.9096919370946068  0.0736241719071344
  0.3373825467687084  0.0026160150688170  0.1599514599153622
  0.2646764727693380  0.0898405172243315  0.2357506609911439
  0.1494897939408304  0.1615292502175265  0.3239173790737198
  0.0506063785397899  0.2518278738530313  0.4114194910813183
  0.0251595178769151  0.3347050066247448  0.4985866832779635
  0.9429046971404844  0.4215971914056311  0.5818441781363717
  0.8531241491654811  0.4896917165994310  0.6508650381664296
  0.7652210889297564  0.5675188612363584  0.7191298370510992
  0.6912636741615259  0.6382450264989714  0.8033650287731362
  0.5786123151004574  0.7095954017362729  0.8958832819174205
  0.5185025895823472  0.8103853494304687  0.0082888318699545
  0.4832930974133873  0.8308741204912167  0.1830688706296471
  0.4003837318066772  0.9104111429164661  0.2437878885856648
  0.3198577662751134  0.0026529079655120  0.3298245194589455
  0.2497814863154559  0.0968547228484411  0.4386231070044317
  0.1564601383285904  0.1760869621104248  0.5180915875652587
  0.0699948455545041  0.2643749213929780  0.5934325106786886
  0.9790902472907774  0.3437853706889697  0.6682775154247764
  0.9251063795285575  0.4128942503164055  0.7835244210765708
  0.8171682813241574  0.5189152512458506  0.8160621875494414
  0.7437239568501823  0.5780027289985767  0.9288375642698909
  0.6749156185730101  0.6920098664175001  0.0238623353701968
  0.5829677963336479  0.7608294479710480  0.0915942888783405
  0.5848217954042099  0.7483407347532065  0.2682553610979284
  0.4868035768667909  0.8407197684306311  0.3384560122013909
  0.3948052839740512  0.9477768183436197  0.4080850656541699
  0.3415906161010938  0.9934974430469836  0.5246052513447239
  0.2455440644280955  0.0877925071191257  0.5747050105798124
  0.1709419474766634  0.1775065728326197  0.6752665737225101
  0.0822421269379845  0.2505841263249451  0.7549968453369686
  0.9703133854413863  0.3128597902823955  0.8368165391156452
  0.8812773710647051  0.4138295849153621  0.9318247330327480
  0.8257692671254517  0.5163896174458174  0.9952536811817723
  0.7679887003638655  0.5991441118889398  0.1097279727297931
  0.6906587402111981  0.6832056028516078  0.1701695602950508
  0.2411113416587582  0.2671905547975015  0.7731024516492653
  0.1741509081830372  0.3429933065377284  0.8422921229829115
  0.0864167250039571  0.4151727841718085  0.9024212777843701
  0.0013617554579994  0.5128712837169758  0.0158734243988263
  0.9243378228326193  0.6158527210884372  0.0731940169672498
  0.8372743390088573  0.7030887587011563  0.1468857849826009
  0.7550007776657139  0.7613352139693106  0.2642521579852897
  0.6659789610030060  0.8411158163265284  0.3176140404999188
  0.5862280557862647  0.9527351961714885  0.4103475720811574
  0.4793152828864109  0.0266622112798629  0.5023410096305980
  0.4054974796313857  0.0938325334203469  0.5843821764752448
  0.3426234792754315  0.1783797035674723  0.6685650510204084
  0.3388438899106134  0.1845057412790680  0.8341585716263253
  0.2647085854690729  0.2636030968201268  0.9221841500553722
  0.1574497869205800  0.3203285897207735  0.9965415494977066
  0.0500154292240182  0.4093002368098411  0.0731841653812708
  0.9849490161762375  0.5218451199375096  0.1693295433871214
  0.9137038294969173  0.6118399303907580  0.2596200378698015
  0.8334655978088890  0.6810147306597045  0.3429645694905901
  0.7609830980066477  0.7775132143845909  0.4340836863233690
  0.6528628955070417  0.8569464572456909  0.5051599005299821
  0.5987081385461153  0.9399875642698916  0.5965489425130528
  0.4768589700996699  0.0047372186956167  0.6773490720416078
  0.4192047747587395  0.0819951599825970  0.7516544277013111
  0.4122703789946200  0.0785954931972768  0.9368384942058228
  0.3470946176435703  0.1940457389060271  0.0092699918921042
  0.2579378697990791  0.2771902863470999  0.0963199241615271
  0.1245835988174306  0.3295465378302467  0.1597135426554317
  0.0402089256051283  0.4209335231767142  0.2393724623279567
  0.9642161352040830  0.4810241719071371  0.3255531235168476
  0.8763452227693378  0.6010449038917898  0.4044810725162193
  0.8202783094051540  0.7017817987660209  0.5242065634393285
  0.7305686723817431  0.7741177221760793  0.5726893979394063
  0.6650178526934027  0.8504282041014051  0.6938778100775167
  0.5515229473184604  0.9146275925486478  0.7803749802246500
  0.4976067691029868  0.9898850078112673  0.8533505799121954
  0.5149921259492203  0.0148494284923260  0.0115300105798113
  0.4019008963178266  0.0941012394201834  0.1038101521713344
  0.3429336171096367  0.1705470776973570  0.1672627570795768
  0.2329340427740831  0.2691612600854327  0.2409316430351183
  0.1278258310591696  0.3474537138111060  0.3245082062766969
  0.0495504029227973  0.4153570009689957  0.3972699172401519
  0.9881210340531581  0.5176301930074345  0.4863240685809203
  0.9442985712308172  0.5966070691939578  0.5668886791053609
  0.8271637715551350  0.6707267194668560  0.6535542843300135
  0.7633288171373209  0.7555679194352152  0.7329150317394379
  0.6476997488530287  0.8336905330446100  0.8272401330881181
  0.5741352273176688  0.9017620950996701  0.9351681760204116
  0.5814401345712739  0.9317849242603984  0.1143502269221628
  0.4957676356589147  0.0091845851131183  0.1893077944549901
  0.4150041839700975  0.0985061540895416  0.2286082962545493
  0.3245595168881508  0.1939384487225126  0.3210032584836284
  0.2196058525154214  0.2505502387873761  0.4107969847532047
  0.1498564245174805  0.3538711729750048  0.4780047095000768
  0.0814758720930229  0.4184657065733290  0.5835823514871095
  0.9942838143687709  0.4838286851368423  0.6927436753480478
  0.9089115982439466  0.6090512671056771  0.7477613263328564
  0.8367530414491355  0.6511144577598458  0.8500275060314806
  0.7257072259136237  0.7518944732834996  0.9141580574671764
  0.6642769542991616  0.8345496262458454  0.0079978608012965
  0.6678170760164548  0.8110267095791812  0.1694701426791667
  0.5587645215353589  0.9338152008186995  0.2601512676000652
  0.4904034384393299  0.0404768702539187  0.3195951347690240
  0.4026671289155175  0.1126327015108401  0.3977938167418102
  0.3392150470653377  0.2034435250553699  0.5130473965749118
  0.2475796709381441  0.2745365997270994  0.6010422638822988
  0.1472849435413721  0.3630109026459394  0.6846166028911540
  0.0258146723224186  0.4067732642184794  0.7832121247626986
  0.9797430583570659  0.5200407896298032  0.8671637216223687
  0.9148755467884797  0.5923615809405192  0.9091531853148211
  0.8353287948900459  0.6865700882969463  0.9778563498655259
  0.7603344036742570  0.7634487002649877  0.0867550961082131
  0.3551746198188610  0.3269683747626928  0.6771091243474103
  0.2675012245886705  0.3924653891789305  0.7566752674616382
  0.1556537345752247  0.4905243661999705  0.8046313167418120
  0.0953316830802109  0.5645915059919346  0.9161352406660370
  0.0102149748853009  0.6671026548410026  0.9525938384946997
  0.9297036342153149  0.7333398048172768  0.0715447610148701
  0.8653528570439804  0.8308945696883399  0.1411753455742755
  0.7540901681893715  0.9264051732320837  0.2512936585389980
  0.6565490552325599  0.0203894691306772  0.3518100883958226
  0.5758472477653882  0.1016793006446761  0.4268525154247769
  0.4677272682328777  0.1836076787691852  0.4641263274205016
  0.4150138575779181  0.2368266398710617  0.5875632781601041
  0.4357468522583474  0.2463663502610345  0.7478730545997436
  0.3821063365171682  0.3305180064467663  0.8421431671214989
  0.2522991199968345  0.4116687539550696  0.9216617856154059
  0.1605502887201382  0.4973378678215497  0.0165396085469069
  0.0660277299873471  0.6206974623279535  0.0964099499683613
  0.9791203532866604  0.6902854497903803  0.1585191811026760
  0.9025322620036391  0.7581553096820102  0.2510504820242048
  0.8444762695775978  0.8367554461319386  0.3311746934820405
  0.7445451520724546  0.9210253450798902  0.4237870703804774
  0.6508206716698339  0.9965632875533927  0.5117480803077044
  0.5704754133048553  0.0720057615488088  0.5685834089740567
  0.5056177775470658  0.1571708526142999  0.6707646426593925
  0.5163725977891147  0.1758427992999501  0.8157173889613958
  0.4506996984258791  0.2497506871934831  0.9106372107854739
  0.3417226660140784  0.3699852169356106  0.9996218670898571
  0.2413620634591069  0.4157061837525688  0.1226050713890174
  0.1490549062648299  0.5054611518153749  0.1758604814309450
  0.0518327553986708  0.5781187406067048  0.2428650440990339
  0.9908857755893052  0.6562389945222264  0.3178202707245674
  0.9261677572773266  0.7555645116476839  0.4006810003361778
  0.8474057773690902  0.8290040885540293  0.5001798731411142
  0.7369681226269549  0.9108827479829174  0.5605172678373691
  0.6693001809444681  0.0000482256565419  0.6748381955980065
  0.5698353385540287  0.0683543817236227  0.7385252160457227
  0.5732693857775644  0.0765798148038286  0.9354339725715874
  0.4902025258068363  0.1539433999762707  0.0027846474054769
  0.4293565555291892  0.2644125751463378  0.0830902492683094
  0.3323877902032919  0.3332325349034946  0.1908419588474928
  0.2289358438142699  0.4329983047579518  0.2540450027685495
  0.1570861325344097  0.5052553131426976  0.3436003658440114
  0.0803180573682951  0.5766126231015676  0.3901493933910771
  0.0103260827005229  0.6736486033657627  0.5127820968794481
  0.9494126952816018  0.7496942097769335  0.5907583723896508
  0.8346719812925159  0.8396922396574880  0.6896730793189363
  0.7575728652507507  0.9407380858448064  0.7397335671768701
  0.6666487052088286  0.0035993928966960  0.8390769330406584
  0.6481532031126420  0.9994968136964104  0.0059521658954296
  0.5848298400174059  0.0880684835271310  0.1211489988728047
  0.4995599371143840  0.1884169870273666  0.1790089849311798
  0.4296699721167556  0.2586003391472858  0.2725993019300716
  0.3056612165796579  0.3427334579180510  0.3179760960488878
  0.2659661801930042  0.4303357558139567  0.3926277680548935
  0.1524593962585001  0.5059968394043679  0.4854181181775061
  0.0734616120866960  0.5800377822931466  0.5807036366872325
  0.0176330826807458  0.6742019542991642  0.6661459994462930
  0.9087399274244561  0.7363226778792935  0.7326646011311482
  0.8050220228207579  0.8227484001740208  0.8016829328824571
  0.7399312737304200  0.9114769523216282  0.9004613555015055
  0.7182192745412124  0.9004875563597565  0.0925784760124984
  0.6562105155434281  0.0275968023255828  0.2007935715274485
  0.5771140563202053  0.1197654064823581  0.2568846068660022
  0.5175877017085924  0.1873040944866347  0.3469864612996361
  0.4020947644755566  0.2895194876206304  0.3751206914451828
  0.3396530721009299  0.3475222838554046  0.4797099346424645
  0.2345594170226235  0.4099183757514666  0.5805479087565288
  0.1483709069965187  0.4653661792042385  0.6979656764159188
  0.0894083046590737  0.5898790920147121  0.7484793663977243
  0.9916386148354661  0.6848035798330940  0.8344546674774591
  0.9303434830327504  0.7761982676791632  0.9281626389218474
  0.8345667101724388  0.8528235222868190  0.9955230466896055
  0.4211718354492930  0.4120413107103289  0.5755533158321455
  0.3430356890721384  0.4838717261904790  0.6734001206296441
  0.2603124218873631  0.5685442097769311  0.7116599109120401
  0.1846433050545784  0.6569414985761739  0.8337808717963924
  0.1017882979354567  0.7560053274798264  0.9236472087090632
  0.0068066044731836  0.8250427607380146  0.0114155706177854
  0.9032537978563511  0.9360001038205965  0.0583792620827381
  0.8419476007554181  0.0146730575660499  0.1604645378500251
  0.7578011721839886  0.0855002541132706  0.2478317597096975
  0.6791429115250764  0.1704841001226072  0.3651994032787513
  0.6025663032945729  0.2488028125494353  0.4378202865448486
  0.5235234876799524  0.3467904989321298  0.4976230387794658
  0.4790400450877996  0.3187807442453732  0.6462155661683298
  0.4447702405671592  0.4198921506684101  0.7516213212901448
  0.3421913675644674  0.4989454220060097  0.8320555988965381
  0.2355546303986742  0.5508510401835167  0.9055874609436785
  0.1589636153298528  0.6317542339028606  0.9908260797342194
  0.1028156516967229  0.7530572985880397  0.0673459648394257
  0.0078031264831537  0.8417847215630445  0.1623628969901887
  0.8990309523809543  0.9138160595633593  0.2483802330525222
  0.8371831449731033  0.0237953651518765  0.3296944945420037
  0.7480892980738787  0.0731682689645652  0.4409436224489767
  0.6691698119363991  0.1691446799359255  0.5189041552958358
  0.5575565673943998  0.2451692547658624  0.5782517476467319
  0.5750160472037678  0.2721016438261330  0.7246835800308489
  0.5132707903219398  0.3377842153140307  0.8425081266809045
  0.4449595455624120  0.4282260174418582  0.9299629226981523
  0.3325440777764612  0.4913332957601639  0.0369918426672982
  0.2307931438854638  0.5710169247350123  0.1098153427068524
  0.1645755828784985  0.6536769127709192  0.1826506936204737
  0.0989161015859850  0.7481645828389532  0.2569399452222783
  0.9939710909072943  0.8378623328982755  0.3437491605363050
  0.9355167912513878  0.9072569307664935  0.4201220233151375
  0.8556521466144602  0.9767398641433331  0.5074206004785609
  0.7371113466025960  0.0584685873477326  0.5643817676198353
  0.6619650816722071  0.1581429456375574  0.6263933470772045
  0.6229399783459897  0.1742140202301883  0.8458673138150630
  0.5847484708709061  0.2724048395230199  0.9680192033499466
  0.5150470238095224  0.3407810141789298  0.9998680346266440
  0.4212409710686629  0.4077956434899548  0.1236042502175323
  0.3265793446448342  0.4981771871539280  0.1872934444708108
  0.2564324592627756  0.5783132529465291  0.2742661134511977
  0.1801123768984354  0.6572922025787094  0.3676617020645452
  0.0811848164847362  0.7512439294613174  0.4075340625494377
  0.9912694475755401  0.8319375914610063  0.4839243123121335
  0.9222894864341100  0.9119004034171780  0.5979440604730257
  0.8473823312173678  0.0060466372013934  0.6492056379528535
  0.7209997211675372  0.1098986730738787  0.7488076233982000
  0.7219175585350399  0.0880130556873908  0.9078767155117831
  0.6506883043624399  0.1360792116555913  0.0120094511351070
  0.5656109792754336  0.2575515548370504  0.0870029934939112
  0.5338311872132593  0.3481987027369087  0.1842218834045255
  0.4110478187786768  0.4243391304777759  0.2338792398354670
  0.3334256184741307  0.4964840610662904  0.3316113935690552
  0.2798611874110080  0.5382745866951453  0.4376142733546899
  0.1731561175051439  0.6365428813676601  0.4885104621499750
  0.0994964577400737  0.7491450126562285  0.5652141937588979
  0.0234791567789898  0.8371392605007131  0.6664124327638064
  0.9223037088672683  0.9266802251423840  0.7288385372172144
  0.8379779475162152  0.0181372004034159  0.8193742618849882
  0.8278208620075915  0.9884023873793737  0.9799903293584862
  0.7188821230817908  0.0407300911643702  0.0896518905236547
  0.6760969283934486  0.1733376967647544  0.1618138654880568
  0.6081407535397858  0.2500114860188276  0.2612280953369748
  0.5009658232479026  0.3653704546353396  0.3355943620471464
  0.4122047253203576  0.4147092924379052  0.4093866422441081
  0.3212683179085616  0.5016095292477445  0.5174618849865524
  0.2500865952776437  0.5562455352199009  0.5994234278595130
  0.1641486275905706  0.6521079897365922  0.6675739257040050
  0.1138630878223381  0.7379474588672679  0.7579199330604354
  0.9933282990230978  0.8254602426435724  0.8174462575146322
  0.9166865646258486  0.8938338069530118  0.8926339429085601
 
  0.00000000E+00  0.00000000E+00  0.00000000E+00
  0.00000000E+00  0.00000000E+00  0.00000000E+00
  0.00000000E+00  0.00000000E+00  0.00000000E+00
  0.00000000E+00  0.00000000E+00  0.00000000E+00
  0.00000000E+00  0.00000000E+00  0.00000000E+00
  0.00000000E+00  0.00000000E+00  0.00000000E+00
  0.00000000E+00  0.00000000E+00  0.00000000E+00
  0.00000000E+00  0.00000000E+00  0.00000000E+00
  0.00000000E+00  0.00000000E+00  0.00000000E+00
  0.00000000E+00  0.00000000E+00  0.00000000E+00
  0.00000000E+00  0.00000000E+00  0.00000000E+00
  0.00000000E+00  0.00000000E+00  0.00000000E+00
  0.00000000E+00  0.00000000E+00  0.00000000E+00
  0.00000000E+00  0.00000000E+00  0.00000000E+00
  0.00000000E+00  0.00000000E+00  0.00000000E+00
  0.00000000E+00  0.00000000E+00  0.00000000E+00
  0.00000000E+00  0.00000000E+00  0.00000000E+00
  0.00000000E+00  0.00000000E+00  0.00000000E+00
  0.00000000E+00  0.00000000E+00  0.00000000E+00
  0.00000000E+00  0.00000000E+00  0.00000000E+00
  0.00000000E+00  0.00000000E+00  0.00000000E+00
  0.00000000E+00  0.00000000E+00  0.00000000E+00
  0.00000000E+00  0.00000000E+00  0.00000000E+00
  0.00000000E+00  0.00000000E+00  0.00000000E+00
  0.00000000E+00  0.00000000E+00  0.00000000E+00
  0.00000000E+00  0.00000000E+00  0.00000000E+00
  0.00000000E+00  0.00000000E+00  0.00000000E+00
  0.00000000E+00  0.00000000E+00  0.00000000E+00
  0.00000000E+00  0.00000000E+00  0.00000000E+00
  0.00000000E+00  0.00000000E+00  0.00000000E+00
  0.00000000E+00  0.00000000E+00  0.00000000E+00
  0.00000000E+00  0.00000000E+00  0.00000000E+00
  0.00000000E+00  0.00000000E+00  0.00000000E+00
  0.00000000E+00  0.00000000E+00  0.00000000E+00
  0.00000000E+00  0.00000000E+00  0.00000000E+00
  0.00000000E+00  0.00000000E+00  0.00000000E+00
  0.00000000E+00  0.00000000E+00  0.00000000E+00
  0.00000000E+00  0.00000000E+00  0.00000000E+00
  0.00000000E+00  0.00000000E+00  0.00000000E+00
  0.00000000E+00  0.00000000E+00  0.00000000E+00
  0.00000000E+00  0.00000000E+00  0.00000000E+00
  0.00000000E+00  0.00000000E+00  0.00000000E+00
  0.00000000E+00  0.00000000E+00  0.00000000E+00
  0.00000000E+00  0.00000000E+00  0.00000000E+00
  0.00000000E+00  0.00000000E+00  0.00000000E+00
  0.00000000E+00  0.00000000E+00  0.00000000E+00
  0.00000000E+00  0.00000000E+00  0.00000000E+00
  0.00000000E+00  0.00000000E+00  0.00000000E+00
  0.00000000E+00  0.00000000E+00  0.00000000E+00
  0.00000000E+00  0.00000000E+00  0.00000000E+00
  0.00000000E+00  0.00000000E+00  0.00000000E+00
  0.00000000E+00  0.00000000E+00  0.00000000E+00
  0.00000000E+00  0.00000000E+00  0.00000000E+00
  0.00000000E+00  0.00000000E+00  0.00000000E+00
  0.00000000E+00  0.00000000E+00  0.00000000E+00
  0.00000000E+00  0.00000000E+00  0.00000000E+00
  0.00000000E+00  0.00000000E+00  0.00000000E+00
  0.00000000E+00  0.00000000E+00  0.00000000E+00
  0.00000000E+00  0.00000000E+00  0.00000000E+00
  0.00000000E+00  0.00000000E+00  0.00000000E+00
  0.00000000E+00  0.00000000E+00  0.00000000E+00
  0.00000000E+00  0.00000000E+00  0.00000000E+00
  0.00000000E+00  0.00000000E+00  0.00000000E+00
  0.00000000E+00  0.00000000E+00  0.00000000E+00
  0.00000000E+00  0.00000000E+00  0.00000000E+00
  0.00000000E+00  0.00000000E+00  0.00000000E+00
  0.00000000E+00  0.00000000E+00  0.00000000E+00
  0.00000000E+00  0.00000000E+00  0.00000000E+00