Li 
 1.0000000000000000
    20.2271999999999998    0.0000000000000000    0.0000000000000000
     0.0000000000000000   20.2271999999999998    0.0000000000000000
     0.0000000000000000    0.0000000000000000   20.2271999999999998
 Li 
 432
Cartesian
 -0.2357259000000000 -0.1532214000000000 -0.7862953499999999
 18.7844279199999988  1.2454346000000001  1.3317279200000001
 16.7787003599999984  3.0041645099999998  2.4477335999999998
 15.5617875899999998  4.6231881200000000  4.5759850200000001
 13.6470508499999994  6.8551709100000000  6.4564278000000002
 12.0039033600000007  8.4327599099999997  8.2161334099999994
 10.8298081300000000  9.6559601500000003  9.8432872800000002
  8.6480268900000006 11.6971532899999993 11.8132105999999997
  7.0481728700000001 12.8867279700000008 13.9362902399999999
  5.7789469100000002 15.0012888800000006 15.2597556700000005
  4.0279816899999998 16.8570854899999993 16.6994031700000001
  1.8617209400000001 18.1290698699999986 18.7237185299999993
  1.8836178299999999 18.6565644299999995  1.6473943799999999
  0.2718507800000000  0.2548498700000000  3.2077250300000002
 18.4836978099999989  1.9207790700000000  4.2791170999999997
 16.8740195300000018  2.8902002100000002  6.9128827299999998
 15.4441052100000000  4.4533905899999997  8.4357109700000006
 13.3577649100000002  7.1861428500000004 10.0858904200000001
 11.9663879899999994  8.3614296699999997 11.8317685899999994
  9.9007073200000004  9.4850859100000005 13.4053118199999997
  8.4195116300000006 11.2624609800000002 15.4283314800000007
  6.7398911400000001 12.6420159200000004 17.0095077299999993
  4.8378737100000002 14.5148770400000000 18.1930331900000013
  3.9423629800000000 16.7462599499999989  0.0749631500000000
  2.9091423800000000 16.9804423399999997  2.9580862799999998
  1.7930290099999999 18.5643141900000010  5.3687933200000000
 -0.1511224000000000  0.2496957600000000  6.5663800800000001
 18.6915866999999984  1.5556481499999999  8.8133039899999996
 16.7519755199999985  3.6970560099999998 10.2520220200000001
 15.2448942200000008  5.6623239999999999 11.5200565499999996
 13.6413086499999991  7.2491218499999999 13.4750687199999994
 11.7708086299999994  8.2282077800000000 15.3658033799999991
 10.0887288200000000 10.9299170799999992 17.2148281899999986
  7.7468357399999999 11.6116426399999995 19.2045612299999995
  6.3200218300000000 13.1899054099999997 20.4021833400000006
  4.7764944800000002 14.3020116700000006  1.9067039699999999
  4.8882320400000001 15.1635526200000008  5.5058541300000003
  3.2632204300000001 16.9055492600000008  7.1779472100000001
  1.8119943500000000 18.5578695899999992  8.9499832000000001
  0.1083754400000000 -0.1036370600000000 10.3144666699999998
 19.0729760400000004  1.7787729299999999 11.4979488599999993
 16.3328013900000002  2.8815958699999999 13.1401725400000000
 14.8954091799999997  4.9245714800000000 14.9570777300000000
 13.4984521100000006  6.3515857799999997 17.1268857099999998
 12.1093626699999994  8.7008710499999999 18.6694667800000005
 10.0683113899999999 10.0552376799999994  0.2628884800000000
  7.9221379900000004 11.8674805299999999  1.8492287400000000
  7.0884417800000001 13.4712437299999994  3.7827359299999999
  7.0721971999999997 13.1605222299999998  6.6264355100000003
  5.2841304700000000 14.9815788500000000  8.5974706500000000
  3.8958507000000000 16.7704671000000012  9.7103349899999998
  2.0095611299999998 17.9277147100000001 11.6330554599999996
  0.8322837100000000 -0.1797766000000000 13.4297849800000009
 18.9025038800000011  1.1761551100000001 14.2751169999999998
 17.0833136299999993  3.3358498600000002 16.6574347200000012
 14.9439815199999995  4.9527374399999999 18.8301829199999986
 13.2591419300000002  6.9301874699999999  0.1184770400000000
 11.9307058799999997  8.6015143799999993  1.8940462199999999
 10.8286799699999996 10.7648509499999996  3.6063997900000002
  8.8036146700000000 11.8715797399999996  4.7799160199999999
  8.5635617800000006 11.4774531799999995  8.5360299899999994
  6.8760562600000004 12.9832444700000007 10.0634146500000003
  5.7330333199999997 14.6695368800000008 12.0246776600000000
  3.9864893800000001 15.8771377999999999 13.6490560799999994
  1.8019198299999999 18.2202415799999997 15.6677092600000005
 -0.2767182400000000 -0.1090784200000000 17.0193430200000009
 18.5700802600000010  1.6743588400000000 18.5075430999999995
 16.7025943099999985  2.7351727499999998 19.9705070099999986
 15.1164644599999995  4.4526993199999998  1.2901697400000001
 14.0266979799999998  7.0588538500000002  2.8955421000000001
 12.3799621799999997  8.3862409499999995  4.3900784599999998
 10.6753159699999998  9.9731889000000002  6.4043256199999998
  1.9904599999999999  1.9085405400000000 18.6936823200000006
 -0.2483610700000000  3.3341575699999999  0.0470952200000000
 18.2376926499999996  4.9921805800000003  1.3260417000000000
 16.9906928499999985  6.2419349799999999  2.9749741500000000
 15.2886013999999992  8.2443039599999999  4.6608815000000003
 13.9192530199999993 10.4113954399999997  6.4296472400000004
 11.7649109400000000 11.8893869799999994  7.9601731200000003
 10.1832711699999994 13.4659795399999993 10.0273681400000001
  8.6319189299999994 14.9009292200000001 11.8061599899999994
  7.0118914500000002 16.4358350900000012 14.3714133099999994
  5.3399755500000001 18.3824371000000006 15.4727166300000007
  3.7311758400000001  0.1870569400000000 16.9175250400000010
  3.6301074600000001  0.0386696200000000 -0.0481202200000000
  1.8044557299999999  1.2802047599999999  1.3973566399999999
 -0.2341089600000000  3.3213499000000000  2.7439635899999999
 18.0573849399999986  4.4490961699999998  4.6865169800000004
 16.6374182499999996  6.2193473900000003  6.6741292100000003
 15.0013205200000002  8.1963183900000001  8.5589650800000001
 13.4746660800000004 10.5533041599999997  9.7287850400000000
 11.6015995200000006 10.9161767399999992 11.6591569199999991
 10.3223132700000004 12.9135065499999993 13.3670234800000003
  8.6469366700000005 14.9995182499999995 15.1527214000000008
  6.7399381900000002 16.6705047700000009 17.4222010199999993
  5.2637513499999997 18.3356785799999997 18.7003633399999991
  4.9324728000000002 18.2276161899999991  1.4663773899999999
  4.1314671299999999 -0.2791499100000000  3.2645449200000001
  2.0486765100000000  1.4485488700000000  4.7633522499999996
 -0.0624517500000000  3.0871740299999999  6.4874720600000000
 18.8904676299999998  4.6244824700000002  7.9741681599999996
 17.0686851100000005  6.8434708200000003  9.4638010000000001
 15.2446557899999995  8.4963337899999996 11.6015411099999994
 13.3977524599999995 10.3473387999999993 13.1184438100000005
 11.4750647299999997 11.4727979199999996 15.3320370100000005
  9.1302591700000004 12.8457982400000006 17.4727534599999998
  8.1489603600000002 14.8736885300000008 18.9395965699999991
  5.9675167499999997 16.0523236699999998 20.4920085299999997
  6.2118420600000004 16.9184272600000014  3.3358629099999999
  4.7539878499999997 18.1190746800000007  5.0115173300000002
  3.6220323600000000  0.0293591600000000  6.7339402599999998
  1.7997161200000000  1.6266127900000000  8.6904246399999998
 -0.0456568600000000  3.3601505000000000 10.0848285900000008
 18.9457240599999999  4.9658105600000004 11.9013818400000009
 16.8511073200000006  7.4645595100000000 13.1259960899999992
 14.9034861299999992  8.8570241599999999 14.9662477599999999
 13.2150210399999999  9.8011309099999995 16.9709003500000009
 11.9487207299999998 12.0189625499999995 19.0622245700000015
 10.2563318399999996 13.3390593099999997 20.8551519899999995
  7.8149796199999999 15.2929052999999993  1.8208760100000001
  8.5671169799999998 15.0263464800000008  5.1657862699999999
  7.1368730899999999 17.2391748800000002  6.7587194300000002
  5.1112458800000002 18.4999774200000004  8.4662125800000005
  3.8268529800000000 -0.3806710000000000 10.5845560299999999
  1.7945307800000001  1.3943228299999999 11.8043551999999998
  0.3933478100000000  3.4839795900000001 13.5466801799999992
 18.2093003099999997  4.8614236399999999 15.1005991999999996
 17.0468386500000015  6.4623507599999996 17.0090574699999983
 15.5638498500000004  8.3689339500000006 18.4836572699999984
 13.7888280600000002 10.0869140700000006 20.4786594400000013
 12.2021060499999994 11.5981430799999998  1.3502752700000000
 10.1616129500000003 13.7021781199999992  3.7678333500000001
  9.7919785400000006 12.9726275900000001  6.7464329000000003
  8.3310362999999992 15.1581217499999994  8.2595815300000002
  7.2565245699999998 16.7507789000000002 10.2043691200000008
  4.9984356900000000 17.8123161199999984 12.1156726199999998
  3.3858236200000000 -0.4373681800000000 13.4811511500000005
  2.1251637799999998  1.5340947300000001 14.8858452600000000
 -0.6418715800000000  3.0286398299999999 16.9734542499999996
 17.9221072300000017  4.5878617999999998 18.5862898200000011
 16.6697770699999985  6.4210044899999996 20.0633063699999994
 15.3847955400000007  8.5375564799999992  1.2924454100000000
 14.0678484099999999 10.6352121900000007  3.1835304299999998
 12.0233159500000006 11.8823105200000008  4.6312339600000003
  3.6574424500000000  2.9904120600000001 16.7308785399999991
  1.9411688199999999  5.1036833499999998 18.1598648800000007
 -0.5164694900000000  6.4885042400000001 -0.4942580900000000
 18.2750188499999986  8.0999108399999997  1.5386866800000001
 17.2364806199999983 10.5346231899999996  3.3055385899999998
 15.4644425200000004 12.4035488199999993  4.9095115299999996
 13.6850528600000008 13.6943260900000006  7.0239517200000003
 11.7502396099999995 15.0687845300000003  7.8745720600000002
 10.2508554899999993 17.6401117499999991  9.7315401799999997
  8.4893587200000002 18.3224866999999989 12.4338070999999992
  6.7798582300000003 20.0543527499999996 13.4872730999999995
  5.2509060200000004  1.8763565099999999 14.5448000400000002
  5.5188005599999999  1.9678049900000001 18.0534529900000003
  4.1354773399999996  3.0768406399999999  0.0683139100000000
  1.7267761300000000  5.1822032099999999  1.3272354799999999
 -0.3261746600000000  6.3099843599999996  3.0583742300000001
 18.3521193099999991  7.9616387499999997  4.6990222499999996
 16.8436238699999983 10.0715102400000003  6.5073425499999997
 15.3904645900000006 12.1433332699999994  8.1777859199999998
 12.6857832399999992 13.2383306100000002 10.3166180000000001
 11.3350812600000008 15.3216221099999999 12.1966672000000003
 10.5133409100000002 17.3471682300000012 13.6066951500000002
  8.1670938700000004 18.7053691899999990 15.7354805800000008
  7.3326374599999999 20.2684818000000000 16.7849640899999990
  6.6168661200000001  0.0400388000000000  0.0777206100000000
  5.5144479200000003  1.9765799300000000  1.4710406800000000
  3.6985724699999998  3.3898041000000001  3.1230323400000000
  1.1261471300000001  4.9879830800000002  4.4656400900000000
 -0.4934924900000000  6.6828837700000001  5.9593366400000001
 18.2346837199999996  8.2605019300000002  8.2375861500000003
 16.9301384599999984 10.2246623499999991  9.9710076999999995
 15.0645352900000002 12.3029927099999998 11.7755779799999996
 13.2150096700000006 13.5271559299999993 13.2008816800000002
 11.4560330500000003 15.0062186200000003 15.3340862300000005
  9.9821960900000004 16.8508299500000014 17.4277466499999996
  8.1455610499999995 18.2900741700000005 19.2271232900000015
  8.7236558199999994 18.4005207499999983  1.4892108500000001
  6.8243042500000000  0.0529146600000000  3.2353701699999999
  5.3536639499999996  1.8172221099999999  4.7685757700000000
  3.0237599600000000  3.2672844500000000  6.5519416100000001
  1.0236253399999999  5.0937727700000002  8.3218643300000004
  0.5089066000000000  6.7701451099999996 10.0850125599999991
 19.0723218900000013  8.5277307100000002 11.7690785600000005
 17.2563127899999991  9.9050922900000007 13.1651772999999999
 15.4782800100000006 11.4793175099999996 14.5459830399999994
 13.9823285899999998 12.9099097999999994 16.2498251099999997
 11.7037070199999995 14.3531281100000001 18.1212103199999994
 10.4878555799999997 16.3918265400000003 20.3948598600000004
  9.7756661400000002 16.8062570099999995  3.7029706600000001
  8.0986418199999992 18.4150682699999990  4.9311463800000004
  6.4698270100000004  0.0536609000000000  6.6714265199999998
  5.0523800799999998  1.9590998500000001  8.8721173100000001
  3.1647505100000002  3.5617462000000000 10.4795421599999994
  1.4157997400000000  5.3475644100000004 12.0034780800000007
 -0.4229457500000000  6.9538154499999996 13.5173829600000008
 18.7123117599999986  8.3516945800000002 15.8485051699999993
 16.5290262599999984 10.4962025699999995 16.5066530799999995
 15.0434532200000000 11.6913768000000005 18.7877831800000017
 13.6516532000000002 13.9974219699999995 20.7098682300000014
 11.7918062100000007 15.3894494099999992  1.8526959999999999
 11.8293074199999992 15.1368377100000000  5.4260548399999999
  9.8466733099999999 17.0054069000000005  6.8460174499999997
  7.9858054400000000 19.1708712599999984  8.2544182399999997
  6.9094217100000002 -0.1315285200000000 10.6112953399999999
  4.9666689000000002  1.7757966000000001 11.6246731899999993
  3.4576769600000001  3.5904609500000002 13.6587520399999995
  1.6635279500000000  5.0686152399999997 15.2714721900000008
 -0.6004770900000000  6.3282775500000001 16.9264554999999994
 17.8257736400000013  8.3706137799999993 18.8482052399999986
 16.7030001199999987 10.4451160699999992 20.1311952599999984
 15.5342610400000005 12.1190077800000005  2.2194896499999999
 13.9700924700000009 13.8193363700000003  3.4420537300000000
  4.8770073299999996  5.4045167899999997 15.6376979100000000
  3.5225852500000001  6.9377942099999999 17.0372112300000005
  1.7479683800000001  8.3977829400000008 18.2534556700000010
  0.0275445000000000 10.3739500299999996  0.3210749300000000
 18.6967660100000010 12.4569761600000000  1.4805100200000001
 16.9357155100000014 14.2215169400000008  2.9710881499999999
 15.2715517300000005 15.3996796400000004  5.3450812499999998
 13.4708896399999993 17.0134178399999989  6.4244427200000001
 11.8577521299999997 19.2711653600000012  8.3001824099999997
  9.6952060899999992  0.5393018800000000 10.1609520700000004
  8.2020786200000000  1.8979694199999999 11.8204151599999996
  6.9303136399999996  3.6081219400000002 13.5231990000000000
  6.8538631299999997  3.7320345300000000 16.8726922600000009
  5.3543134999999999  5.3319525600000004 18.6532032399999999
  3.1847683299999998  6.4793504500000001 -0.0699547700000000
  1.0116720900000000  8.2789977500000003  1.4803107499999999
 -0.3044392600000000 10.5554656100000006  3.4250625399999999
 18.4816700999999988 12.3758086400000007  5.2513864300000002
 16.8586753400000013 13.7750211599999997  6.9372129400000002
 15.3925573199999999 15.7269152900000009  8.7802975399999994
 13.2055883600000001 17.3336273799999994 10.2179703400000008
 12.1101892600000003 19.0133164599999986 12.0665147699999995
  9.6455217599999994 20.3230206699999982 13.7008751499999999
  8.4793388200000006  1.6585325000000000 15.2038644400000003
  8.3390754099999995  1.5897667600000001 18.9496195900000011
  7.0207522500000001  3.9250019699999998  0.1875059800000000
  5.2173608800000002  5.6067833599999997  1.9482823700000000
  2.5199773699999999  6.6658037300000004  3.2305577699999999
  0.8133139800000000  8.5143065599999996  4.8418346699999999
 -0.7238073900000001  9.7297721300000006  6.5850281400000004
 17.7260100899999991 12.1574554799999994  8.1815195500000009
 16.5919334200000002 14.1950807999999995 10.6032309999999992
 14.7773586500000000 15.6582339899999994 11.5839029900000003
 13.4514491100000004 17.2017813699999991 14.0352052399999998
 11.1557649600000008 18.5003552400000011 15.7848007999999993
 10.0651916400000001 -0.2045979700000000 17.2608928500000012
 10.4168487299999999  0.3003623600000000  0.2332198300000000
  8.1293298099999998  1.9034045900000001  2.0997887099999999
  6.9365868600000002  3.4496898499999999  3.3832572399999998
  4.7116034700000000  5.4443786400000000  4.8733725300000001
  2.5855586499999998  7.0280157599999997  6.5638923900000004
  1.0022659100000000  8.4015091300000009  8.0356580700000002
 -0.2402782200000000 10.4702094399999996  9.8369742000000002
 19.1005160600000004 12.0676905100000003 11.4665706899999993
 16.7312070400000010 13.5669234999999997 13.2195732199999991
 15.4400046500000006 15.2830234199999992 14.8248189299999993
 13.1011523600000004 16.8632251500000017 16.7327516199999984
 11.6131480699999994 18.2401222499999989 18.9158337299999992
 11.7609058900000001 18.8474000199999985  2.3129849099999999
 10.0279911199999994  0.1857784400000000  3.8291666200000001
  8.3943726299999994  1.9925036800000000  4.6241057300000001
  6.5649302599999997  3.9228317900000000  6.4929971100000001
  4.4420114999999996  5.0679297900000000  8.3092727699999998
  3.0311758700000002  7.1578229899999997  9.6686968600000007
  1.6480287600000001  8.4643895400000009 11.8042369399999991
 -0.1156224300000000  9.7864995799999992 14.0122648699999992
 18.3847366799999996 12.3194017900000006 15.1251178999999993
 16.9251711200000017 13.1702223600000004 17.1936763699999986
 14.6790251999999999 15.2087198899999994 18.4908578599999984
 13.4364628100000001 16.8806021999999984  0.1617743300000000
 13.5080695599999991 16.4047994599999996  3.4279064699999999
 11.3022417300000004 18.8884668299999987  5.2621317200000002
  9.9194884299999995  0.8187337500000000  6.4645147100000004
  8.1448285499999997  2.2782441800000002  8.0462550900000007
  6.8613705999999999  4.1150928699999998 10.3775122999999994
  5.0078435199999998  5.5531067099999998 12.1574020800000007
  2.9791620100000000  7.3426941299999999 13.8478769499999999
  0.5221585399999999  8.2278841699999994 15.8421882899999993
 -0.4097412100000000 10.5189690599999999 17.5402940299999983
 18.5053706600000005 11.9818161700000001 18.3896233100000011
 16.8963625999999998 13.8873904899999996 -0.4479040400000000
 15.3794360500000007 15.4424295499999999  1.7548126799999999
  7.1841880700000003  6.6136547099999996 13.6960216799999994
  5.4108007699999998  7.9384759200000001 15.3054219699999994
  3.1484392200000002  9.9219344599999992 16.2754385699999986
  1.9282930199999999 11.4201053100000003 18.5308507400000018
  0.2066203400000000 13.4936188200000000 -0.9588939100000000
 18.8053013500000006 14.8334109000000005  1.4471501899999999
 17.5036653099999988 16.8066706400000001  2.8555819499999999
 15.2531326499999995 18.7385827200000001  5.0829670900000004
 13.2801490500000003  0.4124218700000000  7.1161330200000004
 11.6477774499999995  2.0566875499999999  8.6340312000000008
  9.4608129999999999  3.7138692400000002  9.3879760500000007
  8.3945682999999995  4.7903398099999999 11.8847599400000004
  8.8139387300000003  4.9833014400000000 15.1273778500000002
  7.7289412899999999  6.6854538200000002 17.0341982700000010
  5.1033047600000003  8.3269062199999997 18.6426372700000016
  3.2474827999999998 10.0597525200000000  0.3345499700000000
  1.3355561000000000 12.5549717100000002  1.9501033400000001
 -0.4223367900000000 13.9625418499999991  3.2063991800000000
 18.2557005699999984 15.3353590799999999  5.0780483099999998
 17.0813904000000001 16.9252197600000009  6.6987367600000001
 15.0600637000000006 18.6297638600000006  8.5720258299999994
 13.1642798899999995 -0.0695150700000000 10.3512307700000008
 11.5391202800000006  1.4564749400000001 11.5008503300000005
 10.2272319100000004  3.1791262699999998 13.5676905800000007
 10.4447718100000007  3.5568074699999999 16.4996787699999992
  9.1163929400000008  5.0517570999999997 18.4196409900000013
  6.9120927099999996  7.4837649800000001 -0.0076485700000000
  4.8820787299999999  8.4085721200000005  2.4799573000000001
  3.0149634000000001 10.2240638100000005  3.5571651300000000
  1.0484315099999999 11.6937233900000006  4.9124798199999997
 -0.1843552400000000 13.2738773900000009  6.4286141800000003
 18.7337804599999984 15.2829544899999998  8.1046547300000000
 17.1406461400000012 16.7684314999999984 10.1172383299999993
 14.9068016100000005 18.4246075199999986 11.3376948800000008
 13.5380686200000007  0.0009754700000000 13.6500871499999992
 11.5261733599999996  1.3826177500000001 14.9382972499999997
 11.5956345200000008  1.5489952300000001 18.9212100499999991
  9.9154245299999992  3.1138439400000002  0.0563256200000000
  8.6846809199999999  5.3483260399999999  1.6806830900000000
  6.7232743099999999  6.7403611300000001  3.8601984699999998
  4.6307311000000002  8.7583433100000008  5.1386190799999998
  3.1774126200000001 10.2199002700000001  6.9500733200000004
  1.6246094099999999 11.6632588500000001  7.8916298100000004
  0.2088677400000000 13.6260250299999992 10.3721460299999997
 19.2039604699999984 15.1642147200000004 11.9493877499999996
 16.8830771000000013 16.9846228699999990 13.9501553099999995
 15.3235778600000003 19.0284974099999999 14.9627388099999994
 13.4844366900000008  0.0728056400000000 16.9721769400000007
 13.1103244700000001 -0.0101780500000000  0.1203956500000000
 11.8294701399999997  1.7813788300000000  2.4505050300000000
 10.1046987599999998  3.8111480800000002  3.6208505400000002
  8.6910204600000007  5.2307607799999998  5.5139205999999996
  6.1826705600000000  6.9325381999999998  6.4317660900000000
  5.3797511199999999  8.7044873999999997  7.9417603899999998
  3.0838266999999999 10.2348992699999997  9.8186493600000002
  1.4859227200000000 11.7325402299999997 11.7460085999999997
  0.3566678900000000 13.6372177699999995 13.4742683599999999
 18.3812642599999982 14.8937460700000006 14.8197534199999996
 16.2833414599999990 16.6418964400000000 16.2158010200000007
 14.9667378600000003 18.4366266100000011 18.2138119299999985
 14.5275649100000006 18.2143419000000009  1.8726033500000001
 13.2733013399999997  0.5582060400000000  4.0614917300000002
 11.6734014399999992  2.4225188300000000  5.1960563200000003
 10.4693499600000006  3.7886373799999999  7.0185645499999998
  8.1332512200000000  5.8561685800000003  7.5876412499999999
  6.8702306200000001  7.0294027400000001  9.7031887900000005
  4.7444802399999997  8.2915009699999995 11.7428586599999996
  3.0011280100000000  9.4130547799999995 14.1178913300000008
  1.8084796599999999 11.9316023700000002 15.1396418399999995
 -0.1691274100000000 13.8516589700000008 16.8786814499999984
 18.8182437000000000 15.7003176000000000 18.7741313299999995
 16.8809477600000015 17.2502319499999999 -0.0905562300000000
  8.5191269500000004  8.3344419999999992 11.6418320299999998
  6.9386514899999998  9.7873701799999999 13.6209989199999999
  5.2653914200000003 11.5000574400000009 14.3948873499999994
  3.7348170600000001 13.2880870800000004 16.8650524500000003
  2.0588922599999999 15.2918709600000007 18.6827968200000001
  0.1376785500000000 16.6883049300000010  0.2309050300000000
 18.2702952200000013 18.9326612999999995  1.1808490100000000
 17.0302425100000008 20.5239948699999992  3.2457482999999998
 15.3281958700000001  1.7294307400000000  5.0129425699999999
 13.7371595000000006  3.4484159900000000  7.3869613699999999
 12.1882291299999999  5.0325842500000002  8.8558784999999993
 10.5894142900000006  7.0146007800000003 10.0655207299999994
  9.6896388000000009  6.4480418700000000 13.0711314999999999
  8.9964566099999992  8.4932425100000000 15.2031947899999995
  6.9215732299999999 10.0922688399999991 16.8301550099999986
  4.7646106200000000 11.1421741599999997 18.3174986900000007
  3.2153888400000001 12.7786192399999994 -0.1855627200000000
  2.0796727499999998 15.2322405900000000  1.3622202999999999
  0.1578354000000000 17.0269479200000013  3.2841467899999999
 18.1848788799999994 18.4839401999999993  5.0240366500000002
 16.9338709099999996 20.7085136100000007  6.6687964800000001
 15.1317518500000006  1.4799892100000001  8.9190548399999994
 13.5354316200000007  3.4213232699999998 10.4959781299999992
 11.2778082000000008  4.9590875499999996 11.6964137499999996
 11.6309645899999996  5.5038543700000000 14.6583197100000007
 10.3820309300000009  6.8324288800000001 17.0415803799999992
  9.0002857200000008  8.6618133000000004 18.8105460300000011
  6.7264355699999996  9.9382968399999996  0.7482413999999999
  4.6682990799999997 11.5500735399999996  2.2212569000000002
  3.3289032299999999 13.2220536499999994  3.6945121099999998
  2.0007957699999999 15.1332746500000006  5.1971756600000001
 -0.1219479500000000 16.9476089799999983  6.9530830200000002
 18.9228852399999994 18.3512673900000003  8.4978921900000000
 17.3074471000000010 -0.4704874200000000 10.2636979700000008
 14.9096986299999994  1.1826558100000000 11.4158628899999997
 13.3897001000000007  3.1987889900000002 12.6701835099999993
 12.6003315300000001  3.5238618300000000 17.1095273299999988
 11.8278242700000007  5.5099871699999996 19.5803180300000008
 10.4179591600000006  6.8930457299999999 -0.0026692900000000
  8.5205253699999997  8.2485640399999998  2.5001678900000002
  6.6057857200000001 10.0767296000000002  3.7884219600000000
  5.1869106399999998 11.6976578300000007  5.5476355300000000
  3.6431690699999999 13.2951808400000004  7.4367667800000001
  1.6421415200000000 15.1955612099999993  8.2432729899999995
 -0.1765946300000000 16.8277680499999995  9.7884338500000005
 18.6553338999999987 18.4451918399999997 12.0947341000000002
 17.1401718900000013 20.3495065400000001 13.1316122800000006
 14.5838055600000001  2.2229424400000002 15.1462815600000003
 14.6023708400000007  1.7802576800000001 18.3638039000000006
 13.1616024700000001  2.7525014300000001  0.2429175700000000
 11.4407264000000009  5.2095468100000000  1.7598269499999999
 10.7979101899999996  7.0430847999999999  3.7262928799999999
  8.3143464399999996  8.5831924599999994  4.7307221600000000
  6.7442666700000000 10.0424824000000008  6.7075699799999997
  5.6608082099999999 10.8877877200000004  8.8517114299999999
  3.5024634200000002 12.8754801699999994  9.8811988199999998
  2.0125347499999999 15.1531059999999993 11.4327005400000008
  0.4749176000000000 16.9329832499999995 13.4796575599999997
 18.6556215799999983 18.7441462500000000 14.7423628600000001
 16.9499475400000001 20.5940647800000001 16.5736470699999998
 16.7444981400000010 -0.2345872300000000 -0.4047396100000000
 14.5409724800000006  0.8238557000000000  1.8134067199999999
 13.6755477899999995  3.5061362599999999  3.2730414200000002
 12.3009846500000002  5.0570323300000002  5.2839129299999996
 10.1331358999999992  7.3904212600000001  6.7881342800000004
  8.3377474199999995  8.3884077999999995  8.2807454899999993
  6.4983585200000000 10.1461562700000005 10.4668050400000006
  5.0585515799999996 11.2512896900000001 12.1246575599999993
  3.3202671200000000 13.1903187299999995 13.5031513099999998
  2.3031314500000000 14.9266108400000004 15.3305980700000006
 -0.1349498300000000 16.6967494199999997 16.5346489400000003
 18.5420024800000007 18.0797551799999994 18.0554852900000000
