fcc
1.0
0.0 2.165 2.165
2.165 0.0 2.165
2.165 2.165 0.0
Li
1
Direct
0.0 0.0 0.0
