Li 
 1.0000000000000000
   -10.6364300000000007   18.4228371711498369    0.0000000000000014
   -18.2338799999999992  -10.5273355263713349    0.0000000000000078
    -0.0000000000000001    0.0000000000000000   22.3096999999999994
 Li 
 504
Cartesian
  0.0140978300000000 -0.0944417600000000 -0.0744718200000000
 -10.8621327500000007 16.8597382899999992 14.9954173700000002
 -10.5739065199999995 15.2918296900000001  7.3308852299999998
 -10.7264793500000000 13.3901850299999996 -0.1623142100000000
 -10.6584759099999999 11.4667821100000005 15.1113520300000008
 -10.5423096699999999  9.5020346300000007  7.3075878400000001
 -10.6778731800000006  7.9107065299999997 -0.1778446400000000
 -10.5470800400000009  6.2445472000000004 14.8060148900000002
 -10.4530280900000001  4.5032771599999997  7.6679420699999996
 -10.5643708899999993  2.8335657699999999 -0.5085210800000000
 -10.4994606499999996  1.1533970200000001 15.0046390899999995
 -10.5309954200000000 -0.9831192900000000  7.3264233699999997
 -1.4988523199999999  1.0826110700000000 15.1421048400000000
 -1.6648642300000001 -0.6907862400000000  7.6928493900000001
 -12.1929409599999996 15.5740632899999998  0.1622980400000000
 -12.2152017900000001 14.0480847099999995 15.3371417399999999
 -12.0110879700000002 12.1634101900000005  7.5980839299999996
 -12.0641154999999998 10.6810284000000006 -0.2647814100000000
 -12.2225118199999994  8.7468000400000001 14.3031646000000006
 -12.1511826700000007  7.0393650900000004  7.7555279099999996
 -11.9119883099999999  5.3263749400000000  0.1205172400000000
 -12.2236026500000001  3.6883136200000002 14.8571785700000003
 -12.2023935800000007  1.9849059700000000  8.1023415799999992
 -12.0803788300000008  0.3258071900000000  0.1419329500000000
 -2.8535606900000001  1.6788286400000001  7.5064511600000001
 -3.0847644700000001  0.1702014400000000  0.0867042200000000
 -2.7695092200000002 -1.7441245100000000 15.3003825700000000
 -13.6454956700000007 14.7817563399999994  7.3406862100000003
 -13.8824072800000007 13.1806148600000004  0.6418367100000000
 -13.7304621499999993 11.5073216499999997 14.9914249000000002
 -13.5213345500000006  9.7337231600000003  7.2750053499999998
 -13.7498193099999995  7.9460406399999997 -0.2495334500000000
 -13.7602227700000004  6.2183686299999996 14.2858102000000002
 -13.8890804200000009  4.3626191099999998  7.6210745199999996
 -13.7439792500000006  2.7734074199999998 -0.5057594800000000
 -13.6808401100000001  1.1143831099999999 14.6094293099999994
 -4.5805680200000003  2.7910282799999999 -0.5561014700000000
 -4.6842369899999996  0.8525996900000000 15.2190430100000000
 -4.4779874299999998 -1.0159492299999999  6.7321521700000000
 -4.5539202000000003 -2.6043934200000001  0.1797697600000000
 -15.3768296600000003 14.0587006199999998 14.8961389000000004
 -15.1805604400000007 12.4093088399999996  7.1103283499999996
 -15.0756709299999994 10.7659243900000003  0.4374550000000000
 -15.1321367500000008  8.8290109999999995 14.7706966000000008
 -15.0489392300000002  7.1264598200000000  7.2341091100000003
 -15.2738340200000007  5.2970792299999996  0.2018792700000000
 -15.2688500000000005  3.6873211900000000 14.7738587100000007
 -15.3110297600000003  2.0638648700000002  7.3390705000000001
 -6.0479564899999998  3.4731152600000001 15.4051678800000005
 -6.3059381600000002  1.6645956900000001  7.4102092500000003
 -6.1378302700000003  0.0412395800000000  0.3990868000000000
 -6.0471128600000004 -1.5808773300000001 14.9189917199999993
 -16.6514565499999989 14.8468511500000009  7.5956556600000003
 -16.5145991499999987 13.1553120200000002  0.4662994400000000
 -16.8297928799999994 11.4660619900000000 14.9557566899999994
 -16.6406131399999992  9.6251882799999997  7.0469668099999998
 -16.7850768600000002  7.9586733199999999  0.8287861700000000
 -16.8518082100000015  6.1856625699999999 14.5042457799999998
 -16.9227944699999995  4.4800671100000002  7.2549399799999996
 -16.8894805800000007  2.9197317800000002  0.0805959200000000
 -7.5906003699999998  4.4350142400000001  7.5890714299999997
 -7.8040549600000002  2.5234031600000000 -0.5860427600000000
 -7.6801247600000000  0.9225917200000000 14.8619571599999993
 -7.7406791999999998 -0.8659883600000000  7.1503048299999996
 -7.5951409200000004 -2.5979487799999998 -0.0298010600000000
 -18.1049128099999983 14.1976613399999998 15.0199101899999992
 -18.3844908300000007 12.3562910499999994  7.1951245000000004
 -18.3108425200000013 10.6957276300000004  0.5237909800000000
 -18.1973071699999984  8.8775191200000005 14.2935975600000003
 -18.2318513899999992  7.0340324299999999  7.4299200200000000
 -18.3276715800000005  5.4367153500000001  0.3996675100000000
 -18.2902501000000015  3.5145047200000001 14.3706748900000001
 -9.0358228999999994  5.3911566000000004 -0.4543398000000000
 -9.0586946899999994  3.5811080400000002 14.8739035099999999
 -8.9274175099999997  1.8632380399999999  7.7320391700000002
 -8.9380219299999997 -0.0357309300000000  0.0380348000000000
 -8.8821348600000007 -1.6735108200000000 14.6270676399999999
 -9.2052706600000000 -3.4166189700000000  7.1519828399999996
 -19.7817013800000012 13.2518166100000006  0.2985043300000000
 -19.6184755200000005 11.4139856599999998 14.2350841900000002
 -19.7241440899999994  9.7550222499999997  7.3091547200000004
 -19.8019123499999985  7.8934438000000000  0.6207358100000000
 -19.7993809399999989  6.2824468099999997 13.9323217400000008
 -19.8961037199999993  4.3546865400000003  7.8193079100000000
 -10.6013348999999995 -2.7618638199999999  0.0788989500000000
 -10.5123420700000008 -4.4368874700000003 14.7222903299999999
 -21.3695396299999985 12.4417243200000005  6.8680291400000000
 -21.2665884299999988 10.6838352699999994  0.5073231400000000
 -21.3158327800000009  8.8413389900000006 14.5762099000000003
 -21.2311336900000001  6.9089940099999998  7.1486033700000000
 -21.1697441399999988  5.1508894200000004  0.4154283900000000
 -12.0935888299999998 -1.7344579400000000 15.3668674599999999
 -12.1337392200000007 -3.3964095699999999  6.8648235099999999
 -11.9850676000000007 -5.2043426000000004  0.5794316200000000
 -22.8350294200000015 11.4848730600000000 14.4418898099999993
 -22.7067492100000017  9.7111575499999994  7.2563767700000001
 -22.6469537800000005  8.0527164599999992  0.5103429600000000
 -22.5829498499999985  6.2034564799999998 14.6681428100000009
 -13.6331070800000003 -0.7849815700000000  7.1507603700000004
 -13.6806467499999993 -2.6094140200000000  0.3970034800000000
 -13.7668087600000000 -4.1573517400000002 15.3544699100000006
 -13.2566828799999996 -6.0599237800000001  7.1796454799999996
 -24.2417835400000001 10.5604834000000007  0.4063082300000000
 -24.1813581800000001  9.0680883500000000 14.7640697299999992
 -24.1810706199999998  7.0677672700000000  7.0715100599999996
 -15.0774725899999993  0.1697203000000000 -0.2539296200000000
 -15.2048914100000001 -1.6945920400000001 15.3665891400000003
 -15.2893868099999999 -3.3948989500000000  6.5708159100000003
 -15.3674431100000000 -5.3937232599999998  0.2707477200000000
 -15.2143449600000000 -7.0840804200000003 15.0936298999999998
 -25.7343635800000001  9.7781394000000006  7.5169740400000000
 -25.8311827299999983  7.9091410000000000  0.0130298600000000
 -16.8041017100000012  1.0050540800000001 14.7407965500000007
 -16.6851885300000014 -0.8034933399999999  7.0495708700000002
 -16.6895722000000006 -2.6017480200000001  0.0156709800000000
 -16.6761715099999996 -4.4212420899999998 15.1748665599999999
 -16.5205799499999983 -6.1579178900000002  7.5002275100000002
 -16.6814676300000002 -7.8360359700000002 -0.0158807700000000
 -27.3467391900000010  8.8417584999999992 15.1273291699999994
 -27.3222898299999990  7.0516381900000003  7.3176411300000002
 -8.9073283100000005 15.5957932400000008 -0.0721704000000000
 -9.0257462799999999 14.2517394300000007 15.2167488500000001
 -9.0580292999999994 12.5345516600000000  7.6893217600000003
 -9.0621432700000000 10.5747925299999999 -0.5696330300000000
 -9.2583241699999999  8.9054796799999991 14.8466998700000001
 -9.3342589399999998  7.2073544399999996  7.2533504100000004
 -18.2311970499999987 -8.7844815000000001  7.2587899199999999
 -1.4375251300000000  2.7660856300000001 -0.0521094000000000
 -3.0391960500000001  3.7121733300000002 14.9933780700000003
 -4.6132790899999998  4.2286927800000003  7.5752839600000001
 -5.8198618700000004  5.3189112600000001 -0.3426239600000000
 -7.7958216199999999  6.2693892499999997 14.7130436899999992
 -25.6942397900000010  6.1194610000000003 15.2279331700000000
 -25.7621391499999994  4.5105462599999999  7.2841763300000002
 -7.5156253099999999 13.2407225499999992 -0.5635058100000000
 -7.4015557000000003 11.5524675800000001 15.0384449799999995
 -7.4909602800000004  9.8508517700000002  7.1858256799999998
 -7.6922322699999999  7.7026708800000003 -0.6630548200000000
 -18.3968881700000004 -6.8926417000000004 15.0906083800000008
 -19.8372838800000011 -6.2150560500000003  7.7628538799999998
 -3.0729183999999998  5.4598978200000001  0.2435996100000000
 -4.4856819899999998  6.1774108900000000 15.2419834900000009
 -5.8983452300000003  7.0668886700000000  7.5702249100000003
 -24.4016185400000012  5.1787072399999996  0.0406141500000000
 -24.0347080499999990  3.3446623799999999 15.2546917299999993
 -24.4136520899999994  1.8413957000000001  6.6895793899999996
 -6.0913544300000000 10.6585525400000005 -0.4098279200000000
 -6.2198060899999996  8.7370224000000007 14.6935079700000006
 -18.4890727199999994 -5.1364603899999999  0.2602495200000000
 -19.9490941100000008 -4.2454289200000002 14.9055302800000007
 -21.2165673599999991 -3.4129069200000002  7.9197271799999998
 -4.4787265800000000  7.7784539700000002 -0.5048962299999999
 -22.7551541099999994  4.5107714500000000  6.6625236900000004
 -22.6678003699999984  2.5464016200000001 -0.1611549000000000
 -22.9475353099999992  0.9064767400000000 14.9478815100000002
 -22.9579038500000010 -0.8945772700000000  7.1863914299999996
 -18.3347614099999987 -3.1491563600000001  7.7602188700000001
 -19.8263456500000004 -2.3145920499999999  0.2446666400000000
 -21.1809641500000012 -1.7308181700000000 14.4855921399999996
 -21.3311222500000000  3.6905229099999999 14.9281180100000004
 -21.2223579999999998  1.9202890500000001  7.0987913499999999
 -21.3122018000000004  0.0034849800000000  0.1297065400000000
 -18.1859189999999984 -1.6855015000000000 14.7528730100000001
 -19.7062256299999987 -0.7925085100000000  7.5211149800000001
 -19.6841963399999997  2.5975678599999998  0.8162702900000000
 -19.6426662900000011  0.8533717300000000 15.3142560700000008
 -18.0557139299999996  0.1818956800000000 -0.1202630900000000
 -18.2809803600000009  1.7322877999999999  6.8563062600000002
  0.6024830000000000  0.1123264100000000 17.9604466599999988
 -10.8757906799999997 16.3829135800000003  9.9862971999999992
 -10.9407855900000008 14.9447460499999991  2.3884194800000000
 -10.4886539400000007 13.1681660800000007 17.3789180899999991
 -10.4284767400000007 11.8400760399999996  9.7823321399999994
 -10.5469842699999994  9.4635803099999993  2.5205642199999998
 -10.7749552200000007  8.4350017800000003 17.1550745999999990
 -10.9418465299999994  5.6038766500000001  9.9832717399999993
 -10.9679560600000006  4.4143545199999998  2.2487302100000002
 -10.4445660900000004  2.5217259099999998 17.8040340999999991
 -10.7938194200000002  0.8628370400000001 10.0202354200000006
 -10.6511922999999999 -0.8239930800000000  2.4470785300000002
 -1.3445807900000000  0.5543682500000000 10.4070607699999993
 -1.9312987100000001 -0.4703507800000000  1.9232182799999999
 -12.5781955399999994 15.3042768099999993 18.2011906000000003
 -12.1613254200000007 14.1278636300000002  9.8832090000000008
 -12.0991090999999997 12.0711429999999993  2.3145473800000000
 -12.2091679899999992 10.7761120100000003 17.0925711299999996
 -12.1595137799999993  8.7834126700000006 10.0267532399999997
 -11.7767862500000007  6.7983235000000004  2.9645464300000000
 -12.0235073700000008  5.6966094299999996 16.9219838200000012
 -12.2257955299999992  3.4872421700000000 10.0075498500000002
 -12.1459022300000008  1.5197700300000001  2.3038077900000000
 -11.9943202600000003 -0.1263622200000000 17.2390805299999990
 -2.9812468499999998  1.8949772000000000  2.5875683999999999
 -3.3391647000000000  0.1373792600000000 17.5572625900000006
 -3.1194328599999999 -1.5106136600000000  9.2775123500000003
 -14.0338261000000006 14.3904908700000007  2.7581446299999999
 -13.7080630800000005 13.2125678999999998 17.4378586899999988
 -13.6977172199999995 11.4432193400000006 10.1986354299999995
 -13.6442656400000004  9.4426184000000006  2.1739483599999998
 -13.9553188299999995  8.2183051700000007 16.8858912100000005
 -14.0073418099999998  6.2964056299999998  9.8504404700000006
 -13.6260611300000001  4.3688906500000000  2.6241104300000000
 -13.3560186000000005  2.5121539400000001 17.3920401799999986
 -14.0659008100000005  0.7556688800000000 10.2768933499999999
 -4.9135664500000003  2.7220935200000000 17.1919488399999985
 -4.8297286799999997  0.5076738600000000  9.7566738700000002
 -4.5627268299999999 -0.9127441100000000  2.6911297699999999
 -4.7739889900000003 -2.6387426700000001 17.7736538999999993
 -15.5045510199999992 14.0507928999999994 10.0975448900000000
 -15.0817191499999996 12.0398314299999996  2.8396549900000001
 -15.3594906600000005 10.4743078599999997 17.1604058899999998
 -15.3541601799999992  8.5991250600000004  9.7502485799999992
 -15.1662304799999994  7.0328759999999999  2.5751419599999998
 -15.0770746800000008  5.1803945100000002 17.3135047499999999
 -15.4370170200000008  3.4877874499999999  9.8589119200000006
 -15.6945002000000002  2.0541223000000000  1.9215756500000001
 -6.6889294000000001  3.4186724800000001  9.4280309100000004
 -6.0620524700000002  1.9106362200000000  2.0900132800000000
 -6.1900332200000001 -0.2585078600000000 17.5933173300000014
 -6.6105869200000003 -1.9791489499999999  9.4161797299999996
 -16.6096473600000003 15.0440065100000009  2.5325080799999999
 -16.3576686100000011 12.9418717799999996 17.4388623299999992
 -16.7192923899999997 11.6871446700000003  9.5033656700000009
 -16.7420022499999988  9.5541228500000006  2.8951706399999999
 -17.0128114000000004  8.0479020200000004 17.0034288499999988
 -17.0785471999999992  5.7337353899999997  9.4911106099999998
 -16.7545581000000006  4.1565936199999998  2.5963342100000002
 -16.7477612299999983  2.4779030400000002 17.2161825700000009
 -7.6249498000000004  3.9638977500000001  2.0345502000000000
 -7.7604543499999998  2.4257839400000001 17.4464773499999986
 -7.6002440699999996  0.5207008000000000  9.4632562100000008
 -7.8088419199999999 -0.8485794300000000  2.5342571800000000
 -7.8922005300000002 -3.0161588500000001 17.3599692499999989
 -18.6591022200000012 13.8300707999999997  9.7232421099999993
 -18.2174681999999990 12.2563463099999996  2.6456131900000002
 -18.4094024699999999 10.7238696999999998 17.0669275800000015
 -18.5362839999999984  8.7137667400000005  9.7163516699999999
 -18.1356569800000003  7.2570568199999999  3.0938744699999998
 -17.9241432500000002  5.1006130100000000 16.9128818299999999
 -18.3562523499999983  2.9941758400000000  9.8762662100000007
 -9.3516013999999998  5.5717782299999996 17.4370191000000005
 -9.3127065200000008  2.9933949100000001 10.1064991499999994
 -9.1796652299999995  1.7836321300000000  2.3516067700000001
 -8.9249435699999999 -0.2191869300000000 16.9207264200000012
 -9.3637004899999994 -1.6121965899999999  9.7635005100000001
 -8.8174557300000007 -3.5733689599999998  2.4251337400000001
 -19.8887637200000000 13.6144528200000003 17.1937655499999984
 -20.0606232599999998 11.0631189899999995  9.6961666399999995
 -20.0804076699999996  9.6821857199999997  2.9863127999999999
 -19.4912989799999998  7.3130979700000003 17.3304346900000006
 -19.8327784999999999  5.8683646800000000 10.0825566799999997
 -19.9289723000000016  4.5897215200000003  3.3088553300000001
 -10.6753802300000000 -2.8072624199999998 17.6001216099999986
 -11.0479472600000008 -4.0189723099999997  9.8748709300000002
 -21.1554274800000002 12.4035916900000007  2.6642215000000000
 -20.9520545600000005 10.3495152200000007 17.3405320500000002
 -21.5930424300000006  8.6366904000000009  9.3656819400000000
 -21.7260618500000007  7.4233581199999996  3.5416356100000002
 -20.6730646399999998  5.0084276399999998 17.2172173400000013
 -12.3707334499999995 -2.1121488700000000  9.8559824200000001
 -12.3348196399999992 -3.3439745300000001  2.5822020900000000
 -12.1525270400000007 -4.8212547399999997 17.3560440500000013
 -22.4437497300000004 11.2843771900000007  9.7338653300000004
 -23.0670878600000009  9.8179072299999994  2.8782580300000000
 -22.3371874800000008  7.9002576600000003 17.7493549799999997
 -22.5642663399999996  6.1877222700000001 10.2073025099999999
 -13.7046467300000003 -0.6575442200000000  2.3250103499999999
 -13.7956319399999998 -2.6856696499999999 17.9887983100000000
 -13.8595495700000004 -4.2618095299999998  9.4919111500000000
 -13.5798763299999994 -5.8415359100000002  2.9045739199999998
 -24.0176604500000010 10.2687431000000000 17.2914325499999997
 -24.4869042400000012  8.5420292500000006  9.6868009300000004
 -24.5688380100000003  6.4488066499999999  2.6846888799999999
 -15.3389041299999995 -0.3636057400000000 17.4781444099999987
 -15.0056957299999993 -2.0680076000000001  9.7530667500000003
 -15.4102897900000002 -3.1469377900000000  2.6527399599999999
 -15.0882233699999997 -5.8256726600000004 17.6584381999999991
 -14.8444677600000006 -7.0759265999999998  9.8929691399999999
 -26.0742644400000003  9.9091509200000001  2.3333932700000002
 -25.4835103600000004  7.7925442800000004 17.7174073700000001
 -16.7314851299999994  0.6056737900000000  9.2037300399999999
 -16.6714473199999986 -0.5117732300000000  2.6519266300000002
 -16.5450919399999989 -2.8778442399999999 17.5537275199999989
 -16.7425678600000012 -4.9379845600000003  9.8130766200000004
 -16.6837090500000009 -6.1406487900000002  1.8707455200000001
 -16.6542718900000004 -7.8503243800000000 17.4582821400000014
 -27.2867739399999998  8.8388112099999994 10.1313207300000006
 -27.3987517700000005  7.3322083800000000  2.7291656099999999
 -9.2688230899999997 15.9021261900000006 17.8002565299999986
 -8.6310307399999999 14.1019563600000009 10.0144238699999999
 -9.4482673100000003 12.4919613900000002  1.9188812700000000
 -8.4883204100000000 10.6663438599999996 17.2324304099999992
 -9.2986109599999995  8.6417535799999996  9.5457090200000003
 -8.6353669499999999  6.5532148599999998  2.1735512600000000
 -18.7927402400000005 -8.5760424799999999  2.7039646199999998
 -1.5732371199999999  2.6044595300000002 17.8953927600000000
 -3.4379282500000001  3.4828347900000001  9.7375430900000008
 -4.6896446500000000  4.5774544300000004  2.4304672400000000
 -6.0042512600000002  5.6989077100000003 17.2141310700000005
 -8.0210961699999999  6.2020099200000001  9.9081846799999997
 -25.7112711900000015  6.2445334600000004  9.5538959299999995
 -26.3049490500000012  4.6002082299999998  2.0169364999999999
 -7.3235574300000001 13.2845427899999997 17.9711703599999986
 -7.5194343100000003 11.2753841900000005 10.0706493899999998
 -7.6515933100000000  9.5968544500000004  2.2909845400000002
 -7.5039942300000000  8.0576579299999995 17.0954725799999991
 -18.4781385100000008 -7.3687540199999999  9.8471450699999998
 -20.0018440700000006 -6.3969475700000000  2.8673262099999999
 -3.0421462799999999  5.2330226900000003 17.3381566199999995
 -4.9690268099999999  6.0114197300000001 10.4866935500000000
 -5.9901583699999996  6.9462154399999996  2.2788223599999999
 -24.0704840000000004  5.1954134300000003 17.3663820000000015
 -24.0437508199999996  3.2355170700000002  9.4319046199999992
 -24.7321006899999993  1.9127322899999999  1.9834442200000000
 -24.1607717599999994  0.0710192200000000 17.1315724799999991
 -6.3433382700000003  8.6688583900000005  9.9421773299999998
 -18.4137051800000009 -5.2492064899999997 17.2695295999999985
 -20.0479941500000010 -4.3584240100000002 10.2392305900000000
 -21.3774260600000012 -3.6655717100000000  2.6554555400000002
 -22.5173828900000004 -2.8806389100000001 17.4220413200000017
 -22.8954577499999985  4.4459451100000003  2.2161818100000001
 -22.3068783300000000  2.8114601800000001 17.2120392200000012
 -23.0580214499999983  0.6257379700000000  9.6141460300000006
 -22.7398208699999991 -1.0140608200000001  2.1935039399999998
 -18.4569986600000000 -3.4478682400000000  2.7428904599999999
 -19.9244991200000001 -2.4713286900000000 17.3532702299999997
 -21.5539562800000013 -1.5234499300000000 10.5847121299999998
 -21.2818309799999987  3.2679512000000002  9.3787418099999993
 -21.3688041200000001  1.8028671199999999  2.8953570000000002
 -20.7109251999999984 -0.2313900800000000 17.2764242800000005
 -18.2209355200000012 -1.8623333300000000 10.2600560699999992
 -19.9166331800000016 -0.8446225600000000  2.2872096700000002
 -19.4668680099999989  2.5988054300000001 16.9775630399999997
 -19.7964811099999984  1.1267823100000001  9.7496786800000006
 -18.1357580300000016 -0.2462639200000000 17.6518130400000004
 -18.2942434399999989  1.8808460300000001  2.6866601499999998
 -0.3895384800000000  0.1728408300000000  4.8600403999999999
 -10.7342496700000005 16.3755966000000015 20.1525588700000000
 -10.2227753499999992 14.2787780600000005 12.8518923399999991
 -10.5903219300000000 13.3608583099999993  4.6967096399999999
 -10.4834125599999997 11.2778239700000000 19.4051573099999999
 -10.8531020199999997  9.9607907000000004 12.1783352199999992
 -10.0949256900000002  7.7298760399999997  5.2025560899999999
 -10.5982564799999999  6.7736226500000001 19.3272622900000002
 -10.6561916700000001  3.9682238399999998 12.6405986899999991
 -10.5720818800000007  2.6506675700000000  5.2339977800000002
 -10.5383356500000005  0.6911334200000000 19.5502688400000011
 -10.8070744399999992 -0.9588113900000000 12.3634642100000001
 -1.2754497899999999  0.7899875500000000 20.2624475900000007
 -0.9628087000000000 -1.1149869100000001 12.3217908699999992
 -12.2238329500000003 15.8745906399999992  4.6961174300000001
 -12.0327129599999996 13.9379909200000007 19.8022828199999985
 -12.2833164299999993 12.5033839899999997 12.5983970799999998
 -12.1528450899999996 10.3884084500000000  4.7729711200000002
 -12.4703711599999991  9.0319318299999996 19.8142786700000002
 -12.3996632699999996  6.9189815799999996 12.0357749100000007
 -11.8928994899999996  4.9191888400000003  5.5159594800000002
 -11.9100924300000006  3.7577845999999999 19.5227320800000008
 -12.2215049899999997  2.2084979699999998 12.3478880300000000
 -11.9436441500000008 -0.0135498400000000  5.0474138499999999
 -3.0769416900000000  1.3400971900000000 12.4137211399999998
 -3.0620063399999999  0.1796028900000000  4.8908950999999998
 -13.6309886700000007 16.6261069299999988 20.3996809600000013
 -13.8046797399999992 15.1971581199999992 12.1296508299999992
 -13.7624279999999999 13.0676651800000005  4.8544217500000002
 -13.6562486399999994 11.6389465600000008 19.7883954399999986
 -13.6235416800000007  9.6678018199999993 12.2755045099999993
 -13.3235923799999991  7.4971891800000003  5.0331030900000000
 -13.8587182200000001  6.1087990100000003 19.8333542300000012
 -13.8309190300000004  4.4299341300000004 12.1355452600000007
 -13.7225106300000004  2.6625083500000000  5.1986130399999997
 -13.7338446199999993  0.7830391900000000 20.0723306500000014
 -4.5219242599999996  2.5225736400000001  5.4020551499999998
 -4.6269625400000001  0.9601715000000000 19.0484295500000016
 -4.4476590900000001 -0.8083119800000000 12.7703873500000000
 -4.5147955099999999 -2.5591737800000001  5.2774493600000003
 -15.0945358100000000 14.2347360900000002 20.1186528699999982
 -15.4415072700000007 12.5427234100000007 12.7853114300000001
 -14.5499014500000001 10.6434847399999999  5.0920760300000003
 -15.2614167999999992  8.9377302699999994 20.0616097199999999
 -15.4977644500000000  7.0138402600000003 12.0684963399999994
 -15.1717776700000009  4.9377550000000001  4.8816332899999999
 -14.9146035300000008  3.4247574300000001 19.4971863399999989
 -15.1846487900000007  1.6387631300000001 12.1463141500000003
 -5.8817760300000002  3.6490026300000000 19.4836959900000011
 -6.3863984599999997  1.6016444299999999 12.2916909099999998
 -5.9013613800000000  0.1577951000000000  4.4805466300000001
 -6.1063476799999998 -1.7254444400000000 20.4161759600000003
 -17.2402964899999986 14.8783560799999997 12.2588940100000006
 -16.4148605900000000 13.5051855700000001  4.8217778800000000
 -17.0311662699999999 11.2919460800000007 19.9736998600000000
 -17.0917895599999987  9.7095201299999996 12.3674685600000007
 -16.6399623500000011  7.4377086300000004  5.3459677100000000
 -16.4097447699999996  6.0929806099999997 19.6796101099999987
 -16.7705552400000002  4.2677627899999999 12.1446068700000005
 -16.5518476499999991  2.9172342100000002  4.5046553999999999
 -7.5127582899999998  4.4425583299999998 12.2682324499999993
 -7.5343378799999998  2.7159568100000002  5.2652456100000000
 -7.7884446799999996  1.1434843400000001 19.7579864399999998
 -7.6904376200000000 -0.7320192100000000 12.1089419899999999
 -7.2636315700000003 -2.2124571500000001  4.9552442900000004
 -17.9971611500000002 14.0780189399999998 20.0132632599999987
 -18.6155226399999982 12.5865153700000008 12.2925218100000002
 -18.2782599300000008 10.4822053700000009  4.7204552299999998
 -18.0196817799999991  8.8602932800000005 20.2527169499999999
 -18.3373205000000006  6.5672862299999997 11.8963655599999996
 -18.3146711899999985  5.3721257900000001  5.9244594900000003
 -18.0240108799999987  3.4967578000000001 19.9162041300000006
 -8.6418981899999991  4.8682529299999997  4.6301614999999998
 -9.0055883199999993  3.9329703000000000 19.5354274399999994
 -8.8937288700000003  1.5544694600000000 12.2255837700000001
 -9.1805334500000004 -0.0909681000000000  4.9428367599999996
 -8.9655993499999997 -1.8590808900000000 19.9791977600000017
 -9.4399436399999992 -3.4559998099999998 12.3978488500000008
 -19.6122023399999996 13.2376330400000004  4.7435956900000003
 -19.6093239799999992 11.5228871999999996 20.6739856400000015
 -19.5606147099999994  9.8495571799999997 11.8704519000000008
 -19.6800073699999984  8.1638561700000007  5.1089455900000003
 -19.1829294399999988  6.0723789000000004 20.3900911100000002
 -19.5357088800000014  4.3557601300000002 12.3035785200000003
 -10.4009513400000007 -2.6999070199999999  4.9478578100000004
 -10.5293400899999998 -4.3794679900000002 19.8033010500000017
 -21.6242226100000003 12.2372095299999994 12.2598823400000008
 -21.6184750900000004 10.5308600899999991  4.7911505200000004
 -20.8776762699999985  8.5596576100000004 20.4063222899999985
 -21.3111676299999999  6.6709808900000001 11.9213282599999992
 -21.5056331599999986  5.5264041800000001  5.2116067800000003
 -11.9233687800000006 -2.0264657000000001 20.1525962199999995
 -12.2879679100000008 -3.5237022200000001 12.9927586900000005
 -12.2744191100000002 -5.4582346399999997  4.5212428600000001
 -22.6282579099999985 11.5074520400000004 20.1187123200000002
 -22.7104066099999997  9.4119765100000006 12.2792010999999999
 -23.2812170099999989  7.9621795200000003  5.0718282800000001
 -22.1812476399999987  5.8595400900000003 20.0969697600000003
 -13.7189235000000007 -1.1117414299999999 12.4706916900000007
 -13.4980333100000003 -2.2816203100000001  4.8568259899999999
 -13.5464111799999998 -4.5349827400000002 19.9966789399999989
 -13.7402427500000002 -6.3028739099999997 12.1499429200000009
 -24.5534208199999995 10.5092153899999996  5.0063034499999999
 -23.8115305100000008  8.7252362100000003 19.9775340499999992
 -24.3267491000000007  7.0637281400000003 12.8290301200000005
 -15.2689175699999993  0.4993064700000000  4.8609287900000000
 -15.1100396700000008 -1.6666672199999999 19.8402474700000013
 -15.2571514500000003 -3.3709868599999999 12.6159040900000008
 -15.3335410499999991 -4.5536965800000004  4.4466504000000002
 -15.1273492699999998 -7.3037523599999998 20.0512618899999993
 -25.5864535099999983  9.2880067400000001 12.3134014799999996
 -26.0481228300000005  8.0172972399999995  5.4199031800000004
 -16.3554136200000002  0.8307317800000000 19.9524247300000006
 -16.7790780400000017 -1.0670078999999999 12.4180431200000001
 -16.6475222000000009 -2.4921773599999999  4.8403566099999997
 -16.7287036299999983 -4.1150519399999999 20.2435054699999988
 -16.7715344199999983 -6.4683933500000004 12.5081693699999992
 -16.8614666000000000 -8.0043788199999995  4.6139469499999999
 -26.9327408199999994  8.4320537499999997 19.9219344499999984
 -27.3042434100000015  6.5156692400000003 12.1956314799999994
 -8.8915393399999996 15.8082470700000002  4.4550289699999999
 -8.9941457400000004 13.9253643799999995 19.7764109999999995
 -8.7236357600000005 12.0680197099999997 12.7725165199999999
 -9.1564838999999996 10.3948257000000002  4.8611466200000004
 -9.0498545200000002  8.7285715100000001 19.4983700499999983
 -9.7620739499999996  6.9083812900000003 12.6937076900000001
 -18.2323633500000000 -9.0689021000000007 12.5401224500000001
 -1.6165419100000000  2.4856270299999998  5.3773083699999997
 -2.8682277799999998  3.3804508000000002 19.7196798099999988
 -5.0829765499999997  4.0802434300000003 12.6490822400000003
 -5.8055458099999999  5.2187091199999998  5.0271520199999999
 -7.4264707699999999  6.5024676499999998 19.3963567400000017
 -25.4625073800000017  5.8504041100000004 19.7682601899999995
 -25.3886010800000008  4.2710871499999996 12.4996998900000005
 -7.9288805599999996 13.2611594499999992  4.4294016300000001
 -7.4812285599999999 11.5325802500000005 19.6608030499999984
 -7.8464284400000004  9.4043213600000009 12.1783325900000001
 -7.4667103399999997  7.9406999400000000  4.7428200100000000
 -18.1446881799999993 -7.2647806800000003 20.3127315199999998
 -19.6662100899999999 -6.4485468600000004 12.1324429600000006
 -3.1066564300000001  5.3742904500000002  5.0811475200000000
 -4.0755767000000001  5.8095436800000000 19.6676268999999984
 -6.3698556899999996  6.9900358200000001 12.6548886100000004
 -24.5608895800000013  4.9493225699999996  4.8989084199999997
 -23.8836030400000006  3.3128982699999998 19.4577519499999987
 -24.3162991599999998  1.4707401899999999 12.8736479700000004