Li                                      
   1.00000000000000     
    21.0527999999999977    0.0000000000000000    0.0000000000000000
     0.0000000000000000   21.0527999999999977    0.0000000000000000
     0.0000000000000000    0.0000000000000000   21.0527999999999977
   Li
   432
Direct
  0.9822560571515453  0.9778163431942559  0.9972155062509529
  0.9214159755471982  0.0709503025725766  0.0786523555061578
  0.8361258046435651  0.1817516691366450  0.1689395595835208
  0.7661661341959274  0.2550865813573466  0.2700214194786454
  0.6398210627564964  0.3411253538721724  0.3354238771089797
  0.5651692107463120  0.4191026984534147  0.4236886000911966
  0.4949350347697248  0.4939139069387437  0.5371622691518496
  0.4144435258017936  0.5840452030133747  0.5833275098799220
  0.3462916870915009  0.6367782736738121  0.6887604560913516
  0.2559644170846624  0.7298960356817119  0.7293078877868950
  0.1612193874449019  0.8313029098267180  0.8248525588045297
  0.0908751543737623  0.9139427320831430  0.9204158054985569
  0.0898657940986496  0.9098532195242441  0.0859911042711659
  0.9981254612213135  0.9922744181296537  0.1410710969562246
  0.9379240994072049  0.0989674033857710  0.2384363272343819
  0.8582314775231765  0.1572434802021618  0.3297631269949832
  0.7427494271545854  0.2393146056581514  0.4054800226098223
  0.6320000631744946  0.3096496888774922  0.4769398588311304
  0.5835203749619993  0.4065594452994361  0.5866648797309608
  0.5000142698358445  0.5047274680802545  0.6518488737840116
  0.4291121181030562  0.5783329072617391  0.7663775065549459
  0.3470590667274678  0.6626723713710305  0.8352338472792198
  0.2613614763831862  0.7553069729442186  0.9228956400098767
  0.1681779307265572  0.8187387820147407  0.0110048877108966
  0.1772244879540992  0.8158396645576858  0.1747894227846203
  0.0813163517441851  0.8953156758245910  0.2401376809735538
  0.9973226188440520  0.0071139382884908  0.3148795594885243
  0.9361409280475783  0.0892244152796806  0.4304439357235168
  0.8179276880034934  0.1802214361035084  0.4977227233432160
  0.7379014948130447  0.2583422789367660  0.5597633112935085
  0.6645616806315573  0.3105452001633964  0.6546443893448881
  0.6038630438706463  0.3932061488258114  0.7321651604537180
  0.5281274348305232  0.4822592510259938  0.8374474744452058
  0.4320222502469946  0.5717290046929620  0.9044618492552061
  0.3425830378856958  0.6773770562585497  0.9801586468308230
  0.2590715748023982  0.7361175211848305  0.0663655247758044
  0.2924187338501270  0.7474088843289266  0.2793094595493244
  0.1840386347659191  0.8283311217510274  0.3556270391586835
  0.0946988030095781  0.9178803935818536  0.4151873233014101
  0.0098580136608888  0.9991187784997706  0.5056078312623526
  0.9221522500569961  0.1027238842339244  0.5982100746694030
  0.8317483892878883  0.1814025573795419  0.6703280214508283
  0.7633023018315868  0.2553468873499014  0.7691250227998196
  0.6673631806695539  0.3471177667578687  0.8210575899642834
  0.5747748532261738  0.4246248171264639  0.9214596172480611
  0.5175693888698873  0.5092151808785559  0.0084490623574993
  0.4163453341123287  0.5806616735066115  0.1015482368141036
  0.3514719053997553  0.6770197755167970  0.1596470934982506
  0.3636366298069618  0.6738954200866374  0.3534647856817159
  0.2646141387368885  0.7603910610465121  0.4303188677990590
  0.1681331124600973  0.8306851041191692  0.5176200752393996
  0.0821472393220830  0.9185746333029314  0.5984886105411178
  0.9850135202918366  0.0031031045751604  0.6935570693684454
  0.8890213396792817  0.0949698956908378  0.7372179054567596
  0.8417676731836110  0.1432287087703301  0.8471514031387741
  0.7619873328013398  0.2590910482216131  0.9217716242020089
  0.6597647386570884  0.3265609177876598  0.0007757960936345
  0.5926930498556047  0.4204340520025838  0.0919192017213888
  0.4959808999278010  0.4906174817601467  0.1639972402720744
  0.4153290388926862  0.5686422808367553  0.2551580853853181
  0.4152895258587961  0.5506512197902396  0.4558459359325155
  0.3431118929548589  0.6707899163056723  0.4851165426926585
  0.2440863186844524  0.7353379498213997  0.5620036351459206
  0.1595257533439707  0.8302351824935386  0.6557886841655289
  0.0735056776295764  0.9176276566537496  0.7431281553997593
  0.9846342985256129  0.0006021118331034  0.8191280841503286
  0.9255132367191052  0.0720237973096189  0.9174954243616043
  0.8321254289215716  0.1580615528575748  0.9999235479366178
  0.7718952562129502  0.2350156705996369  0.0691942392460874
  0.6792472592719250  0.3300315805973568  0.1750967429510553
  0.5659898403062797  0.4152445171188646  0.2436972245972058
  0.4889447303921557  0.4820560562015501  0.3471487488600076
  0.0687443461202335  0.0336903552021610  0.9180672100623184
  0.9898974711202300  0.1420377588729309  0.9910755951702370
  0.9264374520253824  0.2578304068817445  0.0981038484192140
  0.8303337043053673  0.3332279426014608  0.1755471785225708
  0.7340813449992396  0.4286122468270221  0.2538554524813819
  0.6761410182968532  0.4799398873309002  0.3453037762197937
  0.5667700139648915  0.5573868492552094  0.4152261228910135
  0.5021170993882080  0.6738147225072169  0.5129256521697840
  0.4053593526751769  0.7365933942278460  0.5912048060115538
  0.3361703369623044  0.8167147709568354  0.6651303959568295
  0.2446919108147156  0.8929228055175571  0.7475845977732192
  0.1418256170200607  0.0053972402720746  0.8178698648160818
  0.1649803076075358  0.9960866782565745  0.0138717253761982
  0.0903634390674881  0.0778501928484587  0.0976794407394763
  0.0001348989208054  0.1448728026675781  0.1679920252887968
  0.9309645657584724  0.2480071914424684  0.2579910966712262
  0.8229955055859577  0.3331707544839659  0.3254811801755579
  0.7475178351573177  0.3958028309773525  0.4370474920200635
  0.6784484420124670  0.4860125113999061  0.5001653490272062
  0.5916519422594604  0.5836635145918834  0.5630314779981731
  0.5236308310533531  0.6705088696040420  0.6718928456072319
  0.4452323605411124  0.7543946695926422  0.7474140603625159
  0.3196227675178633  0.8257615694824452  0.8310529074517419
  0.2334617157812744  0.9240232890636904  0.9134833138584924
  0.2404497843517248  0.9166500864493088  0.0886984315625483
  0.1859843322503423  0.9723053109325122  0.1724307864037087
  0.0982554382314973  0.0631489569083428  0.2421873546511648
  0.0241675933842558  0.1672780143258876  0.3217766919364635
  0.9123081214850259  0.2456470184488495  0.3952916115671101
  0.8250722530969767  0.3261190948472432  0.4984934360275091
  0.7388004830711381  0.4064592785757739  0.5785977836677318
  0.6441522153822774  0.5096920618635039  0.6577971951474382
  0.5883153191024491  0.5816199897400836  0.7661291728416160
  0.5369211302059611  0.6840744214546248  0.8352184825771403
  0.4239173915108694  0.7585033582231375  0.9124779245516024
  0.3257667583409329  0.8636936621257050  0.9843857045143665
  0.3377419089147295  0.8166808025535772  0.1359492936806532
  0.2810872796017634  0.8893157855487175  0.2493825519645867
  0.1791965339527266  0.9807104166666676  0.3236931956794322
  0.1003357339641298  0.0704438487992078  0.4137075595645214
  0.0122371005281963  0.1543333076835367  0.5099927116583061
  0.9021588843289265  0.2514150274547831  0.5651997021773809
  0.8300349886950897  0.3226859819121444  0.6391360346367208
  0.7521871214280296  0.4229925420846641  0.7256837413550699
  0.6597331552097572  0.4984598233964164  0.8363633953678402
  0.5963572517669888  0.5805981380148992  0.9230754455464378
  0.4809324118407048  0.6522970360237110  0.9884311364759100
  0.4589921302629563  0.7704766805365537  0.0630349839451299
  0.4371938188744480  0.7593718697750447  0.2407447650668786
  0.3721188891738834  0.8220533107235113  0.3572921050881561
  0.2693926627337007  0.9010005761703894  0.4329287220702227
  0.1670580725604225  0.0072713301793570  0.5236676589337321
  0.0696435571515437  0.0834196938174472  0.6078787956946314
  0.9865488999087972  0.2131909389724882  0.6684685210518282
  0.9032888874639013  0.2628725713444311  0.7654434141776889
  0.8293343184754534  0.3492083556581562  0.8454947265921859
  0.7409958290583702  0.4391382656938774  0.9372631322199396
  0.6717933524281818  0.5067969927990603  0.0102032285491731
  0.5906052453830384  0.5684974986700126  0.0665270766833856
  0.5112194130946932  0.6510504531463752  0.1707708328583379
  0.5052904720512217  0.6511999439504450  0.3689841227770145
  0.4494473761209932  0.7568375498746036  0.4368737341351263
  0.3575729294915675  0.8366094101497197  0.5175076673886636
  0.2427037011703916  0.9216605952652372  0.5967173188364470
  0.1726990077329376  0.0031262720398217  0.6852664353435145
  0.0544696030931746  0.0987965885772937  0.7264883592681244
  0.0001357909636752  0.1734406724996234  0.8432401262539884
  0.9009848827709348  0.2600259561673539  0.9385722739968045
  0.8249840325277376  0.3360096566727435  0.9967019964090298
  0.7313959848571230  0.4071334801071558  0.1002523151314776
  0.6629785168718669  0.5198222796967613  0.1599595217738283
  0.5819369946040425  0.5684584962570298  0.2844386542407662
  0.1292607515389861  0.1658849335955281  0.8418735246617999
  0.0661408306733549  0.2506984643372832  0.9044012805897523
  0.9828497720018206  0.3311426133340944  0.0114129279715769
  0.9260125066499469  0.4198593707250353  0.0839775526295767
  0.8148077300881624  0.4946245140788861  0.1629949802401569
  0.7485453284123693  0.5764226554187601  0.2524911451208425
  0.6720195408686749  0.6551795575885393  0.3343032551489600
  0.6013655471006203  0.7470421863125125  0.4339608831129382
  0.5138574189656495  0.8549207991336090  0.5135635730164125
  0.4246845944482445  0.9437224625702996  0.6039487830597352
  0.3063615253077998  0.9992810077519394  0.6895719310495494
  0.2467319211696335  0.0947929292065695  0.7643714180536563
  0.2364144755091928  0.0706932897286805  0.9105946064181509
  0.1501390323377407  0.1459251092491272  0.9925628054225584
  0.0792417355411175  0.2340679135316890  0.0624423596861234
  0.0155349777701801  0.3383838002545971  0.1637597355221132
  0.9200027701778382  0.4191141297119643  0.2480062148502782
  0.8191549337855264  0.4754527245782043  0.3236010440416450
  0.7689172461620331  0.5593095711734293  0.4175850732444175
  0.6575619813041484  0.6419504498214010  0.5019352333181359
  0.5754752104233134  0.7569369509043895  0.5763499297005623
  0.5011150051299609  0.8196410458466303  0.6735522495820021
  0.4029985987612079  0.9128718560001516  0.7531921986624113
  0.3186899775801777  0.9954960841313252  0.8171290783173717
  0.3424017513109874  0.9933257291191637  0.9910467766757876
  0.2572832639838865  0.0808757770937802  0.0671114293585617
  0.1753202144132828  0.1503954614113070  0.1600817720208241
  0.1007686649756820  0.2478325153898737  0.2145407047993615
  0.0409271199080408  0.3037110208618330  0.3193833224084202
  0.9253397073073444  0.3968027312281492  0.3810476639686868
  0.8398979784161753  0.4611036788455678  0.4854954272115819
  0.7718199327405415  0.5668906553997601  0.5708603829419374
  0.6738404939010465  0.6509173744110015  0.6458052710328346
  0.6020103824669434  0.7754065934222538  0.7344747492020076
  0.4810288113695123  0.8604695351687184  0.8279883640180898
  0.4150361120611024  0.9225725034199712  0.9090756877944983
  0.4341308690530497  0.9311967971006254  0.0737331333599300
  0.3307276101041197  0.0006929501063979  0.1665568750949973
  0.2487890437376521  0.0607685072769399  0.2390210594315221
  0.1493386404658779  0.1414724772951814  0.3203261376159006
  0.0953954628363007  0.2461587546549637  0.4126233166134696
  0.9948898189314477  0.3189648821059450  0.4864614673582608
  0.9190170841883258  0.3864350532945764  0.5925773916058645
  0.8628038227694148  0.4932663427192594  0.6833933073035396
  0.7388883668680677  0.5765217510259930  0.7499146906824734
  0.6659380557455563  0.6882872102523194  0.8255255946952431
  0.5855934821021407  0.7721967728758159  0.9269785843213256
  0.5196834995820012  0.8521308861529135  0.9960817192962423
  0.5306522728568197  0.8447686246010022  0.1457583950828365
  0.4265895472336254  0.9180380965952253  0.2340495582535311
  0.3287465843023227  0.0200825567145486  0.3200429059317500
  0.2392994238296069  0.0809371622776993  0.4382989160586703
  0.1633550159598727  0.1738631554947574  0.5376434659522715
  0.0813432579039386  0.2520868720550240  0.5829700757143925
  0.9895161432208539  0.3309400288797661  0.6835001538987697
  0.9145807213292301  0.4104382457440323  0.7800979347165224
  0.8163083798829618  0.4795409869471072  0.8356195180688530
  0.7518357990386093  0.5785266928864559  0.9159231517897837
  0.6678749292255688  0.6597622344771210  0.9996794521393824
  0.5808261366659053  0.7486803479822157  0.0510052026333767
  0.5921786802705569  0.7529025022799800  0.2465917075163375
  0.5288736662106714  0.8221668485902143  0.3367355135658912
  0.4226506303199571  0.9351874667502642  0.4211670024889784
  0.3217043599901217  0.9968841251520004  0.5131131678446579
  0.2298890503875981  0.1063350974692199  0.6063159446724455
  0.1415720003989946  0.1750879360465092  0.6927950543395625
  0.0842066114721050  0.2789939433234565  0.7691134100927215
  0.9736634324175384  0.3376371988524127  0.8472913683690564
  0.9287315981722131  0.4151286517707860  0.9387932773787782
  0.8278411398958809  0.5114130904202767  0.9952046535377690
  0.7556930897552832  0.5930803456072340  0.0786948762159909
  0.6804664723932206  0.6613196121181062  0.1691858926128589
  0.2531352603929165  0.2388829761361890  0.7727831262349909
  0.1379909256725966  0.3440700918642676  0.8392814827481345
  0.0593059597773191  0.4213773208314322  0.9321935566765447
  0.9935933638280900  0.5173584055327538  0.9943276666286636
  0.9347053057075527  0.5785519014097886  0.1104234686122538
  0.8268034204476393  0.6509324446154423  0.1672675511095889
  0.7584293238904110  0.7576315392726869  0.2416270562585510
  0.6804571923924598  0.8534003966218293  0.3411919858641141
  0.5796296573377404  0.9380040298677628  0.4259789481684138
  0.5274079248366021  0.9968664272685785  0.5126713624790966
  0.4147196448928412  0.1002559346025222  0.5934631469448277
  0.3269956105601182  0.1966171768125875  0.6793784954970334
  0.3300715453526379  0.1706548995858057  0.8477816969714240
  0.2390228914918708  0.2502824241906083  0.9159479708162337
  0.1478841850015229  0.3350863248594038  0.0216907655988763
  0.0750810913512723  0.4345437424000593  0.1037393957098374
  0.0015231209150315  0.5383185880262928  0.1711342776257823
  0.9131010084169304  0.5826044545143674  0.2443732638888889
  0.8378811512007900  0.6784800468346219  0.3286610332117377
  0.7379684317525488  0.7528547946116433  0.4247065416476659
  0.6699985488866105  0.8562584098077224  0.5079382053693564
  0.6151639017137853  0.9370747378020994  0.6002141116621047
  0.4986674038607717  0.0033387183652565  0.6837351145690818
  0.3994911721956242  0.0873148084815298  0.7562437951246395
  0.4314609021127822  0.0667988063345462  0.9024886447408420
  0.3576846609477116  0.1713921245630061  0.9725799622853017
  0.2385927833827353  0.2337678061825486  0.0598838406292757
  0.1659120074289433  0.3425302168832616  0.1423647092073281
  0.0883284508473920  0.4096707801337587  0.2433603449422392
  0.0043592087513318  0.5140008606931161  0.3253824484154109
  0.9011710499315981  0.5802266871865029  0.4037478088425317
  0.8394969752242005  0.6605296188630518  0.4962358788379717
  0.7594640071629399  0.7378187794497677  0.5542487217852283
  0.6729434949270399  0.8620455915602676  0.6507207107843129
  0.5905174637102917  0.9214658990728068  0.7336440853473150
  0.5133406069501447  0.9940273208314352  0.8222271436578481
  0.4804481128401008  0.0151272567069469  0.9740110864113092
  0.4178468674000584  0.0846661859705122  0.0740256241450084
  0.3063500080749364  0.1597352409180743  0.1486270253837958
  0.2344201664386674  0.2454841151770779  0.2303300758093911
  0.1528811645006840  0.3380950054149565  0.3118371637026911
  0.0791771289329688  0.4061097948966435  0.4222572802667557
  0.0022406553997598  0.4847411531957775  0.5107484942620459
  0.9173322460670335  0.5553812813497458  0.5841434621523049
  0.8363102618179070  0.6510209335575325  0.6549114911080736
  0.7463051589337297  0.7535238182094517  0.7310062324251376
  0.6644594704742346  0.8326571130680946  0.8555953797119642
  0.5852520591085266  0.9280629279715740  0.9196893795599621
  0.5629894712342320  0.9309783363733075  0.0819194767441829
  0.5092717116013077  0.0203227532679762  0.1707529098267244
  0.4193720193988426  0.0835266387368918  0.2411295756383964
  0.3054344875740966  0.1580966014021854  0.3301000983242162
  0.2197024866051080  0.2347175857843169  0.4085181695546467
  0.1854871204780366  0.3521581585347349  0.5081180332307369
  0.0819065544725674  0.3998301456338353  0.6008884571173425
  0.9967435163018692  0.4859755813953512  0.6775385131668941
  0.8998313573491430  0.5823711629806994  0.7759011813155468
  0.8182912857197167  0.6757338691290471  0.8334787116203088
  0.7704009447674451  0.7525155808253530  0.9129916452918394
  0.6810688820489403  0.8346091427268618  0.0031458594581224
  0.6626135383416951  0.8338797342871231  0.1703464940530495
  0.5983350190948471  0.9353292934906534  0.2398865381326942
  0.4904565877222993  0.0101431063801485  0.3332641558367513
  0.4152363714090299  0.0739790445926403  0.4323041248670023
  0.3046047509119916  0.1741110009119922  0.5113468341503236
  0.2287815763223904  0.2434836872055044  0.6151935191518447
  0.1649853857919155  0.3150923834359318  0.6810800406596726
  0.0841457863087101  0.3906969799741589  0.7549501695736467
  0.9973812281501750  0.5175241355069176  0.8374062580749353
  0.9112305493806048  0.5731644351345224  0.9251330792103687
  0.8295940074479375  0.6691018752849942  0.9918784038227670
  0.7462725884442918  0.7577286812205486  0.0942387596899223
  0.3271145648084826  0.3418526091541239  0.6850565801223567
  0.2523516268619872  0.4076924656102747  0.7406396260829879
  0.1481915545675605  0.5125049546853617  0.8383339432284558
  0.0798944254445999  0.6121437443000488  0.9133768458352307
  0.9881366872815036  0.6883258749429970  0.0145053992818092
  0.9022545818133452  0.7580550544345641  0.0970556063801524
  0.8259634979670167  0.8456809146526822  0.1664484353625184
  0.7661574992400091  0.9350916600167167  0.2652543576151416
  0.6642527991526066  0.0008065924722587  0.3278925530095762
  0.5635586534807686  0.0936743449802435  0.4131951203640369
  0.4916723528461802  0.1899229437414505  0.4976642399110816
  0.3943925316347503  0.2577172266871841  0.5893491768315826
  0.4227921430878538  0.2517078464622315  0.7697954134366896
  0.3433974882200914  0.3243669269645864  0.8653509267175892
  0.2476417331661338  0.4231093949498401  0.9295058011285917
  0.1647817335461284  0.5019078094125220  0.9903731000151978
  0.0983655290507670  0.6093039814181509  0.0698244053047574
  0.0111610683614529  0.6852470098989230  0.1713884727922164
  0.9029459026827809  0.7523238505091925  0.2415142855107177
  0.8402864198586428  0.8345849278955768  0.3492164362935100
  0.7447248955008376  0.9335932507789906  0.4184530081509337
  0.6552146835575314  0.0398468412752706  0.4960572351421177
  0.5755958152834779  0.0889660933462508  0.6021106403898742
  0.4891483607881142  0.1627276105791182  0.6751158301983580
  0.5191379227466157  0.1458809640522887  0.8328950913892683
  0.4482378253723951  0.2542686830255363  0.8940519983090169
  0.3406501500987957  0.3393216175520593  0.9796360332117331
  0.2572687989246063  0.4243463320793452  0.0673826564637494
  0.1603997036023728  0.5154120891282901  0.1535220630984924
  0.0747887549399593  0.5928286655456745  0.2362580782603771
  0.9915979456414377  0.6691827927876588  0.3383401063041518
  0.9202427776827804  0.7426251230240126  0.4197669597393201
  0.8329432650288808  0.8454142717358266  0.4917309184526530
  0.7384820147438802  0.9302621076531423  0.5820985104119174
  0.6692405285757701  0.0155285695964409  0.6832920732634165
  0.6124179387064927  0.0827441608717123  0.7428258592681232
  0.6090859063877474  0.0961144379844967  0.9164097112973124
  0.5161036189960484  0.1631337888546867  0.9814357876387021
  0.4063181861795115  0.2637598504711960  0.0635014530133731
  0.3215054330065357  0.3273245872283042  0.1384854988410069
  0.2383958062585521  0.4107048311863508  0.2276823553161549
  0.1747271289329717  0.4930201122891020  0.3102833295333625
  0.0895338073795386  0.5783324593403236  0.3942218180004531
  0.9883895952082398  0.6538064822731400  0.4947536783705715
  0.9127569235446131  0.7402084715572244  0.5754487768847838
  0.8134200899642821  0.8350471224730214  0.6592894850091184
  0.7461146037581727  0.9108599008207960  0.7676669830141378
  0.6805452091883240  0.0037829614113107  0.8372850718194229
  0.6611221300729611  0.0192439865481049  0.0159592671758659
  0.5893610256117938  0.0907760511665927  0.0773647377071001
  0.5063251458238369  0.1663264439884458  0.1540066171720653
  0.3818083580331333  0.2249542284161734  0.2455198591161292
  0.3069816375968983  0.3354496950524393  0.3214400573795402
  0.2353234743122030  0.4161331960594339  0.3956684279525788
  0.1743608536631740  0.5060598091465280  0.4991350281197739
  0.0849331898844810  0.5859261452158364  0.5812277393030882
  0.9965096699726388  0.6628707487840089  0.6693432536289734
  0.9040616250569968  0.7444591284769757  0.7518114146336856
  0.8297890123878986  0.8195063240994074  0.8279630614455087
  0.7540859173126648  0.9332394973590183  0.9221679985560129
  0.7561625313497515  0.9334816641966839  0.0798176955084386
  0.6552608888128901  0.9945968213254304  0.1744519080597371
  0.5668139245136032  0.1037164073187427  0.2553117932056566
  0.4852159014477877  0.1797735588615268  0.3379112939846465
  0.3892285781463727  0.2516999814751486  0.4171852632428923
  0.3107893382352955  0.3145955032109740  0.5116925534845720
  0.2417335290317695  0.4233895106589145  0.6061594880490944
  0.1405801955084343  0.4967614331585324  0.6695992647058802
  0.0849778936768502  0.5775684954020335  0.7554182270291818
  0.9897476558937512  0.6797200310647540  0.8307648208314333
  0.8977431600547163  0.7511351278689773  0.9129850637444932
  0.8397676342339295  0.8451401951284367  0.9998165113429067
  0.3872956917844661  0.4325813141244836  0.5863318703450346
  0.3190449446154418  0.5033151020291839  0.6602364046587610
  0.2512942416210677  0.5682933890028892  0.7685199773901843
  0.1743034707972342  0.6854230164158679  0.8276961007561923
  0.0872431557797526  0.7435490490576058  0.9006977485180130
  0.0072757913436661  0.8053411769455820  0.0002005125208981
  0.9074434863771117  0.9136681804795543  0.0826440568475419
  0.8475411280209784  0.0041827519379822  0.1696903357273172
  0.7649628581471362  0.0865393130604986  0.2543266601117224
  0.6690617157812753  0.1806454177116592  0.3337642722108214
  0.5481694900440814  0.2477844866241057  0.4067855282907757
  0.4854231261399917  0.3232195247188017  0.4937450985142107
  0.4978989426584590  0.3227359073377443  0.6519906791495700
  0.4176289704932330  0.4357870193038451  0.7386644199346435
  0.3220234890370861  0.4757537244452053  0.8362900379046962
  0.2628135725414182  0.5954224065207470  0.9003158596481242
  0.1698245383036934  0.6765027507029941  0.0072505334207307
  0.0954883934678534  0.7573849217206288  0.0987512891396847
  0.9787835608565132  0.8426181016301868  0.1458107092643246
  0.9330135312167513  0.9008373893258863  0.2471369699042398
  0.8687589137786915  0.0036702756877958  0.3221457445090437
  0.7743097953716358  0.0723912054453564  0.3981527939276504
  0.6567214123537042  0.1565286940454484  0.4764080839603295
  0.5701902079533383  0.2461944216446241  0.5680711102561204
  0.5800669488144123  0.2517312181752516  0.7793604214166265
  0.4986021773825797  0.3541359477124217  0.8391690986472113
  0.4261677192582454  0.4439648108565137  0.9298251234990147
  0.3425213216294267  0.5323314528233780  0.9955104565663504
  0.2576803028575796  0.5862093070755421  0.0614626681486570
  0.1916921720626235  0.6821570422936603  0.1730436649756797
  0.0984596238980089  0.7563222754217946  0.2402492875056979
  0.0313879892460847  0.8312958632580916  0.3495518002355951
  0.9383401143790877  0.9155181572047439  0.4121276319539433
  0.8321590444026441  0.0104078934868497  0.5003438055745590
  0.7446829827861379  0.0851521512577875  0.5906207777587795
  0.6740726592187229  0.1790343156254721  0.6638656117001034
  0.6751267712608282  0.1786937989246056  0.8423373081015342
  0.5922607619889035  0.2518099250455990  0.8975967952006414
  0.5105193285453709  0.3403739084587301  0.0103989630832970
  0.4101050525345826  0.4142598385962941  0.0751578559621535
  0.3123909237726110  0.4978217519759838  0.1504811801755608
  0.2568588401542797  0.6153588411042676  0.2634424689352457
  0.1617030138508895  0.6876942929206535  0.3276464057037529
  0.0575262563649517  0.7373749287505689  0.4264942302211594
  0.9872992134062955  0.8435019854841173  0.5071132827937390
  0.9142487450600427  0.9147606821895451  0.5702202405380774
  0.8309149125056976  0.9922105211658305  0.6664735113619074
  0.7670640655874763  0.0917322199422372  0.7625392123613040
  0.7556906406748780  0.0900971918224656  0.9205490129578990
  0.6715591436768520  0.1681278751519955  0.9943918371902996
  0.5942919625893026  0.2410406739246085  0.0710382595189216
  0.5000299599103215  0.3061149072807439  0.1751561122511021
  0.4113199754901942  0.4114151181790575  0.2481688274243794
  0.3266566542217646  0.4988702699878402  0.3391868278803756
  0.2273706808595506  0.5866258302933574  0.3946088938288526
  0.1645919032147773  0.6532752650478812  0.4777400616545080
  0.0671027844277248  0.7253505353207146  0.5683059526523806
  0.9920899752051966  0.8215608033135737  0.6510359833371311
  0.9408867058063564  0.8941169858641160  0.7482403746770032
  0.8446458542331641  0.9961902901276787  0.8286131877944953
  0.8304290688174518  0.9984906767745869  0.0023840999771991
  0.7604383298183635  0.0972267745858062  0.0769441185970479
  0.6799205663854693  0.1708818451702356  0.1473575704894330
  0.5858509818171456  0.2494003747720015  0.2328299689352491
  0.4999181529297800  0.3302952395880823  0.3487931771545831
  0.3877675254597932  0.4082720127488955  0.4351362403100794
  0.3005264097887235  0.5045396336829313  0.5042110422366619
  0.2489392475110179  0.5910346813725482  0.5738030851003160
  0.1626131307949521  0.6815203108375130  0.6675443845949260
  0.0640662391700886  0.7364699683652560  0.7324552767327859
  0.0008775141548867  0.8181443285453724  0.8281184821021412
  0.9213955830103373  0.9185217500759961  0.9038204020367857
 
  0.00000000E+00  0.00000000E+00  0.00000000E+00
  0.00000000E+00  0.00000000E+00  0.00000000E+00
  0.00000000E+00  0.00000000E+00  0.00000000E+00
  0.00000000E+00  0.00000000E+00  0.00000000E+00
  0.00000000E+00  0.00000000E+00  0.00000000E+00
  0.00000000E+00  0.00000000E+00  0.00000000E+00
  0.00000000E+00  0.00000000E+00  0.00000000E+00
  0.00000000E+00  0.00000000E+00  0.00000000E+00
  0.00000000E+00  0.00000000E+00  0.00000000E+00
  0.00000000E+00  0.00000000E+00  0.00000000E+00
  0.00000000E+00  0.00000000E+00  0.00000000E+00
  0.00000000E+00  0.00000000E+00  0.00000000E+00
  0.00000000E+00  0.00000000E+00  0.00000000E+00
  0.00000000E+00  0.00000000E+00  0.00000000E+00
  0.00000000E+00  0.00000000E+00  0.00000000E+00
  0.00000000E+00  0.00000000E+00  0.00000000E+00
  0.00000000E+00  0.00000000E+00  0.00000000E+00
  0.00000000E+00  0.00000000E+00  0.00000000E+00
  0.00000000E+00  0.00000000E+00  0.00000000E+00
  0.00000000E+00  0.00000000E+00  0.00000000E+00
  0.00000000E+00  0.00000000E+00  0.00000000E+00
  0.00000000E+00  0.00000000E+00  0.00000000E+00
  0.00000000E+00  0.00000000E+00  0.00000000E+00
  0.00000000E+00  0.00000000E+00  0.00000000E+00
  0.00000000E+00  0.00000000E+00  0.00000000E+00
  0.00000000E+00  0.00000000E+00  0.00000000E+00
  0.00000000E+00  0.00000000E+00  0.00000000E+00
  0.00000000E+00  0.00000000E+00  0.00000000E+00
  0.00000000E+00  0.00000000E+00  0.00000000E+00
  0.00000000E+00  0.00000000E+00  0.00000000E+00
  0.00000000E+00  0.00000000E+00  0.00000000E+00
  0.00000000E+00  0.00000000E+00  0.00000000E+00
  0.00000000E+00  0.00000000E+00  0.00000000E+00
  0.00000000E+00  0.00000000E+00  0.00000000E+00
  0.00000000E+00  0.00000000E+00  0.00000000E+00
  0.00000000E+00  0.00000000E+00  0.00000000E+00
  0.00000000E+00  0.00000000E+00  0.00000000E+00
  0.00000000E+00  0.00000000E+00  0.00000000E+00
  0.00000000E+00  0.00000000E+00  0.00000000E+00
  0.00000000E+00  0.00000000E+00  0.00000000E+00
  0.00000000E+00  0.00000000E+00  0.00000000E+00
  0.00000000E+00  0.00000000E+00  0.00000000E+00
  0.00000000E+00  0.00000000E+00  0.00000000E+00
  0.00000000E+00  0.00000000E+00  0.00000000E+00
  0.00000000E+00  0.00000000E+00  0.00000000E+00
  0.00000000E+00  0.00000000E+00  0.00000000E+00
  0.00000000E+00  0.00000000E+00  0.00000000E+00
  0.00000000E+00  0.00000000E+00  0.00000000E+00
  0.00000000E+00  0.00000000E+00  0.00000000E+00
  0.00000000E+00  0.00000000E+00  0.00000000E+00
  0.00000000E+00  0.00000000E+00  0.00000000E+00
  0.00000000E+00  0.00000000E+00  0.00000000E+00
  0.00000000E+00  0.00000000E+00  0.00000000E+00
  0.00000000E+00  0.00000000E+00  0.00000000E+00
  0.00000000E+00  0.00000000E+00  0.00000000E+00
  0.00000000E+00  0.00000000E+00  0.00000000E+00
  0.00000000E+00  0.00000000E+00  0.00000000E+00
  0.00000000E+00  0.00000000E+00  0.00000000E+00
  0.00000000E+00  0.00000000E+00  0.00000000E+00
  0.00000000E+00  0.00000000E+00  0.00000000E+00
  0.00000000E+00  0.00000000E+00  0.00000000E+00
  0.00000000E+00  0.00000000E+00  0.00000000E+00
  0.00000000E+00  0.00000000E+00  0.00000000E+00
  0.00000000E+00  0.00000000E+00  0.00000000E+00
  0.00000000E+00  0.00000000E+00  0.00000000E+00
  0.00000000E+00  0.00000000E+00  0.00000000E+00
  0.00000000E+00  0.00000000E+00  0.00000000E+00
  0.00000000E+00  0.00000000E+00  0.00000000E+00