Li 
 1.0000000000000000
    21.0527999999999977    0.0000000000000000    0.0000000000000000
     0.0000000000000000   21.0527999999999977    0.0000000000000000
     0.0000000000000000    0.0000000000000000   21.0527999999999977
 Li 
 432
Cartesian
 -0.3735596800000000 -0.4670280900000000 -0.0586213900000000
 19.3983862500000015  1.4937025300000000  1.6558523100000000
 17.6027893400000011  3.8263815399999999  3.5566507600000001
 16.1299423900000001  5.3702867799999998  5.6847069399999999
 13.4700248699999996  7.1816438500000004  7.0616117999999997
 11.8983943599999993  8.8232852899999994  8.9198313599999999
 10.4197682999999994 10.3982706999999994 11.3087698200000002
  8.7251966599999999 12.2957868500000007 12.2806774000000001
  7.2904096300000001 13.4059656399999998 14.5003361300000009
  5.3887676799999999 15.3663552600000006 15.3539730999999993
  3.3941195199999998 17.5012538999999983 17.3654559500000012
  1.9131764499999999 19.2410535500000002 19.3773298700000005
  1.8919265900000000 19.1549578599999997  1.8103535200000000
 -0.0394642900000000 -0.1626451300000000  2.9699415899999999
 19.7459284799999999  2.0835409500000002  5.0197523100000003
 18.0681756500000006  3.3104155400000002  6.9424371599999999
 15.6369551399999995  5.0382425299999998  8.5364898199999999
 13.3053709300000005  6.5189929700000002 10.0409194599999996
 12.2847377499999997  8.5592146899999992 12.3509383800000005
 10.5267004199999992 10.6259264400000006 13.7232439700000004
  9.0340115999999995 12.1755270299999996 16.1343923700000005
  7.3065651200000001 13.9511088999999995 17.5840111400000012
  5.5023908900000000 15.9013266400000006 19.4295373299999987
  3.5406163400000001 17.2367438300000018  0.2316837000000000
  3.7310717000000002 17.1757092900000004  3.6798067600000000
  1.7119368900000000 18.8489018600000016  5.0555705700000004
 -0.0563663700000000  0.1497683200000000  6.6290963899999999
 19.7083877299999983  1.8784237699999999  9.0620500899999996
 17.2196680300000011  3.7941658500000002 10.4784569500000000
 15.5348925900000001  5.4388283299999998 11.7845850399999996
 13.9908841499999994  6.5378459900000001 13.7820973999999996
 12.7130078900000001  8.2780904100000008 15.4141266899999998
 11.1185612599999999 10.1529075599999992 17.6306141899999993
  9.0952780299999993 12.0364963899999999 19.0414544200000009
  7.2123321799999998 14.2606836900000005 20.6350839599999993
  5.4541820500000000 15.4973349500000008  1.3971801200000000
  6.1562331199999996 15.7350497600000008  5.8802461900000003
  3.8745285699999998 17.4386894400000010  7.4869449299999999
  1.9936749600000001 19.3239523499999990  8.7408556799999992
  0.2075387900000000 -0.0185521800000000 10.6444605499999998
 19.4138868900000006  2.1626253900000001 12.5939970599999995
 17.5106324899999990  3.8190317600000001 14.1122817699999992
 16.0696507000000004  5.3757669500000000 16.1922352799999985
 14.0498635699999994  7.3078009200000000 17.2855612299999990
 12.1006200300000000  8.9395413500000007 19.3993050300000007
 10.8962848300000008 10.7204053600000009  0.1778764200000000
  8.7652350499999994 12.2245540800000008  2.1378747200000001
  7.3994677299999996 14.2531619299999992  3.3610183299999998
  7.6555692400000002 14.1873854999999995  7.4414234400000003
  5.5708685400000002 16.0083609299999985  9.0594170599999995
  3.5396727900000000 17.4882473599999990 10.8973519200000002
  1.7294293999999999 19.3385680399999984 12.5998610200000005
 -0.3155073600000000  0.0653290400000000 14.6013182700000002
 18.7163884600000010  1.9993822200000000 15.5205011200000005
 17.7215664699999991  3.0153653600000001 17.8349090600000011
 16.0419669200000001  5.4545920199999998 19.4058736500000002
 13.8898950899999996  6.8750216899999996  0.0163326800000000
 12.4778482400000001  8.8513140099999994  1.9351565700000000
 10.4417866900000007 10.3288717200000004  3.4526010999999999
  8.7438391899999992 11.9715122100000002  5.3717921400000002
  8.7430073299999993 11.5927500000000006  9.5968333200000000
  7.2234660599999998 14.1220059500000001 10.2130615500000008
  5.1387004500000000 15.4809227899999993 11.8317501299999996
  3.3584637800000001 17.4787752500000018 13.8061880099999996
  1.5475003300000001 19.3186315300000011 15.6449284300000002
 -0.3234910400000000  0.0126761400000000 17.2449397299999987
 19.4846450699999991  1.5163025999999999 19.3158476700000001
 17.5185702300000017  3.3276382600000001 21.0511904700000017
 16.2505564500000013  4.9477379099999999  1.4567324800000001
 14.3000567000000007  6.9480888600000004  3.6862767100000000
 11.9156709099999993  8.7420597699999991  5.1305089300000004
 10.2936556199999991 10.1486297400000005  7.3084531799999999
  1.4472609700000001  0.7092763100000000 19.3278853599999998
 -0.2126865200000000  2.9902925300000001 -0.1878837100000000
 19.5041023899999999  5.4280519900000002  2.0653606999999998
 17.4808494100000011  7.0153812300000000  3.6957596399999999
 15.4544677400000001  9.0234879100000001  5.3443680699999998
 14.2346616299999997 10.1040784600000002  7.2696113400000000
 11.9320957500000002 11.7345538600000001  8.7416725199999998
 10.5709708700000000 14.1856865899999995 10.7985211700000008
  8.5339493799999993 15.5073534100000003 12.4465165399999993
  7.0773268700000003 17.1941327299999998 14.0028571999999993
  5.1514498599999996 18.7985252400000000 15.7387490200000002
  2.9858263500000000  0.1136270200000000 17.2184506900000009
  3.4732974200000002 -0.0823863800000000  0.2920386600000000
  1.9024034100000000  1.6389645399999999  2.0564257300000000
  0.0028400000000000  3.0499781399999999  3.5367025100000000
 19.5994108099999984  5.2212458000000002  5.4314349599999998
 17.3263597800000007  7.0141772600000003  6.8522901899999997
 15.7373434799999998  8.3327578399999993  9.2010734400000000
 14.2832393599999996 10.2319241999999999 10.5298810599999992
 12.4559300099999994 12.2877512400000004 11.8533890999999993
 11.0238951600000004 14.1160891300000007 14.1452256999999992
  9.3733878399999995 15.8821200999999999 15.7351587300000002
  6.7289542000000004 17.3845931699999987 17.4959906499999995
  4.9150228100000000 19.4532774999999987 19.2313815099999985
  5.0621412200000000 19.2980509399999995  1.8673503400000000
  3.9154909500000001 -0.5830507500000000  3.6301508600000001
  2.0685520899999998  1.3294623600000000  5.0987219399999999
  0.5087955100000000  3.5216705799999999  6.7743003399999999
 19.2066404199999994  5.1715575500000002  8.3219952399999997
 17.3700811299999991  6.8657200800000000 10.4946826099999999
 15.5538188099999992  8.5571058999999998 12.1811034199999995
 13.5612077600000003 10.7304450399999993 13.8484727900000006
 12.3856847499999994 12.2447293199999994 16.1291642499999988
 11.3036931700000007 14.4016819799999993 17.5836876699999998
  8.9246480600000009 15.9686195000000009 19.2102152500000010
  6.8583024100000003 18.1831699299999983 20.7240753600000005
  7.1104128600000003 17.1934176000000001  2.8621132899999999
  5.9176742800000000 18.7225873699999994  5.2502009899999997
  3.7725887899999999 -0.4060997400000000  6.8146481100000003
  2.1123481399999999  1.4830402600000001  8.7097025099999996
  0.2576252300000000  3.2491482600000001 10.7367745600000006
 18.9929705599999998  5.2929902899999997 11.8990362899999997
 17.4745606100000010  6.7934434399999999 13.4556031100000002
 15.8356450300000002  8.9051773900000004 15.2776746699999997
 13.8892301699999994 10.4939749700000000 17.6077912900000015
 12.5549899499999995 12.2232164799999996 19.4333227400000013
 10.1249738800000006 13.7326790400000007 20.8092430300000011
  9.6630695200000005 16.2206914600000012  1.3270629100000000
  9.2041540299999998 15.9869041000000003  5.0683513900000001
  7.8341445500000004 17.3065239400000017  7.5219992299999996
  5.6714698500000003 18.9685849299999987  9.1143617999999993
  3.5170401899999999  0.1530818600000000 11.0246704900000001
  1.4661918800000000  1.7562181299999999 12.7975507099999994
 -0.2831833200000000  4.4882662000000000 14.0731340800000009
 19.0167602900000006  5.5342036700000001 16.1147271100000005
 17.4598095399999984  7.3518136700000003 17.8000313800000001
 15.6000369899999995  9.2450900800000007 19.7320132699999995
 14.1431310900000007 10.6694957299999995 21.2676065299999983
 12.4338941100000007 11.9684641400000000  1.4005812399999999
 10.7626000600000005 13.7064349799999992  3.5952041900000000
 10.6377792499999995 13.7095821800000000  7.7681489399999997
  9.4621257199999995 15.9335495700000003  9.1974153500000000
  7.5279113700000000 17.6129705899999998 10.8949854199999994
  5.1095924799999999 19.4035361799999997 12.5625703699999995
  3.6357976700000001  0.0658167800000000 14.4267772099999991
  1.1467376600000001  2.0799448200000001 15.2946141299999994
  0.0028587800000000  3.6514117900000000 17.7525657300000006
 18.9682545400000002  5.4742744500000002 19.7595743699999993
 17.3682238399999989  7.0739441000000003 20.9833677899999991
 15.3979333900000004  8.5712997299999998  2.1105919399999999
 13.9575541199999993 10.9437144899999996  3.3675958200000000
 12.2514031600000006 11.9676430299999996  5.9882301000000000
  2.7213007500000002  3.4923423300000001 17.7237949400000012
  1.3924496799999999  5.2779046300000001 19.0401792800000003
 -0.3610603200000000  6.9714792100000000  0.2402740900000000
 19.4951560999999991  8.8392153600000007  1.7679626200000000
 17.1539841799999984 10.4132309700000008  3.4315007199999998
 15.7589750899999999 12.1353108800000005  5.3156455800000000
 14.1478929900000008 13.7933641900000001  7.0380195700000003
 12.6604285900000004 15.7273297400000001  9.1360916799999998
 10.8181374699999999 17.9984766000000000 10.8119511900000003
  8.9407998299999996 19.8680002599999987 12.7148129399999998
  6.4497679200000002 21.0376632000000008 14.5174199500000007
  5.1943977900000000  1.9956565799999999 16.0921585900000004
  4.9771866700000000  1.4882916900000001 19.1705661300000010
  3.1608470199999998  3.0721321399999999 -0.1565737700000000
  1.6682604100000000  4.9277849700000003  1.3145865100000000
  0.3270547800000000  7.1239264699999998  3.4476009599999999
 19.3686343200000017  8.8235259500000005  5.2212252399999999
 17.2455049900000006 10.0096111200000006  6.8127080600000003
 16.1878610000000016 11.7750325399999998  8.7913350300000008
 13.8435208799999998 13.5148544299999998 10.5671420800000000
 12.1153645099999991 15.9356422400000000 12.1337797999999992
 10.5498739799999992 17.2557390099999992 14.1801607999999995
  8.4842489000000008 19.2185086100000007 15.8568047199999995
  6.7093163599999999 20.9579799599999994 17.2028550600000010
  7.2085155900000002 -0.1405120900000000 -0.1884904200000000
  5.4165330999999997  1.7026615599999999  1.4128835000000000
  3.6909814100000000  3.1662455700000001  3.3701695300000001
  2.1214625499999999  5.2175683800000003  4.5166825499999996
  0.8616304700000000  6.3939673800000003  6.7239132100000001
 19.4809917900000009  8.3538085399999993  8.0221202599999994
 17.6822041600000013  9.7075235299999996 10.2210381300000002
 16.2489706799999993 11.9346355899999992 12.0182094700000004
 14.1862291500000008 13.7036332999999999 13.5960092100000001
 12.6740041800000007 16.3244799299999990 15.4627499999999998
 10.1270033599999998 18.1152930300000001 17.4314734300000005
  8.7376722600000001 19.4227343999999995 19.1385886399999983
  9.1396703600000002 19.6042999299999998  1.5522889099999999
  6.9627422299999999  0.0145885400000000  3.5064885800000001
  5.2377059800000003  1.2793472299999999  5.0320625600000000
  3.1439965299999999  2.9783917700000000  6.7437621099999996
  2.0083416000000001  5.1823310300000003  8.6868761600000006
 -0.1075836200000000  6.7151038700000001 10.2413759800000008
 19.3478828699999994  8.1355398900000004 12.4754133100000004
 18.1644363200000001 10.3846376599999992 14.3873426200000001
 15.5556690100000008 12.1373971199999993 15.7878039999999995
 14.0198607000000006 14.4903729800000001 17.3796252399999993
 12.3283824600000003 16.2569042199999991 19.5154947400000012
 10.9407927800000007 17.9397411200000008 20.9703092200000007
 11.1717161699999998 17.7847448999999997  3.0686223400000001
  8.9809044199999999 19.3272724400000016  4.9273985400000004
  6.9210360900000003  0.4227940500000000  6.7377992899999999
  5.0379229099999998  1.7039538900000000  9.2274194200000004
  3.4390804799999999  3.6603062400000002 11.3189003600000007
  1.7125033400000000  5.3071345000000001 12.2731524099999998
 -0.2207145400000000  6.9672142399999997 14.3895920400000001
 19.2544850099999998  8.6408743000000001 16.4232458000000001
 17.1855770600000000 10.0956804899999995 17.5921305900000000
 15.8282487100000004 12.1796067600000004 19.2827469299999983
 14.0606373100000006 13.8898423700000002 21.0460515699999995
 12.2280164899999999 15.7618176299999995  1.0738023299999999
 12.4670193200000003 15.8507058000000001  5.1914458999999997
 11.1342715200000004 17.3089142299999992  7.0892254200000000
  8.8979791899999992 19.6883146999999994  8.8667446699999992
  6.7727775499999998 -0.0655978900000000 10.8024688999999992
  4.8398082000000002  2.2386515400000002 12.7646483199999992
  2.9804870100000000  3.6860913000000002 14.5852757200000003
  1.7727849499999999  5.8736036900000004 16.1919907999999992
 -0.5544584900000000  7.1082084200000004 17.8378557200000003
 19.5524005900000013  8.7396204799999992 19.7642271100000002
 17.4283739500000010 10.7666775099999992 20.9518445299999989
 15.9094554800000001 12.4860018999999998  1.6567474900000001
 14.3257245500000003 13.9226295300000000  3.5618367599999998
  5.3292060100000000  5.0291555199999998 16.2692486000000009
  2.9050953599999998  7.2436388300000001 17.6692251999999996
  1.2485565100000000  8.8711724600000004 19.6252845100000002
 -0.1348776300000000 10.8918430399999995 -0.1194185000000000
 19.6781638600000015 12.1801374700000000  2.3247232000000002
 17.4065270500000011 13.7039505699999999  3.5214503000000001
 15.9670608699999992 15.9502652699999992  5.0869260900000004
 14.3255291800000002 17.9664678699999989  7.1830466399999997
 12.2028272500000003 19.7476112400000012  8.9680496000000005
 11.1034135599999999 -0.0659704800000000 10.7931676599999999
  8.7310097399999993  2.1106681400000000 12.4940609400000007
  6.8841731900000003  4.1393421000000004 14.3028195900000004
  6.9489302300000002  3.5927634700000000 17.8481785100000003
  5.0321011300000000  5.2691458200000003 19.2832694400000015
  3.1133761700000000  7.0545053800000002  0.4566513500000000
  1.5806671999999999  9.1483624999999993  2.1840047500000002
  0.0320659600000000 11.3331135700000001  3.6028557200000000
 19.2233329099999999 12.2654550600000007  5.1447414499999997
 17.6397443000000003 14.2839047299999997  6.9192349999999996
 15.5363018000000004 15.8497014200000006  8.9412618800000008
 14.1053454499999997 18.0266370500000015 10.6935214500000004
 12.9509225899999993 19.7280470399999999 12.6361876500000001
 10.4983451199999998 21.1230893699999989 14.3945386200000005
  8.4104077499999992  1.8382212000000000 15.9210493700000004
  9.0834600800000000  1.4063019100000000 18.9999129400000015
  7.5302636300000003  3.6082841200000000 -0.5772685700000000
  5.0230461499999999  4.9214668699999997  1.2607225200000001
  3.4929123099999999  7.2112201499999999  2.9971757499999998
  1.8595612100000001  8.6247170000000004  5.1234166700000001
  0.0917735500000000 10.8211573199999993  6.8502116099999997
 18.9721738799999997 12.2153963999999995  8.5000218699999994
 17.6737619200000005 13.9059979600000005 10.4471547099999995
 15.9888438500000003 15.5331512000000007 11.6684874900000004
 14.1673448099999995 18.1484734299999992 13.6994929800000005
 12.4320460599999993 19.3994372800000008 15.4452622000000002
 10.8072571300000000 -0.1257416200000000 17.3101836099999993
 10.1147780300000001  0.3184711100000000 -0.5471394000000001
  8.7968465299999998  1.7824602800000000  1.5584466600000000
  6.4495254500000003  3.3628740800000001  3.1290150400000001
  4.9352008800000000  5.1681279800000004  4.8490930199999998
  3.2185765800000001  7.1178465299999996  6.5650454399999996
  1.6669002600000000  8.5497482900000001  8.8896980699999997
  0.0471720700000000 10.2051585500000002 10.7526858999999995
 19.3124123099999991 11.6923310399999991 12.2978554800000008
 17.6066726799999991 13.7058135100000005 13.7877206399999999
 15.7118132500000005 15.8637862399999996 15.3897280100000007
 13.9887323400000003 17.5297636700000012 18.0126784099999995
 12.3211945499999995 19.5383232100000015 19.3620365700000008
 11.8525047400000005 19.5997007200000013  1.7246343600000000
 10.7215954900000003  0.4278508600000000  3.5948268600000000
  8.8289552499999999  1.7584696200000001  5.0764527299999997
  6.4302511800000000  3.3283761300000001  6.9495313500000000
  4.6253525099999999  4.9414623899999999  8.6004513199999995
  3.9050232500000002  7.4139152800000003 10.6973073299999992
  1.7243623100000001  8.4175440899999998 12.6503845100000003
 -0.0685581000000000 10.2311467199999999 14.2640828099999997
 18.9439695999999991 12.2605436200000000 16.3348923900000003
 17.2273227800000015 14.2260899999999992 17.5470606199999999
 16.2190970099999987 15.8425600200000005 19.2210305099999985
 14.3384069600000004 17.5708593600000000  0.0662291500000000
 13.9498703000000006 17.5555032699999991  3.5862706700000002
 12.5966274899999995 19.6913005500000011  5.0502833100000002
 10.3254844499999994  0.2135407900000000  7.0161436200000002
  8.7418882799999995  1.5574660300000001  9.1012122800000004
  6.4127828999999998  3.6655240800000000 10.7652826299999997
  4.8164927700000000  5.1260133699999999 12.9515461199999997
  3.4734043300000002  6.6335769300000003 14.3386418800000008
  1.7715044099999999  8.2252653799999997 15.8938149299999996
 -0.0551324800000000 10.8953321200000008 17.6297464700000006
 19.1839545099999995 12.0667162200000000 19.4766416900000010
 17.4652767199999985 14.0864679600000002 -0.1709823400000000
 15.7111275500000005 15.9523103800000001  1.9839897600000000
  6.8866775100000002  7.1969546099999997 14.4223591700000000
  5.3127083300000004  8.5830679399999994 15.5925379199999998
  3.1198471600000000 10.7896643099999991 17.6492768399999989
  1.6820013599999999 12.8873398199999993 19.2291400599999989
 -0.2497559500000000 14.4911869800000002  0.3053792700000000
 18.9949852600000000 15.9591814500000009  2.0432922699999998
 17.3888443300000013 17.8039511600000004  3.5042056200000000
 16.1297606000000009 19.6862977000000008  5.5843469399999996
 13.9843813299999997  0.0169810300000000  6.9030563400000000
 11.8644876200000002  1.9721072500000001  8.6989142299999997
 10.3510797100000005  3.9984097500000000 10.4772257100000008
  8.3030670900000008  5.4256692299999996 12.4074503499999995
  8.9009584299999993  5.2991549500000001 16.2063488800000002
  7.2294786400000000  6.8288320400000000 18.2180599900000004
  5.2135518799999998  8.9076374699999992 19.5686997299999987
  3.4691168800000001 10.5665647299999996 -0.2026732000000000
  2.0708698100000000 12.8275548599999993  1.4699992399999999
  0.2349717400000000 14.4263682499999994  3.6082072400000000
 19.0095394999999989 15.8385235600000005  5.0845519499999998
 17.6903819400000017 17.5703495700000012  7.3519837900000002
 15.6785442800000006 19.6547519900000012  8.8096074899999994
 13.7941036900000000  0.8388875800000000 10.4433937599999993
 12.1179035800000001  1.8729853700000001 12.6761148899999991
 10.2979426099999998  3.4258718400000001 14.2130785500000005
 10.9293068600000005  3.0712027599999998 17.5347737799999983
  9.4366612900000000  5.3530677300000002 18.8222979099999996
  7.1716394799999996  7.1436701500000002 -0.4287185200000000
  5.4162285700000004  8.9336784599999994  1.4185935900000000
  3.3768628800000000 10.8508676299999998  3.2320692900000001
  1.5745127000000001 12.4807033300000008  4.9738940700000001
 -0.1768867700000000 14.0881714999999996  7.1230065900000001
 19.3736871499999985 15.6343381899999994  8.8372698500000002
 17.5357879700000012 17.7983375799999983 10.3523126800000007
 15.5471141599999996 19.5846221000000007 12.2548035199999994
 14.0893870000000003  0.3269198700000000 14.3852113599999996
 12.8931123799999998  1.7419962700000000 15.6385642499999999
 12.8229637699999994  2.0234780400000001 19.2929903699999983
 10.8654262700000004  3.4344230300000000 -0.3908286500000000
  8.5541355100000001  5.5528833799999999  1.3368833899999999
  6.7685895800000004  6.8910990700000001  2.9155075099999999
  5.0188992299999997  8.6464866699999998  4.7933510899999998
  3.6784952999999998 10.3794538200000002  6.5323328800000002
  1.8849373400000000 12.1755175999999992  8.2994730899999993
 -0.2444315300000000 13.7644571100000004 10.4159502400000008
 19.2160889600000004 15.5834609099999994 12.1148080100000008
 17.1247704700000014 17.5800800600000002 13.8798896700000007
 15.7078015299999993 19.1761513199999989 16.1615394600000002
 14.3273821800000007  0.0796419300000000 17.6271951599999994
 13.9184719799999996  0.4051398000000000  0.3359872600000000
 12.4076997999999996  1.9110900500000001  1.6287443500000001
 10.6595620300000000  3.5016373600000001  3.2422705100000000
  8.0381350000000005  4.7359163799999999  5.1688804900000003
  6.4628230200000001  7.0621553400000003  6.7672132400000002
  4.9542180399999998  8.7607689499999992  8.3299282800000007
  3.6707841800000001 10.6539759499999995 10.5081899199999995
  1.7880814599999999 12.3353859499999992 12.2364713500000004
 -0.0734812200000000 13.9552852999999999 14.0915496499999993
 19.0330285799999999 15.6729491400000001 15.8277353499999993
 17.4693821199999988 17.2529027399999997 17.4309407400000005
 15.8756199999999996 19.6473044899999998 19.4142184399999991
 15.9193385400000000 19.6524027799999992  1.6803859800000001
 13.7950764400000008 -0.1137520400000000  3.6727011300000001
 11.9330201900000006  2.1835207799999998  5.3750281199999996
 10.2151533299999997  3.7847367799999998  7.1139788900000003
  8.1943514099999994  5.2989893700000001  8.7829179100000001
  6.5429857800000004  6.6231162100000001 10.7725609900000006
  5.0891676400000003  8.9135346900000005 12.7613544700000006
  2.9596067399999999 10.4582191000000009 14.0969394000000001
  1.7890226000000000 12.1594340200000008 15.9036688500000007
 -0.2158405500000000 14.3100098700000000 17.4899256200000011
 18.9000072000000010 15.8134976199999997 19.2208919499999986
 17.6794600499999994 17.7925675000000005 -0.0038629500000000
  8.1536587399999991  9.1070478900000005 12.3439276000000007
  6.7167894099999996 10.5961921799999992 13.8998249800000000
  5.2904474099999996 11.9641670599999994 16.1794973800000008
  3.6695761099999999 14.4300736799999996 17.4253204699999991
  1.8367127100000000 15.6537894200000007 18.9622095600000016
  0.1531757800000000 16.9546867299999988  0.0042213500000000
 19.1042262299999983 19.2352734699999992  1.7398887999999999
 17.8431138599999990 21.1408586400000011  3.5724567000000000
 16.1046100599999988  1.8218948500000001  5.3542883100000003
 14.0856224900000004  3.8030918499999999  7.0266724700000003
 11.5405026399999997  5.2165572400000002  8.5639743700000004
 10.2195159899999997  6.8046760099999997 10.3947168100000003
 10.4821668599999995  6.7944945099999998 13.7262293700000004
  8.7922591899999993  9.1745369599999993 15.5509543000000008
  6.7794961100000002 10.0159480100000007 17.6062469099999994
  5.5329615800000003 12.5353088400000008 18.9541697300000003
  3.5752820399999998 14.2422771099999999  0.1526440300000000
  2.0102980499999998 15.9450732800000008  2.0789911399999998
 -0.4466654500000000 17.7394703699999994  3.0697236999999999
 19.6425472700000014 18.9651493900000006  5.2029252000000001
 18.2898076600000010 21.1300695800000007  6.7820699299999996
 16.3013892600000005  1.5240375700000000  8.3822311400000000
 13.8258245500000001  3.2953672900000002 10.0297241100000001
 12.0041004099999995  5.1830819200000002 11.9594874699999991
 12.2120334600000007  5.2996469900000003 16.4077190799999997
 10.4969719200000000  7.4555532800000002 17.6668592000000011
  8.9720237600000008  9.3467023699999991 19.5754223600000010
  7.2110328800000003 11.2070676099999993 -0.0945174600000000
  5.4248918799999997 12.3413473000000007  1.2939612599999999
  4.0356569599999998 14.3613157800000000  3.6430536700000000
  2.0728507700000001 15.9227015999999999  5.0579201999999999
  0.6608050600000001 17.5011055499999983  7.3590441400000000
 19.7546867599999985 19.2742206600000010  8.6764406100000002
 17.5192779300000012  0.2191153000000000 10.5336380700000003
 15.6776619000000004  1.7926912100000001 12.4342211099999993
 14.1911168799999992  3.7691736400000000 13.9762299500000005
 14.2133088900000004  3.7620048100000001 17.7335588800000004
 12.4687473700000009  5.3013039900000001 18.8969258099999990
 10.7478613200000002  7.1658238200000000  0.2189272900000000
  8.6338596499999998  8.7213295300000002  1.5822833100000000
  6.5767036399999999 10.4805417799999994  3.1680501900000002
  5.4075977899999996 12.9550266100000009  5.5462016099999998
  3.4043012099999999 14.4778904100000005  6.8978742500000001
  1.2110887699999999 15.5238069000000003  8.9788977299999999
 -0.2673871200000000 17.7580786000000010 10.6761545200000008
 19.2474959800000001 19.2582736899999993 12.0047326800000000
 17.4930854700000005 20.8888096599999997 14.0311335400000008
 16.1488463600000003  1.9312200799999999 16.0535855299999994
 15.9094039200000008  1.8967981599999999 19.3801342599999984
 14.1382003399999991  3.5395625300000000 -0.1180675300000000
 12.5115098299999996  5.0745810999999996  1.4955542700000000
 10.5270307400000007  6.4445759200000001  3.6875266000000000
  8.6594371799999994  8.6614401999999995  5.2246486900000004
  6.8770372100000001 10.5026160199999996  7.1408324500000004
  4.7867894700000004 12.3501162799999999  8.3076221199999996
  3.4651204199999999 13.7532735000000006 10.0577659700000002
  1.4127015000000001 15.2706597500000001 11.9644315599999995
 -0.1665281700000000 17.2961552800000007 13.7061303500000005
 19.8082996400000013 18.8236660799999989 15.7525549599999994
 17.7821602399999996 20.9725949400000005 17.4446277199999997
 17.4828571000000004 -0.0317754800000000  0.0501919800000000
 16.0093560699999991  2.0468958399999999  1.6198891399999999
 14.3142317000000006  3.5975413100000000  3.1022894600000002
 12.3338035500000007  5.2505762100000002  4.9017227700000001
 10.5246768900000003  6.9536396199999997  7.3430730000000004
  8.1635921600000003  8.5952690300000008  9.1608362400000001
  6.3269223999999999 10.6219719999999995 10.6150542300000001
  5.2408681899999996 12.4429349400000007 12.0801615899999994
  3.4234617200000002 14.3479107999999993 14.0536784200000007
  1.3487737200000001 15.5047549500000006 15.4202344500000006
  0.0184741300000000 17.2242289200000016 17.4342127799999993
 19.3979569299999994 19.3374546999999986 19.0279501599999996
