Li 
 1.0000000000000000
   -11.0705700000000018   19.1747897087477881    0.0000000000000013
   -18.9781199999999970  -10.9570226907130195    0.0000000000000076
     0.0000000000000001    0.0000000000000001   23.2203000000000017
 Li 
 504
Cartesian
 -0.3341974600000000  0.2379035600000000  0.4964271700000000
 -11.2980839599999996 17.1086778899999992 16.0058079999999983
 -11.0310326100000005 15.5337870099999993  7.6651725700000002
 -11.2178737099999992 13.6656496300000008  0.0624584100000000
 -10.8129603799999998 11.6623010399999991 15.5372588599999997
 -10.8919253200000004 10.6138580400000002  7.5751351600000003
 -11.1717473100000007  8.2542024099999995  0.3754210900000000
 -11.1169036600000002  6.0278991700000004 15.5354570800000005
 -11.2736871799999996  5.3304973400000000  7.8619547299999999
 -11.4776544999999999  3.2873471200000002  0.0162824000000000
 -10.9593830099999998  0.6561002200000000 15.2137905999999994
 -10.7169579499999994 -0.7888707000000000  7.8074363900000003
 -1.5636286300000000  0.7762674500000000 15.6976561799999992
 -1.4194868899999999 -0.9276278700000000  8.4172011599999994
 -13.0444747599999999 16.1123687999999987 -0.0311023400000000
 -12.3449203099999991 14.7508544399999995 15.8049219099999991
 -12.7675856799999998 13.1449686200000002  7.5337071299999998
 -12.6868977899999997 10.5148310600000006  0.1182436600000000
 -12.2539136899999992  8.7366994299999998 15.3846419000000001
 -12.6063422400000000  7.8046068699999998  7.9646526599999996
 -12.5838032299999991  5.4801635199999996  0.4888396100000000
 -12.6446104600000009  3.6877444100000001 15.6655632600000008
 -13.0786702399999992  2.0883938899999999  7.8809922500000003
 -12.5708136199999991  0.1845848600000000 -0.5506005600000000
 -3.4425021700000000  2.6035813999999999  7.5873055300000001
 -3.2504157400000002  0.3738085000000000  0.1031625800000000
 -3.1051476400000002 -1.6839699699999999 15.5565765999999996
 -13.8724582200000004 16.2404703800000014  7.6490542499999998
 -14.2592996599999999 13.3389242899999996  0.0279157000000000
 -14.0857356399999993 11.5285683300000006 15.9685222899999992
 -13.8405538299999993 10.3953010100000007  7.6742197900000004
 -14.6432211500000005  7.4063936699999999 -0.2896528200000000
 -14.6072196499999993  6.3736024300000000 15.8269428899999998
 -14.0631478300000001  4.7763324200000001  7.9550561300000000
 -14.6748749400000005  2.4069718899999999 -0.0235811200000000
 -14.1439393100000004  1.0942446900000000 15.2708239399999997
 -4.9810378000000002  2.8940076800000001 -0.0759279700000000
 -4.9303939200000002  0.3086589400000000 16.1958148000000008
 -5.3959364399999998 -0.8975576700000000  8.0933806700000002
 -4.9677751800000003 -3.5496148700000001  0.0023190200000000
 -16.0474353500000007 14.2392780400000003 15.4139480300000002
 -15.2651968799999995 13.1752345099999992  7.5973956600000001
 -15.6161128599999994 10.8395733300000003 -0.4554850900000000
 -15.7079135000000001  9.0964745100000002 15.3778153700000004
 -15.2092993199999995  6.6301899100000004  8.2819468300000008
 -15.7421030500000008  5.2759416799999999 -0.2819594800000000
 -16.0523754700000012  3.7199545500000002 15.8695723799999993
 -15.6648989299999997  2.0943899500000001  7.5378442799999998
 -6.6399135500000002  3.2312796499999998 15.5036551599999992
 -7.6457446400000002  2.9182420400000000  7.9380062000000002
 -5.9042499700000004 -0.2607699400000000  0.2541781500000000
 -6.5313117500000004 -2.4617285099999999 15.1248885299999998
 -17.6344905400000016 16.2156088400000016  7.7231987699999998
 -17.3006394300000004 13.5196398099999993 -0.4725670700000000
 -16.9836070300000017 11.5044772200000001 14.9296440399999994
 -16.4845404000000002  9.8483095800000005  7.5756630300000003
 -17.5394693299999993  7.9360955200000003 -0.7814885900000000
 -17.4989938599999988  6.4317952900000002 14.7910860799999995
 -17.7353939899999986  3.8058504599999998  7.2942883399999996
 -17.4067162700000004  2.0307768099999999  0.3565983600000000
 -8.3071554699999997  5.2747317100000002  7.7266784599999996
 -7.9703317699999996  2.5282857800000000 -0.3505074400000000
 -8.3218371999999992  0.2770337300000000 16.0177258400000007
 -8.4460545800000002 -0.8289683799999999  7.7290885500000002
 -8.0743967699999999 -3.0223483799999999  0.1467528300000000
 -18.8846599099999999 14.0029040400000007 15.8463474800000004
 -18.5543984900000005 13.3740947899999991  7.3141240600000001
 -18.9735533099999998 11.0330493700000005 -0.2130410200000000
 -19.2554880699999984  8.6999764800000001 15.5997321800000002
 -18.9235174400000012  7.2659444600000000  7.7777608400000000
 -18.6901690999999985  5.3401403500000004 -0.0099959600000000
 -18.9325979699999998  3.4669761100000001 15.5085642099999994
 -8.9617619099999999  5.5722733399999997  0.0995574500000000
 -9.3818555400000001  2.9173047799999998 15.2690949699999994
 -10.3825128299999996  1.9021336099999999  7.8712797099999996
 -9.6488927899999997  0.3116211700000000  0.0261211600000000
 -10.3416212999999999 -2.1921440099999998 16.0222437199999987
 -9.7957133600000006 -3.5992163700000002  7.5133327300000001
 -20.7182705100000000 13.1610372000000009  0.0164657500000000
 -20.4745916900000005 12.0804019000000000 15.3903375899999997
 -20.1712126699999992 10.0183358499999997  7.8090492600000001
 -21.0042628200000010  8.1374943799999997  0.2141051800000000
 -20.8606598800000000  6.6072100999999996 14.8820651900000005
 -21.1996286800000000  4.5254466899999999  7.5613192099999997
 -10.9863896299999997 -2.9844455399999998 -0.1231267200000000
 -11.2313208600000003 -4.6411327099999999 15.0126693099999997
 -22.1661974599999994 13.0602916899999997  8.0864131700000002
 -21.9546287800000002 11.0335190500000007  0.0446763800000000
 -21.9244569399999989  9.1015148799999999 15.7247886900000005
 -21.7578742699999985  7.1966790600000001  7.3522276299999998
 -21.6422833200000007  4.9979728200000002 -0.4841886100000000
 -13.2617313299999999 -1.9435047299999999 14.9727180900000008
 -12.6595728199999993 -3.9666200800000002  8.1520910000000004
 -12.6406535699999996 -5.5812229300000000  0.6927069100000000
 -23.7167031699999988 11.8263984600000001 15.8698549500000006
 -23.3518742099999983 10.2710650599999997  7.9653608900000004
 -23.6322457700000008  8.2401555200000001  0.1289613300000000
 -23.7660967800000016  6.6118172199999998 15.1439856699999993
 -13.7005701099999992 -0.2983013500000000  7.9704612700000004
 -13.1966606199999994 -2.8339539500000002  0.5228953100000000
 -14.1720536399999997 -5.1563992499999998 15.4021399100000007
 -13.9465622899999993 -5.9771993999999999  7.5884557900000003
 -25.2601969699999991 10.9479219099999998  0.3791285900000000
 -24.9687143999999996  9.2670674300000009 15.9228771499999997
 -24.7766379199999989  7.2051252500000000  8.1616081099999995
 -16.1591763800000017  0.1235253700000000  0.0071044400000000
 -16.1078944100000001 -1.9567140199999999 15.2489357699999992
 -14.8585376199999999 -2.9839022700000002  8.3163357900000001
 -15.7908188299999992 -5.0935025899999999 -0.1201175200000000
 -15.6905213200000002 -7.6321718000000001 15.3880687100000006
 -26.5435403799999996 10.0862055200000000  7.6157861999999996
 -27.7560500800000014  7.8284826599999997  0.0850144000000000
 -17.8835478899999991  1.1080686099999999 15.9416760600000007
 -16.8419862299999998 -0.9692600800000000  7.8761656799999997
 -16.7471505500000006 -2.5409866100000000  0.2155210300000000
 -16.9497803699999992 -4.6205266099999998 15.2628554899999997
 -17.3698223300000016 -6.0121155399999999  7.5663971300000004
 -17.6010333800000005 -7.7958721899999999  0.2839368700000000
 -28.8199008600000006  9.4178644200000008 15.8335945299999992
 -28.4840832800000001  7.0712613299999996  7.7705370599999997
 -9.9282069499999999 16.2059139200000004 -0.0166792700000000
 -9.2301380000000002 13.9510080700000003 15.0974816999999994
 -9.5929877500000007 12.7731502100000007  8.1030643900000001
 -9.1011181699999995 11.1738508499999991 -0.0705512700000000
 -9.3663677900000000  9.2219706899999991 15.7071306499999999
 -9.1087684200000005  8.1609954400000007  8.4176988599999998
 -18.6327496900000007 -9.3418215199999999  7.8784160700000001
 -1.2466334100000001  2.8071912399999999  0.4707808700000000
 -3.3296510100000001  3.2883411800000002 15.3553032599999995
 -5.3047694600000002  4.5869367499999996  8.2642920600000007
 -6.6000776300000004  5.1148287500000000 -0.5545954000000000
 -7.4424749200000004  6.0313229499999998 15.1644897800000003
 -27.2725247700000004  6.4565557699999996 15.3092003099999996
 -27.0545740600000002  4.5386317700000003  7.8072691399999998
 -7.7067697400000004 13.8171104899999992  0.4796305300000000
 -7.7729840599999998 11.6622772200000000 15.2809723700000006
 -7.6791787100000004 10.6195836499999992  7.4653089799999997
 -7.6232660399999999  8.4311890999999992 -0.1239106000000000
 -18.9885027899999983 -7.0280872299999997 15.1154878200000002
 -21.0007192700000012 -6.3956729799999996  7.5849250599999998
 -3.2932872099999999  5.1682128699999996 -0.3837399300000000
 -4.9619005200000004  6.1256189599999997 14.9696050599999992
 -5.9071705400000001  7.6035653400000003  7.7874447900000003
 -24.9078853600000016  5.3034990899999999  0.1147632400000000
 -24.8450253699999983  3.9998772499999999 15.0759977799999998
 -25.3548038200000008  2.3030932499999999  7.5809123500000002
 -5.3021851399999997 10.9187173800000004 -0.4421470400000000
 -6.0120401100000000  9.1417683299999997 15.5540761500000002
 -18.9193832899999990 -5.1369501099999999  0.0693081500000000
 -20.8638133600000018 -4.7309755200000003 15.4679004700000000
 -22.3408389599999992 -3.5829848499999999  7.6078097700000002
 -4.3201607900000001  7.8038774899999996 -0.7298655200000000
 -23.9357989800000013  5.0435860200000002  7.3687296599999996
 -23.5368528300000008  3.0978006699999998 -0.6464750300000000
 -23.5616499799999985  0.5562642300000000 15.3187279299999997
 -24.0898373799999987 -0.2590345700000000  7.4124191100000001
 -18.9522321600000012 -3.6935093000000001  7.5095866500000001
 -20.0732527300000001 -2.9105048800000000 -0.0143714500000000
 -22.4567627300000012 -2.2479899500000000 15.3880215200000006
 -21.3697668800000002  3.7599684400000002 14.8289121300000009
 -22.3811203899999995  2.1861706600000002  8.3494265300000006
 -21.6695527800000001  0.1132643500000000  0.1284881000000000
 -19.3983415100000016 -1.7532559700000001 15.5803018400000006
 -20.6997494099999990 -0.5119372599999999  7.9041031100000003
 -20.5469973599999989  2.9201932500000001 -0.1846713300000000
 -21.1432096799999982  0.6806217800000000 15.3024893599999992
 -19.6113745799999997  0.3463514500000000  0.1985770800000000
 -19.7060284400000008  1.9362357699999999  7.7350290499999996
  0.6431691000000000 -0.5966435500000000 18.1731379400000002
 -11.0296863100000007 17.7476135799999994 10.5856167499999998
 -11.2965108999999995 15.6076410699999997  2.0775788099999999
 -10.9322482700000005 13.9716672099999997 18.5642492200000007
 -11.2976041800000004 12.0261403799999993  9.9467748900000004
 -11.1318024700000002 10.2860174000000004  2.9006409899999999
 -10.9048510899999993  7.4792641900000003 18.3254349999999988
 -10.2603957599999998  6.9113764199999999 10.2618650200000001
 -11.1142431599999991  4.9315637700000003  2.9737382000000001
 -10.5498740600000005  2.5319354299999999 18.0231585199999991
 -11.3915787300000009  0.9595444400000001 10.2961003299999998
 -10.9828421299999999 -1.2833560300000000  1.9957697100000000
 -1.8715366600000001  0.9535893400000000 10.6928487200000006
 -1.8267942300000000 -0.6964376799999999  2.7117179500000002
 -13.1768925699999997 16.2055339600000003 18.5354330199999993
 -13.1285375599999998 14.9628553800000006 10.4014392099999995
 -12.6324720100000008 12.9355997899999995  2.1662175700000001
 -12.3384455200000005 11.1156153399999997 17.9645166200000013
 -12.7660128799999999  9.2288312000000001 10.4482427500000004
 -13.2539709299999995  7.6276982999999996  2.9360280500000000
 -12.9270539299999996  5.0694992499999998 18.4140230799999998
 -12.7846105500000000  3.9900924899999999 10.5911144400000001
 -12.5756626100000002  2.3188863000000000  2.1038629599999998
 -12.5009790400000007 -0.3827861700000000 17.8560496600000000
 -3.7261516299999999  2.0261679500000001  2.2584136799999999
 -2.2402024200000001 -0.6322474700000000 18.3985365700000010
 -3.6931496600000000 -1.8701946400000000 10.4993356700000007
 -14.2542506200000005 15.9929946100000002  2.5986733700000002
 -14.1090498499999999 13.5992040299999992 18.1362778300000009
 -14.3066157700000005 11.9926970399999995 10.9302759900000002
 -14.4034413600000004  9.5140267999999999  2.4789473900000001
 -13.8450990399999991  8.8977255900000003 18.3259160600000008
 -13.4062071799999991  6.5188890199999996 10.6224100200000002
 -14.6226215300000000  4.5648976699999997  2.4309645899999999
 -13.7261501900000003  2.5125470299999999 18.2129318100000006
 -14.9203357600000004  0.9247066700000000 10.2588836299999997
 -4.8083873900000000  2.2200947200000001 17.8473763599999984
 -5.5364054899999999  1.5840450399999999 10.2026817399999992
 -5.3664356800000004 -0.8169418200000000  2.3551679999999999
 -4.6024792200000002 -3.2767387499999998 18.0882666199999989
 -16.1653769800000013 14.8576546900000004 10.2217030199999996
 -15.5820526699999995 13.2060616399999997  2.6487803699999999
 -15.6883622799999998 11.3102502699999992 18.0845246800000012
 -15.6968055199999998  8.7748403100000001  9.7772111200000005
 -15.6859063299999999  7.0897997300000002  1.9606478500000000
 -15.7332303499999995  5.3584421300000002 17.9791330500000015
 -15.4360556199999994  3.7284323800000001 10.1551574999999996
 -15.6138330799999991  1.1393811100000000  2.9105253499999999
 -6.6518187400000004  4.3492825699999997 11.2227707900000002
 -6.4396388800000004  1.8307790399999999  2.9329924400000000
 -6.1184319199999999 -0.9885505900000000 18.5246270600000003
 -6.3749695900000001 -1.9769027200000000 10.6227240500000004
 -17.4723961400000007 15.2636057500000000  2.5999535200000001
 -17.3628312200000003 13.2412191099999994 18.0357083500000002
 -17.4754994199999985 11.5644017100000003  9.7154638999999996
 -17.0327283600000001 10.0633042199999991  1.8725983700000000
 -16.9851932699999999  8.1464421399999996 18.0166759399999989
 -17.3727676899999999  6.4498443500000002 10.2988908899999991
 -17.8360299799999993  4.0359404799999998  2.0052465000000002
 -17.2503939099999997  2.3015724000000000 18.4281066500000001
 -7.7651019999999997  5.1382034799999996  2.3444209499999999
 -7.7929432600000004  2.2816728199999998 18.1476538900000008
 -8.2753098099999995  1.3893078400000001 10.8001742000000007
 -8.0211831000000000 -1.2060095000000000  2.4421033400000001
 -7.8641192400000000 -3.0912757200000001 18.5716225100000010
 -19.2449367199999983 14.4955618699999995 10.1415880499999993
 -19.0436921400000010 13.5508208200000002  2.7609378800000002
 -18.8120749300000014 11.3173306300000007 18.0802992300000014
 -19.2130168800000014  9.2950493999999999 10.7174444500000003
 -19.1914521200000010  7.0846813700000002  2.6044895600000002
 -18.9484588599999988  5.5349099600000002 18.0761146599999982
 -18.7080279000000012  3.5168100899999999  9.9910907099999999
 -9.3092563300000002  4.9133237599999999 17.8622286400000014
 -9.2861656400000001  4.1313957400000003  9.7032718100000004
 -10.0874712100000004  2.2996357000000001  2.4797118000000000
 -9.6746388000000003  0.1418920400000000 18.3019844700000007
 -9.5822635599999995 -2.2497427900000000 10.2973821599999997
 -9.5869290800000009 -3.8464034900000001  2.1720169100000000
 -21.4804861500000008 13.5666141099999997 18.0744987399999992
 -20.8314647300000004 11.6632746399999991  9.9500543700000001
 -19.9755141599999995 10.2859981699999992  2.6160047199999998
 -20.5108905499999992  7.9647120800000000 18.1316720700000005
 -20.5534446799999984  5.7322193199999996 10.0567915899999996
 -21.0243653100000003  4.7402784100000002  2.0901475100000000
 -11.2621878399999993 -3.0222372200000001 17.7610320100000010
 -10.5754971599999994 -4.2743028100000000 10.4094064500000005
 -22.1282546999999994 12.3879526000000002  3.0437198599999999
 -21.7601656400000003 10.5957298400000006 17.8542602499999994
 -22.2763704300000001  9.1907986299999997 10.1361138099999994
 -22.5189537100000017  7.0351623999999999  2.4712635100000000
 -21.9886884800000004  5.3290938499999996 17.3180900300000005
 -12.7806440400000003 -2.3141476000000001  9.8009782100000002
 -12.3411715599999994 -4.2010944099999996  2.7449029800000000
 -12.9574100600000008 -5.6179251099999998 18.2208174099999987
 -23.2708827999999990 12.4134543599999994 10.6645655599999998
 -23.5750085600000006 10.1532021599999993  2.9675703900000001
 -23.5219570000000004  8.4234275800000002 18.3059452600000014
 -22.8757756299999997  6.2249142400000004 10.3127832099999992
 -13.9259046299999998 -1.0539868299999999  2.8505690800000001
 -14.5371309899999996 -2.8313934800000000 18.1960139400000003
 -14.2365301599999992 -4.8743812300000000 11.0892552299999991
 -14.0391743400000006 -6.5152222000000002  2.9731542399999999
 -25.8257461399999997 10.9188574900000006 18.6099912799999991
 -25.1521814799999994  9.0642882300000007 10.5188804299999994
 -25.5686380299999989  7.5552313800000004  2.2971036800000002
 -15.4020088400000006  0.0293207000000000 17.6138211899999995
 -16.0897191799999995 -1.4102899600000001 11.0795025299999992
 -16.3354420900000008 -3.6328635500000002  2.5961328799999999
 -16.2816645099999988 -5.5131185000000000 18.2199740400000003
 -16.0076604899999992 -7.3791629399999996 10.4718150899999998
 -27.4778041699999989 10.1679615299999995  3.1683813800000000
 -26.9316220699999995  8.2450251500000000 17.9019685600000003
 -17.6424277399999987  1.3492380200000000 10.1958897200000003
 -17.7266227100000009 -1.0919214100000001  2.9018580300000001
 -17.9526186000000010 -2.3366490400000002 18.0121390099999985
 -17.4324702900000013 -4.4593314099999999 10.8825484899999996
 -17.9114466099999987 -6.3505166099999997  3.8210436699999999
 -17.4177710800000014 -8.5680888700000004 17.9416697899999988
 -28.3343745399999989  9.3968311100000008 10.5746872700000001
 -28.6216135999999999  7.0182034599999996  2.8842938100000000
 -9.5307780999999991 16.1692755800000008 18.0890532899999990
 -9.8578188099999995 14.6945759099999993 10.4433435600000006
 -9.4938368999999998 13.4640301099999995  2.5483217800000002
 -9.5695285899999991 10.3929386400000006 18.0748110100000012
 -9.0020892200000002  9.8319171700000005 10.5154910000000008
 -9.5824624899999993  7.8971237199999997  2.2381615899999998
 -19.6506925599999995 -8.6650378700000008  2.7263763399999998
 -1.7823963599999999  2.8161083400000000 17.9729343200000002
 -3.1382810200000000  3.5416037600000001 10.4492552500000002
 -4.9838171700000000  5.1140812699999998  2.3649421799999999
 -6.9509220300000001  5.6154609799999999 18.1101970799999989
 -7.9447757200000000  6.9515672500000001 10.2322968400000001
 -26.8271546900000004  6.4851943399999996 10.3872024300000003
 -26.8190607400000012  4.9611858599999996  3.0172889000000001
 -8.1827999800000004 13.4191307099999992 17.8259705100000012
 -7.3578823800000004 12.3629479199999999  9.3247605100000008
 -7.9320078199999999 10.4424132699999994  2.6636840899999998
 -8.0585675099999996  7.7056642699999998 18.0707862500000012
 -19.1962491499999999 -7.6389709400000001  9.9675209099999993
 -20.8175557500000004 -6.0235828700000003  2.6382373399999999
 -3.9174638399999999  5.0101136400000001 18.1646766200000016
 -5.0718975000000004  6.7322692799999997 10.0230793400000007
 -6.6108728499999998  7.8292121899999998  2.2596646100000002
 -25.3209771600000018  5.4036615899999996 17.6899357799999990
 -25.1394071699999984  4.1181179200000004 10.3882606000000006
 -25.6408974600000015  2.5049287699999998  2.1206534700000002
 -6.2873371999999996 10.3658877500000006 17.8507911200000002
 -6.7667967999999998  9.1661440100000000  9.7634554900000001
 -18.8623915500000017 -5.1269190699999996 17.8368183000000009
 -20.7230938199999990 -4.4639718600000000  9.9196497800000003
 -22.0373649600000014 -3.6038623099999998  2.3431837000000000
 -4.9555347200000002  7.5488607700000001 18.3087273300000000
 -24.0974811299999985  5.0914811100000001  2.5241841100000002
 -24.1867881699999998  2.5256793900000001 17.7016621299999990
 -23.1578095899999994  0.6888449700000000 10.1281033600000008
 -23.6287921300000008 -0.7237194300000001  2.2343975299999999
 -19.4209329900000007 -3.4302169800000000  2.8354137800000001
 -20.7289412199999994 -2.7171797099999999 18.5199303399999984
 -21.6821298300000009 -2.1601828599999999  9.6354883900000008
 -22.1432374799999998  3.8170397999999999 10.1533008900000006
 -22.5563851799999995  2.0225027700000000  2.2812300900000002
 -22.2592126700000001 -0.0928573200000000 17.9870735199999991
 -18.6488145699999990 -1.8232869400000000 10.1066061299999994
 -20.6414126600000003 -0.6115107400000001  2.9884761300000000
 -20.6483600600000017  2.3345464400000000 17.5708940899999995
 -20.8773663300000010  1.3693045900000000 10.2945149600000008
 -18.9898352499999987  0.2118082100000000 18.2288527800000004
 -18.9262780799999994  1.8989064200000001  2.3299954800000000
 -0.1526909500000000  0.5195404300000001  5.8930116699999999
 -11.4656768099999997 17.1779285799999997 20.8414393599999990
 -10.6083377799999994 15.0971326399999999 12.9471213800000005
 -10.9103567899999998 13.7365003199999993  5.1073735200000003
 -11.0317719899999993 12.0411918999999994 20.5753714800000012
 -10.7820139099999999 10.1239790099999993 12.9536418700000002
 -11.1278197799999994  8.2861750799999996  5.4650938499999997
 -10.5081886000000004  5.9084573699999998 20.7862070800000005
 -10.9760537300000003  4.2460561800000001 12.9521209499999994
 -11.4912845800000003  3.3501457600000002  5.5779895699999997
 -10.6754542200000007  0.7904107100000000 20.1885497899999997
 -10.6842809299999999 -1.6447211399999999 12.9717114099999993
 -1.7442919500000000  0.1443547600000000 20.5738105900000008
 -1.7091264200000000 -0.5769215600000001 13.3885216499999995
 -12.6435154000000001 16.8110792800000013  5.0638316400000001
 -13.1339607399999991 14.9419514000000007 20.6475596299999999
 -12.3738717999999999 12.9852564699999995 12.5911399900000003
 -12.3284119200000006 11.3691823299999992  5.3620030200000004
 -12.5011032499999999  9.0933971200000006 21.0200751500000003
 -12.2826573499999991  7.5338409600000000 13.5037167199999999
 -13.3985807399999999  5.6454497500000000  5.2334899699999999
 -12.2520424699999992  3.8123839500000001 21.3451802400000012
 -12.7627696000000004  1.5760790400000000 12.9219587100000002
 -12.0460677799999996 -0.1008587000000000  4.7911982899999996
 -3.3232679599999999  2.1203436299999998 12.9920324600000008
 -3.0272367299999998  0.0532051400000000  5.3503865299999998
 -14.4710241800000006 17.0306688900000012 20.5204436100000009
 -14.0785667599999993 15.6331287900000007 13.1629672200000005
 -13.9441882400000008 14.2412138899999992  5.0013293100000000
 -13.9476180500000009 11.5380648099999998 20.2888713000000003
 -13.7414676300000007  9.6435580900000009 12.8494553200000006
 -14.6821981299999997  8.5620800799999994  5.2122670400000004
 -13.9032436300000004  6.3597981900000002 21.0659406800000006
 -14.2518918200000009  4.7068625400000004 13.1074818299999993
 -14.6352846000000003  2.8654473199999999  5.0053012499999996
 -13.4883102400000006  0.6089127700000000 20.5153345099999989
 -4.8687969200000003  3.6245830600000000  5.4241181500000000
 -4.7225610800000002  0.4576182800000000 20.5121020799999982
 -4.8918462700000003 -0.3184250800000000 13.1278559599999998
 -4.5800186600000004 -2.7461327899999999  5.2000957300000001
 -15.7921507099999996 13.9510129400000000 20.7447833499999987
 -15.7056794600000007 12.4087832700000007 12.6388028200000004
 -15.7296095699999992 11.2802563899999999  4.6432406100000003
 -15.8508256299999992  9.0638831900000003 19.9324577100000013
 -15.9955573399999995  7.3551084099999997 12.5885117599999994
 -15.9011426399999998  5.2499313299999999  4.7867414699999999
 -15.8634951799999993  3.3585330799999999 20.2719784899999986
 -15.9360956999999992  2.2102586299999998 13.1816571000000007
 -5.5735802200000002  3.3211472600000000 20.7250134199999998
 -6.0789461300000003  2.0527721400000001 13.0757549799999993
 -6.2340327699999998  0.4900115100000000  5.5468989100000003
 -6.3574040299999997 -2.1153075600000002 20.8199677299999983
 -16.9423331600000004 15.4145269200000001 12.9711355600000005
 -17.9014558999999984 13.8767192000000001  5.0517074800000001
 -17.0664187100000007 11.7696318299999998 20.8823446399999995
 -16.9728737500000015  9.9547406699999996 13.0246695199999998
 -16.9350543699999996  8.0432453899999992  5.1409732200000002
 -16.7182984999999995  6.2601502800000004 20.1408464900000013
 -17.4653528300000005  4.2866943700000002 12.6713590400000005
 -17.2153705899999991  2.8278764100000000  5.3041156100000002
 -8.0661179099999991  4.6940527500000000 12.4348629899999992
 -8.6547982500000007  3.6197227000000001  4.7392462499999999
 -7.6360862799999998  0.6332985900000000 20.3397203699999984
 -8.2415005800000003 -0.7235865800000000 13.3517480000000006
 -7.9356845600000003 -2.3244633200000000  5.0520789500000003
 -19.4132359000000001 13.8951730199999997 20.8584248300000006
 -18.1803110200000013 12.3363697299999995 12.1114489699999996
 -18.3633445699999989 10.6994525899999999  4.9352686300000004
 -19.0273111800000017  9.1561850800000002 19.9786051799999989
 -19.2769022399999983  7.4083028799999999 12.5963221799999996
 -19.0214482599999997  5.3052321999999998  5.0547944999999999
 -18.6549319400000009  3.6099325000000002 21.0696955099999990
 -9.6988956900000005  5.7550000499999996  4.6339532099999996
 -8.9851918200000007  3.9208519700000002 20.6190616999999996
 -9.7624652600000008  1.6097811500000001 12.8329675699999992
 -9.3562026399999993  0.1609173800000000  4.5950839700000001
 -9.5639294199999991 -2.3340414900000002 20.5690646900000011
 -9.0356491299999995 -4.0523825200000001 13.5885394099999992
 -20.2924594800000015 13.7193997999999997  5.0980864900000000
 -20.8839136200000013 11.7528667599999999 20.7963763399999984
 -20.7645427399999996 10.0289067900000006 13.0150101300000003
 -19.8613173500000002  7.7935865299999998  4.6155685699999998
 -20.0249318299999999  6.0762716499999998 20.6278249900000006
 -20.4098097199999984  4.5973234600000001 12.5587801399999996
 -11.0666330599999991 -2.6083269100000002  5.1386035899999998
 -11.4845109200000000 -4.6587672700000002 20.8021130899999989
 -21.8055558599999983 12.6738073199999999 12.3076359199999992
 -21.9016437999999987 10.3512096000000007  5.6586425100000000
 -22.4146646700000005  8.8163321299999993 21.1385267699999986
 -22.0413123300000002  6.8084518400000000 12.9101906300000007
 -22.1086438799999989  5.5038080699999998  5.0456784499999996
 -12.9207727200000004 -1.9382581699999999 20.1526808099999997
 -12.2344286300000000 -3.6424582900000000 12.4744799299999993
 -12.2621561999999997 -5.5790502499999999  5.2670386999999996
 -23.8385275000000014 11.3703935699999992 20.9855097400000012
 -23.9309882199999997 10.2138764299999991 13.6094257600000006
 -24.1719639400000013  8.1796787700000007  5.4401285699999997
 -23.6073630299999984  5.3050509000000003 20.4729911099999988
 -14.1047994200000009 -1.2698989999999999 12.7154413700000006
 -14.0588640100000006 -2.6254393299999998  5.3237685399999997
 -14.0933689300000005 -5.0552019899999996 20.3636291999999983
 -14.3354675399999998 -6.5183978400000004 13.0360830700000001
 -24.9902736400000016 11.0161281300000002  5.4837607500000001
 -25.5151965599999997  8.7860384299999996 21.0870900900000002
 -24.5384590500000002  6.9523103300000004 12.5086092600000001
 -15.6219228999999995  0.1626037300000000  5.4170755100000001
 -15.3898456600000006 -1.9920518899999999 20.4645652700000014
 -15.9765514500000005 -3.6904128400000000 12.6047059299999997
 -15.8217076999999993 -5.2245617299999996  5.3813749099999999
 -16.0986028499999989 -7.7849579899999997 20.8832336500000011
 -27.0163088000000009  8.9027696200000008 13.4147664700000000
 -27.0653496999999987  8.0268795199999996  5.0016059999999998
 -16.8210057000000006  0.7556063200000001 20.7514847099999997
 -17.9228836200000003 -0.9084091200000000 12.9299287599999992
 -17.5621083200000001 -3.1007957899999998  5.1583724200000001
 -17.3425201800000011 -4.7384535500000000 20.9970680999999999
 -17.2527690100000015 -7.1098218500000003 12.4255368700000002
 -17.1717850299999988 -8.2897379499999992  5.2847848700000002
 -28.5442807800000011  9.0968444300000009 20.8003892000000015
 -28.5328036199999993  6.9504478199999999 13.1891797099999994
 -10.0109086800000000 16.4426709299999985  5.0669930299999999
 -9.5015922499999999 14.9302783600000009 21.1568225400000003
 -9.3943370000000002 12.5745797899999996 13.0495818499999992
 -9.1979565000000001 11.5315817500000009  4.8904108099999997
 -9.8548404499999993  9.3247777799999998 20.6695688299999993
 -9.4491751300000004  8.3475426499999994 13.3662549500000001
 -18.8144764900000006 -8.9360529300000007 12.9600692800000008
 -1.0590482900000000  3.2836784099999998  5.2972567699999997
 -3.2223529800000001  3.0324141899999999 20.9141012300000000
 -4.6280428100000002  4.3660213600000004 13.1321070300000002
 -6.5935516500000002  5.8407422000000002  5.5147096700000002
 -7.8779727700000004  6.3661741300000001 20.4093286499999991
 -27.4809655200000016  6.5394806900000004 20.7738191199999989
 -26.4904767600000000  4.8104344899999996 12.5937068599999993
 -27.0467795799999990  2.5438777600000000  5.0676784499999998
 -7.8509608100000001 11.5171096899999998 21.0227276200000013
 -7.1894338299999996 10.4955716999999993 12.7436605400000005
 -8.2351869299999994  8.4922473800000002  5.6240888699999996
 -19.1169841799999993 -7.3464188899999998 20.6619952500000004
 -20.5675353600000008 -6.2998991100000001 12.7832844600000008
 -22.5422036800000001 -5.2895930900000003  4.9596421199999998
 -4.4152123000000003  6.4101091400000003 20.4292064099999990
 -6.2061094800000003  7.5595799699999997 12.8804792799999994
 -25.8456590599999991  5.9669106799999998  5.1602588100000002
 -26.0423431699999988  3.8945815300000000 20.5153582700000001