System = Li

ISPIN = 1
ALGO = N
ISMEAR = 0
SIGMA = 0.03 
NELM = 100
NELMIN = 5
EDIFF = 1e-05

PREC = ACCURATE
ENCUT = 500
LREAL = F
ADDGRID = .TRUE.
GGA_COMPAT = .FALSE.

IBRION = -1
NSW = 1
ISIF = 2
EDIFFG = -0.001

NPAR = 1
KPAR = 2

LORBIT = 0
LWAVE = .FALSE.
LCHARG = .FALSE.
