Li                                      
   1.00000000000000     
    20.0207999999999977    0.0000000000000000    0.0000000000000000
     0.0000000000000000   20.0207999999999977    0.0000000000000000
     0.0000000000000000    0.0000000000000000   20.0207999999999977
   Li
   432
Direct
  0.9971573843203103  0.0052355195596547  0.9933018330935823
  0.9044670207983714  0.0840657681011763  0.0745536152401485
  0.8360034329297505  0.1796997822264856  0.1539508416247131
  0.7480141283065578  0.2458557814872506  0.2537163265204185
  0.6525070127067849  0.3274060716854450  0.3343021417725538
  0.5636319927275650  0.4272398430632123  0.4250533480180607
  0.4936819482737960  0.5045484820786399  0.4929893231039699
  0.4237060512067430  0.5957302984895705  0.5828839581834870
  0.3338122597498625  0.6635842678614239  0.6410335516063270
  0.2551180162630899  0.7435517057260483  0.7573109256373343
  0.1665021297850231  0.8299550857108642  0.8347444622592519
  0.0690736828698135  0.9095861593942303  0.9250528290577833
  0.0842127742148193  0.9243685287301204  0.0897066395948229
  0.9952210276312670  0.0113523590465903  0.1602959122512573
  0.9165191655678129  0.0862266577759101  0.2455812834651994
  0.8388765174218804  0.1574451015943410  0.3297152756133599
  0.7436624315711668  0.2378372407696006  0.4001455770998135
  0.6523558244425800  0.3175789014425021  0.5008851194757469
  0.5768582449252762  0.4098679543275026  0.5738443868376919
  0.4962949497522544  0.4932634724886142  0.6594706799928076
  0.4073010464117317  0.5884342663629809  0.7482302375529457
  0.3423908525133896  0.6705760948613460  0.8348704157676039
  0.2373232453248590  0.7518686905618139  0.9127152426476499
  0.1710142022296779  0.8408512516982327  0.0074040512866631
  0.1713952684208451  0.8334428544313894  0.1656307829856942
  0.0714806481259487  0.9033919953248599  0.2486728027851015
  0.9941407351354599  0.9928741718612670  0.3400805472308832
  0.9129149599416593  0.0744735540038377  0.4251592533764921
  0.8417190806561194  0.1687880674098921  0.5005276037920581
  0.7318469806401353  0.2541307560137440  0.5746724481539189
  0.6563157096619534  0.3463315901462494  0.6695046656477288
  0.5682492412890596  0.4342657091624744  0.7429821655478293
  0.5045248916127250  0.5166532226484435  0.8305387017501786
  0.4281333168504773  0.5912632217493794  0.9275462374130896
  0.3284401956964729  0.6768121833293392  0.0049839387037451
  0.2617187969511718  0.7570718862383146  0.0894636118436836
  0.2558809662950523  0.7491092119196026  0.2446398460600960
  0.1668186785742805  0.8202806126628275  0.3285850760209357
  0.0917452129785019  0.8932142571725379  0.4152573009070579
  0.0127680172620472  0.9975334462159324  0.5060749075961013
  0.9215815711659872  0.0902285263326164  0.5772069053184694
  0.8221901872053081  0.1762750074922081  0.6712298259809799
  0.7231233227443425  0.2513542231079668  0.7427340201190731
  0.6551380539239204  0.3461296661472062  0.8162447679413418
  0.5861527950931062  0.4352253456405322  0.9190759045592571
  0.5042565172220890  0.5078475300687302  0.0088307979701128
  0.4304212678814068  0.5833949897106976  0.0887338797650443
  0.3338997852233661  0.6689540987373164  0.1533073923119943
  0.3255178439423005  0.6684325196795342  0.3248456515224163
  0.2380945736434086  0.7504797805282521  0.4198824657356326
  0.1627257322384708  0.8294946575561397  0.4926479321505610
  0.1011489985415182  0.9209678794054170  0.5953337164349080
  0.0082655807959711  0.9967762786701826  0.6537361648885138
  0.9157512022496590  0.0895677820067107  0.7285394225006030
  0.8370811545992183  0.1650216974346677  0.8208911057500217
  0.7494639604811013  0.2490312050467480  0.8902172400703279
  0.6750832818868346  0.3151867098217878  0.9858252077839040
  0.5853301356589142  0.4132427030887911  0.0739083233437228
  0.5098679293534758  0.4987702009909682  0.1613623361703844
  0.4226875299688331  0.5883658834811811  0.2506101014944448
  0.4100912945536663  0.5882729421401720  0.4138608482178512
  0.3304309692919389  0.6646831610125474  0.5046530623151924
  0.2300313963477976  0.7409389544873335  0.5850193094182075
  0.1660421931191536  0.8300228777071865  0.6790983701949997
  0.0957828648205847  0.9314327514385070  0.7607522381723015
  0.0045295202988882  0.0311813214257199  0.8229599281746971
  0.9118896033125523  0.0857183918724544  0.9183587179333514
  0.8197845555622152  0.1768352887996514  0.9825491598737344
  0.7496240399984018  0.2573322924158887  0.0842300867098231
  0.6531339397027125  0.3164926156796923  0.1555938134340309
  0.5801808813833631  0.4014906192559735  0.2590327119795433
  0.4997025258730901  0.5044818144130119  0.3335995035163464
  0.0619456984735862  0.0947418085191387  0.9391847338767718
  0.9872732083633053  0.1925053584272334  0.9959468088188288
  0.9115449217813492  0.2719569382841840  0.0723437190322045
  0.8196261582953710  0.3415757517182101  0.1701872093023269
  0.7379428304563262  0.4147193159114551  0.2370649489530905
  0.6481830815951426  0.5051871673459587  0.3391900383601083
  0.5803138041436924  0.6006231369375854  0.4243912760728819
  0.5095483696955156  0.6911010104491311  0.4997723757292434
  0.4216834636977538  0.7608226319627605  0.5803411551985960
  0.3252983592064282  0.8485897826260711  0.6621843228042863
  0.2436778360505087  0.9153779843962297  0.7408597423679382
  0.1643732837848617  0.9976999036002567  0.8422977428474354
  0.1611101933988621  0.0095415542835440  0.9845539199232789
  0.0895837174338681  0.0911401262686837  0.0862105205586161
  0.9884985649924047  0.1852161706824873  0.1565354101734187
  0.8990881228522341  0.2566228717134180  0.2484667870414796
  0.8255711814712683  0.3440079841964376  0.3437281217533794
  0.7325363486973515  0.4151913854591243  0.4316281731998757
  0.6549983332334364  0.5123875304683096  0.4953336894629601
  0.5729229696116036  0.5788384684927692  0.5871214407016723
  0.4997562669823381  0.6795923939103332  0.6771263171301882
  0.4094643875369641  0.7677175157835876  0.7355390453927910
  0.3356620454727093  0.8362021367777501  0.8274810557020729
  0.2407395778390509  0.9195216225125904  0.9237247132981707
  0.2616689442979308  0.9270161212339190  0.0879948278790081
  0.1759506698034059  0.0018364450970978  0.1846293529729053
  0.0743580106689024  0.0745342388915518  0.2558958623032055
  0.9883921651482481  0.1601638461000547  0.3392349471549565
  0.9040711015543863  0.2541260958603075  0.4082896058099550
  0.8275895778390492  0.3111877272636434  0.4928646327819095
  0.7370640254135665  0.4149537885598988  0.5824794958243444
  0.6502706919803387  0.5022800557420268  0.6601117432869827
  0.5909837004515310  0.6010303124750251  0.7411496498641412
  0.4885647351754159  0.6703721299848127  0.8423656707024705
  0.4195419044194040  0.7612912855630114  0.9266469047190924
  0.3307528365499905  0.8450786551985914  0.9972890069327889
  0.3414705386398111  0.8430554418404839  0.1789414773635443
  0.2419046366778517  0.9114983052625263  0.2508221579557244
  0.1603238701750200  0.0108442025293698  0.3375331635099528
  0.0791375579397453  0.0739985904659122  0.4161441835491075
  0.9964252102813091  0.1792611049508537  0.5130732358347316
  0.9096792350955027  0.2532494505714027  0.5871702064852542
  0.8171700596379736  0.3292511772756299  0.6559096784344263
  0.7485975520458723  0.4145859156477272  0.7429288994445784
  0.6633077734156458  0.5119863746703430  0.8168702429473313
  0.5892223038040427  0.5681197664428979  0.9065261542995273
  0.5216112552944949  0.6666572399704336  0.0155601709222424
  0.4157739535882712  0.7626115439942467  0.0707474326700250
  0.4184528929912901  0.7561739745664511  0.2399084746863238
  0.3371697119995218  0.8378750814153264  0.3464274619395837
  0.2363440721649468  0.9137744240989392  0.4144168779469339
  0.1652948163909542  0.0006909908694936  0.5019462848637417
  0.0818150398585473  0.0948089656756963  0.5805266502837014
  0.0006527606289453  0.1859990200191817  0.6681829332494189
  0.9019044988212244  0.2752044938264220  0.7475850200791143
  0.8244319163070415  0.3447274224806236  0.8177006693039246
  0.7551405403380471  0.4265558414249213  0.8928300947015089
  0.6728456924798181  0.5052560252337557  0.0055070052145751
  0.5924341020338844  0.5820617742547753  0.0934216994325894
  0.5069295337848629  0.6794534199432576  0.1627807050667300
  0.4902746868256997  0.6819683099576466  0.3516454642172135
  0.4093691126228691  0.7617798949092958  0.4193068918324911
  0.3181976209741890  0.8379145748421664  0.4927455466315038
  0.2328648410652931  0.9191111169383817  0.5855236688843632
  0.1710709192439879  0.0174347138975435  0.6744634115519830
  0.0836945631543173  0.0961427929952876  0.7366354920882259
  0.9770072859226389  0.1630414289139281  0.8206104571245874
  0.9101996903220666  0.2643119565651730  0.9166193333932711
  0.8214175237752741  0.3316648450611339  0.9937442859426184
  0.7550905408375286  0.4052424413609828  0.0716766567769511
  0.6648381718013283  0.5024571021138016  0.1758381108647029
  0.5756645388795647  0.6011647471629473  0.2516033650003990
  0.1651228342523794  0.1680454392431869  0.8521162935547011
  0.0809387192320017  0.2428043994245996  0.9149878241628713
  0.0058586265284077  0.3343198998042070  0.9941708148525521
  0.9375895983177500  0.4141005054743090  0.0917808594062208
  0.8313448478582259  0.4957488127347531  0.1629861184368266
  0.7572715490889479  0.5929961829697135  0.2488685552025913
  0.6754770753416466  0.6660921381762961  0.3403550317669612
  0.6010485659913698  0.7581755734036619  0.4247750988971504
  0.4974911936585968  0.8230545492687611  0.5081721654479310
  0.4164631747982099  0.9186045053144767  0.5847844411811707
  0.3240802520378807  0.0118733731918823  0.6566356943778473
  0.2573827819068200  0.0853567185127488  0.7573776542395905
  0.2391555292495795  0.0938978482378303  0.9170025038959508
  0.1605340595780405  0.1679348287780726  0.0039798969072180
  0.0927565736633866  0.2588226948973045  0.0842158220450742
  0.9945510149444559  0.3291304213617821  0.1612786741788526
  0.9085429688124336  0.4144225655318436  0.2381174903100742
  0.8219498656397377  0.5037444452769151  0.3387164324102940
  0.7508721339806570  0.5863902541357007  0.4160839337089399
  0.6781531622113022  0.6661970046151993  0.5211793529729079
  0.5816057260449128  0.7367168614640747  0.6070623047031063
  0.5001107503196707  0.8481439223207872  0.6645204876927977
  0.4200637377127805  0.9230748441620733  0.7507334821785321
  0.3232693458802842  0.0032739386038543  0.8399752152761124
  0.3300465246144029  0.9929863681770925  0.9761461574962027
  0.2527291821505600  0.0799987393111152  0.0916330406377384
  0.1707609620994148  0.1613184687924587  0.1890825806161587
  0.0845504165667705  0.2416522456645112  0.2647217613681789
  0.9970600555422351  0.3185597233876791  0.3169850945017174
  0.9024047625469507  0.4047215750619344  0.4058926426516436
  0.8298782166546772  0.4817831370374819  0.4966824467553721
  0.7609964307120620  0.5739779499320719  0.5801485854711075
  0.6717288904539274  0.6687371848277763  0.6581041052305636
  0.5681788584871725  0.7365115949412626  0.7611613506952750
  0.4968838832614111  0.8263929198633448  0.8342781727003938
  0.4270960226364551  0.9182144574642379  0.9205719536681869
  0.4213151502437498  0.9158510708862764  0.0736091394949270
  0.3344820611564003  0.9846187400103901  0.1800969107128552
  0.2611571680452300  0.0916380434348270  0.2471025363621848
  0.1807131053704154  0.1599483731918809  0.3370935572005109
  0.0773029364460953  0.2413703623231811  0.4064394354870942
  0.9963696295852316  0.3273563254215617  0.4814127497402723
  0.9090375664309107  0.3905577134779818  0.5700794134100562
  0.8320776742188158  0.4932504065771610  0.6590815406976773
  0.7487688404059796  0.5859720570606584  0.7474725280708086
  0.6604480290497889  0.6613072989091364  0.8382058169503708
  0.5893010888675789  0.7474794493726549  0.9244865729641205
  0.5118953987852635  0.8364082863821594  0.0003855829936867
  0.5167199347678419  0.8315216454886922  0.1585427775113857
  0.4379461285263346  0.9146636702829056  0.2554869260968573
  0.3393929343482753  0.9908201795133067  0.3367091404938876
  0.2580628101774138  0.0838689253176668  0.4277176970950194
  0.1637341569767443  0.1717607038679745  0.4846893945296884
  0.0968935047550517  0.2534554638176303  0.5804060771797310
  0.0103718687564935  0.3365733002677231  0.6754992093223038
  0.9115321810317241  0.4098506523215875  0.7561680861903639
  0.8371408959681901  0.5084974596419727  0.8284686426116821
  0.7462810387197294  0.5767485560017604  0.9136751773155893
  0.6720496074082973  0.6536439657755935  0.9871425587389098
  0.5933567944337881  0.7525133551106862  0.0930250934028578
  0.5855716709621959  0.7572640708662988  0.2621579247582488
  0.5146787790697687  0.8478180747023103  0.3342690901462504
  0.4184753686166403  0.9224605145648539  0.4340352728162742
  0.3260805687085409  0.9972548334731854  0.5119610744825351
  0.2408201994925250  0.0979963727723145  0.5802944822384717
  0.1602708797850241  0.1774027116798536  0.6747838587868600
  0.0744419248981032  0.2533183404259560  0.7670039723687339
  0.9991108227443490  0.3365887826660270  0.8569447989091330
  0.9053458563094381  0.4251652811076454  0.9279003816031306
  0.8265961904619203  0.5009893860385191  0.0084554403420469
  0.7391867048269773  0.5839233472188923  0.0797374270758411
  0.6688168629625224  0.6618565067329953  0.1654633720930221
  0.2544763505953824  0.2459647716374960  0.7760239291137196
  0.1687483172500635  0.3417952129785036  0.8276539643770491
  0.0870077459442200  0.4175405028770101  0.9264713128346500
  0.0218446280867894  0.4900144594621594  0.0089844351874078
  0.9302808469192030  0.5772504360465120  0.0824498436625944
  0.8322960311276262  0.6602938708742911  0.1638266497842267
  0.7564606109645950  0.7647264529888886  0.2413712883601065
  0.6745493271997134  0.8419830331455316  0.3240358022656409
  0.6075051955965804  0.9331351679253572  0.4201151687245286
  0.4873759115519860  0.9904830091704611  0.5136664448973036
  0.4135430177615262  0.0865987862622859  0.5776009400223785
  0.3236986374170883  0.1819078263605860  0.6637311610924641
  0.3405245764405009  0.1674642486813696  0.8429946470670515
  0.2551626293654579  0.2613324447574499  0.9266205785982606
  0.1743725615360034  0.3320009045592585  0.9983402561336234
  0.0951285682889775  0.4187766497842276  0.0924504775033981
  0.0036451005953779  0.5028909514105351  0.1732291786541964
  0.9122350955006766  0.5808665497882188  0.2402979031806893
  0.8357232083633050  0.6779144844361866  0.3256186141412911
  0.7460143535722850  0.7415316261088449  0.4254738761687875
  0.6569783375289688  0.8065631678054856  0.5169690556820896
  0.5910199537481020  0.9237287840645720  0.5878257232478248
  0.5001459357268416  0.9885457159554036  0.6601538944497705
  0.4073036442100246  0.0937152616279064  0.7527740075321674
  0.4272383571086067  0.0789529104731059  0.8974298374690335
  0.3397014639774625  0.1664114086350210  0.9939324952049873
  0.2462854096739377  0.2505425322664436  0.0863710421161983
  0.1606758056621089  0.3255603262606854  0.1841856748981030
  0.0722097503596260  0.4058972648445618  0.2494922016103231
  0.9875895863302162  0.5072179443378886  0.3311689023415667
  0.9175093817429882  0.5903838413050408  0.4192624450571429
  0.8338444183049631  0.6651135354231599  0.4957051106848880
  0.7557606489251185  0.7519426696235882  0.5834733971669479
  0.6573238327139777  0.8083165952409530  0.6734158744905301
  0.5982230740030374  0.9224784863741675  0.7538096259889713
  0.5044070631543178  0.0050982463238256  0.8173732118596675
  0.5149563963477988  0.9976211345201023  0.9844790148245792
  0.4120287545952195  0.0635865125269746  0.0632667181131623
  0.3571286382162526  0.1813744880324464  0.1478349911092494
  0.2500927245664499  0.2515541571765354  0.2568673159913715
  0.1643721319827378  0.3384226324622404  0.3458273485574992
  0.0793168429832960  0.4228607518181065  0.4158325076920022
  0.9898128251618346  0.4859611534004671  0.5079077114800583
  0.9214692060257335  0.5822130793974267  0.5736676576360580
  0.8447113861583944  0.6606030213577867  0.6752201005953822
  0.7546216879445353  0.7309090051346629  0.7653043729521301
  0.6889586505034799  0.8132239475945013  0.8338076110844739
  0.6042817944337884  0.9173341694637571  0.8994400018980286
  0.5877740614760683  0.9342064702709152  0.0766289558858801
  0.5025401567369912  0.9999725520458753  0.1456468882362358
  0.4263941021337843  0.0911711205346464  0.2477168115160211
  0.3463464272156926  0.1580207763925543  0.3401880928834018
  0.2530265933429234  0.2363209362263277  0.4227263935507040
  0.1651107867817458  0.3233489211220331  0.4960570781387332
  0.0969842353951904  0.4145186985535076  0.5977905777990884
  0.9792429223607471  0.4947376008950712  0.6770465440941393
  0.9174293279988817  0.5841208707943721  0.7467297890194189
  0.8466545267921362  0.6525483896747417  0.8368796291856455
  0.7586722638456038  0.7291926706225524  0.9150054603212681
  0.6797087344162094  0.8372160937624855  0.9961071940182222
  0.6698605440342078  0.8408468692559765  0.1559274164868540
  0.5857720235954602  0.9407035238352108  0.2419665462918559
  0.5093758501158803  0.9932088812634845  0.3359641158195501
  0.4134633376288690  0.0648066830496319  0.4223040542835435
  0.3397706135618961  0.1663255259530061  0.5010104825980974
  0.2389786257292386  0.2560166082274407  0.5833504765044353
  0.1713575091904431  0.3232092139175293  0.6884640588787647
  0.0838191291057271  0.4087012087429045  0.7598083108567124
  0.0104877587309176  0.5010263565891506  0.8545106369375830
  0.9270891882442243  0.5781601744186062  0.9212256068688589
  0.8480853542315998  0.6611973462598897  0.9933856898825226
  0.7571307110604977  0.7365082509190444  0.0807813993446800
  0.3196394225006003  0.3379126223727340  0.6716235185407200
  0.2549816116239114  0.4106073663390077  0.7556018226044898
  0.1720753890953404  0.5080790363022487  0.8413357118596636
  0.1143971664468921  0.5779405158635029  0.9339947529569272
  0.0108721105050762  0.6717345405778019  0.0069618926316650
  0.9234820361823708  0.7366158495165038  0.0948229905897833
  0.8400658465196216  0.8488934812794682  0.1517098527531360
  0.7644261498042013  0.9089775678294600  0.2579470295892250
  0.6799066360984583  0.0030711400143844  0.3259365689682738
  0.5648771782346387  0.0758834681930765  0.4185840535842758
  0.4934077139774615  0.1691536966554779  0.5053181011747796
  0.4066350225765234  0.2564019899304739  0.5810990684687951
  0.3988829592224121  0.2490858771877242  0.7561880769000240
  0.3254704007831890  0.3239833867777477  0.8513393565691700
  0.2478046716414894  0.4176474536482075  0.9251607842843441
  0.1823756183569074  0.4990654204627205  0.0079757786901595
  0.0940018335930617  0.5791171786342204  0.0897909304323505
  0.0055740534843736  0.6548182989690758  0.1677801656277467
  0.9208087638855602  0.7555857018700536  0.2371970265923409
  0.8417168459801800  0.8204078333533147  0.3333436286262312
  0.7682931716015347  0.9057629045792410  0.4257939832574138
  0.6674271457684000  0.0028463692759502  0.5012393146128034
  0.5574851809118542  0.0773434573044014  0.5722191615719652
  0.4732164808599038  0.1705089666746602  0.6688827674218842
  0.4924963897546561  0.1643811206345376  0.8234059068568698
  0.4279823183888780  0.2459964127307614  0.9202909823783259
  0.3438366428913895  0.3334361783744910  0.9859709786821682
  0.2438442499800217  0.4032444038200254  0.0862576865060305
  0.1655965860505049  0.4934615819547687  0.1873285847718407
  0.0770182255454301  0.5852491588747739  0.2608651722208890
  0.9847147042076259  0.6554082169543705  0.3321671891233109
  0.9207077359546076  0.7381149994006222  0.4416376443498748
  0.8299250879085776  0.8231750119875301  0.4995477947934148
  0.7546652925957034  0.9003197149964066  0.5843586664868567
  0.6554021757372368  0.0097954607208521  0.6605664264165299
  0.5742466190162219  0.0822103457404282  0.7398275793175131
  0.5888271797330802  0.0725115275113879  0.8921777031886862
  0.5133560002597335  0.1534863531926831  0.9894024334691949
  0.4308647201910034  0.2521830890873460  0.0568838957484203
  0.3481120679493301  0.3383779164668752  0.1616440461919595
  0.2536474646367779  0.4144525408575106  0.2518369265963400
  0.1672555881882829  0.4844171946175990  0.3246620974186811
  0.0776522996084097  0.5747202834052558  0.4118542385918644
  0.0085709162471019  0.6582846739391002  0.5012000924038986
  0.9376720740429931  0.7602175907056647  0.5937301006952751
  0.8310594361863650  0.8259835755813967  0.6759479246583524
  0.7504914189243195  0.9273953738112368  0.7393213717733573
  0.6608208618037210  0.0011575116878433  0.8121117283025683
  0.6777735300287731  0.0002806755973808  0.9835617103212684
  0.5813207723967082  0.0838085925637344  0.0773276362582891
  0.5008570331854898  0.1507829257572126  0.1496414918484774
  0.4248428069807417  0.2592413200271722  0.2436453333533137
  0.3331583488172285  0.3342596704427407  0.3307480929832991
  0.2545167560736843  0.4186448593462799  0.4310195591584787
  0.1620214501918014  0.4900097943139130  0.5075008795852298
  0.0795663240230127  0.5592261997522598  0.5903389959442151
  0.9971017991289060  0.6591352068848408  0.6635841270079084
  0.9376988437025489  0.7481233971669496  0.7511329647166960
  0.8412155917845467  0.8202210026572345  0.8345956899824216
  0.7670375379605190  0.9150170452729185  0.9108839826580351
  0.7484713777671246  0.9066096804323536  0.0791531477263661
  0.6853064597818275  0.0040270333852774  0.1634834332294446
  0.5775925277711167  0.0736029923879187  0.2376756817909396
  0.4873128091784551  0.1572979546271895  0.3359714626788133
  0.4096488951490471  0.2646598892152170  0.4164505444337863
  0.3243160183409231  0.3347867263046425  0.4971931706025714
  0.2485854666147205  0.4110102653240659  0.5916345725445566
  0.1692461150403588  0.5057610540038340  0.6925671366778516
  0.0722389834572041  0.5746071655478318  0.7636474941061309
  0.0146799148885179  0.6619259010628937  0.8354476159793833
  0.9478882077639241  0.7489660548030059  0.9075184453168674
  0.8478825186805707  0.8146288774674346  0.9935404484336274
  0.4100400008990661  0.4042343088188289  0.5744073019060210
  0.3364535398185922  0.5085119295932259  0.6768996668464808
  0.2557896232917756  0.5917025933029620  0.7447873361703827
  0.1664328448413670  0.6499753621233921  0.8391375844122138
  0.0823720755414357  0.7425414618796466  0.9392715795572570
  0.0001788115360029  0.8318600275713237  0.0194581645089116
  0.9200891432909799  0.9283620020178986  0.0710621034124514
  0.8290299598417619  0.9965094636577945  0.1721297235874673
  0.7582119320906244  0.0923077424478578  0.2427278909933648
  0.6372916466874443  0.1519668699552454  0.3405545297890171
  0.5588183454207609  0.2516874530488309  0.4015514235195425
  0.4959998206864853  0.3263644234995624  0.4954071170982175
  0.5019591709622020  0.3138018375889047  0.6719553044833404
  0.4163747787301233  0.4144829876928000  0.7507498681371345
  0.3372425857108610  0.5067697564532878  0.8348646797330801
  0.2574644879325518  0.5913833303364484  0.9277577199712326
  0.1692857293414818  0.6759317170143078  0.0231680542236106
  0.0914668195077155  0.7549104446375736  0.1062330820946187
  0.9853619680532262  0.8401610265324067  0.1673948668384853
  0.9191798554503308  0.9217975925037933  0.2658437245264906
  0.8385349576440504  0.0091239480939791  0.3380632232478220
  0.7464322994086174  0.0867331949772208  0.4193553134739858
  0.6524133870774378  0.1674449302725165  0.4837785592983295
  0.5875119485734857  0.2348567030288535  0.5820761952569313
  0.5724767901382535  0.2538206255494302  0.7382411836689826
  0.5015038370095084  0.3329937524974014  0.8286571805322467
  0.4242605230560201  0.4253383665987371  0.9151890084312342
  0.3406219931271508  0.5039513021457651  0.0050183658994669
  0.2458508001678226  0.5827732872812277  0.0909247772316775
  0.1695508401262700  0.6637137771717434  0.1816146292855407
  0.0739971075081911  0.7438218737513012  0.2487245349836158
  0.9869450406577158  0.8199380689083355  0.3449233916726584
  0.9053042930352433  0.9105633930712074  0.4201444782426265
  0.8260092224086932  0.0054678464397000  0.5097278899944087
  0.7507170202988860  0.1043988846599504  0.5799687155358413
  0.6566203453408477  0.1629459237393078  0.6499642102213699
  0.6655871668464783  0.1693401277671214  0.8350463088388054
  0.5935833258411236  0.2414583403260622  0.9033832978702137
  0.4999739196235922  0.3462919578638193  0.9916197644449767
  0.4280447080036751  0.4212330436346221  0.0846180122672422
  0.3291771232917782  0.5003392661631878  0.1643040492887380
  0.2565783570087135  0.5759064977423449  0.2443758606049684
  0.1687985190402017  0.6612066905418388  0.3297278969871300
  0.0778714227203707  0.7341671241908401  0.4121081834891740
  0.0022582049668358  0.8354737013505940  0.5105733791856437
  0.9183663624830203  0.9050180916846458  0.5865318199072931
  0.8124035503076783  0.9913567549748237  0.6548993242028303
  0.7478713612842611  0.0931916436905595  0.7413511957564154
  0.7506029848957070  0.0744878271597571  0.8880384260369212
  0.6733132157556128  0.1660685971589544  0.9842012936545999
  0.5859729566251133  0.2459058444217987  0.0705033225445533
  0.5033542850435566  0.3334192324982013  0.1565185122472599
  0.4143531127627256  0.4265506123631440  0.2487934642971297
  0.3309925547430694  0.4980234680931801  0.3410724411611952
  0.2409616798529512  0.5750230949812192  0.4149448873171906
  0.1793391847478603  0.6481470270918237  0.4973334736873625
  0.0950679183648973  0.7434017107208533  0.5853432260449125
  0.0232175552425460  0.8423149414608844  0.6887677405498280
  0.9351367008311371  0.9055095290897484  0.7399615140254170
  0.8507563169303936  0.0036518610644904  0.8186213063414058
  0.8164032940741635  0.9982869026212740  0.9886751838088372
  0.7554258636018574  0.0941366993326938  0.0786145129065758
  0.6587971684448206  0.1590256693039223  0.1681128686166389
  0.5557882262447080  0.2303864211220343  0.2557376028929923
  0.4939038305162597  0.3289800722248870  0.3398779134699907
  0.4212732832853803  0.4013396068089179  0.4173537800687299
  0.3388840870494718  0.5087838557899786  0.5017129615200204
  0.2414426026931977  0.5714031432310378  0.5811252687205339
  0.1593768330935816  0.6585214656756975  0.6678848827219710
  0.0907462104411394  0.7445763555901834  0.7551060711859634
  0.0169185726844105  0.8354555866898394  0.8419444832374339
  0.9283812554942870  0.9121487208303378  0.9091237163350101
 
  0.00000000E+00  0.00000000E+00  0.00000000E+00
  0.00000000E+00  0.00000000E+00  0.00000000E+00
  0.00000000E+00  0.00000000E+00  0.00000000E+00
  0.00000000E+00  0.00000000E+00  0.00000000E+00
  0.00000000E+00  0.00000000E+00  0.00000000E+00
  0.00000000E+00  0.00000000E+00  0.00000000E+00
  0.00000000E+00  0.00000000E+00  0.00000000E+00
  0.00000000E+00  0.00000000E+00  0.00000000E+00
  0.00000000E+00  0.00000000E+00  0.00000000E+00
  0.00000000E+00  0.00000000E+00  0.00000000E+00
  0.00000000E+00  0.00000000E+00  0.00000000E+00
  0.00000000E+00  0.00000000E+00  0.00000000E+00
  0.00000000E+00  0.00000000E+00  0.00000000E+00
  0.00000000E+00  0.00000000E+00  0.00000000E+00
  0.00000000E+00  0.00000000E+00  0.00000000E+00
  0.00000000E+00  0.00000000E+00  0.00000000E+00
  0.00000000E+00  0.00000000E+00  0.00000000E+00
  0.00000000E+00  0.00000000E+00  0.00000000E+00
  0.00000000E+00  0.00000000E+00  0.00000000E+00
  0.00000000E+00  0.00000000E+00  0.00000000E+00
  0.00000000E+00  0.00000000E+00  0.00000000E+00
  0.00000000E+00  0.00000000E+00  0.00000000E+00
  0.00000000E+00  0.00000000E+00  0.00000000E+00
  0.00000000E+00  0.00000000E+00  0.00000000E+00
  0.00000000E+00  0.00000000E+00  0.00000000E+00
  0.00000000E+00  0.00000000E+00  0.00000000E+00
  0.00000000E+00  0.00000000E+00  0.00000000E+00
  0.00000000E+00  0.00000000E+00  0.00000000E+00
  0.00000000E+00  0.00000000E+00  0.00000000E+00
  0.00000000E+00  0.00000000E+00  0.00000000E+00
  0.00000000E+00  0.00000000E+00  0.00000000E+00
  0.00000000E+00  0.00000000E+00  0.00000000E+00
  0.00000000E+00  0.00000000E+00  0.00000000E+00
  0.00000000E+00  0.00000000E+00  0.00000000E+00
  0.00000000E+00  0.00000000E+00  0.00000000E+00
  0.00000000E+00  0.00000000E+00  0.00000000E+00
  0.00000000E+00  0.00000000E+00  0.00000000E+00
  0.00000000E+00  0.00000000E+00  0.00000000E+00
  0.00000000E+00  0.00000000E+00  0.00000000E+00
  0.00000000E+00  0.00000000E+00  0.00000000E+00
  0.00000000E+00  0.00000000E+00  0.00000000E+00
  0.00000000E+00  0.00000000E+00  0.00000000E+00
  0.00000000E+00  0.00000000E+00  0.00000000E+00
  0.00000000E+00  0.00000000E+00  0.00000000E+00
  0.00000000E+00  0.00000000E+00  0.00000000E+00
  0.00000000E+00  0.00000000E+00  0.00000000E+00
  0.00000000E+00  0.00000000E+00  0.00000000E+00
  0.00000000E+00  0.00000000E+00  0.00000000E+00
  0.00000000E+00  0.00000000E+00  0.00000000E+00
  0.00000000E+00  0.00000000E+00  0.00000000E+00
  0.00000000E+00  0.00000000E+00  0.00000000E+00
  0.00000000E+00  0.00000000E+00  0.00000000E+00
  0.00000000E+00  0.00000000E+00  0.00000000E+00
  0.00000000E+00  0.00000000E+00  0.00000000E+00
  0.00000000E+00  0.00000000E+00  0.00000000E+00
  0.00000000E+00  0.00000000E+00  0.00000000E+00
  0.00000000E+00  0.00000000E+00  0.00000000E+00
  0.00000000E+00  0.00000000E+00  0.00000000E+00
  0.00000000E+00  0.00000000E+00  0.00000000E+00
  0.00000000E+00  0.00000000E+00  0.00000000E+00
  0.00000000E+00  0.00000000E+00  0.00000000E+00
  0.00000000E+00  0.00000000E+00  0.00000000E+00
  0.00000000E+00  0.00000000E+00  0.00000000E+00
  0.00000000E+00  0.00000000E+00  0.00000000E+00
  0.00000000E+00  0.00000000E+00  0.00000000E+00
  0.00000000E+00  0.00000000E+00  0.00000000E+00
  0.00000000E+00  0.00000000E+00  0.00000000E+00
  0.00000000E+00  0.00000000E+00  0.00000000E+00