Li 
 1.0000000000000000
    20.0207999999999977    0.0000000000000000    0.0000000000000000
     0.0000000000000000   20.0207999999999977    0.0000000000000000
     0.0000000000000000    0.0000000000000000   20.0207999999999977
 Li 
 432
Cartesian
 -0.0569114400000000  0.1048192900000000 -0.1341026600000000
 18.1081533300000004  1.6830639300000001  1.4926230199999999
 16.7374575300000004  3.5977334000000001  3.0822190100000002
 14.9758412599999993  4.9222294299999998  5.0796038299999999
 13.0637124000000000  6.5549314799999996  6.6929963199999998
 11.2843634000000002  8.5536834499999994  8.5099080699999998
  9.8839075500000000 10.1014642499999994  9.8700406399999991
  8.4829341100000004 11.9269971600000009 11.6698031499999999
  6.6831884900000000 13.2854879100000005 12.8340045299999996
  5.1076667799999997 14.8864999900000008 15.1619705800000002
  3.3335058399999999 16.6163647800000014 16.7122519300000008
  1.3829103899999999 18.2106425799999982 18.5202976799999988
  1.6860071100000000 18.5065974400000002  1.7959986900000000
 -0.0956788500000000  0.2272833100000000  3.2092524000000000
 18.3494469100000011  1.7263266700000000  4.9167337599999996
 16.7949789799999998  3.1521768899999998  6.6011635899999996
 14.8887168100000000  4.7616918300000002  8.0112345699999992
 13.0606854899999991  6.3581836699999998 10.0281207999999999
 11.5491635499999994  8.2058843400000008 11.4888236999999993
  9.9362219300000003  9.8755293300000009 13.2031305900000007
  8.1544927900000008 11.7809247599999996 14.9801679399999994
  6.8549387800000003 13.4254698799999996 16.7147736199999990
  4.7514012299999999 15.0530126800000001 18.2732893300000008
  3.4238411399999999 16.8345147399999995  0.1482350300000000
  3.4314703899999999 16.6861926999999994  3.3160607799999999
  1.4310997599999999 18.0866304599999985  4.9786284500000004
 -0.1173071700000000 -0.1426647800000000  6.8086846200000002
 18.2772878299999988  1.4910201300000001  8.5120283800000003
 16.8518893699999985  3.3792721399999999 10.0209630500000006
 14.6521620299999995  5.0879010400000002 11.5054021500000001
 13.1399655600000003  6.9338354999999998 13.4040190100000007
 11.3768044100000001  8.6943469100000002 14.8750973399999999
 10.1009919499999992 10.3438108399999997 16.6280492399999993
  8.5715715100000001 11.8375627100000003 18.5702177100000014
  6.5756354699999999 13.5503213599999999 20.1205824399999997
  5.2398196900000000 15.1571848199999994  1.7911330800000000
  5.1229416499999996 14.9977657099999995  4.8978854299999997
  3.3398433999999999 16.4226740900000010  6.5785360900000001
  1.8368125600000000 17.8828640000000014  8.3137833699999995
  0.2556259200000000 -0.0493823800000000 10.1320245100000008
 18.4508003199999990  1.8064472800000000 11.5561440100000006
 16.4609053000000003  3.5291666700000000 13.4385580999999998
 14.4775074200000002  5.0323126299999998 14.8701292699999996
 13.1163879500000000  6.9297928200000003 16.3418732499999990
 11.7352478799999993  8.7135596000000000 18.4006348700000011
 10.0956188800000000 10.1675138300000008  0.1767996400000000
  8.6173781199999997 11.6800344099999993  1.7765232600000000
  6.6849408199999996 13.3929962200000006  3.0693366399999999
  6.5171276499999999 13.3825537899999993  6.5036698199999998
  4.7668438399999999 15.0252055900000006  8.4063828699999998
  3.2578993399999998 16.6071466399999998  9.8632057199999998
  2.0250838700000000 18.4385137199999996 11.9190572699999997
  0.1654835400000000 -0.0645414800000000 13.0883210099999996
 18.3340716700000002  1.7932186500000000 14.5859420699999998
 16.7590343799999992  3.3038664000000000 16.4348966499999989
 15.0048680599999997  4.9858039500000002 17.8228613200000012
 13.5157073699999994  6.3102900799999997 -0.2837906800000000
 11.7187775799999994  8.2734495100000007  1.4797037600000000
 10.2079638399999997  9.9857784400000007  3.2306030600000000
  8.4625424999999996 11.7795556799999996  5.0174147199999997
  8.2103557899999995 11.7776949200000001  8.2858252700000001
  6.6154923500000002 13.3074886299999999 10.1035580300000003
  4.6054125800000003 14.8341906199999993 11.7125545899999999
  3.3242975399999999 16.6177220299999995 13.5960926499999992
  1.9176495800000000 18.6480288300000012 15.2308684099999994
  0.0906846200000000  0.6242750000000000 16.4763161300000007
 18.2567593700000010  1.7161507800000000 18.3862762199999992
 16.4127426300000003  3.5403839499999998 19.6714202200000017
 15.0080729799999997  5.1519983600000003  1.6863537200000001
 13.0762639800000002  6.3364353600000003  3.1151126200000001
 11.6156853899999994  8.0381633899999994  5.1860421199999998
 10.0044443300000001 10.1001295100000004  6.6789289399999996
  1.2402024400000000  1.8968068000000000 18.8032297200000009
 -0.2548005500000000  3.8541112800000001 -0.0811481300000000
 18.2498585700000007  5.4447954699999999  1.4483791300000000
 16.4095713900000000  6.8386198100000000  3.4072840800000002
 14.7742058200000006  8.3030124799999996  4.7462299300000002
 12.9771438400000001 10.1142512399999998  6.7908559200000003
 11.6183466099999997 12.0249556999999996  8.4966528599999993
 10.2015659999999997 13.8363951099999998 10.0058427800000000
  8.4424402900000004 15.2322777499999997 11.6188941999999997
  6.5127333900000002 16.9894463199999990 13.2574598899999998
  4.8786252200000000 18.3265995500000010 14.8326047299999999
  3.2908846399999998 -0.0460497700000000 16.8634746500000006
  3.2255549600000002  0.1910295500000000 -0.3092428800000000
  1.7935376900000000  1.8246982400000000  1.7260035899999999
 -0.2302679300000000  3.7081759100000000  3.1339641399999998
 18.0004634900000013  5.1377951900000003  4.9745038499999996
 16.5285955099999988  6.8873150499999998  6.8817119800000004
 14.6659637299999996  8.3124636899999995  8.6415413300000008
 13.1135906299999991 10.2584082700000003  9.9169767300000000
 11.4703761899999996 11.5888092100000009 11.7546409399999998
 10.0055202699999999 13.6059833999999995 13.5566105700000001
  8.1978046100000004 15.3703188399999995 14.7260801200000007
  6.7202226800000000 16.7414357400000000 16.5668327200000007
  4.8197989400000001 18.4095584999999993 18.4937077400000014
  5.2388215999999996 18.5596043600000016  1.7617268500000001
  3.5226731700000000  0.0367671000000000  3.6964273500000000
  1.4887068600000000  1.4922350900000001  5.1232398799999999
 -0.2323981400000000  3.2066083299999999  6.7917550300000000
 18.1002267100000012  5.0878077399999997  8.1742845400000004
 16.5690054199999999  6.2302272500000004  9.8675442400000009
 14.7566114400000004  8.3077068100000009 11.6617054899999992
 13.0189394699999994 10.0560485400000008 13.2159651900000004
 11.8319664699999993 12.0331076800000005 14.8384089100000001
  9.7814568499999996 13.4213863399999997 16.8648346199999999
  8.3995645600000000 15.2416605700000005 18.5522123500000014
  6.6219363900000001 16.9191507399999992 19.9665237500000003
  6.8365133599999997 16.8786443900000016  3.5825515299999999
  4.8431243500000001 18.2489252700000009  5.0216602600000000
  3.2098121399999999  0.2171096100000000  6.7576839599999996
  1.5843972200000001  1.4815109799999999  8.3315394699999992
 -0.0715701500000000  3.5889507300000001 10.2721366399999994
 18.2125060300000001  5.0702565999999996 11.7556172700000001
 16.3603983299999989  6.5918719699999997 13.1318364899999995
 14.9875218700000001  8.3003417000000006 14.8740309100000001
 13.2799522700000008 10.2503768100000006 16.3543957599999992
 11.7967019000000004 11.3742122200000004 18.1493788299999999
 10.4430746200000009 13.3470112699999994 20.3323270700000016
  8.3241271700000006 15.2680931999999991  1.4164201999999999
  8.3777616800000008 15.1392079099999997  4.8031595899999999
  6.7504073699999996 16.7749294300000003  6.9357549299999999
  4.7317973999999996 18.2944949900000005  8.2969574300000009
  3.3093344600000001  0.0138341900000000 10.0493661799999998
  1.6380025499999999  1.8981513400000001 11.6226079599999998
  0.0130687900000000  3.7238491800000002 13.3775568699999994
 18.0568495899999988  5.5098141299999996 14.9672501699999998
 16.5057865100000001  6.9017187800000004 16.3710215599999991
 15.1185177300000007  8.5399891900000000 17.8751727600000017
 13.4709090400000004 10.1156298299999996 20.1310546499999994
 11.8610046699999998 11.6533423700000007  1.8703771600000001
 10.1491348099999996 13.6032010299999992  3.2589999399999998
  9.8156914499999992 13.6535511399999994  7.0402235099999997
  8.1958971300000005 15.2514429200000006  8.3948594199999995
  6.3705709300000004 16.7757201199999990  9.8651600399999992
  4.6621404100000001 18.4013398499999994 11.7226522699999993
  3.4249766600000000  0.3490569200000000 13.5032970700000003
  1.6756321100000000  1.9248556299999999 14.7480318599999993
 -0.4603325300000000  3.2642198400000000 16.4292778400000010
 18.2229259600000013  5.2917368199999997 18.3514523499999989
 16.4454359600000011  6.6401955299999997 19.8955556000000016
 15.1175166999999995  8.1132778699999992  1.4350240100000000
 13.3105920700000002 10.0595931499999995  3.5204196500000000
 11.5252645999999999 12.0357991700000007  5.0373006499999997
  3.3058912399999998  3.3644041300000000 17.0600498899999984
  1.6204579100000001  4.8611383200000002 18.3187882299999991
  0.1172943900000000  6.6933518500000000 -0.1167049500000000
 18.7712938300000012  8.2906233999999994  1.8375262299999999
 16.6441889299999985  9.9252878300000003  3.2631124800000002
 15.1611822299999996 11.8722579800000005  4.9825475700000004
 13.5235914299999997 13.3356974800000003  6.8141800200000002
 12.0334731300000009 15.1792815200000000  8.5043372999999995
  9.9601716899999992 16.4782105200000011 10.1740132899999995
  8.3379259300000008 18.3911970800000013 11.7078523400000005
  6.4883459099999996 20.2585144300000017 13.1463719099999992
  5.1530091999999996  1.7089097900000001 15.1633065400000007
  4.7880850199999996  1.8799100399999999 18.3591237300000003
  3.2140203000000001  3.3621896200000001  0.0796807200000000
  1.8570608099999999  5.1818374100000000  1.6860681300000000
 -0.1090930400000000  6.5894543399999996  3.2289280800000002
 18.1897570699999989  8.2970713000000007  4.7673026500000004
 16.4560938700000001 10.0853667900000001  6.7813739499999999
 15.0330608199999993 11.7400020000000005  8.3303332200000000
 13.5771688299999997 13.3377969899999993 10.4344275900000003
 11.6442119200000000 14.7496609400000001 12.1538729900000000
 10.0126173099999995 16.9805198399999995 13.3042317800000003
  8.4100120799999996 18.4806968400000002 15.0302848999999998
  6.4721109200000004 20.0863468699999999 16.8169757900000008
  6.6077954600000002 -0.1404185200000000 -0.4775730100000000
  5.0598404099999996  1.6016387599999999  1.8345667800000001
  3.4187710700000000  3.2297248000000001  3.7855845299999999
  1.6927669800000000  4.8380712800000003  5.2999414399999996
 -0.0588600400000000  6.3778205100000003  6.3462951800000003
 18.0668652700000010  8.1028497099999992  8.1262954199999999
 16.6148257999999984  9.6456838299999994  9.9439799299999994
 15.2357573399999993 11.4914977399999998 11.6150388000000007
 13.4485497699999996 13.3886534299999997 13.1757706700000004
 11.3753952900000002 14.7455513400000005 15.2390591700000009
  9.9480128499999996 16.5450473699999989 16.7029164399999992
  8.5508040500000000 18.3833880100000009 18.4305869700000002
  8.4350663600000004 18.3360711199999997  1.4737138599999999
  6.6965984499999998 -0.3079451300000000  3.6056842300000000
  5.2285754300000002  1.8346669400000000  4.9471904599999998
  3.6180209400000001  3.2022943900000000  6.7488826900000003
  1.5476666299999999  4.8324277499999999  8.1372426499999992
 -0.0726829200000000  6.5539355199999996  9.6382683799999995
 18.1996593100000013  7.8192778699999996 11.4134459199999991
 16.6588607000000017  9.8752677400000000 13.1953397100000007
 14.9909511999999996 11.7316293599999995 14.9649979900000005
 13.2226979000000000 13.2399011699999996 16.7815510199999984
 11.7982792399999994 14.9651365599999995 18.5089607799999989
 10.2485554000000008 16.7455630199999987 20.0285196799999987
 10.3451464699999995 16.6477285600000009  3.1741532399999999
  8.7680318499999998 18.3122984100000004  5.1150526500000000
  6.7949180599999996 -0.1837873500000000  6.7411863600000004
  5.1666239100000002  1.6791229800000000  8.5632504699999998
  3.2780888099999999  3.4387867000000001  9.7038694299999992
  1.9398854800000001  5.0743811499999998 11.6201939900000006
  0.2076531100000000  6.7384667299999998 13.5240345699999995
 18.2496034899999984  8.2055379399999993 15.1390900199999994
 16.7602304500000017 10.1805259400000008 16.5866049999999987
 14.9411434199999995 11.5469674900000001 18.2925079900000007
 13.4549707800000000 13.0864751100000003 19.7633837399999983
 11.8794777099999997 15.0659193800000004  1.8624367900000001
 11.7236133099999993 15.1610325100000001  5.2486113799999998
 10.3042809000000002 16.9739961100000016  6.6923345999999997
  8.3782116599999998 18.4683974699999993  8.6897333900000007
  6.5283938499999996 -0.0549604300000000 10.2498702799999997
  4.8214130500000003  1.9619657800000001 11.6179597700000006
  3.2087512299999998  3.5517442099999998 13.5097126799999998
  1.4903868899999999  5.0716358300000000 15.3560331300000001
 -0.0178020400000000  6.7387766999999998 17.1567204300000000
 18.1257483199999996  8.5121490600000005 18.5773079599999988
 16.5491170099999998 10.0302083000000000 20.1900846799999982
 14.7991091800000003 11.6906125500000009  1.5964070800000001
 13.3902486500000002 13.2508967500000008  3.3127090799999999
  5.0948201199999996  4.9244114999999997 15.5366198799999999
  3.3784763099999999  6.8430135999999999 16.5702944899999984
  1.7419646799999999  8.3594948999999996 18.5486968599999997
  0.4373469300000000  9.8104814900000008  0.1798755800000000
 18.6249667800000012 11.5570155299999993  1.6507118300000001
 16.6632323800000002 13.2196115299999999  3.2799405899999998
 15.1449466000000008 15.3104353700000004  4.8324462900000000
 13.5050171700000003 16.8571739100000002  6.4874559900000000
 12.1627400199999993 18.6821125700000010  8.4110417700000006
  9.7576556500000002 -0.1905377700000000 10.2840131600000007
  8.2794620499999994  1.7337769800000000 11.5640329000000008
  6.4807056799999998  3.6419402100000000 13.2884288300000009
  6.8175744399999996  3.3527682300000001 16.8774272299999986
  5.1085599700000000  5.2320846100000002 18.5516852800000009
  3.4910781800000001  6.6469237100000003 -0.0332294000000000
  1.9045500399999999  8.3842435500000008  1.8509325200000000
  0.0729778300000000 10.0682791599999995  3.4681867400000002
 18.2636764000000014 11.6294130199999994  4.8109562600000002
 16.7318472100000015 13.5723903099999994  6.5191451499999999
 14.9358041700000008 14.8460563800000003  8.5183273800000006
 13.1532318999999998 16.1480398700000016 10.3501340699999993
 11.8326922900000007 18.4937892400000017 11.7687412400000007
 10.0133217499999994 19.7914760700000016 13.2168090899999999
  8.1545448000000000  1.8762545100000001 15.0711378499999995
  8.5536536999999999  1.5807004300000000 17.9672632900000018
  6.8010950699999997  3.3316895299999998 -0.1214763000000000
  4.9308309299999999  5.0160619300000002  1.7292173600000000
  3.2168581700000001  6.5179781800000001  3.6875445600000001
  1.4456969700000000  8.1263879600000006  4.9950334700000001
 -0.2484664100000000 10.1549090199999998  6.6302663600000002
 18.3692718299999989 11.8199568100000008  8.3939695600000004
 16.6942323299999984 13.3161050700000008  9.9244128800000002
 15.1309328000000001 15.0544937999999995 11.6816041899999998
 13.1601489899999997 16.1831448900000012 13.4823245400000005
 11.9769045199999997 18.4687572799999984 15.0918717600000001
 10.0986329300000008  0.1020709700000000 16.3644655999999991
 10.3098390200000001 -0.0476267900000000 -0.3107425400000000
  8.2491452899999995  1.2730528500000000  1.2666503099999999
  7.1500010400000003  3.6312623500000001  2.9597747900000000
  5.0070564199999996  5.0363154699999999  5.1426891599999998
  3.2908615800000001  6.7754918399999999  6.9237401800000002
  1.5879866499999999  8.4660105399999992  8.3252994699999991
 -0.2039553900000000  9.7293310599999998 10.1687187100000003
 18.4485506800000003 11.6563716199999998 11.4852854400000002
 16.9117977199999991 13.2258009699999999 13.5184465899999999
 15.1081298900000007 14.6333830099999993 15.3220057900000004
 13.7935033499999999 16.2813940099999996 16.6934954200000014
 12.0982049499999995 18.3657639400000008 18.0075083900000017
 11.7677069299999992 18.7035608999999994  1.5341730000000000
 10.0612559699999995 -0.0005495300000000  2.9159672200000002
  8.5367510400000004  1.8253187700000000  4.9594887400000003
  6.9341325500000002  3.1637023599999998  6.8108377700000000
  5.0657948199999998  4.7313342000000000  8.4633205799999995
  3.3056500400000002  6.4737040800000001  9.9314595499999996
  1.9417019799999999  8.2989959599999992 11.9682455999999995
 -0.4155733000000000  9.9050425600000001 13.5550134500000006
 18.3676690899999997 11.6945671299999994 14.9501277600000009
 16.9507009500000017 13.0645407999999996 16.7549996800000010
 15.1892256600000000 14.5990206199999992 18.3191413200000000
 13.6083126300000004 16.7617359700000002 -0.0779370900000000
 13.4111439800000003 16.8344270000000016  3.1217916200000002
 11.7276245299999999 18.8336371100000015  4.8443638299999998
 10.1981120199999999 -0.1359636300000000  6.7262703699999999
  8.2778667899999991  1.2974816400000000  8.4548650100000007
  6.8024794999999996  3.3299700900000002 10.0306306700000007
  4.7845432700000003  5.1256573100000002 11.6791432200000003
  3.4307144200000002  6.4709070300000002 13.7836012300000004
  1.6781260200000001  8.1825251600000009 15.2119702300000004
  0.2099733200000000 10.0309484799999993 17.1079865600000005
 18.5610672200000018 11.5752292200000007 18.4436736299999993
 16.9793472600000008 13.2376998300000004 -0.1324237800000000
 15.1583625400000006 14.7454843899999997  1.6173082400000001
  6.3994369500000001  6.7652810299999997 13.4464401400000000
  5.1049358500000004  8.2206879599999994 15.1277529699999995
  3.4450869499999999 10.1721487699999997 16.8442140199999990
  2.2903227899999998 11.5708314800000007 18.6993221500000004
  0.2176683500000000 13.4486628899999996  0.1393826600000000
 18.4888491500000001 14.7476386000000002  1.8984321300000000
 16.8187902999999999 16.9955266099999989  3.0373526200000001
 15.3044230599999995 18.1984580899999990  5.1643058899999996
 13.6122747799999999  0.0614866800000000  6.5255108599999998
 11.3092930099999993  1.5192477400000000  8.3803876200000005
  9.8784171599999997  3.3865923300000000 10.1168726400000004
  8.1411584599999998  5.1333729600000000 11.6340682300000005
  7.9859559500000001  4.9868985300000004 15.1394902499999997
  6.5161778000000004  6.4864065899999996 17.0444949900000005
  4.9612477699999999  8.3616361399999999 18.5224590300000003
  3.6513057799999999  9.9916889700000002  0.1596814700000000
  1.8819919100000000 11.5943892099999992  1.7976862600000001
  0.1115970100000000 13.1099861999999998  3.3590931400000001
 18.4353280999999996 15.1274302200000008  4.7488742300000002
 16.8518446299999987 16.4252211499999987  6.6738061200000001
 15.3818439300000005 18.1340979599999983  8.5247361799999997
 13.3624253999999993  0.0569865900000000 10.0352120700000000
 11.1612993100000004  1.5484778900000000 11.4562853899999997
  9.4741725199999998  3.4137259200000001 13.3915681099999997
  9.8601717200000003  3.2910415400000002 16.4852449800000009
  8.5685483999999992  4.9250449800000000 18.4249617000000008
  6.8838846599999997  6.6756590400000002 -0.2808722300000000
  4.8819569600000001  8.0732755600000008  1.7269478899999999
  3.3153761300000002  9.8794956400000000  3.7504681299999998
  1.5419664900000001 11.7171563600000006  5.2227294400000002
 -0.3060238500000000 13.1217968299999992  6.6502528600000002
 18.4333054400000016 14.7776527800000004  8.8419389499999994
 16.6157642000000010 16.4806222799999986 10.0013464899999995
 15.1090028899999993 18.0251209500000016 11.6993279900000005
 13.1216758799999997  0.1961129600000000 13.2250683099999993
 11.4968767100000004  1.6459168900000001 14.8119399999999999
 11.7887912000000004  1.4517387900000001 17.8621113600000001
 10.2777978099999991  3.0729195800000002 -0.2121717600000000
  8.6262563900000000  5.0489071900000004  1.1388611000000000
  6.9694820899999996  6.7745965899999998  3.2362431200000001
  5.0782251599999997  8.2976714299999994  5.0419767400000000
  3.3485906800000000  9.6984197699999992  6.4999949199999998
  1.5546611600000000 11.5063598500000008  8.2456513400000002
  0.1715966000000000 13.1793858000000004 10.0344268099999994
 18.7729450600000014 15.2201643400000002 11.8869515999999997
 16.6384747600000011 16.5368519700000007 13.5330182099999998
 15.0254385999999993 18.5671973000000001 14.8018053199999997
 13.2301623100000008  0.0231743100000000 16.2591264899999999
 13.5695682899999994  0.0056193500000000 -0.3291077100000000
 11.6385069199999993  1.6779150700000001  1.5481611399999999
 10.0275584900000005  3.0187947999999998  2.9959423799999998
  8.5056928700000007  5.1902186199999996  4.8779744899999997
  6.6700966700000004  6.6921460100000001  6.6218414200000000
  5.0956290700000002  8.3816050000000004  8.6293563899999999
  3.2437990499999998  9.8103880900000000 10.1605736100000001
  1.5929814600000001 11.1961559000000008 11.8190589700000004
 -0.0580243000000000 13.1964141500000007 13.2854850899999999
 18.7734810100000011 14.9780289100000008 15.0382828600000007
 16.8418091200000006 16.4214806499999995 16.7092733899999999
 15.3567051400000008 18.3193732599999990 18.2366260400000009
 14.9849957600000003 18.1510510899999993  1.5847093400000001
 13.7203835699999992  0.0806244300000000  3.2730691200000002
 11.5638644799999994  1.4735907900000000  4.7584572900000000
  9.7563922900000009  3.1492308900000001  6.7264174600000004
  8.2014986000000007  5.2987027099999997  8.3376730600000002
  6.4930661399999998  6.7026980900000002  9.9542050300000007
  4.9768799100000001  8.2287543200000002 11.8449974499999993
  3.3884426200000002 10.1257409099999993 13.8657481300000001
  1.4462822399999999 11.5040951400000004 15.2888337500000002
  0.2939036400000000 13.2522860799999993 16.7263296299999986
 18.9774802300000012 14.9948995899999993 18.1692452899999992
 16.9752863299999994 16.3095218300000013 -0.1293253900000000
  8.2093288500000003  8.0930942500000000 11.5000937099999998
  6.7360690300000003 10.1808156400000005 13.5520728500000001
  5.1211128900000000 11.8463592799999997 14.9112383000000008
  3.3321187000000001 13.0130267300000000 16.8002057499999999
  1.6491548499999999 14.8662741000000000 18.8049684399999997
  0.0035799500000000 16.6545032400000004  0.3895680200000000
 18.4209207200000016 18.5865499700000001  1.4227201599999999
 16.5978430199999991 19.9509166700000016  3.4461747699999998
 15.1800094500000000  1.8480748499999999  4.8596065599999996
 12.7590886000000001  3.0424983100000000  6.8181741300000001
 11.1879903299999999  5.0389841600000000  8.0393807400000004
  9.9303132099999996  6.5340768499999999  9.9184468100000007
 10.0496241699999995  6.2825638300000000 13.4530827599999991
  8.3361561700000006  8.2982809999999994 15.0306129599999991
  6.7518663600000002 10.1459359399999993 16.7146587800000006
  5.1546450200000002 11.8399673799999992 18.5744517599999988
  3.3892357299999998 13.5326937199999993  0.4638429800000000
  1.8312389000000000 15.1139110300000006  2.1268712900000000
 -0.2930651100000000 16.8206958799999988  3.3513791500000001
 18.4027160499999987 18.4551252400000010  5.3224040400000003
 16.7881406800000015 20.2034687400000017  6.7682961800000001
 14.9441717799999996  1.7364679500000000  8.3958288599999999
 13.0618379400000002  3.3523814600000001  9.6856337799999999
 11.7624592200000002  4.7020190800000004 11.6536310899999993
 11.4614433200000008  5.0816919800000004 14.7801790900000007
 10.0405080200000008  6.6668013200000003 16.5903796800000016
  8.4940350799999997  8.5156143699999998 18.3228161000000007
  6.8195247999999999 10.0895082299999999  0.1004717000000000
  4.9221297000000002 11.6675874299999993  1.8203867800000000
  3.3945434600000000 13.2880807900000004  3.6360701700000000
  1.4814812900000001 14.8919089699999994  4.9796641700000004
 -0.2613707300000000 16.4158160899999999  6.9056422399999997
 18.1249161900000004 18.2302075799999983  8.4116285699999995
 16.5373654399999985  0.1094706600000000 10.2051601400000003
 15.0299553199999991  2.0901491900000000 11.6114376600000000
 13.1460646099999998  3.2623077500000002 13.0128034600000007
 13.3255875499999998  3.3903248300000000 16.7182951399999986
 11.8840130500000001  4.8341891400000003 18.0864563300000007
 10.0098778500000005  6.9330420300000002 -0.1677790200000000
  8.5697974899999991  8.4334225200000006  1.6941203000000000
  6.5903893499999997 10.0171923799999991  3.2894985100000000
  5.1369039699999997 11.5301088099999998  4.8926002300000002
  3.3794813900000000 13.2378869100000003  6.6014162799999996
  1.5590481800000000 14.6986131600000007  8.2507355199999992
  0.0452110700000000 16.7268518800000017 10.2220875099999997
 18.3864292700000007 18.1191862099999987 11.7428362600000007
 16.2649690000000007 19.8477553200000010 13.1116083900000007
 14.9729829500000005  1.8657712600000000 14.8424440200000003
 15.0276722399999993  1.4913058900000000 17.7792397199999996
 13.4802692299999993  3.3248261700000001 -0.3163027400000000
 11.7316473699999992  4.9232317300000004  1.4115329200000000
 10.0775554700000001  6.6753197699999998  3.1336258300000002
  8.2956807999999995  8.5398844999999994  4.9810441900000004
  6.6267357400000000  9.9708282500000003  6.8285431299999999
  4.8242456000000002 11.5124223800000003  8.3075285999999995
  3.5905139500000001 12.9764219999999995  9.9570140100000000
  1.9033357799999999 14.8834969699999995 11.7190396600000000
  0.4648340300000000 16.8638189800000013 13.7896811800000005
 18.7221848599999987 18.1290251799999993 14.8146214799999996
 17.0328220700000017 20.0939131800000013 16.3894534500000013
 16.3450470699999997 -0.0342975800000000 -0.2267318800000000
 15.1242301300000008  1.8846920300000001  1.5739254400000000
 13.1896463500000003  3.1838211200000002  3.3657541200000001
 11.1273249199999995  4.6125204599999998  5.1200713999999996
  9.8883498099999994  6.5864442299999997  6.8046277300000000
  8.4342281499999991  8.0351400000000002  8.3557565599999997
  6.7847305300000000 10.1862598200000001 10.0446948599999999
  4.8338740600000003 11.4399480499999999 11.6345927800000002
  3.1908517000000001 13.1841265599999993 13.3715896599999997
  1.8168117300000000 14.9070143000000002 15.1178276300000007
  0.3387233600000000 16.7264892100000004 16.8564021100000012
 18.5869354400000013 18.2619471100000013 18.2013840999999985
