Li                                      
   1.00000000000000     
    20.0207999999999977    0.0000000000000000    0.0000000000000000
     0.0000000000000000   20.0207999999999977    0.0000000000000000
     0.0000000000000000    0.0000000000000000   20.0207999999999977
   Li
   432
Direct
  0.0007375968992278  0.0109201795133060  0.0058354781027745
  0.9094552395508657  0.0951120339846554  0.1059904199632413
  0.8223395303883976  0.1865242722568539  0.1688537166347004
  0.7351364725685272  0.2472736029529301  0.2476198588467966
  0.6523289274154891  0.3386101534404204  0.3393857777910938
  0.5852321076080855  0.4325670607568100  0.4335809133501130
  0.4879606349396610  0.5219185297290849  0.5118581470270911
  0.4094096829297555  0.5980873211859645  0.5902930237552937
  0.3209663185287326  0.6621941360984565  0.6588712623871160
  0.2403599906097682  0.7383941031327410  0.7340715580795987
  0.1627682450251768  0.8303173379685163  0.8198212623871157
  0.0872105819947251  0.9359408160513070  0.9173016447894184
  0.0770740015383993  0.9323117412890625  0.0812706130624150
  0.9964253511348176  0.0038982468233044  0.1869547365739663
  0.9121200861104484  0.0905441990330047  0.2558970555622153
  0.8218364840565826  0.1783684692919394  0.3357937310197414
  0.7301251808119531  0.2563925247742347  0.4308258436226353
  0.6558940327059872  0.3459947154958840  0.5081114246183986
  0.5568786796731402  0.4168383086589955  0.5743274944058214
  0.4999060786781726  0.5090581185567018  0.6712749895109056
  0.4089549558459211  0.5914682814872521  0.7440991818508778
  0.3225998381683084  0.6580025958003688  0.8173946021138008
  0.2357515548829241  0.7560619305921819  0.9207509435187404
  0.1718222313793660  0.8427698723327737  0.0031752517381918
  0.1594544189043390  0.8410407096619537  0.1707257871813326
  0.0904402411492029  0.9149756018740476  0.2617097118996270
  0.9803878945896258  0.0120516967353979  0.3304881553184700
  0.8959635479101706  0.0938634400223748  0.4338926516422887
  0.8006109101534378  0.1890843632622108  0.4950295108087559
  0.7205453113761706  0.2530595515663734  0.5803600795173054
  0.6548816615719630  0.3370107633061608  0.6693563359106562
  0.5829162570926272  0.4258235505074737  0.7478534164468940
  0.4959567075241722  0.5047858866778583  0.8192995209981646
  0.4192720655518229  0.5828175887077407  0.9072747902181746
  0.3168814742667649  0.6597406916806534  0.9958675482498194
  0.2475149939063357  0.7465648100974960  0.0840071980140635
  0.2561784264365059  0.7520670882282445  0.2432519749460553
  0.1777224881123658  0.8355082728961847  0.3360268910333275
  0.0870229191640703  0.9104754355470348  0.4053069797410700
  0.9924070481699019  0.9988810347238868  0.4897232752936915
  0.9049017272037077  0.1054699137896620  0.5568662461040503
  0.8262264914488924  0.1858642651642270  0.6578152721169985
  0.7461970465715666  0.2683937984496154  0.7431482128586282
  0.6493439832574097  0.3399011258291367  0.8369305232558162
  0.5673138655797985  0.4169427835051565  0.9147575431551189
  0.4912782795892241  0.5190157536162374  0.0029879899904088
  0.4092273440621739  0.5837008945696454  0.0809190037361134
  0.3288991918404847  0.6534115330056736  0.1607141118237010
  0.3232602213697788  0.6641673604451341  0.3280287351154811
  0.2541107103612248  0.7600560002597305  0.4208764924478530
  0.1668337893590675  0.8351292920362852  0.4959379909893684
  0.0765494630584200  0.9204024574442613  0.5710897771317818
  0.9928343947294849  0.0104199922081065  0.6441771762367168
  0.9251642786502075  0.0946018660592998  0.7266761078478368
  0.8410803769080175  0.1674176626308608  0.8407102113801628
  0.7391571195956175  0.2477754170662507  0.9256769504715123
  0.6519004645168991  0.3513736858666974  0.9973236244305923
  0.5685835406177588  0.4266916516822477  0.0833846429713105
  0.4903988821625518  0.5093323748301799  0.1738688404059801
  0.4090758735914619  0.5789252647246883  0.2714175007991670
  0.4162371223927082  0.5864176561376198  0.4186000799168852
  0.3415131273475609  0.6742249525493520  0.5058686506033752
  0.2510474576440487  0.7529826385558991  0.5863639145288886
  0.1557078927914972  0.8301476784144484  0.6632037436066511
  0.0789325591384937  0.9336082499200842  0.7408601709222395
  0.9980943428833982  0.0172933544114144  0.8305233322344776
  0.9197603317549721  0.0904686550986966  0.9256617198113943
  0.8261518585670871  0.1719639300127866  0.0043956605130688
  0.7474807934747858  0.2670641128226663  0.0867360779789053
  0.6520576120834320  0.3456280163629799  0.1623402451450460
  0.5746068693558684  0.4281256723008084  0.2469002891992318
  0.5070041127227682  0.4983798714337055  0.3425928074802229
  0.0879216894429788  0.0880894459761876  0.9189198308758861
  0.0010370629545307  0.1741014919483703  0.0126791092264043
  0.9078997387716754  0.2533854056780953  0.0927985834731899
  0.8253428664189215  0.3361002267641666  0.1714191321026135
  0.7468867747542589  0.4088549893111164  0.2422218602653246
  0.6562178614241176  0.4957942010309253  0.3263315521857280
  0.5977013211260314  0.5837380414369022  0.4337146507632070
  0.4875571690441944  0.6766949142891363  0.4841078912930570
  0.4012299753256627  0.7621206884839751  0.5954130769000230
  0.3354182610085488  0.8407848662391118  0.6607240115280106
  0.2454044543674598  0.9066467993286977  0.7382596414728653
  0.1732474986014552  0.0225483851794124  0.8341084372252823
  0.1698950686286267  0.0133737947534556  0.0022066955366427
  0.0791161527011894  0.0914609790817522  0.1000547101014959
  0.9954795627547384  0.1795896232917755  0.1666173449612387
  0.9039994900303654  0.2408858716934361  0.2535242173139949
  0.8167215985375194  0.3322482068648611  0.3521162216295082
  0.7292263775673291  0.4106394244985196  0.4231367627667240
  0.6663327549348708  0.5025036457084653  0.5146667291017337
  0.5693486973547479  0.5999869840366046  0.5816275573403686
  0.4860418344921271  0.6834900982977672  0.6562301736194343
  0.4087002252657257  0.7484012232278445  0.7427603372492584
  0.3381154064772645  0.8324662585910687  0.8149343532725979
  0.2516401352593292  0.9182172955126688  0.9208628611244336
  0.2602999110924671  0.9138287780708083  0.0944817105210589
  0.1582007946735402  0.9983469761448092  0.1785181626108852
  0.0795586554982819  0.0951867382921776  0.2521643875369648
  0.9890064857548140  0.1718725415567803  0.3451938014464986
  0.9078455601174795  0.2442561006553206  0.4197854286542011
  0.8166454702109789  0.3463600460521050  0.4910764180252514
  0.7441806201550420  0.4141345071125997  0.5867741828498367
  0.6502857892791525  0.5018839926476488  0.6593706095660536
  0.5756154963837616  0.5989983811835700  0.7334233921721420
  0.4941870749420616  0.6805375149844153  0.8371516053304546
  0.4043660872692385  0.7499898655398383  0.9146386662870611
  0.3368104691121232  0.8285757237473064  0.0160217763525949
  0.3549200111883621  0.8383366868456790  0.1701675832134555
  0.2572844152081828  0.9240532865819517  0.2493995704467338
  0.1699615684687927  0.0071692489810573  0.3298660882682043
  0.0889913315152242  0.0787401077879011  0.4107791591744601
  0.9909473977063854  0.1663123481579163  0.4810186605929800
  0.9005269559657947  0.2552697519579610  0.5605321765364053
  0.8266072514584835  0.3251048404659187  0.6575175147846224
  0.7404652441460868  0.4185828643211096  0.7477758276392521
  0.6505806970750427  0.5208793030248557  0.8221976084871727
  0.5744917935347260  0.5764162251258682  0.9128164928474405
  0.5022588288180287  0.6652883730919825  0.9981947759330296
  0.4319275223767249  0.7337691540797593  0.0834824327699195
  0.4199446725405593  0.7352412695796389  0.2473537036482085
  0.3210124460561019  0.8297827719172091  0.3172209147486598
  0.2542667350954986  0.9136631183569079  0.3895288524934060
  0.1815684373251827  0.0013346439702744  0.5029538939502913
  0.0789096934188436  0.0795063833613057  0.5780613581874832
  0.9923373012067458  0.1753444432789877  0.6676953683169486
  0.9092773006073713  0.2562207913769683  0.7585873721329790
  0.8210897716374959  0.3322423204866922  0.8500245534643938
  0.7309867033285400  0.4367349456565179  0.9069572424678327
  0.6536314333093571  0.5064360664908492  0.9886023270798390
  0.5694610380204566  0.5853329881922775  0.0949984615999355
  0.4848621158994675  0.6485280103692190  0.1691551891033356
  0.4973486329217636  0.6619570331854874  0.3327242997282838
  0.4063342224086952  0.7596893345920250  0.4153941096259857
  0.3305781901822087  0.8398646717413882  0.5013300707264463
  0.2596112103412480  0.9034065237153328  0.5959417231079698
  0.1724852883001660  0.9973348872172920  0.6514167595700471
  0.0855674393630608  0.0935680327459423  0.7464955456325413
  0.9930079557260427  0.1659694822384736  0.8395701095860275
  0.9056782011707796  0.2472785393191117  0.9356259819787454
  0.8240904644170044  0.3512175497482630  0.9954914468952296
  0.7391333747902209  0.4287851109845775  0.0823418175097927
  0.6744447614480933  0.4988750229761081  0.1683825601374593
  0.5845629100735223  0.5937469606609156  0.2547149030008811
  0.1627735505074739  0.1639797320786371  0.8444492592703554
  0.0895639709701896  0.2332674988012471  0.9276773205865894
  0.0190093757492207  0.3297318024254778  0.0073689118316977
  0.9288330411372172  0.3844281452289593  0.0853304718093213
  0.8482482513186298  0.4823553619236023  0.1527636722808268
  0.7481195401782159  0.5631658859785844  0.2350494545672532
  0.6685426521417739  0.6645945491688678  0.3258251528410483
  0.5920066435906648  0.7503070246943153  0.4071063364101306
  0.5011855974786243  0.8387293964277163  0.4880484880724083
  0.4184177465435965  0.9087369370854290  0.5851090056341377
  0.3336025843123167  0.0042559003636242  0.6628430881882821
  0.2557501568368892  0.0823274064972424  0.7409843367897366
  0.2496241818508764  0.0876422225885065  0.9139612582913799
  0.1728502672220884  0.1569053674178846  0.0109561800727249
  0.1034675732238455  0.2446246373771288  0.0791609446175983
  0.0112291741588777  0.3200457863821597  0.1785853477383554
  0.9262323054023796  0.3989049468552679  0.2551399239790584
  0.8327260109486119  0.4860430437345187  0.3340187504994816
  0.7467285148445626  0.5859062455046740  0.4044782556141584
  0.6723964237193343  0.6780016412930578  0.5085112148365667
  0.5730303034843729  0.7592021887237266  0.5756577534364240
  0.5057045058139522  0.8377765758611062  0.6618261932590102
  0.4137510913649791  0.9165560267321951  0.7451976239710731
  0.3386047705386375  0.9880138760688908  0.8370593617637638
  0.3216293150123875  0.9965021512626890  0.9954770303883933
  0.2409192684608001  0.0765559593023255  0.0879717074242805
  0.1892432829856929  0.1648103117757529  0.1670419199032978
  0.0873787321185944  0.2310531157596074  0.2511514674738251
  0.0008219911292286  0.3154699317709557  0.3297069687524967
  0.9317405957803899  0.4082709297330780  0.4298692225085929
  0.8284067884400201  0.4914112303204661  0.4952493177095789
  0.7634245669503699  0.5758561820706447  0.6015974626388569
  0.6812275268720498  0.6739032256453257  0.6523918120155017
  0.5987624190841530  0.7618432210501069  0.7405030653120761
  0.4912375549428560  0.8381737213298166  0.8280371124031021
  0.4239968842403883  0.9013134360265340  0.9189997472628448
  0.4261371458682959  0.9263143515743621  0.0912738886557989
  0.3302307799888098  0.0057165422960139  0.1699499760249310
  0.2505209257372343  0.0840296476664264  0.2692212943538692
  0.1737969231998733  0.1765877807080614  0.3440794668544740
  0.0983634485135454  0.2484561146407742  0.4160432495204986
  0.0015214756653066  0.3229850065931430  0.4908375544433810
  0.8939774114920453  0.4169854526292625  0.5781467019299953
  0.8417048689363043  0.5011789254175625  0.6792061700831127
  0.7407993247023086  0.5947705281507254  0.7427707619076145
  0.6715504380444344  0.6747080161631871  0.8460180687085455
  0.5754108167505763  0.7666735325261698  0.9058434283345349
  0.4959990979381459  0.8215458013665824  0.0176322824262769
  0.5134232278430417  0.8414809622992081  0.1668050797170935
  0.4183630124670330  0.9231111628905921  0.2553050377607278
  0.3457635169423767  0.0184415193199072  0.3457272756333438
  0.2510397191920433  0.0816730939822605  0.4182176616318998
  0.1540872987093422  0.1744006438304169  0.4912519015224177
  0.0900046286861667  0.2462801276672266  0.5862875879085720
  0.9991380109685934  0.3215917071245897  0.6526781662071457
  0.9053338817629637  0.3929888391073320  0.7512780073723349
  0.8387136712818659  0.5077271098057992  0.8384429783025666
  0.7627302805082721  0.5717940601774174  0.9166757447254881
  0.6661593977263678  0.6522408909733883  0.9995415223167896
  0.5978287740749622  0.7346745694477761  0.0911560142451862
  0.5736144564652790  0.7521346569567626  0.2379271647486618
  0.4924756463278186  0.8295874585431164  0.3419897581515201
  0.4127506633101561  0.9051577454447397  0.4092758710940601
  0.3401414339087339  0.9816228352513363  0.4876204542276028
  0.2527622222888226  0.0933142911372187  0.5646593977263663
  0.1746822639454990  0.1544737642851430  0.6589982073643412
  0.0904839726684230  0.2417927919963248  0.7429155423359717
  0.0004847318788492  0.3046493556701009  0.8427880154639169
  0.9338596150004008  0.4016355665108264  0.9084541187165343
  0.8472022057060684  0.4936956310437139  0.0209063678774086
  0.7500396197954160  0.5683659653959907  0.0854896517621668
  0.6825307190521883  0.6587577269639553  0.1600733841804498
  0.2483537216295062  0.2481967908375324  0.7359633491169220
  0.1622609371253887  0.3169119995204994  0.8327847573523570
  0.0977720011188339  0.4072100045952212  0.9204730834931638
  0.0231037775713290  0.4880424778230648  0.0045950431551205
  0.9286387741748570  0.5795853951890066  0.0861034239391003
  0.8345644724486547  0.6580081405338447  0.1605106384360298
  0.7516578568288992  0.7556096344801375  0.2279609436186334
  0.6769513805642120  0.8264658135539023  0.3154994625589396
  0.6006370879285541  0.9194055042755522  0.4011628786062502
  0.5123602887996483  0.9869818658595051  0.4967305811955569
  0.4259711240310082  0.0833474501518410  0.5768222548549531
  0.3327404694118101  0.1701579037800656  0.6546477488412066
  0.3384711604930857  0.1757226834092549  0.8261128955885866
  0.2573281132622043  0.2422655293494742  0.9236974766243122
  0.1753581065691705  0.3216480889874518  0.9907181755973795
  0.1007592209102555  0.4012299483537092  0.0907543339926491
  0.0161492068248990  0.4911515074322708  0.1633583118556672
  0.9128946141013330  0.5695389774634378  0.2387893270998163
  0.8261797500599357  0.6567746014145257  0.3353529694118151
  0.7436885818748493  0.7450160752817041  0.4067627617278049
  0.6799271262886606  0.8565579831974759  0.5016420013186291
  0.5761537830656138  0.9136286686845665  0.5819858831814884
  0.5123283510149435  0.0040306276472464  0.6591904514305114
  0.4335452139774603  0.0840070456725002  0.7505312789698735
  0.4089548689363056  0.0794361538999411  0.8999233642012285
  0.3327910178414442  0.1616658724926054  0.0045225050946982
  0.2515114450971012  0.2476838487972515  0.0783418130144682
  0.1719216589746679  0.3249019225006009  0.1787873586470070
  0.0789788180292490  0.4105795822344760  0.2572064258171523
  0.9940324677335539  0.4781466140214192  0.3383303424438608
  0.8943298674378681  0.5694646382761945  0.4143735025573392
  0.8348449642371918  0.6573239995404805  0.5047745214976445
  0.7538743102173768  0.7582886647886227  0.5665502317589741
  0.6696957019699497  0.8465921107048686  0.6553251418524724
  0.5897372882202490  0.9194353502357515  0.7509491209142496
  0.4906121183968679  0.9962611309238412  0.8380130734036584
  0.5011846794333863  0.9807140508870802  0.9952947005114652
  0.4083302555342456  0.0768441945376779  0.0700904114720657
  0.3378001558379253  0.1665478122752333  0.1769445361823685
  0.2526206100655344  0.2612696670462711  0.2760167680612184
  0.1618859640973369  0.3426127402501393  0.3367357767921391
  0.0771716345001181  0.4209684842763508  0.4179034758850761
  0.9960266992328002  0.5047829502317569  0.5123219821385732
  0.9090794443778449  0.5896459112522976  0.5755073813234262
  0.8382401632302390  0.6680457843842404  0.6712144879325521
  0.7457660413170331  0.7493007527171756  0.7463353427435493
  0.6660044303923911  0.8406881213537929  0.8335453603252603
  0.5947097598497564  0.9023384455166621  0.9166276142811469
  0.5905554198633425  0.9285904808998637  0.0871105829936880
  0.5001926416526814  0.0049041661671865  0.1645071830296487
  0.4286185512067462  0.0891018765483906  0.2444014075361594
  0.3369237957524192  0.1755974301726226  0.3466302710181424
  0.2558451720210968  0.2607446845280919  0.4172515408974675
  0.1763054078758088  0.3267620000199827  0.5025409569048165
  0.0781342019299913  0.4089777491408952  0.5771523046032101
  0.9909391118237068  0.4833898165907442  0.6616790737632883
  0.9259542555742044  0.5879638950491497  0.7554203153720138
  0.8363365130264526  0.6670621968153156  0.8295685921641507
  0.7575485240350019  0.7453744440781591  0.9351552035882662
  0.6765362572924190  0.8294851419523681  0.0019906352393519
  0.6767097633461177  0.8393998911132456  0.1636524030008815
  0.5911326015943388  0.9229386662870596  0.2486313953488377
  0.5093128586270268  0.0105685437145340  0.3378793065212164
  0.4242146822304775  0.0938000754215622  0.4207896747382733
  0.3323804298529538  0.1715123651402521  0.4927309053584281
  0.2508418344921282  0.2452938254215624  0.5757553514345091
  0.1708842433868796  0.3436753910932637  0.6698149254775032
  0.0829852628266607  0.4022958817829476  0.7396445441740624
  0.9980307525173799  0.4858563598857160  0.8203468702549372
  0.9209525893071202  0.5595305157636048  0.9135114016422889
  0.8335701705226555  0.6452144849356642  0.0099458852793077
  0.7543256962758704  0.7559980475305679  0.0909087284224412
  0.3349165802565324  0.3206485290298104  0.6675661392152179
  0.2511006797930122  0.3993044463757727  0.7491174738272193
  0.1645224191840455  0.4824513311156409  0.8202540727643282
  0.0860922655438330  0.5757443328937910  0.9161665652721140
  0.0137041626708196  0.6607036766762562  0.9989010673899159
  0.9004912745744420  0.7635339966434884  0.0782355999760256
  0.8361074587429087  0.8346738062415113  0.1687756483257417
  0.7476487238272185  0.9336351094861328  0.2603532196515630
  0.6584869230999786  0.0096680212578946  0.3277011887636831
  0.5810316405937854  0.0791335471110060  0.4364603876967976
  0.5184264150283724  0.1735696325821152  0.4996162675817146
  0.4198539234196446  0.2575853657196490  0.5674175402581341
  0.4053356049708299  0.2472104810996569  0.7375929733077626
  0.3256170647526559  0.3380567120195010  0.8270106823903163
  0.2419374660353242  0.4182846954167658  0.9089880963797654
  0.1752293274994017  0.4948823303764058  0.9945096984136512
  0.0864612977503398  0.5776398350715226  0.0868042375929008
  0.0006858007672008  0.6678492682610084  0.1570231614121340
  0.9050764644769416  0.7434356554183665  0.2438937919563671
  0.8254135559018607  0.8348946480660118  0.3335743301965977
  0.7488774599416601  0.9235252946935191  0.4075418739510894
  0.6631370739430977  0.0017662196315840  0.5184244176056936
  0.5772751838088368  0.0788297235874680  0.5962707713977480
  0.5066599096939157  0.1753024489530901  0.6597242762526960
  0.5017585291297024  0.1845402091824511  0.8328461530008795
  0.4010707918764496  0.2502275188803651  0.9187383636018538
  0.3279240819547695  0.3374636363182262  0.9871245849316708
  0.2380755314472935  0.4059147711380149  0.0813329347478629
  0.1739707878806058  0.4836768405857939  0.1863879085750852
  0.0826594027211698  0.5807307939742685  0.2492252372532562
  0.0036102643251041  0.6443929438384117  0.3380372122992057
  0.9033455965795554  0.7444785338248252  0.4167492702589328
  0.8350147092024329  0.8389974131902846  0.4805021053104781
  0.7769175472508607  0.9097409029609196  0.5829065127267654
  0.6775114166267073  0.9952188284184444  0.6581158595061112
  0.5795938463997459  0.0753498796251932  0.7513533764884528
  0.5922441880444325  0.0811214147286847  0.9208844751458471
  0.4994712638855603  0.1760751493446833  0.9858543045232935
  0.4059797280827908  0.2470737827659235  0.0774472543554694
  0.3317128671181990  0.3320611214337106  0.1667113397067084
  0.2572632811875621  0.3903737263246256  0.2562958128546313
  0.1755354621193987  0.4984707788899527  0.3270846035123469
  0.0918845795372789  0.5606667690601768  0.4157984381243480
  0.0042208443219067  0.6618063274194839  0.4818902066850441
  0.9101422270838313  0.7494366074282723  0.5819622542555720
  0.8266361104451363  0.8318438958483156  0.6799173554503284
  0.7605084592024269  0.9235096779349448  0.7639956884839734
  0.6759045542635675  0.0049359880724040  0.8343425737233261
  0.6641472094022234  0.0053215455925866  0.9970294783425260
  0.5811364850555449  0.0840661821705453  0.0788881473267793
  0.4870198009070563  0.1810260329257574  0.1448835366219114
  0.4183537396108079  0.2598063439023406  0.2566551171781342
  0.3422322864221243  0.3527104291536816  0.3514234705905892
  0.2353347593502733  0.4291658425237728  0.4182447085031598
  0.1628732298409687  0.4891540697674444  0.5042635314273127
  0.0847971045113098  0.5800547185926632  0.5760802865020409
  0.0044998032046664  0.6597058274394598  0.6649935037560937
  0.9241656462279195  0.7560598377687171  0.7623177205706071
  0.8418974461559969  0.8361034269359848  0.8509557120594593
  0.7689886163390085  0.9271323253816064  0.9118800537441061
  0.7601922170942217  0.9260876937984506  0.0861741528810072
  0.6610452759130538  0.0119234720890304  0.1722174238791681
  0.5723923624430611  0.0971123756293437  0.2452685252337545
  0.5001539014425020  0.1646827149764221  0.3301884754854925
  0.4280242732558150  0.2493558009669954  0.4196936845680526
  0.3440566530807985  0.3389048289778600  0.4896440431950779
  0.2577463213258184  0.4203217883401251  0.5967855525253754
  0.1635387701790165  0.4963607747942120  0.6719097758331358
  0.0939287361144423  0.5720636607927787  0.7503730275513476
  0.0071160702869051  0.6707166581755004  0.8353738726724202
  0.9240314168265016  0.7508341969351875  0.9249803419443765
  0.8382211145408789  0.8403793689562846  0.9946171481659078
  0.4279024134899672  0.4162556061695852  0.5870499120914232
  0.3238736803724152  0.4981524334691940  0.6771420138056428
  0.2373582214496892  0.5888317549748265  0.7576513565891503
  0.1629610709861709  0.6605669683529101  0.8364853017861407
  0.0824668269999194  0.7411212623871180  0.9214440177215693
  0.0111470970190979  0.8317592923359740  0.0016814512906578
  0.9346125279709128  0.9033308329337473  0.0840511977543343
  0.8541653155718052  0.9888081769959243  0.1745942160153433
  0.7585132532166554  0.0902968322944133  0.2493594626588376
  0.6640577094821367  0.1757168704547283  0.3344540797570517
  0.5927075811156399  0.2512946985135471  0.4193964806601116
  0.5080915278110751  0.3236994146088037  0.4939061266283034
  0.5117383621034151  0.3312891982338400  0.6705604076760139
  0.4058635214377020  0.4093607408295341  0.7525475010988600
  0.3276468043235070  0.5011420432749958  0.8354074437584913
  0.2429888805642122  0.5859713562894626  0.9108673349716270
  0.1583069677535391  0.6572467044273935  0.0045584307320397
  0.0947572784304356  0.7440648845200997  0.0885860729840999
  0.0042910987572924  0.8376235335251323  0.1725228172700426
  0.9163020573603475  0.9031556036721824  0.2641294483736942
  0.8445216055302467  0.0135254824982027  0.3321808354311528
  0.7496981159594043  0.0778155283505129  0.4018416821505610
  0.6810575801166792  0.1593732797890226  0.5070103931910808
  0.5941332943738544  0.2537847573523564  0.5861804148685366
  0.5981762536961526  0.2474149999001014  0.7591551851074883
  0.5013272012107421  0.3130314452968932  0.8470496538599832
  0.4095828648205853  0.4221944093143151  0.9177849241788536
  0.3210477513386110  0.5049812305202579  0.9901534209422209
  0.2452888925517485  0.5646470760409201  0.1040073383680991
  0.1650660692879384  0.6510446490649713  0.1855892411891631
  0.0848019694517674  0.7477781347398675  0.2691195052145758
  0.9931930811955567  0.8089347493606667  0.3359068508750909
  0.9220010414169266  0.9268481903820032  0.4073815601774129
  0.8189312215296098  0.0010770079117748  0.4819374390633726
  0.7487087813673767  0.0708531402341563  0.5799902301606323
  0.6677064522896217  0.1493616498841206  0.6744875684288374
  0.6863294603612218  0.1549944912291252  0.8376032890793610
  0.5978447274834195  0.2394770064133311  0.9277887961520008
  0.5016742303004875  0.3395719886318247  0.9935472328778090
  0.4162546446695430  0.4226095695476673  0.0829892971309860
  0.3317735495085117  0.4950990849516472  0.1733597613481948
  0.2599424448573515  0.5755073688364121  0.2511296441700637
  0.1744615389994379  0.6521317110205374  0.3416535148445590
  0.0929951310636952  0.7260320491688645  0.4090536072484596
  0.0052920747422647  0.8310097388715718  0.4913439597818297
  0.9127814522896216  0.9145533370294885  0.5718023975065947
  0.8374805307480244  0.9999802630264512  0.6559742777511417
  0.7544825096899217  0.0795732757931731  0.7485844801406571
  0.7639439732677999  0.0755229456365356  0.9166999021018114
  0.6826797335770820  0.1654762007512218  0.0088039948453584
  0.5795353936905627  0.2625880259530078  0.0800410627946917
  0.5026804263565907  0.3428099491528798  0.1566663749700297
  0.4145833378286596  0.4159725675297707  0.2438355730040769
  0.3380660752817093  0.4887479835970581  0.3431153080795966
  0.2549655867897371  0.5819007522176918  0.4199729291536798
  0.1718556671062075  0.6699441700631326  0.5016103557300440
  0.0873211754775056  0.7496159913689766  0.5773011722808263
  0.0072449042995260  0.8278743921321805  0.6594898925117860
  0.9217531282466211  0.9093376563374065  0.7453638975465537
  0.8644571121034090  0.0211123251818108  0.8465525908055653
  0.8556608991648673  0.9997758850795151  0.0169932190521891
  0.7580139784624009  0.0680665063334160  0.0953725655318465
  0.6566621713418073  0.1626432904779023  0.1630409918684563
  0.5753031971749394  0.2543479626188798  0.2506248661392121
  0.5165798094981255  0.3403183024654339  0.3595239051386585
  0.4261935352233692  0.4224071675457495  0.4284486129425389
  0.3276569557660025  0.5077738342124221  0.5078416456884867
  0.2390906687045486  0.5696018066211153  0.5807348397666416
  0.1547158954687120  0.6770380219571663  0.6590171251898056
  0.0822150793175069  0.7411645478702127  0.7343810397186914
  0.0153489915487910  0.8406851899025014  0.8429849586430080
  0.9132656387357159  0.9209188793654590  0.9296766437904580
 
  0.00000000E+00  0.00000000E+00  0.00000000E+00
  0.00000000E+00  0.00000000E+00  0.00000000E+00
  0.00000000E+00  0.00000000E+00  0.00000000E+00
  0.00000000E+00  0.00000000E+00  0.00000000E+00
  0.00000000E+00  0.00000000E+00  0.00000000E+00
  0.00000000E+00  0.00000000E+00  0.00000000E+00
  0.00000000E+00  0.00000000E+00  0.00000000E+00
  0.00000000E+00  0.00000000E+00  0.00000000E+00
  0.00000000E+00  0.00000000E+00  0.00000000E+00
  0.00000000E+00  0.00000000E+00  0.00000000E+00
  0.00000000E+00  0.00000000E+00  0.00000000E+00
  0.00000000E+00  0.00000000E+00  0.00000000E+00
  0.00000000E+00  0.00000000E+00  0.00000000E+00
  0.00000000E+00  0.00000000E+00  0.00000000E+00
  0.00000000E+00  0.00000000E+00  0.00000000E+00
  0.00000000E+00  0.00000000E+00  0.00000000E+00
  0.00000000E+00  0.00000000E+00  0.00000000E+00
  0.00000000E+00  0.00000000E+00  0.00000000E+00
  0.00000000E+00  0.00000000E+00  0.00000000E+00
  0.00000000E+00  0.00000000E+00  0.00000000E+00
  0.00000000E+00  0.00000000E+00  0.00000000E+00
  0.00000000E+00  0.00000000E+00  0.00000000E+00
  0.00000000E+00  0.00000000E+00  0.00000000E+00
  0.00000000E+00  0.00000000E+00  0.00000000E+00
  0.00000000E+00  0.00000000E+00  0.00000000E+00
  0.00000000E+00  0.00000000E+00  0.00000000E+00
  0.00000000E+00  0.00000000E+00  0.00000000E+00
  0.00000000E+00  0.00000000E+00  0.00000000E+00
  0.00000000E+00  0.00000000E+00  0.00000000E+00
  0.00000000E+00  0.00000000E+00  0.00000000E+00
  0.00000000E+00  0.00000000E+00  0.00000000E+00
  0.00000000E+00  0.00000000E+00  0.00000000E+00
  0.00000000E+00  0.00000000E+00  0.00000000E+00
  0.00000000E+00  0.00000000E+00  0.00000000E+00
  0.00000000E+00  0.00000000E+00  0.00000000E+00
  0.00000000E+00  0.00000000E+00  0.00000000E+00
  0.00000000E+00  0.00000000E+00  0.00000000E+00
  0.00000000E+00  0.00000000E+00  0.00000000E+00
  0.00000000E+00  0.00000000E+00  0.00000000E+00
  0.00000000E+00  0.00000000E+00  0.00000000E+00
  0.00000000E+00  0.00000000E+00  0.00000000E+00
  0.00000000E+00  0.00000000E+00  0.00000000E+00
  0.00000000E+00  0.00000000E+00  0.00000000E+00
  0.00000000E+00  0.00000000E+00  0.00000000E+00
  0.00000000E+00  0.00000000E+00  0.00000000E+00
  0.00000000E+00  0.00000000E+00  0.00000000E+00
  0.00000000E+00  0.00000000E+00  0.00000000E+00
  0.00000000E+00  0.00000000E+00  0.00000000E+00
  0.00000000E+00  0.00000000E+00  0.00000000E+00
  0.00000000E+00  0.00000000E+00  0.00000000E+00
  0.00000000E+00  0.00000000E+00  0.00000000E+00
  0.00000000E+00  0.00000000E+00  0.00000000E+00
  0.00000000E+00  0.00000000E+00  0.00000000E+00
  0.00000000E+00  0.00000000E+00  0.00000000E+00
  0.00000000E+00  0.00000000E+00  0.00000000E+00
  0.00000000E+00  0.00000000E+00  0.00000000E+00
  0.00000000E+00  0.00000000E+00  0.00000000E+00
  0.00000000E+00  0.00000000E+00  0.00000000E+00
  0.00000000E+00  0.00000000E+00  0.00000000E+00
  0.00000000E+00  0.00000000E+00  0.00000000E+00
  0.00000000E+00  0.00000000E+00  0.00000000E+00
  0.00000000E+00  0.00000000E+00  0.00000000E+00
  0.00000000E+00  0.00000000E+00  0.00000000E+00
  0.00000000E+00  0.00000000E+00  0.00000000E+00
  0.00000000E+00  0.00000000E+00  0.00000000E+00
  0.00000000E+00  0.00000000E+00  0.00000000E+00
  0.00000000E+00  0.00000000E+00  0.00000000E+00
  0.00000000E+00  0.00000000E+00  0.00000000E+00