Li 
 1.0000000000000000
    20.0207999999999977    0.0000000000000000    0.0000000000000000
     0.0000000000000000   20.0207999999999977    0.0000000000000000
     0.0000000000000000    0.0000000000000000   20.0207999999999977
 Li 
 432
Cartesian
  0.0147672800000000  0.2186307300000000  0.1168309400000000
 18.2080214600000012  1.9042190100000000  2.1220129999999999
 16.4638952699999983  3.7343651499999999  3.3805864900000002
 14.7180202900000001  4.9506153499999996  4.9575476700000003
 13.0601469899999998  6.7792461599999996  6.7947747800000000
 11.7168149800000005  8.6603386100000002  8.6806367499999997
  9.7693622799999993 10.4492265000000000 10.2478095899999992
  8.1967093799999997 11.9741866399999992 11.8181385700000003
  6.4260024700000002 13.2576563600000004 13.1911297699999999
  4.8121992999999996 14.7832406600000006 14.6966998499999999
  3.2587504799999998 16.6236173600000008 16.4134775300000015
  1.7460256199999999 18.7382838900000017 18.3651127699999996
  1.5430831700000001 18.6656269100000003  1.6271026900000001
 -0.0715673300000000  0.0780460200000000  3.7429833900000000
 18.2613738199999993  1.8127673000000000  5.1232637700000003
 16.4538238800000016  3.5710794500000000  6.7228591299999998
 14.6176902200000001  5.1331834599999997  8.6254780499999999
 13.1315232500000008  6.9270909999999999 10.1727972100000006
 11.1491566700000000  8.3454364099999996 11.4984959000000000
 10.0085196199999995 10.1917507799999996 13.4394623099999997
  8.1876053800000008 11.8416681700000002 14.8974609000000004
  6.4587068399999996 13.1737383700000006 16.3648938500000014
  4.7199347300000003 15.1369647000000001 18.4341704899999996
  3.4400185300000001 16.8729270599999985  0.0635710800000000
  3.1924050300000002 16.8383078399999988  3.4180668399999998
  1.8106859799999999 18.3185435299999995  5.2396377999999997
 -0.3926500400000000  0.2412846100000000  6.6166372600000001
 17.9379069999999992  1.8792211599999999  8.6868780000000001
 16.0288709099999984  3.7856202200000002  9.9108868300000008
 14.4258935699999995  5.0664546699999997 11.6192730799999993
 13.1112547700000004  6.7472250899999997 13.4010493299999993
 11.6704498000000001  8.5253281399999992 14.9726236799999999
  9.9294500499999998 10.1062172799999992 16.4030318500000014
  8.3941621699999995 11.6684743799999993 18.1643671200000014
  6.3442206199999998 13.2085364399999996 19.9380650099999990
  4.9554481900000003 14.9468247499999993  1.6818913099999999
  5.1288970400000000 15.0569847600000006  4.8700991399999998
  3.5581463900000001 16.7275440300000007  6.7275271800000001
  1.7422684600000000 18.2284466000000016  8.1145699800000006
 -0.1520169700000000 -0.0224025800000000  9.8046517499999997
 18.1168565000000008  2.1115920500000001 11.1489077400000003
 16.5417153399999997  3.7211512800000000 13.1699880000000000
 14.9394618300000008  5.3734585600000004 14.8784217400000003
 13.0003860200000005  6.8050924600000000 16.7560186199999990
 11.3580774400000006  8.3475280800000000 18.3141778200000012
  9.8357841799999992 10.3911105999999993  0.0598219500000000
  8.1930588100000001 11.6861588699999999  1.6200631900000000
  6.5848249399999998 13.0818216199999995  3.2176250899999999
  6.4719282400000004 13.2971618899999999  6.5673976999999999
  5.0874997100000003 15.2169291700000002  8.4262840800000003
  3.3401459299999998 16.7199565300000010  9.9290753299999999
  1.5325814900000001 18.4271935199999994 11.4336742099999995
 -0.1434611500000000  0.2086165800000000 12.8969424099999994
 18.5225289900000014  1.8940050399999999 14.5486370199999993
 16.8391020100000013  3.3518355400000002 16.8316909999999993
 14.7985168599999994  4.9606620699999997 18.5327930899999984
 13.0515688200000000  7.0347822899999999 -0.0535831800000000
 11.3834973500000007  8.5427082199999997  1.6694272600000000
  9.8181779400000000 10.1972416100000007  3.4809932799999999
  8.1900262500000007 11.5905469399999994  5.4339955000000000
  8.3334001799999999 11.7405506099999997  8.3807084799999991
  6.8373660200000002 13.4985229300000000 10.1278950800000000
  5.0261709400000001 15.0753148100000001 11.7394746600000008
  3.1173965799999999 16.6202206399999994 13.2778695100000004
  1.5802929800000001 18.6915840499999995 14.8326133099999993
 -0.0381527800000000  0.3462267900000000 16.6277415300000015
 18.4143376500000002  1.8112548500000001 18.5324881599999998
 16.5402211299999991  3.4428554500000002 20.1088046399999989
 14.9651634700000002  5.3468371899999996  1.7365256700000000
 13.0547150399999996  6.9197493899999998  3.2501815800000000
 11.5040892100000001  8.5714184600000003  4.9431413099999997
 10.1506279399999997  9.9779637300000008  6.8589820799999996
  1.7602625599999999  1.7636211799999999 18.3975101499999987
  0.0207628300000000  3.4856511499999998  0.2538459100000000
 18.1768790899999999  5.0729785300000003  1.8579018800000000
 16.5240244599999997  6.7289954200000004  3.4319481600000001
 14.9532707400000007  8.1856039700000007  4.8494754200000001
 13.1380065599999991  9.9261965399999994  6.5334187400000001
 11.9664586100000001 11.6869025799999999  8.6833142799999994
  9.7612845700000008 13.5479735399999992  9.6922272700000001
  8.0329450900000001 15.2582658799999997 11.9206461299999997
  6.7153419200000002 16.8331856500000008 13.2282232900000007
  4.9131935000000002 18.1517942400000010 14.7805486300000002
  3.4685535199999999  0.4514367100000000 16.6995182000000000
  3.4014351899999999  0.2677540700000000  0.0441798100000000
  1.5839686700000000  1.8311219700000001  2.0031753399999999
 -0.0905027700000000  3.5955279299999998  3.3358125400000000
 18.0987929899999997  4.8227278599999996  5.0757576499999999
 16.3514197800000005  6.6518749000000001  7.0496484500000003
 14.5996954599999995  8.2213297900000004  8.4715364999999991
 13.3405148199999992 10.0605249899999993 10.3040396500000000
 11.3988163999999994 12.0122194100000002 11.6446489999999994
  9.7309463600000008 13.6840185600000002 13.1382530600000003
  8.1825054700000006 14.9835912100000002 14.8706561599999993
  6.7693409300000003 16.6666404700000008 16.3156376999999999
  5.0380368200000003 18.3834448299999984 18.4364111699999995
  5.2114124600000000 18.2955831999999994  1.8915994300000001
  3.1673064700000002 -0.0330948600000000  3.5740764299999999
  1.5928279299999999  1.9057146500000000  5.0485327699999996
 -0.2200989500000000  3.4410257799999999  6.9110560599999999
 18.1757943900000001  4.8902025399999998  8.4044401099999995
 16.3498956299999989  6.9344052100000004  9.8317427500000001
 14.8990913599999999  8.2913041399999994 11.7476885600000003
 13.0192417299999992 10.0481190399999996 13.2011271000000008
 11.5242827299999995 11.9924267899999997 14.6837230499999993
  9.8940205900000002 13.6249054800000007 16.7604448599999998
  8.0957325600000001 15.0153970999999995 18.3117978100000016
  6.7432150399999999 16.5887488500000018 20.3415687799999994
  7.1057825599999997 16.7841711400000015  3.4068911499999999
  5.1510398200000003 18.5002860399999989  4.9931789200000001
  3.4027665699999998  0.1435341000000000  6.6041829800000000
  1.7816776500000000  1.5764399499999999  8.2241273899999996
 -0.1812403400000000  3.3297062600000000  9.6303783999999997
 18.0292700799999999  5.1107046499999997 11.2223026000000008
 16.5493384600000013  6.5088589900000002 13.1640266599999993
 14.8247065599999992  8.3803638100000004 14.9710702900000001
 13.0251460199999993 10.4284203499999997 16.4610538800000015
 11.5017852999999999 11.5403139600000006 18.2753164400000010
 10.0556235600000008 13.3196054600000000 19.9846579700000007
  8.6475345400000005 14.6906454800000006  1.6713850900000000
  8.4076283000000007 14.7201184099999995  4.9522190300000002
  6.4269259800000000 16.6129149200000015  6.3510164900000001
  5.0906234499999998 18.2922665600000016  7.7986792500000002
  3.6351453700000000  0.0267206400000000 10.0695393200000005
  1.5798351900000001  1.5917813999999999 11.5732508400000000
 -0.1534133600000000  3.5105360299999999 13.3677954299999993
 18.2044589799999983  5.1297452200000002 15.1875260599999997
 16.4388740999999996  6.6517570499999996 17.0181715800000006
 14.6349385900000009  8.7437830000000005 18.1580095600000000
 13.0862242000000002 10.1392551999999991 19.7926094699999986
 11.4010655500000002 11.7188346899999996  1.9019451999999999
  9.7073274499999993 12.9840495899999997  3.3866222100000001
  9.9573175099999993 13.2529093699999994  6.6614066599999999
  8.1351361999999998 15.2095882299999996  8.3165223899999994
  6.6184398299999998 16.8147626199999998 10.0370290799999999
  5.1976241200000004 18.0869213299999991 11.9312300499999999
  3.4532934599999998 -0.0533576900000000 13.0418846599999991
  1.7131285900000000  1.8733068700000000 14.9454380199999992
 -0.1399863200000000  3.3228418099999999 16.8088652500000002
 18.1324021299999991  4.9507141800000003 18.7319806600000014
 16.4989503699999993  7.0316563199999997 19.9305351600000016
 14.7980414699999994  8.5846209499999997  1.6485490599999999
 13.5029236800000003  9.9878770600000006  3.3711535600000002
 11.7034171100000002 11.8872891500000009  5.0995961300000001
  3.2588566999999999  3.2830054199999998 16.9065497299999983
  1.7931423500000001  4.6702019400000001 18.5728420999999990
  0.3805829100000000  6.6014944699999996  0.1475315100000000
 18.5959805500000002  7.6965590099999996  1.7083843100000000
 16.9826085900000017  9.6571402299999995  3.0584509299999998
 14.9779516899999994 11.2750315699999994  4.7058781200000004
 13.3847587299999997 13.3057145499999994  6.5232802200000002
 11.8524466099999994 15.0217468800000002  8.1505945400000002
 10.0341366099999991 16.7920334999999987  9.7711211700000007
  8.3770580199999998 18.1936404699999983 11.7143503800000008
  6.6789906200000004 20.1060065299999984 13.2706488999999994
  5.1203227399999998  1.6482605400000001 14.8350992099999992
  4.9976758200000004  1.7546674099999999 18.2982355599999984
  3.4606006300000001  3.1413709800000000  0.2193514900000000
  2.0715035899999998  4.8975809400000001  1.5848654400000000
  0.2248170500000000  6.4075726800000004  3.5754215299999998
 18.5439117399999986  7.9863961600000000  5.1081053900000004
 16.6718409200000011  9.7309705700000002  6.6873225999999999
 14.9501022500000005 11.7303117599999993  8.0979782599999997
 13.4619143200000000 13.5741352600000003 10.1808013299999995
 11.4725251000000004 15.1998351799999991 11.5251287500000004
 10.1246087700000000 16.7729572699999991 13.2502898499999997
  8.2836278500000002 18.3501848999999986 14.9194525900000006
  6.7791383900000000 19.7808282099999992 16.7585980700000015
  6.4392761900000002 -0.0700297300000000 -0.0905534700000000
  4.8233964900000004  1.5327115499999999  1.7612639600000000
  3.7888019200000000  3.2996342900000002  3.3443128700000000
  1.7493921200000000  4.6258682200000001  5.0282533000000003
  0.0164569200000000  6.3159604099999997  6.6009972799999996
 18.6541921200000012  8.1739106300000000  8.6063257300000000
 16.5853666299999993  9.8384459599999996  9.9152875399999996
 15.2843705700000001 11.5291014500000006 12.0444624800000000
 13.6387200699999998 13.4920817000000000 13.0614059900000008
 11.9877026400000002 15.2527107599999994 14.8254637700000007
  9.8349688400000002 16.7809084400000010 16.5779654200000017
  8.4887568200000008 18.0450160400000001 18.3991101400000012
  8.5316065699999992 18.5455543700000014  1.8273762700000000
  6.6114844000000002  0.1144497500000000  3.4025344799999999
  5.0156293500000002  1.6823407699999999  5.3900256899999999
  3.4795534400000001  3.5354286400000001  6.8887461900000000
  1.9693149299999999  4.9742901799999997  8.3295186900000004
  0.0304611600000000  6.4664182200000004  9.8269605099999993
 17.8981429600000013  8.3483823499999996 11.5749594899999995
 16.8516048400000003 10.0340030299999992 13.5982508899999992
 14.8313951199999998 11.9077817899999996 14.8708648700000001
 13.4449770100000006 13.5081942500000007 16.9379585500000012
 11.5201848800000004 15.3494174599999997 18.1357101100000015
  9.9302987399999996 16.4480041800000016 20.3738123999999985
 10.2791437600000002 16.8471220499999994  3.3395711399999999
  8.3759622000000000 18.4814239700000016  5.1114110999999998
  6.9224622199999999  0.3692139700000000  6.9217366399999998
  5.0260160100000002  1.6351606800000000  8.3730521600000003
  3.0849509899999998  3.4916404100000000  9.8352560699999998
  1.8019646700000000  4.9307251799999996 11.7379465399999994
 -0.0172577100000000  6.4385232500000003 13.0671390299999999
 18.1255085800000018  7.8679509500000000 15.0411867299999997
 16.7917186700000016 10.1651029200000007 16.7862991800000003
 15.2704704000000007 11.4477745199999994 18.3525817499999988
 13.3370440699999993 13.0583844300000003 20.0116209100000013
 11.9690103200000006 14.7087726199999995  1.8250163300000000
 11.4842203099999995 15.0583375400000001  4.7634921800000001
  9.8597564200000001 16.6090045900000014  6.8469085500000002
  8.2635984800000006 18.1219821900000007  8.1940303599999993
  6.8099036200000000 -0.3679255400000000  9.7625515899999993
  5.0605019000000002  1.8682267600000000 11.3049328700000000
  3.4972786700000000  3.0926883400000000 13.1936713099999992
  1.8115615199999999  4.8408851300000002 14.8737634900000000
  0.0097047200000000  6.0993238200000004 16.8732903000000007
 18.6966165800000006  8.0410653500000002 18.1879782200000015
 16.9616659200000015  9.8841814899999996 20.4393622099999988
 15.0163932199999994 11.3791413200000004  1.7115712199999999
 13.6648110200000001 13.1888567000000005  3.2047972100000002
  4.9722401899999999  4.9690983099999997 14.7345750199999994
  3.2485937699999998  6.3448317599999999 16.6730170700000002
  1.9574736800000001  8.1526700600000002 18.4286075099999991
  0.4625561100000000  9.7710008399999992  0.0919964400000000
 18.5920911699999998 11.6037632800000008  1.7238594300000001
 16.7086483900000005 13.1738493800000001  3.2135513900000001
 15.0487916199999994 15.1279093699999994  4.5639604599999997
 13.5531082000000005 16.5465067599999998  6.3165516400000001
 12.0252350099999994 18.4072337200000007  8.0316017599999991
 10.2578628700000003 -0.2606334600000000  9.9449436200000001
  8.5282826800000002  1.6686826299999999 11.5484430000000007
  6.6617303899999998  3.4066973599999999 13.1065716499999994
  6.7764634099999999  3.5181087000000000 16.5394410600000015
  5.1519146899999999  4.8503497099999997 18.4931624399999990
  3.5108095800000001  6.4396520600000002 -0.1858295500000000
  2.0172802100000000  8.0329445499999999  1.8169743700000001
  0.3233200400000000  9.8332461000000002  3.2705640900000001
 18.2768804899999999 11.4026259599999999  4.7807533600000003
 16.5407795399999991 13.1491529400000005  6.7140347299999998
 14.8892403600000005 14.9158178400000008  8.1437159000000001
 13.6126850099999999 17.1489760699999998 10.0432741799999992
 11.5350596599999999 18.2915768499999984 11.6518229699999996
 10.2572234499999997 20.1014963900000012 13.1975201900000005
  8.6799220199999993  1.6818882600000000 15.0262366299999996
  8.1876036400000007  1.5903753500000000 18.0171856900000016
  6.6627424099999999  3.2366801000000001  0.0905441700000000
  5.0354603400000002  4.9588288000000000  1.5684657700000000
  3.4420091500000001  6.5047964100000000  3.5794659499999999
  1.5812191200000001  8.2201316999999996  5.1494784100000004
 -0.1194747700000000  9.5728777300000001  6.7736441200000002
 17.9051994100000016 11.4011376299999991  8.2960890200000001
 16.7142640600000014 13.1601523300000007 10.1059897400000001
 15.0931667899999997 15.1815456999999991 11.3427888800000005
 13.4078437099999999 16.9494513299999987 13.1201336000000008
 11.8070123000000002 18.4078312599999983 15.0346021600000004
  9.8224470999999998 -0.0748551500000000 16.7776921399999992
 10.0341182300000007 -0.3861201300000000 -0.0942038600000000
  8.1750983799999997  1.5384822499999999  1.4032661099999999
  6.7630293600000000  3.3344204400000002  3.5425711700000000
  5.0576667100000003  5.2308277500000004  5.5260765100000002
  3.2410865100000001  6.8593811499999999  6.7417196400000003
  1.5450378600000001  8.4281258300000008  8.3667619099999992
 -0.0795486600000000 10.1061584900000003 10.2570959399999992
 18.2004977399999994 11.8051828600000004 11.5221181799999997
 16.7822386600000009 13.3748110400000009 13.4382510199999992
 14.9308327599999995 15.0016005099999994 14.9422306299999992
 13.3339414999999999 16.8312487399999995 16.6882449500000014
 11.9065651599999995 18.0655375499999984 18.3516181399999994
 11.8233919499999995 18.5911243000000006  1.7440235600000000
 10.0142568399999998  0.0981853300000000  3.2935654099999998
  8.5812862899999995  1.7838908499999999  4.8931117000000004
  6.7454839299999998  3.5156010300000000  6.9398153300000001
  5.1222250200000001  5.2203171800000003  8.3537096500000008
  3.5297753100000002  6.5420366500000000 10.0612719899999998
  1.5643092300000001  8.1880617200000003 11.5550508599999997
 -0.1814062300000000  9.6778508399999996 13.2473443999999994
 18.5383449599999999 11.7715075500000008 15.1241190499999991
 16.7441260599999993 13.3551188300000003 16.6086268699999984
 15.1667274899999995 14.9229926699999993 18.7225552999999998
 13.5447971000000003 16.6069561300000004  0.0398541100000000
 13.5482708299999999 16.8054573400000002  3.2764520300000002
 11.8349475900000005 18.4779704500000008  4.9777994400000001
 10.1968508799999995  0.2115907000000000  6.7646140199999998
  8.4931173100000006  1.8779525500000001  8.4245459199999999
  6.6545221100000003  3.4338147600000002  9.8648669099999999
  5.0220542000000004  4.9109786199999999 11.5270827400000009
  3.4212392600000001  6.8806562700000002 13.4102306599999999
  1.6614313500000000  8.0542853900000004 14.8082754899999998
 -0.0394259100000000  9.7272330100000008 16.4240006200000010
 18.4382075999999984 11.2022485500000002 18.2892290700000011
 16.6887416699999989 12.9177101600000004  0.1991245800000000
 15.1022038999999992 15.1356857100000006  1.8200654700000001
  6.7052978699999999  6.4196400699999998 13.3652081599999999
  5.0272364899999999  7.9943944599999996 14.9979311200000005
  3.2938704500000000  9.6590616100000002 16.4221427400000017
  1.7236360300000000 11.5268621400000004 18.3423875699999996
  0.2743683000000000 13.2278161700000005 -0.0220015100000000
 18.0285557099999991 15.2865614399999998  1.5663393000000001
 16.7395402100000013 16.7108373400000012  3.3790235000000002
 14.9685255700000006 18.6921217999999989  5.2124797400000000
 13.1834349900000003  0.1935615200000000  6.5608399600000000
 11.6327182699999998  1.5843169200000000  8.7382861300000005
 10.3793115700000005  3.4750028999999998 10.0027173699999992
  8.4058114300000000  5.1570650899999997 11.3601530900000007
  8.1151430799999993  4.9493516000000000 14.7672013999999994
  6.5191141300000002  6.7681658200000001 16.5574154699999987
  4.8437816199999997  8.3743942300000001 18.1986688799999996
  3.5082313200000002  9.9079401600000008 -0.1099202300000000
  1.7310243500000000 11.5648116099999996  1.7378902800000000
  0.0137302800000000 13.3708766299999997  3.1437293099999999
 18.1203548800000007 14.8841765699999993  4.8829488300000001
 16.5254397200000014 16.7152587699999984  6.6784249500000001
 14.9931258500000002 18.4897152200000008  8.1593143500000007
 13.2765347299999998  0.0353611300000000 10.3792715799999993
 11.5575109999999999  1.5782341300000000 11.9378178599999991
 10.1437367199999997  3.5096952699999999 13.2082077899999994
 10.0456071599999994  3.6946426200000002 16.6742462600000003
  8.0297581099999995  5.0097551100000004 18.3938770299999987
  6.5653024599999998  6.7562919700000004 -0.2577761100000000
  4.7664625999999997  8.1267384499999995  1.6283504200000001
  3.4830343500000001  9.6835972899999998  3.7316350400000000
  1.6549073700000001 11.6266950799999993  4.9896886299999998
  0.0722803800000000 12.9012622500000003  6.7677754200000004
 18.0857015200000006 14.9050558300000002  8.3436537899999994
 16.7176624899999986 16.7973994100000006  9.6200365500000000
 15.5545108299999999 18.2137406700000000 11.6702547100000000
 13.5643205699999996 -0.0957228800000000 13.1760059999999992
 11.6039324799999992  1.5085648700000001 15.0426956799999996
 11.8572024400000000  1.6241156200000000 18.4368438999999995
  9.9998142800000007  3.5251653500000000 -0.2832081400000000
  8.1280389399999997  4.9466147899999999  1.5505559900000001
  6.6411569699999999  6.6481292999999999  3.3376943899999998
  5.1506166999999996  7.8155942999999999  5.1312472099999997
  3.5143603799999998  9.9797837699999992  6.5484954300000000
  1.8396027900000000 11.2249972499999995  8.3246173700000003
  0.0845046800000000 13.2498921200000002  9.6478274499999994
 18.2217754999999997 15.0043204299999999 11.6513498999999996
 16.5499162400000017 16.6541802700000012 13.6124893900000004
 15.2259877600000006 18.4894025599999985 15.2958048800000004
 13.5321499000000003  0.0988224300000000 16.7042058000000004
 13.2967584500000005  0.1065416000000000 -0.0594722200000000
 11.6348173399999997  1.6830722199999999  1.5794038200000000
  9.7505260299999996  3.6242860000000001  2.9006843099999999
  8.3757765499999994  5.2015308500000002  5.1384407699999999
  6.8517641600000001  7.0615449600000000  7.0357790199999997
  4.7115901500000001  8.5922435000000004  8.3735936599999992
  3.2608523599999999  9.7932558000000007 10.0957593100000000
  1.6977058700000001 11.6131595099999991 11.5335882000000005
  0.0900896600000000 13.2078384300000007 13.3137019399999996
 18.5025355699999992 15.1369228000000007 15.2622106199999994
 16.8554603900000011 16.7394594900000016 17.0368141199999990
 15.3957672900000002 18.5619308600000004 18.2565681799999986
 15.2196563400000002 18.5410165000000013  1.7252754800000001
 13.2346552600000003  0.2387174500000000  3.4479305999999998
 11.4597530100000000  1.9442674499999999  4.9104720899999998
 10.0134812300000000  3.2970796999999998  6.6106374299999997
  8.5693883700000004  4.9923026200000002  8.4026033200000008
  6.8882894400000003  6.7851457999999996  9.8030654599999991
  5.1602875499999996  8.4151784599999999 11.9481241899999997
  3.2741770099999998  9.9375397999999997 13.4521712400000002
  1.8805284400000000 11.4531721399999995 15.0230683099999993
  0.1424694200000000 13.4282840700000001 16.7248532300000008
 18.4998481900000016 15.0323012899999995 18.5188464300000000
 16.7818572900000014 16.8250672700000017 -0.1077690000000000
  8.5669486399999997  8.3337702399999998 11.7532088800000007
  6.4842101799999998  9.9734102399999998 13.5569248299999998
  4.7521014800000003 11.7888827999999997 15.1687862800000008
  3.2626110100000001 13.2250791599999999 16.7471049299999990
  1.6510518500000000 14.8378405699999991 18.4480463899999982
  0.2231738000000000 16.6524864400000006  0.0336640000000000
 18.7116904999999996 18.0854059400000011  1.6827722199999999
 17.1010729499999989 19.7967307499999983  3.4955158800000001
 15.1860421399999996  1.8078148199999999  4.9923759299999997
 13.2949665899999996  3.5179923199999998  6.6960382400000000
 11.8664799399999996  5.0311209000000003  8.3966530600000002
 10.1723988599999995  6.4807212400000003  9.8883957799999997
 10.2454114000000001  6.6326747800000003 13.4251558099999997
  8.1257123900000003  8.1957295200000004 15.0666030099999997
  6.5597511400000004 10.0332646200000006 16.7255253500000016
  4.8648317800000003 11.7316153300000003 18.2362927399999997
  3.1694321400000001 13.1586048200000008  0.0912634300000000
  1.8971165200000000 14.8967742399999992  1.7735640500000001
  0.0859112300000000 16.7698932399999983  3.4540448200000000
 18.3451002299999999 18.0818977099999998  5.2880828600000003
 16.9079981600000018 20.2915909799999987  6.6505260699999997
 15.0095560399999997  1.5579291300000000  8.0451919499999995
 13.6353176000000005  3.1907805599999999 10.1507536799999993
 11.8950238600000002  5.0809738700000002 11.7358008500000004
 11.9759671399999998  4.9534462300000000 15.1988941299999993
 10.0369716300000000  6.2671399599999997 16.9586117099999996
  8.2001766200000006  8.4526698299999996 18.3747884100000007
  6.4276328200000004 10.1101282200000000 -0.1971363900000000
  4.9108798599999997 11.3046861799999991  2.0823101199999998
  3.3047547599999998 13.0344347099999993  3.7156450799999998
  1.6978032700000001 14.9711164799999992  5.3879877900000004
 -0.1362799600000000 16.1955208299999995  6.7251238799999999
 18.4591984499999988 18.5562422500000004  8.1561047400000000
 16.3956581999999997  0.0215625600000000  9.6487730799999998
 14.9897487700000003  1.4185365500000000 11.6118684000000005
 13.3680173399999997  2.9903397200000001 13.5037807099999991
 13.7408648600000003  3.1031137100000001 16.7694879300000004
 11.9693297199999993  4.7945212499999998 18.5750739299999985
 10.0439194300000008  6.7985028700000001 -0.1291895600000000
  8.3337509900000004  8.4609816700000007  1.6615121200000000
  6.6423718799999998  9.9122797600000006  3.4708011100000000
  5.2042557000000000 11.5221179300000003  5.0278163800000000
  3.4928595800000002 13.0561985600000003  6.8401766899999998
  1.8618369200000000 14.5357424500000008  8.1895804600000002
  0.1059515700000000 16.6374797799999996  9.8370991500000002
 18.2746148999999996 18.3100894499999995 11.4479414399999992
 16.7670302100000015 20.0204048499999985 13.1331298200000006
 15.1053434299999996  1.5931206400000000 14.9872601599999999
 15.2947694999999992  1.5120297899999999 18.3530653999999984
 13.6677944100000008  3.3129659199999999  0.1762630200000000
 11.6027622099999999  5.2572223500000002  1.6024861100000001
 10.0640642800000002  6.8633294300000003  3.1365861599999998
  8.3002900900000007  8.3281035800000005  4.8817832399999999
  6.7683532800000004  9.7851256299999996  6.8694429599999998
  5.1046150199999998 11.6501185799999991  8.4081940199999998
  3.4406879400000001 13.4128182400000000 10.0426406099999994
  1.7482397900000000 15.0079118400000002 11.5580313100000005
  0.1450487800000000 16.5747076299999989 13.2035152399999998
 18.4542350299999995 18.2056673499999988 14.9227815199999991
 17.3071229500000001 20.4434856399999987 16.9486601099999987
 17.1310157300000014 -0.0044869600000000  0.3402178400000000
 15.1760462599999997  1.3627459099999999  1.9094350600000001
 13.1469020000000008  3.2562487899999999  3.2642110899999999
 11.5180302500000007  5.0922496900000001  5.0177103199999999
 10.3423410499999999  6.8134446700000000  7.1979562000000001
  8.5327355300000001  8.4569294199999998  8.5778839900000001
  6.5599543799999998 10.1660383799999998 10.1673960200000000
  4.7867864600000001 11.4038838499999997 11.6267760800000008
  3.0975359999999998 13.5548428300000001 13.1940500600000004
  1.6460116600000001 14.8387071800000001 14.7028959199999996
  0.3072990900000000 16.8311900500000000 16.8772332600000006
 18.2843087000000004 18.4375326999999984 18.6128701499999991
