Li                                      
   1.00000000000000     
    21.6499999999999986    0.0000000000000006    0.0000000000000000
     0.0000000000000006   21.6499999999999986    0.0000000000000000
    -0.0000000000000006   -0.0000000000000006   21.6499999999999986
   Li
   500
Direct
  0.9970783602771363  0.0011106360277111  0.0151541413394938
  0.0115548064665134  0.0895690484988449  0.0729147321016157
  0.0010709413394920  0.2014013062355673  0.1591530979214753
  0.9830301025404182  0.2940304762124697  0.3229089002309493
  0.9830800018475756  0.3693983676674364  0.4074074401847554
  0.9841285247113163  0.4679261542725186  0.4869687542725174
  0.9969607755196321  0.5552260401847562  0.6049450443418039
  0.9993960083140863  0.6992704674364916  0.6910883662817540
  0.0081643408775989  0.8208093815242492  0.8224178849884538
  0.9905195616628149  0.9161304387990796  0.8817113256351021
  0.0885343921478068  0.9928299602771347  0.1269035672055452
  0.1145970692840663  0.1071364383371858  0.1865567829099319
  0.0898406743648934  0.1834266484988447  0.2853528752886803
  0.0829286863741316  0.2805298475750604  0.3909583242494250
  0.1008171681293319  0.3789511976905331  0.5082288124711312
  0.1046139057736752  0.4771509450346443  0.6105548374133960
  0.1068698577367186  0.6181272198614352  0.7218576281755205
  0.0757155630484974  0.6890022290993087  0.8130413926096978
  0.1016596628175535  0.8083721842956137  0.9252639819861415
  0.0980536531177805  0.9250099076212450  0.0165571796766741
  0.2207119773672090  0.0014411519630499  0.1886634166281738
  0.2015716591224006  0.0955616683602756  0.3091841944572735
  0.1923712655889176  0.2239308568129346  0.3896164618937661
  0.2129140725173215  0.3020830060046222  0.5086533870669712
  0.2164318586605063  0.3976895053117815  0.5952196568129295
  0.2016715210161664  0.4855600060046186  0.7253600683602741
  0.1838984189376447  0.6095221233256325  0.8369197981524223
  0.2013679792147798  0.6882450581986177  0.9406211334872978
  0.2238360577367189  0.8048491177829078  0.0214254997690517
  0.2067860147805973  0.9205652013856849  0.0860177667436517
  0.2996378808314120  0.0092842674364917  0.2939345838337175
  0.2904114799076183  0.1073383787528854  0.3938462886836049
  0.3095381127020786  0.1932836688221684  0.5125232337182482
  0.3354189191685890  0.2878046965357939  0.5981099547344115
  0.3516068521939957  0.4125830193995412  0.6987667233256332
  0.3284492364896039  0.5164421528868388  0.8163197796766752
  0.3412172859122435  0.5901871949191673  0.9445798623556598
  0.2920470254041589  0.6809391861431848  0.0370107145496519
  0.3094766683602757  0.8127250508083108  0.1111869667436522
  0.2908530508083160  0.8821573815242516  0.2002251598152398
  0.3667003944572755  0.9970522942263287  0.4269946175519621
  0.4038677478060038  0.0956755279445716  0.4908849976905287
  0.3941739861431870  0.1936348914549626  0.5811698702078516
  0.4230653852194024  0.2931920882217085  0.6987965815242489
  0.4483074369515023  0.4214073598152410  0.8043905025404143
  0.4168438979214812  0.5123884157043861  0.8933390655889113
  0.4133986323325658  0.5862492831408801  0.0559326240184745
  0.4041266993071559  0.6965797981524275  0.1110005427251721
  0.3937884540415695  0.8123080803695117  0.2221374443418043
  0.3728748979214771  0.9251360711316394  0.2906508720554299
  0.5049751367205531  0.9678190678983825  0.4951402859122425
  0.5047392272517328  0.1079887602771379  0.5810022572748252
  0.5051076771362588  0.2067364170900703  0.6852279870669733
  0.5210372286374110  0.2880644688221707  0.8060787990762108
  0.4990981976905289  0.4235756678983833  0.8859740448036959
  0.4877134129330258  0.4978475228637436  0.9910104018475749
  0.4878599602771345  0.6050984720554240  0.1298932198614295
  0.4914035256351070  0.7083039168591228  0.1982576905311788
  0.4603206314087771  0.8247097648960704  0.3029977884526573
  0.4796605556581994  0.9087254411085439  0.3785377034642039
  0.5931084545034651  0.9894757006928430  0.5830336309468791
  0.6193194877598174  0.0935931011547311  0.6962764004618904
  0.6020331935334866  0.1967465293302553  0.8045799699769063
  0.5973374748267872  0.3041084997690504  0.9188582914549670
  0.5957766678983845  0.4213175080831419  0.0041881990762107
  0.5797794147806030  0.5057668471131649  0.1039905163972321
  0.5799813445727509  0.6003243704387984  0.2155826618937624
  0.5966270891454997  0.7241283099307125  0.2676873635103902
  0.5965482424942294  0.8133526304849852  0.3738792332563534
  0.5964269464203227  0.8874105260969998  0.5142045016166250
  0.7163955907621258  0.0294445635103955  0.6979079699769031
  0.7166814725173225  0.0946526027713617  0.8051132762124737
  0.7069607976905345  0.2031501935334887  0.8891864692840628
  0.7056607501154701  0.3017309071593530  0.9935243487297925
  0.7229798946882227  0.4147664762124705  0.0892818563510360
  0.7206314078521956  0.4859062812933033  0.1855203759815254
  0.7136331704387970  0.6018233251732070  0.2973450771362565
  0.6954578766743680  0.7024446143187077  0.3801077450346426
  0.7003783533487322  0.7933375824480393  0.4793752600461900
  0.6984508494226347  0.9102517394919190  0.5981696096997666
  0.8181791233256348  0.9899193145496525  0.7753752046189391
  0.8232549200923813  0.0818983505773687  0.8812689006928380
  0.7941329288683576  0.2174545995381081  0.9783022512702075
  0.8056912203233253  0.2939632351039236  0.0736885884526544
  0.8134930909930702  0.3767133224018480  0.1943624078521964
  0.7880611048498878  0.4979923002309476  0.2965013884526542
  0.8157785949191663  0.5987646715935355  0.4094963316397227
  0.8010516461893786  0.6994567390300261  0.5170348281755182
  0.7884245113163999  0.7788032817551951  0.5754631436489603
  0.7925728304849855  0.8989171510392637  0.6740304092378722
  0.8974572831408807  0.9817889113164000  0.8586344147806031
  0.8969743810623569  0.0796779464203254  0.9810489168591232
  0.8970552757505743  0.1832530739030034  0.0883418605080806
  0.9167048369515030  0.2759443325635118  0.1899224877598158
  0.8710851810623552  0.3759782314087730  0.3154677519630482
  0.8765004032332584  0.4702092078521929  0.3949652438799092
  0.8923216960738998  0.5741653505773670  0.5001884392609668
  0.9037761418013872  0.6907609625866087  0.5822069727482670
  0.9001851681293331  0.8073640545034664  0.6617994933025386
  0.8888651390300240  0.8764992688221724  0.7604445399538093
  0.0973989575057743  0.0861906720554302  0.0007387297921468
  0.0885858836027680  0.2067616443418032  0.0822616036951516
  0.0946572461893780  0.2923029251732103  0.1942733113163939
  0.0707685182448046  0.3872245635103937  0.2956671099307187
  0.0999123219399536  0.4801527561200913  0.3980730960739010
  0.1014618230946880  0.5837588166281762  0.4886333898383342
  0.0972554254041569  0.6744639002309469  0.5928683958429559
  0.0905966272517347  0.8006401935334893  0.6861472831408761
  0.0854243551963023  0.8981008748267882  0.7747208586605083
  0.0884396438799087  0.9918941270207853  0.8840244401847599
  0.2091455145496539  0.1029805704388025  0.0988678060046198
  0.2010947154734382  0.1962112563510416  0.1854971154734386
  0.1860168669745974  0.2844828355658180  0.2577322812933005
  0.1961450503464235  0.3852301066974562  0.3841571792147818
  0.2088627006928405  0.5034596739030022  0.4916710157043909
  0.1826661224018480  0.5798242314087787  0.6214914203233235
  0.2137884064665130  0.6958405381062391  0.7353741136258662
  0.1890980392609691  0.7768220692840657  0.8070839191685906
  0.2095587034642037  0.8755279718244822  0.9006539030023077
  0.1857693196304879  0.0230097847575053  0.9864219330254045
  0.3020125953810648  0.0832344304849855  0.2071081404157056
  0.2979233108545003  0.1778874000000030  0.2784057662817574
  0.2725578669745943  0.2972194351039263  0.3756852143187075
  0.2966250304849893  0.4135990217090040  0.4891073824480401
  0.2939062988452648  0.5046173316397216  0.5982111939953825
  0.2826290041570445  0.6072242771362610  0.7265526568129346
  0.3301995071593566  0.6568263256351017  0.8162994665127030
  0.3028333367205533  0.7628664739030029  0.9077792928406438
  0.2947373635103929  0.9175708799076219  0.9677399205542727
  0.2828633866050794  0.0137196138568143  0.0795992240184731
  0.4167359131639756  0.0850462531177811  0.3178793108545008
  0.3965810083140866  0.1990360203233266  0.4114123288683587
  0.3934664655889151  0.3111878448036975  0.4826141838337179
  0.4218056720554273  0.3921235113163988  0.5741294651270223
  0.4180344863741325  0.5077624937644316  0.6903607080831407
  0.4172780660508053  0.5921123967667441  0.7913668175519604
  0.4281304346420356  0.6720480909930728  0.9242441556582008
  0.4083108069284052  0.8049565949191688  0.9799997177829098
  0.3920054637413415  0.9165599159353377  0.0820149390300244
  0.3767763224018452  0.0189124808314105  0.1720319764434208
  0.5004876826789868  0.0969916896073926  0.4027174729792122
  0.4772048036951517  0.1993846831408774  0.4730876415704373
  0.4954018872979233  0.3081254309468804  0.5824613039260953
  0.5067603501154707  0.3767199006928408  0.7165964157043874
  0.5371210568129356  0.5335171214780630  0.7697484905311782
  0.5146722600461899  0.6159423076212462  0.9161515127020792
  0.5310982272517322  0.6976575247113175  0.0304514041570414
  0.4615966198614316  0.8218869284064638  0.0807374785219395
  0.5009836591224044  0.9077466147805993  0.1888445801385714
  0.4759742443417991  0.0205644993071559  0.3014585159353373
  0.6053054563510400  0.0888896651270201  0.4971766789838341
  0.5835786032332564  0.2050733981524218  0.6120336424942252
  0.5939200221708987  0.3123778032332538  0.6863907935334908
  0.6121744900692860  0.4227195376443404  0.8071734646651265
  0.6092297182448050  0.5189537769053132  0.9075079334872953
  0.5998511745958410  0.6041249635103938  0.0136177154734440
  0.5943889755196281  0.7302040854503460  0.1186037154734407
  0.5879542836027696  0.8272275718244799  0.2019509247113191
  0.5986040073902998  0.8989467066974584  0.2882781085450361
  0.5802438558891438  0.9873077861431838  0.3827381385681292
  0.6799685584295645  0.0922089801385653  0.5857643847575034
  0.7129012106235564  0.2159851464203228  0.7118001464203232
  0.6824569732101651  0.3092355117782901  0.8242551450346411
  0.7092417579676678  0.4250489510392583  0.9248634152424913
  0.7015290558891465  0.5315269062355625  0.0370438461893769
  0.6777155551963077  0.6128470526558871  0.1253268545034629
  0.6879863750577400  0.7113468471131625  0.2129595681293281
  0.7360308637413411  0.7969055667436464  0.2905309889145471
  0.6948080314087761  0.9047113357967689  0.4118905247113176
  0.6875554882217116  0.9937826558891487  0.4803874240184740
  0.8039573478060049  0.1153250951501121  0.7208735297921507
  0.8124733030023066  0.2072280545034673  0.8055847939953793
  0.7916711722863710  0.3012654106235573  0.8925912642032330
  0.8052958448036946  0.4321408688221737  0.0204888240184786
  0.8138093418013881  0.5222258946882192  0.1059727090069273
  0.7965848942263278  0.6016948083140861  0.1964247755196311
  0.8365323376443428  0.7007056877598146  0.2909770143187060
  0.8187567404157079  0.8005119131639731  0.4077884655889150
  0.7977946249422629  0.9263153482678987  0.4896160706697472
  0.7880690794457266  0.0262954161662847  0.5985251108545029
  0.9350302314087742  0.1015441385681299  0.7834352018475741
  0.9052892692840615  0.1949957990762101  0.8891769108545020
  0.9045218849884549  0.3077292290993086  0.9945192752886811
  0.9039140337182445  0.3856065260969999  0.0978361136258670
  0.9013169247113169  0.4901498078521911  0.2279539926096987
  0.8972263247113190  0.5879421154734388  0.2924253796766720
  0.9101436836027688  0.6827878230946851  0.4205360207852209
  0.8938783237875256  0.8253537214780593  0.4829538526558892
  0.8856355653579655  0.8950480378752914  0.5838913150115488
  0.9005154595842981  0.9975453108545054  0.6872660193995372
  0.9918478323325601  0.0948282355658208  0.8979867667436494
  0.9708312752886812  0.1996937662817544  0.9809893829099323
  0.9907722762124678  0.3157993861431905  0.0847336646651300
  0.9598433214780613  0.3955814771362611  0.1970447792147780
  0.9871598230946859  0.4651323094688209  0.3172481593533476
  0.9833592387990748  0.5807276896073930  0.3884536946882235
  0.0074230069284056  0.6853075796766745  0.4953662808314121
  0.0200599842956137  0.8057628517321049  0.5935504170900714
  0.9966640064665100  0.8965262697459551  0.6761507039260977
  0.9958461316397234  0.0078263875288656  0.7982869334872973
  0.2003355612009230  0.1720423214780595  0.9840635570438820
  0.1969138046189371  0.3107127718244769  0.1076890198614322
  0.2001040420323292  0.3922810327944575  0.2004906009237857
  0.1740624572748288  0.4618805588914583  0.2723666092378778
  0.1798137219399507  0.5789603815242472  0.3932052642032318
  0.2258986886835999  0.6689873237875261  0.5088734254041540
  0.2076347473441089  0.7642624960739042  0.6091483551963037
  0.1953234217090056  0.8815648517321009  0.7244005468822152
  0.1851100739030045  0.0042699921478047  0.7923405635103933
  0.2056190429561227  0.1041882974595865  0.8830555228637422
  0.3030061501154719  0.2036050586605072  0.1018682868360301
  0.2827825847575056  0.2951905695150145  0.2107517584295593
  0.3124268840646636  0.3930155431870688  0.2994287006928431
  0.2612546351039242  0.4944511242494229  0.3880893967667447
  0.2797971422632770  0.6005316974595871  0.5246303625866062
  0.2801856161662784  0.6862450115473422  0.6377895357967702
  0.2923249907621255  0.7898137348729790  0.7329932387990752
  0.2976460840646666  0.8873058083140890  0.8194476364896062
  0.3137364909930724  0.0186877727482653  0.8759219436489616
  0.2969260110854535  0.1055900642032341  0.9690320785219413
  0.3925528849884543  0.1995325718244771  0.1926641870669741
  0.3930521935334852  0.2882115163972259  0.3010420064665098
  0.3734625454965368  0.3975157976905308  0.3834668558891465
  0.3752421011547327  0.4874793076212498  0.4833020877598173
  0.4266620124711338  0.5998992859122367  0.5993335422632811
  0.4053402785219404  0.6896828993071580  0.7237990494226310
  0.4334794438799108  0.7896675196304841  0.8073526041570460
  0.4059037819861402  0.9010462928406469  0.8870928392609727
  0.3951192789838345  0.0088327353348703  0.0040333094688236
  0.3760878429561174  0.0903194872979185  0.0743523071593515
  0.5010033348729763  0.1867560605080811  0.3245484595842925
  0.5007916240184755  0.3358498027713637  0.3779509371824474
  0.5145630766743636  0.4053931357967642  0.4719077454965372
  0.5014036868360279  0.5090566272517307  0.5742108258660537
  0.5287934757505752  0.6081852868360258  0.6911644535796739
  0.5244060655889129  0.6869151002309479  0.8011587473441111
  0.5163806332563539  0.7965268411085447  0.9180523648960772
  0.5032613676674345  0.9055307570438771  0.9792938715935335
  0.5330932882217070  0.0036902023094711  0.0954394203233235
  0.5009500378752918  0.0964583030023078  0.1809339621247119
  0.5939992642032337  0.2062882581986116  0.4196689829099327
  0.6139582286374150  0.3081667806004589  0.5090705773672042
  0.5870460812933018  0.3892580734411055  0.6053742133949171
  0.6093716096997710  0.5121671806004642  0.6902119325635070
  0.6237128743648981  0.6180965025404177  0.8009037187066994
  0.6248897866050811  0.7045191542725178  0.9025777173210159
  0.6120618013856785  0.7941278069284081  0.0019246327944558
  0.6156556106235556  0.8881519043879891  0.0792272332563542
  0.6049603053117778  0.9835027533487306  0.2272513635103905
  0.5980234591224018  0.0986722258660535  0.3118696988452641
  0.6965151796766733  0.2045908009237891  0.4907686448036941
  0.7054784642032317  0.3014415034642042  0.6017219736720563
  0.6732546189376478  0.4220387949191675  0.7113390595842972
  0.6829897242494241  0.5238285570438777  0.8176973556581970
  0.7162089986143201  0.6093028799076237  0.9137710397228602
  0.6972054789838324  0.7227348092378776  0.0018837260969988
  0.7429595667436502  0.8110152457274822  0.0996580203233250
  0.7107012369515004  0.8680022484988470  0.2010086780600489
  0.7030846494226353  0.0014930660508057  0.3041123145496556
  0.6972350725173229  0.0896450290993087  0.3914018475750609
  0.7929812503464220  0.1795194378752853  0.6101622235565856
  0.7761484027713621  0.3080731861431900  0.6975096240184726
  0.7843886951501133  0.3992053939953806  0.7938401949191700
  0.7816808794457302  0.5184132688221723  0.9087984688221695
  0.7912355053117750  0.6019506175519638  0.0102832087759808
  0.8190803856812963  0.7021393214780574  0.0889406272517306
  0.8354900138568127  0.7888203598152401  0.2112809399538094
  0.7768526023094680  0.9119701057736691  0.3178373436489608
  0.8065885145496523  0.0166097404157028  0.4086205519630468
  0.7956537191685911  0.1148614341801419  0.4910067792147785
  0.8987630249422622  0.2490116752886848  0.6944081912240208
  0.8975068346420301  0.3068285441108571  0.8061906267898351
  0.9183201621247079  0.3900575113163995  0.8968533579676645
  0.9035724041570461  0.5128092799076214  0.0153684974595834
  0.9197083196304874  0.6171471371824495  0.1106963390300209
  0.9268005441108542  0.6994717150115477  0.1919787011547314
  0.8961340180138535  0.8050943838337190  0.3476288374133958
  0.9040757182448047  0.9268030050808349  0.4195097690531213
  0.9002379030023064  0.0141021043879874  0.5090945251732109
  0.9098792688221735  0.1101468942263253  0.6054354517320988
  0.0161530577367230  0.2184895588914557  0.7888797764434159
  0.0073202720554306  0.2970829838337181  0.8892776891454943
  0.9759384133949212  0.3971282193995407  0.9862752979214804
  0.9716828581986121  0.5031234009237906  0.0919790314087763
  0.0180512263279411  0.6176809505773662  0.2269521006928414
  0.9963749662817563  0.7226997588914514  0.3031944609699764
  0.0200701976905293  0.7932271025404134  0.4359757699769062
  0.0032588678983814  0.9026466836027680  0.4974054434180104
  0.9938734655889121  0.9981959561200924  0.5954655764434165
  0.9807389806004636  0.1050383228637415  0.7250455524249446
  0.0942556069284066  0.1709642374133935  0.8864925630484990
  0.1018028087759788  0.2819436979214771  0.9929813057736752
  0.0742394263279422  0.3940887224018468  0.1002733625866057
  0.0730371907621219  0.4664635551963059  0.2085115782909952
  0.0831390489607386  0.5793387538106245  0.3302294152424921
  0.1119215579676691  0.6754519284064671  0.4108461528868332
  0.1318830341801416  0.7720853385681323  0.4838162632794436
  0.1011239131639741  0.8809832078521964  0.6069917575057744
  0.0749502969976916  0.0163706609699759  0.7010011501154736
  0.0978865154734407  0.0919800429561235  0.7963671066974598
  0.3178600152424949  0.2989322628175515  0.9875348521939955
  0.2978230563510422  0.3775265099307177  0.0813299662817570
  0.2835925588914563  0.4834835852193962  0.1980765131639757
  0.3051723436489624  0.6070486508083164  0.3040877598152392
  0.2814087399538110  0.6843906152424921  0.3931344692840639
  0.2912754886836026  0.7684355330254036  0.4944940106235549
  0.3114223099307125  0.8730333866050799  0.6351324868360280
  0.3103299330254075  0.9793011200923800  0.7141685219399534
  0.3177926314087784  0.0901795718244784  0.7620112050808316
  0.3173237921478034  0.2262515491916872  0.8857381953810659
  0.4003203127020782  0.3124975685912261  0.1375435949191655
  0.4007881912240165  0.3976949020785199  0.2038611085450341
  0.3862787519630473  0.5122608078521935  0.3010938997690502
  0.3878928401847546  0.5994653168591242  0.4216764794457291
  0.4145748013856831  0.6978326424942267  0.4900058609699798
  0.3891747782909931  0.7804328845265616  0.5876323616628198
  0.4243612563510410  0.8840534041570436  0.7219475371824515
  0.3995835704388000  0.9920331228637380  0.7943375103926087
  0.3910612129330246  0.0918685732101636  0.9009787459584260
  0.4065768415704412  0.2091246374133959  0.9897956092378735
  0.5111399066974585  0.2849138050808335  0.2188103870669735
  0.5004930457274810  0.4219795491916827  0.3183666046189373
  0.5115072549653590  0.4941196979214766  0.4110189990762123
  0.5111500489607366  0.5946285519630479  0.5061352697459611
  0.5061123907621266  0.7087529274826778  0.5905797515011528
  0.5279132180138575  0.8147309690531159  0.6774087515011544
  0.5291857602771373  0.8989351667436480  0.7946199875288684
  0.4946180157043898  0.9980609926097017  0.8834043561200957
  0.4754259672055454  0.1098340637413386  0.9889669473441103
  0.4839889662817569  0.1772209210161648  0.0852072258660499
  0.6112527501154759  0.3004929233256348  0.3031857154734396
  0.6462679635103896  0.3870602152424922  0.4190178877598143
  0.6205115672055399  0.5066020290993052  0.4922631496535814
  0.6323731173210163  0.6153430448036943  0.5772506083140883
  0.6075133588914525  0.7106998429561173  0.6974239903002299
  0.6117010027713619  0.8217277704387982  0.7862461464203250
  0.6071124286374143  0.9035665094688241  0.9078937926096984
  0.6182568124711310  0.0132681533487329  0.9868933381062348
  0.6245618189376430  0.1009128120092413  0.0874440147806013
  0.5734860882217063  0.2046172129330230  0.1980923127020802
  0.7170665265588880  0.2995672540415697  0.3956561237875320
  0.7064313976905296  0.4000740706697457  0.5338397732101612
  0.6934543043879913  0.4970278013856841  0.6051959842956123
  0.6599735759815246  0.6078885307159325  0.6935757441108521
  0.6859466106235601  0.7227413274826802  0.7879332563510388
  0.7091938623556615  0.8375808494226362  0.8912610374133934
  0.7252623214780627  0.8889725704387956  0.9997779210161681
  0.7063558572748292  0.9885720854503433  0.0912060351039230
  0.6922697330254053  0.1339653168591255  0.1943572531177864
  0.7034072558891467  0.2192871519630515  0.2884089233256333
  0.8132144198614313  0.2945609732101602  0.5257804937644366
  0.7984588997690523  0.4113263450346452  0.6211686849884543
  0.7832643547344134  0.5209114083140847  0.7240873782909958
  0.8092900665127019  0.6448165491916882  0.7795623030023080
  0.7615904521939925  0.7046717408776004  0.8888271200923796
  0.8289676628175542  0.8203706249422638  0.9988251939953798
  0.8287027025404186  0.9125875856812939  0.1172020351039293
  0.7993558979214797  0.0128411759815208  0.1732387436489589
  0.7805928161662834  0.0917737006928405  0.3133247321016199
  0.8087596041570464  0.1771608249422627  0.3969857205542695
  0.8920223801385703  0.3139630096997692  0.6252547344110866
  0.8736728628175499  0.3893151478060020  0.7287865685912251
  0.9066335967667456  0.4903053510392610  0.8120168669745951
  0.8490464018475734  0.6136780563510413  0.9055297131639719
  0.9070068041570423  0.6943787237875299  0.9898130549653601
  0.9165550729792145  0.7910965150115459  0.0950511325635119
  0.8988377274826789  0.9073911006928412  0.2250795413394897
  0.9219432886836003  0.0090622882217062  0.3086236540415683
  0.9163738739030052  0.0742959556582008  0.3946488073902970
  0.9161949870669730  0.1900369903002286  0.5059752808314073
  0.9954243454965379  0.3282403750577387  0.6988713815242491
  0.9887392448036962  0.3977767491916850  0.7992704235565853
  0.9818714997690563  0.5073243824480400  0.9194068073903026
  0.9964329085450316  0.6186897478060018  0.0174886110854473
  0.9925935916859103  0.7115165870669742  0.1070038946882192
  0.0005632526558870  0.8181364064665146  0.1976109357967673
  0.9810951653579707  0.8880802591224040  0.2973720018475774
  0.0130332267898368  0.9961691247113151  0.4075564609699782
  0.0230690665127042  0.1005363228637393  0.4888477334872974
  0.0050414840646624  0.1887133279445763  0.6119533695150139
  0.1150336133949210  0.3154242055427261  0.7922769745958433
  0.1019507912240201  0.4218846360277126  0.8829954018475732
  0.0623149833718273  0.4876023907621274  0.9857563912240153
  0.1052692152424939  0.5539821085450356  0.1154414771362582
  0.0862678452655885  0.6847559556581970  0.1905923048498863
  0.1119495496535805  0.7952315214780583  0.3079954438799106
  0.0971543538106232  0.8835238170900723  0.4061531648960752
  0.1061924937644321  0.9997012849884541  0.5014148272517289
  0.0929017625866067  0.0897686106235582  0.6058287399538074
  0.1084869709006924  0.1993052517320990  0.7017343967667458
  0.2181874013856842  0.2962694554272503  0.8722546775981499
  0.1853951390300210  0.4028725094688212  0.9949180854503439
  0.1889856831408778  0.4667045667436511  0.1014357944572737
  0.1990408660508081  0.5914882401847592  0.1945907875288668
  0.1934238046189378  0.6990643745958423  0.2950899057736720
  0.2033690420323353  0.8015054563510375  0.4046500702078504
  0.2051423145496543  0.8982693704387970  0.5193580822170887
  0.2058995829099288  0.9941110166281746  0.6325817648960737
  0.2264524572748243  0.0882454669745982  0.7068321515011533
  0.2090383371824487  0.2150137847575024  0.7486299505773673
  0.3995160896073884  0.3861143404157019  0.0046465108545064
  0.4104624531177805  0.4952997325635096  0.1101407778291019
  0.4068560295611974  0.5884849191685930  0.2121587224018455
  0.3859666170900695  0.6878439099307130  0.3069645524249438
  0.4071833154734392  0.7992640623556611  0.4139764965357955
  0.3952857759815274  0.8806892771362556  0.4887968078521965
  0.3899887635103951  0.9870081334873007  0.5881530452655923
  0.3941571889145479  0.1104315205542719  0.7000386891454937
  0.4132175131639713  0.2010245602771334  0.7964332974595862
  0.4018136355658228  0.3190510725173183  0.8836165136258671
  0.4975695450346436  0.3910900443418015  0.1024678618937642
  0.4968109773672040  0.4926828595842991  0.2265601745958463
  0.5001345884526529  0.6057673131639731  0.3118008993071584
  0.4988380609699803  0.6900032364896092  0.3752711644341815
  0.4994619154734394  0.7983847205542745  0.5096879256351059
  0.4693938420323320  0.9132702868360312  0.5896553270207860
  0.4857608665126989  0.9886794180138594  0.6945258069284037
  0.5047950318706711  0.1157303353348738  0.7782198614318716
  0.4787118748267929  0.2083968055427263  0.9110131210161683
  0.5070639006928417  0.3043639076212443  0.9966834757505794
  0.5966924937644364  0.3813683842956124  0.1972610443418006
  0.6153758489607384  0.5043894484988485  0.3107208406466526
  0.6196094909930707  0.5996560175519647  0.3787253524249437
  0.5899305875288690  0.7037306803695174  0.4636095999999981
  0.6076032096997679  0.8133982484988422  0.5875701177829100
  0.5951767270207853  0.9274983113163984  0.6805365866050792
  0.5726857921478086  0.0066661270207860  0.7996629127020753
  0.5769667912240166  0.1070780872979213  0.8888753801385718
  0.5987270438799044  0.2060224688221695  0.0064211394919198
  0.5933270780600495  0.3089209515011575  0.0893092133949196
  0.7095775348729774  0.3842693274826772  0.2865867025404185
  0.7329217856812917  0.4831503616628154  0.4067512674364906
  0.7096268545034619  0.5870367538106223  0.4828790323325620
  0.6513147357967668  0.7080762374133940  0.5923674711316380
  0.6961857842956150  0.8134021598152401  0.6934960688221707
  0.7077309861431900  0.9271103196304864  0.8007546267898391
  0.6883799436489610  0.9887400166281779  0.8825144521939947
  0.7050186448036939  0.0869046046189368  0.9725018993071615
  0.6906521542725201  0.2054485191685913  0.1057014327944543
  0.6814781288683633  0.2938659898383378  0.1898997755196277
  0.7922092383371790  0.3737930138568117  0.3986949893764447
  0.8044555265588897  0.4726394988452682  0.4873259745958407
  0.7638891926097031  0.5925134060046204  0.5946579284064697
  0.7647074411085484  0.6919268069284072  0.6920860198614349
  0.7978128064665100  0.7963868387990729  0.7916142115473406
  0.8116396568129360  0.9199867450346417  0.9014166152424963
  0.7960187612009264  0.9977551454965337  0.9896711182448072
  0.7680863233256332  0.1243663602771363  0.0960347076212500
  0.8012240397228609  0.2007203200923797  0.1861375034642023
  0.7926176993071579  0.2731628096997696  0.2983093076212455
  0.8951501648960729  0.3901200120092412  0.5038068554272499
  0.8722688535796763  0.4786096831408742  0.6128484480369494
  0.9148963870669746  0.6164907136258648  0.6786722383371853
  0.8821997653579672  0.7325738674364928  0.7914194170900686
  0.8864182960739058  0.8224241528868390  0.9099703999999988
  0.8982075838337167  0.9557877505773646  0.9979545307159370
  0.8879156812933005  0.0405731852194009  0.1305596868360297
  0.9007008207852181  0.1334433787528866  0.2121245889145484
  0.9077828281755203  0.2096848046189379  0.2932752974595871
  0.8902939136258681  0.2890230420323334  0.4192702013856788
  0.9833561588914534  0.4139162595842976  0.6118001394919190
  0.9853287593533508  0.5083983644341785  0.7133521145496502
  0.9721608290993089  0.6200228096997691  0.8276646129330274
  0.9765660157043854  0.7168168521939933  0.9089307376443401
  0.9900099367205542  0.8252262572748279  0.9860247533487296
  0.9991586106235530  0.9002152854503436  0.1275322240184735
  0.9997691648960725  0.0115631639722835  0.1960430272517328
  0.0227498438799074  0.0965605815242512  0.3057929819861442
  0.9991907916859120  0.2069980448036972  0.4074352101616654
  0.9929813681293282  0.2759228064665109  0.5227711801385695
  0.0799635806004630  0.4149168147806037  0.6839463930715937
  0.0751604831408770  0.5174362078521924  0.8220245491916884
  0.0777687528868327  0.6120662859122419  0.9185433653579693
  0.1033736655889115  0.7051964397228616  0.0305765376443432
  0.0935282586605055  0.8168861473441140  0.1066166618937672
  0.1130201588914517  0.9111613242494201  0.2130493210161646
  0.1171043205542759  0.0000285150115502  0.3114739551963055
  0.0959767667436466  0.0975712960739017  0.4330436558891435
  0.1081463210161644  0.1857244789838361  0.5211959958429588
  0.0872880891454955  0.2753882152424936  0.6282602905311805
  0.2082314836027734  0.3973254845265615  0.7906028332563508
  0.1827994374133937  0.5147247903002281  0.8941704891454947
  0.1907089030023101  0.5636545556581964  0.0059466577367218
  0.1979677066974617  0.6810779168591239  0.1167376078521940
  0.1958667325635091  0.8050886586605088  0.2222340055427239
  0.2052398424942297  0.9062772586605092  0.2967752041570435
  0.1879680138568105  0.9854085094688187  0.4079076411085438