Li 
 1.0000000000000000
    21.6499999999999986    0.0000000000000006    0.0000000000000000
     0.0000000000000006   21.6499999999999986    0.0000000000000000
    -0.0000000000000006   -0.0000000000000006   21.6499999999999986
 Li 
 500
Cartesian
 -0.0632535000000000  0.0240452700000000  0.3280871600000000
  0.2501615600000000  1.9391699000000000  1.5786039500000000
  0.0231858800000000  4.3603382799999997  3.4456645699999999
 -0.3673982800000000  6.3657598100000001  6.9909776900000002
 -0.3663179600000000  7.9974746600000000  8.8203710799999993
 -0.3436174400000000 10.1306012400000007 10.5428735299999996
 -0.0657992100000000 12.0206437699999995 13.0970602100000004
 -0.0130764200000000 15.1392056200000003 14.9620631300000007
  0.1767579800000000 17.7705231099999992 17.8053472100000008
 -0.2052514900000000 19.8342239999999990 19.0890501999999991
  1.9167695899999999 -0.1552313600000000  2.7474622300000000
  2.4810265500000002  2.3195038900000000  4.0389543500000000
  1.9450506000000001  3.9711869399999999  6.1778897500000003
  1.7954060599999999  6.0734712000000002  8.4642477199999995
  2.1826916900000000  8.2042934299999999 11.0031537900000007
  2.2648910600000001 10.3303179600000004 13.2185122300000000
  2.3137324200000000 13.3824543100000000 15.6282176499999998
  1.6392419400000000 14.9168982600000000 17.6023461499999989
  2.2009316999999999 17.5012577900000004 20.0319652099999992
  2.1228615899999999 20.0264644999999994 22.0084629400000011
  4.7784143099999996  0.0312009400000000  4.0845629700000003
  4.3640264200000001  2.0689101200000000  6.6938378099999998
  4.1648379000000002  4.8481030499999997  8.4351964000000006
  4.6095896700000001  6.5400970799999998 11.0123458299999992
  4.6857497400000003  8.6099777900000003 12.8865055700000006
  4.3661884300000002 10.5123741299999995 15.7040454799999996
  3.9814007700000000 13.1961539699999992 18.1193136300000006
  4.3596167499999998 14.9005055100000003 20.3644475400000005
  4.8460506499999996 17.4249833999999986  0.4638620700000000
  4.4769172199999998 19.9302366100000015  1.8622846500000001
  6.4871601200000004  0.2010043900000000  6.3636837399999999
  6.2874085400000004  2.3238759000000000  8.5267721499999993
  6.7015001400000003  4.1845914300000002 11.0961280099999993
  7.2618195999999999  6.2309716799999997 12.9490805200000008
  7.6122883500000000  8.9324223699999994 15.1282995600000003
  7.1109259700000003 11.1809726099999995 17.6733232300000012
  7.3873542399999996 12.7775527699999998 20.4501540199999994
  6.3228181000000001 14.7423333799999998  0.8012819700000000
  6.7001698699999999 17.5954973499999987  2.4071978299999999
  6.2969685499999999 19.0987073100000018  4.3348747100000002
  7.9390635400000003 -0.0638178300000000  9.2444334700000006
  8.7437367399999992  2.0713751800000000 10.6276601999999993
  8.5338668000000002  4.1921954000000001 12.5823276899999996
  9.1593655900000002  6.3476087100000003 15.1289459900000001
  9.7058560099999998  9.1234693399999998 17.4150543800000008
  9.0246703900000007 11.0932092000000004 19.3407907700000017
  8.9500803900000001 12.6922969800000001  1.2109413099999999
  8.7493430399999994 15.0809526300000005  2.4031617500000002
  8.5255200299999991 17.5864699400000006  4.8092756699999999
  8.0727415400000009 20.0291959400000010  6.2925913800000002
 10.9327117099999995 -0.6967171800000000 10.7197871899999999
 10.9276042699999998  2.3379566600000001 12.5786988700000002
 10.9355812100000005  4.4758434300000003 14.8351859200000007
 11.2804559999999992  6.2365957500000002 17.4516060000000017
 10.8054759800000006  9.1704132099999995 19.1813380699999989
 10.5589953899999998 10.7783988700000002 -0.1946248000000000
 10.5621681400000007 13.1003819200000002  2.8121882100000000
 10.6388863300000001 15.3347797999999997  4.2922789999999997
  9.9659416699999994 17.8549664099999994  6.5599021200000003
 10.3846510300000006 19.6739058000000000  8.1953412799999992
 12.8407980399999992 -0.2278510800000000 12.6226781100000007
 13.4082669100000000  2.0262906400000000 15.0743840700000007
 13.0340186399999993  4.2595623600000003 17.4191563500000015
 12.9323563299999993  6.5839490200000004 19.8932820100000001
 12.8985648600000005  9.1215240499999997  0.0906745100000000
 12.5522243299999996 10.9498522400000002  2.2513946800000002
 12.5565961099999992 12.9970226199999992  4.6673646299999998
 12.9169764800000006 15.6773779100000006  5.7954314199999999
 12.9152694500000003 17.6090844500000010  8.0944853999999999
 12.9126433899999995 19.2124378900000004 11.1325274600000004
 15.5099645400000004  0.6374748000000000 15.1097075499999995
 15.5161538799999992  2.0492288500000000 17.4307024300000002
 15.3057012700000001  4.3982016899999996 19.2508870600000002
 15.2775552399999999  6.5324741399999997 -0.1401978500000000
 15.6525147199999992  8.9796942099999999  1.9329521900000000
 15.6016699800000005 10.5198709899999994  4.0165161400000002
 15.4501581399999992 13.0294749900000006  6.4375209199999999
 15.0566630299999993 15.2079258999999993  8.2293326800000006
 15.1631913500000000 17.1757586599999996 10.3784743800000001
 15.1214608899999998 19.7069501600000017 12.9503720500000004
 17.7135780199999999 -0.2182468400000000 16.7868731800000006
 17.8234690200000010  1.7730992900000000 19.0794716999999991
 17.1929779099999998  4.7078920799999997 -0.4697562600000000
 17.4432149199999991  6.3643040400000004  1.5953579400000000
 17.6121254200000017  8.1558434299999991  4.2079461299999998
 17.0615229200000016 10.7815332999999995  6.4192550600000002
 17.6616065800000008 12.9632551399999993  8.8655955800000008
 17.3427681400000004 15.1432383999999995 11.1938040300000008
 17.0693906700000007 16.8610910499999989 12.4587770599999992
 17.1592017800000001 19.4615563199999997 14.5927583599999995
 19.4299501799999987 -0.3942700700000000 18.5894350800000012
 19.4194953499999983  1.7250275399999999 21.2397090499999983
 19.4212467199999992  3.9674290499999998  1.9126012800000001
 19.8466597200000017  5.9741948000000002  4.1118218600000001
 18.8589941699999990  8.1399287099999995  6.8298768299999999
 18.9762337300000006 10.1800293499999999  8.5509975300000001
 19.3187647200000008 12.4306798399999998 10.8290797100000002
 19.5667534699999983 14.9549748400000002 12.6047809599999994
 19.4890088900000009 17.4794317799999988 14.3279590300000006
 19.2439302599999991 18.9762091700000006 16.4636242899999985
  2.1086874299999998  1.8660280499999999  0.0159935000000000
  1.9178843800000001  4.4763896000000001  1.7809637199999999
  2.0493293800000001  6.3283583300000004  4.2060171899999999
  1.5321384199999999  8.3834117999999993  6.4011929299999997
  2.1631017699999999 10.3953071700000006  8.6182825300000001
  2.1966484700000000 12.6383783800000007 10.5789128899999998
  2.1055799600000000 14.6021434400000008 12.8356007699999992
  1.9614169800000001 17.3338601899999993 14.8550886799999997
  1.8494372900000000 19.4438839399999992 16.7727065899999985
  1.9147182899999999 21.4745078499999984 19.1391291300000006
  4.5280003899999999  2.2295293500000000  2.1404879999999999
  4.3537005899999999  4.2479737000000002  4.0160125500000001
  4.0272651699999997  6.1590533900000004  5.5799038899999998
  4.2465403400000001  8.3402318100000006  8.3170029299999992
  4.5218774699999997 10.8999019399999995 10.6446774899999994
  3.9547215499999999 12.5531946100000003 13.4552892499999999
  4.6285189999999998 15.0649476500000006 15.9208495600000006
  4.0939725500000002 16.8181978000000001 17.4733668500000014
  4.5369459299999999 18.9551805900000012 19.4991570000000003
  4.0219057700000000 22.1481618400000002 21.3560348500000003
  6.5385726899999996  1.8020254200000001  4.4838912400000002
  6.4500396799999997  3.8512622099999998  6.0274848399999996
  5.9008778199999998  6.4348007699999998  8.1335848899999998
  6.4219319099999996  8.9544188200000008 10.5891748299999993
  6.3630713700000001 10.9249652299999997 12.9512723500000000
  6.1189179400000002 13.1464055999999996 15.7298650200000001
  7.1488193300000002 14.2202899499999997 17.6728834500000005
  6.5563417399999997 16.5160591600000011 19.6534216899999983
  6.3810639199999999 19.8654095499999990 -0.6984307199999999
  6.1239923200000002 21.9470296400000002  1.7233232000000001
  9.0223325200000009  1.8412513800000001  6.8820870799999998
  8.5859788300000002  4.3091298399999998  8.9070769199999997
  8.5185489800000003  6.7372168400000003 10.4485970800000008
  9.1320928000000006  8.4894740199999994 12.4299029200000000
  9.0504466299999997 10.9930579900000005 14.9463093300000001
  9.0340701299999999 12.8192333900000008 17.1330916000000002
  9.2690239099999996 14.5498411700000005 20.0098859699999991
  8.8399289700000008 17.4273102800000004 -0.4330061100000000
  8.4869182900000002 19.8435221800000008  1.7756234300000000
  8.1572073799999991 22.0594552099999994  3.7244922900000001
 10.8355583299999996  2.0998700800000001  8.7188332899999992
 10.3314839999999997  4.3166783899999999 10.2423474399999996
 10.7254508600000005  6.6709155800000000 12.6102872300000008
 10.9713615799999999  8.1559858500000004 15.5143123999999997
 11.6286708799999996 11.5506456800000006 16.6650548200000017
 11.1426544300000003 13.3351509600000000 19.8346802500000017
 11.4982766200000004 15.1042854099999992  0.6592729000000001
  9.9935668199999999 17.7938520000000011  1.7479664100000001
 10.8462962199999993 19.6527142099999992  4.0884851600000003
 10.3048423899999992 22.0952214100000006  6.5265768700000004
 13.1048631300000000  1.9244612500000000 10.7638750999999999
 12.6344767600000001  4.4398390699999997 13.2505283600000006
 12.8583684799999993  6.7629794399999996 14.8603606799999994
 13.2535777100000001  9.1518779899999991 17.4753055099999983
 13.1898233999999999 11.2353492700000004 19.6475467600000009
 12.9867779300000006 13.0793054600000005  0.2948235400000000
 12.8685213199999993 15.8089184500000002  2.5677704399999999
 12.7292102400000005 17.9094769300000003  4.3722375199999997
 12.9597767600000005 19.4621962000000011  6.2412210500000000
 12.5622794800000008 21.3752135699999997  8.2862807000000007
 14.7213192900000003  1.9963244200000001 12.6817989299999994
 15.4343112100000006  4.6760784199999996 15.4104731699999995
 14.7751934699999996  6.6949488300000004 17.8451238900000000
 15.3550840599999994  9.2023097899999993 20.0232929400000010
 15.1881040600000006 11.5075575200000007  0.8019992700000000
 14.6725417700000005 13.2681386900000007  2.7133264000000001
 14.8949050199999995 15.4006592399999995  4.6105746500000002
 15.9350681999999999 17.2530055199999985  6.2899959100000000
 15.0425938800000001 19.5870004199999990  8.9174298600000004
 14.8855763200000002 21.5153944999999993 10.4003877300000003
 17.4056765800000015  2.4967883099999999 15.6069119199999999
 17.5900470099999993  4.4864873799999998 17.4409107900000002
 17.1396808800000002  6.5223961399999997 19.3246008700000012
 17.4346550399999991  9.3558498100000005  0.4435830400000000
 17.6189722499999988 11.3061906200000006  2.2943091500000001
 17.2460629599999997 13.0266926000000005  4.2525963899999999
 18.1109251100000002 15.1702781400000006  6.2996523599999996
 17.7260834299999992 17.3310829200000001  8.8286202800000009
 17.2722536300000016 20.0547272899999989 10.6001879300000006
 17.0616955700000013 22.2192957600000014 12.9580686499999995
 20.2434045100000013  2.1984306000000000 16.9613721200000001
 19.5995126800000001  4.2216590500000004 19.2506801199999984
 19.5828988099999997  6.6623378100000004 -0.1186576900000000
 19.5697388299999986  8.3483812900000007  2.1181518600000002
 19.5135114200000004 10.6117433400000003  4.9352039400000001
 19.4249499300000004 12.7289467999999992  6.3310094699999997
 19.7046107500000005 14.7823563700000005  9.1046048499999994
 19.3524657100000006 17.8689080699999998 10.4559509100000003
 19.1740099899999983 19.3777900199999991 12.6412469699999992
 19.4961596999999998 21.5968559800000008 14.8793093200000008
 21.4735055700000004  2.0530312999999998 19.4414134999999995
 21.0184971099999984  4.3233700400000004 21.2384201399999988
 21.4502197800000012  6.8370567099999997  1.8344838400000001
 20.7806079100000005  8.5643389800000005  4.2660194699999998
 21.3720101699999994 10.0701145000000007  6.8684226500000003
 21.2897275199999996 12.5727544800000004  8.4100224899999994
 21.8107080999999994 14.8369090999999997 10.7246799799999994
 22.0842986600000017 17.4447657400000011 12.8503665300000005
 21.5777757399999999 19.4097937400000013 14.6386627399999991
 21.5600687499999992 21.8194412900000003 17.2829121100000016
  4.3372649000000001  3.7247162600000001 -0.3450239900000000
  4.2631838699999998  6.7269315100000000  2.3314672800000000
  4.3322525100000000  8.4928843599999997  4.3406215100000001
  3.7684522000000000  9.9997141000000003  5.8967370900000002
  3.8929670800000000 12.5344922600000004  8.5128939700000004
  4.8907066099999996 14.4835755600000002 11.0171096599999991
  4.4952922800000001 16.5462830399999987 13.1880618900000002
  4.2287520799999996 19.0858790399999982 15.6832718399999997
  4.0076330999999996  0.0924453300000000 17.1541731999999989
  4.4516522800000002  2.2556766399999999 19.1181520700000007
  6.5600831499999996  4.4080495199999996  2.2054484099999998
  6.1222429600000003  6.3908758299999997  4.5627755700000003
  6.7640420399999996  8.5087865100000002  6.4826313700000000
  5.6561628500000003 10.7048668399999993  8.4021354400000003
  6.0576081300000002 13.0015112500000001 11.3582473499999992
  6.0660185899999997 14.8572044999999999 13.8081434499999993
  6.3288360499999996 17.0994673599999985 15.8693036200000002
  6.4440377199999999 19.2101707499999996 17.7410413300000016
  6.7923950299999998  0.4045902800000000 18.9637100799999985
  6.4284481400000004  2.2860248900000002 20.9795444999999994
  8.4987699600000006  4.3198801800000002  4.1711796500000000
  8.5095799900000006  6.2397793300000002  6.5175594400000003
  8.0854641100000002  8.6062170200000008  8.3020574299999996
  8.1239914899999999 10.5539270100000007 10.4634902000000007
  9.2372325699999998 12.9878195400000003 12.9755711900000001
  8.7756170299999994 14.9316347700000005 15.6702494199999993
  9.3848299599999994 17.0963017999999991 17.4791838800000008
  8.7878168799999994 19.5076522399999988 19.2055599699999995
  8.5543323900000008  0.1912287200000000  0.0873211500000000
  8.1423018000000003  1.9554168999999999  1.6097274500000001
 10.8467222000000003  4.0432687100000004  7.0264741500000003
 10.8421386599999998  7.2711482299999997  8.1826377899999994
 11.1402906099999992  8.7767613900000008 10.2168026899999997
 10.8553898199999992 11.0210759800000009 12.4316643800000008
 11.4483787499999998 13.1672114600000008 14.9637104200000000
 11.3533913200000001 14.8717119199999992 17.3450868800000002
 11.1796407099999993 17.2448061099999990 19.8758337000000012
 10.8956086100000000 19.6047408899999986 -0.4482876800000000
 11.5414696899999996  0.0798928800000000  2.0662634500000001
 10.8455683199999999  2.0883222600000000  3.9172202800000000
 12.8600840699999992  4.4661407899999999  9.0858334799999998
 13.2921956500000000  6.6718108000000003 11.0213780000000003
 12.7095476600000001  8.4274372900000003 13.1063517199999993
 13.1928953500000006 11.0884194600000008 14.9430883399999992
 13.5033837299999995 13.3817892799999996 17.3395655099999999
 13.5288638799999994 15.2528396900000001 19.5408075799999992
 13.2511379999999992 17.1928670200000013  0.0416683000000000
 13.3289439699999992 19.2284887299999987  1.7152696000000001
 13.0973906099999997 -0.3571653900000000  4.9199920199999996
 12.9472078899999996  2.1362536900000002  6.7519789799999996
 15.0795536400000003  4.4293908399999999 10.6251411600000001
 15.2736087499999993  6.5262085499999998 13.0272807299999993
 14.5759624999999993  9.1371399100000001 15.4004906399999992
 14.7867275300000003 11.3408882599999998 17.7031477499999994
 15.5059248200000006 13.1914073500000004 19.7831430099999999
 15.0944986199999995 15.6472086200000007  0.0407826700000000
 16.0850746200000003 17.5584800700000017  2.1575961399999999
 15.3866817800000000 18.7922486800000001  4.3518378799999997
 15.2217826600000006  0.0323248800000000  6.5840316100000003
 15.0951393199999995  1.9408148800000000  8.4738500000000005
 17.1680440700000005  3.8865958300000001 13.2100121399999999
 16.8036129199999991  6.6697844799999997 15.1010833600000005
 16.9820152499999999  8.6427967799999994 17.1866402200000010
 16.9233910399999985 11.2236472700000007 19.6754868499999986
 17.1302486899999984 13.0322308699999994  0.2226314700000000
 17.7330903500000012 15.2013163099999993  1.9255645800000001
 18.0883588000000017 17.0779607899999988  4.5742323499999999
 16.8188588400000008 19.7441527900000011  6.8811784899999999
 17.4626413400000011  0.3596008800000000  8.8466349500000003
 17.2259030200000005  2.4867500499999999 10.6302967699999993
 19.4582194900000012  5.3911027699999998 15.0339373399999996
 19.4310229700000008  6.6428379800000004 17.4540270699999986
 19.8816315099999983  8.4447451200000003 19.4168751999999998
 19.5623425500000003 11.1023209099999995  0.3327279700000000
 19.9116851200000013 13.3612355199999993  2.3965757399999998
 20.0652317800000013 15.1435626299999999  4.1563388799999998
 19.4013014900000016 17.4302934100000009  7.5261643300000003
 19.5732393000000009 20.0652850600000008  9.0823865000000001
 19.4901505999999998  0.3053105600000000 11.0218964699999997
 19.6988861700000015  2.3846802600000001 13.1076775300000001
  0.3497137000000000  4.7302989499999999 17.0792471600000013
  0.1584838900000000  6.4318466000000001 19.2528619700000014
 -0.5209333500000000  8.5978259500000007 -0.2971398000000000
 -0.6130661200000000 10.8926216300000007  1.9913460300000001
  0.3908090500000000 13.3727925800000005  4.9135129800000001
 -0.0784819800000000 15.6464497799999993  6.5641600799999997
  0.4345197800000000 17.1733667700000012  9.4388754200000005
  0.0705544900000000 19.5423006999999984 10.7688278499999992
 -0.1326394700000000 -0.0390575500000000 12.8918297299999995
 -0.4170010700000000  2.2740796900000002 15.6972362099999998
  2.0406338900000001  3.7013757400000000 19.1925639900000000
  2.2040308099999999  6.1040810600000004 21.4980452699999987
  1.6072835800000000  8.5320208399999995  2.1709182999999999
  1.5812551800000001 10.0989359699999994  4.5142756700000000
  1.7999604100000000 12.5426840199999994  7.1494668399999997
  2.4231017300000000 14.6235342500000005  8.8948192099999996
  2.8552676899999998 16.7156475799999988 10.4746220999999995
  2.1893327199999999 19.0732864500000012 13.1413715500000006
  1.6226739299999999  0.3544248100000000 15.1766749000000001
  2.1192430600000001  1.9913679300000000 17.2413478600000012
  6.8816693300000003  6.4718834899999997 -0.2698704500000000
  6.4478691699999997  8.1734489400000001  1.7607937700000000
  6.1397788999999996 10.4674196199999994  4.2883565099999998
  6.6069812399999996 13.1426032900000003  6.5834999999999999
  6.0924992199999997 14.8170568199999995  8.5113612599999993
  6.3061143299999998 16.6366292899999983 10.7057953300000008
  6.7422930100000000 18.9011728199999993 13.7506183400000008
  6.7186430499999998 -0.4481307500000000 15.4617485000000006
  6.8802104699999997  1.9523877300000001 16.4975425899999983
  6.8700600999999999  4.8983460399999998 19.1762319300000001
  8.6669347699999992  6.7655723600000002  2.9778188299999999
  8.6770643399999994  8.6100946300000007  4.4135929999999997
  8.3629349800000004 11.0904464899999997  6.5186829299999998
  8.3978799899999999 12.9784241100000006  9.1292957799999996
  8.9755444499999992 15.1080767100000006 10.6086268900000000
  8.4256339499999999 16.8963719499999989 12.7222406299999999
  9.1874211999999993 19.1397562000000008 15.6301641799999995
  8.6509842999999993 -0.1724828900000000 17.1974070999999995
  8.4664752599999993  1.9889546100000000 19.5061898499999984
  8.8023886200000003  4.5275483999999997 21.4290749399999996
 11.0661789800000001  6.1683838800000004  4.7372448800000004
 10.8356744400000000  9.1358572400000000  6.8926369899999997
 11.0741320699999992 10.6976914599999997  8.8985613299999997
 11.0663985599999997 12.8737081500000006 10.9578285900000001
 10.9573332600000004 15.3445008800000000 12.7860516200000003
 11.4293211699999997 17.6389254800000010 14.6658994699999994
 11.4568717099999997 19.4619463599999989 17.2035227299999995
 10.7084800399999995 -0.0419795100000000 19.1257043099999997
 10.2929721900000004  2.3779074800000002 -0.2388655900000000
 10.4783611200000006  3.8368329399999999  1.8447364399999999
 13.2336220400000002  6.5056717900000001  6.5639707400000002
 13.9917014099999992  8.3798536600000002  9.0717372699999999
 13.4340754300000000 10.9679339299999992 10.6574971900000008
 13.6908779900000006 13.3221769200000004 12.4974756700000000
 13.1526642200000001 15.3866516000000004 15.0992293899999996
 13.2433267099999998 17.7904062299999985 17.0222290700000016
 13.1439840799999992 19.5622149299999997 19.6559006099999998
 13.3852599899999998  0.2872555200000000 -0.2837592300000000
 13.5217633799999994  2.1847623800000000  1.8931629200000000
 12.4159738100000006  4.4299626600000002  4.2886985700000002
 15.5244903000000001  6.4856310500000003  8.5659550800000002
 15.2942397600000000  8.6616036300000001 11.5576310899999992
 15.0132856900000000 10.7606518999999992 13.1024930600000005
 14.2884279200000002 13.1607866900000001 15.0159148600000005
 14.8507441199999999 15.6473497399999992 17.0587550000000014
 15.3540471200000006 18.1336253899999988 19.2958014599999998
 15.7019292600000000 19.2462561500000007 -0.0048080100000000
 15.2926043099999998 -0.2474143500000000  1.9746106600000000
 14.9876397200000007  2.9003491100000001  4.2078345300000004
 15.2287670899999998  4.7475668400000002  6.2440531899999998
 17.6060921899999983  6.3772450699999998 11.3831476899999995
 17.2866351800000011  8.9052153700000005 13.4483020300000007
 16.9576732800000016 11.2777319899999995 15.6764917399999995
 17.5211299400000016 13.9602782899999998 16.8775238600000002
 16.4884332899999997 15.2561431899999995 19.2431071500000002
 17.9471498999999994 17.7610240300000015 -0.0254345500000000
 17.9414135100000003 19.7575212299999983  2.5374240600000002
 17.3060551899999986  0.2780114600000000  3.7506187999999998
 16.8998344699999983  1.9869006199999999  6.7834804499999999
 17.5096454299999991  3.8355318600000001  8.5947408500000009
 19.3122845299999994  6.7972991599999997 13.5367650000000008
 18.9150174799999995  8.4286729499999993 15.7782292099999992
 19.6286173700000006 10.6151108500000007 17.5801651700000008
 18.3818546000000005 13.2861299200000005 19.6047182900000010
 19.6366973099999989 15.0332993699999999 -0.2205473600000000
 19.8434173300000012 17.1272395499999988  2.0578570200000001
 19.4598368000000015 19.6450173300000017  4.8729720700000003
 19.9600721999999990  0.1961985400000000  6.6817021099999998
 19.8394943700000006  1.6085074399999999  8.5441466800000008
 19.8356214699999995  4.1143008400000003 10.9543648299999994
 -0.0990629200000000  7.1064041199999997 15.1305654100000009
 -0.2437953500000000  8.6118666200000007 17.3042046700000007
 -0.3924820300000000 10.9835728800000005 19.9051573799999986
 -0.0772275300000000 13.3946330400000004  0.3786284300000000
 -0.1603487400000000 15.4043341100000006  2.3166343199999999
  0.0121944200000000 17.7126531999999983  4.2782767599999998
 -0.4092896700000000 19.2269376100000002  6.4381038400000001
  0.2821693600000000 -0.0829384500000000  8.8235973800000007
  0.4994452900000000  2.1766113900000001 10.5835534300000003
  0.1091481300000000  4.0856435500000003 13.2487904499999996
  2.4904777299999998  6.8289340500000000 17.1527965000000009
  2.2072346299999999  9.1338023699999997 19.1168504500000012
  1.3491193900000000 10.5565917599999999 -0.3083741300000000
  2.2790785100000002 11.9937126500000009  2.4993079800000002
  1.8676988500000000 14.8249664400000007  4.1263234000000004
  2.4237077500000002 17.2167624400000001  6.6681013599999996
  2.1033917600000001 19.1282906399999995  8.7932160199999991
  2.2990674900000001 -0.0064671800000000 10.8556310099999997
  2.0113231599999999  1.9434904200000001 13.1161922200000003
  2.3487429199999998  4.3149587000000000 15.1925496899999999
  4.7237572400000003  6.4142337100000004 18.8843137699999986
  4.0138047600000002  8.7221898299999996 21.5399765499999987
  4.0915400399999999 10.1041538699999993  2.1960849499999999
  4.3092347499999999 12.8057204000000002  4.2128905500000000
  4.1876253700000001 15.1347437100000004  6.3886964600000002
  4.4029397599999998 17.3525931299999989  8.7606740199999997
  4.4413311100000001 19.4475318699999988 11.2441024800000005
  4.4577259700000003 -0.1274964900000000 13.6953952099999992
  4.9026956999999998  1.9105143600000001 15.3029160799999993
  4.5256800000000004  4.6550484399999998 16.2078384299999989
  8.6495233400000000  8.3593754699999998  0.1005969600000000
  8.8865121100000000 10.7232392099999991  2.3845478400000002
  8.8084330400000006 12.7406985000000006  4.5932363399999998
  8.3561772600000008 14.8918206499999997  6.6457825599999998
  8.8155187799999997 17.3040669499999993  8.9625911499999997
  8.5579370499999996 19.0669228500000010 10.5824508900000005
  8.4432567299999999 -0.2812739100000000 12.7335134300000004
  8.5335031400000005  2.3908424199999998 15.1558376199999998
  8.9461591600000006  4.3521817299999999 17.2427808899999988
  8.6992652100000001  6.9074557199999997 19.1302975199999992
 10.7723806500000006  8.4670994600000000  2.2184292100000000
 10.7559576600000000 10.6665839099999999  4.9050277800000002
 10.8279138400000008 13.1148623299999993  6.7504894699999998
 10.7998440200000001 14.9385700700000008  8.1246207100000003
 10.8133504699999996 17.2850292000000003 11.0347435899999997
 10.1623766799999995 19.7723017100000007 12.7660378300000001
 10.5167227600000004 -0.2450906000000000 15.0364837199999997
 10.9288124399999997  2.5055617600000000 16.8484599999999993
 10.3641120900000008  4.5117908399999997 19.7234340699999997
 10.9779334500000001  6.5894785999999996 21.5781972499999988
 12.9183924900000004  8.2566255200000001  4.2707016099999997
 13.3228871299999998 10.9200315600000000  6.7271061999999997
 13.4145454799999992 12.9825527800000007  8.1994038800000002
 12.7719972199999994 15.2357692300000007 10.0371478399999994
 13.1546094900000003 17.6100720799999984 12.7208930500000008
 12.8855761399999995 20.0803384399999985 14.7336171000000000
 12.3986473999999998  0.1443216500000000 17.3127020599999994
 12.4913310299999996  2.3182405899999998 19.2441519800000016
 12.9624404999999996  4.4603864499999997  0.1390176700000000
 12.8455312399999997  6.6881386000000003  1.9335444700000000
 15.3623536299999994  8.3194309400000002  6.2046021099999997
 15.8677566599999995 10.4602053300000009  8.8061649400000004
 15.3634214000000000 12.7093457200000000 10.4543310500000004
 14.1009640300000001 15.3298505400000007 12.8247557499999996
 15.0724222300000008 17.6101567599999989 15.0141898900000008
 15.3223758500000002 20.0719384199999986 17.3363376699999989
 14.9034257799999992 -0.2437786400000000 19.1064378899999987
 15.2636536599999992  1.8814846900000000 -0.5953338800000000
 14.9526191399999995  4.4479604400000001  2.2884360199999998
 14.7540014900000003  6.3621986799999997  4.1113301399999997
 17.1513300099999988  8.0926187499999997  8.6317465200000001
 17.4164621500000010 10.2326451499999997 10.5506073499999999
 16.5382010199999989 12.8279152399999994 12.8743441500000007
 16.5559161000000010 14.9802153699999998 14.9836623299999996
 17.2726472599999994 17.2417750599999984 17.1384476799999987
 17.5719985700000016 19.9177130300000016 19.5156697200000018
 17.2338061799999984 -0.0486011000000000 -0.2236202900000000
 16.6290689000000000  2.6925317000000000  2.0791514200000001
 17.3465004600000015  4.3455949299999999  4.0298769500000002
 17.1601731899999983  5.9139748299999999  6.4583965100000000
 19.3800010699999987  8.4460982599999994 10.9074184200000008
 18.8846206800000012 10.3618996400000007 13.2681688999999992
 19.8075067800000006 13.3470239500000005 14.6932539599999998
 19.0996249200000001 15.8602242300000000 17.1342303800000018
 19.1909561099999983 17.8054829099999985 19.7008591600000003
 19.4461941899999999 20.6928048000000011 -0.0442844100000000
 19.2233744999999985  0.8784094600000000  2.8266172200000002
 19.5001727699999989  2.8890491500000000  4.5924973500000004
 19.6534982300000003  4.5396760199999999  6.3494101900000004
 19.2748632300000011  6.2573488599999996  9.0771998600000003
 -0.3603391600000000  8.9612870200000003 13.2454730200000004
 -0.3176323600000000 11.0068245900000008 15.4440732799999996
 -0.6027180500000000 13.4234938300000000 17.9189388700000016
 -0.5073457600000000 15.5190848500000005 19.6783504700000016
 -0.2162848700000000 17.8661484699999988 -0.3025640900000000
 -0.0182160800000000 19.4896609299999994  2.7610726500000000
 -0.0049975800000000  0.2503425000000000  4.2443315400000001
  0.4925341200000000  2.0905365900000001  6.6204180600000004
 -0.0175193600000000  4.4815076700000001  8.8209722999999993
 -0.1519533800000000  5.9737287600000002 11.3179960499999996
  1.7312115200000000  8.9829490399999994 14.8074394100000006
  1.6272244600000001 11.2024939000000003 17.7968314899999989
  1.6836935000000000 13.2512350899999998 19.8864638599999992
  2.2380398600000002 15.2675029200000001  0.6619820400000000
  2.0248868000000000 17.6855850900000000  2.3082507300000001
  2.4468864400000001 19.7266426700000004  4.6125178000000000
  2.5353085399999999  0.0006173500000000  6.7434111300000001
  2.0778970000000001  2.1124185600000001  9.3753951499999992
  2.3413678500000001  4.0209349699999999 11.2838933099999998
  1.8897871300000000  5.9621548600000001 13.6018352900000004
  4.5082116200000000  8.6020967400000004 17.1165513400000009
  3.9576078200000002 11.1437917100000004 19.3587910900000004
  4.1288477500000003 12.2031211299999995  0.1287451400000000
  4.2860008499999998 14.7453368999999999  2.5273692099999998
  4.2405147599999999 17.4301694599999983  4.8113662200000000
  4.4434425900000001 19.6209026500000014  6.4251831700000004
  4.0695075000000003 -0.3159057700000000  8.8312004300000009