Li                                      
   1.00000000000000     
   -10.8535000000000021   18.7988134399488125    0.0000000000000014
   -18.6059999999999981  -10.7421791085421763    0.0000000000000014
     0.0000000000000001    0.0000000000000001   22.7650000000000006
   Li
   504
Direct
  0.9771264470315728  0.0201236707053027  0.9875556446299143
  0.9132522619139536  0.0439742505276186  0.6595592589501393
  0.8640998434207674  0.0829081623902326  0.3162722956292541
  0.7886073719354769  0.1004782289959323  0.0033819143421923
  0.7074445747517757  0.1602578473573928  0.6826494794640894
  0.6259099196829396  0.2151319631689361  0.3241327243575682
  0.5560664044643602  0.2528886960736330  0.9927070204260957
  0.4842393514247618  0.2931355003392113  0.6683564335602910
  0.4260643913390467  0.3334282467269531  0.3290910173511961
  0.3733884343742275  0.3826858737783141  0.9928764889084150
  0.2552481622316165  0.4136547275727764  0.6767397316055366
  0.2397154655973566  0.4496396213124285  0.3369043303316488
  0.0508448450531418  0.0254281793085980  0.6585010854381750
  0.9936665679803269  0.0826101561015520  0.3410023804085185
  0.9127483203462816  0.1267843961690645  0.9973575862068955
  0.8591875287312689  0.1505872985550454  0.6824439301559408
  0.7671200588375839  0.2104041078902696  0.3332849404788050
  0.7141348873992754  0.2189438218645563  0.0045072747638883
  0.6285720792426872  0.2820043522487055  0.6869495132879422
  0.5692592371975564  0.3380560985207097  0.3261461704370774
  0.5097434590281722  0.3865034251014592  0.9939099248846901
  0.4123570541356969  0.3923352253540884  0.6523563562486245
  0.3654869850526410  0.4559761839047169  0.3249754478365929
  0.2914389946533547  0.5171307965994743  0.9844592137052501
  0.1352924711987455  0.0927285409999143  0.3452190283329699
  0.0622600417315979  0.1160542629832335  0.0068522903580046
  0.9801759471857849  0.1563026516832764  0.6821568086975631
  0.9218294950450669  0.2023827585471594  0.3224677276520964
  0.8593598370520894  0.2491304126924234  0.0099162683944627
  0.7724324384238770  0.2789843722222116  0.6703478260487614
  0.7174064264632847  0.3263410222713503  0.3409979160992762
  0.6483255386028617  0.3531951180680366  0.0103737540083486
  0.5674217585857804  0.3961483017945397  0.6638167836591293
  0.4919180511149861  0.4581598743536262  0.3291929110476630
  0.4235257826183627  0.5061068847872505  0.9978212875027452
  0.3474065385975607  0.5411234367049005  0.6650685486492449
  0.2001301120051906  0.1235328275476562  0.0090039090709411
  0.1035667520996455  0.1750918852029741  0.6587369953876561
  0.0836821340517417  0.2009741668316352  0.3402170722600459
  0.0267169359410957  0.2596884948814022  0.0088880364594743
  0.9102194432610631  0.2944526879805451  0.6556957900285525
  0.8477671465953023  0.3473089167165355  0.3313445262464327
  0.7914677196873185  0.3644465416733169  0.0083708390072488
  0.7123923182911014  0.3897394025275460  0.6639940434878113
  0.6566583981086751  0.4629614568487312  0.3423898203382407
  0.5803440010216931  0.5037366610185501  0.0051306206896555
  0.5073294678643094  0.5229926798094553  0.6728202771798806
  0.4459645234068788  0.5855398148556077  0.3176029501427635
  0.2713226469579553  0.1701129346039849  0.6683510814847367
  0.2226857321941154  0.1993736851354981  0.3313880940039553
  0.1547689228088274  0.2450665111412675  0.0050519978036476
  0.0512552883621709  0.2979437599570645  0.6680219073138574
  0.9823770519497828  0.3317887545234370  0.3406343755765420
  0.9310228050205893  0.3751417518923503  0.0080570814847363
  0.8451658637430342  0.4062700541688145  0.6726877021743931
  0.7828966276860996  0.4771071208969602  0.3347015791785637
  0.7203904239721268  0.4806037194140842  0.0224879393806248
  0.6497136491551743  0.5357371788076080  0.6731944133538335
  0.5861510932758804  0.5808885708443654  0.3557558361519852
  0.5286370318982989  0.6242298561911070  0.9869726953656937
  0.3571601517233702  0.2088725246302445  0.3402399714473958
  0.2750167510277137  0.2469350388434250  0.9936432198550378
  0.1821266202483827  0.2896674850657917  0.6714710401932820
  0.1588235748703823  0.3377755804656744  0.3663087480781897
  0.0944367049188415  0.3809805102205388  0.0117784823193503
  0.9626606152835677  0.4095528959486074  0.6588419573907345
  0.9083506424784815  0.4706335236944952  0.3329246944871542
  0.9058709244752237  0.5073422584762000  0.0130488034263152
  0.7825852199449699  0.5313696143892983  0.6695945605095517
  0.7306086896939448  0.6105648815654519  0.3460031104766088
  0.6602105360431878  0.6047269825354888  0.9975007889303740
  0.5751583174000245  0.6805825003815329  0.6630161743905134
  0.4235987826911867  0.2573353628969812  0.9990394913244032
  0.3385975720958569  0.2946456149230130  0.6639702244673842
  0.2832304182366769  0.3315249938551119  0.3276807186470450
  0.2331947904956237  0.3707610663955592  0.0187396740610595
  0.1170777351735879  0.4226231135812881  0.6688009984625509
  0.0719696267880394  0.4531704050121448  0.3401247129365288
  0.0218446938193964  0.5074636829856587  0.0082535985064780
  0.9109076581623015  0.5420962346627647  0.6509708715132874
  0.8625190964721554  0.5854815218982878  0.3277898365912577
  0.8100496516266276  0.6036577274035508  0.0156064085218546
  0.6973150461376179  0.6770466073710253  0.6680535260267959
  0.6447868368564542  0.7191732428344864  0.3524733784318030
  0.1614711069099783  0.4829834070274401  0.0176770182297403
  0.0592494450860457  0.5325062677501151  0.6783057992532378
  0.9958738608305069  0.5681771982949684  0.3383803593235228
  0.9424162842127757  0.6418875555894132  0.9889675914781435
  0.8379693083825330  0.6701703354546993  0.6653462196354027
  0.7887684839694558  0.7204634896935147  0.3372580768723950
  0.7198742162016387  0.7555790672071083  0.0102079248846891
  0.2156836331994043  0.5618067648645777  0.6505352053591054
  0.1619699949996161  0.5855503837080320  0.3294168262683925
  0.0807176215319174  0.6271462466249247  0.9960845486492431
  0.9988162428999274  0.6542885014342517  0.6504593349439958
  0.9372085970868085  0.7260089477329004  0.3599622864045671
  0.8410469204268480  0.7444199338464585  0.9879817272128264
  0.7806258631827134  0.8040668910000193  0.6699949694706788
  0.3138782634858828  0.5706347907801756  0.3367265337140353
  0.1945752161337921  0.6150564249001320  0.9877305253678870
  0.1563933710971455  0.6640815708264611  0.6581184120360177
  0.0590380380522006  0.6941518399441264  0.3285976358444955
  0.0065891334137689  0.7485595872564588  0.9971456327696018
  0.9281975128561797  0.7772413460289940  0.6546387397320430
  0.8516345959988953  0.8213621612558271  0.3178502517021755
  0.3689009845124573  0.6287986866921429  0.9884960856578076
  0.2933290663081536  0.6804832343773271  0.6614015014276333
  0.2094213701103484  0.7079939051653952  0.3387377887107377
  0.1511773916189227  0.7382753369915136  0.9928271443004633
  0.0758007428248533  0.7876347338358798  0.6560489567318228
  0.9942610256831301  0.8509996193565570  0.3154764616736188
  0.9371266980728024  0.8775696561575188  0.9913167283110056
  0.4444290602338725  0.6639967830136371  0.6528941309027019
  0.3594906186812281  0.6953376636645814  0.3262064339995590
  0.2804589525455370  0.7622168885599834  0.0026836274983495
  0.2192640295888779  0.7981272532977073  0.6624114746321084
  0.1204855946367829  0.8256130591534827  0.3107790902701524
  0.0855412270931240  0.8748221338140780  0.9789094065451351
  0.9777980065996630  0.9083309037606497  0.6726647625741293
  0.9181143920423978  0.9612017373948092  0.3461380970788497
  0.8598453271734812  0.0058134473569069  0.0083510929057766
  0.7820926907830525  0.0468981248299585  0.6709193468043040
  0.7279978019336397  0.0892548982432118  0.3266035949923136
  0.6389184680075601  0.1096238986068983  0.0039470379969231
  0.5741525253838731  0.1807895010075313  0.6849640109817727
  0.5101102931143586  0.1884311380029757  0.3289970981770267
  0.0690096455449378  0.9580701129785041  0.3106208267076624
  0.1398547493273554  0.0003606029332204  0.9799292431363966
  0.2016970047487519  0.0532863656325588  0.6817878875466761
  0.3000167700171019  0.0845437335601105  0.3140065332747639
  0.3499547204861457  0.1273931619479569  0.0083123074895681
  0.4204177525420860  0.1604004978385731  0.6717759160992784
  0.8657172865454257  0.9232678603933806  0.6714720373380203
  0.7717737280348729  0.9605477675359282  0.3257050748956729
  0.7134719841214405  0.9967941648037169  0.0046580588622902
  0.6344839843171428  0.0254155361826207  0.6544129119262010
  0.5824923748678330  0.0615410028685375  0.3223601976718626
  0.4494804268012800  0.0989978027363350  0.9893147537887117
  0.1348721709889205  0.9201082872284090  0.6633628376894336
  0.2198629553118607  0.9580587807439898  0.3241078449374015
  0.2830325122910580  0.9958052594780753  0.9961736441906410
  0.3653176826807467  0.0317795625617805  0.6612632914561800
  0.4462221177350685  0.0731041854865353  0.3159180707226028
  0.7884384882058981  0.8892645758495803  0.0150124247748735
  0.7253127289150783  0.9105810113253909  0.6662197135954315
  0.6467795964385559  0.9575605718614497  0.3349083483417559
  0.5550425078752710  0.0022804224860664  0.9904679262025056
  0.4995991682034102  0.0552125711009523  0.6759556692290829
  0.2166873843395507  0.8619828509121064  0.0041640101032314
  0.2805287062366446  0.9051163450962392  0.6559142719086282
  0.3541180749440827  0.9438847234007497  0.3395426009224707
  0.4073002308320426  0.9818684910601121  0.9955240193279167
  0.7286644123351493  0.8406823482059806  0.3578510015374476
  0.6367652816045535  0.8811623468829950  0.9996788868877644
  0.5610307462936177  0.9292817260616033  0.6778298915001102
  0.4907331259261696  0.9518944591938236  0.3380490375576528
  0.2759338501163526  0.8382287819930170  0.3195410261366121
  0.3675232435174678  0.8683853448609682  0.0055615796178330
  0.4296344999366113  0.9125724355013460  0.6721622266637368
  0.6550018994406557  0.8152417244126013  0.6757458027674090
  0.5768665422019410  0.8193813143185622  0.3462497399516806
  0.5323483138221619  0.8652013090363937  0.0121529593674481
  0.3693370867653130  0.7764087385140641  0.6770253068306644
  0.4370117873879380  0.8241433830799210  0.3310880992752061
  0.6006939071012241  0.7376412554701091  0.9985943667911243
  0.5137084688860725  0.7866032732959809  0.6556297786075120
  0.4472062394740632  0.7660553461178239  0.9998011842741050
  0.5004186766948706  0.6829749076906495  0.3320515097737768
  0.9903306423018776  0.9838727589904650  0.7671077364375165
  0.9153527632916081  0.0381903973779743  0.4451553125411820
  0.8558338495985112  0.0946312739644526  0.1012619139029241
  0.7947530821527735  0.1207615819012631  0.7921352448934798
  0.7151099302436066  0.1815782727131534  0.4273973217658664
  0.6497223195684327  0.2071991521317855  0.1221872730068085
  0.5776943973849100  0.2494183111890180  0.7861522222710278
  0.5126405407975483  0.3009111238554141  0.4439093916099282
  0.4341100852903068  0.3401574642213063  0.1199500105424960
  0.3514047123206296  0.3672111402143372  0.7750253441686823
  0.2794706415562089  0.4136836499983687  0.4465996542938697
  0.2364429137858437  0.4774923591973206  0.1134349984625516
  0.0727981444248442  0.0599653514718312  0.4227356441906451
  0.9907629326196670  0.0861193491783538  0.1170976990994959
  0.9275797302319972  0.1023140340711066  0.7870048548209994
  0.8585117503068247  0.1806789609827391  0.4377876213485621
  0.7802798897278294  0.2169886448908400  0.1262430968592128
  0.7012146473583272  0.2580624693591531  0.7757503017790484
  0.6404062917920399  0.2862116200169353  0.4307418844717787
  0.5768827493136897  0.3249380415093981  0.1161216200307464
  0.4994619928123427  0.3720022299801826  0.7786157816824044
  0.4450648973776055  0.4400768900522536  0.4523798475730274
  0.3582913019514820  0.4727249314344633  0.0968305266857001
  0.3126344271298436  0.5034754490565518  0.7647131908631692
  0.1275297527074173  0.0856623744485674  0.0925205565561171
  0.0669591257772240  0.1184925200675480  0.7842385025258096
  0.0009162179357034  0.1602921271974012  0.4411241866900966
  0.9386456345856899  0.2264516357639579  0.1027593287941997
  0.8609405869952127  0.2431921997768214  0.7939267406105870
  0.7801938112089388  0.3064716693563199  0.4475245244893458
  0.7238513928986023  0.3487605620324103  0.1271331570393173
  0.6395777709106838  0.3687070468354747  0.7787651469360881
  0.5868924080558457  0.3998048994499541  0.4577067985943302
  0.5011895852956769  0.4537363036651314  0.0964403615198748
  0.4543429458189436  0.5125799235490760  0.7710103544915441
  0.3820514543272537  0.5511869644447529  0.4504040109817709
  0.1966515482928557  0.1386077921425084  0.7969152466505633
  0.1437855507714119  0.1914276585350194  0.4353990586426519
  0.0937455212627185  0.2016228944950598  0.1086875730287744
  0.9852008514018848  0.2365406916752448  0.7767077403909539
  0.9168084159215084  0.2880952132535697  0.4414400759938530
  0.8645733356331107  0.3735685973183962  0.1325132646606662
  0.8023628994372842  0.3628042083713510  0.7746963189106069
  0.7236027739999855  0.4132975272702950  0.4552244383922712
  0.6360100420042158  0.4670450133885424  0.1089341497913452
  0.5831746422251598  0.4864804579495470  0.7810681401273882
  0.5242629561879681  0.5417136093203183  0.4452284801229922
  0.4514047491119726  0.6127488173445812  0.0848106641774677
  0.2786610065035333  0.1696422667910298  0.4509484159894583
  0.2155218981920655  0.2066237868414689  0.1119294917636751
  0.1249163087008327  0.2593772199030155  0.7843943351636256
  0.0581112558721131  0.3128422710089254  0.4418140166922910
  0.0101639151111996  0.3355917879899266  0.1189095422798161
  0.9327692554590641  0.3776602889323328  0.7844312422578525
  0.8676730229044338  0.4250067158930833  0.4419230665495277
  0.7940594996128993  0.4851590874422982  0.1215841963540498
  0.7312970822087337  0.4678121121276746  0.7688566527564262
  0.6651714627346763  0.5390708733316742  0.4620551302437974
  0.5715166164786609  0.5867559530822746  0.1160010533714058
  0.5121847177465568  0.6261389200224556  0.7695170792883843
  0.3537277857892889  0.2054826382315369  0.1151980171315614
  0.2585944489654963  0.2531793898824546  0.7781220259169785
  0.2216724045744556  0.2879811709637252  0.4477706936086108
  0.1467140973019312  0.3313357586226786  0.1177725596310140
  0.0740063727217262  0.3756063433120929  0.7732688574566211
  0.0027840910074772  0.4129799235864979  0.4433965319569495
  0.9514009967846775  0.4710635322690280  0.1097582965077990
  0.8670366018492572  0.5034505493834871  0.7716448275862078
  0.8082887734364874  0.5460284331671019  0.4380620812651017
  0.7278987722151982  0.6038456672988417  0.1411330015374475
  0.6435473427256042  0.5990801094124336  0.7766723276960263
  0.5871047237363243  0.6774155176248442  0.4458876889962653
  0.4346837769580389  0.2439491533261275  0.7708724682626809
  0.3442489731856284  0.2997944394028664  0.4371653986382640
  0.3025415350751786  0.3340295855671087  0.1235249699099512
  0.1948652676269660  0.3649350418042943  0.7772620267955190
  0.1502979655360619  0.4186191422688523  0.4403154517900276
  0.0862863622561960  0.4433999729792717  0.1169539907753148
  0.0072141811108608  0.4990127273628531  0.7771640013178143
  0.9285457544530828  0.5484277611546489  0.4347272980452459
  0.8713343858837064  0.6068293879829767  0.1353859204919843
  0.7891599811166543  0.6142641500027111  0.7764348829343319
  0.7394820245472928  0.6769534782637834  0.4425695967493937
  0.6487166218362432  0.6932727246533545  0.1253704831978908
  0.1776864251094352  0.4953735394536594  0.7755516046562718
  0.0650155883764825  0.5264745029321602  0.4473183417526911
  0.0179117650562262  0.5983658291928577  0.1001703988578981
  0.9357991943669006  0.6087126751552674  0.7724218853503189
  0.8544516173610504  0.6561168322568989  0.4443876485833513
  0.7691453022281038  0.7186327035508597  0.1151436652756388
  0.7113297547557664  0.7483395875931578  0.7974529518998494
  0.2163881085853774  0.5382177503745353  0.4714291895453542
  0.1585256824160695  0.5987218276844644  0.0971150542499473
  0.0911049621029463  0.6171775902298009  0.7779488574566216
  0.9994464375898886  0.6913328318616649  0.4479955870854369
  0.9294964354475752  0.7192194307142685  0.0936192000878506
  0.8501477944458884  0.7314270693852265  0.7687269154403680
  0.7833822134475881  0.7925488028779242  0.4597872137052477
  0.3046943406426621  0.5956566829966050  0.0751475361300251
  0.2192549121321079  0.5975928314078374  0.7823560347023957
  0.1179724299258567  0.6644521273675039  0.4293205143861201
  0.0669564107053446  0.7253178107282352  0.0914047920052710
  0.9778364270792963  0.7366970600179954  0.7619415589721044
  0.9060531801205798  0.8023906427798195  0.4404023848012315
  0.8378388969728903  0.8688856853544422  0.0976923962222713
  0.3671913462266474  0.6268503463253268  0.7579502025038423
  0.2811119269706808  0.6711658089123773  0.4222492940918059
  0.2169319889699040  0.7157475743155501  0.0772419059960470
  0.1397912578686515  0.7475764652651051  0.7678186242038194
  0.0685808755784549  0.7892453728318429  0.4549730362398421
  0.9878306687885754  0.8524710526874770  0.0833690889523382
  0.9118558390371945  0.8771614694727390  0.7845610603997386
  0.4445434779589306  0.6733100775004175  0.4388153990775336
  0.3571483465970644  0.7314047269810118  0.0861257619152198
  0.2859679805323125  0.7356908934372015  0.7808022187568611
  0.2062088190340532  0.7946558219184112  0.4372961858115545
  0.1380007092916316  0.8401735548588221  0.1030248359323522
  0.0719307216831098  0.8834139155225387  0.7692622033823824
  0.0030519527821582  0.9212655310372355  0.4379253410937807
  0.9124234329190131  0.9856072568426058  0.1001014974741921
  0.8454175604030141  0.0015131666218409  0.7724187146936075
  0.8001580885179180  0.0577748036262875  0.4304561695585321
  0.7123022569107960  0.0905591892195332  0.1074030112014057
  0.6543903070186019  0.1100683759418288  0.7959056332088750
  0.5662083417828967  0.1743890719369716  0.4432797509334492
  0.4885580220798360  0.1768487615476957  0.0993197575225153
  0.0377290072297569  0.9887024309379697  0.0990780509554128
  0.1348127004115227  0.0156808393036414  0.7790543826048761
  0.2095740367347574  0.0594119500322066  0.4284661449593656
  0.2832853941498641  0.0950077907446243  0.1036350204260899
  0.3395296349296828  0.1096393248033252  0.7763538155062619
  0.4224001967942712  0.1875530556859815  0.4429369097298519
  0.8441912694986939  0.9174030020690083  0.4470057184274125
  0.7637508629331649  0.9815839105210600  0.1190460017570842
  0.7213261759801313  0.9848212930774807  0.7742476604436632
  0.6476612716022743  0.0604470508795387  0.4482046373819486
  0.5629113706903652  0.0808904750194586  0.1066823593235213
  0.4843952245187282  0.1116265103023792  0.7788390542499428
  0.1510150585526802  0.9386870913682941  0.4293856648363743
  0.2013639765359443  0.9665241003260832  0.1052777601581383
  0.2817794048597690  0.9967571954936290  0.7677910296507804
  0.3414496338166657  0.0605046377174503  0.4378735238304401
  0.4140947111296924  0.0749560766824615  0.1190201155282224
  0.7567428691360334  0.8672099091600600  0.7715962385240474
  0.7066707879733301  0.9416541778314240  0.4282428354930801
  0.6248796375592249  0.9626842370069326  0.1228176046562695
  0.5782400367477862  0.9873221955905578  0.7873347419283974
  0.4829312747225032  0.0611469117381134  0.4364195905996056
  0.1894998543401414  0.8730423654154222  0.7913763746980038
  0.2832336088086720  0.9162173114476531  0.4545649540961989
  0.3488744683295764  0.9602292076741321  0.1049649211508878
  0.4325567456785464  0.9766479404911266  0.7739902692730070
  0.6838393900099646  0.8378198608259098  0.1170492624643060
  0.6459456334059510  0.8804916971852350  0.7820566246430900
  0.5694418286634573  0.9336488854456206  0.4402694438831531
  0.4896752837759948  0.9416863537319813  0.1071161902042590
  0.2932790780152672  0.8480284196904933  0.1161317522512633
  0.3396611356911379  0.8604139494666398  0.7880819995607311
  0.4180861284257631  0.9313698132393284  0.4427493072699349
  0.6534043023041249  0.8118733314491138  0.4659268750274563
  0.5677366424959445  0.8322893292846558  0.1317367098616273
  0.4957213090256758  0.8573256956083952  0.7902554948385685
  0.3539397787778356  0.7953138375273952  0.4299154403689869
  0.4422533805175064  0.8255939091988225  0.1170085710520539
  0.5592232294350694  0.7451063355544676  0.7757146075115315
  0.5132738780678423  0.7976118319031826  0.4436263602020674
  0.4223470020750000  0.7487599292152538  0.7921579740830254
  0.5276748816649288  0.7019495040228776  0.0956626321106953
  0.9926843306522386  0.9955761747428724  0.2160100386558312
  0.9209017293490476  0.0273599624051428  0.8792232176586836
  0.8757305824842092  0.0762112906055918  0.5641393112233715
  0.7626164403805191  0.1369202211292091  0.2249422227103040
  0.6952589997474163  0.1636696149758876  0.8910486343070474
  0.6690823880803904  0.2104715995361417  0.5604055993850210
  0.5639569691874158  0.2460141182911073  0.2372917636723031
  0.4815748805555984  0.2932304446893355  0.8808134170876372
  0.4325306343419228  0.3319857056954731  0.5396783320887337
  0.3633464360335310  0.3848372544614662  0.2343007291895418
  0.2713807143957041  0.4022498933841874  0.8838190841203613
  0.1939771086574353  0.4378989299788500  0.5546543364814411
  0.0717137863861836  0.0073753826431044  0.8816739890182319
  0.9918003192175675  0.0741416981281375  0.5493394232374271
  0.9130388181660791  0.1454915627773019  0.2142653692071192
  0.8387465801048037  0.1715229604876143  0.8905610893916105
  0.7992086918888219  0.1968204064594588  0.5712588438392245
  0.7077963533158993  0.2680397683159157  0.2255836340874140
  0.6343838553014081  0.2783493204604000  0.8956551790028584
  0.5819094792839579  0.3100114982581772  0.5687298598726116
  0.4968796136884279  0.3940793852968199  0.2261557768504261
  0.4207086253399197  0.4341442730771377  0.8711435014276319
  0.3281805540676217  0.4728423990340218  0.5500012145837943
  0.2962042237292408  0.5194881295149258  0.2174470920272356
  0.1499076142027178  0.0953884767951649  0.5533563632769614
  0.0576332843620122  0.1272157582595383  0.2249340821436405
  0.9896850753616420  0.1466632905816638  0.8979460456841650
  0.9343905740314042  0.2065582019106813  0.5516852233692049
  0.8458322396357119  0.2653845505274504  0.2291400448056251
  0.7773938613568703  0.2790257645793446  0.9055077658686557
  0.7102928487072688  0.3298781815841991  0.5695567103009012
  0.6326747500535603  0.3876825830535111  0.2290390959806743
  0.5649622577062132  0.4064217836174109  0.8943540676477042
  0.5180695767615617  0.4510349262935804  0.5717756015813720
  0.4436756198470633  0.5060385542292778  0.2089428117724594
  0.3685945585325427  0.5398254266885445  0.8694561937184275
  0.1994168466761224  0.1462412627432386  0.2071957812431364
  0.1460168202110808  0.1496652779661929  0.8988466826268393
  0.0604172116167163  0.2054121763795536  0.5733808719525584
  0.9971506693930507  0.2484504315673703  0.2206872330331677
  0.9169922755855495  0.2967589222257487  0.8940852949703526
  0.8462092612963232  0.3460394019413258  0.5584127920052708
  0.7925333464936983  0.3881680712582352  0.2247400781902016
  0.7122695883332923  0.3853484463627126  0.8970114781462755
  0.6528395385154724  0.4617377173343158  0.5680018994069869
  0.5638527149455683  0.5081488067471938  0.2381042358884287
  0.5116686740434133  0.5444523990255732  0.8963315866461699
  0.4291528422191533  0.5639657807682710  0.5607351148693169
  0.2878275368409646  0.1593794630171246  0.8908912672962899
  0.2133171590567784  0.2082767931945213  0.5575843373599838
  0.1445779453358327  0.2633145829462293  0.2220240136173928
  0.0536412158072821  0.2841898024419933  0.8927012523610784
  0.9911323456301915  0.3187115896325281  0.5417503118822751
  0.9317110457336213  0.3907001378657498  0.2292521853722818
  0.8435408028641547  0.4180133524730678  0.8954480483197926
  0.7985015023502839  0.4553677670773482  0.5668744959367444
  0.7213370417190816  0.5080412204504938  0.2363848078190216
  0.6506577516843493  0.5211724632964589  0.8936137403909541
  0.5887909199656747  0.6112727625579168  0.5512484968152833
  0.5120238501037235  0.6209198550413433  0.2065351359543186
  0.3698391547059003  0.2047598927442493  0.5411102648802952
  0.2814902008120228  0.2466352835368539  0.2124468710740146
  0.2117588270650259  0.2596792760641620  0.8923264177465384
  0.1391670317611755  0.3160277577544903  0.5583376094882482
  0.0919551515103549  0.3719750608987624  0.2342201967933235
  0.0198355877301850  0.4070852476927058  0.8924622257851951
  0.9212297218108034  0.4467502270410861  0.5449758598726149
  0.8693245502748681  0.4976599808444462  0.2478692106303555
  0.7762906705315586  0.5319013472743066  0.9039445367889272
  0.7341922464057120  0.5988481018830285  0.5577988117724573
  0.6263507985116661  0.6360337497771482  0.2376811451790033
  0.5805925787376793  0.6693526908884522  0.8908930204260912
  0.4373638194580636  0.2485121883001113  0.2232409163189075
  0.3550220342840191  0.2901411378532970  0.8825438194596984
  0.2876100880508830  0.3319792485939885  0.5542352549967049
  0.2225572081511658  0.3893886429824462  0.2331783079288385
  0.1321794334602657  0.3992844791432333  0.8845018620689657
  0.0629594813369465  0.4537550784321951  0.5492488372501612
  0.9977755926897700  0.4986570366947021  0.2153628372501615
  0.9391513528658777  0.5261097517827693  0.8728472519218116
  0.8439106303833626  0.5793482958795124  0.5625132418185785
  0.7842997880865212  0.6274700569710276  0.2439026224467398
  0.7292778914671700  0.6743914911835489  0.8913644212607039
  0.6583752482791851  0.7374683270343922  0.5591920149352063
  0.1544276994805784  0.5123766953502980  0.2110885135075762
  0.0825900830110839  0.5415749824808813  0.8993987630133944
  0.9862290697265195  0.5830494481201356  0.5361600922468668
  0.9380359375694738  0.6311043282591484  0.2400763725016475
  0.8779460917078481  0.6684588532542648  0.8822332694926445
  0.8041142544881623  0.7253355707251785  0.5506895036239854
  0.6974800656537781  0.7502051809860646  0.2402077008565797
  0.2142826223323340  0.5395441969534573  0.8982866334285120
  0.1184518126755023  0.5874798748321197  0.5652790340434848
  0.0806200367947980  0.6162687052911764  0.2284575093345040
  0.0134937817697249  0.6429675158315789  0.8889843848012333
  0.9320564410227448  0.7066886814661757  0.5584051438611937
  0.8636468444260998  0.7273607698603328  0.2107303667911253
  0.7914910657166345  0.7818825592950915  0.8949604318032058
  0.2793224980337001  0.5888524168328075  0.5374156437513733
  0.2239785134171797  0.6392772070636710  0.2107206268394464
  0.1513796505423670  0.6639681378500697  0.8831733630573240
  0.0785193838788913  0.7037554599091962  0.5425361581374943
  0.9909808732192715  0.7388811271909432  0.2161479617834416
  0.9448226072777643  0.7778871236112437  0.8689742038216579
  0.8627053558848559  0.8541922868915250  0.5795712110696272
  0.3656668145198196  0.6355753481999997  0.1955886145398651
  0.2954099794484080  0.6582812919518801  0.8961430419503600
  0.2073272076431820  0.6928233780417443  0.5384045899406971
  0.1483505313810554  0.7586862870931768  0.2173228671205791
  0.0717890587022936  0.7846595077595779  0.8836644243356062
  0.0054797350149229  0.8255492322914932  0.5525903865583146
  0.9418940452451423  0.8625449913969589  0.2228856248627267
  0.4241885169041453  0.6544028927109977  0.8738516995387684
  0.3575344985323099  0.7090530011920677  0.5361559934109366
  0.2805475587556217  0.7528372536303252  0.2131935110915890
  0.2138276305924691  0.7673482011912611  0.8976033555897232
  0.1511023578760984  0.8343774652688225  0.5661043184713392
  0.0670595072875244  0.8813736320356256  0.2019978449374022
  0.9987313309597283  0.9148581575528638  0.8996166540742365
  0.9558601647328615  0.9374815007025603  0.5309527274324637
  0.8647908424380404  0.9903745099214660  0.2234894500329432
  0.7788573200469457  0.0271134546313263  0.9001251074017134
  0.7130605504904395  0.0866528020666451  0.5456911087195238
  0.6254983344663856  0.1430190356266294  0.2028122754228008
  0.5529662170394545  0.1492591434678232  0.9073739020426075
  0.5181729421914554  0.2003941498401076  0.5595782547770725
  0.0774613093032173  0.9573997527398461  0.5647561682407201
  0.1360148076557053  0.0070167163876604  0.2136728267076649
  0.2054613777963823  0.0394728160855067  0.9084510147155740
  0.2668304261950567  0.0742213403897622  0.5567708201186008
  0.3567093234333143  0.1351645172587581  0.2286099569514590
  0.4208824056430487  0.1697369300415588  0.8900229927520300
  0.8441044364495909  0.9138414790387159  0.8857604212607058
  0.7884469519876305  0.9758122641407212  0.5481481651658271
  0.7076075957032089  0.0092534940360736  0.2294769163189088
  0.6342200102941149  0.0316332859439328  0.8966821739512412
  0.5554523509114304  0.0936034327304540  0.5548389615638030
  0.5052127785955065  0.1331584251055418  0.2226713929277366
  0.1598937190526541  0.9035329979717304  0.8850935435976268
  0.2197852637700208  0.9595009491385582  0.5602184937403933
  0.2906602272471872  0.0020510509283369  0.2155589101691220
  0.3657366220633236  0.0442635178133770  0.9121018220953232
  0.4026590299790058  0.0843574609331839  0.5447928249505836
  0.7967691728210440  0.8667895648063464  0.2129172220513951
  0.7134026674416987  0.9167810528281990  0.8977935708324196
  0.6410436831763420  0.9468448099884768  0.5567277733362630
  0.5533614095274615  0.0039682286194633  0.2213264528882064
  0.4853735873975111  0.0437813495206427  0.8866412431363955
  0.2132109663217605  0.8943298982600680  0.2129630428289033
  0.3115494106174026  0.9190466382814151  0.8865728407643303
  0.3458678954035364  0.9626095763322411  0.5396839516802103