Li 
 1.0000000000000000
   -10.8535000000000021   18.7988134399488125    0.0000000000000014
   -18.6059999999999981  -10.7421791085421763    0.0000000000000014
     0.0000000000000001    0.0000000000000001   22.7650000000000006
 Li 
 504
Cartesian
 -0.1261629100000000 -0.6461677300000001 -0.2832957500000000
 -10.7301683299999997 16.6956796199999999 15.0148665300000008
 -10.9210969200000001 15.3534374200000006  7.1999388099999999
 -10.4286480400000006 13.7455277299999992  0.0769892800000000
 -10.6600072000000008 11.5776000799999998 15.5405154000000003
 -10.7960586200000002  9.4553777300000004  7.3788814699999996
 -10.7405138000000004  7.7368129300000001 -0.1660246800000000
 -10.7097709200000004  5.9542111799999997 15.2151342100000004
 -10.8280558300000003  4.4277590599999996  7.4917570099999997
 -11.1728247399999994  2.9083793199999999 -0.1621667300000000
 -10.4667957900000008  0.3548094100000000 15.4059799900000005
 -10.9677465999999999 -0.3237430300000000  7.6696270799999997
 -1.0249612299999999  0.6826687000000000 14.9907772099999992
 -1.4683046600000000 -1.0064740999999999  7.7629191899999999
 -12.2654643700000001 15.7966446999999999 -0.0601545500000000
 -12.1270191199999999 14.5340703300000005 15.5358360700000002
 -12.2407163899999993 12.1607482600000001  7.5872316700000004
 -11.8245317500000002 11.0729547700000008  0.1026081100000000
 -12.0691800400000009  8.7870679900000006 15.6384056699999991
 -12.4683268999999992  7.0699390400000004  7.4247175700000003
 -12.7237833600000005  5.4306831700000000 -0.1386405600000000
 -11.7753064900000002  3.5372880699999998 14.8508924499999999
 -12.4507058700000002  1.9725438099999999  7.3980660699999996
 -12.7848687299999995 -0.0764043500000000 -0.3537860000000000
 -3.1937040699999999  1.5472313300000000  7.8589111799999998
 -2.8350449800000002 -0.0762607700000000  0.1559923900000000
 -2.6930067800000002 -2.0516997500000000 15.5292997499999998
 -13.7706100300000003 15.1552688599999996  7.3409778200000000
 -13.9623824499999998 13.4787417400000002  0.2257438500000000
 -13.5743787000000005 11.5239132099999999 15.2604682599999997
 -13.8582717100000004  9.9807758599999996  7.7628175600000002
 -13.6081496000000008  8.3936656299999992  0.2361585100000000
 -13.5292473599999994  6.4113597699999998 15.1117890799999994
 -13.8635551899999996  4.3258402399999998  7.4940766200000004
 -14.0133617800000003  2.5250913700000002 -0.0495983900000000
 -13.8387195300000005  0.7179858300000000 15.1402855100000000
 -4.4705639599999998  2.4351968799999999  0.2049739900000000
 -4.3818213600000000  0.0660636600000000 14.9961476999999999
 -4.6475693900000001 -0.5857756700000000  7.7450416500000001
 -5.1217363999999996 -2.2873736299999998  0.2023361500000000
 -15.3576534400000000 13.9479819900000006 14.9269146599999996
 -15.6632704300000007 12.2061618400000000  7.5430581400000003
 -15.3710872500000004 10.9637039800000000  0.1905621500000000
 -14.9834413499999997  9.2054798200000008 15.1158243999999993
 -15.7409027899999998  7.3711838299999997  7.7945042600000001
 -15.6712879300000001  5.4985491700000004  0.1167985800000000
 -15.2371021800000008  3.9191109800000001 15.3167536099999992
 -15.7348297499999994  2.0936303100000000  7.2302311599999998
 -6.1099216099999998  3.2731602099999999 15.2150123700000002
 -6.1264663800000001  2.0445196999999999  7.5440499599999997
 -6.2394920100000002  0.2769237500000000  0.1150087300000000
 -6.0998408700000004 -2.2370266299999999 15.2075187199999995
 -16.8354908999999999 14.9033887000000007  7.7545415599999998
 -17.0847434500000013 13.4722841300000002  0.1834194600000000
 -16.7320683300000006 11.5238897100000006 15.3137355399999997
 -17.3742236400000003  9.5923575000000003  7.6194814500000003
 -16.7608702700000016  8.3797539499999996  0.5119379400000000
 -17.0195930400000002  6.4588609500000000 15.3252708200000001
 -17.1698036400000014  4.7789359800000000  8.0987816099999996
 -17.3519827299999996  3.2321600199999998 -0.2965665900000000
 -7.7627198999999996  4.4704409900000002  7.7455629500000001
 -7.5793676400000001  2.5173681800000001 -0.1447121000000000
 -7.3662644999999998  0.3121043500000000 15.2860382300000008
 -8.0084441200000001 -0.6427510300000000  8.3390186499999999
 -8.1134921500000008 -2.3172628799999999  0.2681371500000000
 -18.0683781699999990 13.6973867499999997 14.9985371599999997
 -18.6153910399999987 12.0202846599999997  7.5790306699999999
 -19.2714801400000013 11.5793371000000000  0.2970560100000000
 -18.3804517300000008  9.0036059799999997 15.2433201700000005
 -19.2898315999999994  7.1757791400000004  7.8767608100000004
 -18.4171452900000006  5.9150891400000001 -0.0568945400000000
 -18.9053988000000004  3.5013547900000002 15.0935632099999992
 -9.3855111499999992  5.1988119299999997 -0.0218659800000000
 -9.1571450599999995  3.2000966200000001 15.1152821599999996
 -9.2423953799999996  1.7630949300000001  7.4596515600000002
 -9.4293600600000005  0.4010035800000000  0.4266086800000000
 -9.1340288500000000 -2.3389706800000001 15.2252547299999996
 -9.2128108999999991 -3.5150940700000000  7.7429390900000001
 -20.5324606699999990 13.7582019899999999  0.1878931700000000
 -19.9727788100000012 11.3006882799999993 14.8193518900000001
 -20.2548202099999983  9.9249882100000004  7.4621356299999997
 -20.0235295700000009  8.7433728500000001  0.3552798900000000
 -20.1654380300000007  5.8357395399999996 15.2082385200000001
 -20.3791312900000001  4.3957396700000002  8.0240564600000006
 -10.7389159299999992 -2.1528290499999998  0.4024173200000000
 -10.5508754699999994 -4.6064584399999999 15.4416315199999996
 -21.3802218999999987 12.6177856899999998  7.7032288800000002
 -22.1714750000000009 10.8210368199999998 -0.2511527800000000
 -21.5640891500000009  8.5537389200000007 15.1466066900000005
 -21.9658424299999986  7.0885637299999997  7.6776801199999998
 -21.8714589299999993  5.4162154200000003  0.2323834100000000
 -12.7938989799999998 -1.9804325100000000 14.8094339500000007
 -12.6526917799999996 -3.2452433799999998  7.4991740499999997
 -12.5447517699999995 -5.2195217999999999 -0.0891352500000000
 -23.0143439500000007 11.7480759399999997 14.8077067600000003
 -23.6801159900000009  9.8194914200000003  8.1945414499999991
 -22.9789800399999997  7.8139918899999996 -0.2735959800000000
 -23.4329913800000007  6.0374094100000004 15.2524354800000008
 -14.0239086499999992 -0.2293222100000000  7.6655795400000004
 -13.5555619499999995 -2.9492630900000001 -0.2793145900000000
 -14.0533171600000006 -4.1936733700000000 14.9820656499999991
 -13.5561584800000006 -6.3468583299999999  7.4805251799999999
 -24.8527148400000009 10.8815201699999999 -0.0649796700000000
 -24.5355441899999995  9.0997461299999998 14.9028509099999997
 -24.5254804600000007  7.1865004399999997  7.2358609800000000
 -15.7032951999999995  0.1802326700000000 -0.2618866100000000
 -15.8447180799999998 -1.7956343900000000 15.0568051799999996
 -15.4458894400000002 -3.6685240700000001  7.7113657599999996
 -15.3771547399999999 -5.0887303199999998 -0.1632900600000000
 -15.4774352200000003 -7.0359493600000000 14.9349544999999999
 -26.6249109600000011  9.5493372000000001  7.1818216499999998
 -26.4991656400000011  8.1898595400000005 -0.1976746800000000
 -17.1779349500000009  1.2219666199999999 14.8631348899999995
 -16.8391839999999995 -0.7114446500000000  7.4260894700000000
 -17.2257686700000008 -2.9155748099999999  0.0610927800000000
 -17.2297378200000004 -4.4517223200000000 15.0797972199999997
 -16.6690469800000010 -6.6038971399999999  7.0748859900000003
 -17.2053623299999998 -7.7894224799999998 -0.4801273600000000
 -27.5129354600000013  8.6239890500000005 15.3132133199999991
 -27.8488740800000016  6.9340599500000000  7.8798337800000002
 -9.4404962599999998 16.1016228000000012  0.1901126300000000
 -9.3610295299999997 14.1986265300000003 15.2734789299999996
 -9.5620007800000000 12.7267027600000002  7.4351308400000002
 -8.9741638500000001 10.8333095299999993  0.0898543200000000
 -9.5953338899999991  8.8513130100000001 15.5932057099999994
 -9.0424318199999991  7.5653072000000003  7.4896189399999997
 -18.5748487100000013 -8.9944612999999993  7.0712831200000004
 -1.5246229000000000  2.6252296799999999 -0.4569107800000000
 -3.1805645600000001  3.2192526799999999 15.5209012600000005
 -4.8292527200000004  4.7317753600000003  7.1483587300000000
 -6.1685107300000004  5.2102533400000004  0.1892296800000000
 -7.5474157399999999  6.1803040200000003 15.2929787299999997
 -26.5743843800000015  6.3565490400000000 15.2860609299999997
 -26.2483979199999986  4.1900541699999998  7.4146760299999999
 -7.6840204099999996 13.4468643799999992  0.1060407100000000
 -7.3592533900000001 11.6545278099999994 14.8977099400000004
 -7.4671128900000001 10.2890810100000003  7.3385299000000002
 -6.7203889300000004  7.3862465600000000 -0.2432496300000000
 -18.5833699000000010 -7.3485312399999998 15.1014549999999996
 -20.2119242600000000 -6.1584763400000000  7.3783150900000001
 -2.9938460299999998  5.3657360499999998 -0.0871069900000000
 -4.5562660099999999  6.5261572100000000 15.0536588299999998
 -6.2032482299999998  7.6031480900000004  7.1918748800000003
 -25.1029738299999998  5.2690687000000000  0.3417578500000000
 -24.8144519999999993  3.8533943599999998 15.1664917799999994
 -24.8361943499999995  1.8724018000000000  7.6241885500000004
 -6.0665833999999998 10.4096438500000001 -0.2169976600000000
 -6.4496846699999999  8.7987682300000003 15.3881308099999998
 -18.3898694499999991 -5.1861084599999998  0.0947936900000000
 -19.8853130299999989 -4.4493150799999999 14.9318884000000001
 -21.4053396900000017 -3.4823791300000000  7.7296873100000001
 -4.0832781999999996  7.8515329700000001 -0.1018957000000000
 -23.5502949699999995  4.6672659899999998  8.1464780500000007
 -23.3060386100000017  2.5048279800000000 -0.0073101400000000
 -23.3793630000000014  0.5642015900000000 15.4307974800000007
 -23.0371202900000007 -1.0002202899999999  7.6956863400000000
 -18.5909327600000012 -3.8171747400000000  7.2743514600000001
 -20.1460912500000013 -2.4193500200000000  0.1266093600000000
 -21.6423607800000006 -1.7263977399999999 15.3017730899999993
 -22.2774506400000014  3.5557858900000001 15.3833532000000002
 -21.5064297499999988  2.0424656699999999  7.8823753300000003
 -21.8757779799999987  0.7133692100000000  0.2766621200000000
 -18.4544610599999999 -1.3972227399999999 15.4124811099999999
 -20.0771192200000002 -0.6377927700000000  7.5372205799999996
 -20.2441845200000010  3.3684582100000000 -0.0319992400000000
 -20.2110753699999997  1.2072764199999999 14.9254119099999993
 -19.1069786899999983  0.1778429300000000 -0.0045260400000000
 -18.1387252399999994  2.0706385599999999  7.5591526199999999
  0.4050098200000000 -0.0085307400000000 17.4632076199999986
 -10.6453517499999997 16.7972977400000012 10.1339606900000003
 -11.0495021700000002 15.0721147799999997  2.3052274700000002
 -10.8727425699999998 13.6431723799999993 18.0329588500000000
 -11.1398909699999997 11.4926718399999999  9.7297000300000001
 -10.9069086199999994  9.9882382700000001  2.7815932700000001
 -10.9106832399999991  8.1806730299999995 17.8967553399999986
 -11.1626964799999993  6.4045927000000002 10.1055972999999994
 -11.0405835900000007  4.5067221000000002  2.7306619900000002
 -10.6463015199999997  2.6613437900000001 17.6434519600000002
 -10.7302326000000008  0.8098525900000000 10.1668411299999999
 -11.4504560000000009 -0.6844622200000000  2.5823477399999999
 -1.9058299900000000  0.7243601900000000  9.6235769399999995
 -1.5020821000000000 -1.0987553800000001  2.6657291200000000
 -11.9711415199999998 16.3383226199999996 17.9161655199999998
 -12.6795700300000007 14.1981164700000004  9.9662351999999998
 -12.5060585100000008 12.3374051900000001  2.8739241000000000
 -12.4121434799999992 10.4098500699999992 17.6599556200000016
 -12.2759030899999999  8.9643419200000007  9.8058390000000006
 -12.3069941200000006  7.3541685399999999  2.6435086800000001
 -12.3423842300000004  5.3931782400000001 17.7251882700000003
 -13.0185824799999992  3.6393072000000002 10.2984272299999997
 -12.6842347199999992  1.6573554600000000  2.2043469400000002
 -12.7608419600000005  0.4687328200000000 17.4086957899999994
 -2.9779783100000001  1.4772074600000000  2.1062304699999999
 -2.9314127000000001 -0.0141157600000000 17.8531895100000000
 -2.9923394900000000 -1.7046629300000000 10.0421921100000002
 -14.4009495300000001 15.2128401400000008  2.3393161199999999
 -13.8690527299999999 13.5722473099999998 18.0737422499999987
 -14.1700454100000002 11.3745443399999999 10.1878957999999997
 -14.3453601099999997  9.8610988699999993  2.8941863200000002
 -13.8018206499999998  8.0625860599999992 17.7285885699999994
 -13.8086067099999994  6.7381050499999997 10.4196952700000001
 -13.8818788299999998  4.5476528700000003  2.1954648300000001
 -14.4682732200000004  3.0348829300000002 17.5520507200000004
 -14.4019801199999993  1.2611649199999999 10.2534473100000003
 -4.7132941600000002  2.2078660399999999 18.1417755900000017
 -5.1222794900000004  0.6466475500000000  9.9118595700000007
 -4.7688625900000003 -0.4035646800000000  2.4742725999999999
 -4.2404535499999998 -2.8191689100000001 17.6817517100000003
 -15.3108796799999993 14.1401399899999998 10.0493833299999995
 -16.3342640199999991 12.2400120599999997  3.0166644699999998
 -15.4587808300000003 11.1861626699999999 17.6359616999999993
 -15.5434365000000003  9.1631574899999997 10.3631843400000001
 -15.5927745099999999  6.9391529399999996  2.4798859200000001
 -15.3809413799999994  5.7371310900000001 17.7810162100000007
 -15.7692114100000005  4.0363368900000003 10.1356263500000008
 -16.3001259400000009  1.9036161199999999  1.9307147700000000
 -6.1808112499999996  3.4161686599999999 10.2658406899999992
 -6.1836091000000000  1.8319662299999999  2.5480748800000002
 -6.1817517100000003 -0.4379981700000000 17.8567370399999987
 -6.4514538100000003 -2.2681850500000000 10.0578960899999998
 -17.2078348599999984 15.3848958899999992  2.7069757299999999
 -17.1505584499999983 13.4780607499999991 17.8575772300000004
 -17.3249641099999998 11.7457250200000001 10.0603786100000008
 -17.6451947599999990  9.7157105799999997  2.7678642299999998
 -16.6412450400000012  8.7221959200000008 17.5030217000000015
 -17.2493911400000002  6.7136383600000000 10.5186850399999994
 -17.1201368599999988  4.4407967099999999  2.6407639800000000
 -17.2089375800000006  2.9023685299999999 17.5180563099999986
 -7.6623944899999996  4.4423313499999999  2.6224828599999999
 -7.5173105800000002  2.1415704500000001 17.7139479199999990
 -7.7640991100000001  1.0736328600000000 10.1934998399999994
 -7.7571945800000002 -0.8012171200000000  2.6810923199999999
 -7.7917597900000004 -2.6435986200000001 17.6034655399999984
 -18.5676215900000017 14.4148467399999998 10.0939220499999998
 -19.0906388000000007 12.8249610100000009  2.4986476199999998
 -18.7775826799999983 10.8911033499999998 17.5664945000000010
 -18.9321672300000010  9.3293346300000000  9.9724832800000005
 -19.1354018100000012  7.1970149100000000  3.2128927799999998
 -18.1312256000000005  5.6625006000000004 17.6809455399999997
 -18.9761342400000004  3.7599533500000000 10.1506332399999994
 -9.2567583199999994  5.5509937300000001 17.5489117400000012
 -9.3142815700000003  3.2510266600000000  9.9520703000000008
 -9.4985890200000007  2.0992162400000001  2.8120459400000000
 -8.9049515699999997 -0.2569617700000000 17.6943700399999990
 -9.4200867299999995 -1.6714583900000000 10.0237812599999998
 -9.1864089300000007 -3.1410007000000002  2.6624576000000002
 -20.2164299199999995 13.5739473900000007 17.6921384900000014
 -20.2820182699999982 11.5642491700000001  9.8965669399999996
 -20.7476953500000008  9.8613825899999998  3.0820604800000000
 -19.9941466299999995  8.2367357400000003 17.6755401100000000
 -20.6213645700000008  6.6294291100000002 10.0750968699999994
 -19.9398781700000001  4.7478429699999998  2.8540590500000000
 -11.1454396899999999 -1.9810973300000001 17.6554322799999994
 -10.5012312899999998 -4.4332674900000004 10.1832020500000002
 -22.1810999600000009 12.7077804600000004  2.2803791300000000
 -21.4824045900000016 11.0530138900000008 17.5841842200000009
 -21.4815004099999989  9.0145520200000000 10.1164848200000002
 -21.7187986200000012  6.7393378300000002  2.6212455399999999
 -21.6440238600000008  5.3333574700000002 18.1540164500000003
 -12.3626477999999995 -1.7137917899999999 10.7320855000000002
 -12.8603768200000008 -3.4514823799999998  2.2108242100000002
 -12.4720139499999991 -4.9171670299999999 17.7100057399999997
 -23.7104305800000006 11.3619860199999998 10.1986195399999993
 -23.4700862900000011  9.7474461399999992  2.1312410900000001
 -22.8360111400000001  8.1246492000000003 17.5000682300000001
 -23.2486018799999989  6.2129548899999998 10.4670559200000000
 -14.3897882700000004 -0.6707587100000000  1.7107336600000000
 -13.4984954100000003 -2.2977170400000002 17.8103351299999986
 -13.6432100500000004 -4.9199220600000002  9.7734815099999999
 -14.2219745900000003 -6.5327927600000004  2.0808300900000001
 -24.3199331600000015 10.4684328000000004 17.3455995899999991
 -24.7631284899999997  8.4133007000000006 10.0257602899999991
 -25.2599715300000014  6.4166514599999998  2.2239673999999998
 -15.6484888200000007  0.1690229200000000 17.2547363599999990
 -15.5387593400000004 -1.9252126599999999  9.6125051799999994
 -15.6716707100000008 -3.6106246500000001  1.7584119899999999
 -15.4266321299999998 -5.4026905100000002 17.4793909800000016
 -15.4290419399999994 -7.1889760699999998 10.3574611700000005
 -26.5824965700000000  9.4126477200000007  1.8978973100000001
 -26.2172936499999985  7.7191821899999997 17.8605325400000012
 -17.3524599399999992  1.1240724600000001  9.9896325600000004
 -17.4848259299999995 -1.1429154399999999  1.9606529699999999
 -16.7920182400000009 -2.5270646299999999 17.7749625100000017
 -17.0234536399999996 -4.6598540499999999  9.9550476700000008
 -17.1300598599999994 -6.4310452199999997  2.3453603900000002
 -17.2174994000000012 -8.1375782900000004 17.5122540600000001
 -28.0276908400000018  8.9597871900000001  9.9693703899999999
 -28.2411963499999992  6.5649082099999996  2.2788105900000000
 -9.2038934700000006 15.8765922899999996 17.5841120400000008
 -9.7594738099999994 14.4213953400000001  9.7993346999999993
 -9.4159168199999996 12.4176342099999992  2.4450295500000001
 -9.1503574000000008 11.1193870900000000 18.1187917399999989
 -9.3900253100000004  8.7707263399999995 10.0912635300000009
 -8.5930125499999992  7.2845700400000002  2.2610142799999999
 -18.8052892100000015 -9.9115580300000001  2.2555118300000001
 -1.7549473400000000  2.3658724200000001 17.7351730200000013
 -3.3800305499999999  3.3015294100000001  9.7540317900000009
 -4.8423529800000003  4.3048385700000003  2.3592512399999999
 -5.7250341699999998  5.2049890000000003 17.6736946099999983
 -8.0741326900000008  5.9258939799999997 10.0834587500000001
 -26.2316302000000015  6.0148868200000001 10.1760851799999994
 -26.5527202299999985  3.8132598099999999  2.7100822299999998
 -7.5464986300000003 13.7231286000000008 17.6257479900000007
 -8.1540694400000007 11.5259303699999993 10.2033785699999999
 -7.6146067400000002  9.7131258700000007  2.4286239100000002
 -7.3343064199999999  7.9069434899999997 17.7302710700000006
 -19.1042539600000012 -7.2446409500000000  9.7749646600000002
 -20.1686513299999994 -6.5971711700000002  2.3966482099999999
 -2.9979571500000000  5.3319532499999998 17.4787627900000011
 -4.8316728900000001  5.7688963099999997  9.9681907699999996
 -5.8890097099999998  6.9792976199999996  2.7094929300000001
 -24.3486162999999998  4.9101438499999999 17.5653883700000009
 -25.1902690299999996  3.1691544700000001  9.7489481500000004
 -24.6938340600000004  1.4056692300000000  2.7959427699999999
 -6.0400450100000000 11.0064138200000006 17.9236754000000005
 -6.3791940299999998  8.4216838599999999  9.9350919799999993
 -18.3005629200000008 -5.8160050500000002 18.0156831699999991
 -20.1212152700000004 -4.5177146900000000 10.3481711799999996
 -21.6525336800000012 -3.7565280900000002  2.3895264300000001
 -4.2602662200000001  8.3824055699999995 17.6198884800000002
 -23.0105271500000015  3.8553581100000001  2.6646264600000000
 -23.3931994500000009  2.6846119399999999 17.8035190599999993
 -23.5519080500000015  0.6754071500000000 10.0227338899999996
 -22.8357069899999985 -0.9104491700000000  2.4385000699999999
 -18.9615212500000005 -3.5963745000000000  2.6437393400000002
 -19.6953740800000006 -2.8574944300000000 17.9406867199999986
 -21.8667645399999984 -2.1454182199999998 10.0791879800000004
 -22.1974388000000005  3.5619368400000000 10.6068253099999996
 -21.6475049099999985  1.7321741799999999  2.9989862000000000
 -21.3317131199999999  0.1094262300000000 17.9901663399999983
 -18.6390946500000005 -1.8897558200000000  9.7870249999999999
 -20.1609973400000015 -0.5548388500000000  2.6637001200000001
 -19.9329777999999997  2.5086674499999999 17.6591430400000000
 -20.4111837800000018  1.0808507199999999 10.0991540900000007
 -18.5153704300000008 -0.1036907700000000 18.0334762799999986
 -18.7875918000000013  2.3791943600000001  2.1777598199999999
  0.1617103100000000 -0.0900043800000000  4.9174685299999998
 -10.5040663799999994 17.0179541900000011 20.0155165500000010
 -10.9227291500000003 15.6440205100000007 12.8426314200000000
 -10.8245951700000003 12.8654626499999996  5.1208096999999997
 -10.5912304099999997 11.3118759099999995 20.2847221600000012
 -11.1779202800000004 10.3170313700000005 12.7576334700000000
 -10.6982456500000005  7.9589941299999998  5.4019469999999998
 -10.6826186199999995  5.9031023800000000 20.0517174400000009
 -10.8713972800000001  4.5648127900000004 12.2857772300000008
 -11.1038625000000000  2.6964911499999999  5.3338561000000002
 -10.4296921000000005  0.7805950200000000 20.1201414499999984
 -10.2528780400000006 -1.0574492600000001 12.6267059699999997
 -0.9155719500000000  1.2689064100000000 20.0713083599999997
 -1.2904852000000000 -0.9505876700000000 12.5057119700000001
 -12.6166828300000002 15.6011499800000006  4.8777511300000000
 -12.2946922099999991 13.9249101199999998 20.2736231999999994
 -12.3362520199999999 12.9098950400000003 13.0047075799999998
 -12.6692156499999999 10.4264004000000003  5.1354114300000004
 -12.0642526300000004  8.9355854899999994 20.3895901500000001
 -12.0838284700000003  7.6090087000000004 12.9471352599999996
 -12.7251239300000005  5.1074758200000003  5.1484362600000004
 -12.6438494099999996  3.2451674200000000 19.8315818099999994
 -12.3596133199999993  1.0900472699999999 12.5207776499999994
 -12.8804486800000006 -0.0121465900000000  4.9501830499999997
 -3.4018202899999999  1.7934051700000000 12.5971576100000000
 -2.9924992499999998 -0.2831371000000000  5.1206243799999998
 -2.6168641500000001 -1.7693916800000000 20.4417417300000004
 -13.9846299999999992 15.3465488800000003 12.5591141099999994
 -14.1179851599999999 13.0498341000000000  5.2163731200000001
 -13.6289976500000005 11.6167374300000006 20.6138842900000014
 -13.8468768799999999  9.8090522399999998 12.9659585100000001
 -14.0799575400000005  7.7289788499999998  5.2140750200000001
 -13.6937015700000000  6.2547644900000003 20.3599703500000011
 -14.0148239900000000  4.8939953599999999 13.0164715700000002
 -14.2307866799999996  2.9046184199999998  4.7565831100000002
 -14.0445329300000008  1.1302389200000000 19.7931702499999993
 -4.8853356799999998  2.1778502600000000  4.7168119600000002
 -4.3694657200000000  1.1372117399999999 20.4622447299999983
 -4.4776371599999996 -1.0708025000000001 13.0530155499999996
 -4.5917435199999996 -2.7224630699999999  5.0239448600000003
 -15.4740721699999995 14.0505292199999996 20.3538517399999996
 -15.6227413300000002 12.1905128000000005 12.7122672100000003
 -15.8240158100000006 10.7289155800000007  5.1162078800000002
 -14.9004111699999999  9.2503410800000001 20.4204663000000011
 -15.6766859000000007  7.3125394300000002 12.9305632399999997
 -15.5743921400000005  5.1411365000000000  5.4204429300000001
 -15.6834772900000008  3.7701587600000002 20.4049885700000004
 -15.1509576900000003  2.0093427899999998 12.7651348900000006
 -6.0893504600000004  3.6987334299999999 20.2811397000000007
 -6.1904358000000004  1.7727628600000001 12.6934074399999997
 -6.4684078600000001 -0.1106785900000000  5.0543766699999999
 -5.8698303999999997 -2.0444265499999998 20.3223440099999983
 -16.6872027500000009 15.2084550800000002 12.3329458499999998
 -17.3816926000000009 13.3180912700000000  5.2189259999999997
 -16.9329265400000004 11.3671918800000000 20.3848748200000003
 -17.1391087300000002 10.1192386600000006 12.9048978999999999
 -17.2816465299999997  8.1028106900000001  5.3813001500000004
 -16.7588487599999993  6.6330657400000002 20.3431168000000007
 -17.7637832700000011  4.5021691600000002 12.5491720299999994
 -17.1100856800000010  2.9554085400000001  4.7017723699999996
 -7.8238118300000004  4.7529698299999996 12.3183751800000003
 -7.6440499800000001  2.6422813800000000  4.8363530199999998
 -7.1299170399999996  1.1912933900000000 20.3138109000000000
 -7.3904618400000004 -0.7786517100000000 12.7105556800000006
 -7.9190032199999996 -2.2671749900000000  5.3320227800000000
 -18.6430136699999984 14.7987163099999997 20.3169025699999999
 -18.3108015100000010 12.5189547200000000 12.4063754500000005
 -18.6946756100000009 10.9963173899999997  5.6427425800000002
 -18.3220272599999987  8.8795639499999997 20.5782973799999986
 -19.1107233299999990  7.3690094999999998 12.6982899499999995
 -18.6321423400000015  4.9422633500000002  5.4108112700000000
 -18.7554377199999998  3.7241450800000000 20.2811796099999988
 -9.3707459899999996  5.5523584100000001  5.0820794600000001
 -9.2515976599999998  3.5572449200000000 20.0911100500000011
 -9.2983819899999993  1.8405478399999999 12.6171655800000000
 -9.6604897500000000  0.0009288900000000  5.3083041800000004
 -8.8636964999999996 -1.8043688800000000 20.1356848900000003
 -9.1258977199999993 -3.6907547799999998 12.5036497799999999
 -20.1073702200000000 13.4003340200000007  4.9027349899999999
 -19.9818772500000001 12.0033658899999995 19.8703676899999984
 -19.9387384200000000  9.6410553399999994 12.8056139499999997
 -20.1871056300000014  8.0035096600000006  5.5524431999999999
 -20.4629456800000007  6.4651248399999997 20.2919110499999995
 -20.8670114499999997  4.4546566099999998 12.7300062199999999
 -11.2093618300000006 -2.6009847200000000  4.8054300100000003
 -10.9729355900000005 -4.2650999000000001 20.4748128399999985
 -21.5522552400000009 12.2767146900000004 12.2056845000000003
 -21.9233001799999982 10.8545268600000000  5.4653386199999998
 -21.9661333300000017  9.3236400600000007 20.0840403800000011
 -22.2230476900000014  7.3247092399999998 12.5364465500000009
 -21.5284174899999989  5.0529592100000000  5.4683283100000004
 -12.3644757700000003 -1.7676213599999999 20.4494952099999985
 -12.2162673000000002 -4.0840605099999996 12.8685772099999998
 -12.3413050999999996 -5.1045077799999996  5.2008352000000002
 -22.9630083599999999 12.1456083100000001 20.2377295199999985
 -23.2647241899999990  9.9301787600000004 12.7120931000000006
 -22.9068655099999994  8.4220962400000001  4.7972767999999997
 -23.1381551799999983  6.4799703900000001 20.3737742299999987
 -13.9878148000000007 -1.0746266000000000 12.2342671299999992
 -14.3253425100000005 -2.6566999700000000  4.7970550699999999
 -13.9967902100000003 -4.2867068499999998 20.1054416099999997
 -13.9462842200000008 -6.0837959499999998 12.3508356399999997
 -24.5032331600000006 10.6920711500000003  4.9206083500000002
 -24.7279999900000007  9.4053411199999992 19.7821977500000017
 -25.2564742699999982  7.0419504999999996 13.1939386200000008
 -15.7942797000000006  0.0466380000000000  4.4525748099999998
 -15.4542139299999999 -1.5180184500000000 20.4006963500000005
 -15.1408976200000005 -3.5449273200000002 12.2567804900000006
 -15.7262395500000007 -5.3611300200000001  4.9473550700000004
 -15.3785373500000002 -7.0794038500000003 20.1166206199999991
 -26.2731433199999991 10.0336282400000005 12.5797201500000000
 -26.2713591300000004  8.4408776499999991  5.0739912499999997
 -16.7797502899999991  0.9445277100000000 19.8932339399999982
 -17.0731408199999990 -0.8955500000000000 12.2055911899999998
 -17.0522128700000017 -2.8131514000000002  4.8533502799999999
 -16.5980588199999985 -4.2232860800000003 20.4339403900000001
 -17.1644165599999994 -6.1224871399999996 12.8873648099999993
 -17.1266681600000013 -8.2072342500000008  4.5984809400000000
 -27.8615813800000005  8.9473937800000005 20.4797731300000017
 -27.8172090999999995  7.8984427200000003 12.0871388399999997
 -9.2069155400000007 16.3604404499999987  5.0877373300000004
 -8.9578008600000008 14.3503358700000003 20.4913480700000008
 -9.3514647199999992 12.4738523400000005 12.4226580900000005
 -9.4498583499999995 10.2222904000000003  4.6170214500000002
 -8.7787344600000008  8.7917403000000007 20.6563668800000002
 -9.3525235799999997  7.5883666200000004 12.7387989699999995
 -18.6541061200000016 -8.8283789200000005 12.8566741699999998
 -1.6067897400000000  2.4815421700000000  4.8642618999999998
 -2.9644062799999999  3.4384060500000002 20.6808873499999990
 -4.2770062900000001  4.2187964700000000 12.6748877199999992
 -6.3864156500000000  5.2537505700000002  5.2043056700000001
 -7.7261725099999996  6.0887453200000001 20.2613734299999990
 -26.1644220599999997  6.0515129800000000 20.1643359900000014
 -26.7133719800000016  4.3395170399999996 12.4785929800000002
 -7.8521895500000003 13.2027804900000003  5.2240419999999999
 -7.4720757999999998 11.5827732300000008 20.4129696900000006
 -7.7701875600000001  9.4363402799999996 12.6309089599999993
 -7.9608725500000004  8.0669891200000006  5.0691142600000001
 -18.5465414399999986 -6.7001011000000004 20.1491545199999997
 -20.2379140200000016 -6.1754288800000001 12.7533740099999999
 -3.1928426299999999  5.4420346300000002  4.9071985900000001
 -4.7930894400000001  6.3999278899999998 20.7639979799999992
 -5.9398147000000003  6.6633290299999999 12.4022086599999994
 -24.7752208600000010  5.6671062799999996  4.8470605600000001
 -24.8005441200000014  3.5628973799999999 20.4382706399999989
 -24.5745621499999984  1.8796840699999999 12.6739077600000005