Li                                      
   1.00000000000000     
    22.0829999999999984   -0.0000000000000006    0.0000000000000000
    -0.0000000000000006   22.0829999999999984    0.0000000000000000
     0.0000000000000006    0.0000000000000006   22.0829999999999984
   Li
   500
Direct
  0.9908129054023433  0.9876171557306535  0.9868546954671018
  0.0034806208395608  0.1048759620522546  0.0936201394738063
  0.9967711171489384  0.2242055893673864  0.1934482470678773
  0.0165164592673079  0.2999824145270082  0.3072867341393817
  0.0006643608205437  0.4076960820540663  0.4158376687949996
  0.0185986192999152  0.4911998338088139  0.4940114119458414
  0.9959457315582156  0.5999260009962413  0.5963554000815137
  0.0035406738214903  0.6776449436217931  0.7109115727029831
  0.9943801204546503  0.7779649128288710  0.8158159054476286
  0.9947548666394965  0.8922091998369766  0.9040811103563797
  0.0901482357469519  0.9937476293981788  0.0888431277453279
  0.0944693370465970  0.1019706860480909  0.2133240266268146
  0.1152873323370898  0.2016784997509404  0.3104079355160110
  0.0975804867997994  0.3097965525517381  0.4008779459312564
  0.1025310691482133  0.3999216084771078  0.4903818217633500
  0.0948726423040327  0.5071016184395205  0.5948244278404218
  0.0988942145541785  0.5910601738894172  0.7243954779694803
  0.0980719173119624  0.6930380147624859  0.8119052470225938
  0.1002599913960935  0.8145426309831123  0.9053209156364659
  0.1056442652719269  0.8979572281845734  0.9927645967486285
  0.1939187587737194  0.9957033600507188  0.1935984449576580
  0.1976734216365514  0.0957384105420473  0.2899792827061560
  0.2051009545804447  0.2293181075940751  0.4026060277136239
  0.1978939673051698  0.3058226423040367  0.5085446157677822
  0.1856870207852168  0.4019170633519025  0.5876831553683814
  0.1793687945478410  0.5055752030974077  0.7119173780736290
  0.2194211384322813  0.5699562038672283  0.8082921392021021
  0.2024337177919691  0.7080570579178556  0.8912156346510898
  0.2032782937100919  0.8026709527690983  0.9952110872616942
  0.1999988973418496  0.9158890766653087  0.0890873966399468
  0.2932248430919699  0.9923522890911585  0.3058848104877043
  0.3071987981705391  0.1145351940406627  0.3977998727527989
  0.2982075116605500  0.2055593071593549  0.4990931123488664
  0.3003143920662978  0.3060544590861767  0.5831213997192393
  0.2886541180998989  0.3871851261151136  0.6951327500792459
  0.2955158828057804  0.4870519417651593  0.8065855739709278
  0.2920655431780119  0.5800746741837628  0.8912524779241977
  0.2931178449486040  0.6984308146538041  0.9952818172349751
  0.3079660204682355  0.7837273518090839  0.1111788846624080
  0.2883366861386563  0.8975773432051781  0.1937146058053685
  0.3823833346918448  0.9951690567404796  0.4025163012271875
  0.3986434157496745  0.1096598184123536  0.4994183489562118
  0.3927022048634683  0.2053787533396729  0.6014162622832018
  0.4087743264049237  0.3221414463614565  0.6820669700674742
  0.3888736969614612  0.4072314640220966  0.7937110243173464
  0.3829921432776331  0.4995397115428162  0.8955426291717643
  0.4126354426481882  0.6088073033555190  0.0035005501969820
  0.4110392097993909  0.6891576955123853  0.1051720087850398
  0.3972452289091137  0.7856052148711683  0.1841480319702953
  0.3779850287551483  0.8924713657564638  0.3024261644704040
  0.5036538409636364  0.0118648236199803  0.4958445845220325
  0.4942592446678447  0.1103539609654476  0.5990875293211957
  0.4974140080605025  0.1879405800842306  0.7340425155096710
  0.4752785613367720  0.2923507978988340  0.8111978508354838
  0.5084800878503799  0.3943880360458252  0.8955043467825945
  0.4919235298646001  0.5004614436444328  0.0008748467146660
  0.4970834750713209  0.6044631173300701  0.1069523515826631
  0.5005072924874341  0.7072103070235016  0.2009117461395675
  0.4981420585971108  0.8013844781053265  0.2983903994022583
  0.4845465964769247  0.8872571462210743  0.4114272227505325
  0.6292317176108355  0.0076110560159393  0.5992694366707454
  0.6215584023909813  0.0919226989086610  0.7022002033238266
  0.5915499067155707  0.2039283005026462  0.7986993094235402
  0.6025207784268432  0.3046115065887776  0.9032459249196236
  0.6030168509713363  0.4082070873522596  0.9964642861024302
  0.6040493148575834  0.5157571874292444  0.0950322456188033
  0.6025224512068093  0.5846235851107195  0.1822167558755581
  0.5880971416927068  0.6870721355794061  0.2887492768192743
  0.6060527645700304  0.8136415188153805  0.4081029620069714
  0.6159759901281561  0.9032348118462181  0.5171150450572810
  0.7066066874971710  0.0003305135171843  0.6961675936240539
  0.7009618919530851  0.1128693592356100  0.8052633808812217
  0.6953313390390790  0.1863629475161872  0.9019112163202436
  0.6905415183625436  0.3027281374813171  0.9842716170810135
  0.6991959833355992  0.4033346696553934  0.0804898727527927
  0.6994721052393231  0.5032685287325123  0.1676831657836360
  0.6776063360956357  0.6074176728705325  0.2872116170810131
  0.6919055404609864  0.6858479803468711  0.3747338663225079
  0.7104118308200853  0.7931682126522688  0.4905867336865484
  0.7153397559208443  0.8988101363039434  0.5914962138296431
  0.7912850215097578  0.0128352270977672  0.8079966313453824
  0.7734846298057363  0.1068456654440055  0.9144250101888360
  0.7898184866186639  0.2385145808993343  0.0048350894353106
  0.7997985572612407  0.3172962591133484  0.1109253217407087
  0.7808851523796605  0.3910975854729912  0.2153710682425398
  0.8190201000769832  0.5076598256577469  0.2849551800027186
  0.7828363089254182  0.6112354535162794  0.3761707159353378
  0.7894175918127075  0.6854282565774596  0.4912921183715966
  0.7975853824208698  0.7993020345967494  0.5991916025902313
  0.8101866653081586  0.8906582819363322  0.7021646171262930
  0.8820694706335175  0.9931738790019438  0.9006928438165076
  0.8940829638183203  0.1114937929629107  0.9979215550423390
  0.8970312507358571  0.2258968228954430  0.1012888769641833
  0.8996380663859114  0.3122692731965770  0.2042530109133693
  0.9105351170583731  0.3987080401213632  0.3146151252094356
  0.8868862260562409  0.5063241045147819  0.3834522768645598
  0.9015667268939893  0.5834537177919685  0.4974599832450295
  0.8903192238373379  0.7087871901462677  0.5958868219897653
  0.9052801240773434  0.8163824244894258  0.6994923633564269
  0.8955226196621808  0.8952339940225542  0.8236326404926899
  0.1016073350541120  0.0917539487388481  0.9853631100846840
  0.0995033011819046  0.2120549042249706  0.0824731725761865
  0.1072896531268412  0.2987141565910463  0.2054985436761285
  0.0888901281528760  0.3976638790019464  0.3027344228592099
  0.1229655721595790  0.5107372150523020  0.3942999026400429
  0.1014920554272507  0.5939846071638826  0.4872376579269115
  0.1024884386179394  0.6920967626681147  0.5998571059185807
  0.1108008182765019  0.7713473889417202  0.7085741941765136
  0.0988540542498768  0.9041153018158781  0.7821221545985608
  0.0964340184757475  0.0041273835076794  0.8905333790698720
  0.2073606715573035  0.0954946501833973  0.1230404809129197
  0.2054451867952736  0.2135912462074927  0.2081205212154131
  0.1923856726893973  0.3402395847484456  0.3092662595661793
  0.1694243476882704  0.4188496282208050  0.4149125109812957
  0.2106041153828713  0.5045607195580288  0.5147162650002244
  0.1866463379069856  0.6005681913689287  0.5967457093691948
  0.2154026513607761  0.6896842625549056  0.6912680872164145
  0.2325213290766683  0.8011292342525920  0.7977798356201617
  0.2287789860979004  0.8936640053434743  0.8862025435855614
  0.2137776923425250  0.9948539614182863  0.9870433337861684
  0.2944699325272850  0.0975247208259731  0.2363455146492797
  0.2909170583706953  0.2307228542317645  0.3200665357967694
  0.3124960535253365  0.3342431897839973  0.4075739555314044
  0.2858007082371046  0.4113872639587015  0.4864807815967040
  0.2687242992347052  0.4769407046144067  0.6160058773717338
  0.3026535733369542  0.5833626821536910  0.6914345913145894
  0.2926242784042046  0.6889660281664618  0.8048997713173023
  0.3350633686546232  0.7954780473667498  0.8968326287189257
  0.2782416460625825  0.8923279735543161  0.9991894425576220
  0.3072140669293120  0.0141370619933880  0.1110742616492360
  0.4111676121903756  0.0746093778019272  0.3042040972693911
  0.4172372757324609  0.2025608554091392  0.4029435008830333
  0.3997681180093267  0.3097939002852854  0.4882111905085367
  0.3824727872118814  0.3944457378979322  0.5653664221346730
  0.3885150844541059  0.5021060698274695  0.6758691006656719
  0.3875608218991999  0.5766538436806599  0.8036944486709245
  0.4184515287777941  0.6781244355386491  0.8917783933342420
  0.4083880745369726  0.7908583217859899  0.9885738097178844
  0.3950386931123475  0.8940160417515770  0.1091891608929956
  0.3835719227460004  0.9849887057917854  0.1977753851378878
  0.5128644504822688  0.0934858941267009  0.4092332395960696
  0.5256850785672214  0.1939333152198515  0.4960086514513407
  0.5079107064257542  0.2997383679753653  0.6168889136439830
  0.4888815749671664  0.3925608268804055  0.6839668437259405
  0.4878493542544007  0.4863674962640943  0.7822163139066234
  0.4870893483675260  0.6076439224743027  0.8931596730516702
  0.5243651084544680  0.6977824883394490  0.0002063632658604
  0.4971652030974028  0.8004830118190469  0.0889691070053900
  0.4993233953720022  0.9071506552551725  0.1946549549427132
  0.4963797169768611  0.9897348806774460  0.3040883104650618
  0.6067541325906802  0.0905383421636543  0.5003719290857234
  0.6040971127111376  0.1672655377439654  0.6095257333695585
  0.5927564171534669  0.2808870099171301  0.7249215364760246
  0.5973109151836269  0.3671439428519676  0.7816896544853478
  0.5870909025041868  0.4883171801838486  0.8798894113118720
  0.5991925780011798  0.6120784354480833  0.9874981039713830
  0.5878362038672265  0.6919202554000847  0.1126531780102340
  0.5901447570529399  0.8044299859620523  0.2002485468459909
  0.5741400534347676  0.9059832848797740  0.2922099832450300
  0.5931620735407321  0.9780984712222107  0.3921893524430544
  0.7228972897704153  0.0953110021283337  0.5987091060997116
  0.7122122954308736  0.2012790073812454  0.6886849218856099
  0.6960718281030651  0.2923660471856167  0.8018039378707584
  0.6840938291898766  0.4086188380201961  0.8917681533306165
  0.6954938319068944  0.5020167780645721  0.9843138264728495
  0.7041333822397320  0.5948028143821062  0.0739158434089546
  0.7196006837839093  0.7048633414843977  0.2161960806955605
  0.6696309351084579  0.8215335638273800  0.2927999103382675
  0.7024219829733269  0.9078376746818790  0.4042029321197305
  0.7011831866141378  0.0097421097676929  0.4979263632658615
  0.7923697676946091  0.1020623964135297  0.7020616745913131
  0.7967159163157191  0.2137120060680147  0.8229372168636502
  0.7930361567721746  0.3141008205406877  0.8985079509124674
  0.8016715084001262  0.4048581433682017  0.9979969972376921
  0.8123538500203793  0.5188462563963228  0.0942836417153501
  0.8032608205406859  0.6096746746366009  0.2176759991848911
  0.7870482751437748  0.7101374346782592  0.3033737055653702
  0.7680868455372902  0.7825025730199684  0.3751808037857174
  0.7882202055880114  0.8770418303672542  0.5007022039577933
  0.8142540098718456  0.0030420585971100  0.5848711569985952
  0.8989058216727770  0.1013343662545836  0.8053539519087067
  0.9082758216727811  0.2091437119050852  0.9105441466286308
  0.9031020563329264  0.3134622397319191  0.0084300104152533
  0.8860969727844932  0.4130279943848194  0.0980794955395581
  0.8919261286962836  0.4709815428157427  0.2080145152379629
  0.8919210492233844  0.6143676026807938  0.2825524992075330
  0.9076921659194852  0.6735766974595876  0.4072415450799269
  0.8891460870352788  0.7820359466557960  0.4847591767422870
  0.9151954290630826  0.8836996599193938  0.5747328338540996
  0.8962157374450967  0.9733136697912457  0.7064806951048297
  0.0154191083639006  0.1039670221437277  0.8864338848888309
  0.0038544744826368  0.2168341973463725  0.0061098098084500
  0.0113816116469678  0.3310117248562250  0.1090773844133466
  0.9979696087488108  0.3830873223746778  0.2076552850609090
  0.9965476389077565  0.4925877652492900  0.2931911375266054
  0.0009622736946966  0.5811827278902300  0.3872543019517281
  0.0089666394964425  0.7041104143458767  0.4969187488113036
  0.0038603350993967  0.7961753828737059  0.6033140460988093
  0.0082808078612544  0.8721107815967031  0.7230192242901765
  0.0000906679346073  0.9860199153194742  0.8094257985780899
  0.1827669818412332  0.2177423153557001  0.0123512095276936
  0.2008177063804766  0.2989160159398665  0.1070242639134165
  0.2069084304668749  0.4046640755332191  0.1869931848027875
  0.2009107748041501  0.4798790037585476  0.3021093778019264
  0.2037882511434148  0.6110658180500863  0.4003298387900216
  0.2102618059140511  0.6956742534981686  0.5145625209437128
  0.2077804772902212  0.7820537943214205  0.6211386469229723
  0.2078851369832009  0.9028327075125659  0.7242330484988457
  0.2076545650500350  0.0101318978399689  0.8034194860299806
  0.1867397998460376  0.1020791998369788  0.9051786759045441
  0.3103705492913136  0.1859240139473783  0.1171751238509273
  0.2970008676357381  0.3380108037857141  0.1898239496445200
  0.3292582887288873  0.4108756156319373  0.2866834460897536
  0.2941398179595183  0.5035393764434204  0.3719247919213871
  0.3086658411447729  0.5973431512928471  0.5092828066838777
  0.3092387578680444  0.6947200724539258  0.6031197056559350
  0.3056013363220558  0.8031062541321390  0.7172087528868332
  0.3249854684599001  0.9270300552461137  0.7892578123443386
  0.3110972127881197  0.0291723968663646  0.9030711049223399
  0.2952517162523236  0.1250464828148381  0.0293470398043780
  0.3944242987818711  0.2043666879500066  0.2045049092061788
  0.4164142602907219  0.3205232798985662  0.2853182416338385
  0.4072459326178475  0.4219880020830473  0.4057368867454585
  0.3995586713761696  0.5044532033691098  0.5032727537019426
  0.3890940732690282  0.5881685296381818  0.5885047398451277
  0.4048505837069243  0.6887875030566519  0.7130951904179668
  0.4126573459222058  0.8136960028075890  0.8023548254313297
  0.4090837820948252  0.9159805261966198  0.9140587248109426
  0.3881477847212764  0.9990844527464589  0.0118353289860949
  0.4002955146492795  0.1069820726350557  0.1279282629171732
  0.5021611221301470  0.1962962111126174  0.3163874641126654
  0.5094526875877392  0.2975749304895174  0.3873547126749060
  0.5001084662410022  0.3810836181678212  0.4895536421681825
  0.5172336399039992  0.4839626631345411  0.5892374491690475
  0.5032451926821508  0.5994394008966140  0.6797455526875851
  0.5008092645926752  0.6996644880677465  0.8031081112167726
  0.5005724743014994  0.7852428089480625  0.9005777729475142
  0.5056427564189647  0.9105486722818483  0.0104004614409305
  0.4913053113254549  0.0117862020558803  0.1016367092333468
  0.5005822202599290  0.0926301584929590  0.2047993759905822
  0.6140304306480076  0.1810391147036157  0.3983112389620942
  0.6070470008603905  0.2913031508400152  0.4953263949644509
  0.6131236716025938  0.4057180591405185  0.5977299999999985
  0.5983691971199576  0.4951821758819008  0.7036779558936743
  0.5870345455780495  0.5869069868224415  0.7825351143413499
  0.5989637141692725  0.6918245102567582  0.8654188606620465
  0.6095184232214805  0.8065557605397800  0.0220809486935636
  0.6095238491147015  0.9053196585608845  0.1037903613639486
  0.6013223135443582  0.0237452578906883  0.1985037866231920
  0.5914168047819572  0.0853209577503051  0.3151763564733088
  0.7154894212742846  0.1916037626228331  0.4988295100303404
  0.6959741244396156  0.2853712702078539  0.6082948335823914
  0.6935994135760524  0.3815865176832887  0.7004906443870880
  0.7117111488475274  0.4834596001449114  0.7809778091744803
  0.6964595118416881  0.5825956029524946  0.8714571013902130
  0.6969301788706233  0.6970608504279312  0.9696816139111561
  0.6922844020287116  0.7899207367658363  0.1064128460806941
  0.7025997572793585  0.9190943517638033  0.1918456364624390
  0.7121836190734925  0.9917079101571318  0.3027750894353147
  0.7101244880677413  0.0951963039442134  0.3898973155821253
  0.8142658569940693  0.1988510329212545  0.5979070878050976
  0.8157977426074368  0.2854821120318789  0.7231078707603160
  0.7979023284879787  0.4049903563827399  0.7929840524385270
  0.8135470579178588  0.5045133808812210  0.9017253090612698
  0.8139757383507700  0.5886275406421220  0.0166670977675167
  0.7843069637277580  0.7074268500656586  0.0916056188017933
  0.7926938767377649  0.8076385545442193  0.2160922958837119
  0.7981736783951447  0.8996230494045179  0.3005587918308237
  0.8079492451206818  0.9995929941584052  0.3997974699995481
  0.8176672952044584  0.0974109265045513  0.4832620101435481
  0.9222969773128682  0.2132510836390011  0.7047963116424398
  0.9181562409998634  0.2981007752569838  0.8187339057193341
  0.9027303120047065  0.4039192030068364  0.8980217724041140
  0.9095003568355722  0.4956377969478751  0.9825790802880050
  0.9073547366752734  0.5802218697640740  0.1215506919349707
  0.9076236122809433  0.7202366594212748  0.1802134388443619
  0.9069823959606964  0.7869195104831803  0.3047140583254091
  0.9091609980527977  0.8761982402753219  0.3934113960965462
  0.9224759697504865  0.9786512914911896  0.4829072807136683
  0.9170532088031536  0.0752472404111728  0.5972822845627874
  0.0180130792917623  0.2214045469365544  0.8200010990354585
  0.0137140814200976  0.3069318471222218  0.9105661572250128
  0.9975223859982805  0.4038354335914534  0.0065069573880336
  0.0208269080288019  0.4792525019245559  0.1257630131775542
  0.0073778372503739  0.5897378404202342  0.2086849241498001
  0.0106269039532663  0.6914159366933816  0.3043841443644411
  0.0120908169179899  0.7923590187021716  0.4311223552053605
  0.0126034999773594  0.8902504800072464  0.4817306339718357
  0.0144067364035649  0.9938540800615883  0.6177482167277972
  0.0056977068333097  0.0983586496399980  0.7229777774758901
  0.0994027405696656  0.1847337141692691  0.9215176135488861
  0.0898973531675935  0.3220145496535807  0.0025000298872442
  0.1117149680749918  0.3888180604990268  0.1069778050989427
  0.1035026930217811  0.4786162505094396  0.1984239120590487
  0.1076824276592845  0.5768539913055264  0.3004567649322993
  0.0941885676764898  0.6965599823393589  0.3946070393515342
  0.1001501163791119  0.8131482031426884  0.5094367527057031
  0.1181683983154471  0.9001743091971193  0.6242185749218834
  0.1104910700538895  0.0248819739165853  0.7180632581623883
  0.0936926459267298  0.1187693044423312  0.7831564212290019
  0.3135551532853356  0.2998993442919868  0.0201401657383542
  0.3074731979350602  0.4082506371416912  0.1002982579359681
  0.3063229683466915  0.5149418638771905  0.2008338522845605
  0.3009919811619781  0.6038813250011330  0.3008811176017758
  0.3116339899470191  0.7009248100348699  0.4107731055563093
  0.2764648589412673  0.8160681886519043  0.5218242865552654
  0.2988747366752733  0.9092056124620740  0.6067898736584709
  0.2941770076529480  0.0031846171262941  0.7074288511524713
  0.2919876230584606  0.1222037254901949  0.7873073010913387
  0.2986089829280445  0.2080425005660445  0.9208681537834522
  0.4112371589005122  0.2935028578544561  0.1234765453063460
  0.4059205139700239  0.4151261010732270  0.1912881084997480
  0.4081262912647716  0.5140284992980995  0.2897878060046182
  0.4195663859077143  0.6071494833129591  0.4265710772992790
  0.3826198057329151  0.6918122999592455  0.5023332174070561
  0.3831326468324079  0.8043407100484501  0.5966094964452324
  0.3870253670244068  0.9037628832133322  0.6899349042249696
  0.3920296590137227  0.0026328180047983  0.7911269161798700
  0.4056737449621863  0.1257482090295667  0.9013163347371318
  0.4153380546121426  0.1927118480278978  0.0092003876284963
  0.5122389390028559  0.3031329194402943  0.2067131327265344
  0.5148977195127458  0.4113020477290235  0.2976532595208994
  0.5022486718290082  0.4989348204501169  0.4154983217859893
  0.5054181682742396  0.6116320033509908  0.5089232871439577
  0.4898874564144364  0.7049187220939217  0.5839211805461204
  0.4937511592627786  0.7997130285740184  0.6667531848027863
  0.4761417203278526  0.9034993877643416  0.7852640207399375
  0.4939861431870654  0.0026800615858349  0.9070619775392856
  0.4895535996015070  0.1228962717927828  0.0058138776434333
  0.5067290037585508  0.2071944174251712  0.1211214685504700
  0.6089492890458743  0.2840219562559412  0.2825309622786776
  0.6041070619933890  0.3975635638273758  0.4129321949010532
  0.5927956265000205  0.5119747846759921  0.4931380242720635
  0.6212118588959825  0.5863686442059475  0.6018958397862590
  0.6044360816012286  0.6958687229995917  0.6988713997192377
  0.5773690087397512  0.7965613883983167  0.7896312779060821
  0.5978071711271085  0.8832461952633253  0.8835628641941753
  0.5932616723271309  0.0010905298193151  0.9949251713988119
  0.6083024819997291  0.1032131567268948  0.0992961499796223
  0.5965940338722078  0.1772573074310557  0.2130238722093907
  0.7012494312366968  0.2991302957025752  0.3896890155323121
  0.7001820164832679  0.4143798256577469  0.4990591939500959
  0.7074732835212600  0.5183181438210411  0.6129556935199005
  0.7147891504777419  0.6156934660145836  0.7032044536521340
  0.6860225748313198  0.7005024023004154  0.8057055141964398
  0.6825172091654181  0.8038561884707676  0.8763805705746535
  0.6755263265860592  0.8988318910474149  0.9996635819408581
  0.7006319259158644  0.0079339460218293  0.0993777688719817
  0.7016032282751468  0.0923718602544952  0.2071159543540304
  0.6955614916451580  0.1872629520445628  0.3043128691753836
  0.7784143024045633  0.3202565299098836  0.4945420862201715
  0.7983228863831897  0.3939234216365506  0.5959954213648473
  0.8043384159760905  0.4999739242856478  0.6986708273332454
  0.8027058212199449  0.6033826477380799  0.7903536045827124
  0.7879104505728378  0.6933227677398932  0.9087605886881320
  0.7863019055381955  0.7977649576597372  0.9980949639994563
  0.7719660290721393  0.8975282153692916  0.1054325834352241
  0.8100810727709131  0.0177406525381514  0.2177246347869399
  0.8152561721686382  0.1018195231626109  0.2979052615133782
  0.8258550799257378  0.1941984168817612  0.3937908481637464
  0.8972509369198036  0.3000747407508015  0.6027082819363301
  0.9092985531857067  0.4065222424489434  0.7043546189376428
  0.9035473404881600  0.5092977570982171  0.7851925997373570
  0.8901338731150688  0.6013092374224485  0.9147179880451048
  0.8780781021600319  0.7071533999003776  0.0101682348412808
  0.8788961631118966  0.7913955563102846  0.0945489199837013
  0.8991382425395074  0.8842360603178889  0.2018355164606263
  0.9102555024226788  0.9928627419281781  0.3057459788072308
  0.9072649956980499  0.1041494307838633  0.3983247104107264
  0.9064316270434247  0.1988789707014433  0.5179403695150100
  0.0061041593080660  0.3167661812253755  0.7040325114341357
  0.9999551175112060  0.3988146787121281  0.8298251646062553
  0.9980106140470042  0.5126220341439094  0.8831664031155171
  0.0154296644477654  0.5934370828238897  0.0091559190327430
  0.0238119263687011  0.7043382040483621  0.0971057455961599
  0.0013783068423692  0.8075559969207120  0.1932334248064151
  0.9965085020151250  0.8829403464203267  0.3008588543223283
  0.9941100058868813  0.9882796671647895  0.3988203686093357
  0.9971148761490767  0.0873486949236977  0.5133284689580222
  0.0074837834533383  0.1811370271249402  0.6124687533396695
  0.1189108341257992  0.3021727808721621  0.7984410849975063
  0.1205428424580006  0.4050658714848510  0.9115615088529623
  0.0886883792962934  0.4933272462980582  0.0011183679753657
  0.1052986514513421  0.6161865036453378  0.0990247851288331
  0.1000731802744212  0.7141312756418969  0.1971795571253878
  0.0787556147262620  0.7925175872843369  0.3106953321559587
  0.0984126812480213  0.8971761807725400  0.3858370103699684
  0.1082341620250844  0.9747927491735737  0.4815946479192164
  0.1128078290993102  0.0729974025268305  0.5976976506815177
  0.0946466186659407  0.2228512380564212  0.6943495602952510
  0.1777347543359156  0.2857739451161549  0.9102665729294017
  0.2043351034732623  0.3897249730561967  0.0062885414119478
  0.1886950713218312  0.4902121985237500  0.0962816528551400
  0.1980547244486743  0.5772976140017221  0.1978279703844592
  0.1852441728931780  0.7028851872481070  0.2755692962912661
  0.1941227165693036  0.7756823583752208  0.3789412149617348
  0.1881553529864632  0.8984656627269842  0.5089946587873015
  0.2082118158764672  0.0151008314087733  0.6052014191912320
  0.2042388036045821  0.1273696662591135  0.6941164488520570
  0.2075064787393046  0.2130697916949700  0.8037234225422267
  0.4004105162342100  0.4161729561200929  0.9994391083639016
  0.4154836453380426  0.5141356052166799  0.1044859552597046
  0.4147610863560232  0.5903753394013478  0.1955779047230877
  0.4064520259928486  0.6939566942897244  0.3022030235928099
  0.3763247212788130  0.7989695548612090  0.4091170769370081
  0.3937565507403917  0.8948127967214603  0.4776523017705898
  0.3953817954987997  0.0041141552325286  0.5940235171851640
  0.3786107068785967  0.1136695566725550  0.6949352868722514
  0.3764061925463054  0.2015688466240988  0.8102253276275846
  0.3974406022732424  0.3099441230811024  0.8952764031155169
  0.5054646692025528  0.4031390902504199  0.1066125444912345
  0.5133175089435298  0.5004477204184212  0.1966589553049829
  0.5078577752117042  0.6131923022234318  0.3077285830729508
  0.5049015509668067  0.7056742195353891  0.4167908078612541
  0.4736787465471153  0.8023140442874634  0.5054296418059110
  0.4975215939863276  0.9171362822080340  0.5951562767739915
  0.5114354784223138  0.0119405429515922  0.6968556962369234
  0.4880145795408239  0.0929552207580500  0.7897868156500465
  0.5021458465788129  0.2075326980029857  0.9023598836208819
  0.4987062464339118  0.2852085622424525  0.0069763048498857
  0.6056964701353991  0.4149188742471566  0.1959056473305267
  0.6048463845491980  0.5202688398315445  0.3055699592446643
  0.5961491147036213  0.5918442507811434  0.4051847380337819
  0.6099404754788722  0.6836909255988743  0.4995689104741174
  0.6003618348956223  0.7879790698727547  0.5796743445184092
  0.6131839510030375  0.8852313585110707  0.6873427695512362
  0.5854513974550528  0.0095631204999336  0.8025675007924633
  0.5775841497984899  0.1108639369650888  0.9056353448353960
  0.6033461318661395  0.2027133002762298  0.0090120368609306
  0.6125234968074977  0.3147044708599367  0.1023108540506286
  0.7042537060182070  0.4222791477607188  0.2971511049223352
  0.6979325508309557  0.4972105719331594  0.3841995340306994
  0.6957981673685651  0.6033291948557746  0.4811836992256460
  0.7067814943621826  0.7039960064302875  0.6075483100122270
  0.7127933605035537  0.7807915002490589  0.6946820264456832
  0.6875405388760569  0.9066115029660793  0.7729501725309049
  0.6712167015351156  0.0106128990626289  0.8814433147670186
  0.6890185377892522  0.1208183231444977  0.0066956600099601
  0.6974204935923538  0.1937612602454379  0.1083886826970968
  0.6979879305348007  0.2833610437893412  0.1793319775392845
  0.8059696051261156  0.4086549843771223  0.3855076900783416
  0.7859466775347528  0.4855568550468661  0.5017684793732755
  0.7862886614137565  0.6189264257573726  0.6085601489833792
  0.7997038853416640  0.7115031608024296  0.7049321831272906
  0.7858192283657104  0.8033902508717148  0.7944538790019493
  0.7612069487841353  0.9039967133088780  0.9086774097722241
  0.7833126038128881  0.9908877326450209  0.9777472920346000
  0.7979017819136871  0.0947624983018613  0.0924974536974119
  0.7961829298555472  0.2002644826336990  0.1933909405424998
  0.7864973187519837  0.2921299655843868  0.2867175764162511
  0.9025758144273865  0.4048244192365189  0.5139768478014730
  0.8819121817687829  0.4955222623737683  0.5953500919259156
  0.8850148806774456  0.6094229860073384  0.6927458832586169
  0.8857732110673382  0.6904704917810065  0.8016344595390095
  0.8906594891998338  0.7766607331431388  0.9054703577412511
  0.8769555495177315  0.8630909373726396  0.9980788199067163
  0.8752721654666473  0.9762499053570650  0.0913822279581566
  0.9283963433410349  0.1014381401983400  0.1954843304804612
  0.9177429556672578  0.2192405139700213  0.2960646483720524
  0.9057791586288104  0.3009091953086056  0.4016123873567921
  0.9998615804012161  0.4065477217769313  0.6062941760630380
  0.9886722261468108  0.5138115396458787  0.7043333147670126
  0.9776329176289451  0.6155880700086058  0.8064136408096729
  0.9831735746954706  0.6867472879590650  0.9037415686274528
  0.9976928161934495  0.7990173427523430  0.0116593710093724
  0.9977508622016913  0.9064796064846234  0.0998488574921907
  0.9984532762758676  0.9919602649096575  0.2026775293211998
  0.0158694162930786  0.1020994656523087  0.3097644119911251
  0.0125261862065855  0.2094945433138591  0.4049452592491960
  0.0035514948150137  0.2939945202191723  0.5205891930444224
  0.0746830249513195  0.4182696173527134  0.7047728705338940
  0.0967959643164420  0.4918299972829772  0.8066054249875449
  0.1022130892541782  0.6047611117148932  0.9200275266041729
  0.1100795516913493  0.7005904492143245  0.9827624765656822
  0.1185780469139175  0.8014214395688981  0.0798429900828665
  0.1123386790743979  0.8812403713263564  0.2088609305800873
  0.1059822293166661  0.9789183797491248  0.2886870606348779
  0.0908434497124517  0.1007289122854687  0.4127320825974721
  0.0981775397364473  0.2038878766471939  0.5075297907892917
  0.0911832989177199  0.3111102929855534  0.5933597477697745
  0.1955423117330071  0.4112569030475939  0.8011045387854878
  0.1858227414753415  0.5044939550785656  0.8921164157949590
  0.1987561526966459  0.5881689575691738  0.9914568894624836
  0.1903740379477412  0.6971416315717960  0.0884675954354037
  0.1928796644477657  0.8034406326133237  0.1840130050264932
  0.2101296861839401  0.8872015120228198  0.2998147140334169
  0.2055838762849262  0.0006425286419400  0.3924548820359561