Li 
 1.0000000000000000
    22.0829999999999984   -0.0000000000000006    0.0000000000000000
    -0.0000000000000006   22.0829999999999984    0.0000000000000000
     0.0000000000000006    0.0000000000000006   22.0829999999999984
 Li 
 500
Cartesian
 -0.2028786100000000 -0.2734503500000000 -0.2902877600000000
  0.0768625500000000  2.3159758699999999  2.0674135400000000
 -0.0713034200000000  4.9511320300000001  4.2719176399999998
  0.3647329700000000  6.6245116599999996  6.7858129500000004
  0.0146710800000000  9.0031525800000001  9.1829432400000002
  0.4107133100000000 10.8471659299999992 10.9092540099999997
 -0.0895304100000000 13.2481658800000002 13.1693163000000002
  0.0781887000000000 14.9644332900000006 15.6990602599999995
 -0.1241038000000000 17.1797991699999990 18.0156626399999986
 -0.1158282800000000 19.7026557599999990 19.9648231600000017
  1.9907434900000001 -0.1380711000000000  1.9619227900000000
  2.0861663699999999  2.2518186600000001  4.7108344799999999
  2.5458901599999999  4.4536663100000000  6.8547384400000002
  2.1548698900000001  6.8412372699999997  8.8525876799999992
  2.2641936000000000  8.8314688799999992 10.8291017699999994
  2.0950725600000002 11.1983250400000003 13.1355078400000007
  2.1838809399999999 13.0523818200000008 15.9968253399999991
  2.1657221500000001 15.3043584799999994 17.9293035699999983
  2.2140413900000002 17.9875449200000013 19.9922017799999985
  2.3329423100000000 19.8295894699999984 21.9232205899999997
  4.2823079499999999 -0.0948827000000000  4.2752344600000001
  4.3652221700000000  2.1141913200000002  6.4036125000000004
  4.5292443799999997  5.0640317699999997  8.8907489099999992
  4.3700924800000003  6.7534814100000000 11.2301907500000002
  4.1005264800000001  8.8755345099999996 12.9778071199999996
  3.9610010899999999 11.1646172099999994 15.7212714600000005
  4.8454769999999998 12.5863428499999994 17.8495153100000010
  4.4703437900000003 15.6360240099999999 19.6807148599999984
  4.4889945600000001 17.7253826500000002 -0.1057535600000000
  4.4165756500000004 20.2255784799999994  1.9673169800000001
  6.4752842099999999 -0.1688844000000000  6.7548542700000000
  6.7838710600000001  2.5292806900000002  8.7846145900000003
  6.5853164800000004  4.5393661800000000 11.0214732000000009
  6.6318427199999999  6.7586006200000002 12.8770698699999997
  6.3743488900000003  8.5502091399999998 15.3506165200000009
  6.5258772399999998 10.7555680299999992 17.8118292300000007
  6.4496833899999997 12.8097890299999992 19.6815284699999999
  6.4729213699999999 15.4234476800000007 -0.1041916300000000
  6.8008136300000004 17.3070511099999997  2.4551633100000001
  6.3673390400000001 19.8212004700000008  4.2777996399999996
  8.4441711799999997 -0.1066817200000000  8.8887674800000003
  8.8032425500000002  2.4216177700000001 11.0286553999999999
  8.6720427900000008  4.5353790099999998 13.2810753199999994
  9.0269634500000002  7.1138495600000002 15.0620849000000003
  8.5874978500000001  8.9928924200000004 17.5275205499999984
  8.4576154999999993 11.0313354500000003 19.7762678799999989
  9.1122284800000006 13.4442916799999992  0.0773026500000000
  9.0769788699999996 15.2186693900000005  2.3225134700000001
  8.7723663900000002 17.3485199600000009  4.0665409900000000
  8.3470433899999996 19.7084451700000010  6.6784769900000001
 11.1221877700000000  0.2620109000000000 10.9497359599999999
 10.9147268999999998  2.4369465199999998 13.2296499099999991
 10.9843935399999992  4.1502918299999996 16.2098608700000000
 10.4955764699999996  6.4559826700000000 17.9136821399999988
 11.2287657799999998  8.7092709999999993 19.7754224900000004
 10.8631473100000004 11.0516900600000003  0.0193192400000000
 10.9770943800000005 13.3483590200000002  2.3618287800000002
 11.0527025400000003 15.6173252100000006  4.4367340899999999
 11.0004710800000005 17.6969734299999999  6.5893551900000000
 10.7002424900000008 19.5932995599999984  9.0855473599999996
 13.8953240200000003  0.1680749500000000 13.2336669699999998
 13.7258741999999998  2.0299289599999999 15.5066870899999998
 13.0631965900000004  4.5033486600000003 17.6376768499999983
 13.3054663499999997  6.7267359000000004 19.9463797599999992
 13.3164211199999993  9.0144371099999994 -0.0780791700000000
 13.3392210200000001 11.3894659699999998  2.0985970799999998
 13.3055032900000008 12.9102426300000008  4.0238926199999998
 12.9869491799999999 15.1726139700000004  6.3764502800000002
 13.3834631999999996 17.9676456599999987  9.0121377099999993
 13.6025977900000008 19.9461343500000012 11.4194515400000007
 15.6039954800000000  0.0072987300000000 15.3734689699999993
 15.4793414600000006  2.4924940599999998 17.7826312400000006
 15.3550019599999992  4.1154529699999998 19.9169053900000002
 15.2492283499999992  6.6851454600000002 -0.3473298800000000
 15.4403448999999995  8.9068395099999993  1.7774578599999999
 15.4464424999999999 11.1136789199999999  3.7029473500000001
 14.9635807199999995 13.4136044699999992  6.3424941400000003
 15.2793500499999997 15.1455809499999994  8.2752479700000006
 15.6880244599999994 17.5155336400000010 10.8336268400000009
 15.7968478300000008 19.8484242399999999 13.0620108899999998
 17.4739471299999991  0.2834403200000000 17.8429896100000001
 17.0808610799999983  2.3594728300000001 20.1932474999999982
 17.4415616399999998  5.2671174900000004  0.1067732800000000
 17.6619515400000004  7.0068532899999996  2.4495638799999999
 17.2442868199999992  8.6366079800000009  4.7560393000000003
 18.0864208700000013 11.2106519299999992  6.2926652399999998
 17.2873742099999994 13.4979125199999999  8.3069779199999996
 17.4327086800000011 15.1363121899999999 10.8492038500000003
 17.6130780000000016 17.6509868300000008 13.2319481600000000
 17.8913521300000014 19.6684068399999994 15.5059012400000000
 19.4787401200000012 -0.1507412300000000 19.8900000699999993
 19.7440340899999995  2.4621174300000002 22.0371017000000009
 19.8091411099999988  4.9884795400000002  2.2367622699999998
 19.8667074200000009  6.8958423599999996  4.5105192399999998
 20.1073469899999999  8.8046696499999992  6.9476458100000000
 19.5851085299999994 11.1811551999999992  8.4677766299999995
 19.9092980299999986 12.8844084500000005 10.9854088099999991
 19.6609194199999990 15.6521475199999998 13.1589686900000000
 19.9913009799999983 18.0281730799999984 15.4468898600000006
 19.7758260099999994 19.7694522900000003 18.1882796000000013
  2.2437947800000000  2.0262024500000000 -0.3232264400000000
  2.1973313999999999  4.6828084499999996  1.8212550700000001
  2.3692774100000000  6.5965047200000004  4.5380243399999998
  1.9629607000000000  8.7816114400000007  6.6852842600000004
  2.7154487299999999 11.2786099199999992  8.7073247499999997
  2.2412490599999999 13.1169620800000004 10.7596691999999994
  2.2632521900000002 15.2835728100000008 13.2466444699999997
  2.4468144700000001 17.0336643899999984 15.6474439299999997
  2.1829940799999998 19.9655782100000003 17.2716035400000010
  2.1295524299999999 22.1741450100000002 19.6656486100000016
  4.5791457099999997  2.1088083599999998  2.7171029400000002
  4.5368460600000002  4.7167354899999996  4.5959254700000001
  4.2484528099999999  7.5135107500000000  6.8295268099999999
  3.7413978700000001  9.2494563400000001  9.1625129800000007
  4.6507706799999999 11.1422143699999996 11.3664792800000001
  4.1217110799999999 13.2623473700000005 13.1779355000000002
  4.7567367500000000 15.2302975699999994 15.2652731700000004
  5.1347685099999998 17.6913368800000015 17.6173721100000016
  5.0521263500000000 19.7347822300000004 19.5700107699999997
  4.7208527800000004 21.9693600300000007 21.7968779400000017
  6.5027795199999998  2.1536384100000001  5.2192179999999997
  6.4243214000000002  5.0950527900000004  7.0680293100000000
  6.9008503499999998  7.3810923600000002  9.0004556600000001
  6.3113370399999997  9.0846649500000005 10.7429550999999996
  5.9342386999999999 10.5322815799999994 13.6032577900000007
  6.6834988600000003 12.8823981100000005 15.2689500799999998
  6.4620219399999996 15.2144367999999996 17.7746016500000010
  7.3992043699999996 17.5665417200000000 19.8047549399999987
  6.1444102699999998 19.7052786399999995 -0.0178995400000000
  6.7842082399999999 22.3951887399999983  2.4528529200000002
  9.0798143800000002  1.6475988900000000  6.7177390800000003
  9.2138507599999997  4.4731513700000001  8.8982013299999991
  8.8280793499999994  6.8411787000000004 10.7811677199999991
  8.4461465600000007  8.7105452299999993 12.4849867000000003
  8.5795786100000004 11.0880083400000000 14.9252173500000005
  8.5585056300000009 12.7342468300000000 17.7479845099999984
  9.2406651100000001 14.9750219100000006 19.6931422599999983
  9.0184338499999992 17.4645243199999989 -0.2523245600000000
  8.7236394599999993 19.7425562499999998  2.4112242400000001
  8.4704187700000002 21.7515055900000007  4.3674738299999998
 11.3255856599999998  2.0644490000000002  9.0370976299999999
 11.6087035899999993  4.2826294000000003 10.9533590499999995
 11.2161921299999996  6.6191223800000003 13.6227578800000000
 10.7959718200000001  8.6689207400000008 15.1040398099999997
 10.7731772899999996 10.7404534199999997 17.2736828600000010
 10.7563940799999997 13.4186007400000005 19.7236450599999991
 11.5795546900000002 15.4091306899999996  0.0045571200000000
 10.9788991800000009 17.6770663500000005  1.9647047900000001
 11.0265585399999999 20.0326079200000002  4.2985653700000004
 10.9615532899999994 21.8563153700000008  6.7151821600000003
 13.3989515099999998  1.9993582100000000 11.0497133099999996
 13.3402765399999996  3.6937248700000000 13.4601567699999993
 13.0898399600000008  6.2028278400000003 16.0084422900000014
 13.1904169400000004  8.1076396899999992 17.2620526400000003
 12.9647284000000003 10.7835082900000003 19.4305978699999997
 13.2319697000000005 13.5165280899999996 -0.2760793700000000
 12.9811868900000000 15.2796749999999992  2.4877201300000000
 13.0321666700000005 17.7642273800000012  4.4220886600000000
 12.6787348000000009 20.0068288800000005  6.4528730599999999
 13.0987980700000008 21.5993485400000012  8.6607174699999998
 15.9637408500000006  2.1047528600000001 13.2212931900000008
 15.7277841200000008  4.4448443199999996 15.2082291299999994
 15.3713541800000009  6.4563194199999998 17.7062363599999983
 15.1068440299999995  9.0235298000000004 19.6929161300000004
 15.3585902900000004 11.0860365099999996 -0.3463977700000000
 15.5493774800000004 13.1350305499999997  1.6322835700000000
 15.8909418999999996 15.5654971700000004  4.7742580500000003
 14.7874599399999997 18.1419256900000008  6.4659004199999996
 15.5115846499999996 20.0477793700000007  8.9260133499999998
 15.4842283100000007 22.2981350099999993 10.9957078799999994
 17.4979015800000006  2.2538439000000001 15.5036279599999993
 17.5938775800000009  4.7194022300000000 18.1729225599999999
 17.5126174500000005  6.9362884200000003 19.8417510800000017
 17.7033119200000009  8.9404823800000006 -0.0442323100000000
 17.9392100700000015 11.4576818800000009  2.0820656600000000
 17.7384087000000008 13.4634458400000003  4.8069390900000002
 17.3803870600000003 15.6819649699999992  6.6994015400000002
 16.9616618099999990 17.2800043199999998  8.2851176899999999
 17.4062668000000009 19.3677147400000003 11.0570067699999992
 17.9811712999999997 22.1501777799999999 12.9157097600000004
 19.8505372599999994  2.2377668100000001 17.7846313199999990
 20.0574549699999984  4.6185205900000001 20.1075463899999995
 19.9432027100000013  6.9221866399999996  0.1861599200000000
 19.5676794500000000  9.1208971999999999  2.1658895000000000
 19.6964046999999987 10.4006854099999995  4.5935845400000002
 19.6962925300000009 13.5670797699999994  6.2396068400000004
 20.0445661000000008 14.8745942099999997  8.9931150399999993
 19.6350130400000005 17.2696998099999988 10.7049368999999999
 20.2102606599999994 19.5147395900000014 12.6918251699999995
 19.7911321300000012 21.4936857699999990 15.6012131899999993
 22.4235001700000005  2.2959037499999999 19.5751194800000015
 22.1681183600000011  4.7883495800000002 22.2179229300000003
 22.3343401300000011  7.3097319199999999  2.4087558800000002
 22.0381628700000007  8.4597173399999992  4.5856516599999999
 22.0067615100000005 10.8778156199999998  6.4745398900000000
 22.1042498899999984 12.8342581800000008  8.5517367499999999
 22.2810102999999984 15.5488702799999992 10.9734567300000005
 22.1682477800000015 17.5819409799999988 13.3229840799999995
 22.2658650800000011 19.2588223899999988 15.9664335299999998
 22.0850022199999998 21.7742777899999993 17.8745499099999989
  4.0360432599999996  4.8084035500000004  0.2727517600000000
  4.4346574099999998  6.6009623800000004  2.3634168199999999
  4.5691588699999999  8.9361967799999995  4.1293705000000003
  4.4367126399999997 10.5971680399999997  6.6714813900000003
  4.5002559499999997 13.4941664600000006  8.8404838300000002
  4.6432114599999998 15.3625745400000007 11.3630841500000006
  4.5884162799999997 17.2700939399999989 13.7166047399999993
  4.5907274800000000 19.9372546799999988 15.9932384100000000
  4.5856357599999997  0.2237427000000000 17.7419125099999988
  4.1237750000000002  2.2542149700000000 19.9890606999999996
  6.8539128399999996  4.1057600000000001  2.5875782599999999
  6.5586701600000001  7.4642925800000004  4.1918822799999997
  7.2710107900000001  9.0733662200000005  6.3308305400000000
  6.4954896000000000 11.1196600500000002  8.2132151800000006
  6.8162677699999996 13.1911288100000004 11.2464922200000004
  6.8289194899999996 15.3415033600000008 13.3186924599999994
  6.7485943099999997 17.7349954099999998 15.8381208900000008
  7.1766541000000004 20.4716047100000011 17.4291802699999998
  6.8699597499999996  0.6442140400000000 19.9425192100000004
  6.5200436499999999  2.7614014800000000 22.7310706799999984
  8.7100717900000006  4.5130295699999996  4.5160819099999996
  9.1956761100000008  7.0781155900000003  6.3006827300000001
  8.9932119299999993  9.3187610500000009  8.9598876700000005
  8.8234541400000008 11.1398400899999999 11.1137722199999995
  8.5923644199999991 12.9885256400000006 12.9959501700000004
  8.9403154399999991 15.2104944300000007 15.7472810899999995
  9.1127121700000000 17.9688488299999989 17.7184016100000008
  9.0337971600000007 20.2275979600000007 20.1851588200000016
  8.5714675299999996 -0.0202180300000000  0.2613595700000000
  8.8397258500000007  2.3624851100000002  2.8250398300000001
 11.0892240599999994  4.3348092300000003  6.9867843699999996
 11.2502437000000004  6.5713471900000000  8.5539541200000002
 11.0438952599999993  8.4154695400000001 10.8108130800000009
 11.4220704699999995 10.6873474900000005 13.0121305899999999
 11.1131635899999992 13.2374202899999993 15.0108210399999997
 11.0593709899999997 15.4506908900000006 17.7350364200000001
 11.0541419500000000 17.3405169500000014 19.8874589600000000
 11.1661089899999997 20.1076463300000015  0.2296733900000000
 10.8494951900000007  0.2602747000000000  2.2444434499999999
 11.0543571699999994  2.0455517900000002  4.5225846199999999
 13.5596340000000009  3.9978867700000000  8.7959070900000000
 13.4054189200000007  6.4328474800000004 10.9382927799999994
 13.5396100399999995  8.9594719000000005 13.1996715899999995
 13.2137869800000001 10.9351079900000006 15.5393203000000000
 12.9634838699999992 12.9606669900000000 17.2807229299999996
 13.2269156999999993 15.2775606600000007 19.1110447000000008
 13.4599953400000008 17.8111708600000007  0.4876135900000000
 13.4601151600000009 19.9921740200000002  2.2920025499999999
 13.2790006500000004  0.5243665300000000  4.3835591200000001
 13.0602573000000000  1.8841427100000001  6.9600394799999998
 15.8001528899999997  4.2311858899999999 11.0156520699999998
 15.3691965899999996  6.3018537600000002 13.4329748099999993
 15.3167558499999998  8.4265750700000002 15.4689349000000007
 15.7167172999999991 10.6762383500000002 17.2463329600000002
 15.3799153999999998 12.8654586999999996 19.2443871699999995
 15.3903091399999994 15.3931947600000001 -0.6695209200000000
 15.2877164499999996 17.4438196300000001  2.3499148800000000
 15.5155104399999999 20.2963605700000009  4.2365271900000003
 15.7271508600000001 -0.1831142200000000  6.6861822999999996
 15.6816790699999995  2.1022199800000001  8.6101024200000005
 17.9814329199999996  4.3912273600000002 13.2035822199999995
 18.0152615500000017  6.3043014800000003 15.9683911100000007
 17.6200771200000013  8.9434020400000005 17.5114668299999998
 17.9655596799999984 11.1411689900000006 19.9128000000000007
 17.9750262300000010 12.9986619799999996  0.3680595200000000
 17.3198506799999983 15.6221071299999998  2.0229268800000000
 17.5050588800000000 17.8350821999999987  4.7719661699999998
 17.6260693400000008 19.8663758000000001  6.6372397999999997
 17.8419431800000012 -0.0089879100000000  8.8287275300000001
 18.0565468799999991  2.1511254900000001 10.6718749699999993
 20.3670841500000002  4.7092236800000000 15.5640169499999992
 20.2756442700000008  6.5829594199999999 18.0801008400000001
 19.9349934799999993  8.9197477599999999 19.8310147999999984
 20.0844963800000009 10.9451694699999997 -0.3847061700000000
 20.0371146499999995 12.8130395499999992  2.6842039299999998
 20.0430522300000007 15.9049861499999992  3.9796533699999999
 20.0288922499999984 17.3775435499999986  6.7290005500000003
 20.0770023199999983 19.3490857399999996  8.6877038599999992
 20.3710368399999986 -0.4714435300000000 10.6640414799999999
 20.2512860100000012  1.6616848099999999 13.1897846899999998
  0.3977828300000000  4.8892766099999996 18.1080842699999991
  0.3028480600000000  6.7779759799999999 20.1080324499999996
 -0.0547131500000000  8.9178978799999999  0.1436931400000000
  0.4599206100000000 10.5833329999999997  2.7772246200000001
  0.1629247800000000 13.0231807300000000  4.6083891799999996
  0.2346739200000000 15.2685381299999996  6.7217150600000002
  0.2670015100000000 17.4976642099999999  9.5204749700000004
  0.2783230900000000 19.6594013499999996 10.6380575900000007
  0.3181439600000000 -0.1357203500000000 13.6417338699999995
  0.1258224600000000  2.1720540599999998 15.9655182599999996
  2.1951107200000002  4.0794746100000001 20.3498734600000013
  1.9852032500000001  7.1110473000000001 22.1382081600000014
  2.4670016399999999  8.5862692299999992  2.3623908700000000
  2.2856499700000001 10.5692826600000007  4.3817952499999997
  2.3779510500000001 12.7386666900000005  6.6349867400000004
  2.0799661399999998 15.3821340899999992  8.7141072499999996
  2.2116150200000000 17.9567517700000003 11.2498918099999994
  2.6095127400000000 19.8785492700000006 13.7846187899999997
  2.4399742999999998  0.5494686300000000 15.8569909300000003
  2.0690146999999999  2.6227825500000002 17.2944432500000005
  6.9242384499999998  6.6226772199999999  0.4447552800000000
  6.7899306299999997  9.0153988199999997  2.2148864300000000
  6.7645301099999999 11.3714611800000007  4.4350139600000000
  6.6468059200000003 13.3355113000000003  6.6443577200000004
  6.8818134000000004 15.4785225799999999  9.0711024899999995
  6.1051734800000004 18.0212338099999982 11.5234457199999998
  6.6000508099999999 20.0779875399999987 13.3997407800000001
  6.4963108600000004  0.0703259000000000 15.6221513200000004
  6.4479626799999998  2.6986248700000002 17.3861071299999992
  6.5941821699999998  4.5942025400000004 20.3355314400000005
  9.0813501799999994  6.4814236100000002  2.7267325499999999
  8.9639427099999995  9.1672296899999992  4.2242153000000000
  9.0126528900000000 11.3512913500000003  6.3993841199999997
  9.2652844999999999 13.4076820399999992  9.4199690999999994
  8.4493931700000005 15.2772910199999998 11.0930244400000007
  8.4607182400000003 17.7622558999999995 13.1749275099999998
  8.5466811800000002 19.9577957499999989 15.2358324900000000
  8.6571909599999994  0.0581405200000000 17.4704556900000014
  8.9584933099999997  2.7768977000000001 19.9037686200000010
  9.1719102600000006  4.2556557399999999 22.2861721599999996
 11.3117724899999992  6.6940842600000003  4.5648461100000004
 11.3704863399999994  9.0827831200000002  6.5730769300000000
 11.0911574200000000 11.0179776399999998  9.1754494399999995
 11.1611494100000002 13.5066695299999999 11.2385529500000008
 10.8181846999999998 15.5667201399999993 12.8947314300000002
 10.9035068499999994 17.6600628099999994 14.7239105800000001
 10.5146376099999994 19.9519769800000013 17.3409853699999985
 10.9086960000000008  0.0591838000000000 20.0306496500000009
 10.8108121399999995  2.7139183700000000  0.1283878600000000
 11.1900965899999996  4.5754743199999997  2.6747253899999999
 13.4474271499999993  6.2720568600000002  6.2391312399999999
 13.3404962499999993  8.7793961800000009  9.1187816599999998
 13.0907058200000002 11.3059391700000003 10.8899669899999996
 13.7182214800000004 12.9487787700000005 13.2916658299999995
 13.3477619900000004 15.3668690100000003 15.4331771199999999
 12.7500398199999996 17.5904651399999992 17.4374275099999991
 13.2013757599999995 19.5047257300000005 19.5117187299999983
 13.1009975099999991  0.0240821700000000 -0.1120674400000000
 13.4331437099999995  2.2792561400000002  2.1927568800000001
 13.1745860500000003  3.9143731200000000  4.7042061700000000
 15.4856911900000007  6.6056943199999996  8.6055025300000008
 15.4621194699999993  9.1507496899999996 11.0207241800000002
 15.6231325200000004 11.4460195700000007 13.5359005799999998
 15.7846888100000005 13.5963588099999999 15.5288639499999999
 15.1494365200000001 15.4691945499999992 17.7923948699999990
 15.0720275299999997 17.7515562100000004 19.3531121400000004
 14.9176478699999997 19.8489046500000015 -0.0074291200000000
 15.4720548200000003  0.1752053300000000  2.1945592700000001
 15.4935040900000001  2.0398477900000000  4.5737416199999998
 15.3600844199999997  4.1353277700000000  6.7201410900000003
 17.1897230400000005  7.0722249499999998 10.9209728899999998
 17.6293642999999989  8.6990109199999992 13.1613668900000000
 17.7622052400000001 11.0409241700000003 15.4287478799999995
 17.7261526499999995 13.3244990100000003 17.4533786500000012
 17.3994264799999989 15.3106466799999996 20.0681600799999984
 17.3639049800000009 17.6170435599999990 -0.0420689100000000
 17.0473258200000011 19.8201155799999995  2.3282677399999998
 17.8890203300000010  0.3917668300000000  4.8080131100000001
 18.0033020499999985  2.2484805300000001  6.5786418900000001
 18.2373577299999994  4.2884836399999999  8.6960832999999997
 19.8139924399999998  6.6265504999999996 13.3096069900000007
 20.0800399499999997  8.9772306799999999 15.5542630499999994
 19.9530359200000014 11.2468223700000003 17.3394081799999995
 19.6568263200000004 13.2787118900000003 20.1997173299999986
 19.3905987300000007 15.6160685299999997  0.2245451300000000
 19.4086639699999992 17.4763880699999987  2.0879238000000000
 19.8556698099999984 19.5265849200000012  4.4571337099999999
 20.1011722599999985 -0.1576120700000000  6.7517884500000003
 20.0351329000000007  2.2999318799999999  8.7962045799999995
 20.0167296199999996  4.3918443099999998 11.4376771799999997
  0.1347981500000000  6.9951475800000003 15.5471499499999997
 -0.0009911400000000  8.8070245499999995 18.3250291099999991
 -0.0439316100000000 11.3202323800000002 19.5029636800000006
  0.3407332800000000 13.1048711000000004  0.2021901600000000
  0.5258387700000000 15.5539005600000007  2.1443861800000001
  0.0304371500000000 17.8332590800000013  4.2671737199999997
 -0.0771027500000000 19.4979716699999983  6.6438660799999996
 -0.1300687400000000 -0.2588201100000000  8.8071502000000006
 -0.0637121900000000  1.9289212300000000 11.3358325799999999
  0.1652643900000000  4.0000489699999999 13.5251474799999993
  2.6259079500000002  6.6728815199999998 17.6319744800000002
  2.6619475900000000  8.9450696399999998 20.1300127999999994
  1.9585054799999999 10.8941455800000000  0.0246969200000000
  2.3253101200000001 13.6072465600000001  2.1867643299999999
  2.2099160400000000 15.7701609600000001  4.3543161599999998
  1.7391602399999999 17.5011658799999985  6.8610850200000000
  2.1732472399999998 19.8123415999999999  8.5204386999999997
  2.3901349999999999 -0.5566517200000000 10.6350546099999992
  2.4911352899999999  1.6120016399999999 13.1989572200000005
  2.0900812800000002  4.9212238900000003 15.3333213399999995
  3.9249165800000001  6.3107460299999998 20.1014167300000004
  4.5123320900000001  8.6062965800000004 22.2218698600000018
  4.1669532599999997 10.8253559799999994  2.1261877400000002
  4.3736424800000000 12.7484632100000006  4.3686350699999998
  4.0907470699999999 15.5218135900000007  6.0853967700000000
  4.2868119499999997 17.1293935200000007  8.3681588500000004
  4.1550346600000001 19.8408172299999990 11.2401290500000002
  4.5979415299999999  0.3334716600000000 13.3646629400000005
  4.5102054999999996  2.8127043399999998 15.3281735399999999
  4.5823655700000003  4.7052202100000002 17.7486243399999992
  8.8422654299999994  9.1903473899999995 -0.0123861700000000
  9.1751253399999992 11.3536565700000001  2.3073633500000001
  9.1591690700000008 13.0372586199999994  4.3189468700000004
  8.9756800900000009 15.3246456799999997  6.6735493699999999
  8.3103788200000004 17.6436446800000013  9.0345324100000006
  8.6953259099999993 19.7601509899999996 10.5479957800000008
  8.7312161899999996  0.0908528900000000 13.1178213299999999
  8.3608602399999992  2.5101648200000000 15.3462559400000007
  8.3121779500000006  4.4512448400000002 17.8922059100000013
  8.7766808199999993  6.8444960699999999 19.7703888100000000
 11.1621762899999997  8.9025205300000003  2.3543248200000000
 11.3355905499999992 11.0513870099999991  4.3428197099999997
 11.2150232499999998 13.5411256099999999  6.7955702999999996
 11.1497409500000000 15.5834037900000002  9.2039914100000004
 10.4602477599999997 17.7175010399999984 11.1614027799999995
 10.9867693600000003 20.2531205199999995 13.1428360600000005
 11.2940296700000005  0.2636830100000000 15.3886643400000001
 10.7768259600000000  2.0527301400000000 17.4408622499999986
 11.0888867300000005  4.5829445700000004 19.9268133100000000
 11.0129300400000005  6.2982606800000003 22.2370577400000009
 13.3755951500000005  9.1626534999999993  4.3261844099999998
 13.3568227099999994 11.4890967899999996  6.7479014099999999
 13.1647608999999992 13.0696965899999995  8.9476945699999995
 13.4693155200000003 15.0979467100000004 11.0319802500000002
 13.2577903999999993 17.4009417999999982 12.8009485499999993
 13.5409411899999998 19.5485640899999993 15.1785903799999993
 12.9285232099999998  0.2111823900000000 17.7230981199999995
 12.7547907800000004  2.4482083200000000 19.9991453200000002
 13.3236926300000000  4.4765178099999998  0.1990128100000000
 13.5263563799999993  6.9496188300000004  2.2593305899999998
 15.5520345899999999  9.3251904200000002  6.5619878500000004
 15.4124445199999993 10.9799010599999995  8.4842783100000005
 15.3653109299999997 13.3233186099999994 10.6259796299999998
 15.6078557399999998 15.5463438099999998 13.4164893299999992
 15.7406157800000006 17.2422186999999987 15.3406631900000008
 15.1829577199999992 20.0207018199999993 17.0690586599999996
 14.8224784199999995  0.2343646500000000 19.4649127200000009
 15.2155963700000001  2.6680310299999999  0.1478602600000000
 15.4011367600000000  4.2788299099999998  2.3935472799999999
 15.4136674700000000  6.2574619299999998  3.9601880600000001
 17.7982267900000011  9.0243280200000004  8.5131663199999998
 17.3560604800000000 10.7225520299999992 11.0805533300000008
 17.3636125099999994 13.6677522600000003 13.4388337700000005
 17.6598609000000017 15.7121242999999993 15.5670173999999992
 17.3532460200000003 17.7412669100000002 17.5439250099999988
 16.8097330499999984 19.9629594200000007 20.0663232399999991
 17.2978922299999986 -0.2012262000000000 -0.4914065500000000
 17.6200650500000009  2.0926402500000001  2.0426212700000002
 17.5821076400000003  4.4224405700000000  4.2706521400000002
 17.3682202900000000  6.4511060300000000  6.3315842399999998
 19.9315817099999997  8.9397376499999996 11.3501507299999993
 19.4752667099999996 10.9426181200000006 13.1471160800000000
 19.5437836099999984 13.4578878000000000 15.2979073400000001
 19.5605298199999993 15.2476598699999997 17.7024937700000002
 19.6684334999999990 17.1509989699999998 19.9955019100000015
 19.3658093999999998 19.0596371699999985 -0.0424254200000000
 19.3286352299999997 -0.5244733400000000  2.0179937400000001
 20.5017764500000013  2.2400584499999998  4.3168804700000001
 20.2665176900000006  4.8414882700000001  6.5379956300000002
 20.0023211600000010  6.6449777599999997  8.8688063499999998
 -0.0030567200000000  8.9777933399999998 13.3887942899999999
 -0.2501512300000000 11.3465002300000002 15.5537925900000005
 -0.4939322800000000 13.5940313499999998 17.8080324300000008
 -0.3715779500000000 15.1654403599999998 19.9573250599999987
 -0.0509495400000000 17.6446999799999986  0.2574738900000000
 -0.0496677100000000 20.0177891499999987  2.2049623199999999
 -0.0341563000000000 -0.1775414700000000  4.4757278800000000
  0.3504443200000000  2.2546624999999998  6.8405275100000003
  0.2766157700000000  4.6262679999999996  8.9424061600000009
  0.0784276600000000  6.4922809900000003 11.4961711500000003
  1.6492252400000000  9.2366479600000009 15.5634993000000001
  2.1375452799999999 10.8610818299999998 17.8122675999999984
  2.2571716500000001 13.3549396300000005 20.3169678699999992
  2.4308867400000000 15.4711388900000006 -0.3806562300000000
  2.6185590099999998 17.6977896500000007  1.7631727500000001
  2.4807750500000001 19.4604311199999991  4.6122759300000000
  2.3404055700000002 -0.4655454200000000  6.3750763600000004
  2.0060959000000000  2.2243965700000001  9.1143625799999999
  2.1680546100000000  4.5024559799999997 11.2077803700000000
  2.0136007899999999  6.8702486000000000 13.1031633099999993
  4.3181608699999998  9.0817861900000008 17.6907915299999985
  4.1035235999999999 11.1407400100000000 19.7006068100000000
  4.3891321200000002 12.9885350899999992 -0.1886575100000000
  4.2040298800000002 15.3949786500000005  1.9536299100000001
  4.2593616299999999 17.7423794900000011  4.0635591900000003
  4.6402938599999999 19.5920709899999999  6.6208083300000000
  4.5399087400000004  0.0141889600000000  8.6665811599999998