Li                                      
   1.00000000000000     
    21.0004999999999988    0.0000000000000000    0.0000000000000000
     0.0000000000000000   21.0004999999999988    0.0000000000000000
     0.0000000000000000    0.0000000000000000   21.0004999999999988
   Li
   500
Direct
  0.9964602909454570  0.0050479260017653  0.9914430275469641
  0.0109059127163604  0.1087893531106374  0.0927745448917889
  0.0146120635222999  0.1851556915311505  0.1843998280993304
  0.9979840894264456  0.2789354062998513  0.2922016290088365
  0.9834371319730479  0.3954554805837986  0.4041230689745490
  0.0159825627961254  0.4875475369634046  0.5008899140496652
  0.0011191185924133  0.5956953024927998  0.5927653636818135
  0.9928971753053517  0.7215312087807462  0.7048024927977892
  0.0007327611247376  0.8173220704268971  0.7999426342229938
  0.0021819056689125  0.9013597495297745  0.8946459508106983
  0.0894461084259888  0.9909145582248016  0.0918419051927302
  0.1015131354015395  0.0928609185495617  0.2004518892407319
  0.1046442465655559  0.1913944720363787  0.3010278840979979
  0.0940550729744558  0.2897015894859649  0.4020746720316168
  0.0796730044522747  0.4010473183971826  0.5033337987190762
  0.0999329201685697  0.4904769138830005  0.6219970543558517
  0.0817338934787273  0.5871235665817451  0.7008659112878277
  0.0806357672436349  0.7079508430751673  0.7763298054808203
  0.1144407776005352  0.7979730401657079  0.8925295745339383
  0.0880092535891990  0.9042586976500573  0.9941397557200986
  0.1896019528106478  0.0053397966715067  0.2069438680031439
  0.2092087531249263  0.0821713816337706  0.3236285259874734
  0.1895518444798938  0.1930414166329371  0.4019527187447949
  0.1919848722649462  0.3201552491607345  0.5036472050665495
  0.1885650194043009  0.3873044403704640  0.6096804190376446
  0.1994451817813854  0.4915333106354609  0.7042690778790970
  0.2062603790385964  0.5759373138734816  0.7896846332230183
  0.1877761243779901  0.6874211690197853  0.8886415590105017
  0.2040884726554140  0.7890124954167774  0.0019755939144304
  0.1931219751910689  0.9032707002214266  0.0983078217185280
  0.2938482759934260  0.0013986905073722  0.3087206928406445
  0.3043762081855164  0.1152533225399424  0.4043451151163069
  0.3019813228256467  0.2116339915716310  0.5040257836718141
  0.2995942991833545  0.2908221328063618  0.5998396247708371
  0.3047131468298403  0.4099176743410879  0.6974107316492493
  0.3161746029856403  0.4941465012737822  0.8031321020928104
  0.2885599380967108  0.5889961267588859  0.8950207266493635
  0.2932950172614923  0.6852272688745487  0.0044865669865004
  0.2844710992595409  0.7972419990000219  0.0987763886574129
  0.2864708768838824  0.9039381133782527  0.2006225042260894
  0.4083612990166898  0.9849968234089630  0.3915209542629938
  0.4069563029451686  0.1164201328539818  0.5141674526797004
  0.4171532125425585  0.1926797681007599  0.6078325654151087
  0.4072855046308419  0.3167888659793832  0.6869439532392079
  0.4123728206471284  0.3986107530773069  0.7894408214090163
  0.3927538572891152  0.4990173357777223  0.9068093016832961
  0.4045426127949341  0.5981072345896550  0.0165791809718812
  0.3896273845860847  0.7020309825956517  0.0984716292469230
  0.3999011404490389  0.8010928454084407  0.2065580724268443
  0.4093700397609581  0.8955713687769347  0.3034703483250425
  0.4853737163400851  0.0039604857027200  0.4758384962262809
  0.5040675822004204  0.0868624642270390  0.6180081217113909
  0.5049599138115752  0.2014982176614808  0.7058011594962039
  0.5052032899216670  0.3031894012047331  0.7899101769005483
  0.4858877812433064  0.4102381724244637  0.8977974372038773
  0.5067592485893186  0.5263326396990564  0.0226060122378016
  0.5003667907906930  0.6105239803814229  0.1007032403990351
  0.5229399657151035  0.7032492893026330  0.1955609809290237
  0.5042974010142629  0.7869016790076415  0.3009801347586958
  0.5106628146948893  0.8801907383157541  0.3997197881002847
  0.5909700564272313  0.0191425737482476  0.5963584295611994
  0.5875477917192455  0.1088829137401461  0.7082840727601720
  0.6037681888526478  0.2207021937572904  0.8025798885740798
  0.6013221218542384  0.3163594171567325  0.8977838503845135
  0.5817933844432304  0.4179066293659659  0.9953430051665464
  0.6252873117306734  0.4933076179138567  0.0894443837051497
  0.5972420775695824  0.5750438113378280  0.1979708021237556
  0.6083056293897755  0.6958070655460560  0.3108898959548583
  0.6047822970881640  0.7980741125211281  0.3931222337563369
  0.5923207852193997  0.9042635742006127  0.5055737006261722
  0.6700371267350747  0.9939157872431608  0.6920347125068460
  0.6874511406871235  0.1018184995595348  0.7892974324420834
  0.6839959491440695  0.2122213142544211  0.8894674583938453
  0.6794372533987314  0.3224430780219549  0.9988238027666014
  0.7021878574319658  0.3923006676031520  0.0938150810695006
  0.7328809928335005  0.5107950058331951  0.2129625766053209
  0.7192229742149010  0.5960957905764133  0.3046895954858186
  0.7098289716911523  0.6955794366800774  0.3957057427204091
  0.6822487469345972  0.7983940282374249  0.5108776300564273
  0.6895987000309489  0.9001660060474777  0.5921713530630228
  0.7867501811861644  0.0116812956834380  0.7876542329944556
  0.7963265584152737  0.1041317682912322  0.8928943963238964
  0.7924776176757717  0.1899528796933438  0.9876994690602601
  0.7930199495250108  0.3040213633008761  0.0847750934501548
  0.8104705259398557  0.4007843141829923  0.1945062779457629
  0.8102074398228609  0.4893295535820599  0.3116644789409762
  0.7987541729958778  0.6005072398276212  0.3978618104330849
  0.7851099669055515  0.7030070741172807  0.5117494454893929
  0.8061767372205395  0.8175480807599840  0.6100203876098220
  0.7875941368062698  0.9005155524868442  0.6979542220423340
  0.8933651636865818  0.0092867903145191  0.9267870222137589
  0.9024910778314776  0.1088480179043358  0.0150202257089092
  0.9027696902454707  0.2067626956501059  0.1169525011309247
  0.9068174100616631  0.2877649622628056  0.2001222956596251
  0.9192555058212903  0.4035494302516582  0.3222983752767803
  0.9071904192757287  0.4986537501488044  0.4147535906287914
  0.9080258760505728  0.5913944339420496  0.5063436461036659
  0.8743554939168092  0.7093837137211025  0.5838711249732143
  0.9184241070450696  0.7950582333753928  0.6945653755862935
  0.8823698511940208  0.9087616361515174  0.7961511411633069
  0.0909222313754441  0.1059961643770393  0.9982493369205514
  0.1376234903930893  0.2058924487512215  0.1053867836480080
  0.1294028470750703  0.2946766538891907  0.2073401438060998
  0.0880683717054325  0.4008602066617470  0.2904258589081223
  0.0867026246994129  0.5086822237565798  0.3651419794766824
  0.1093049194066822  0.5821346872693525  0.5096631642103731
  0.1040915006785568  0.6970954872503015  0.5812964086569394
  0.1021038556224880  0.8031134720601898  0.6977597738149086
  0.1105838237184855  0.9087238403847522  0.7926448836932423
  0.1067080888550294  0.9954192662079464  0.8951210675936281
  0.1990295721530444  0.1009040422847107  0.1153018851932117
  0.2106477774338700  0.1964362581843275  0.1999561167591253
  0.2010758143853693  0.3190728196947674  0.3139716682936111
  0.1931985681293327  0.3885964967500755  0.3915750963072284
  0.1932793400157138  0.4767047679817153  0.4834190490702568
  0.1952938072903052  0.5997517182924241  0.5901386081283775
  0.2070464979405244  0.6858407799814259  0.6968934863455658
  0.2088467331730186  0.8033606085569360  0.8104329473107796
  0.2020544029904059  0.9037599409537833  0.8995964238946712
  0.2116492050189294  0.0293461927096956  0.9885781114735366
  0.3161691031165930  0.1130512778267203  0.2042849365491293
  0.2871131968286491  0.2198971038784805  0.3087786028904063
  0.3108111073545885  0.2955308006952180  0.4004568138853841
  0.2892985290826431  0.3960907221256633  0.4953069898335727
  0.2790615509154577  0.5061551453536808  0.6017091569248336
  0.2969548267898361  0.5866980948072680  0.7070178571938754
  0.3080724097045291  0.6817277493393021  0.8029301445203672
  0.3036884193233504  0.7800661579486174  0.9061442337087229
  0.2944082602795177  0.8992416537701473  0.0081582290897870
  0.3031175462488989  0.0187159924763662  0.1111849146448876
  0.3811132515892481  0.1159498845265574  0.3212777714816326
  0.3974158048617866  0.2122273979190936  0.4114154220137607
  0.4117416085331271  0.3162010442608505  0.5034844156091509
  0.3907105235589654  0.4033511978286199  0.6000950810694974
  0.4145009895002474  0.5149460522368514  0.6800381771862547
  0.3839580986167022  0.5939817732911123  0.7947245498916686
  0.4050377719578080  0.6804512821123296  0.9085950105949863
  0.3999636751505946  0.7807616380562337  0.0096668160281865
  0.3821652374943483  0.9017856146282242  0.1087822189947829
  0.3971922730411208  0.0058560115235338  0.1995011171162560
  0.5095383219447172  0.1117959924763667  0.3873216894835849
  0.5026512897311974  0.1963333525392272  0.5084165929382607
  0.5091413580629052  0.2964528349325022  0.6154995442965614
  0.5024137425299386  0.4091844998928593  0.6774548986928863
  0.4804291445441748  0.5047906206995094  0.7884883755148664
  0.4825019709054530  0.5708241327587444  0.9130702178519527
  0.5101529363586579  0.6796342582319497  0.9999539458584294
  0.5099706616509110  0.8022120454274884  0.0961721244732274
  0.5007112025904163  0.8863109245017995  0.2027106835551535
  0.5084154229661166  0.0153579748101222  0.2812996300088102
  0.6034305245113245  0.0982935611056845  0.5059734349182179
  0.5987204957024801  0.1878538287183673  0.6000341134734910
  0.6055940063331846  0.3090344296564353  0.6942700021428081
  0.5971609304540380  0.4011598652413042  0.8054124282755168
  0.5799304764172248  0.5030391200209507  0.8970306154615386
  0.6167068093616805  0.6038247270303074  0.0044444194185829
  0.6136624227994574  0.7049310959262840  0.1042923092307291
  0.6042238041951364  0.8024452860646178  0.2224002899930966
  0.6084057365300808  0.8987788905026051  0.2940318749553583
  0.5997692969215009  0.0305930801647563  0.3862495397728622
  0.7014419294778662  0.0930036370562632  0.6069629227875524
  0.6910211747339332  0.2197092878740960  0.6919646903645145
  0.7049783405157015  0.3084142539463315  0.7866698616699637
  0.7109077336253904  0.4079864798457180  0.8987687912192541
  0.7077689026451779  0.4848345815575854  0.0002121039975265
  0.6968554448703586  0.5983401895192983  0.1137543401347614
  0.6934842779933845  0.6844866531749219  0.2116404647508361
  0.7184951220209044  0.8154172891121618  0.3132707202209488
  0.6847966362705620  0.9097133977762439  0.4027107059355757
  0.6943754010618761  0.9994702983262300  0.5039908592652580
  0.7954910187852704  0.1010511740196662  0.6951668045998929
  0.7830742777552899  0.1964921159020037  0.7950993085878935
  0.7942675622009006  0.3010001076164883  0.9126329901668981
  0.7989026042237057  0.4055660493797788  0.9984230389752611
  0.8026954815361549  0.4911971062593778  0.0793797114354433
  0.8127955477250524  0.6008811280683801  0.2051202733268269
  0.8122632313516363  0.6977784462274741  0.3033763458012899
  0.7988213780624278  0.8123856808171226  0.3993747844098934
  0.7885000799980943  0.8941736253898682  0.5117455008214122
  0.7851112616366294  0.0017223942287075  0.5916527201733288
  0.9198109454536763  0.0985638775267290  0.8044052079712358
  0.8977559281921828  0.2123005018928126  0.8907434718220983
  0.9003772553034466  0.2999911897335750  0.0132382214709139
  0.8961642441846607  0.3923836141996588  0.0991665131782611
  0.9180022094712044  0.5049781067117465  0.1881051260684288
  0.8769641894240578  0.5817374429180262  0.2999536739601467
  0.9044994642984676  0.7022385567010332  0.4043544367991245
  0.8936130658793857  0.8020396900073834  0.4973461708054572
  0.8926354958215299  0.8956634461084292  0.6056022332801589
  0.8838393990619267  0.0062403204685637  0.6994927639818087
  0.9837073522058972  0.0981802666603144  0.8937481193304890
  0.0001065279398134  0.1920882407561706  0.9951869565010369
  0.0207066265088898  0.3045373486345540  0.1095834437275300
  0.0067874693459657  0.3954869417394846  0.2019939630008807
  0.0110242670412575  0.5228982995642966  0.3103106854598678
  0.9905646651270175  0.6040222194709628  0.3987004942739460
  0.0007268926930308  0.6878285640818049  0.5144626213661567
  0.0093923873241124  0.7874727539820512  0.5859577014832951
  0.0081499097640503  0.8983760777124346  0.6873615685340795
  0.9969556491512108  0.9966741025213679  0.8020163734196828
  0.1919063722292336  0.1862858998595271  0.9820361934239656
  0.2168717025785085  0.3065566557939121  0.1024990157377204
  0.2118021732815905  0.4167850946406020  0.2037233737291970
  0.1899772629223122  0.5090377210066421  0.3196984657508182
  0.1989328706459403  0.5921605461774746  0.4085587252684491
  0.1956274488702618  0.6950041284731299  0.4834469926906522
  0.2226684088474116  0.7794773829194526  0.6042215456774827
  0.2111530611175922  0.8999119606676018  0.7043413552058269
  0.1938775614866302  0.0254646660793796  0.7802295688197916
  0.2002134134901539  0.1064682731363504  0.8922750210709296
  0.3054909673579189  0.1928999161924736  0.0877733358729529
  0.2955522792314440  0.3074633927763628  0.2225759153353479
  0.2939163600866621  0.4137272303040405  0.3083457612913989
  0.3066601538058649  0.5046004628461205  0.3867275579152860
  0.2843397961953258  0.5913653560629513  0.4927510683078964
  0.3022146525082761  0.7015116635318179  0.5963337682436105
  0.3074348072664961  0.7830521125687468  0.7183558610509237
  0.2992121697102448  0.9033370586414620  0.8103582890883558
  0.3017191766862695  0.9897281559962892  0.9001752763029458
  0.3157310049760724  0.1091092473988695  0.0074433432537333
  0.4032434303945109  0.1946136034856281  0.2154216509130720
  0.4049781176638660  0.3243271384014648  0.3073561553296358
  0.4098528539796646  0.4112925277969595  0.4201016675793454
  0.3990529144544155  0.4882890040713335  0.5115483774195866
  0.3757925249398824  0.6062168248375031  0.5966059255732006
  0.4144586152710659  0.6884977129115981  0.6973912002095162
  0.4140547434584860  0.7827053508249833  0.8104064755601073
  0.3896159858098613  0.8725022666126989  0.9007234732506362
  0.3943218594795326  0.9875057612913949  0.9851278574319693
  0.4185297840527582  0.0911138820504291  0.0929273722054234
  0.4971879374300627  0.1995383686102699  0.2933093140639542
  0.5079463593723972  0.3026951191638290  0.4122542277564847
  0.5105605518916221  0.3934233094450121  0.5054562329468339
  0.5117121601866614  0.5068574800599990  0.5975793252541592
  0.4973855846289368  0.5933875531534980  0.7004672645889372
  0.4809883364681795  0.6867853217780535  0.8033471522106623
  0.4993443884669446  0.7829666141282345  0.9024866046046540
  0.4979758891454935  0.8870794947739356  0.0042372767315086
  0.4872568634080139  0.9807106987928833  0.0819197366729369
  0.4988755091545443  0.0963203914192547  0.1807742634699139
  0.5959692893026372  0.1936127954096349  0.3828604071331654
  0.6061296950072617  0.2866823280398094  0.5137721454251079
  0.6191387928858845  0.3902858531939728  0.6091154067760272
  0.5905168172186350  0.4851222708983087  0.6924366905549846
  0.5985175048213165  0.5766396995309648  0.7988178390990726
  0.6001823808956956  0.6686975714863905  0.8938284288469305
  0.6067593476345792  0.7811127306492693  0.9803856317706732
  0.6100034627746993  0.8768611594962010  0.0935610018809072
  0.5824637575295810  0.9821685302730856  0.1962444665603229
  0.5930494535844417  0.0911236556272499  0.2578066465084135
  0.6972457493869229  0.1847265665103208  0.4866987628865971
  0.6870967376967201  0.2930890121663765  0.6057298264327073
  0.7059330749267900  0.4001865831765912  0.6913355801052390
  0.7020847822670859  0.5036243775148179  0.7812195528677890
  0.7124863974667264  0.5812753658246237  0.9021146367943587
  0.7186118006714111  0.7026706173662518  0.0063704373705420
  0.7013900535701509  0.7962294688221689  0.0924959810480672
  0.7071592066855530  0.8855781948048858  0.1917336930073077
  0.6840098554796299  0.0054370372133974  0.2789091478774282
  0.6899469760243804  0.0943165205590333  0.3775702388038411
  0.7848017447203617  0.2184420132853973  0.5812855403442754
  0.7892772667317445  0.3156958534320609  0.7018133606342687
  0.7881741501392838  0.4043873560153344  0.8046256131996827
  0.8056911302111871  0.5065673717292469  0.9033495883431328
  0.7933996200090476  0.5855055851051176  0.0093454412990184
  0.7974742834694410  0.7154015147258406  0.0986614899645275
  0.8086434599176187  0.8219969757862913  0.2091366029380239
  0.7965336677698147  0.9259509759291475  0.2952455989143132
  0.7818352029713580  0.9977601366634161  0.3917875998190539
  0.7963576529130236  0.1182864098473857  0.4963832418275729
  0.8703659131925434  0.2151344910835462  0.6985255722482790
  0.8878879298111926  0.2950430970691187  0.7949314959167637
  0.9041308764077058  0.3863175667245997  0.9069614037761013
  0.9285969372157794  0.4804448913121107  0.9786976624366091
  0.9025215690102613  0.6007556215328194  0.0887720901883284
  0.8979294226327923  0.7037283445632241  0.2162898783362266
  0.8850430513559218  0.8209386852693967  0.3187425380348117
  0.8911889512154474  0.9173889445489394  0.4072617485297982
  0.8678443470393589  0.0107231442108500  0.4963177795766782
  0.8703595704864142  0.1099620051903543  0.6097310611652134
  0.0017526701745183  0.2232455708197421  0.7964282874217261
  0.0012688335991982  0.3030080288564534  0.8871010247375040
  0.0292606499845220  0.3763163148496460  0.0099090964500874
  0.0044776686269401  0.5116287226494620  0.0866649917859093
  0.0003053198733340  0.6192554296326307  0.1921951029737414
  0.9787456331992104  0.6968143829908797  0.2894641489488379
  0.0147353491583502  0.7785305940334766  0.4019820018570996
  0.9905593843003757  0.9224179510011652  0.5060476212471130
  0.9814590719268566  0.0148591962096134  0.5963383938477662
  0.9818281131401605  0.1052827366015094  0.6944870317373386
  0.1066835780100490  0.2171300402371372  0.8933290878788611
  0.1436583614675868  0.2935186043189475  0.0025470217375769
  0.0972163767529324  0.4059421475679130  0.0922727358872422
  0.0996631927811222  0.5069854708221229  0.1849682121854244
  0.1099129406442714  0.6098049789290698  0.3008034256327221
  0.1053301721387570  0.6767147106021270  0.4088914725839885
  0.1136668636461025  0.8038727706483186  0.5061056236756301
  0.0777910940215705  0.9173990557367659  0.5965610956881946
  0.0948319987619328  0.0218563991333554  0.6822879288588339
  0.0834569453108287  0.1083960253327305  0.8004390647841717
  0.3205010133092046  0.3143728096950085  0.9976534111092619
  0.3081091545439421  0.4070796266755536  0.1110217275779135
  0.3011324792266876  0.5384339720482814  0.2136359196209625
  0.2886724349420220  0.6085237241970418  0.3182571124497002
  0.3056340872836358  0.7110931463536616  0.4076470598319091
  0.3043067717435264  0.8007075812480622  0.5023494050141650
  0.3076532939691887  0.9003210066426988  0.5980133268255514
  0.3309531539725228  0.9895695378681495  0.7068376352943986
  0.3238122816123408  0.1000034861074752  0.8123423689912173
  0.3124033275398190  0.2165878974310118  0.9037001557105810
  0.3820522963738924  0.3175564738934753  0.1147725263684194
  0.3964052432084983  0.4138337468155555  0.2057501673769693
  0.4051747882193268  0.5113467226970769  0.2940634246803668
  0.4208481659960484  0.6098854912978240  0.4088696602461823
  0.3967635246779864  0.7195652027332713  0.4953756529606466
  0.4005385886050306  0.7942775624389924  0.6118786038427686
  0.4101702921359021  0.8887928258850977  0.7123253451108340
  0.4148065074641067  0.9966088116949621  0.8271218537653837
  0.3984643141829949  0.1055882188519348  0.9273966853170137
  0.3931385128925484  0.2209119616199615  0.0051349701197623
  0.4986395790576381  0.3024756220089984  0.2139244079902838
  0.5044763572295921  0.4215501726149355  0.2746203709435520
  0.5097454403466557  0.4863725820813798  0.4088582019475737
  0.5062714340134775  0.6019743334682488  0.5161464788933614
  0.4994014875836257  0.6932757777195775  0.6204124197042944
  0.5214867646008443  0.7996712802076118  0.7159481188543140
  0.5101598995262009  0.8828207766481739  0.8034162500892847
  0.4987515806766538  0.9965218361467549  0.9105757243875132
  0.4860759648579815  0.0987435946763142  0.9998834856312939
  0.4784671217351999  0.2231258393847781  0.1130589447870278
  0.5870271812575893  0.3179696554843900  0.2878962919930501
  0.6008697940525209  0.3960387762196120  0.3830542753743984
  0.6097621951858301  0.4906949072641140  0.5091080788552631
  0.6086491750196430  0.6003594204899869  0.6097377619580513
  0.5997673879193357  0.6974617109116465  0.7179455165353232
  0.6052676612461596  0.7869678945739409  0.7938296631032600
  0.6044959615247265  0.8876291940668111  0.9125562405656993
  0.5923013366348400  0.9949015709149762  0.0071967510297384
  0.5816067507916500  0.0969391471631624  0.1061241675198232
  0.6115090450227356  0.2190258979548076  0.1949660398561974
  0.6865040570462639  0.3067855646294149  0.3882204580843336
  0.6884680007618869  0.3934657522439977  0.4868113087783641
  0.6948832351610648  0.4949480617128188  0.5959459850955895
  0.7025909492631115  0.5940333001595235  0.6985525839860927
  0.7022174933930145  0.6845560872360181  0.8070633784909873
  0.7259890202614230  0.7840505207018893  0.8965372943501322
  0.6955223889907387  0.8962049794052547  0.9967648379800451
  0.6960731354015408  0.0069688464560400  0.0932545220351884
  0.6940468865027043  0.1062503926097023  0.1758007261731862
  0.6647088631223070  0.1838367686483622  0.2869030337372891
  0.7866679407633157  0.2832163267541219  0.4921136630080269
  0.7853771138782406  0.3733987414585371  0.5760599542868050
  0.8054871136401545  0.4748648003618996  0.6965009690245481
  0.8296014756791479  0.5914922744696582  0.7860398504797530
  0.8085395981048080  0.6803660974738719  0.9102244837027698
  0.8115196390562147  0.8096629823099448  0.9819113525868417
  0.7964304664174691  0.9091358772410203  0.0868426756505798
  0.7994726406514161  0.9988723097069112  0.1830562977071963
  0.7918011956858138  0.1018039184781330  0.2884090074045886
  0.7943170772124475  0.2050273312540156  0.3687420309040235
  0.9048602028523121  0.2996454036808629  0.5964981814718726
  0.9012531968286481  0.3896239894288200  0.6732671345920309
  0.9002116811504521  0.4590002999928586  0.7999212404466576
  0.9104176276755283  0.5996091978762408  0.8901062298516678
  0.8920663584200383  0.7101457641484714  0.9936724563700849
  0.9049499850003571  0.7882195819147171  0.1230613990143112
  0.9089662927073192  0.9044871236399104  0.1937683974191060
  0.8947130834980115  0.0173869688816950  0.3072074179186188
  0.8833484055141554  0.0814990438322880  0.3815813180638585
  0.9023929506440354  0.2000760491416855  0.4794386071760215
  0.9948545672722062  0.2972368876931526  0.6929091754958208
  0.9843691959715244  0.3714028780267142  0.7788246284612299
  0.0136701759481923  0.4739002895169193  0.8853511154496303
  0.0021187724101779  0.6269997166734100  0.9870961258065307
  0.9984512383038506  0.7102828251708289  0.0962962162805638
  0.0108862774695808  0.8045110844979888  0.2176577205304611
  0.9827191633532522  0.9005497707197421  0.3060486378895746
  0.9904597714340113  0.0142116097235814  0.4071491440680006
  0.9772192223994693  0.1087197804814153  0.5081965096069112
  0.9800032999214281  0.1978118659079513  0.6012000252374960
  0.1149063712768736  0.2948355824861295  0.7983245060831905
  0.1098183876574339  0.3869450694031116  0.8878667717435320
  0.0996084364658003  0.5181923658960486  0.9891462355658192
  0.0927917244827512  0.6090167186495563  0.0993547825051806
  0.1128739458584320  0.7044646789362190  0.1952823604199878
  0.0934871198304776  0.7924508697411952  0.3061765905573708
  0.0895065027023136  0.9069172438751423  0.4072507864098469
  0.0864321263779431  0.0172674588700303  0.5080387871717349
  0.0922364753220180  0.1229493640627624  0.6036986995547693
  0.1041412537796731  0.2012879969524519  0.6946496097711972
  0.2066775510106922  0.2985148339325221  0.8962479521916151
  0.1996008709316470  0.3898143801338065  0.9994188447894103
  0.2052695073926785  0.5071440694269214  0.0894612333039717
  0.2012075479155229  0.5944059450965469  0.2121479069545984
  0.2105154005856988  0.7128494373943468  0.2982496469131704
  0.1805850732125407  0.8031513940144279  0.3952651170210260
  0.2035592904930823  0.8884884588462185  0.5067046936977704
  0.2092974438703834  0.9916236222947106  0.6088574829170739
  0.2038228642175213  0.1031958443846577  0.6958725877955274
  0.2181507783148007  0.1768826456512969  0.8052276402942766
  0.4062638422894693  0.4149052313040187  0.0108155791528759
  0.3949367815052014  0.4989164110378326  0.1090025494631064
  0.3976986405085583  0.6170402538034807  0.2111971210209305
  0.4125851441632307  0.6862374819647172  0.3148037141972821
  0.4182465127020762  0.8084812304468940  0.4028855593914429
  0.4044594757267674  0.8807201799957127  0.4936008175995781
  0.4050706283183700  0.9861067588866916  0.6076485497964299
  0.4022268622175673  0.0976112797314315  0.7170760396181066
  0.4061343082307545  0.2086875436299138  0.8105261050927339
  0.4144191052593982  0.3053314830599305  0.8985019461441368
  0.4957133692054967  0.3897783476583925  0.0911435461060464
  0.5113877274350642  0.5089177581486126  0.1787852222566144
  0.5092638737172948  0.6031949115497284  0.3089785152734450
  0.4983554924882725  0.7121273760148554  0.4173064850836852
  0.5045355143925150  0.7918057346253633  0.5130551372586396
  0.5016548577414852  0.9047709121211369  0.6083073083974213
  0.4918841360919970  0.9998456874836279  0.7134687974095826
  0.4869957453393994  0.1127755739149094  0.8251329249303581
  0.5145816628175552  0.2062415013928245  0.9190777295778645
  0.4907743768005517  0.3095180443322789  0.9952753610628307
  0.6270625413680619  0.4065010514035379  0.1956430365943689
  0.6010421956620107  0.4973938910978291  0.2881189152639223
  0.6032136111045006  0.5808234508702199  0.4016702159472416
  0.6110949991666885  0.6724426442227553  0.5122050765457971
  0.5992245237018139  0.7900934311087866  0.6015915182971838
  0.5969035199161894  0.9022452670174488  0.6968479360015252
  0.5884080964738914  0.0018134839646677  0.8096176157710531
  0.5937545525106529  0.1108024989881216  0.9019576952929711
  0.5966642608509289  0.2284708054570146  0.0218884469417375
  0.5852946229851668  0.3082188366943655  0.1001738977643356
  0.7071558372419702  0.4015547667912642  0.2951877107687935
  0.7143087297921511  0.4912611590200200  0.3805742648984562
  0.7000298069093560  0.5785181800433321  0.5022672355420141
  0.7171192509702138  0.7085792404942737  0.5979350410704498
  0.6894400561891416  0.8173211228304069  0.7087891659722416
  0.6867415704387980  0.9079063555629645  0.7968178786219369
  0.6957555967715052  0.0073091974000619  0.9348718797171500
  0.6927340177614809  0.1079004047522645  0.0099013713959195
  0.7077039299064296  0.2092601114259196  0.1036958572414974
  0.6960091931144490  0.3079420928073162  0.2125363691340709
  0.8139279593343005  0.3842552753505899  0.4048362019951881
  0.7963438141948984  0.5050198347658394  0.4882273169686471
  0.8042027080307577  0.5825972557796248  0.6110081074260165
  0.7839314082998001  0.7056624742268056  0.6990043870384071
  0.7993182219470967  0.8013582952786820  0.8038843851336850
  0.7758539606199832  0.9014403590390714  0.9017282521844692
  0.7942363681817071  0.9953887497916725  0.0114519573343514
  0.8049316744839388  0.1088933577771982  0.0961002976119616
  0.8073803285636032  0.2001384367038881  0.2240341991857306
  0.8042821418537685  0.3109327968381734  0.3079583552772576
  0.9125664550844022  0.3962519649532155  0.5070281107592649
  0.8907857903383274  0.4903327054117739  0.6030491807337910
  0.9276715382967069  0.6054030770695960  0.7072067150782146
  0.8860159320016194  0.7238534611080709  0.7990844351324995
  0.9005961462822327  0.8234527068403139  0.8962094159662897
  0.9002312206852210  0.8996231527820768  0.0032798138139540
  0.9090758000999983  0.0081330249279787  0.1039970476893401
  0.9189106578414794  0.1027376329135024  0.1983812666365097
  0.9201700040475203  0.1932111868765034  0.3029244108473605
  0.9053491221637557  0.2876238760981877  0.4020038132425441
  0.0054917049594039  0.3984775014880597  0.5870297892907317
  0.9883312125901753  0.4745281836146731  0.6851016471036431
  0.9877824137520506  0.5975650470226910  0.7907757962905677
  0.9815277902907056  0.7245237632437309  0.9020786724125642
  0.9877641646627495  0.8039723278017163  0.9955212656841539
  0.9948340172852994  0.9054230708792659  0.0908339744291808
  0.9939814609175954  0.0043430594509672  0.1988787343158478
  0.0054810699745218  0.0986515706768856  0.2972201709483073
  0.0120855522487560  0.1860511025927920  0.4082283140877578
  0.9965183581343311  0.2893694978690959  0.4986285607485570
  0.0983827427918413  0.3773578429085021  0.7029564281802791
  0.0751428823123277  0.4869341387109856  0.7894398076236300
  0.0822574472036379  0.6034986271755400  0.8647696464369901
  0.0917202257089116  0.7051343463250888  0.9937112154472487
  0.1077702235661064  0.7869867207923633  0.1046177224351794
  0.1031790785933637  0.9014396252470149  0.2107868360277152
  0.0853536711030713  0.9913302307087903  0.3012088445513186
  0.0943272041141867  0.1131102426132742  0.4094706687936025
  0.0999087864574619  0.1939972000666685  0.5169569124544680
  0.0816682078998099  0.2799168072188749  0.6087245927477909
  0.1951467165067484  0.4210453136830097  0.7825984162281827
  0.1880555896288172  0.5033381981381382  0.9012415794862036
  0.1867788881217081  0.6045319240018117  0.0039476117235324
  0.2062543972762541  0.6872735634865847  0.0952370724506579
  0.2174991614485364  0.7892317968619764  0.1942853884431344
  0.2009821032832519  0.9138542644222767  0.3025368953120164
  0.1956272112568769  0.9975703864193690  0.4082559929525473