Li 
 1.0000000000000000
    21.0004999999999988    0.0000000000000000    0.0000000000000000
     0.0000000000000000   21.0004999999999988    0.0000000000000000
    -0.0000000000000000   -0.0000000000000000   21.0004999999999988
 Li 
 500
Cartesian
 -0.0743356600000000  0.1060089700000000 -0.1797007000000000
  0.2290296200000000  2.2846308099999999  1.9483118300000000
  0.3068606400000000  3.8883621000000002  3.8724885900000001
 -0.0423351300000000  5.8577830000000004  6.1363803099999998
 -0.3478285100000000  8.3047628200000005  8.4867865100000000
  0.3356418100000000 10.2387420500000008 10.5189386400000000
  0.0235020500000000 12.5098991999999996 12.4483690199999995
 -0.1491628700000000 15.1525161500000003 14.8012047500000001
  0.0153883500000000 17.1641721400000016 16.7991952900000001
  0.0458211100000000 18.9290054199999993 18.7880122900000011
  1.8784130000000001 -0.1907988200000000  1.9287259299999999
  2.1318266000000001  1.9501257200000000  4.2095899000000001
  2.1975815000000001  4.0193796099999997  6.3217360800000000
  1.9752035600000000  6.0838782299999998  8.4437691499999996
  1.6731729300000000  8.4221942100000007 10.5702614399999995
  2.0986412900000002 10.3002604299999998 13.0622491400000005
  1.7164526300000000 12.3298884599999994 14.7185345699999992
  1.6933914299999999 14.8673216799999999 16.3033140799999998
  2.4033135500000000 16.7578328300000017 18.7435673300000012
  1.8482383300000000 18.9898847800000006 20.8774319400000010
  3.9817358100000000  0.1121384000000000  4.3459247000000003
  4.3934884199999997  1.7256400999999999  6.7963608600000001
  3.9806835100000000  4.0539662700000001  8.4412080700000001
  4.0317783100000000  6.7234203099999998 10.5768431300000003
  3.9599596899999998  8.1335868999999992 12.8035936400000008
  4.1884485400000004 10.3224452899999992 14.7900027699999992
  4.3315710899999997 12.0949715599999994 16.5837721400000007
  3.9433924999999999 14.4361882599999998 18.6619170600000004
  4.2859599700000004 16.5696569099999991  0.0414884600000000
  4.0556580400000000 18.9691363399999986  2.0645134100000000
  6.1709607200000001  0.0293732000000000  6.4832889099999997
  6.3920525599999998  2.4203774000000000  8.4914495900000002
  6.3417587700000002  4.4444196399999996 10.5847934699999993
  6.2916300800000000  6.1074102000000003 12.5969320400000004
  6.3991284400000001  8.6084761200000006 14.6459740699999994
  6.6398247499999998 10.3773236000000004 16.8661757100000003
  6.0599029800000004 12.3692131599999993 18.7958827699999986
  6.1593420099999996 14.3901152600000000  0.0942201500000000
  5.9740353199999996 16.7424806000000004  2.0743535500000001
  6.0160316500000004 18.9831523500000010  4.2131729000000000
  8.5757914599999996 -0.3150742100000000  8.2221358000000002
  8.5462858399999995  2.4448810000000001 10.7977735900000003
  8.7604260400000005  4.0463714700000004 12.7647877899999997
  8.5531992399999996  6.6527245800000001 14.4261664900000000
  8.6600354199999998  8.3710251200000005 16.5786519699999992
  8.2480273799999999 10.4796135600000007 19.0434487399999988
  8.4955971399999992 12.5605509800000004  0.3481710900000000
  8.1823698900000004 14.7430016500000001  2.0679534500000001
  8.3981238999999999 16.8233503000000013  4.3378227999999996
  8.5969755200000009 18.8074465300000000  6.3730290500000004
 10.1930907299999998  0.0831721800000000  9.9928463399999998
 10.5856712599999998  1.8241551800000000 12.9784795600000002
 10.6044106700000000  4.2315633200000002 14.8221772499999993
 10.6095216899999993  6.3671290200000001 16.5885086699999995
 10.2038863499999994  8.6152067399999996 18.8541950800000002
 10.6421975999999994 11.0532485999999999  0.4747375600000000
 10.5079527899999992 12.8213088499999994  2.1148183999999999
 10.9820007499999992 14.7685867000000002  4.1068783800000004
 10.5904975700000001 16.5253287100000001  6.3207333200000004
 10.7241744400000005 18.4844456000000008  8.3943154100000008
 12.4106666699999995  0.4020036200000000 12.5238251999999992
 12.3387974000000007  2.2865956299999999 14.8743196700000002
 12.6794338500000006  4.6348564200000002 16.8545789500000005
 12.6280652199999999  6.6437059400000003 18.8539097499999997
 12.2179519699999997  8.7762481700000006 -0.0977992200000000
 13.1313461900000004 10.3597066299999998  1.8783767800000000
 12.5423822499999993 12.0762075600000003  4.1574858299999997
 12.7747223699999992 14.6122962800000007  6.5288432600000004
 12.7007306300000007 16.7599553999999991  8.2557634699999998
 12.4390326499999997 18.9899871900000008 10.6173005000000007
 14.0711146800000009 -0.1277715100000000 14.5330749800000003
 14.4368176800000008  2.1382393999999998 16.5756407299999999
 14.3642569299999998  4.4567537100000001 18.6792613600000017
 14.2685220400000006  6.7714658600000002 -0.0247007300000000
 14.7462961000000004  8.2385101699999996  1.9701636100000000
 15.3908672899999992 10.7269505200000008  4.4723205899999998
 15.1040420700000002 12.5183096500000008  6.3986338500000004
 14.9067633199999996 14.6075159600000006  8.3100184499999994
 14.3275648100000002 16.7666737899999987 10.7286856700000008
 14.4819174999999998 18.9039362100000012 12.4358944999999999
 16.5221471800000010  0.2453130500000000 16.5411327200000002
 16.7232558900000008  2.1868192000000000 18.7512287700000009
 16.6424262100000000  3.9891054499999998 -0.2583173000000000
 16.6538154499999997  6.3846006400000004  1.7803193500000001
 17.0202862800000005  8.4166709900000001  4.0847290899999997
 17.0147613399999997 10.2761652899999998  6.5451098900000000
 16.7742370100000002 12.6109522900000002  8.3552969499999996
 16.4877018600000014 14.7635000600000001 10.7469942300000003
 16.9301145700000006 17.1689184700000013 12.8107331500000008
 16.5398706699999991 18.9112768600000010 14.6573876399999996
 18.7611151199999995  0.1950272400000000 19.4629908600000014
 18.9527638799999991  2.2858627999999999 21.3159322499999995
 18.9586148799999989  4.3421199899999996  2.4560610000000000
 19.0436190200000013  6.0432080900000003  4.2026682700000002
 19.3048252500000004  8.4747398100000009  6.7684270299999998
 19.0514523999999987 10.4719780799999995  8.7100327800000006
 19.0689974100000015 12.4195788100000009 10.6334697400000007
 18.3619025499999999 14.8974126800000004 12.2615855600000003
 19.2873654600000002 16.6966204299999994 14.5862201700000007
 18.5302080599999996 19.0844487399999991 16.7195720399999992
  1.9094123199999999  2.2259724500000000 -0.0367648000000000
  2.8901621099999999  4.3238443699999998  2.2131751500000001
  2.7175244900000002  6.1883570700000003  4.3542466900000001
  1.8494798400000001  8.4182647700000004  6.0990882500000003
  1.8207984699999999 10.6825810400000005  7.6681641400000000
  2.2954579599999998 12.2251194999999999 10.7031812800000008
  2.1859735599999999 14.6393537800000004 12.2075152300000003
  2.1442320200000000 16.8657844700000012 14.6533041300000004
  2.3223155900000001 19.0836550100000011 16.6459388799999992
  2.2409232200000000 20.9043023000000012 18.7979899800000005
  4.1797205300000000  2.1190353399999999  2.4213972400000001
  4.4237086500000000  4.1252596400000003  4.1991784299999999
  4.2226926400000000  6.7006887500000003  6.5935620200000002
  4.0572665299999997  8.1607207299999995  8.2232728099999992
  4.0589627799999999 10.0110384799999999 10.1520417399999996
  4.1012675999999999 12.5950859600000005 12.3932058400000003
  4.3480799799999996 14.4029992999999994 14.6351116599999997
  4.3858858200000004 16.8709744599999993 17.0194971099999997
  4.2432434900000002 18.9794106400000011 18.8919746999999987
  4.4447391300000003 21.6167847199999983 20.7606346299999984
  6.6397092500000001  2.3741333600000001  4.2900858099999999
  6.0295206900000000  4.6179491300000004  6.4845050500000001
  6.5271886600000002  6.2062945799999998  8.4097933200000003
  6.0754137600000000  8.3181032100000003 10.4016944400000000
  5.8604320999999997 10.6295111299999991 12.6361931500000004
  6.2361998400000003 12.3209533400000009 14.8477285099999996
  6.4696746400000000 14.3166235999999998 16.8619345000000003
  6.3776086500000000 16.3817793499999986 19.0294819799999999
  6.1827206700000001 18.8845243499999995  0.1713268900000000
  6.3656200299999997 21.3935451999999984  2.3349388000000002
  8.0035688399999998  2.4350055500000001  6.7469938400000000
  8.3459306099999999  4.4568814699999999  8.6399295699999996
  8.6467796499999992  6.6403800300000002 10.5734244700000009
  8.2051163500000008  8.4705768300000006 12.6022967500000007
  8.7047280300000001 10.8141245700000006 14.2811417400000007
  8.0633120500000004 12.4739142300000001 16.6896129100000010
  8.5059957300000004 14.2898171499999993 19.0809495200000008
  8.3994371599999997 16.3963847800000018  0.2030079700000000
  8.0256610700000000 18.9379488000000009  2.2844809900000000
  8.3412363299999992 21.1234791699999995  4.1896232099999997
 10.7005595299999996  2.3477717400000002  8.1339491400000004
 10.5559284099999999  4.1230985699999998 10.6770026599999994
 10.6922230900000006  6.2256577599999998 12.9257981799999992
 10.5509398000000001  8.5930790899999998 14.2268916000000001
 10.0892522499999995 10.6008554299999993 16.5586501300000002
 10.1327826400000003 11.9875921999999999 19.1749311099999993
 10.7134667399999994 14.2726592399999994 -0.0009671600000000
 10.7096388800000000 16.8468540599999983  2.0196627000000000
 10.5151856099999996 18.6129725700000002  4.2570257099999997
 10.6769780900000004 21.3230251499999994  5.9074328800000000
 12.6723427300000004  2.0642139300000002 10.6256951199999996
 12.5734297700000006  3.9450243299999999 12.6010164000000007
 12.7177769299999994  6.4898775400000002 14.5800171800000005
 12.5406781200000008  8.4245577500000000 16.9140636999999998
 12.1788299700000007 10.5640730400000002 18.8380914399999995
 12.9511513500000000 12.6806211799999993  0.0933350300000000
 12.8872177099999998 14.8039054799999992  2.1901906400000000
 12.6890020000000003 16.8517522299999989  4.6705172900000003
 12.7768246699999999 18.8748060899999999  6.1748163900000002
 12.5954551200000004 21.6429699800000002  8.1114334600000007
 14.7306312399999992  1.9531228800000000 12.7465248599999992
 14.5117901800000002  4.6140049000000003 14.5316044800000004
 14.8048976400000001  6.4768535399999996 16.5204604300000000
 14.9294178599999992  8.5679200699999996 18.8745939999999983
 14.8635008400000004 10.1817686300000005  0.0044542900000000
 14.6343127699999993 12.5654431500000001  2.3888980200000001
 14.5635165799999999 14.3745619599999994  4.4445555800000003
 15.0887568099999996 17.1241707800000000  6.5788417600000004
 14.3810717599999993 19.1044362099999994  8.4571261799999995
 14.5822306099999999 20.9893760000000000 10.5840600400000007
 16.7057091399999997  2.1221251799999998 14.5988504799999994
 16.4449513699999983  4.1264326799999997 16.6974830300000008
 16.6800159400000005  6.3211527600000004 19.1657491100000001
 16.7773541399999999  8.5170898200000007 -0.0331169700000000
 16.8570064600000009 10.3153848299999993  1.6670136300000000
 17.0691129000000004 12.6188041299999991  4.3076283000000002
 17.0579339899999987 14.6536962600000003  6.3710549500000004
 16.7756483500000009 17.0605054900000006  8.3870701600000004
 16.5588959299999985 18.7780932199999988 10.7469113899999993
 16.4877290499999987 21.0366711399999993 12.4250029499999997
 19.3164897599999996  2.0698907100000001 16.8929115699999990
 18.8533233699999982  4.4584166900000000 18.7060582800000006
 18.9083725499999993  6.2999649800000004  0.2780092700000000
 18.8198972100000006  8.2402520900000003  2.0825463599999998
 19.2785054000000002 10.6047927299999998  3.9503016999999998
 18.4166864600000011 12.2167771700000003  6.2991771300000003
 18.9949410000000007 14.7473608100000000  8.4916453500000006
 18.7663211899999993 16.8432345099999985 10.4445182600000006
 18.7457917300000005 18.8093801999999997 12.7179497000000001
 18.5610692999999998 21.1315498499999990 14.6896977900000003
 20.6583462500000010  2.0618346900000000 18.7691573799999993
 21.0027371400000007  4.0339491000000001 20.8994236800000017
 21.4353495100000018  6.3954365900000001  2.3013071100000002
 21.1430402499999985  8.3054235199999997  4.2419742200000004
 21.2320151199999998 10.9811257399999995  6.5166795500000001
 20.8023532499999995 12.6847686199999998  8.3729097299999999
 21.0157651100000002 14.4447437599999997 10.8039722800000000
 21.1977448300000013 16.5373215699999996 12.3054047099999995
 21.1716521799999988 18.8663468200000004 14.4349366200000002
 20.9365671099999986 20.9306544899999984 16.8427448499999990
  4.0301297700000003  3.9120970399999999 -0.3772489200000000
  4.5544141900000001  6.4378430499999997  2.1525305800000001
  4.4479515400000000  8.7526953800000005  4.2782927099999997
  3.9896175100000000 10.6900466600000001  6.7138276299999999
  4.1776897499999999 12.4356675499999998  8.5799375100000006
  4.1082742400000001 14.5954341999999997 10.1526285699999992
  4.6761479200000000 16.3694147799999996 12.6889545699999999
  4.4343198599999996 18.8986011299999994 14.7915206300000008
  4.0715257300000003  0.5347707200000000 16.3852110599999996
  4.2045817899999998  2.2358869700000001 18.7382215800000012
  6.4154630600000004  4.0509946899999996  1.8432839400000001
  6.2067456400000003  6.4568849799999999  4.6742055100000002
  6.1723905200000004  8.6884786999999992  6.4754151599999998
  6.4400165600000001 10.5968620199999997  8.1214720800000002
  5.9712778899999996 12.4189681600000004 10.3480188099999992
  6.3466588100000001 14.7320956899999995 12.5233073000000008
  6.4562846699999996 16.4444858899999993 15.0858322600000001
  6.2836051700000004 18.9705298999999989 17.0179292500000017
  6.3362535700000002 -0.2157138600000000 18.9041308900000011
  6.6305089700000002  2.2913487500000000 21.1568139299999984
  8.4683136599999997  4.0869829800000002  4.5239623800000004
  8.5047429599999997  6.8110320700000004  6.4546329399999998
  8.6071148599999994  8.6373487299999994  8.8223450700000008
  8.3803107299999997 10.2543132299999993 10.7427717000000005
  7.8918309200000003 12.7308564299999993 12.5290227400000003
  8.7038381499999993 14.4587962200000000 14.6455639000000009
  8.6953566400000000 16.4372037199999994 17.0189411899999996
  8.1821305100000004 18.3229838500000000 18.9156432999999993
  8.2809562099999994 -0.2623852600000000 -0.3123224300000000
  8.7893347300000002  1.9134370800000000  1.9515212799999999
 10.4411952800000005  4.1904055099999997  6.1596422500000001
 10.6671275199999993  6.3567488499999998  8.6575449100000004
 10.7220268700000005  8.2620862099999997 10.6148336200000006
 10.7462112199999993 10.6442605100000005 12.5494646200000002
 10.4453459700000000 12.4614353100000006 14.7101627900000000
 10.1009955599999994 14.4228351499999992 16.8706918700000017
 10.4864818300000007 16.4426903799999984 18.9526699399999998
 10.4577426599999992 18.6291129300000016  0.0889849300000000
 10.2326377599999994 -0.4050849700000000  1.7203554299999999
 10.4766351300000000  2.0227763799999998  3.7963499199999999
 12.5156530600000000  4.0659655099999998  8.0402599800000001
 12.7290266600000006  6.0204722300000002 10.7894719400000003
 13.0022242200000004  8.1961980600000004 12.7917281000000003
 12.4011484200000002 10.1878102500000001 14.5415167200000006
 12.5691668599999993 12.1097220100000005 16.7755740300000014
 12.6041300900000000 14.0429833500000001 18.7708439200000008
 12.7422496800000005 16.4037578999999987 -0.4119115400000000
 12.8103777200000000 18.4145227799999986  1.9648278200000000
 12.2320301400000009 -0.3744697800000000  4.1212319199999996
 12.4543350499999992  1.9136423300000001  5.4140684800000001
 14.6425093600000000  3.8793502599999998 10.2209173700000004
 14.4293750400000000  6.1550158000000001 12.7206292199999993
 14.8249475400000001  8.4041183400000001 14.5183928499999997
 14.7441314699999992 10.5763637399999997 16.4060012200000003
 14.9625705900000003 12.2070733199999992 18.9448584300000000
 15.0912071200000000 14.7564343000000004  0.1337823700000000
 14.7295418199999997 16.7212169599999996  1.9424618499999999
 14.8506969200000007 18.5975848799999994  4.0265034200000001
 14.3645489699999995  0.1141805000000000  5.8572315599999998
 14.4892314700000000  1.9806940900000001  7.9291638000000004
 16.4812290399999988  4.5873914999999998 12.2072869900000001
 16.5752172400000006  6.6297707700000004 14.7384314799999991
 16.5520512400000008  8.4923366700000003 16.8975401900000008
 16.9199165799999989 10.6381680900000006 18.9707930299999994
 16.6617887200000006 12.2959100400000008  0.1962589400000000
 16.7473586899999987 15.0237895100000003  2.0719406199999999
 16.9819169800000012 17.2623474899999998  4.3919732299999996
 16.7276052899999996 19.4454334700000011  6.2003051999999999
 16.4189301800000003 -0.0470382500000000  8.2277354900000006
 16.7239088900000006  2.4840737499999999 10.4242962699999993
 18.2781193600000016  4.5179318799999999 14.6693862799999994
 18.6460904700000007  6.1960525600000000 16.6939588800000003
 18.9872004700000012  8.1128620599999994 19.0466429599999998
 19.5009999799999996 10.0895829399999997 -0.4473597400000000
 18.9534042099999986 12.6161684300000001  1.8642582800000000
 18.8569668399999983 14.7786471000000006  4.5421955900000004
 18.5863465999999988 17.2401228599999996  6.6937526700000003
 18.7154135699999991 19.2656265299999987  8.5527003500000003
 18.2251652100000001  0.2251913900000000 10.4229215300000000
 18.2779861600000011  2.3092570900000000 12.8046571500000006
  0.0368069500000000  4.6882686099999997 16.7253922499999987
  0.0266461400000000  6.3633201100000001 18.6295650700000017
  0.6144882800000000  7.9028307699999996  0.2080959800000000
  0.0940332800000000 10.7444589900000000  1.8200081600000000
  0.0064118700000000 13.0046736500000009  4.0361932600000001
 -0.4463523300000000 14.6334504499999998  6.0788918599999997
  0.3094497000000000 16.3495317399999998  8.4418230300000001
 -0.1982576500000000 19.3712381799999989 10.6272530700000001
 -0.3893687600000000  0.3120505500000000 12.5234044400000002
 -0.3816187100000000  2.2109901100000000 14.5845749100000006
  2.2404084800000001  4.5598394100000004 18.7603575099999986
  3.0168974199999998  6.1640374500000004 21.0539887300000004
  2.0415925200000000  8.5249880699999991  1.9377735899999999
  2.0929768800000002 10.6469483799999995  3.8844249400000002
  2.3082267100000000 12.8062094599999998  6.3170223400000003
  2.2119862800000001 14.2113472800000000  8.5869253699999994
  2.3870609699999998 16.8817301200000003 10.6284711499999993
  1.6336518700000000 19.2658388699999996 12.5280812899999994
  1.9915193899999999  0.4589953100000000 14.3283876499999998
  1.7526375800000000  2.2763707300000000 16.8096205800000007
  6.7306815300000000  6.6019861899999999 -0.0492795400000000
  6.4704462999999999  8.5488757000000000  2.3315117900000000
  6.3239326299999998 11.3073826299999993  4.4864611300000004
  6.0622654699999998 12.7793024699999993  6.6835584900000002
  6.4184686500000003 14.9333116199999996  8.5607920800000006
  6.3905943599999997 16.8152595600000012 10.5495886799999994
  6.4608730000000003 18.9071913000000009 12.5585788699999998
  6.9501817099999998 -0.2190449200000000 14.8439437600000002
  6.8002198199999997  2.1001232100000000 17.0595959199999996
  6.5606260799999996  4.5484541399999996 18.9781551200000003
  8.0232892499999995  6.6688447300000000  2.4102804400000002
  8.3247083100000001  8.6907156000000008  4.3208563900000003
  8.5088731400000004 10.7385368499999991  6.1754789499999996
  8.8380219100000001 12.8079002600000003  8.5864673000000007
  8.3322324000000005 15.1112290399999996 10.4031363999999993
  8.4115106300000004 16.6802259500000005 12.8497566200000009
  8.6137812199999999 18.6650937399999997 14.9591884099999994
  8.7111440600000005 -0.0712166500000000 17.3699724899999985
  8.3679498300000006  2.2174053900000001 19.4757940900000008
  8.2561053399999995  4.6392616499999999 21.1083369400000009
 10.4716804799999998  6.3521393000000002  4.4925195300000000
 10.5942557399999995  8.8527643999999999  5.7671650999999997
 10.7049091199999999 10.2140674100000002  8.5862266700000003
 10.6319532500000005 12.6417619899999991 10.8393341299999992
 10.4876809400000006 14.5591379700000001 13.0289710200000002
 10.9514828000000009 16.7934967200000003 15.0352684700000001
 10.7136129699999998 18.5396777200000002 16.8721429600000015
 10.4740325700000003 -0.0730431800000000 19.1225455000000011
 10.2078383000000006  2.0736648600000001 -0.0024468600000000
 10.0480487899999993  4.6857541899999999  2.3742943699999999
 12.3278643199999998  6.6775217500000004  6.0459660800000004
 12.6185661099999997  8.3170123199999999  8.0443313100000005
 12.8053109799999998 10.3048383999999995 10.6915242100000007
 12.7819369999999992 12.6078480099999997 12.8047978699999998
 12.5954150299999998 14.6470446600000006 15.0772148200000000
 12.7109235199999997 16.5267192700000010 16.6708198400000001
 12.6947174399999998 18.6406568899999989 19.1641373299999991
 12.4386242199999995 -0.1070695600000000  0.1511353700000000
 12.2140325700000005  2.0357705600000000  2.2286605800000001
 12.8419957000000000  4.5996533700000004  4.0943843199999996
 14.4169284500000003  6.4426502499999998  8.1528237299999997
 14.4581722500000005  8.2629775300000006 10.2232808899999998
 14.5928953799999999 10.3941567700000004 12.5151636600000007
 14.7547612299999997 12.4749963200000007 14.6699535399999998
 14.7469184700000007 14.3760201100000007 16.9487344799999988
 15.2461324200000004 16.4654529600000004 18.8277314500000017
 14.6063179299999994 18.8207526700000010 -0.0679400200000000
 14.6178838800000008  0.1463492600000000  1.9583915900000000
 14.5753316399999999  2.2313113699999998  3.6919031499999999
 13.9592184800000005  3.8606640600000000  6.0251071600000001
 16.5204200899999982  5.9476844699999996 10.3346329800000003
 16.4933120799999990  7.8415602700000004 12.0975470699999992
 16.9156321299999988  9.9723982400000004 14.6268685999999999
 17.4220457899999985 12.4216335099999995 16.5072298800000006
 16.9797358299999992 14.2880282300000001 19.1151692699999991
 17.0423181799999988 17.0033274600000013 -0.3798706400000000
 16.7254380100000013 19.0923079899999983  1.8237396100000001
 16.7893251899999996 -0.0236820600000000  3.8442737800000000
 16.6282210100000007  2.1379331900000000  6.0567333600000000
 16.6810557800000012  4.3056764699999999  7.7437670199999999
 19.0025166900000002  6.2927033000000003 12.5267600600000009
 18.9267677600000006  8.1822985900000003 14.1389464599999997
 18.9048954100000017  9.6392357999999998 16.7987460099999986
 19.1192253900000004 12.5920929600000004 18.6926758799999995
 18.7338395599999998 14.9134161200000008 -0.1328815800000000
 19.0044021600000015 16.5530053300000013  2.5843509099999999
 19.0887466299999993 18.9946818399999984  4.0692332300000000
 18.7894221100000003  0.3651350400000000  6.4515093800000001
 18.5507581899999998  1.7115206700000001  8.0133984700000003
 18.9507031599999998  4.2016970699999998 10.0684504700000002
 -0.1080566600000000  6.2421232599999996 14.5514391399999994
 -0.3282547000000000  7.7996461400000001 16.3557066099999986
  0.2870805300000000  9.9521430300000002 18.5928161000000003
  0.0444952800000000 13.1673075500000003 -0.2709878100000000
 -0.0325247700000000 14.9162944700000004  2.0222686900000002
  0.2286172700000000 16.8951350299999987  4.5709209599999996
 -0.3629062100000000 18.9119954600000000  6.4271744200000001
 -0.2003495700000000  0.2984509100000000  8.5503356000000004
 -0.4784077200000000  2.2831697499999999 10.6723807999999991
 -0.4199407000000000  4.1541480899999996 12.6255011300000000
  2.4130912499999999  6.1916946499999996 16.7652137900000007
  2.3062410500000001  8.1260399299999992 18.6456461400000002
  2.0918269700000001 10.8822987799999993 -0.2279344800000000
  1.9486726100000000 12.7896555999999997  2.0865001099999998
  2.3704092999999999 14.7941104899999996  4.1010272099999998
  1.9632762600000000 16.6418644899999997  6.4298614900000004
  1.8796813100000000 19.0457155799999995  8.5524701400000005
  1.8151178699999999  0.3626252700000000 10.6690685500000004
  1.9370121000000000  2.5819981200000002 12.6779745399999992
  2.1870183999999999  4.2271485799999997 14.5879891300000004
  4.3403319099999997  6.2689607699999996 18.8216551199999991
  4.1917180900000002  8.1862968899999995 20.9882954499999990
  4.3107622900000004 10.6502790300000001  1.8787306300000000
  4.2254591100000001 12.4828220499999993  4.4552121199999997
  4.4209286700000003 14.9701946100000001  6.2633917099999996
  3.7923768299999998 16.8665808499999983  8.3007650900000005
  4.2748468800000001 18.6587018799999989 10.6410519200000007
  4.3953509700000000 -0.1759081200000000 12.7863115700000005
  4.2803820600000000  2.1671643299999999 14.6136722799999994
  4.5812754199999999  3.7146240000000001 16.9101830600000014
  8.5317438200000009  8.7132173099999992  0.2271325700000000
  8.2938698800000008 10.4774940900000004  2.2891080399999999
  8.3518702999999999 12.9581538500000004  4.4352451400000001
  8.6644943199999993 14.4113302399999998  6.6110353999999996
  8.7833858899999999 16.9785100799999995  8.4607981900000002
  8.4938512199999998 18.4955641399999990 10.3658639699999995
  8.5066857299999992 -0.2917650100000000 12.7609233700000004
  8.4469652199999992  2.0498856800000000 15.0589553699999996
  8.5290235400000007  4.3825427599999998 17.0214534700000009
  8.7030084199999997  6.4121138100000001 18.8689901199999994
 10.4102286100000008  8.1855401899999993  1.9140600400000001
 10.7393979700000006 10.6875273800000006  3.7545790600000002
 10.6947959800000003 12.6673947400000007  6.4887033100000000
 10.4657145200000006 14.9550309600000002  8.7636448399999995
 10.5954980699999997 16.6283163300000005 10.7744144100000003
 10.5350028400000006 19.0006415400000002 12.7747576299999999
 10.3298127999999991 -0.0032406400000000 14.9832014800000000
 10.2271541500000005  2.3683434399999999 17.3282039899999987
 10.8064722100000008  4.3311746500000003 19.3010918599999997
 10.3065072999999998  6.5000336900000004 20.9012802200000003
 13.1686268999999996  8.5367253299999994  4.1086015900000001
 12.6221866299999999 10.4455204100000003  6.0506412799999998
 12.6677874399999997 12.1975828800000006  8.4352753699999994
 12.8333005300000007 14.1216317500000006 10.7565627100000007
 12.5840146100000005 16.5923571000000010 12.6337226800000000
 12.5352723699999995 18.9476017299999988 14.6341550799999993
 12.3568642299999993  0.0380840700000000 17.0023747400000005
 12.4691424800000004  2.3269078799999998 18.9415625799999994
 12.5302478100000005  4.7980011500000002  0.4596683300000000
 12.2914797300000007  6.4727496799999997  2.1037019400000001
 14.8506261599999991  8.4328508800000002  6.1990895200000002
 15.0008404800000008 10.3167299700000008  7.9922498500000003
 14.7009759599999992 12.1491710400000006 10.5478630800000008
 15.0598628300000001 14.8805183400000001 12.5569348299999994
 14.4785859000000006 17.1641522399999999 14.8849268800000001
 14.4219163500000001 19.0664874200000014 16.7335738599999999
 14.6112154099999998  0.1534968000000000 19.6327769100000005
 14.5477607399999993  2.2659624500000000  0.2079337500000000
 14.8621363800000008  4.3945669699999996  2.1776648500000002
 14.6165410599999994  6.4669379200000003  4.4633700200000002
 17.0928941099999996  8.0695529100000005  8.5017626600000007
 16.7236182699999993 10.6056690400000004 10.2530177699999996
 16.8886589700000016 12.2348336700000004 12.8314757600000000
 16.4629515399999988 14.8192647900000001 14.6794416299999995
 16.7860823199999984 16.8289248799999989 16.8819740299999985
 16.2933211000000000 18.9306982599999998 18.9367441599999999
 16.6793608499999984 -0.0968385600000000  0.2404968300000000
 16.9039676300000004  2.2868149600000001  2.0181543000000000
 16.9553905900000004  4.2030072399999998  4.7048302000000000
 16.8903271199999985  6.5297441999999997  6.4672794400000004
 19.1643518399999984  8.3214893900000000 10.6478438400000002
 18.7069469899999987 10.2972319799999994 12.6643343200000000
 19.4815661400000018 12.7137673200000005 14.8516946200000000
 18.6067775799999993 15.2012846100000001 16.7811726800000010
 18.9129693699999990 17.2929185700000012 18.8208458400000005
 18.9053057500000001 18.8925360200000014  0.0688777300000000
 19.0910463399999983  0.1707975900000000  2.1839900000000001
 19.2975832700000005  2.1575416600000001  4.1661057899999996
 19.3240301700000003  4.0575315300000003  6.3615640899999999
 19.0127842399999984  6.0402452100000001  8.4422810800000008
  0.1153285500000000  8.3682267699999997 12.3279190900000000
 -0.2450503700000000  9.9653291199999998 14.3874771399999997
 -0.2565754200000000 12.5491647700000009 16.6066871099999993
 -0.3879256400000000 15.2153612900000006 18.9441031600000009
 -0.2569586600000000 16.8838208700000010 -0.0940556600000000
 -0.1084882200000000 19.0143371999999999  1.9075588800000001
 -0.1263923300000000  0.0912064200000000  4.1765528600000001
  0.1151052100000000  2.0717323099999998  6.2417721999999998
  0.2538026400000000  3.9071661799999999  8.5729987100000002
 -0.0731162200000000  6.0769041399999999 10.4714490900000001
  2.0660867900000000  7.9247033800000004 14.7624364700000008
  1.5780381000000001 10.2258603800000003 16.5786306799999998
  1.7274475199999999 12.6737729199999993 18.1605949600000010
  1.9261706000000001 14.8081738400000003 -0.1320676200000000
  2.2632285799999998 16.5271146299999998  2.1970244800000001
  2.1668122400000001 18.9306828500000002  4.4266289499999996
  1.7924697700000001 -0.1820694900000000  6.3255363400000002
  1.9809184500000001  2.3753716499999999  8.5990887800000007
  2.0981344700000002  4.0740382000000004 10.8563536400000000
  1.7150732000000000  5.8783929099999996 12.7835208100000006
  4.0981786199999997  8.8421621100000003 16.4349580400000015
  3.9492614100000001 10.5703538300000002 18.9265237900000010
  3.9224500400000002 12.6954726699999991  0.0829018200000000
  4.3314454700000002 14.4330884699999995  2.0000261400000001
  4.5675911400000002 16.5742623500000015  4.0800903000000002
  4.2207246600000001 19.1913964800000016  6.3534260700000003
  4.1082692500000002 -0.0510231000000000  8.5735799799999999