Li                                      
   1.00000000000000     
    21.6720000000000006    0.0000000000000000    0.0000000000000000
     0.0000000000000000   21.6720000000000006    0.0000000000000000
     0.0000000000000000    0.0000000000000000   21.6720000000000006
   Li
   432
Direct
  0.0073605652454773  0.9996272992801778  0.0170778137689211
  0.9156210585086768  0.0914622448320443  0.0842949796973045
  0.8314753672942032  0.1335890480804736  0.1498723435769662
  0.7698577214839446  0.2409341283684014  0.2508849607788832
  0.6532617280361777  0.3127553755998491  0.3323460769656705
  0.6092809237726087  0.4302799155592467  0.4460821691583590
  0.4973739437984506  0.5020728266888170  0.5033997277593230
  0.4199371737726096  0.5921198749538590  0.5741227131782978
  0.3285482913436724  0.6757280329457345  0.6660000221483955
  0.2602656367663343  0.7337269933554822  0.7468761032668851
  0.1689400692137326  0.8324361840162453  0.8059110958840918
  0.0690257627353290  0.9008220685677344  0.9229759025470656
  0.1025676628829828  0.8676762633813198  0.0633880707825796
  0.0432123071243993  0.0228318133997760  0.1551096299372432
  0.9239031893687724  0.0768139221114836  0.2153123329641957
  0.8161218470837923  0.1591342017349575  0.3335771308600926
  0.7635518646179378  0.2397417944813611  0.4331761226467350
  0.6629947291435982  0.3100634210040596  0.5117652616279074
  0.6133170238095218  0.4239752943890736  0.5770342091177554
  0.4927540213178290  0.5103117418789225  0.6537610815799155
  0.4058199856958282  0.5838821271686996  0.7605300179955705
  0.3459579129752655  0.6407050613695091  0.8446185635843477
  0.2584074169435198  0.7359774838501281  0.9208076711886335
  0.1586505680140249  0.7923176333517929  0.9745078626799568
  0.1699500724437044  0.8335127182539708  0.1694887536913967
  0.0878159445367288  0.8948063113695071  0.2188721377814673
  0.0311680938538217  0.0087016583610193  0.3255957156699907
  0.9283055297157645  0.0742532784237753  0.4014196830011088
  0.8607737463086025  0.1688167709486876  0.4847867764857909
  0.7450045381136974  0.2356624930786282  0.5897291288298234
  0.6540892021963813  0.3270794116832789  0.6655139488741213
  0.5965818461609445  0.4444591643595430  0.7458247582133595
  0.5051265956072370  0.5139968955334098  0.8402665213178295
  0.4388880264857846  0.5950621303986736  0.9460313907345892
  0.3336444725913594  0.6422373048172787  0.9988304498892546
  0.2645648154300488  0.7663103317644868  0.0857802127168696
  0.2607800438353607  0.7353557618124782  0.2609819716685138
  0.1638506243078623  0.8405555850867472  0.3255500599852326
  0.0970072102251720  0.9332338879660398  0.4007418576965662
  0.0150667165005558  0.0148063695090457  0.5024531376891872
  0.9342586318752311  0.0914349990771512  0.5947811415651501
  0.8102726919527470  0.1946963819675176  0.6576596193244768
  0.7406608259505347  0.2618366782022861  0.7696306132336659
  0.6394791477482471  0.3129543272425224  0.8400640217792557
  0.5714458125692161  0.4322371027131808  0.9200744629014395
  0.5051145404208199  0.5141741703580678  0.0092079365079343
  0.4258307502768517  0.6296994485972647  0.1085548366555926
  0.3426760880398660  0.6699202865448513  0.1785611461794048
  0.3346284265411583  0.6260125133813190  0.3224837721483951
  0.2464757927279422  0.7443498717238839  0.3913487601513452
  0.1390744056847524  0.8206968138612041  0.4755203631413778
  0.0734131653746743  0.8957786784791466  0.5919578972868251
  0.9968483033407196  0.0017741468253973  0.6701243793835374
  0.9090518493909201  0.0988288621262470  0.7389018969176817
  0.8096548971022486  0.1702065743816874  0.8274622697489846
  0.7775384680694017  0.2382400387596917  0.9256289165743823
  0.6623396903839023  0.3185032964193439  0.9953337010889598
  0.5805369287559969  0.4115740942229635  0.0801589359542234
  0.5050386115725374  0.5068203608342543  0.1835302690107028
  0.4420670095053509  0.5574780029531183  0.2612610474344805
  0.4106513745847167  0.5817768447766696  0.4513099317091189
  0.3050091929678871  0.6592012564599514  0.4980617326504273
  0.2359384159283877  0.7399784828349922  0.5583132332041316
  0.1372382470468807  0.8050178986710961  0.6745218212439994
  0.0822634759136207  0.9085445533407182  0.7449701075119961
  0.9900099478589865  0.0050351416574372  0.8249257691952749
  0.9047228977482433  0.0627283840900716  0.9181611138796626
  0.8151996525470651  0.1819854452750107  0.0071778912883005
  0.7659059602251759  0.2709120865633068  0.0775728266888152
  0.6422383527131785  0.3182459565337794  0.1562783494832019
  0.5793166666666636  0.4150729688076780  0.2737619624400125
  0.4855771571613161  0.4724612841454388  0.3605689816352893
  0.0800748394241424  0.0431135151347348  0.8880526536544835
  0.0209317912513853  0.1718682664267277  0.9628652141011429
  0.8961252034883742  0.2523650096899246  0.0736107345884065
  0.8121301079734238  0.3375880883167213  0.1683747683647070
  0.7405159717608001  0.4111611411037259  0.2500564294942791
  0.6570319352159473  0.5016620921004034  0.3371749049464725
  0.6024426555001838  0.5721849483204124  0.4629451056663001
  0.5010895067368040  0.6753878474529316  0.5021122180693993
  0.4104350382982673  0.7557564064230320  0.5963191615909906
  0.3414157862679943  0.8354232009043940  0.6350900433739355
  0.2632275895164256  0.9174785432816535  0.7531879678848270
  0.1523491966592871  0.9980556630675537  0.8108181856773697
  0.1683762947582110  0.0136207631967551  0.9907495851790316
  0.0801462739940959  0.1106929461978581  0.0715779669619820
  0.0057481543004769  0.1767460617386476  0.1799723800295325
  0.8948299187892204  0.2409028326873397  0.2458340374677022
  0.8386765789959369  0.3031172909745266  0.3281570741048370
  0.7845150798265053  0.3931725710594307  0.4195300742894048
  0.6902150489110355  0.4837574575489114  0.5369351748800284
  0.5612096719269104  0.5887344209117771  0.5929680034145406
  0.5027496239387261  0.6939666731266172  0.6880251951827248
  0.4173322955887784  0.7622673684939087  0.7658098255813925
  0.3292816232927294  0.8231400881321491  0.8405612338501314
  0.2494005827796215  0.8983244310631235  0.8970791375968972
  0.2362691629752689  0.8854298509597669  0.0665780311000361
  0.1786985811184962  0.9935612716869713  0.1473965928386889
  0.1192420625692137  0.0807450512181589  0.2334542797157653
  0.9792415997600585  0.1671357562753784  0.3090278050018469
  0.9263235681985975  0.2213571889996331  0.3822281215393133
  0.8571124824658511  0.3191055938538199  0.4929873841823564
  0.7707724058693231  0.3986130486341821  0.5747187513842746
  0.7030357447397577  0.5362877030269502  0.6791139258028807
  0.5809304009782181  0.5959028289959392  0.7381338049095589
  0.5032181030823182  0.6644581040051705  0.8341623463455150
  0.4304427191768170  0.7635940305463293  0.9410624506275411
  0.3210205477113348  0.8321901638058335  0.9905579309708372
  0.3612050498338846  0.8370348661867837  0.1889654734219235
  0.2544858199520093  0.9107566712809145  0.2243981547619072
  0.1577503063861201  0.9637298172757482  0.3012177205610911
  0.1065366629752660  0.0818381266149899  0.3992391071428543
  0.9793551019748961  0.1432235405131053  0.4738875733665537
  0.9448936572536013  0.2436432129014392  0.5952772291435977
  0.8295904752676293  0.3327364447212986  0.6637161083425624
  0.7454691288298250  0.4188904554263573  0.7434998426541171
  0.6787987947582153  0.5065144758213336  0.8482901679586590
  0.5903244089147250  0.5906784925249156  0.9407590956072340
  0.5116526241232933  0.6863715430047961  0.0217717409560692
  0.4020468530823180  0.7606896862310819  0.0962671456256956
  0.4183994592100433  0.7385663953488404  0.2674771391657416
  0.3486772434477672  0.8308942594130642  0.3378341191399059
  0.2782542132705785  0.9149006160022140  0.4232356893687736
  0.1470160183647096  0.9989036323366562  0.5205537629198957
  0.0650316671280891  0.0652670879475821  0.6097588441306740
  0.9929975982835018  0.1732719158361036  0.6700329798818743
  0.8870232318198603  0.2453242446474704  0.7766138127537801
  0.7914532230527840  0.3389105343300116  0.8265009468438507
  0.7378932069029176  0.4267439521040970  0.9183174557032103
  0.6507155763196764  0.5344763132152082  0.9990187430786293
  0.5793361041897356  0.5954440762273876  0.1113465716131401
  0.5062731519933550  0.6875730144887413  0.2102750932078266
  0.4967052976190445  0.6621045071982294  0.3557311420265776
  0.4191156815245449  0.7257990356220034  0.4107364613325970
  0.3334112356958272  0.8279571207087457  0.5023147632890357
  0.2491794988925804  0.8883250516795869  0.5907716975821344
  0.1917709620708763  0.9989084653008504  0.6463535972683658
  0.0643897697489848  0.1050572789774833  0.7270365508490215
  0.9831714059616061  0.1813539553340746  0.8377938284422299
  0.9285503202288652  0.2315719356773727  0.9114131732188966
  0.8203519573643376  0.3507080297157614  0.9967030117201929
  0.7191936378737509  0.4066634583794766  0.0857377620893303
  0.6727313395164245  0.5030529078995940  0.1803601605758587
  0.5857911978589883  0.5751783965485444  0.2618081303063846
  0.1477839147286844  0.1556470399593977  0.8335368955334062
  0.0755414521040976  0.2518478460686566  0.8976446225544450
  0.9834991569767411  0.3228685640457698  0.0130197365263953
  0.9061487172388354  0.4266282248984865  0.0604466883536361
  0.8198417192690997  0.5147714322628261  0.1550501121262471
  0.7355862776854920  0.5901033956256896  0.2764257484311585
  0.6460586858619450  0.6636421959210068  0.3428891837393877
  0.5921109223883363  0.7550859869878153  0.4101552048726447
  0.5151836710963451  0.8471441532853419  0.4784354581949088
  0.4073364636397230  0.9218411567921763  0.5754258540974533
  0.3013986314138037  0.0083526568844619  0.6613340019379876
  0.2553267917128110  0.0876255463270610  0.7678075327611680
  0.2266927662421523  0.0716867511074213  0.9080671234772950
  0.1550673288113700  0.1735530758582513  0.9739606866002219
  0.0976813385935742  0.2388351744186039  0.0730353746770049
  0.0033201721114793  0.3287694052233263  0.1707583827057988
  0.8963072185308221  0.4084498325027681  0.2256647194536754
  0.8376769605943153  0.5027260686600243  0.3507381229235875
  0.7597551799557039  0.5739739382613536  0.4168829046696203
  0.6603505915466954  0.6754185059062365  0.5186723431155400
  0.5969206999815455  0.7992063395164237  0.5632769019933548
  0.5131795464193445  0.8395491071428580  0.6663692838685833
  0.4013293853820628  0.9332956893687694  0.7239098214285704
  0.3284360206718375  0.9875575009228470  0.8348983439461080
  0.3215073763381326  0.9884110903469931  0.9828491260612751
  0.2763622120708717  0.0946334413067547  0.0699130158730128
  0.1774900992063522  0.1969556759874465  0.1563708693244763
  0.1086929665005556  0.2646992137320012  0.2458030490956062
  0.0101498781838316  0.3134369998154298  0.3117766772794397
  0.9282262380029493  0.4203893387781434  0.4258681436877083
  0.8471959551495019  0.5013091694352170  0.5010213851974896
  0.7654689553340717  0.5945590083979297  0.5845284394610530
  0.6642275669066109  0.6856149686231063  0.6597495708748582
  0.6001549510889603  0.7516729337393855  0.7361850622923569
  0.4837513450535269  0.8189970708748646  0.8135489161129570
  0.4344859745293448  0.8919445837947606  0.9224050419896628
  0.4077371682355135  0.9152394481358428  0.0951646830011086
  0.3329912961424881  0.9940799653931336  0.1687874566260632
  0.2402985095976362  0.0941309039313367  0.2298882433554823
  0.1782630970837928  0.1973961960132868  0.3342689904023644
  0.0776079355850854  0.2554318023255817  0.4127951102805483
  0.9841927607050565  0.3186376914913254  0.4985207350498371
  0.9305111346437798  0.4153393664636411  0.5803099146363948
  0.8531567418789194  0.4915322918973786  0.6691617289590255
  0.7749005514027303  0.5897683817829460  0.7527656727574765
  0.6557945879475824  0.6795991597452939  0.8169436088039888
  0.6020024921557763  0.7486844301402726  0.8835891052971547
  0.5066196530084923  0.8072405163344385  0.0156234703765250
  0.5002678059246932  0.8699483771686971  0.2003989327242550
  0.4093029203580656  0.9318597752860853  0.2884419352159497
  0.3252332299741596  0.9962144112218496  0.2996722212993745
  0.2226763635105229  0.0656187329272768  0.3752630518641595
  0.1672162375415311  0.1531116961978611  0.4975066800479908
  0.0973171151716485  0.2280017488002954  0.5571266657438159
  0.0017383093392382  0.3407106003137699  0.6682885848098934
  0.9371933448689518  0.4134795574935382  0.7434481021594692
  0.8374748546511626  0.5053877459394585  0.8221356510705036
  0.7478705495570352  0.5973750876707271  0.9091587098560368
  0.6598816615909939  0.6654846488556672  0.0291363358250294
  0.5759644753599105  0.7487513307493572  0.1304763030638583
  0.5771186660206737  0.7674767866371326  0.2711787767626461
  0.4979236872462138  0.8468437592284985  0.3537464285714265
  0.3926152703949768  0.9352655232558149  0.4133677297895915
  0.3278806529162068  0.9939940734588433  0.4974309722222188
  0.2374990019379837  0.0797768041712814  0.6033100992063467
  0.1487336854005150  0.1802563219822844  0.6790849635474316
  0.0712138995016645  0.2583016634366899  0.7628197554448164
  0.9863336461794034  0.3482776135105183  0.8415403922111508
  0.9106073574197140  0.4063480458656343  0.9142745888704340
  0.8375989641011472  0.5008032950350696  0.9962759602251765
  0.7394042912513825  0.5823839834809874  0.0767541186784797
  0.6692980264857908  0.6882222457548934  0.1835053059246974
  0.2481372480620152  0.2621495293466225  0.7467646091731268
  0.1512459030084869  0.3554392977113352  0.8282812320044286
  0.0714304503506824  0.4179326651901079  0.9448607613510518
  0.9822883877814661  0.5162725212255452  0.9965551578073075
  0.9369404886489505  0.5768052219453637  0.0741185248246552
  0.8356880435585055  0.6499125802879320  0.1645375950535239
  0.7527376499630876  0.7428986351052060  0.2820297840531580
  0.6934783010335934  0.8430724543189356  0.3267404780361787
  0.5856652173311190  0.9166797139165723  0.4387139419527486
  0.5108824354005179  0.0192746327057947  0.4897029420450352
  0.4038961618678485  0.0950037679955713  0.6007720362679976
  0.3174575355297122  0.1927898744924335  0.6530467954042081
  0.3170812929125120  0.1535422443706196  0.8482725761351020
  0.2634538376707241  0.2677070427279418  0.8948419292174208
  0.1652359302325550  0.3297856958287184  0.9979029231266168
  0.0766131778331456  0.4413276711886311  0.0863788376707291
  0.9950527814691768  0.4869564571797724  0.1800934800664464
  0.9349004531192335  0.5668090005537110  0.2153139945551885
  0.8403795113510526  0.6483487338501277  0.3270413450535230
  0.7643469416758961  0.7383836900147642  0.4082547752860819
  0.6874147014581027  0.8486874164820932  0.4882091076042840
  0.5709812772240710  0.9070766417497254  0.5448064299557061
  0.4958715388519721  0.0158614253414555  0.6673615314691759
  0.3837767958656357  0.1056654037467695  0.7602502307124368
  0.4389113995016629  0.0572825853636019  0.9181536900147620
  0.3249952034883705  0.1474238704318935  0.9691967792543394
  0.2716119928940586  0.2283013455149501  0.0853922374492413
  0.1774355357142881  0.3240708854743417  0.1502008854743480
  0.1065149035621999  0.4361238358250290  0.2460516602067173
  0.9851137167774056  0.5097415143964596  0.3375852445551857
  0.9226520076596501  0.5863442008121069  0.4599747199150954
  0.8539768756921404  0.6526649067921753  0.4698518899963062
  0.7888787799926149  0.7322601001291957  0.5673938768918418
  0.6655287398486536  0.8531832447397534  0.6668214174972320
  0.5892829401993325  0.9297527740863814  0.7464234057770369
  0.5186733139534851  0.9924516394425993  0.8099976079734219
  0.5187480094130663  0.9768461618678472  0.0089115148578784
  0.4117935972683640  0.0769330467884828  0.0790114548726493
  0.3259008882428915  0.1750001112033956  0.1768430269472105
  0.2789494213731984  0.2601124247877422  0.2489929794204500
  0.1680386706349211  0.3353923315799179  0.3484926435031355
  0.0593019550572151  0.4147941325212230  0.4170467714101136
  0.0019061088039862  0.5088754581949075  0.5176379752676254
  0.9072498140457697  0.5962387098560384  0.5829252953119237
  0.8464339774824623  0.6579008014950176  0.6810418447766722
  0.7645917354189748  0.7568592183462499  0.7361512892211124
  0.6830966662052447  0.8398243240125538  0.8538252030269504
  0.5709499303248435  0.9075426887227778  0.9036209772978978
  0.5719761881690673  0.9301155458656325  0.0880480034145421
  0.4874684131598386  0.9931123740310071  0.1886884034699179
  0.4235607507382824  0.0920934634551500  0.2596638865817624
  0.3132523901808781  0.1693494532115167  0.3517578220745676
  0.2382508042635649  0.2674959939091934  0.4238616832779627
  0.1260594255260230  0.3169548486526423  0.5168560428202298
  0.0350261060354384  0.4000616846622336  0.5827389437984465
  0.0094951582687344  0.5203137070874888  0.6547410705057217
  0.9423640425433746  0.6065291339054966  0.7380976481173889
  0.8502682631967531  0.6590537380029531  0.8473949990771530
  0.7550606842930989  0.7118409971391628  0.9461870095053513
  0.6582508337947601  0.8128166832779655  0.0225177745478007
  0.6623507959579200  0.8487078340716110  0.1693381247692898
  0.5865351753414529  0.9359626425802858  0.2474137850682894
  0.5037728225359928  0.0056236369509008  0.3182983176448886
  0.4059808421004050  0.0376615083979317  0.4033246257844212
  0.3010289765596141  0.1796594610557420  0.4953178474529381
  0.2708677570136615  0.2882755767811034  0.5801839119601340
  0.1571334611480282  0.3531587472314541  0.6745622342192661
  0.0550555500184586  0.4542591076042797  0.7293253326873383
  0.9995844864341095  0.5036382055186408  0.8407048957179768
  0.9200306100036926  0.5889047508305651  0.8866097817460314
  0.8300797886674047  0.6579599441675867  0.9934057705795496
  0.7712252856220019  0.7319278331487666  0.0947585308231851
  0.3534316985049841  0.3449409366925096  0.6778175632152070
  0.2609272457548926  0.4605533914728710  0.7519443812292366
  0.1745481538390550  0.5200395418050974  0.8482485252860812
  0.0982582087486179  0.6128172476005886  0.9228393143226299
  0.9929301670358086  0.6642608711701712  0.9997313547434459
  0.9109520884090045  0.7151574012550768  0.0973496530084930
  0.8372681483019591  0.8248056930601706  0.1708692326504249
  0.7499666348283469  0.9152392381875245  0.2355451033591720
  0.6710483305647870  0.9807544592100399  0.3312183790143948
  0.5994697296050191  0.0647465974529382  0.4137922563676639
  0.4811081026208939  0.1436061134182367  0.4921432059800637
  0.4482904632705811  0.2411168221668518  0.5571040831487650
  0.4294049884643769  0.2228412380029496  0.7524597429863391
  0.3445194407530465  0.3604339673311188  0.8189123334256152
  0.2519617538759675  0.4269743692321910  0.9092907622739048
  0.1967994186046482  0.4849285377445582  0.0250197254521964
  0.0862207415097842  0.5897333194905841  0.0672338492063460
  0.9904475313768941  0.6496489437984465  0.1781222923588075
  0.9463918595422669  0.7362708038021424  0.2785459251568838
  0.8511093461609462  0.8695148509597601  0.3453357756552222
  0.7739562836840150  0.9362293470837955  0.4126480403285342
  0.6571085248246575  0.0173453760612787  0.4916713330564804
  0.6080858259505320  0.0877122476005923  0.5780446087116999
  0.5159861046511622  0.1591114691768212  0.6762430375599848
  0.4919459473052754  0.1309457562753806  0.8549590051679559
  0.4214961895533378  0.2470284071613165  0.9182655712439995
  0.3534531169250670  0.3099551075119962  0.9830762047803603
  0.2788095242709474  0.3893348883351777  0.0724452851605761
  0.1831136812476899  0.5069494527500922  0.1616245685677384
  0.0924076974898469  0.5935911184939116  0.2044827883905498
  0.0001691320598027  0.6509976444259848  0.3271545408822476
  0.9228650609080873  0.7605861627906947  0.3882910271317854
  0.8452608014950158  0.8600854088224423  0.4950785308231787
  0.7439344356773745  0.9237739571797690  0.5771219444444426
  0.6833868512366195  0.9803414585640482  0.6510482881136923
  0.6077889839424131  0.0727686291066831  0.7646233273348102
  0.6061418023255811  0.0874489954780344  0.9279671848468070
  0.4820206949058701  0.1763233430232560  0.9921180467884838
  0.4211555407899610  0.2304327274824658  0.0680925156884484
  0.3630200281469200  0.3174978594499791  0.1434243203211523
  0.2544947309892933  0.4091404498892572  0.2521928174603190
  0.1632570699520102  0.5126023385012886  0.3582040443890762
  0.0565012610741960  0.5594834113141403  0.3996595538021381
  0.0002876804171308  0.7060882161314126  0.4841683734772957
  0.9186579904946441  0.7611470025839822  0.5701235972683634
  0.8341463293650762  0.8319238482835019  0.6559617252676233
  0.7650101868770776  0.9129110672757506  0.7369809182355098
  0.6843697614433353  0.0044109749907690  0.8475684934477670
  0.6630697794389064  0.0082413335179012  0.0118377810077490
  0.5749361627906993  0.0843455454042115  0.0706094107604258
  0.4992361890919170  0.1671661401808819  0.1780324930786250
  0.4103847471391688  0.2301031183093372  0.2631902800848991
  0.3395916583610159  0.3275632396640802  0.3468898075858249
  0.2389403912882955  0.3923454457364315  0.4423069098375763
  0.1393795750276823  0.4924258457918071  0.5033975382982661
  0.0781961000369122  0.6020403959025487  0.5842829738833544
  0.9876597323735723  0.6839223214285681  0.6756528880583232
  0.8940340222406817  0.7598706478405290  0.7394470459579168
  0.8329368198597251  0.8218819541343692  0.8540963570505724
  0.7452212347729770  0.9025735271317856  0.9742023135843496
  0.7485039331856740  0.9089315273163550  0.0667615956072325
  0.6398580555555569  0.0086488482834994  0.1420004600406060
  0.5870156704503486  0.0765002708564069  0.2509434002399402
  0.4845559519195248  0.1318370256552228  0.3460220944075303
  0.4111333434846784  0.2426337804540424  0.4204561969361365
  0.3315282442783314  0.3259053294573633  0.5098748638796593
  0.2381035792727957  0.4076523205057185  0.6143758227205609
  0.1446173938722808  0.5005693249353982  0.6509633863971942
  0.0820078908268727  0.5812937546142507  0.7541998094315261
  0.0122495745662619  0.6853646410114465  0.8208360266703565
  0.9391467917128082  0.7449649335548187  0.9381898080472482
  0.8410835012919904  0.8009442234219293  0.0250548509597621
  0.4207439036544827  0.4264226148947969  0.5890986304909589
  0.3579861992432640  0.5410058873200470  0.6603935294389061
  0.2453020044296821  0.5718498518826109  0.7369648514211917
  0.1814326056662949  0.6651651568844557  0.8366481150793632
  0.0660329222037674  0.7461276513473578  0.9228379392764836
  0.9833879895717956  0.8182135769656682  0.0018346599298624
  0.9111522171465509  0.9072860160575829  0.0684971746954588
  0.7985740762273892  0.0058335603543753  0.1237513150609075
  0.7123899912329250  0.0882158310262113  0.2388744010705039
  0.6762218406238460  0.1513513072166859  0.3317520501107438
  0.5739386226467360  0.2465107668881501  0.4283599118678509
  0.5086795902547081  0.3621481095422681  0.5116397434477662
  0.4696177948504996  0.3232276688815077  0.6587310405131035
  0.4161220764119591  0.4210107853451461  0.7483841491325194
  0.3460803036175690  0.5019850479881853  0.8662896045588795
  0.2612659016242134  0.5992511835548200  0.9476883771686957
  0.1774110086747882  0.6727638362864496  0.9999247466777419
  0.0827247549833885  0.7240789138058332  0.0736252136397226
  0.0044733831672232  0.8197857032115152  0.1552122780546341
  0.9394624598560384  0.9555537818383186  0.2366630984680711
  0.8444830430970853  0.0197102200996682  0.3174011664820995
  0.7724821387043193  0.0801384546880755  0.4241279789590280
  0.6503683324104870  0.1496043189368805  0.5010033642488025
  0.6131008674787779  0.2493165545404210  0.5821823652639324
  0.5697485852713200  0.2417264345699550  0.7583067418789255
  0.4926120016611293  0.3550243475452177  0.8277501910298994
  0.4149339964008831  0.4121183116463669  0.9275366251384298
  0.3363683637873720  0.5186059906792195  0.0124182308970120
  0.2483897466777378  0.5999775867478760  0.1058477131782922
  0.1688281907530467  0.6611420685677345  0.1433945201181217
  0.0717298675710580  0.7166349400147638  0.2194481884459236
  0.0117884159283861  0.8720492220376528  0.3156755232558126
  0.9229432230527834  0.9679336452565508  0.4215309237726075
  0.8584048366555947  0.0131722503691378  0.5187000918235540
  0.7426586627906957  0.1066306806016968  0.6057345717977114
  0.6671256713731992  0.1846898735695817  0.6822396765411582
  0.6650008453303826  0.1736057655038792  0.8229260617386487
  0.5499729365079347  0.2355698851052068  0.9226779240494665
  0.5002354452750097  0.3265768443152481  0.0155938459763760
  0.4262263007567384  0.4057624017165011  0.0680858854743462
  0.3207199986157221  0.4998703677556264  0.1626857867294191
  0.2116807129014404  0.5763854609634578  0.2475856026208945
  0.1616595884090088  0.6534245657991846  0.3434640896087089
  0.0589927731635314  0.7562678552971605  0.3946497997416003
  0.9949149275562945  0.8331541006829113  0.4849240896087110
  0.9382244901255063  0.9115534173126605  0.6005636143410840
  0.8453688856589139  0.0120935252860832  0.6528881275378353
  0.7356037370801047  0.0772330292543373  0.7478738602805493
  0.7307598463455136  0.0882647139165726  0.9391862970653406
  0.6684415480804731  0.1792019536729441  0.0022457124400148
  0.5831879258951673  0.2553182844222945  0.0794543383167223
  0.4917393014027311  0.3370452906976737  0.1835746793097073
  0.4222612629198963  0.3941581847545237  0.2671404411221872
  0.3340750701365849  0.5162585123661856  0.3433713648947929
  0.2398884237726122  0.5568467714101146  0.4252671590070136
  0.1085320293466197  0.6619665360834261  0.4645853248431138
  0.0626531395348806  0.7761176937984473  0.5912844052233268
  0.9790031824473999  0.8224818858434872  0.6759534925249184
  0.8860213879660392  0.9323402260981908  0.7640385031376908
  0.8097416814322642  0.0063840430048003  0.8492606330749339
  0.8529921299372489  0.0134116375968958  0.0182782530454020
  0.7314773288113727  0.1008053949796945  0.0582926568844613
  0.6576822739018056  0.1554377648578793  0.1279665254706543
  0.5740555920081221  0.2036574086378735  0.2364939617940180
  0.5287002344038356  0.3014448901808819  0.3276746903839083
  0.4102103239202677  0.3838294130675521  0.4033922734403816
  0.3614489045773368  0.4961639068844619  0.5045999307862701
  0.2250023394241438  0.6002075419896613  0.5725358397932823
  0.1402973435769681  0.6758529148209647  0.6563722037652298
  0.0546439604097486  0.7544549893872272  0.7812321673126590
  0.9827764184200802  0.8559492280361738  0.8522375092284946
  0.9193068978405279  0.9324648574197099  0.9245984182355116
 
  0.00000000E+00  0.00000000E+00  0.00000000E+00
  0.00000000E+00  0.00000000E+00  0.00000000E+00
  0.00000000E+00  0.00000000E+00  0.00000000E+00
  0.00000000E+00  0.00000000E+00  0.00000000E+00
  0.00000000E+00  0.00000000E+00  0.00000000E+00
  0.00000000E+00  0.00000000E+00  0.00000000E+00
  0.00000000E+00  0.00000000E+00  0.00000000E+00
  0.00000000E+00  0.00000000E+00  0.00000000E+00
  0.00000000E+00  0.00000000E+00  0.00000000E+00
  0.00000000E+00  0.00000000E+00  0.00000000E+00
  0.00000000E+00  0.00000000E+00  0.00000000E+00
  0.00000000E+00  0.00000000E+00  0.00000000E+00
  0.00000000E+00  0.00000000E+00  0.00000000E+00
  0.00000000E+00  0.00000000E+00  0.00000000E+00
  0.00000000E+00  0.00000000E+00  0.00000000E+00
  0.00000000E+00  0.00000000E+00  0.00000000E+00
  0.00000000E+00  0.00000000E+00  0.00000000E+00
  0.00000000E+00  0.00000000E+00  0.00000000E+00
  0.00000000E+00  0.00000000E+00  0.00000000E+00
  0.00000000E+00  0.00000000E+00  0.00000000E+00
  0.00000000E+00  0.00000000E+00  0.00000000E+00
  0.00000000E+00  0.00000000E+00  0.00000000E+00
  0.00000000E+00  0.00000000E+00  0.00000000E+00
  0.00000000E+00  0.00000000E+00  0.00000000E+00
  0.00000000E+00  0.00000000E+00  0.00000000E+00
  0.00000000E+00  0.00000000E+00  0.00000000E+00
  0.00000000E+00  0.00000000E+00  0.00000000E+00
  0.00000000E+00  0.00000000E+00  0.00000000E+00
  0.00000000E+00  0.00000000E+00  0.00000000E+00
  0.00000000E+00  0.00000000E+00  0.00000000E+00
  0.00000000E+00  0.00000000E+00  0.00000000E+00
  0.00000000E+00  0.00000000E+00  0.00000000E+00
  0.00000000E+00  0.00000000E+00  0.00000000E+00
  0.00000000E+00  0.00000000E+00  0.00000000E+00
  0.00000000E+00  0.00000000E+00  0.00000000E+00
  0.00000000E+00  0.00000000E+00  0.00000000E+00
  0.00000000E+00  0.00000000E+00  0.00000000E+00
  0.00000000E+00  0.00000000E+00  0.00000000E+00
  0.00000000E+00  0.00000000E+00  0.00000000E+00
  0.00000000E+00  0.00000000E+00  0.00000000E+00
  0.00000000E+00  0.00000000E+00  0.00000000E+00
  0.00000000E+00  0.00000000E+00  0.00000000E+00
  0.00000000E+00  0.00000000E+00  0.00000000E+00
  0.00000000E+00  0.00000000E+00  0.00000000E+00
  0.00000000E+00  0.00000000E+00  0.00000000E+00
  0.00000000E+00  0.00000000E+00  0.00000000E+00
  0.00000000E+00  0.00000000E+00  0.00000000E+00
  0.00000000E+00  0.00000000E+00  0.00000000E+00
  0.00000000E+00  0.00000000E+00  0.00000000E+00
  0.00000000E+00  0.00000000E+00  0.00000000E+00
  0.00000000E+00  0.00000000E+00  0.00000000E+00
  0.00000000E+00  0.00000000E+00  0.00000000E+00
  0.00000000E+00  0.00000000E+00  0.00000000E+00
  0.00000000E+00  0.00000000E+00  0.00000000E+00
  0.00000000E+00  0.00000000E+00  0.00000000E+00
  0.00000000E+00  0.00000000E+00  0.00000000E+00
  0.00000000E+00  0.00000000E+00  0.00000000E+00
  0.00000000E+00  0.00000000E+00  0.00000000E+00
  0.00000000E+00  0.00000000E+00  0.00000000E+00
  0.00000000E+00  0.00000000E+00  0.00000000E+00
  0.00000000E+00  0.00000000E+00  0.00000000E+00
  0.00000000E+00  0.00000000E+00  0.00000000E+00
  0.00000000E+00  0.00000000E+00  0.00000000E+00
  0.00000000E+00  0.00000000E+00  0.00000000E+00
  0.00000000E+00  0.00000000E+00  0.00000000E+00
  0.00000000E+00  0.00000000E+00  0.00000000E+00
  0.00000000E+00  0.00000000E+00  0.00000000E+00
  0.00000000E+00  0.00000000E+00  0.00000000E+00