Li 
 1.0000000000000000
    21.6720000000000006    0.0000000000000000    0.0000000000000000
     0.0000000000000000   21.6720000000000006    0.0000000000000000
     0.0000000000000000    0.0000000000000000   21.6720000000000006
 Li 
 432
Cartesian
  0.1595181700000000 -0.0080771700000000  0.3701103800000000
 19.8433395799999985  1.9821697700000001  1.8268408000000000
 18.0197341599999987  2.8951418499999999  3.2480334300000000
 16.6843565399999996  5.2215244299999997  5.4371788700000003
 14.1574881700000006  6.7780345000000004  7.2026041799999998
 13.2043361800000003  9.3250263300000000  9.6674927700000008
 10.7790881100000000 10.8809222999999999 10.9096788999999994
  9.1008784299999999 12.8324219300000006 12.4423874399999992
  7.1202985700000001 14.6443779299999992 14.4335524799999995
  5.6404768799999996 15.9013314000000001 16.1862989100000014
  3.6612691800000001 18.0405569800000016 17.4657052700000008
  1.4959263300000001 19.5226158699999992 20.0027337600000017
  2.2228463899999999 18.8042799800000004  1.3737462700000000
  0.9364971200000000  0.4948110600000000  3.3615358999999998
 20.0228299199999995  1.6647113200000001  4.6662488800000004
 17.6869926699999986  3.4487564200000000  7.2292835799999997
 16.5476960099999992  5.1956841699999998  9.3877929299999998
 14.3684217699999994  6.7196944600000004 11.0909767499999994
 13.2918065399999996  9.1883925800000004 12.5054853799999997
 10.6789651499999998 11.0594760700000005 14.1683101600000008
  8.7949307300000008 12.6538934600000008 16.4822065500000008
  7.4975998900000000 13.8853600900000007 18.3045735100000009
  5.6002055400000001 15.9501040300000003 19.9557438500000011
  3.4382751100000002 17.1711077500000009 -0.5524656000000000
  3.6831579699999999 18.0638876300000000  3.6731602699999999
  1.9031471499999999 19.3922423799999990  4.7433969700000000
  0.6754749300000000  0.1885823400000000  7.0563103500000004
 20.1182374400000015  1.6092170500000000  8.6995673700000005
 18.6546886299999990  3.6585970600000000 10.5062990200000002
 16.1457383499999985  5.1072775500000001 12.7806096799999995
 14.1754211899999998  7.0884650100000002 14.4230183000000007
 12.9291217700000001  9.6323190099999998 16.1635141599999983
 10.9471035800000003 11.1393407199999999 18.2102560500000017
  9.5115813100000004 12.8961864899999998 20.5023923000000003
  7.2307430100000003 13.9185668699999994 21.6466535100000002
  5.7336486799999999 16.6074775099999989  1.8590287700000001
  5.6516251100000003 15.9366300699999996  5.6560012899999998
  3.5509707300000000 18.2165206399999988  7.0553208999999999
  2.1023402600000001 20.2250448200000008  8.6848775400000005
  0.3265258800000000  0.3208836400000000 10.8891644000000003
 20.2472530699999993  1.9815792999999999 12.8900968999999996
 17.5602297800000002  4.2194599899999998 14.2527992700000006
 16.0516014200000008  5.6745244899999996 16.6794346500000010
 13.8587920899999997  6.7823461800000002 18.2058674799999984
 12.3843736500000006  9.3674424900000002 19.9398537599999983
 10.9468423200000000 11.1431826199999993  0.1995544000000000
  9.2286040200000006 13.6468464500000000  2.3526004199999999
  7.4264761799999999 14.5185124499999993  3.8697771599999999
  7.2520672599999996 13.5669431899999999  6.9888683100000000
  5.3416233799999997 16.1315504199999999  8.4813103299999995
  3.0140205199999999 17.7861413500000012 10.3054773100000006
  1.5910101200000000 19.4133155200000012 12.8289115500000008
 -0.0683035700000000  0.0384493100000000 14.5229355499999997
 19.7009716799999985  2.1418191000000002 16.0134819099999994
 17.5468409299999983  3.6887168799999999 17.9327623100000011
 16.8508136800000017  5.1631381200000002 20.0602298800000014
 14.3542257699999993  6.9026034400000000 -0.1011280300000000
 12.5813963199999996  8.9196337700000008  1.7372044600000001
 10.9451967900000007 10.9838108600000002  3.9774679900000001
  9.5804762300000004 12.0816632800000008  5.6620494199999998
  8.8996365900000001 12.6082677800000003  9.7807888399999996
  6.6101592299999998 14.2862096300000001 10.7939938699999995
  5.1132573499999996 16.0368136800000016 12.0997643900000007
  2.9742272900000000 17.4463478999999992 14.6182369100000003
  1.7828140500000000 19.6899775599999991 16.1449921699999983
 -0.2165044100000000  0.1091215900000000 17.8777912699999995
 19.6071546400000010  1.3594495400000000 19.8983876600000009
 17.6670068700000016  3.9439885700000001 21.8275592600000010
 16.5987139699999986  5.8712067399999999  1.6811583000000001
 13.9185895800000008  6.8970263699999999  3.3868643899999999
 12.5549508000000003  8.9954613800000001  5.9329692500000002
 10.5234281500000009 10.2391809499999997  7.8142509699999998
  1.7353819200000000  0.9343561000000000 19.2458771099999986
  0.4536337800000000  3.7247290700000000 -0.8047850800000000
 19.4208254099999991  5.4692544900000000  1.5952918400000000
 17.6004837000000016  7.3162090500000003  3.6490179800000000
 16.0484621400000016  8.9106842499999992  5.4192229400000000
 14.2391960999999991 10.8720208599999992  7.3072545399999997
 13.0561372299999991 12.4003922000000006 10.0329463299999997
 10.8596117900000007 14.6370054300000003 10.8817759899999995
  8.8949481499999994 16.3787528400000006 12.9234288700000004
  7.3991629200000002 18.1052916099999983 13.7636714199999997
  5.7046683199999997 19.8835949899999989 16.3230896399999992
  3.3017117900000001 -0.0421376700000000 17.5720517200000010
  3.6490510600000001  0.2951891800000000 -0.2004749900000000
  1.7369300500000000  2.3989375300000000  1.5512376999999999
  0.1245740000000000  3.8304406499999999  3.9003614199999999
 19.3927540000000000  5.2208461899999996  5.3277152599999997
 18.1757988200000007  6.5691579300000003  7.1118201100000000
 17.0020108100000016  8.5208359599999994  9.0920557700000000
 14.9583405400000000 10.4839916199999994 11.6364591100000005
 12.1625360100000002 12.7590523699999991 12.8508025700000008
 10.8955898500000004 15.0396457399999992 14.9108820299999998
  9.0444255099999999 16.5198584100000012 16.5966305399999996
  7.1361913399999999 17.8390919900000000 18.2166430599999991
  5.4050094299999998 19.4684870699999983 19.4414990699999990
  5.1204253000000000 19.1890357300000005  1.4428790899999999
  3.8727556500000002 -0.1395401200000000  3.1943789599999999
  2.5842139799999999  1.7499067500000001  5.0594211500000004
 -0.4498760500000000  3.6221661100000002  6.6972505900000003
 20.0752843699999985  4.7972530000000004  8.2836478499999995
 18.5753417200000008  6.9156564300000003 10.6840225899999997
 16.7041795800000017  8.6387419899999998 12.4553047800000005
 15.2361906600000001 11.6224270999999995 14.7177570000000006
 12.5899236499999994 12.9144061099999998 15.9968358199999994
 10.9057427300000001 14.4001360300000005 18.0779663699999986
  9.3285546099999994 16.5486098300000002 20.3947054299999984
  6.9571573100000004 18.0352252300000018 21.4673714800000006
  7.8280358400000001 18.1402196199999999  4.0952597400000004
  5.5152166899999999 19.7379185799999988  4.8631568100000004
  3.4187646400000000 -0.7860474000000000  6.5279904399999999
  2.3088625600000001  1.7735958800000000  8.6523099299999995
 -0.4474162300000000  3.1039405699999998 10.2700914900000004
 20.4777353399999988  5.2802357100000004 12.9008481100000001
 17.9788847800000013  7.2110642299999999 14.3840555000000005
 16.1558069599999996  9.0781939499999993 16.1131285899999988
 14.7109274800000005 10.9771817200000008 18.3841445199999995
 12.7935105900000003 12.8011842900000001 20.3881311200000006
 11.0885356700000006 14.8750440800000003 22.1438371700000012
  8.7131594000000003 16.4856668800000001  2.0863015800000002
  9.0675530799999997 16.0062109200000009  5.7967645599999997
  7.5565332200000004 18.0071403900000000  7.3215410299999997
  6.0303253100000003 19.8277261500000002  9.1723638600000008
  3.1861311500000000 -0.0237604800000000 11.2814411499999991
  1.4093662899999999  1.4144683300000001 13.2146936700000008
 -0.1517560500000000  3.7551489600000001 14.5209547400000005
 19.2235674799999998  5.3166670299999996 16.8307745500000010
 17.1523742500000012  7.3448691000000004 17.9119285200000000
 15.9916215800000003  9.2483949299999999 19.9017759000000005
 14.1023079700000000 11.5831706600000004 21.6507341999999987
 12.5553720500000008 12.9044640200000007  2.4131029000000002
 10.9719517500000006 14.9010823699999992  4.5570818199999996
 10.7645972099999998 14.3491288800000003  7.7094053100000002
  9.0830750499999997 15.7295166999999996  8.9014805900000002
  7.2256882999999998 17.9434867199999992 10.8861655499999994
  5.4002181000000000 19.2517805200000005 12.8032042300000004
  4.1560602900000001 -0.0236557400000000 14.0077751599999996
  1.3954550900000000  2.2768013499999999 15.7563361299999993
 -0.3647092900000000  3.9303029199999999 18.1566678500000016
 20.1235425399999990  5.0186269899999996 19.7521462899999989
 17.7786676200000002  7.6005444200000003 21.6005476700000010
 15.5863645200000001  8.8132104699999996  1.8581087800000000
 14.5794335900000007 10.9021626200000004  3.9087654000000001
 12.6952668400000004 12.4652662099999993  5.6739058000000000
  3.2027730000000001  3.3731826499999999 18.0644115999999997
  1.6371343500000000  5.4580465199999999 19.4537542600000002
 -0.3576062700000000  6.9972075199999999  0.2821637300000000
 19.6380550000000014  9.2458868899999995  1.3100006300000000
 17.7676097400000010 11.1561264799999993  3.3602460299999999
 15.9416258099999997 12.7887207899999993  5.9906988200000004
 14.0013838400000008 14.3824536700000003  7.4310943900000002
 12.8322279100000003 16.3642235099999986  8.8888835999999998
 11.1650605200000008 18.3593080899999990 10.3686532499999995
  8.8277958400000003 19.9781415500000001 12.4706291100000008
  6.5319111400000001 21.8530187799999993 14.3324304900000001
  5.5334422300000004  1.8990208399999999 16.6399248499999999
  4.9128856299999999  1.5535952700000000 19.6796307000000006
  3.3606191500000002  3.7612422599999999 -0.5643240000000000
  2.1169499699999998  5.1760358999999996  1.5828226400000001
  0.0719547700000000  7.1250905500000004  3.7006756699999999
 19.4247700399999985  8.8519247700000001  4.8906058000000003
 18.1541350900000005 10.8950793600000004  7.6011965999999997
 16.4654142599999993 12.4391631900000004  9.0346863099999997
 14.3111180200000003 14.6376698600000008 11.2406670200000001
 12.9364654100000003 17.3203997899999997 12.2073370200000006
 11.1216271300000002 18.1947082500000015 14.4415551200000003
  8.6976104400000001 20.2263841800000002 15.6885736500000004
  7.1178654400000001 21.4023461600000005 18.0939169100000008
  6.9677078600000000 -0.2511548500000000 -0.3716937400000000
  5.9893218600000004  2.0508959400000002  1.5151548800000001
  3.8465654300000001  4.2684234099999996  3.3888694799999999
  2.3555939700000001  5.7365613599999996  5.3270436800000001
  0.2199681600000000  6.7928066600000001  6.7568241499999999
 20.1165190299999992  9.1106777500000007  9.2294144100000004
 18.3604307400000017 10.8643723199999993 10.8581354599999997
 16.5892431999999985 12.8852828299999995 12.6679003399999992
 14.3951398299999997 14.8586475999999994 14.2980926999999998
 13.0065580999999995 16.2902558199999987 15.9546026699999999
 10.4838591500000007 17.7493045199999990 17.6312321099999991
  9.4161800400000004 19.3302230199999983 19.9903620699999998
  8.8364799099999995 19.8350693199999988  2.0624090100000001
  7.2165873700000001 -0.1282989900000000  3.6579617600000001
  5.2077492999999997  2.0400049500000002  4.9821380099999999
  3.8633178400000001  4.2779703600000003  7.2442775599999996
  1.6819191800000000  5.5357180200000000  8.9460956300000003
 -0.3425744900000000  6.9055160500000001 10.8039413700000004
 20.1660373100000001  9.0012347500000001 12.5764764699999994
 18.4896129100000017 10.6524878300000001 14.5020729900000003
 16.7936447499999986 12.7814603699999996 16.3139376600000006
 14.2123803100000003 14.7282729900000007 17.7048018899999988
 13.0465980100000003 16.2254889700000007 19.1491430899999990
 10.9794611199999999 17.4945164700000007 22.0105918500000008
 10.8418038899999996 18.8535212299999984  4.3430456700000004
  8.8704128900000008 20.1952650499999997  6.2511136199999999
  7.0484545599999997 -0.0820412800000000  6.4944963800000002
  4.8258421499999997  1.4220891800000000  8.1327008599999999
  3.6239102999999999  3.3182366800000000 10.7819647700000001
  2.1090565200000002  4.9412539000000004 12.0740490999999999
  0.0376726400000000  7.3838801299999997 14.4831502099999998
 20.3108541699999989  8.9609289699999994 16.1120072699999994
 18.1497550499999996 10.9527632300000004 17.8173238299999994
 16.2078505499999999 12.9463129000000006 19.7032875599999997
 14.3009553700000005 14.4223833100000007 22.3034426699999990
 12.4823021099999991 16.2269388399999990  2.8276824399999998
 12.5073157300000002 16.6327569199999985  5.8769864500000004
 10.7910021500000006 18.3527979499999994  7.6663926000000000
  8.5087581399999994 20.2690744199999990  8.9585054399999997
  7.1058295100000004 -0.1301604400000000 10.7803240299999992
  5.1470783700000000  1.7289228999999999 13.0749364700000008
  3.2233564299999999  3.9065150100000001 14.7171293300000006
  1.5433476300000000  5.5979136499999997 16.5318297399999992
 -0.2961772200000000  7.5478724399999999 18.2378633800000003
 19.7346826499999999  8.8063748499999992 19.8141588900000016
 18.1524447500000008 10.8534090100000000 21.5912926100000000
 16.0243697999999988 12.6214256900000006  1.6634152600000001
 14.5050268300000003 14.9151525100000004  3.9769269899999999
  5.3776304399999999  5.6813045999999998 16.1838826100000013
  3.2778012099999998  7.7030804599999998 17.9505108600000014
  1.5480407199999999  9.0574367200000001 20.4770224200000008
 -0.3838460600000000 11.1886580799999997 -0.0746566200000000
 20.3053742700000015 12.5005227699999999  1.6062966700000001
 18.1110312799999988 14.0849054400000000  3.5658587599999998
 16.3133303500000011 16.1000992200000006  6.1121494800000002
 15.0290617399999995 18.2710662299999989  7.0811196399999998
 12.6925365899999996 19.8662827600000007  9.5078085500000000
 11.0718441399999996  0.4177198400000000 10.6128421599999996
  8.7532376200000002  2.0589216600000002 13.0199315700000007
  6.8799397100000004  4.1781421600000002 14.1528301499999998
  6.8717857799999997  3.3275675200000001 18.3837632699999993
  5.7095715699999996  5.8017470299999996 19.3930142900000000
  3.5809930799999998  7.1471156000000002 -0.0454478500000000
  1.6603607899999999  9.5644532899999994  1.8720021700000000
 -0.1072161200000000 10.5533203400000009  3.9029859000000000
 20.2611626200000003 12.2838846600000000  4.6662848900000000
 18.2127047699999984 14.0510137600000000  7.0876400300000002
 16.5649269200000013 16.0022513300000000  8.8476974899999998
 14.8976514099999999 18.3927536899999993 10.5804677799999993
 12.3743062399999992 19.6581649799999987 11.8070449499999999
 10.7465279900000006 22.0157488100000016 14.4630591099999997
  8.3172107200000003  2.2899806300000001 16.4761430000000004
  9.5120878500000003  1.2414281899999999 19.8982267700000008
  7.0432960500000004  3.1949701199999998 -0.6675674000000000
  5.8863751100000004  4.9477467600000002  1.8506205700000000
  3.8453829300000000  7.0232642299999997  3.2551535899999999
  2.3083909899999999  9.4516757699999996  5.3324315799999997
 -0.3226155300000000 11.0471181000000005  7.3161474200000001
 19.9957143100000003 12.7072515199999998  9.9685721300000001
 18.5073868499999996 14.1445538600000003 10.1826301600000004
 17.0965809200000010 15.8695408899999997 12.2965601000000007
 14.4233388500000004 18.4901872800000007 14.4513537599999999
 12.7709398800000002 20.1496021200000008 16.1764880499999997
 11.2406880600000001 -0.1635880700000000 17.5542681599999995
 11.2423068599999993 -0.5017899800000000  0.1931303500000000
  8.9243908399999992  1.6672929900000000  1.7123362499999999
  7.0629240500000003  3.7926024100000002  3.8325420800000001
  6.0453918599999996  5.6371564699999999  5.3961758499999997
  3.6417340700000000  7.2686226100000004  7.5525325700000003
  1.2851919700000001  8.9894184399999997  9.0382376299999994
  0.0413091900000000 11.0283489299999999 11.2182501999999999
 19.6619179700000011 12.9216853199999999 12.6331570000000006
 18.3439171600000002 14.2580261700000008 14.7595388599999993
 16.5702320900000011 16.4026529799999992 15.9538707399999993
 14.8040709499999998 18.2006727499999990 18.5040997999999988
 12.3736268900000006 19.6682651499999999 19.5832738199999987
 12.3958679499999995 20.1574641099999994  1.9081763300000001
 10.5644154500000003 -0.1492686300000000  4.0892550800000000
  9.1794085899999995  1.9958495400000000  5.6274357500000001
  6.7888057999999996  3.6701413500000002  7.6232955200000001
  5.1633714299999998  5.7971731799999997  9.1859304000000002
  2.7319598699999998  6.8690454799999996 11.2013041599999994
  0.7590857700000000  8.6701368300000006 12.6291183900000004
  0.2057790700000000 11.2762386600000006 14.1895484799999991
 20.4229135299999989 13.1446993899999995 15.9960522300000001
 18.4270138000000010 14.2830126100000001 18.3647444200000010
 16.3636751499999988 15.4270180900000007 20.5057648700000001
 14.2656120699999995 17.6153631600000011  0.4880052100000000
 14.3544664500000003 18.3931961800000003  3.6698958400000001
 12.7113903199999996 20.2841823900000016  5.3619515499999997
 10.9177646100000008  0.1218754600000000  6.8981611400000000
  8.7984168100000009  0.8162002100000000  8.7408512900000002
  6.5238999800000004  3.8935798400000001 10.7345283899999995
  5.8702460299999997  6.2475082999999998 12.5737457399999997
  3.4053963700000001  7.6536563700000002 14.6191127400000003
  1.1931638800000000  9.8447033800000003 15.8059386100000001
 -0.0090050100000000 10.9148471899999997 18.2197564999999990
 19.9389033799999993 12.7627437599999993 19.2146071899999988
 17.9894891799999996 14.2593079100000004 -0.1429101400000000
 16.7139943899999999 15.8623399999999997  2.0536068799999998
  7.6595717700000003  7.4755599799999999 14.6896622299999997
  5.6548152700000003  9.9811131000000000 16.2961386300000015
  3.7828075900000000 11.2702969500000005 18.3832420399999990
  2.1294518999999998 13.2809753900000000 19.9997736199999991
 -0.1532174200000000 14.3958615999999999 -0.0058220800000000
 19.7421536599999996 15.4988911999999992  2.1097616800000001
 18.1452753099999988 17.8751889800000008  3.7030780100000000
 16.2532769100000003 19.8350647699999989  5.1047334800000002
 14.5429594200000007 -0.4170893600000000  7.1781647099999999
 12.9917079799999993  1.4031882600000001  8.9677057799999993
 10.4265747999999991  3.1122316900000002 10.6657275600000006
  9.7153509200000006  5.2254837700000003 12.0735596899999997
  9.3060649099999999  4.8294153099999999 16.3073075500000009
  7.4664253199999999  7.8113249400000004 17.7474680900000017
  5.4605151300000001  9.2533885300000005 19.7061494000000010
  4.2650370000000004 10.5093712700000008  0.5422274900000000
  1.8685759099999999 12.7807005000000000  1.4570919800000000
 -0.2070211000000000 14.0791919100000005  3.8602663200000000
 20.5102043800000011 15.9564608600000000  6.0366472900000003
 18.4452417500000010 18.8441258500000011  7.4841169299999999
 16.7731805799999982 20.2899624100000011  8.9429083299999999
 14.2408559500000003  0.3759089900000000 10.6555011299999993
 13.1784360199999995  1.9008998300000000 12.5273827600000001
 11.1824508599999994  3.4482637600000001 14.6555391099999994
 10.6614525699999998  2.8378564300000000 18.5286715599999994
  9.1346654199999993  5.3535996399999997 19.9006514599999988
  7.6600359500000001  6.7173470899999996 -0.3667724900000000
  6.0423600100000003  8.4376657000000002  1.5700342199999999
  3.9684396999999998 10.9866085400000006  3.5027276500000002
  2.0026596200000002 12.8643067200000001  4.4315509899999999
  0.0036654300000000 14.1084209499999993  7.0900932100000000
 20.0003315999999991 16.4834233200000000  8.4150431399999999
 18.3184920899999995 18.6397709800000015 10.7293419199999995
 16.1225470900000012 20.0200291999999997 12.5073867799999991
 14.8103598400000003 -0.4260399100000000 14.1095185000000001
 13.1720028599999992  1.5770417299999999 16.5709167499999985
 13.1363051399999993  1.8951946300000000 20.1109048299999991
 10.4463524999999997  3.8212794899999998 -0.1708176900000000
  9.1272828799999992  4.9939380699999996  1.4757009999999999
  7.8673700499999999  6.8808136099999997  3.1082918700000000
  5.5154098100000004  8.8668918300000001  5.4655227399999999
  3.5381072200000001 11.1091178799999994  7.7629980500000002
  1.2244953300000001 12.1251244899999993  8.6614218500000000
  0.0062346100000000 15.3023438200000008 10.4928969900000002
 19.9091559700000005 16.4955778399999993 12.3557185999999994
 18.0776192500000015 18.0294536399999998 14.2160025099999991
 16.5793007699999997 19.7846086499999991 15.9718504600000006
 14.8316614700000002  0.0955946500000000 18.3685043899999982
 14.3700482600000008  0.1786061800000000  0.2565483900000000
 12.4600165199999999  1.8279366600000000  1.5302471499999999
 10.8194466899999995  3.6228245900000000  3.8583201900000001
  8.8938582400000001  4.9867947800000003  5.7038597500000003
  7.3596304200000002  7.0989505299999998  7.5177959100000002
  5.1783161599999996  8.5029105000000005  9.5856753500000007
  3.0206341499999998 10.6718529300000000 10.9096314499999991
  1.6946658800000001 13.0474194600000004 12.6625806099999991
 -0.2674382800000000 14.8219645500000006 14.6427493900000005
 19.3755053299999993 16.4679166799999983 16.0252963800000003
 18.0514067599999990 17.8118257100000008 18.5099762500000011
 16.1504346000000005 19.5605734799999986 21.1129125400000000
 16.2215772399999985 19.6983640599999994  1.4468573000000000
 13.8670037799999992  0.1874378400000000  3.0774339700000000
 12.7218036100000003  1.6579138700000000  5.4384453700000002
 10.5012965900000008  2.8571720200000001  7.4989908300000003
  8.9100818200000003  5.2583592899999996  9.1121266999999992
  7.1848801099999999  7.0630202999999998 11.0500080500000006
  5.1601807700000002  8.8346410899999999 13.3147528299999998
  3.1341481600000001 10.8483384100000002 14.1076785099999995
  1.7772750100000001 12.5977982500000003 16.3450182700000006
  0.2654727800000000 14.8532224999999993 17.7891583699999991
 20.3531892700000014 16.1448800400000003 20.3324495200000008
 18.2279616400000002 17.3580632100000010  0.5429887300000000
  9.1183618800000001  9.2414309100000001 12.7669455200000002
  7.7582769100000002 11.7246795899999992 14.3120485700000000
  5.3161850399999997 12.3931299900000003 15.9715022599999994
  3.9320074300000001 14.4154592800000003 18.1318379500000013
  1.4310654899999999 16.1700784599999992 19.9997438199999991
 -0.3600154900000000 17.7323246400000016  0.0397607500000000
 19.7464908500000007 19.6627025400000015  1.4844707699999999
 17.3066973799999992 21.7984249199999987  2.6819384999999998
 15.4389158900000005  1.9118134899999999  5.1768860200000004
 14.6550797300000006  3.2800855300000000  7.1897304300000000
 12.4383978299999995  5.3423813400000002  9.2834160099999998
 11.0241040800000007  7.8484738299999997 11.0882565199999998
 10.1775568500000002  7.0049900400000000 14.2760191100000000
  9.0181976400000003  9.1241457399999994 16.2189812800000013
  7.5002523400000003 10.8790199600000008 18.7742283100000016
  5.6621546199999999 12.9869716499999992 20.5383025100000012
  3.8448513800000002 14.5801378600000007 -0.0016308900000000
  1.7928108899999999 15.6922382200000001  1.5956056300000001
  0.0969471600000000 17.7663957600000018  3.3637604900000002
 20.3600304299999983 20.7087615599999992  5.1289626699999999
 18.3016365100000016 22.0991598899999993  6.8787180799999996
 16.7412329100000008  1.7367605900000000  9.1917015600000003
 14.0947825000000009  3.2422247999999998 10.8577449099999992
 13.2871220000000001  5.4031883699999996 12.6170562200000003
 12.3475913399999992  5.2386952899999999 16.4340237100000017
 10.6758872999999994  7.6940876600000001 17.9390021399999995
  8.9924495699999998  8.9314280499999992 20.1015737399999992
  7.2897751800000004 11.2392290300000006  0.2691279000000000
  5.3831025900000000 13.0027142599999994  2.2939316399999998
  3.6588445500000000 14.3282709100000005  3.1076460400000001
  1.5545296900000001 15.5309124199999999  4.7558811399999996
  0.2554785500000000 18.8990507399999998  6.8413199400000000
 20.0020255300000009 20.9770579599999998  9.1354181800000003
 18.6033496199999995  0.2854690100000000 11.2412683900000001
 16.0948985399999991  2.3109001100000000 13.1274796400000007
 14.4579475500000001  4.0025989400000004 14.7854982699999997
 14.4118983200000006  3.7623841499999999 17.8344536100000006
 11.9190134800000003  5.1052705500000002 19.9962759699999992
 10.8411025700000003  7.0775733699999996  0.3379498300000000
  9.2371763900000001  8.7936827700000002  1.4755573099999999
  6.9506438099999999 10.8331906100000008  3.5257263700000001
  4.5875444099999996 12.4914257099999997  5.3656751800000002
  3.5034866000000000 14.1610171900000008  7.4435537500000004
  1.2784913800000000 16.3898369600000002  8.5528504600000002
 -0.1102036900000000 18.0561156700000005 10.5092748700000005
 20.3332011500000007 19.7551856599999986 13.0154146500000003
 18.3208344899999993 21.9340908799999994 14.1493915000000001
 15.9420041900000005  1.6737942100000001 16.2079222999999999
 15.8370273899999994  1.9128728800000001 20.3540454299999993
 14.4864652300000003  3.8836647399999999  0.0486690800000000
 12.6388487299999994  5.5332578600000000  1.7219344200000000
 10.6569741400000009  7.3044455399999997  3.9784304499999998
  9.1512460900000008  8.5421961799999995  5.7894676399999998
  7.2400749199999996 11.1883544799999992  7.4415442199999999
  5.1988619199999997 12.0679832299999994  9.2163898700000004
  2.3521061400000001 14.3461387699999996 10.0684931599999992
  1.3578188400000000 16.8200226599999993 12.8143156299999994
 -0.4550430300000000 17.8248274299999991 14.6492640900000008
 19.2018555199999987 20.2056773800000009 16.5582424400000008
 17.5487217199999996 21.8103549799999996 18.4051764400000017
 18.4860454400000016  0.2906570100000000  0.3961263000000000
 15.8525766699999995  2.1846545200000000  1.2633184600000000
 14.2532902400000001  3.3686472400000000  2.7732905400000001
 12.4409327899999997  4.4136633600000001  5.1252971399999998
 11.4579914800000005  6.5329136600000002  7.1013658900000003
  8.8900781400000000  8.3183510399999996  8.7423173500000004
  7.8333206600000000 10.7528641900000004 10.9356896999999993
  4.8762506999999999 13.0076978499999996 12.4079967199999999
  3.0405240299999998 14.6470843700000000 14.2248984000000007
  1.1842439100000000 16.3505485300000011 16.9308635299999999
 -0.3732694600000000 18.5501316699999990 18.4696913000000009
 19.9232190899999999 20.2083783900000000 20.0378969200000014
