Li                                      
   1.00000000000000     
    21.6499999999999986    0.0000000000000006    0.0000000000000000
     0.0000000000000006   21.6499999999999986    0.0000000000000000
    -0.0000000000000006   -0.0000000000000006   21.6499999999999986
   Li
   500
Direct
  0.0193364886835994  0.9910281736720563  0.9864985607390295
  0.0062725367205516  0.0978516558891442  0.0842589625866026
  0.9902715265588924  0.2041012508083142  0.1979292323325623
  0.0010031053117814  0.3173739741339503  0.2986762041570472
  0.0111215113163965  0.4186185113163958  0.3902175528868383
  0.0087884517321015  0.4884166826789809  0.5000661764434184
  0.9959940572748280  0.5880921473441134  0.6112676697459563
  0.0063474000000028  0.7081819103926108  0.7072218637413386
  0.9986672411085422  0.7923289482679010  0.7960358046189384
  0.9975222581986145  0.8905315085450383  0.8808446489607391
  0.1020532743648985  0.9886040281755228  0.1045366161662784
  0.0904162383371840  0.1150506600461867  0.2035871625866079
  0.1022017939953841  0.2229335362586582  0.2926616956120114
  0.1095037551963074  0.3120526000000012  0.3996774438799093
  0.1261619284064679  0.3990137321016149  0.5118731861431840
  0.1139238868360266  0.4927032942263310  0.6076002780600476
  0.1134974605080856  0.6007314688221683  0.7051718683602743
  0.0887101496535792  0.7079132859122410  0.8032166152424978
  0.0907906642032330  0.7996618845265573  0.8948258073902977
  0.0967862997690503  0.9027100073902972  0.9971433607390310
  0.1818503210161637  0.0032649454965323  0.2004086988452656
  0.1925919852194014  0.1086322896073924  0.3042811547344115
  0.1853892383371800  0.2162198780600448  0.4100439593533522
  0.2035902655889146  0.3095551575057769  0.5136538683602794
  0.2090721718244808  0.3809951561200933  0.6238120678983847
  0.2028065616628183  0.4950546166281740  0.6869741307159387
  0.2008631454965339  0.6096854327944570  0.7898613066974605
  0.2181262637413397  0.7117197071593537  0.8911750175519657
  0.1978294919168562  0.7978323163972263  0.9902120979214786
  0.1931824286374138  0.8894547390300218  0.0981186448036979
  0.3035451422632818  0.0003404762124717  0.2980440826789845
  0.2871588863741366  0.1172247288683579  0.3939020577367174
  0.2925732397228629  0.1892531053117779  0.5064930383371831
  0.3134300207852192  0.2959593681293313  0.6095602979214760
  0.3133970896073919  0.3989805422632813  0.6989832203233277
  0.3104292960739059  0.4942712295611997  0.7855524143187083
  0.3085150720554282  0.5947293256351074  0.8950467981524284
  0.3093557635103892  0.7082474041570421  0.0057872147806037
  0.2881377510392582  0.7992375237875322  0.1042375741339470
  0.2961135487297923  0.9071626046189394  0.1982651482679003
  0.3927080438799067  0.0051092415704375  0.4080066295611999
  0.4009801187066984  0.1050994734411077  0.5102848457274831
  0.4005322845265624  0.2069862937644373  0.6085153390300206
  0.4152779889145464  0.3112134642032345  0.7132794175519663
  0.4104534549653565  0.3888448600461913  0.8096100757505766
  0.3913838369514977  0.5136047210161649  0.9001172697459552
  0.3873336655889119  0.6051862023094685  0.0065761935334905
  0.3751025030023101  0.7071178277136241  0.1150621076212488
  0.3699103944572784  0.8008354466512699  0.2136513076212481
  0.3871876960739016  0.9219359810623544  0.3061756942263258
  0.4989737163972308  0.0082604919168574  0.4805856351039282
  0.5067284933025391  0.0776916083140904  0.6006342563510358
  0.5010164946882227  0.1967949672055411  0.7004236193995368
  0.5103545889145522  0.2919222221709035  0.8158881459584322
  0.5040465912240180  0.4107232106235585  0.8922547140877626
  0.4879156143187089  0.5013940041570422  0.0102631445727468
  0.5041627006928380  0.6151388078521904  0.1060744808314098
  0.4821191575057711  0.7179905847575085  0.2066329288683590
  0.4927463824480398  0.8104780581986120  0.3135878628175490
  0.4967702836027712  0.9169680946882224  0.3981444101616631
  0.5950892674364923  0.9950575251732090  0.5930881020785250
  0.6018471334872970  0.1035700919168576  0.7022548993071567
  0.5927188106235590  0.2004028424942277  0.8018690956120125
  0.5747837648960754  0.3010437454965356  0.9118100073903008
  0.6020355085450362  0.4089098928406472  0.0168143205542748
  0.5921242018475752  0.5163917505773696  0.1073440096997658
  0.5959865450346413  0.6393925177829090  0.1912696429561223
  0.5903778480369510  0.7100976041570419  0.3172080295612005
  0.6078952457274838  0.7983529450346438  0.4080429205542728
  0.5907769247113137  0.9181876896073931  0.4946511066974608
  0.6961407191685893  0.0095957949191714  0.7018416512702075
  0.6891651187066969  0.0941158143187053  0.8109162170900674
  0.7069174563510359  0.2079130443418009  0.9081879450346406
  0.7004735330254022  0.3128390762124695  0.0034282383371860
  0.6934573602771366  0.4126630609699760  0.1024607094688221
  0.6922279279445718  0.5093685681293323  0.2002885695150098
  0.6757747815242467  0.6296543976905298  0.2987525062355658
  0.6913247039260995  0.7018852799076214  0.4007175057736703
  0.6955413441108576  0.8091103963048525  0.4958176969976904
  0.6978270748267903  0.9106960503464236  0.5855869806004605
  0.7912265127020817  0.9818472387990766  0.8007761205542749
  0.8124860845265616  0.0875913422632806  0.9011939648960734
  0.8058801810623564  0.1963991510392589  0.0102110729792173
  0.7877774254041583  0.3138704032332598  0.0905950036951495
  0.8088856429561204  0.4096231593533517  0.1921802886836019
  0.7958070896073934  0.5341496743648975  0.2980368979214774
  0.8024141519630490  0.6097272572748267  0.4008324424942273
  0.7840147593533473  0.6909490979214752  0.4898894143187036
  0.8029069334873000  0.7838255187066991  0.5938647598152400
  0.7817958646651277  0.8937061976905341  0.6940792092378771
  0.8900439709006918  0.9930504032332550  0.9050476092378759
  0.9093318739029996  0.0889084351039244  0.9988290974595841
  0.9138861718244797  0.2030044785219403  0.0899192988452668
  0.9037698009237900  0.3150443422632776  0.1848643963048531
  0.8918455547344095  0.4025985487297916  0.2834245108545019
  0.8978584743648952  0.5040749584295625  0.4003384586605065
  0.8949828706697431  0.5996808540415728  0.5062055722863761
  0.9004512152424908  0.6845242272517353  0.5995335464203251
  0.8998106092378748  0.7997104660508114  0.6809906226327911
  0.8978895302540408  0.8781961117782942  0.7808137639722830
  0.1094559935334871  0.0818174572748234  0.9850206609699796
  0.0999699852194027  0.2081784577367216  0.0828612023094664
  0.0873953598152397  0.3033645648960714  0.1948481958429582
  0.1090137182448032  0.4105067376443401  0.2991944914549620
  0.1092795191685880  0.4884392595842968  0.4070897565819891
  0.1083192757505742  0.5851740563510361  0.5087587353348724
  0.1023963528868350  0.7105903487297951  0.6032504198614319
  0.0939874877598186  0.8059801071593569  0.6837328692840643
  0.0886948637413383  0.9102793030023122  0.7925111330254069
  0.1047992013856813  0.9914715224018451  0.8903338360277147
  0.1844097879907594  0.0910882614318709  0.0961061986143221
  0.1903859210161656  0.1943849787528862  0.1923025967667442
  0.1931368378752865  0.2986384401847602  0.2930202794457273
  0.2224147441108570  0.4041863094688196  0.3976244748267916
  0.2058997325635090  0.4918523385681297  0.5100266508083138
  0.2130778669745936  0.6124795815242479  0.5969566706697478
  0.1899638106235599  0.7013605695150105  0.7089425662817561
  0.2000825103926118  0.8048138180138551  0.7987574360277137
  0.2009988212471114  0.8887973385681320  0.8897815519630470
  0.1781662124711332  0.9886877939953820  0.0023069847575030
  0.2886057487297933  0.1038459736720583  0.1955706558891421
  0.2884248974595849  0.1967725071593520  0.2999003704387988
  0.2889027362586631  0.2892928549653604  0.3960915542725161
  0.3036059709006906  0.3829319413394927  0.5113586073902994
  0.3118071833718261  0.4977295893764406  0.5997126401847552
  0.3017246780600473  0.5964651893764454  0.7015277963048518
  0.3038645607390293  0.7070530697459603  0.7934525709006905
  0.3038566443417992  0.8067004803695141  0.8980011561200953
  0.2837684235565803  0.9019154300230952  0.0062121265588928
  0.2896140369514981  0.9982738480369520  0.1114565145496513
  0.4023892665126994  0.1065766466512699  0.3022531935334882
  0.4024526013856828  0.2038660272517347  0.3980952138568128
  0.3962668540415706  0.2953893764434170  0.5084828230946883
  0.4107473986143191  0.3869925764434186  0.6090232175519645
  0.4109823057736719  0.5005291995381072  0.7062874554272511
  0.4065916581986144  0.6066942988452624  0.8165419695150149
  0.3901798581986142  0.7036453113164001  0.9073799838337209
  0.3922691048498876  0.8081900073903014  0.0058414018475759
  0.4009361394919182  0.9172367648960744  0.1056390720554248
  0.3938809205542739  0.0157879963048515  0.2044378032332546
  0.4981826586605109  0.1085516577367187  0.3977227672055434
  0.4850535330254075  0.1962188877598123  0.4931591113163947
  0.5006532046189349  0.2930647048498827  0.5887722286374100
  0.5077169750577397  0.3911964628175539  0.6844431759815208
  0.5067900868360269  0.5133958711316424  0.8140466849884547
  0.4930706087759802  0.6043872794457243  0.9080321154734392
  0.4842501394919196  0.7071234424942290  0.0038743921478073
  0.4911876360277105  0.8127941030023109  0.1187298909930732
  0.4957623538106262  0.9019107145496505  0.2129188752886861
  0.5143050244803717  0.0079042831408742  0.3181634314087773
  0.5821641177829093  0.1031609769053148  0.4788288203233222
  0.6070037140877602  0.1919311778290975  0.5868700041570420
  0.5964896157043853  0.2931738503464203  0.6982264637413422
  0.5945315912240190  0.4048654766743667  0.8087290595842944
  0.5922558355658225  0.5114471048498856  0.9178766845265613
  0.5982459939953841  0.6172068124711316  0.9973735528868346
  0.5939214124711327  0.7194483916859156  0.0942096341801388
  0.5901956143187093  0.8030273307159348  0.2051546013856793
  0.6015053270207886  0.8894638969976896  0.2989848609699735
  0.6081811293302550  0.0071229237875272  0.4048607528868331
  0.6989330027713621  0.0826470000000015  0.5780275690531198
  0.7098281755196325  0.1914613427251766  0.6939448498845238
  0.6730353842956092  0.3024853903002338  0.8136154498845229
  0.6935543247113145  0.3944500120092371  0.9001454355658183
  0.7024095219399555  0.4947103510392594  0.9910781478060073
  0.7089561404157010  0.5998596706697441  0.1004781556582017
  0.6835970332563477  0.7134832170900722  0.1901354951501162
  0.6903954221709014  0.8057162207852215  0.3106975196304873
  0.7058313316397218  0.9002143607390281  0.4041998868360253
  0.6970786752886866  0.0118239279445760  0.4861529519630494
  0.7828177482678953  0.0970419487297889  0.6964868891454969
  0.7831496725173182  0.1948017838337179  0.7911015103926076
  0.7940248614318719  0.2999132637413382  0.9017976789838329
  0.8089858600461923  0.4167094304849854  0.0098063815242497
  0.8070528120092391  0.5024051745958431  0.0958338434180135
  0.7947090415704423  0.6100553792147778  0.2109776457274819
  0.8003440046189354  0.7107046623556599  0.3006016803695175
  0.7903004572748245  0.7915780586605052  0.3969435325635118
  0.7967847233256364  0.9110623519630465  0.4958437020785240
  0.8037044863741372  0.9892359792147829  0.5989022341801373
  0.8872461020785209  0.0972663538106247  0.7866698175519602
  0.9001825020785219  0.1919427963048506  0.8944345090069277
  0.9069705949191658  0.3014021981524238  0.0091245441108541
  0.9091769491916892  0.4167033140877621  0.0957505297921486
  0.9011220591224003  0.5187240383371829  0.2005606775981548
  0.8995239842956124  0.6070607085450348  0.2971721829099323
  0.9009429833718272  0.7068030669745937  0.3954284046189400
  0.8858201399538075  0.7839719681293289  0.4992189528868352
  0.9006190364896085  0.8916166669745991  0.5962469764434175
  0.8990599773672088  0.9888496766743629  0.7011226669745980
  0.0004716230946897  0.0897438951501144  0.8880644817551939
  0.0083784734411054  0.1979494461893765  0.9840235200923786
  0.9998086775981534  0.3040580937644322  0.0860678046189349
  0.0041090960739041  0.4089960138568145  0.1917386452655876
  0.9966994290993085  0.5001874854503470  0.3054003625866031
  0.9997956785219415  0.5927457625866026  0.4072492688221701
  0.0041829099307193  0.6901067889145480  0.5078784854503482
  0.9852079810623522  0.8003596572748251  0.5979776009237909
  0.0064151852193959  0.9015876868360309  0.7016928632794475
  0.9758967251732074  0.0082809473441117  0.8107108189376433
  0.2096041667436523  0.1984695006928376  0.0054468969976895
  0.1783973330254014  0.3134300859122376  0.1031396023094686
  0.1947277852193992  0.4021219168591230  0.1766224812933004
  0.2132966632794435  0.4882093487297894  0.3012478905311795
  0.2010904789838364  0.5893664055427266  0.4196777256351041
  0.1927863233256346  0.7072817602771337  0.5034119371824488
  0.1978128946882194  0.7993541177829115  0.5996838683602803
  0.2029658651270196  0.8944825196304862  0.6772702563510364
  0.2013076706697490  0.9864071270207830  0.7980539787528897
  0.2103551644341835  0.0863160748267902  0.8990425127020814
  0.2940453713625857  0.2076592498845287  0.0922666503464171
  0.3005958221708980  0.3042509076212454  0.1859158341801361
  0.3039481575057721  0.3842029598152408  0.2886554397228664
  0.3007086147806035  0.4811773385681306  0.4219655348729816
  0.3035646175519631  0.6184180540415696  0.5048170965357954
  0.2987770503464233  0.7124179496535774  0.6068443191685944
  0.2992840558891459  0.8051188826789826  0.7054194207852191
  0.2971702618937613  0.8977808143187076  0.7988773085450376
  0.2962268448036980  0.9788145533487267  0.8957236157043909
  0.2868221635103936  0.0838824087759846  0.0073009427251733
  0.4020834526558872  0.1904052886835998  0.2081024327944547
  0.4135924180138559  0.2814498457274794  0.2899653090069307
  0.3860709935334867  0.3856467224018445  0.3790454166281734
  0.3994486674364879  0.4905280946882229  0.5016629279445723
  0.4145653796766737  0.6019973196304846  0.6091955681293300
  0.3969818946882242  0.7022447224018507  0.7033040254041580
  0.3978214013856842  0.8173225607390293  0.7953900665127023
  0.4016163551963032  0.9181852785219391  0.9037641833718268
  0.3919502591224031  0.0046211053117773  0.0207063787528838
  0.3998433648960713  0.1168679505773653  0.1003839057736755
  0.5098690277136271  0.1841944775981545  0.3010942023094714
  0.4977441177829078  0.2868096314087794  0.3873484942263303
  0.4824332812933037  0.4019672706697435  0.4834398369515043
  0.5043679297921457  0.5008955025404163  0.5910467284064680
  0.4989792785219365  0.6043192147806025  0.7081811635103961
  0.4914427302540432  0.7114452475750568  0.7921565792147831
  0.4859835690531185  0.8113681769053116  0.8999164743648933
  0.5050118420323315  0.8942897251732091  0.0058639131639708
  0.4913280845265575  0.0054539792147779  0.1063414221708996
  0.5090662697459578  0.0959830355658227  0.2014002591224013
  0.6203414286374169  0.1974681995381076  0.4045140725173226
  0.5957572115473440  0.2893372854503440  0.4846754766743615
  0.5986167875288686  0.3962486272517296  0.6012463949191655
  0.5927874429561228  0.5089223685912216  0.7040715889145517
  0.5967900609699797  0.6170940919168615  0.7970301011547321
  0.5909757759815264  0.7050657302540415  0.9017143062355686
  0.5832957681293323  0.7957803787528874  0.9951490429561218
  0.6076476789838310  0.8954092882217068  0.1156691690531204
  0.6028175113163954  0.9862618387990736  0.2025019090069264
  0.6153948563510383  0.1011655344110878  0.2967888558891474
  0.7115607856812929  0.1951023866050789  0.4891895293302539
  0.7095032794457268  0.2939140161662834  0.5816372143187039
  0.6851622526558856  0.3985063127020751  0.7004684618937631
  0.6735011621247082  0.5025071205542702  0.8018793168591216
  0.6881471769053107  0.5993208309468798  0.8875331422632797
  0.6973313505773646  0.7066904993071574  0.0059983284064700
  0.6871791390300217  0.8056136392609687  0.0896150739030048
  0.7135714267898408  0.8902762457274846  0.2004428877598130
  0.7130548683602740  0.9849263995381037  0.2954750702078499
  0.7158389367205515  0.0933399297921511  0.3913311612009238
  0.8087891930715969  0.1986415976905320  0.5913752743648928
  0.7718938937644353  0.2931585672055448  0.7028903237875284
  0.7850977972286373  0.3932542789838323  0.7992853348729767
  0.7829597090069313  0.4895927912240197  0.8770071912240169
  0.7946521247113196  0.6004377418013860  0.9835282558891478
  0.8077860752886821  0.6899627819861465  0.1009060013856811
  0.8079218434180149  0.7902229903002294  0.2056618817551978
  0.8081419196304864  0.8955036877598133  0.3013818138568141
  0.8104280230946870  0.0016839819861403  0.3940143177829114
  0.8098960752886839  0.0966222711316362  0.4997752775981539
  0.8880887117782876  0.2103456665127013  0.7038826840646664
  0.8969474318706716  0.3003454877598131  0.8093722290993099
  0.8965618766743617  0.3923721542725147  0.8988683953810650
  0.8909159459584330  0.5094726360277164  0.9746716207852160
  0.9040658919168578  0.6012868078521905  0.0967484877598181
  0.9045677898383389  0.6951113487297889  0.1945786198614314
  0.9218596868360294  0.7982004715935318  0.3144697926096995
  0.9019456909930739  0.9019486263279433  0.4124605454965362
  0.9013885607390293  0.0056649117782896  0.4916602521939950
  0.9088015926096986  0.1012824383371793  0.6135075418013827
  0.9986844568129314  0.2010066064665139  0.7906894771362616
  0.9961412725173204  0.2922140397228645  0.9166921496535778
  0.9975221889145516  0.4053384166281759  0.9874612942263283
  0.9972426498845266  0.5116810170900692  0.1066390983833685
  0.0089708785219429  0.5982761367205569  0.2005556046189412
  0.0051914184757536  0.6925220415704416  0.3153248133949162
  0.9916627339491910  0.8107010919168616  0.4261538868360262
  0.9908647958429526  0.9106323847575055  0.5112669154734419
  0.0070043644341808  0.9911189727482679  0.6151730249422656
  0.0064475441108556  0.1100033949191683  0.7013906586605074
  0.1212911173210145  0.1982931191685893  0.9160734267898363
  0.1110103764434172  0.3091701413394929  0.0000168933025435
  0.0964996683602806  0.4127927884526557  0.0940437219399541
  0.0913276374133929  0.4888466346420302  0.2159270249422605
  0.1145904461893750  0.6026486540415732  0.3255037450346450
  0.0893821759815268  0.6993052360277119  0.4161024669745927
  0.0939208217090055  0.8037746568129336  0.4988531607390314
  0.0919266341801404  0.9002365413394955  0.6040742041570439
  0.1056269090069293  0.0032745949191693  0.7097911709006937
  0.0978231330254076  0.0840618383371847  0.7889853607390336
  0.3136813524249433  0.3053826540415727  0.9951861353348761
  0.3159687547344134  0.4142902785219391  0.0833056009237865
  0.3281312836027723  0.4811438120092362  0.2052619454965381
  0.2924351801385683  0.5691603302540429  0.3159067819861434
  0.2906222748267879  0.6974939431870695  0.3997345907621224
  0.2929571639722894  0.8014395916859129  0.5010825699769086
  0.3007991394919145  0.9095950124711294  0.5914925103926123
  0.3077363630484982  0.0134928535796774  0.7050678170900682
  0.3108431824480391  0.0918106175519640  0.8020305547344080
  0.2973436337182420  0.1949429898383386  0.8972226235565799
  0.3988324129330252  0.2799171551963013  0.1142923053117784
  0.4062731297921474  0.3876260101616609  0.1939084702078517
  0.3943751533487330  0.5048798193995410  0.3046739094688249
  0.4047518678983835  0.6001082609699750  0.4058301113163978
  0.3997907025404146  0.7024243999999982  0.5060504725173232
  0.3989811727482646  0.8022724429561237  0.6037149644341824
  0.4047129644341823  0.9162208531177853  0.6904533131639710
  0.4064280618937630  0.9946664812933008  0.7903570780600475
  0.4094147986143213  0.0948813926097003  0.9130792512702044
  0.3924204309468848  0.1961529861431899  0.9985791136258655
  0.5251996096997686  0.2897426096997719  0.2020378254041546
  0.5065192323325647  0.3962610281755161  0.2944869376443435
  0.4863384461893787  0.4868027999999995  0.3900185639722835
  0.4924696937644342  0.5935333284064654  0.4937328087759809
  0.5061118549653614  0.6873682757505790  0.5903351676674333
  0.4930084623556610  0.8015023889145496  0.6846571745958414
  0.5053072739030000  0.8951504637413379  0.8002735445727467
  0.5103280697459596  0.9941910614318701  0.9068543080831404
  0.5074024660508059  0.1032537182448010  0.9986250263279430
  0.5090784217090061  0.1932523076212505  0.0936669030023083
  0.6163113108545062  0.2883059237875258  0.3078186078521910
  0.6049846115473443  0.3935760891454976  0.3898142267898379
  0.5876457487297913  0.4689545889145492  0.4932083210161693
  0.5873250096997680  0.5868602614318732  0.5925511482679013
  0.5993211108545040  0.6983574272517288  0.6967017270207876
  0.5914135288683582  0.7877366013856815  0.8048155986143186
  0.6204193016166286  0.8973373672055445  0.8911500831408787
  0.6014763210161647  0.9953658581986176  0.0075210484988446
  0.6046949538106219  0.1020741732101627  0.1048034993071596
  0.6171605528868369  0.1981687815242523  0.1938966799076240
  0.7014797053117761  0.2891869667436495  0.4053587117782911
  0.7144405159353369  0.3941905782909956  0.4767270692840668
  0.6894694161662827  0.4809439367205570  0.5929824951501175
  0.6850324101616607  0.6039221819861424  0.6915491801385656
  0.7111582549653548  0.6975633704388002  0.8003785344110881
  0.7071607879907589  0.7951375648960735  0.9083581145496566
  0.7077169150115452  0.9039596401847589  0.9978681487297933
  0.6997784609699735  0.9952762480369515  0.1132012133949161
  0.7163741431870676  0.0896626318706666  0.1932463528868382
  0.7135214817551940  0.2003627080831407  0.2719963251732125
  0.8106643972286349  0.2970103524249410  0.4883681108545019
  0.7919128669745987  0.3816111200923800  0.6083749219399550
  0.7859313718244820  0.4818041307159362  0.7002733464203246
  0.7959095565819894  0.6007450133949206  0.7797617187066948
  0.7950115450346402  0.6935613866050829  0.8891786618937658
  0.8112618725173206  0.8028234484988488  0.0036040521939924
  0.8058031325635113  0.9004408087759828  0.1091885011547333
  0.8223587870669746  0.9869209713625864  0.1883172933025392
  0.8117793205542725  0.0877989648960735  0.2823718244803715
  0.8074318822170881  0.2054753048498839  0.3963132951501152
  0.8949037445727512  0.3018252803695134  0.6150284170900662
  0.9069375150115491  0.3939026397228602  0.7027078318706685
  0.8881579565819848  0.4958288974595817  0.7944962997690510
  0.8871158688221712  0.6046993847575024  0.8784878702078487
  0.9000698771362607  0.7001825519630458  0.9904550073903025
  0.9068401769053125  0.7887797390300264  0.1062983390300261
  0.9159543016166296  0.8813025727482682  0.1817196457274832
  0.9107888106235578  0.9840664891454978  0.2885352027713637
  0.8954009016166253  0.1040324581986170  0.3823079792147794
  0.9027911145496503  0.2157913066974615  0.5043485251732136
  0.0143605090069272  0.3040097418013872  0.6961380263279437
  0.9961094170900680  0.4039105533487302  0.8081575265588938
  0.9994152766743625  0.5043084461893770  0.8973437330254015
  0.0059599334872971  0.5926841237875280  0.9954999376443396
  0.0193083117782891  0.6921430060046205  0.0972899344110871
  0.0054811782909923  0.7848017967667431  0.1993258055427276
  0.9878081330254034  0.8977070923787522  0.2886677838337164
  0.0058811547344106  0.0051249501154729  0.3968849348729790
  0.9975112064665126  0.1037649986143165  0.5074108849884524
  0.0035824572748240  0.2064966484988418  0.6140122129330265
  0.0996105214780627  0.2847124115473463  0.8075551939953840
  0.1212101302540418  0.3922567251732119  0.8985974152424916
  0.0897840346420296  0.5065438448036943  0.9750650461893784
  0.1184342521939925  0.6003872073902983  0.0982244545034661
  0.1133351048498810  0.6957598263279436  0.2138712055427234
  0.0961537233256351  0.7975909071593534  0.3121244406466488
  0.0905852309468855  0.8939896678983814  0.4008838877598180
  0.0900740235565820  0.0089102674364909  0.4954793736720546
  0.1003984595842979  0.1151539819861398  0.6218897796766711
  0.0991008000000022  0.1971082577367227  0.7056906637413363
  0.2150180332563494  0.3125145113163939  0.9071468614318690
  0.2082810549653615  0.3933527076212471  0.0018645385681282
  0.1873301958429536  0.5056821750577356  0.0994251833718209
  0.2028548411085467  0.5847877695150103  0.2151574023094653
  0.2119312083140912  0.6966494078521919  0.3257422720554288
  0.1875897903002297  0.8060331173210145  0.4042550586605103
  0.1876020138568109  0.9003589427251768  0.5055662748267906
  0.1975098184757513  0.0113364498845243  0.5961976729792156
  0.2137249066974576  0.1019625302540419  0.7046934009237873
  0.1926188106235571  0.1966245796766728  0.8074516692840632
  0.4085042568129325  0.4071480531177798  0.9916621963048513
  0.4098335357967642  0.5082218032332548  0.1044987219399545
  0.3962299173210155  0.6096334332563487  0.2120658558891435
  0.3962775025404142  0.7013542614318737  0.3028888032332588
  0.4099772013856793  0.8081619501154762  0.4011458748267884
  0.3926100189376456  0.9084101418013830  0.5030795967667459
  0.4072452240184745  0.0098885699769085  0.6120284678983836
  0.3971678337182425  0.1014248494226351  0.7187076554272522
  0.4002512512702054  0.1992156203233222  0.8026514877598174
  0.4049118683602799  0.2921873644341773  0.9007861279445706
  0.4922350974595844  0.4000782207852183  0.1071801953810620
  0.5005746226327972  0.5110662258660525  0.2088283436489604
  0.4970382272517355  0.6047023963048517  0.3040246919168581
  0.4945532087759830  0.7040136692840662  0.4069767034642027
  0.5015656683602785  0.8036337325635117  0.5002969191685906
  0.5056018226327978  0.9055001413394947  0.5933113565819852
  0.5011596595842960  0.9992679505773694  0.7050131200923815
  0.5006025057736707  0.1049096101616627  0.8034579551963077
  0.4975406734411081  0.1912151066974630  0.9207126267898360
  0.4858268725173218  0.3148490106235542  0.9914117344110878
  0.5998222937644329  0.4061492725173181  0.2095531404157072
  0.5956507408775948  0.5153501039260959  0.2992056868360251
  0.5843950217090068  0.5919806937644339  0.4250791113163999
  0.5992143935334866  0.6947958434180137  0.4918008919168599
  0.5941763898383385  0.8055087584295606  0.5983541482679016
  0.5905915353348732  0.9020612424942271  0.7064697944572771
  0.5882883829099299  0.0121307709006899  0.8001679487297935
  0.6004440397228663  0.1093317205542732  0.9140869085450376
  0.6052553990762135  0.2053522120092381  0.0025360711316367
  0.5930101247113129  0.3102333903002332  0.0954701616628171
  0.7088438124711303  0.3952038434180167  0.3036706836027747
  0.7051923330254013  0.5022903903002316  0.3904861926096999
  0.6905273228637441  0.5917303953810631  0.5118134277136264
  0.6783712438799085  0.7051791787528856  0.5918821113163943
  0.6929519140877574  0.7935866882217084  0.6952741441108543
  0.6779301251732122  0.8898530203233221  0.7909624891454996
  0.7161832729792152  0.9986865454965326  0.9042045048498863
  0.6912760521939987  0.0866530669745984  0.0091638632794471
  0.7082848618937660  0.1917814642032312  0.1038335681293319
  0.7051898711316369  0.2997673491916828  0.1995401662817571
  0.7992113953810644  0.4133221866050789  0.3915376969976876
  0.7988872475750597  0.5099606799076213  0.5028339833718221
  0.7918377515011557  0.5986964198614331  0.6115429150115474
  0.8028045593533477  0.6975028004618906  0.6798533224018470
  0.7950247824480385  0.7946310826789826  0.7771461907621244
  0.8029628503464181  0.8948427561200916  0.8966290678983810
  0.7946497473441099  0.9909627584295606  0.0138512189376456
  0.8119788623556587  0.0810856378752902  0.0887801473441101
  0.8252262909930721  0.2003264642032363  0.1738512979214804
  0.8032357524249392  0.3051451662817541  0.2919558212471145
  0.8929599284064693  0.3849961764434155  0.4989408092378724
  0.8945931256351045  0.4961755607390330  0.6000479676674360
  0.8992195935334877  0.5778767279445702  0.7013985838337149
  0.9066985903002305  0.7076610771362581  0.7842522170900708
  0.8967925454965382  0.7915094406466494  0.8902068212471121
  0.9084963034642044  0.8946528073903011  0.9991362133949195
  0.9157074517321036  0.9841868050808316  0.0938287588914548
  0.9132552392609696  0.0976793519630519  0.1994430060046213
  0.9009968817551979  0.2091576175519663  0.3039786609699746
  0.9019807718244834  0.3154271528868335  0.3915647214780620
  0.0018555441108532  0.4011254748267916  0.5877824623556549
  0.9984528064665099  0.4835879912240202  0.7048519039260981
  0.0058679741339489  0.6020034688221685  0.7890897501154726
  0.9883367944572754  0.7017379431870694  0.8945679496535774
  0.9989895718244810  0.7963679256351028  0.9968601076212451
  0.0149138189376430  0.8956161842956121  0.1056452318706675
  0.0104015260969987  0.9993114877598117  0.1916222993071628
  0.0115744692840636  0.1066913108545009  0.3091926665127005
  0.9997776651270200  0.1989264258660484  0.3982879357967661
  0.0175211953810646  0.3083298226327926  0.4939734794457280
  0.0955668928406439  0.3854346041570409  0.7192893833718230
  0.1109140230946863  0.4835835071593522  0.7910009284064685
  0.1063181316397248  0.6136041242494201  0.8821335242494257
  0.0974899422632802  0.7038801718244798  0.9947911676674366
  0.1111125053117803  0.7910297362586576  0.1015225150115455
  0.0986637976905342  0.8909295616628157  0.2025458027713611
  0.0874138674364886  0.9880156734411116  0.2912865163972285
  0.1142681528868366  0.1014345030023094  0.3947137884526555
  0.1079397722863717  0.1972296323325651  0.5038737769053085
  0.1095476780600464  0.2823707884526527  0.5989712540415724
  0.2115988217090035  0.3922520069284090  0.7898991819861436
  0.2054482397228625  0.5016585736720529  0.8826061995381096
  0.2079107542725183  0.6128725621247142  0.9953772484988477
  0.2081849404157055  0.7023358300230953  0.1100681256351024
  0.2051303538106239  0.7945497815242462  0.2125016318706727
  0.1928946420323356  0.8907345741339512  0.2986565838337185
  0.2094569441108547  0.9836502254041548  0.3920316651270213