Li 
 1.0000000000000000
    21.6499999999999986    0.0000000000000006    0.0000000000000000
     0.0000000000000006   21.6499999999999986    0.0000000000000000
    -0.0000000000000006   -0.0000000000000006   21.6499999999999986
 Li 
 500
Cartesian
  0.4186349800000000 -0.1942400400000000 -0.2923061600000000
  0.1358004200000000  2.1184883499999998  1.8242065400000000
 -0.2106214500000000  4.4187920800000002  4.2851678800000004
  0.0217172300000000  6.8711465399999998  6.4663398200000000
  0.2407807200000000  9.0630907700000005  8.4482100199999994
  0.1902699800000000 10.5742211800000003 10.8264327199999997
 -0.0867286600000000 12.7321949900000000 13.2339450500000009
  0.1374212100000000 15.3321383600000001 15.3113533499999992
 -0.0288542300000000 17.1539217300000004 17.2341751700000003
 -0.0536431100000000 19.2800071600000003 19.0702866499999999
  2.2094533900000002 -0.2467227900000000  2.2632177400000000
  1.9575115599999999  2.4908467900000000  4.4076620699999998
  2.2126688400000001  4.8265110599999996  6.3361257100000001
  2.3707563000000000  6.7559387900000001  8.6530166600000005
  2.7314057500000000  8.6386473000000006 11.0820544800000000
  2.4664521499999998 10.6670263199999997 13.1545460199999997
  2.4572200199999998 13.0058363000000003 15.2669709499999993
  1.9205747399999999 15.3263226400000008 17.3896397200000017
  1.9656178799999999 17.3126798000000015 19.3729787299999998
  2.0954233900000001 19.5436716600000011 21.5881537600000009
  3.9370594500000000  0.0706860700000000  4.3388483300000003
  4.1696164800000002  2.3518890699999999  6.5876869999999998
  4.0136770100000003  4.6811603599999998  8.8774517199999998
  4.4077292500000000  6.7018691600000002 11.1206062499999998
  4.5264125200000001  8.2485451300000001 13.5055312700000005
  4.3907620600000001 10.7179324499999993 14.8729899299999992
  4.3486871000000002 13.1996896199999991 17.1004972899999999
  4.7224336100000004 15.4087316600000008 19.2939391299999983
  4.2830085000000002 17.2730696500000001 -0.2119080800000000
  4.1823995800000002 19.2566951000000017  2.1242686599999998
  6.5717523299999998  0.0073713100000000  6.4526543900000002
  6.2169898899999998  2.5379153799999998  8.5279795499999995
  6.3342106400000002  4.0973297300000002 10.9655742800000002
  6.7857599500000001  6.4075203199999997 13.1969804499999999
  6.7850469899999997  8.6379287399999996 15.1329867199999999
  6.7207942599999999 10.7009721199999994 17.0072097699999993
  6.6793513100000004 12.8758899000000007 19.3777631799999988
  6.6975522800000000 15.3335562999999997  0.1252932000000000
  6.2381823100000000 17.3034923899999988  2.2567434799999999
  6.4108583299999999 19.6400703900000018  4.2924404599999999
  8.5021291500000000  0.1106150800000000  8.8333435300000005
  8.6812195699999997  2.2754036000000002 11.0476669100000002
  8.6715239600000000  4.4812532599999999 13.1743570900000009
  8.9907684600000000  6.7377715000000000 15.4424993900000000
  8.8863173000000000  8.4184912199999999 17.5280581399999988
  8.4734600699999998 11.1195422100000005 19.4875388899999997
  8.3857738600000005 13.1022812799999997  0.1423745900000000
  8.1209691900000003 15.3091009699999994  2.4910946300000001
  8.0085600400000008 17.3380874200000008  4.6255508100000000
  8.3826136200000008 19.9599139900000004  6.6287037800000004
 10.8027809599999998  0.1788396500000000 10.4046789999999998
 10.9706718799999994  1.6820233200000001 13.0037316500000006
 10.8470071099999998  4.2606110399999997 15.1641713599999992
 11.0491768500000003  6.3201161099999998 17.6639783600000015
 10.9126086999999998  8.8921575100000005 19.3173145599999998
 10.5633730499999992 10.8551801900000005  0.2221970800000000
 10.9151224700000000 13.3177551899999997  2.2965125099999999
 10.4378797599999995 15.5444961599999996  4.4736029100000003
 10.6679591800000004 17.5468499599999994  6.7891772300000000
 10.7550766400000004 19.8523592499999992  8.6198264800000004
 12.8836826400000000 -0.1070045800000000 12.8403574099999993
 13.0299904400000006  2.2422924900000001 15.2038185699999993
 12.8323622499999992  4.3387215399999999 17.3604659199999993
 12.4440685099999993  6.5175970899999998 19.7406866600000015
 13.0340687600000003  8.8528991799999996  0.3640300400000000
 12.8194889700000001 11.1798813999999993  2.3239978099999998
 12.9031087000000007 13.8428480100000009  4.1409877699999997
 12.7816804099999999 15.3736131300000007  6.8675538400000002
 13.1609320699999994 17.2843412600000015  8.8341292300000003
 12.7903204200000005 19.8787634799999999 10.7091964599999994
 15.0714465700000009  0.2077489600000000 15.1948717500000008
 14.9204248199999991  2.0376073799999999 17.5563360999999993
 15.3047629300000008  4.5013174100000004 19.6622690099999993
 15.1652519899999998  6.7729660000000003  0.0742213600000000
 15.0133518499999994  8.9341552699999998  2.2182743600000001
 14.9867346399999999 11.0278294999999993  4.3362475299999996
 14.6305240199999993 13.6320177099999995  6.4679917600000003
 14.9671798400000000 15.1958163099999997  8.6755340000000007
 15.0584700999999992 17.5172400800000005 10.7344531399999994
 15.1079561699999996 19.7165694900000013 12.6779581300000004
 17.1300540000000012 -0.3930072800000000 17.3368030100000006
 17.5903237300000015  1.8963525600000000 19.5108493400000000
 17.4473059200000016  4.2520416200000000  0.2210697300000000
 17.0553812600000008  6.7952942299999997  1.9613818300000001
 17.5123741700000011  8.8683414000000003  4.1607032500000001
 17.2292234899999990 11.5643404499999995  6.4524988399999996
 17.3722663900000001 13.2005951199999991  8.6780223799999998
 16.9739195400000007 14.9590479700000003 10.6061058199999998
 17.3829351099999982 16.9698224800000013 12.8571720500000009
 16.9258804699999992 19.3487391799999990 15.0268148799999999
 19.2694519699999987 -0.1504587700000000 19.5942807399999985
 19.6870350700000003  1.9248676199999999 21.6246499599999993
 19.7856356200000008  4.3950469600000002  1.9467528199999999
 19.5666161900000013  6.8207100100000000  4.0023141799999999
 19.3084562599999998  8.7162585799999999  6.1361406599999997
 19.4386359700000000 10.9132228500000004  8.6673276300000008
 19.3763791500000018 12.9830904900000004 10.9593506400000003
 19.4947688100000001 14.8199495199999998 12.9799012800000000
 19.4808996900000011 17.3137315899999997 14.7434469799999999
 19.4393083299999994 19.0129458199999988 16.9046179899999984
  2.3697222600000001  1.7713479500000000 -0.3243026900000000
  2.1643501800000000  4.5070636100000003  1.7939450299999999
  1.8921095400000001  6.5678428300000000  4.2184634399999998
  2.3601470000000000  8.8874708699999996  6.4775607400000004
  2.3659015900000000 10.5747099700000007  8.8134932300000006
  2.3451123200000001 12.6690183199999993 11.0146266199999996
  2.2168810400000001 15.3842810500000002 13.0603715900000008
  2.0348291100000000 17.4494693199999986 14.8028166199999998
  1.9202437999999999 19.7075469100000014 17.1578660300000010
  2.2689027099999999 21.4653584600000009 19.2757275499999992
  3.9924719099999999  1.9720608600000000  2.0806992000000002
  4.1218551899999998  4.2084347900000001  4.1633512200000000
  4.1814125400000002  6.4655222300000004  6.3438890499999996
  4.8152792099999999  8.7506336000000005  8.6085698799999992
  4.4577292100000001 10.6486031299999997 11.0420769900000000
  4.6131358200000001 13.2601829400000000 12.9241119199999996
  4.1127165000000003 15.1844563299999997 15.3486065600000003
  4.3317863499999998 17.4242191599999998 17.2930984899999984
  4.3516244799999999 19.2424623799999992 19.2637706000000009
  3.8572985000000002 21.4050907399999986 21.6999462200000011
  6.2483144599999996  2.2482653300000002  4.2341046999999996
  6.2443990300000003  4.2601247799999999  6.4928430199999996
  6.2547442400000000  6.2631903099999997  8.5753821499999994
  6.5730692700000004  8.2904765299999994 11.0709138500000002
  6.7506255199999998 10.7758456099999993 12.9837786600000005
  6.5323392800000004 12.9134713500000000 15.1880767900000002
  6.5786677400000002 15.3076989599999997 17.1782481599999990
  6.5784963500000000 17.4650654000000003 19.4417250300000006
  6.1435863700000004 19.5264690600000002  0.1344925400000000
  6.2701438999999999 21.6126288100000004  2.4130335399999998
  8.7117276199999996  2.3073844000000001  6.5437816399999997
  8.7130988200000008  4.4136994899999999  8.6187613800000005
  8.5791773899999999  6.3951799999999999 11.0086531200000000
  8.8926811800000003  8.3783892800000004 13.1853526599999995
  8.8977669200000005 10.8364571699999992 15.2911234100000009
  8.8027093999999995 13.1349315699999991 17.6781336399999986
  8.4473939300000005 15.2339209899999997 19.6447766500000007
  8.4926261200000006 17.4973136599999997  0.1264663500000000
  8.6802674199999998 19.8581759600000005  2.2870859100000001
  8.5275219300000007 21.9918101200000002  4.4260784400000004
 10.7856545599999993  2.3501433899999999  8.6106979100000007
 10.5014089899999998  4.2481389199999997 10.6768947599999997
 10.8391418799999997  6.3448508600000002 12.7469187500000007
 10.9920725099999999  8.4694034200000008 14.8181947600000008
 10.9720053800000006 11.1150206100000002 17.6241107300000017
 10.6749786800000006 13.0849846000000003 19.6588953000000011
 10.4840155199999998 15.3092225299999996  0.0838805900000000
 10.6342123199999996 17.5969923299999991  2.5705021399999999
 10.7332549600000000 19.5263669700000015  4.6096936499999996
 11.1347037800000006 21.8211277300000006  6.8882382900000003
 12.6038531500000008  2.2334351500000000 10.3666439599999993
 13.1416304099999994  4.1553100000000001 12.7057355899999997
 12.9140001800000004  6.3472138600000001 15.1166029399999999
 12.8716089500000006  8.7653375699999998 17.5089841399999990
 12.8223388400000005 11.0728298200000008 19.8720302199999992
 12.9520257700000005 13.3625274899999997 -0.0568625800000000
 12.8583985799999994 15.5760576799999999  2.0396385800000001
 12.7777350500000004 17.3855417099999983  4.4415971200000000
 13.0225903299999999 19.2568933700000002  6.4730222399999997
 13.1671214499999998 21.8042112999999986  8.7652353000000005
 15.1318995100000002  1.7893075500000000 12.5142968700000008
 15.3677799999999998  4.1451380699999998 15.0239060000000002
 14.5712160700000002  6.5488087000000004 17.6147744899999985
 15.0154511300000006  8.5398427600000009 19.4881486799999983
 15.2071661500000008 10.7104791000000006 -0.1931581000000000
 15.3489004399999995 12.9869618700000000  2.1753520700000002
 14.7998757699999999 15.4469116500000005  4.1164334699999996
 14.9470608899999995 17.4437561800000012  6.7266012999999996
 15.2812483300000004 19.4896409099999985  8.7509275500000001
 15.0917533200000005 21.9059880400000004 10.5252114100000007
 16.9480042500000003  2.1009581900000001 15.0789411500000003
 16.9551904100000002  4.2174586200000004 17.1273477000000014
 17.1906382499999992  6.4931221600000004 19.5239197500000010
 17.5145438700000007  9.0217591699999993  0.2123081600000000
 17.4726933799999991 10.8770720300000008  2.0748027100000002
 17.2054507500000007 13.2076989600000001  4.5676660299999998
 17.3274477000000005 15.3867559400000005  6.5080263800000004
 17.1100048999999999 17.1376649699999994  8.5938274799999999
 17.2503892599999986 19.7244999199999995 10.7350161499999999
 17.4002021300000003 21.4169589500000015 12.9662333699999994
 19.2088781100000006  2.1058165600000001 17.0314015499999982
 19.4889511700000000  4.1555615399999999 19.3645071199999990
 19.6359133800000016  6.5253575899999996  0.1975463800000000
 19.6836809499999994  9.0216267499999994  2.0729989700000000
 19.5092925800000003 11.2303754300000005  4.3421386699999998
 19.4746942599999997 13.1428643399999991  6.4337777599999999
 19.5054155899999984 15.3022863999999998  8.5610249599999992
 19.1780060299999988 16.9729931100000009 10.8080903300000006
 19.4984021399999996 19.3035008400000017 12.9087470399999997
 19.4646485100000000 21.4085955000000006 15.1793057400000002
 21.6602106399999990  1.9429553300000000 19.2265960299999996
 21.8313939499999989  4.2856055099999999 21.3041092100000000
 21.6458578700000004  6.5828577299999997  1.8633679700000001
 21.7389619299999985  8.8547636999999995  4.1511416700000003
 21.5785426399999984 10.8290590600000005  6.6119178500000002
 21.6455764399999993 12.8329457599999994  8.8169466700000001
 21.7405599999999986 14.9408119799999994 10.9955692099999993
 21.3297527900000006 17.3277865800000015 12.9462150600000001
 21.7888887599999990 19.5193734200000009 15.1916504900000007
 21.1281640999999993 21.8292825099999988 17.5518892300000005
  4.5379302099999999  4.2968646899999996  0.1179253200000000
  3.8623022599999999  6.7857613600000004  2.2329723900000000
  4.2158565499999998  8.7059394999999995  3.8238767199999999
  4.6178727600000000 10.5697323999999995  6.5220168300000001
  4.3536088700000004 12.7597826800000007  9.0860227600000005
  4.1738239000000004 15.3126501099999999 10.8988684399999993
  4.2826491700000000 17.3060166500000001 12.9831557499999999
  4.3942109800000004 19.3655465500000012 14.6629010500000003
  4.3583110700000001 -0.2942857000000000 17.2778686400000012
  4.5541893099999999  1.8687430199999999 19.4642704000000002
  6.3660822899999996  4.4958227600000003  1.9975729799999999
  6.5078995500000003  6.5870321499999998  4.0250778100000000
  6.5804776100000000  8.3179940800000001  6.2493902700000001
  6.5103415099999999 10.4174893799999992  9.1355538299999992
  6.5721739699999997 13.3887508700000009 10.9292901400000009
  6.4685231400000003 15.4238486100000003 13.1381795100000005
  6.4794998100000001 17.4308238099999997 15.2723304599999992
  6.4337361700000004 19.4369546299999989 17.2956937300000000
  6.4133111899999999 -0.4586649200000000 19.3924162799999991
  6.2096998399999999  1.8160541500000000 21.8080654100000011
  8.7051067500000006  4.1222744999999996  4.5054176699999999
  8.9542758500000001  6.0933891600000001  6.2777489400000004
  8.3584370099999994  8.3492515399999991  8.2063332700000000
  8.6480636499999992 10.6199332500000008 10.8610023899999995
  8.9753404700000008 13.0332419700000006 13.1890840499999999
  8.5946580200000007 15.2035982399999998 15.2265321500000006
  8.6128333399999999 17.6950334399999996 17.2201949399999990
  8.6949940899999998 19.8787112800000010 19.5664945699999997
  8.4857231100000003  0.1000469300000000  0.4482931000000000
  8.6566088499999996  2.5301911300000000  2.1733115600000001
 11.0386644500000006  3.9878104400000001  6.5186894799999999
 10.7761601500000008  6.2094285200000003  8.3860948999999998
 10.4446805400000002  8.7025914100000001 10.4664724699999994
 10.9195656799999998 10.8443876299999999 12.7961616700000000
 10.8029013799999998 13.0835109999999997 15.3321221899999998
 10.6397351100000002 15.4027896099999992 17.1501899400000006
 10.5215442699999997 17.5661210300000015 19.4831916700000001
 10.9335063800000007 19.3613725499999987  0.1269537200000000
 10.6372530300000001  0.1180786500000000  2.3022917899999999
 11.0212847400000005  2.0780327199999999  4.3603156099999998
 13.4303919300000008  4.2751865200000001  8.7577296699999998
 12.8981436299999999  6.2641522299999997 10.4932240700000001
 12.9600534500000002  8.5787827799999992 13.0169844500000007
 12.8338481400000006 11.0181692800000004 15.2431499000000006
 12.9205048199999997 13.3600870900000004 17.2557016899999986
 12.7946255499999992 15.2646730599999998 19.5221147299999984
 12.6283533800000001 17.2286451999999990 -0.1050232200000000
 13.1555722500000005 19.3856110900000012  2.5042375099999998
 13.0509991200000002 -0.2974311900000000  4.3841663300000002
 13.3232986400000009  2.1902338200000000  6.4254787300000000
 15.4052910099999991  4.2239666700000003 10.5909533099999997
 15.3607460000000007  6.3632384499999999 12.5924456899999999
 14.8337627699999999  8.6276616700000002 15.1651422000000000
 14.5813001599999996 10.8792791599999994 17.3606872099999983
 14.8983863799999998 12.9752959899999993 19.2150925299999997
 15.0972237400000004 15.2998493100000008  0.1298638100000000
 14.8774283599999997 17.4415352900000009  1.9401663499999999
 15.4488213900000009 19.2744807199999997  4.3395885200000004
 15.4376379000000004 -0.3263434500000000  6.3970352699999999
 15.4979129800000006  2.0208094800000000  8.4723196400000003
 17.5102860299999996  4.3005905899999997 12.8032746900000003
 16.7115028000000017  6.3468829800000002 15.2175755099999996
 16.9973673100000013  8.5139551400000002 17.3045274999999990
 16.9510776999999990 10.5996839299999994 18.9872056899999997
 17.2042184999999996 12.9994771100000008 -0.3566132600000000
 17.4885685299999984 14.9376942300000000  2.1846149300000000
 17.4915079099999993 17.1083277400000000  4.4525797400000000
 17.4962725600000013 19.3876548399999997  6.5249162700000003
 17.5457667000000015  0.0364582100000000  8.5304099799999999
 17.5342500299999990  2.0918721699999998 10.8201347600000002
 19.2271206100000001  4.5539836800000000 15.2390601100000005
 19.4189119000000012  6.5024798099999996 17.5229087600000000
 19.4105646299999997  8.4948571400000006 19.4605007599999986
 19.2883302299999997 11.0300825699999994 -0.5483594100000000
 19.5730265599999989 13.0178593899999999  2.0946047600000002
 19.5838926499999992 15.0491606999999998  4.2126271199999996
 19.9582622200000017 17.2810402100000005  6.8082710100000003
 19.5271242100000002 19.5271877600000003  8.9297708100000008
 19.5150623400000001  0.1226453400000000 10.6444444600000008
 19.6755544799999988  2.1927647900000000 13.2824382799999992
 -0.0284815100000000  4.3517930299999996 17.1184271800000012
 -0.0835414500000000  6.3264339600000001 19.8463850400000013
 -0.0536446100000000  8.7755767200000001 -0.2714629800000000
 -0.0596966300000000 11.0778940200000005  2.3087364799999999
  0.1942195200000000 12.9526783600000002  4.3420288400000002
  0.1123942100000000 14.9931021999999992  6.8267822100000002
 -0.1805018100000000 17.5516786399999987  9.2262316500000008
 -0.1977771700000000 19.7151911300000009 11.0689287200000006
  0.1516444900000000 -0.1922742400000000 13.3184959900000006
  0.1395893300000000  2.3815735000000000 15.1851077599999993
  2.6259526900000001  4.2930460300000002 19.8329896900000016
  2.4033746499999999  6.6935335599999997 21.6503657400000016
  2.0892178200000000  8.9369638699999996  2.0360465799999998
  1.9772433500000000 10.5835296400000001  4.6748200899999999
  2.4808831599999999 13.0473433599999993  7.0471560799999997
  1.9351241100000001 15.1399583599999996  9.0086184100000004
  2.0333857900000001 17.4017213200000000 10.8001709300000002
  1.9902116299999999 19.4901211200000013 13.0782065200000002
  2.2868225799999999  0.0708949800000000 15.3669788500000006
  2.1178708300000002  1.8199388000000001 17.0815330600000017
  6.7912012800000001  6.6115344599999997 -0.1042201700000000
  6.8407235399999999  8.9693845299999992  1.8035662600000000
  7.1040422899999998 10.4167635300000008  4.4439211199999997
  6.3312216499999998 12.3223211500000005  6.8393818299999998
  6.2919722499999997 15.1007438700000005  8.6542538899999997
  6.3425225999999997 17.3511671599999993 10.8484376400000002
  6.5123013700000003 19.6927320200000011 12.8058128500000006
  6.6624922599999996  0.2921202800000000 15.2647182400000005
  6.7297548999999997  1.9876998699999999 17.3639615099999993
  6.4374896699999997  4.2205157299999998 19.4248697999999997
  8.6347217399999998  6.0602064100000002  2.4744284099999998
  8.7958132599999992  8.3921031199999998  4.1981183800000004
  8.5382220699999998 10.9306480900000000  6.5961901400000000
  8.7628779399999992 12.9923438499999993  8.7862219100000001
  8.6554687099999992 15.2074882599999999 10.9559927300000002
  8.6379423899999992 17.3691983900000011 13.0704289800000009
  8.7620356800000003 19.8361814699999996 14.9483142299999994
  8.7991675399999991 -0.1154706800000000 17.1112307399999999
  8.8638303900000004  2.0541821499999999 19.7681657900000012
  8.4959023299999998  4.2467121499999996 21.6192378100000013
 11.3705715499999993  6.2729274999999998  4.3741189199999999
 10.9661413799999998  8.5790512600000000  6.3756421999999997
 10.5292273600000001 10.5392806199999995  8.4439019099999992
 10.6619688700000008 12.8499965599999992 10.6893153099999996
 10.9573216599999999 14.8815231699999995 12.7807563799999997
 10.6736332100000002 17.3525267200000002 14.8228278299999996
 10.9399024800000007 19.3800075400000011 17.3259222400000006
 11.0486027100000008 -0.1257635200000000 19.6333957699999999
 10.9852633900000001  2.2354430000000001 -0.0297681800000000
 11.0215478299999994  4.1839124600000002  2.0278884499999998
 13.3431398800000007  6.2418232500000004  6.6642728599999996
 13.0979168399999999  8.5209223299999994  8.4394780100000002
 12.7225304599999998 10.1528668500000006 10.6779601500000005
 12.7155864600000008 12.7055246600000000 12.8287323600000001
 12.9753020499999998 15.1194383000000006 15.0835923899999997
 12.8041029000000002 17.0544974200000006 17.4242577099999991
 13.4320778799999996 19.4273540000000011 19.2933993000000008
 13.0219623500000008 -0.1003291700000000  0.1628307000000000
 13.0916457499999996  2.2099058500000002  2.2689957600000001
 13.3615259700000006  4.2903541199999999  4.1978631200000001
 15.1870356199999996  6.2608978300000002  8.7760161100000005
 15.4676371699999997  8.5342260200000002 10.3211410499999996
 14.9270128599999996 10.4124362300000008 12.8380710199999992
 14.8309516800000001 13.0749152399999993 14.9720397500000004
 15.3965762200000000 15.1022469699999995 17.3281952699999984
 15.3100310600000000 17.2147282799999992 19.6659531799999989
 15.3220712100000007 19.5707262100000001 -0.0461545800000000
 15.1502036800000006 -0.1022692300000000  2.4508062700000002
 15.5095001999999997  1.9411959800000000  4.1837835400000003
 15.4477400800000009  4.3378526300000004  5.8887204400000002
 17.5508841999999987  6.4302741299999999 10.5731695999999999
 17.1449135699999999  8.2618807499999996 13.1713170599999998
 17.0154141999999986 10.4310594299999995 15.1609179500000000
 17.2314419000000001 13.0061295399999999 16.8818412100000010
 17.2119999499999992 15.0156040199999996 19.2507180300000016
 17.5638195400000008 17.3811276600000006  0.0780277300000000
 17.4456378200000017 19.4945435099999997  2.3639310500000001
 17.8040677400000007 -0.2831609700000000  4.0770694000000001
 17.5750222899999997  1.9008475899999999  6.1133499999999996
 17.4809002500000013  4.4485403500000000  8.5801828400000009
 19.3746660700000000  6.5345173200000000 13.3153652299999994
 19.6351972000000004  8.5279921499999993 15.2136245599999995
 19.2286197600000008 10.7346956299999992 17.2008448899999991
 19.2060585599999989 13.0917416800000002 19.0192623900000015
 19.4865128399999996 15.1589522500000005 -0.2066490900000000
 19.6330898299999994 17.0770813500000003  2.3013590399999999
 19.8304106299999994 19.0802006999999989  3.9342303300000001
 19.7185777500000015 -0.3449605100000000  6.2467871400000003
 19.3854295199999989  2.2523027199999999  8.2769677500000007
 19.5454276299999989  4.6718817899999996 10.9191455699999995
  0.3109050200000000  6.5818109099999997 15.0713882699999999
 -0.0842311200000000  8.7446634799999998 17.4966104499999986
 -0.0126592600000000 10.9182778599999999 19.4274918200000002
  0.1290325600000000 12.8316112800000006 -0.0974263500000000
  0.4180249500000000 14.9848960800000004  2.1063270799999998
  0.1186675100000000 16.9909588999999990  4.3154036900000001
 -0.2639539200000000 19.4353585500000001  6.2496575200000004
  0.1273270000000000  0.1109551700000000  8.5925588400000006
 -0.0538823800000000  2.2465122200000001 10.9854456599999999
  0.0775602000000000  4.4706524400000003 13.2933644100000006
  2.1565677900000000  6.1640237100000004 17.4835699499999997
  2.6241993199999998  8.4923581000000006 19.4546340399999984
  1.9438243500000001 10.9666742399999997 -0.5398417500000000
  2.5641015600000001 12.9983830400000002  2.1265594399999999
  2.4537050200000001 15.0632002400000005  4.6303115999999997
  2.0817281099999998 17.2678431400000001  6.7574941400000004
  1.9611702499999999 19.3548763100000016  8.6791361699999996
  1.9501026100000001  0.1929072900000000 10.7271284399999995
  2.1736266500000001  2.4930837100000001 13.4639137299999998
  2.1455323200000000  4.2673937799999999 15.2782028699999994
  4.6551404200000004  6.7659391700000002 19.6397295499999984
  4.5092848400000003  8.5160861200000006 21.6903672599999986
  4.0556987400000004 10.9480190900000007  2.1525552200000000
  4.3918073099999999 12.6606552099999998  4.6581577599999999
  4.5883106600000003 15.0824596799999995  7.0523201899999997
  4.0613189600000004 17.4506169900000003  8.7521220199999998
  4.0615835999999996 19.4927711099999996 10.9455098500000005
  4.2760875699999996  0.2454341400000000 12.9076796199999997
  4.6271442299999999  2.2074887799999998 15.2566121300000006
  4.1701972500000002  4.2569221500000003 17.4813286400000010
  8.8441171599999997  8.8147553500000004 -0.1805134500000000
  8.8728960499999996 11.0030020400000002  2.2623973300000002
  8.5783777099999998 13.1985638299999994  4.5912257800000003
  8.5794079300000003 15.1843197599999993  6.5575425899999997
  8.8760064100000005 17.4967062200000001  8.6848081900000000
  8.5000069099999997 19.6670795699999985 10.8916732700000001
  8.8168591000000003  0.2140875400000000 13.2504163300000002
  8.5986835999999993  2.1958479899999999 15.5600207400000006
  8.6654395900000001  4.3130181800000003 17.3774047100000004
  8.7663419499999993  6.3258564399999999 19.5020196699999993
 10.6568898599999997  8.6616934800000003  2.3204512300000002
 10.8374405800000009 11.0645837900000004  4.5211336400000004
 10.7608776200000005 13.0918068800000000  6.5821345800000000
 10.7070769699999992 15.2418959399999991  8.8110456300000006
 10.8588967200000006 17.3986703100000000 10.8314283000000007
 10.9462794599999995 19.6040780599999991 12.8451908699999997
 10.8501066300000009 -0.0158488700000000 15.2635340500000005
 10.8380442499999994  2.2712930600000001 17.3948647299999983
 10.7717555800000007  4.1398070599999999 19.9334283700000015
 10.5181517899999992  6.8164810800000000 21.4640640500000011
 12.9861526600000001  8.7931317500000006  4.5368254900000000
 12.8958385399999997 11.1573297500000006  6.4778031199999999
 12.6521522199999996 12.8163820200000007  9.2029627600000001
 12.9729916200000002 15.0423300100000006 10.6474893099999992
 12.8639188400000002 17.4392646199999994 12.9543673100000003
 12.7863067400000006 19.5296258999999992 15.2950710500000007
 12.7364434899999992  0.2626311900000000 17.3236360900000008
 12.9996134600000008  2.3670317500000002 19.7899815699999984
 13.1037793899999997  4.4458753900000003  0.0549059400000000
 12.8386692000000000  6.7165528999999999  2.0669290000000000
 15.3464685400000000  8.5561632099999994  6.5744702999999998
 15.2674140099999995 10.8745869499999994  8.4540260699999994
 14.9499165400000003 12.8109630600000006 11.0807607099999998
 14.6867374300000009 15.2671292199999993 12.8142477100000001
 15.0024089400000005 17.1811517999999985 15.0526852200000008
 14.6771872099999996 19.2653178899999986 17.1243378899999996
 15.5053678599999998 -0.0284362900000000 19.5760275300000011
 14.9661265300000004  1.8760389000000000  0.1983976400000000
 15.3343672600000005  4.1520687000000001  2.2479967500000000
 15.2673607100000002  6.4899631099999997  4.3200446000000001
 17.3029267100000013  8.9484253400000000  8.4767911399999996
 17.2959089100000014 11.0406487200000001 10.8863557400000008
 17.1432873199999989 12.9617774899999993 13.2399041099999994
 17.3807187100000000 15.1009356300000004 14.7188244299999997
 17.2122865400000009 17.2037629400000007 16.8252150299999990
 17.3841457099999985 19.3733456699999991 19.4120193199999989
 17.2041670300000007 -0.1956562800000000  0.2998788900000000
 17.5793423699999991  1.7555040600000000  1.9220901900000000
 17.8661491999999988  4.3370679499999998  3.7638805999999998
 17.3900540399999990  6.6063928499999998  6.3208435300000003
 19.3325824500000003  8.3351672200000007 10.8020685200000006
 19.3679411700000017 10.7422008899999994 12.9910385000000002
 19.4681041999999991 12.5110311599999999 15.1852793399999992
 19.6300244799999994 15.3208623199999998 16.9790604999999992
 19.4155586100000015 17.1361793899999988 19.2729776800000003
 19.6689449699999983 19.3692332799999996 -0.0187009800000000
 19.8250663299999985 -0.3423556700000000  2.0313926300000000
 19.7719759300000000  2.1147579699999999  4.3179410799999998
 19.5065824899999996  4.5282624199999999  6.5811380100000001
 19.5278837100000011  6.8289978600000003  8.4773762200000000
  0.0401725300000000  8.6843665300000001 12.7254903099999996
 -0.0334967400000000 10.4696800099999994 15.2600437200000005
  0.1270416400000000 13.0333751000000007 17.0837930900000003
 -0.2525084000000000 15.1926264700000004 19.3673961100000014
 -0.0218757700000000 17.2413655900000009 -0.0679786700000000
  0.3228841800000000 19.3900903900000010  2.2872192700000000
  0.2251930400000000 -0.0149062900000000  4.1486227800000002
  0.2505872600000000  2.3098668800000000  6.6940212299999997
 -0.0048135500000000  4.3067571200000003  8.6229338099999993
  0.3793338800000000  6.6753406599999998 10.6945258299999999
  2.0690232300000000  8.3446591800000007 15.5726151500000007
  2.4012886000000000 10.4695829299999996 17.1251700999999983
  2.3017875499999998 13.2845292900000000 19.0981908000000011
  2.1106572500000000 15.2390057199999998 -0.1127712200000000
  2.4055857399999998 17.1257937899999995  2.1979624499999999
  2.1360712199999998 19.2886250100000005  4.3851166299999997
  1.8925102300000001 -0.2594606700000000  6.3063530800000001
  2.4739055099999998  2.1960569900000002  8.5455535200000003
  2.3368960699999999  4.2700215400000001 10.9088672700000000
  2.3717072300000002  6.1133275700000000 12.9677276500000005
  4.5811144900000000  8.4922559500000006 17.1013172900000008
  4.4479543899999996 10.8609081199999995 19.1084242199999998
  4.5012678299999997 13.2686909699999998 -0.1000825700000000
  4.5072039600000000 15.2055707200000008  2.3829749200000001
  4.4410721600000000 17.2020027700000000  4.6006603300000002
  4.1761689999999998 19.2844035299999987  6.4659150399999996
  4.5347428399999998 -0.3539726200000000  8.4874855500000006