Li                                      
   1.00000000000000     
    21.6499999999999986    0.0000000000000006    0.0000000000000000
     0.0000000000000006   21.6499999999999986    0.0000000000000000
    -0.0000000000000006   -0.0000000000000006   21.6499999999999986
   Li
   500
Direct
  0.0000050766743627  0.9940545274826817  0.0011972734411074
  0.0060292152424921  0.1043831381062361  0.0998830018475729
  0.9844974794457286  0.1929792415704412  0.1921518739030006
  0.9973412309468799  0.2882275103926091  0.2923888475750545
  0.0087419796766710  0.4009429958429536  0.4013158309468849
  0.0094164535796750  0.5000102734411058  0.5081573020785228
  0.0160631764434171  0.5940457838337210  0.6076544060046203
  0.0159375099307155  0.7008549944572735  0.6926385279445739
  0.0006386586605061  0.8004232969976925  0.7842298831408812
  0.0033551976905315  0.8966148161662844  0.8972786295611996
  0.1147192563510373  0.9964590946882197  0.1090396748267892
  0.1059761750577337  0.0992805949191720  0.2173363575057721
  0.1068856438799060  0.2017038138568097  0.3033142752886846
  0.0969046729792140  0.2973448166281756  0.4188268979214769
  0.0920690748267887  0.3956372277136282  0.4946157824480366
  0.1005861233256340  0.4770474073903017  0.6169891265588916
  0.1007295103926111  0.5977968665127023  0.7039664632794427
  0.0951886378752889  0.7069894341801373  0.8033561468822157
  0.0895138554272492  0.8027578540415732  0.9020234983833717
  0.1060500812933043  0.9104235362586621  0.0134429048498816
  0.1966756743648972  0.9938308411085472  0.2041109108545029
  0.1908664471131658  0.1065793916859121  0.3000047750577366
  0.1896521247113157  0.2040048064665143  0.4090366443418034
  0.2125966318706674  0.3027863154734405  0.5052333367205577
  0.2023491949191651  0.3959731321016164  0.6026814919168615
  0.2064059297921474  0.4897943866050838  0.7079502272517288
  0.2112818812933028  0.6142889274826757  0.8046026688221701
  0.1890239787528856  0.6968375778291005  0.9091353168591212
  0.1912081344110845  0.7929073967667435  0.9989805538106253
  0.1888066923787548  0.9036445284064669  0.1010128859122403
  0.2794597879907599  0.0083546549653590  0.2981543334872967
  0.2955057330254007  0.1145046420323297  0.4099534327944596
  0.3086888055427224  0.1879916101616601  0.5089186295612009
  0.3025337154734444  0.3085890942263276  0.5915158993071614
  0.3159294526558867  0.3941627034642039  0.7102559935334867
  0.3001204364896068  0.4908852762124738  0.7963672720554271
  0.3028925819861428  0.6026908609699788  0.9124074803695166
  0.2968001787528891  0.7133623362586619  0.9988411926097029
  0.2846278521939922  0.7966566549653606  0.1128659436489627
  0.2914519491916892  0.8965706023094668  0.2084545981524215
  0.4007955131639704  0.0045212642032340  0.3886078207852179
  0.4196858032332571  0.1006278909930742  0.5027190900692844
  0.4106405362586614  0.1904097404157028  0.6154492189376413
  0.4132292836027744  0.2791678157043904  0.7037142230946856
  0.4090693478060032  0.3711510956120065  0.7804218277136243
  0.3940982697459603  0.4926939224018483  0.8920134244803677
  0.3950126969976893  0.5984441672055425  0.9835140369515045
  0.3953082078521959  0.6964375385681265  0.0997448387990758
  0.3897524886836052  0.8000583445727472  0.1865730822170875
  0.4062209353348720  0.9012906309468818  0.2861253741339524
  0.4964990046189399  0.9993927053117773  0.4903638503464194
  0.5121609981524244  0.0866381459584318  0.6159371847575059
  0.5096949732101592  0.1812199233256351  0.7143521515011528
  0.5041192849884553  0.2832634466512687  0.7809719912240212
  0.5146903538106216  0.4053828484988458  0.8864093501154713
  0.4800828466512712  0.4980471011547323  0.9977726965357974
  0.4954328230946885  0.5993852836027713  0.1066177699769071
  0.4876554434180136  0.6985611145496549  0.1901375792147775
  0.4898625861431896  0.7903018466512677  0.2795369556582017
  0.5059656960739005  0.9067213907621223  0.3903460397228642
  0.6087668577367182  0.9965774933025386  0.6013776715935322
  0.6139923321016170  0.0843868734411117  0.7233720170900710
  0.6151436831408787  0.2038255718244812  0.8043042438799048
  0.5998532295611980  0.3063965150115493  0.8875928060046192
  0.5942298170900671  0.4102070605080854  0.0089445953810596
  0.6169427043879878  0.4906437958429564  0.0919657741339464
  0.5899972184757516  0.5937300715935336  0.1954691376443449
  0.5945907376443387  0.7099249071593547  0.2933415030023099
  0.5938231565819834  0.7891875986143191  0.3996776568129334
  0.5870654018475747  0.9031970360277128  0.5043019616628186
  0.7158041547344141  0.9836404591224053  0.6897683792147831
  0.7061774928406450  0.0956625972286389  0.8049407778291027
  0.7043982720554283  0.2044435085450331  0.8892348489607400
  0.7110610692840638  0.3038798836027681  0.9951995330254064
  0.7255292799076187  0.4072612272517304  0.1045147311778294
  0.7045826854503474  0.5076698771362587  0.1965003219399506
  0.7074389806004646  0.5990914946882242  0.2955196595842935
  0.7017578762124685  0.6992512032332598  0.3984697270207818
  0.6852033242494215  0.7852316009237867  0.4882668942263280
  0.6997743575057740  0.9047734600461865  0.5983830198614299
  0.7997300549653588  0.9962083653579654  0.8109722896073919
  0.7985612655889156  0.1013462826789819  0.9042247695150110
  0.8071674766743655  0.2047599907621276  0.9971125154734395
  0.8065932069284045  0.2998347852194030  0.1064311210161648
  0.8049913519630465  0.3923257108545002  0.2101803330254057
  0.8077414198614292  0.5030931648960717  0.3083913302540395
  0.7877009191685929  0.5965422655889157  0.3915424244803702
  0.8037093538106248  0.7059088512702090  0.5063373658198600
  0.8044755598152449  0.7877982087759818  0.5959213464203259
  0.8119291755196301  0.8980188110854499  0.7056040429561179
  0.9031351163972303  0.0000262443418038  0.9014520859122399
  0.9022978951501130  0.0916037330254014  0.0057513829099278
  0.8930598983833704  0.2099240568129304  0.0940504803695177
  0.9027976235565802  0.2851559621247119  0.2142853579676682
  0.9080925722863711  0.4079078669745968  0.2964513473441102
  0.9123633441108581  0.5041265339491900  0.4058556637413417
  0.9065302665127035  0.6141717510392581  0.5087610009237906
  0.8893821210161690  0.6990177584295623  0.6091130157043878
  0.8964038706697437  0.7847682549653570  0.6969830531177834
  0.9136555736720524  0.9036219071593550  0.7913586983833696
  0.1143476951501157  0.0926886013856816  0.9999445062355647
  0.0985299228637402  0.2052669981524247  0.1083475191685892
  0.0975982743648984  0.3038999681293291  0.2115352905311809
  0.0983512605080819  0.3878841418013863  0.3032895307159365
  0.1105037690531177  0.4813907357967651  0.3998099616628181
  0.1108173394919163  0.5859347653579690  0.5003692725173181
  0.1023958235565843  0.7050495242494250  0.6075844193995366
  0.1216162988452680  0.8161615441108552  0.7039487505773678
  0.1000421538106266  0.9029277727482707  0.8059619635103914
  0.0912987348729786  0.0089493607390310  0.9096976041570457
  0.2022619561200898  0.1070293658198622  0.1043977801385694
  0.2046960965357982  0.2012882702078542  0.2153883307159319
  0.1968717593533498  0.3058281288683631  0.3120009025404187
  0.1975056170900658  0.4073730854503452  0.4187245311778298
  0.2007941127020771  0.4857190249422629  0.5151082725173239
  0.2053589528868329  0.5987234466512703  0.6002893570438772
  0.1915891011547330  0.7024161071593511  0.7133659630484956
  0.1978579357967689  0.8217622050808302  0.8052819898383348
  0.1921005016166291  0.8997205399538117  0.9085356387990728
  0.1865213090069275  0.9871121260969957  0.0041173759815223
  0.3193391117782909  0.1057643903002301  0.2071687713625892
  0.2998893196304877  0.2079681547344094  0.3073348078521931
  0.3069790198614299  0.3019274960739011  0.4062979995381042
  0.3103432101616619  0.4001785006928387  0.4984093745958447
  0.3099284064665113  0.4997680702078497  0.6030218041570450
  0.2822179247113183  0.6236634743648963  0.7163085173210177
  0.3070425681293329  0.7312129810623560  0.8094234263279461
  0.3068469806004614  0.8134672632794491  0.8959402960739027
  0.2924153302540446  0.8955972143187054  0.0012851205542717
  0.3031797094688216  0.9927325431870671  0.1044864157043861
  0.3916005806004605  0.1148934161662822  0.3046715090069299
  0.4096055256351008  0.2044275515011549  0.4057203949191717
  0.4143878364896096  0.2966683270207824  0.4979579247113151
  0.3894060979214800  0.3936426826789869  0.6041253856812929
  0.3956965621247122  0.5096633579676677  0.7037848346420290
  0.3877413376443428  0.6052509182448063  0.7977460665127012
  0.4009642332563530  0.7074441796766777  0.9054460036951468
  0.3929421311778256  0.8003082092378762  0.0049581662817531
  0.4054931491916847  0.9034665501154748  0.0960318101616622
  0.3981353588914516  0.0051779205542744  0.2102229995381037
  0.5049964484988436  0.0954361561200940  0.4001888471131636
  0.5055360531177797  0.1901806337182421  0.5065316341801420
  0.4941367976905298  0.2856128096997708  0.5955978595842950
  0.5006525224018503  0.3995982974595833  0.6797511140877575
  0.4962333385681319  0.4941685154734401  0.7829785362586605
  0.4951845815242493  0.5993784831408746  0.8939117362586586
  0.4989325196304861  0.6913505441108541  0.0010566983833726
  0.5012725427251752  0.7984266304849896  0.0875722914549684
  0.4978387436489626  0.8980745875288676  0.1919658632794423
  0.5092815792147789  0.9973372979214759  0.2945401501154734
  0.5911325011547319  0.0917623468822200  0.4973406812933021
  0.6083389113163946  0.1789282332563502  0.6134163256351073
  0.5999179496535803  0.2958867810623573  0.7136044115473439
  0.5909133482678968  0.3992242018475736  0.7899786429561217
  0.6007646697459563  0.5054541131639709  0.8832468327944554
  0.5967968872979199  0.6000384124711289  0.9835712609699740
  0.6051426646651237  0.6983549293302573  0.0896896332563486
  0.5970224521939969  0.8005005468822191  0.1838010979214815
  0.5912902849884532  0.8895582351039266  0.2979563926096986
  0.5971496526558866  0.0031785949191701  0.3972053191685916
  0.7079052748267927  0.1091198628175505  0.6174351861431902
  0.7084568678983842  0.2049397316397261  0.6969206415704363
  0.7068365090069264  0.2997854180138546  0.7982042452655875
  0.6975689385681321  0.4002814905311780  0.8905082697459576
  0.7156281311778301  0.4923544914549680  0.9926214295612041
  0.6951646789838364  0.5838394221709038  0.0881859288683629
  0.6886298993071591  0.6871223736720538  0.1919105607390321
  0.7096518702078498  0.8055533496535787  0.2873888799076241
  0.7027524110854486  0.8966101510392619  0.3994612300230926
  0.6952510960739033  0.0053970360277162  0.4959877524249450
  0.7889346369515025  0.0819810743648972  0.7056663690531195
  0.8013917866050804  0.2023050189376434  0.8046116609699752
  0.8105591339491909  0.2902828244803715  0.8992265953810659
  0.7994797787528896  0.3905015348729819  0.9894729321016200
  0.8144150692840668  0.4952403090069311  0.0979342983833718
  0.7917991926097017  0.6122444872979216  0.1844846822170894
  0.8035890803695125  0.7018030461893758  0.2918709958429559
  0.7974397288683619  0.7933461981524275  0.3991130341801394
  0.7960733066974583  0.8940020614318698  0.5076955284064653
  0.8096046826789873  0.9794925676674353  0.6080928933025405
  0.9003006475750581  0.0954686055427274  0.8104755718244832
  0.9125376591223997  0.2004319602771361  0.9144003127020781
  0.8977147833718249  0.3135075842956141  0.9921467362586611
  0.8971594286374156  0.4035333575057720  0.1089257090069253
  0.9004878387990729  0.5019914960739058  0.1973884106235602
  0.9132449967667426  0.5964655127020819  0.2956968572748266
  0.8986485842956142  0.7067399889145491  0.4022343773672077
  0.9078215829099321  0.8021970138568122  0.5046310942263261
  0.9058338092378762  0.8900339709006957  0.6003530628175540
  0.9151622337182417  0.0029618540415726  0.6967050046189343
  0.9971028023094703  0.0962221898383362  0.9005220078521958
  0.0074344711316385  0.2000804235565852  0.0066353094688196
  0.9995573745958453  0.3079378267898392  0.1007826554272526
  0.0073865524249399  0.3967452452655920  0.2092832143187096
  0.0023854909930705  0.4914284678983805  0.3042745999999994
  0.0115951450346401  0.5929959385681300  0.4092737316397219
  0.0221995270207884  0.6848431066974570  0.5081905912240217
  0.0169216942263262  0.7999258332563528  0.5993436272517343
  0.9994032600461864  0.8830294170900714  0.6882725242494203
  0.0207158073903031  0.9962118383371816  0.7964903561200956
  0.1960665672055413  0.2006190254041584  0.9911690018475738
  0.2123550688221698  0.2970901704387998  0.0969472605080810
  0.1895197048498858  0.4014392073902968  0.1901703219399522
  0.1801727205542747  0.4962515575057722  0.2946227136258628
  0.1927744272517344  0.5996653856812912  0.3990222027713628
  0.2010888438799086  0.7056197699769058  0.4853666147806024
  0.1983011228637395  0.8010189639722896  0.5862327824480360
  0.2017193214780590  0.9069347214780592  0.6992556859122416
  0.1889212762124686  0.0012052078521947  0.8029644914549650
  0.2027435547344112  0.1021718822170925  0.8991425575057761
  0.3034371445727473  0.2055649381062352  0.1046522766743649
  0.2992905459584279  0.3119580956120060  0.2064794397228624
  0.2771476360277134  0.3849485427251764  0.3063524863741307
  0.2901465575057713  0.4920801593533497  0.3956044937644307
  0.3106158568129302  0.5934407570438793  0.4901071879907590
  0.2827038752886821  0.7013278452655882  0.6004499413394910
  0.2775739344110875  0.8298929718244779  0.7050762235565813
  0.2963781736720534  0.8959598508083175  0.8135257265588933
  0.2955006332563528  0.9896296212471114  0.9069500849884520
  0.2930808041570430  0.1120743690531185  0.9954736508083144
  0.4084205071593559  0.2128832914549648  0.2031573210161639
  0.3950686027713601  0.2977320327944568  0.3014562115473467
  0.3974252096997688  0.4033528489607363  0.4019930027713627
  0.4128567459584289  0.5050126480369528  0.5118309265588934
  0.4005624443418014  0.6055190859122419  0.5983935422632811
  0.3758393773672069  0.7126796882217121  0.6959971930715909
  0.3950791778290963  0.8096769260969978  0.8056497325635092
  0.4068143833718239  0.9005486946882186  0.9082937136258664
  0.4149422346420337  0.0055582018475775  0.9804453136258644
  0.3995439621247101  0.0919014083140866  0.1053415274826790
  0.4983212309468854  0.2027217861431865  0.2872251588914523
  0.5065254808314066  0.2902258281755223  0.3973623150115486
  0.4990895487297919  0.3849474628175500  0.4993013131639756
  0.5078015265588931  0.5073511284064693  0.5954804254041548
  0.4941886618937659  0.6087525930715927  0.7078315519630465
  0.4938997838337187  0.7109267510392598  0.8023113491916831
  0.5090060133949166  0.8041308545034624  0.9111637699769020
  0.5181948484988439  0.9020728757505765  0.9982914429561234
  0.4973368387990789  0.0002402840646667  0.0984788087759796
  0.5008259616628195  0.1090441376443394  0.1889604475750559
  0.5970376170900664  0.1924404923787506  0.3997253127020812
  0.5961553210161696  0.2970139496535822  0.4997874110854497
  0.6028824937644330  0.4035841450346425  0.5951909801385682
  0.5967975251732085  0.4967514729792128  0.7023234785219401
  0.6000189048498825  0.6015236969976883  0.7935027695150083
  0.6081318133949196  0.6962920411085420  0.8846914221709028
  0.6112119722863767  0.7927729875288705  0.9939649510392599
  0.6051372221709030  0.9012452789838363  0.0930636226327977
  0.5898464263279450  0.9998493986143160  0.1938205362586629
  0.6067326678983846  0.1016002110854473  0.2935899182448054
  0.6953896900692840  0.1976296461893767  0.5033253076212461
  0.7040316956120094  0.3038056715935369  0.6017816217090086
  0.7058839293302555  0.4089956341801368  0.7096511491916857
  0.6990924637413372  0.4879953210161645  0.7996781279445742
  0.7109198281755198  0.5897990623556595  0.8768282369515035
  0.6945691274826800  0.6868662960739016  0.9895516203233257
  0.6934629339491920  0.7974122415704414  0.0991797741339511
  0.6959069168591228  0.9129799852194012  0.1913443090069293
  0.6961825279445719  0.0152785547344081  0.2920428692840673
  0.6982060683602782  0.1003645801385673  0.3879064595842934
  0.8040033861431866  0.1962094240184769  0.6166814073903026
  0.8017444314087783  0.3243960332563489  0.7035015334872980
  0.8116151949191703  0.3952405316397218  0.8145987182448025
  0.7992241861431850  0.4905781764434209  0.8924535454965365
  0.7915873986143183  0.5882228036951531  0.9876762494226341
  0.8008337616628154  0.6892745297921508  0.0935615196304838
  0.8005463681293321  0.7928680789838367  0.2031271427251724
  0.7982979436489614  0.9102124872979189  0.3041591482678996
  0.7895333441108576  0.0042023916859151  0.3919661163972279
  0.7964426678983827  0.0908039334873010  0.5012756170900659
  0.8845645995381091  0.2001332789838344  0.7139208009237876
  0.9020811297921512  0.2996480180138548  0.7912736706697459
  0.9146674697459574  0.3965734799076230  0.8958361427251731
  0.9177012411085457  0.4926149824480390  0.9942202337182451
  0.9072390655889180  0.6006116988452632  0.0912552960739035
  0.8961612027713599  0.6918728443418019  0.1892264180138596
  0.9074558263279471  0.8082744406466489  0.2814994905311750
  0.8811645824480365  0.9048062180138601  0.4018048702078545
  0.9000425205542726  0.9887110891454967  0.4986674974595857
  0.8869161972286363  0.1019440655889170  0.6099851117782933
  0.0086084517321012  0.1916639501154762  0.7833390461893757
  0.0157822420323299  0.2897442605080798  0.8913293607390287
  0.0122325926096991  0.3957167399538122  0.9983232826789816
  0.0045089450346438  0.4934444734411088  0.1117601505773678
  0.9943691127020813  0.6072933889145489  0.2087166882217062
  0.9907350489607367  0.6937569030023099  0.3032964207852160
  0.0039966886835998  0.7939058618937622  0.4080276780600443
  0.0005977020785224  0.9112382018475742  0.4908024461893774
  0.0032033154734421  0.0083227667436461  0.5914241699769036
  0.9939988078521935  0.0921373884526560  0.7019786572748288
  0.0897041150115498  0.1869171122401880  0.9034329528868383
  0.1078223025404128  0.2993057131639745  0.0020037736720582
  0.1025829251732091  0.4028861856812966  0.0911927200923799
  0.0819639741339486  0.4957234078521964  0.2111819801385693
  0.0913783967667428  0.5831422152424963  0.3115594618937649
  0.0841702221709042  0.6982602503464221  0.4039491967667459
  0.1051597362586634  0.8194849972286349  0.4967989806004596
  0.1072941806004621  0.9036004364896044  0.5897874983833731
  0.1063618175519636  0.9900591307159345  0.6862624563510380
  0.1069736517321047  0.1050342351039291  0.8032390267898393
  0.2821915612009249  0.3013543427251761  0.9904286221709029
  0.3001290166281763  0.3948308863741374  0.0824094041570405
  0.2994000147806020  0.4859326928406489  0.1939950831408765
  0.2970172466512722  0.5771141200923822  0.2844800129330238
  0.2991522138568143  0.6969466637413362  0.3991672124711343
  0.3030889879907619  0.8063833487297956  0.4922937542725165
  0.3036411464203255  0.9065983528868387  0.5921334346420295
  0.2891362743648926  0.9860949090069298  0.7125382083140863
  0.2847577334872966  0.1091201778290980  0.8027846771362590
  0.2959251030023111  0.2135234272517295  0.9044851916859145
  0.3872152942263298  0.3044180512702113  0.0969136563510418
  0.4083196969976939  0.3985952683602747  0.1972590000000025
  0.4062353588914576  0.4798186143187095  0.2925795505773650
  0.3977799099307191  0.5862181699769025  0.3925901284064679
  0.4032827769053142  0.7152098138568164  0.5037256161662782
  0.3899242868360275  0.8015163875288707  0.6025931547344143
  0.4121374050808342  0.9086783140877586  0.7033841967667414
  0.4028164013856781  0.9998793939953785  0.8089098378752908
  0.3981289177829126  0.1080392849884504  0.9007791967667416
  0.3965336115473477  0.2070361685912232  0.0081461418013831
  0.4932490946882240  0.3122612392609696  0.1810459986143158
  0.5024913889145495  0.3932851260969983  0.2972981270207882
  0.4942629431870671  0.5034125690531184  0.3991251311778257
  0.4979170993071591  0.6071286979214747  0.5013266318706684
  0.4951266110854533  0.7185869357967647  0.6025677727482659
  0.4962181237875285  0.8055421745958427  0.7074181441108536
  0.4955607579676666  0.8963177367205546  0.8093542484988419
  0.5060299362586633  0.0037513103926088  0.8978633621247099
  0.5180262605080799  0.1042251260969991  0.0035143090069312
  0.5016119829099281  0.1952407866050834  0.1041979861431841
  0.5944519053117787  0.2920261062355678  0.2940321986143175
  0.5749188725173227  0.4014677168591234  0.3966626979214780
  0.5971991533487326  0.5144278355658187  0.4950507866050842
  0.5933834203233275  0.6028118378752865  0.6172208872979184
  0.5911442443417982  0.7150527168591196  0.6941635390300220
  0.6012609422632806  0.8080688568129304  0.8163060392609722
  0.6016343464203260  0.9060978244803692  0.9122916632794471
  0.6112419468822168  0.9998645454965356  0.0078777722863776
  0.6039065247113200  0.0940941394919150  0.1069024443417987
  0.6017274933025405  0.2018021196304858  0.1933657173210150
  0.6872089662817586  0.3203449020785243  0.3977971256351012
  0.6845191648960736  0.4195056355658195  0.4986273505773653
  0.6980929658198605  0.5108732475750557  0.5829061279445753
  0.6837362092378783  0.6172459307159386  0.6972305085450330
  0.6923075944572759  0.7116909750577349  0.8017359806004620
  0.7007225861431863  0.8104354351039262  0.8969830531177863
  0.7008591468822161  0.8962423454965389  0.9930062868360281
  0.7087029279445716  0.0049367113163967  0.1078752923787505
  0.7013261916859150  0.0955919357967687  0.1931805819861410
  0.7046406531177851  0.1848814933025409  0.2999819953810601
  0.7901647163972285  0.2928326378752857  0.5038472267898371
  0.7961998831408792  0.4191443284064675  0.5969813556582011
  0.8005642521939933  0.5133467394919151  0.7113293094688231
  0.8043884073902987  0.6039180614318695  0.8049599362586619
  0.7961389898383402  0.7106571177829082  0.9088590281755202
  0.8065002817551985  0.8037426914549641  0.0072062443418019
  0.7989798484988455  0.8885983316397201  0.1078162914549665
  0.8199126323325601  0.0107474905311804  0.1931542909930712
  0.8188462914549675  0.1028124263279437  0.3037050489607367
  0.7980921515011516  0.2097584919168582  0.4080740762124719
  0.8879909487297937  0.2981833861431866  0.6018510161662789
  0.8967972138568143  0.3940337371824469  0.6868177713625840
  0.8963241242494249  0.5066394337182416  0.7935748189376426
  0.9024917556581968  0.6024749330254053  0.8927116364896079
  0.8903599233256330  0.6945696295612009  0.0112660849884492
  0.9043343344110824  0.7895568609699737  0.1106319759815264
  0.9027587288683634  0.8989738115473429  0.1837050318706730
  0.9134293071593547  0.9980152886836038  0.2888372277136284
  0.8979710983833726  0.0849283357967678  0.4082480577367207
  0.8976072979214749  0.1978999450346421  0.5113437454965393
  0.9826161542725202  0.3133626369515028  0.7000066401847604
  0.0072346651270223  0.3862184254041594  0.7855711958429552
  0.9977949515011559  0.5097367856812909  0.8776507376443448
  0.9979994642032324  0.6089339450346429  0.9929609284064682
  0.0018717551963050  0.6918258891454983  0.1034428586605074
  0.0028839607390267  0.7979048115473475  0.1999223921478048
  0.9940893381062352  0.8956207348729777  0.3184709584295646
  0.9949399584295620  0.0077237066974618  0.4047496965357951
  0.9931983796766772  0.1115767875288682  0.5003839810623560
  0.9997561459584290  0.2069574369514982  0.6169953214780577
  0.1004484697459560  0.2836625173210194  0.8038909085450356
  0.0840554217090101  0.4025231367205535  0.8870335824480335
  0.0913125265588945  0.4990132554272506  0.9942880771362610
  0.0991397113163970  0.5962486314087769  0.1070081685912214
  0.0958088429561172  0.6911784397228615  0.2179154314087768
  0.1050544318706699  0.7882521284064694  0.3093751150115480
  0.1024964568129363  0.9010566826789841  0.4078450637413411
  0.1002306314087775  0.0070288198614321  0.4939240383371839
  0.1059008748267871  0.0957303501154740  0.5997715219399566
  0.1116561219399514  0.1995664822170866  0.6914532600461882
  0.1816100461893768  0.2954440424942248  0.8930290143187065
  0.1888453344110843  0.4096481108545049  0.9808527662817568
  0.1961305542725142  0.5022944632794477  0.0803258286374131
  0.1988842096997701  0.5916101884526554  0.1970119963048518
  0.1924555944572717  0.6855688563510398  0.3019347588914556
  0.1935338198614289  0.7947853284064692  0.4030663362586608
  0.2141337251732125  0.9027425505773650  0.4819437367205524
  0.2088410406466537  0.9957822337182449  0.5856609916859128
  0.1952512946882194  0.0901831801385669  0.6986161057736737
  0.1947353889145518  0.2015689224018473  0.7914199570438782
  0.4001853163972271  0.4036628323325644  0.0023982281755224
  0.4070436882217123  0.5027094914549650  0.0957758023094684
  0.3812336526558866  0.5849421773672034  0.1927942304849850
  0.3921429741339466  0.6954408092378728  0.2839176632794462
  0.3983762489607372  0.8077720683602791  0.3823251630484990
  0.4016904401847583  0.8961080290993095  0.4906732637413427
  0.4115552688221698  0.0068054272517344  0.6041770263279460
  0.3978680272517323  0.0872883251732119  0.7098597187066957
  0.3959338383371858  0.1990636628175508  0.8056585893764421
  0.4165907182448052  0.3005526480369483  0.8899480060046159
  0.4952452411085417  0.3938961815242479  0.0938871200923757
  0.5057614951501179  0.4869555450346397  0.1912310752886839
  0.4843502351039248  0.5988979579676652  0.2801793769053091
  0.4864676983833718  0.6971607884526563  0.3982341163972265
  0.4981183639722886  0.7905920988452664  0.4873203819861445
  0.4984716748267886  0.9067845972286364  0.6018241163972320
  0.5108646235565786  0.0000957140877631  0.7114677034642014
  0.5061236669745952  0.0998560498845293  0.8207822064665109
  0.5076209912240159  0.1974643260969984  0.9035755986143172
  0.5074571755196331  0.2956360655889156  0.0088529214780593
  0.6110054900692816  0.4044007926096995  0.2102447801385665
  0.5953701016166306  0.5034277561200895  0.2797631094688242
  0.5822494438799097  0.6102370078521915  0.3699239653579696
  0.5976602249422598  0.6898802512702105  0.4979456886836005
  0.5886410041570471  0.7957433810623584  0.5924448558891484
  0.5971612360277163  0.8769148387990739  0.7022714785219364
  0.6226136152424928  0.9856741191685927  0.8022460882217075
  0.6057013385681316  0.1040300254041568  0.8974036193995403
  0.6136262854503443  0.2190561210161661  0.0003607200923810
  0.6091481810623591  0.3163367297921482  0.0922873792147811
  0.7051171404157017  0.4026236327944588  0.2982726115473469
  0.6825678434180134  0.4992295459584284  0.3907392092378785
  0.6816821113163982  0.6017181630484956  0.5034316120092370
  0.6913385422632814  0.7002533903002330  0.5923187362586617
  0.6953405357967668  0.8058978161662793  0.7130677939953785
  0.7098687898383389  0.9005977048498863  0.7934192018475770
  0.7010705745958461  0.9943444692840657  0.8966678327944564
  0.6959453939953804  0.0999548106235579  0.0007131533487268
  0.7033485755196338  0.2144601404157029  0.0987942351039237
  0.7028072614318717  0.2963299344110837  0.2134192678983808
  0.8044649307159375  0.3976784244803682  0.4080150669745990
  0.7871551048498873  0.5125372258660477  0.4871838083140858
  0.7941662780600467  0.6060733224018477  0.5922395551963078
  0.7912438711316412  0.6954218309468843  0.7163299999999992
  0.8188879676674361  0.7992263177829102  0.8095796392609671
  0.8209668683602800  0.9008221071593567  0.9070347371824496
  0.8051622725173218  0.0012825487297903  0.9925909339491952
  0.7955140295612040  0.1197864605080809  0.0840294060046176
  0.8078668180138564  0.1896054674364862  0.2058732725173229
  0.8038423981524261  0.3045688803695157  0.3071216457274843
  0.8985347270207882  0.3927847293302520  0.4987708568129321
  0.8965150083140898  0.5190638096997660  0.6036688323325663
  0.8905887274826796  0.6112001510392631  0.6873663607390270
  0.9034102041570407  0.7069084207852185  0.7928943131639699
  0.9221989953810592  0.8041784785219406  0.8964450193995361
  0.8950523473441123  0.9025577071593531  0.0080371912240196
  0.8932536678983851  0.0004787538106257  0.0992814614318718
  0.9011300161662845  0.1124323903002278  0.1884540655889140
  0.8933256415704420  0.2132594789838365  0.3202945478060073
  0.9063828780600431  0.3108631284064671  0.4118057718244827
  0.9960565316397236  0.3993814914549674  0.5985037584295583
  0.9856265168591207  0.4811270401847594  0.7008414757505790
  0.9858912323325626  0.6264315842956094  0.7818361233256326
  0.9835664101616644  0.6979772230946892  0.9006463288683619
  0.0042550794457270  0.8056758184757484  0.0226230540415671
  0.0084912406466486  0.8922400891454956  0.1054031090069287
  0.9996136535796794  0.0118000762124737  0.2110587478060069
  0.9959742554272495  0.1158039311778296  0.2971033732101631
  0.9911509247113131  0.2006012369514991  0.4111105016166263
  0.9881454471131619  0.3017065898383393  0.5158672554272528
  0.0938750106235560  0.3942192591224014  0.7116885330254021
  0.0913704785219380  0.5016429695150109  0.7896419357967659
  0.0813446277136265  0.5984626267898392  0.8920881168591208
  0.0932806581986156  0.6958384443418026  0.9936912272517304
  0.1011266877598160  0.7832268272517311  0.1070767482679003
  0.0882046193995407  0.8995691062355675  0.2327083357967652
  0.1029003450346408  0.0024503990762099  0.3067753750577396
  0.1007541057736745  0.1098356725173204  0.4083582752886841
  0.0786150711316367  0.2105433709006945  0.5199984309468846
  0.1009632540415737  0.3069402494226310  0.6037921219399536
  0.1973515270207855  0.4084017584295623  0.8028947662817529
  0.1949912646651271  0.4952836581986162  0.8885662498845264
  0.1915544822170929  0.5998169570438776  0.9973119030023128
  0.1971369935334906  0.6984731907621224  0.1133454780600474
  0.1989082124711317  0.8167417750577357  0.2146032937644335
  0.2013901662817545  0.9033243736720564  0.3135988281755218
  0.2046012249422660  0.0143437482678976  0.4145212133949201