Li 
 1.0000000000000000
    21.6499999999999986    0.0000000000000006    0.0000000000000000
     0.0000000000000006   21.6499999999999986    0.0000000000000000
    -0.0000000000000006   -0.0000000000000006   21.6499999999999986
 Li 
 500
Cartesian
  0.0001099100000000 -0.1287194800000000  0.0259209700000000
  0.1305325100000000  2.2598949400000001  2.1624669900000000
 -0.3356295700000000  4.1780005800000000  4.1600880699999996
 -0.0575623500000000  6.2401255999999998  6.3302185499999997
  0.1892638600000000  8.6804158600000001  8.6884877399999993
  0.2038662200000000 10.8252224199999993 11.0016055900000005
  0.3477677700000000 12.8610912200000005 13.1557178900000000
  0.3450470900000000 15.1735106300000009 14.9956241299999995
  0.0138269600000000 17.3291643800000017 16.9785769699999989
  0.0726400300000000 19.4117107699999991 19.4260823299999998
  2.4836719000000000 -0.0766606000000000  2.3607089600000002
  2.2943841900000002  2.1494248800000002  4.7053321400000003
  2.3140741899999999  4.3668875700000003  6.5667540600000001
  2.0979861700000000  6.4375152800000004  9.0676023400000005
  1.9932954700000001  8.5655459799999996 10.7084316899999994
  2.1776895700000001 10.3280763699999998 13.3578145900000003
  2.1807938999999998 12.9423021600000006 15.2408739299999993
  2.0608340100000002 15.3063212499999999 17.3926605800000011
  1.9379749700000000 17.3797075399999983 19.5288087399999988
  2.2959842600000000 19.7106695599999995 21.9410388900000015
  4.2580283500000000 -0.1335622900000000  4.4190012200000002
  4.1322585800000002  2.3074438300000000  6.4951033799999998
  4.1059685000000004  4.4167040599999998  8.8556433499999994
  4.6027170799999997  6.5553237299999996 10.9383017400000000
  4.3808600699999998  8.5728183100000006 13.0480543000000004
  4.4686883799999997 10.6040484700000004 15.3271224200000002
  4.5742527300000004 13.2993552800000003 17.4196477799999982
  4.0923691399999997 15.0865335599999995 19.6827796100000008
  4.1396561099999998 17.1664451400000004 -0.0220710100000000
  4.0876648900000001 19.5639040400000006  2.1869289799999998
  6.0503044099999999  0.1808782800000000  6.4550413200000003
  6.3976991200000004  2.4790255000000001  8.8754918200000006
  6.6831126400000000  4.0700183599999997 11.0180883299999994
  6.5498549400000003  6.6809538899999996 12.8063192200000007
  6.8398726500000002  8.5336225300000006 15.3770422599999996
  6.4976074500000003 10.6276662300000009 17.2413514399999990
  6.5576243999999999 13.0482571400000005 19.7536219499999994
  6.4257238699999997 15.4442945799999993 -0.0250881800000000
  6.1621930000000003 17.2476165799999990  2.4435476800000000
  6.3099347000000003 19.4107535400000017  4.5130420500000001
  8.6772228600000005  0.0978853700000000  8.4133593199999996
  9.0861976400000000  2.1785938400000000 10.8838682999999996
  8.8903676100000002  4.1223708800000001 13.3244755900000005
  8.9464139899999999  6.0439832100000004 15.2354129300000007
  8.8563513799999996  8.0354212199999999 16.8961325699999989
  8.5322275399999992 10.6668234200000001 19.3120906400000010
  8.5520248900000002 12.9563162199999997 -0.3569211000000000
  8.5584226999999995 15.0778727099999994  2.1594757599999999
  8.4381413799999994 17.3212631600000009  4.0393072300000004
  8.7946832500000003 19.5129421600000015  6.1946143500000002
 10.7492034499999995 -0.0131479300000000 10.6163773599999995
 11.0882856099999998  1.8757158599999999 13.3350400499999999
 11.0348961699999997  3.9234113399999999 15.4657240799999993
 10.9141825200000007  6.1326536200000001 16.9080436100000000
 11.1430461600000008  8.7765386700000008 19.1907624299999995
 10.3937936299999993 10.7827197399999992 -0.0482211200000000
 10.7261206199999997 12.9766913899999992  2.3082747200000000
 10.5577403499999996 15.1238481300000007  4.1164785899999998
 10.6055249899999993 17.1100349799999982  6.0519750900000000
 10.9541573200000002 19.6305181100000006  8.4509917600000009
 13.1798024700000003 -0.0740972700000000 13.0198265899999992
 13.2929339899999999  1.8269758100000000 15.6610041700000000
 13.3178607400000004  4.4128236300000001 17.4131868800000014
 12.9868224199999993  6.6334845500000004 19.2163842500000008
 12.8650755399999994  8.8809828599999996  0.1936504900000000
 13.3568095499999995 10.6224381799999996  1.9910590100000001
 12.7734397800000004 12.8542560500000000  4.2319068299999998
 12.8728894700000005 15.3698742399999997  6.3508435399999996
 12.8562713399999993 17.0859115099999990  8.6530212700000000
 12.7099659500000008 19.5542158300000004 10.9181374699999996
 15.4971599500000004 -0.3541840600000000 14.9334854099999994
 15.2887427200000001  2.0710952300000001 17.4269678399999997
 15.2502225899999999  4.4262019600000002 19.2519344799999992
 15.3944721500000004  6.5789994800000002 -0.1039301100000000
 15.7077089099999991  8.8172055700000005  2.2627439300000001
 15.2542151399999995 10.9910528400000000  4.2542319700000002
 15.3160539300000007 12.9703308600000007  6.3980006300000003
 15.1930580200000005 15.1387885499999992  8.6268695900000001
 14.8346519699999995 17.0002641600000004 10.5709782600000004
 15.1501148400000005 19.5883454099999987 12.9549923800000002
 17.3141556899999998 -0.0820888900000000 17.5575500700000013
 17.2888513999999986  2.1941470199999999 19.5764662600000001
 17.4751758700000011  4.4330537999999997 -0.0625140400000000
 17.4627429300000010  6.4914230999999996  2.3042337700000002
 17.4280627700000004  8.4938516400000008  4.5504042099999999
 17.4876017399999988 10.8919670199999992  6.6766722999999999
 17.0537248999999989 12.9151400499999998  8.4768934900000001
 17.4003075100000011 15.2829266300000004 10.9622039699999991
 17.4168958700000012 17.0558312200000017 12.9016971500000004
 17.5782666499999998 19.4421072600000002 15.2763275299999997
 19.5528752700000013  0.0005681900000000 19.5164376600000011
 19.5347494300000015  1.9832208200000001 21.7745174400000003
 19.3347468000000013  4.5448558300000004  2.0361929000000001
 19.5455685499999987  6.1736265799999996  4.6392780000000000
 19.6602041900000017  8.8312053200000005  6.4181716700000004
 19.7526663999999990 10.9143394600000008  8.7867751199999997
 19.6263802699999985 13.2968184100000002 11.0146756700000008
 19.2551229200000016 15.1337344700000003 13.1872967899999995
 19.4071438000000001 16.9902327200000016 15.0896831000000002
 19.7806431700000012 19.5634142900000008 17.1329158200000009
  2.4756276000000002  2.0067082200000002 -0.0012014400000000
  2.1331728299999999  4.4440305100000002  2.3457237900000001
  2.1130026399999999  6.5794343099999999  4.5797390399999998
  2.1293047899999999  8.3976916700000004  6.5662183399999998
  2.3924066000000002 10.4221094300000008  8.6558856700000000
  2.3991954000000000 12.6854876700000005 10.8329947499999992
  2.2168695800000000 15.2643222000000005 13.1542026799999991
  2.6329928699999998 17.6698974299999989 15.2404904499999994
  2.1659126299999998 19.5483862799999990 17.4490765100000012
  1.9766176099999999 21.8437536600000008 19.6949531299999983
  4.3789713499999996  2.3171857700000000  2.2602119400000000
  4.4316704900000001  4.3578910500000001  4.6631573599999996
  4.2622735900000004  6.6211789899999998  6.7548195399999997
  4.2759966100000000  8.8196273000000005  9.0653860999999996
  4.3471925400000000 10.5158168900000000 11.1520940999999993
  4.4460213299999998 12.9623626200000004 12.9962645800000001
  4.1479040400000002 15.2073087200000003 15.4443731000000000
  4.2836243100000004 17.7911517400000001 17.4343550799999996
  4.1589758600000000 19.4789496900000003 19.6697965799999999
  4.0381863400000002 21.3709775300000011 21.7391411900000016
  6.9136917699999998  2.2897990500000001  4.4852039000000001
  6.4926037699999997  4.5025105500000002  6.6537985900000001
  6.6460957799999996  6.5367302900000004  8.7963516899999998
  6.7189304999999999  8.6638645400000005 10.7905629600000008
  6.7099500000000001 10.8199787199999999 13.0554220599999997
  6.1100180699999997 13.5023142200000006 15.5080793999999997
  6.6474716000000003 15.8307610400000005 17.5240171800000013
  6.6432371300000002 17.6115662499999992 19.3971074100000003
  6.3307919000000004 19.3896796900000012  0.0278228600000000
  6.5638407100000000 21.4926595599999999  2.2621308999999998
  8.4781525700000007  2.4874424600000000  6.5961381699999997
  8.8679596299999996  4.4258564900000001  8.7838465499999998
  8.9714966599999997  6.4228692799999996 10.7807890700000009
  8.4306420200000005  8.5223640799999991 13.0793146000000000
  8.5668305700000005 11.0342117000000002 15.2369416700000002
  8.3945999600000007 13.1036823800000004 17.2712023399999985
  8.6808756500000008 15.3161664900000005 19.6029059799999992
  8.5071971400000006 17.3266727299999985  0.1073443000000000
  8.7789266799999996 19.5600508099999999  2.0790886899999999
  8.6196305199999994 21.7621019800000006  4.5513279400000002
 10.9331731100000002  2.0661927800000002  8.6640885399999998
 10.9448555499999998  4.1174107199999996 10.9664098800000005
 10.6980616699999995  6.1835173299999999 12.8946936599999997
 10.8391271099999997  8.6513031399999996 14.7166116200000001
 10.7434517799999991 10.6987483599999997 16.9514853099999989
 10.7207461899999998 12.9765441599999996 19.3531890900000008
 10.8018890499999998 14.9677392800000000  0.0228775200000000
 10.8525505500000001 17.2859365499999988  1.8959401100000000
 10.7782087999999998 19.4433148200000012  4.1560609399999997
 11.0259461900000009 21.5923525000000005  6.3767942499999997
 12.7980186499999995  1.9866548100000001 10.7674257499999992
 13.1705374299999995  3.8737962499999998 13.2804634499999992
 12.9882236100000004  6.4059488099999999 15.4495355100000005
 12.7932739899999994  8.6432039700000001 17.1030376199999985
 13.0065550999999999 10.9430815500000005 19.1222939300000014
 12.9206526099999994 12.9908316300000006 -0.3556822000000000
 13.1013386900000004 15.1193842200000006  1.9417805600000000
 12.9255360899999996 17.3308368399999999  3.9792937700000000
 12.8014346700000008 19.2589357899999989  6.4507558999999999
 12.9282899800000006 21.7188165799999986  8.5994951600000000
 15.3261491999999997  2.3624450299999999 13.3674717800000007
 15.3380911900000001  4.4369451900000003 15.0883318899999992
 15.3030104199999997  6.4903542999999999 17.2811219099999995
 15.1023675199999996  8.6660942700000003 19.2795040399999991
 15.4933490400000000 10.6594747400000003 -0.1597460500000000
 15.0503152999999994 12.6401234900000006  1.9092253600000000
 14.9088373199999999 14.8761993900000000  4.1548636400000003
 15.3639629899999992 17.4402300200000013  6.2219692499999999
 15.2145896999999994 19.4116097699999983  8.6483356300000001
 15.0521862300000002 21.7668458300000012 10.7381348400000007
 17.0804348899999994  1.7748902600000001 15.2776768900000004
 17.3501321799999992  4.3799036600000001 17.4198424600000017
 17.5486052500000014  6.2846231499999998 19.4682557900000006
 17.3087372100000003  8.4543582300000004 -0.2279110200000000
 17.6320862500000004 10.7219526900000002  2.1202775599999999
 17.1424525199999991 13.2550931500000004  3.9940933699999999
 17.3977035899999990 15.1940359500000000  6.3190070599999997
 17.2645701299999992 17.1759451900000002  8.6407971900000007
 17.2349870900000006 19.3551446300000016 10.9916081899999991
 17.5279413800000015 21.2060140900000000 13.1652111400000003
 19.4915090199999987  2.0668953100000000 17.5467961300000006
 19.7564403199999994  4.3393519400000002 19.7967667700000014
 19.4355250599999998  6.7874391999999997 -0.1700231600000000
 19.4235016300000005  8.7364971899999997  2.3582415999999999
 19.4955617100000005 10.8681158900000003  4.2734590900000002
 19.7717541799999985 12.9134783500000001  6.4018369599999998
 19.4557418499999990 15.3009207600000003  8.7083742700000002
 19.6543372699999992 17.3675653499999996 10.9252631900000008
 19.6113019699999995 19.2692354700000017 12.9976438099999996
 19.8132623599999995 21.7141241399999991 15.0836633500000001
 21.5872756700000004  2.0832104100000000 19.4963014699999988
 21.8109563000000009  4.3317411699999999 21.7936544499999982
 21.6404171599999984  6.6668539500000001  2.1819444899999998
 21.8099188599999998  8.5895345600000006  4.5309815899999997
 21.7016458800000009 10.6394263299999992  6.5875450899999999
 21.9010348899999983 12.8383620700000005  8.8607762900000004
 22.1306197599999983 14.8268532600000000 11.0023263000000000
 22.0163546799999992 17.3183942900000005 12.9757895300000001
 21.6370805799999992 19.1175868800000011 14.9011001499999995
 22.0984972299999995 21.5679863000000012 17.2440162100000016
  4.2448411799999999  4.3434018999999999 -0.1911911100000000
  4.5974872400000004  6.4320021900000004  2.0989081900000000
  4.1031016100000004  8.6911588399999999  4.1171874700000002
  3.9007394000000000 10.7438462200000000  6.3785817500000004
  4.1735663499999998 12.9827556000000008  8.6388306900000007
  4.3535734699999997 15.2766680200000007 10.5081872099999991
  4.2932193099999996 17.3420605700000010 12.6919397400000005
  4.3672233100000000 19.6351367199999984 15.1388856000000001
  4.0901456300000003  0.0260927500000000 17.3841812400000002
  4.3893979600000002  2.2120212499999998 19.4664363700000003
  6.5694141799999999  4.4504809099999996  2.2657217900000002
  6.4796403199999997  6.7538927700000002  4.4702798699999997
  6.0002463199999996  8.3341359500000003  6.6325313299999999
  6.2816729699999998 10.6535354499999997  8.5648372899999998
  6.7248333000000002 12.8479923899999999 10.6108206200000001
  6.1205388999999997 15.1837478499999996 12.9997412299999997
  6.0094756800000004 17.9671828399999995 15.2649002399999993
  6.4165874599999997 19.3975307699999995 17.6128319799999993
  6.3975887100000000 -0.2245187000000000 19.6354693400000002
  6.3451994100000002  2.4264100900000001 21.5520045399999987
  8.8423039800000005  4.6089232600000001  4.3983559999999997
  8.5532352500000002  6.4458985100000001  6.5265269799999999
  8.6042557899999998  8.7325891799999997  8.7031485100000001
  8.9383485500000006 10.9335238300000004 11.0811395600000004
  8.6721769200000001 13.1094882100000003 12.9552201900000004
  8.1369225200000006 15.4295152499999997 15.0683392299999994
  8.5534642000000005 17.5295054499999985 17.4423167100000001
  8.8075314000000002 19.4968792399999984 19.6645588999999994
  8.9834993799999996  0.1203350700000000 -0.4233589600000000
  8.6501267800000008  1.9896654899999999  2.2806440700000001
 10.7886546499999998  4.3889266700000000  6.2184246900000000
 10.9662766600000001  6.2833891800000004  8.6028941200000002
 10.8052887299999991  8.3341125700000003 10.8098734299999997
 10.9939030500000001 10.9841519299999995 12.8921512099999998
 10.6991845300000001 13.1794936400000005 15.3245530999999993
 10.6929303200000003 15.3915641599999997 17.3700407100000014
 11.0199801900000001 17.4094329999999999 19.7266956200000010
 11.2189184700000002 19.5298777600000015 -0.0369902600000000
 10.7673425599999995  0.0052021500000000  2.1320662100000001
 10.8428820699999999  2.3608055800000001  4.0909936900000003
 12.9258644100000009  4.1663366599999998  8.6540530199999992
 12.9067626999999998  6.4303520100000000 10.8203974499999998
 13.0524059900000005  8.7375967400000008 12.8858847200000000
 12.9206664199999999 10.7546693900000001 15.2053033099999997
 12.9904092900000006 13.0229880399999995 17.1793349599999985
 13.1660537600000005 15.0747226899999998 19.1535692900000001
 13.2327391999999993 17.1635351800000002 -0.1306588100000000
 13.1012208599999997 19.5119602900000011  2.0148274300000000
 12.7701751300000002 -0.0032605200000000  4.1962146100000002
 13.1357622599999999  2.1996445699999998  6.3562217299999997
 15.0551867900000005  4.2786818400000000 10.8969929099999998
 15.2422862099999996  6.5773927900000002 13.0285721100000007
 15.2823870700000004  8.8547554799999997 15.3639473800000008
 15.1353518400000002 10.5650987000000001 17.3130314699999985
 15.3914142799999993 12.7691496999999998 18.9833313299999986
 15.0374216100000009 14.8706553100000001 -0.2262074200000000
 15.0134725200000005 17.2639750300000010  2.1472421100000001
 15.0663847499999992 19.7660166799999999  4.1426042900000004
 15.0723517299999994  0.3307807100000000  6.3227281199999998
 15.1161613799999994  2.1728931600000001  8.3981748500000002
 17.4066733099999986  4.2479340299999997 13.3511524700000006
 17.3577669400000012  7.0231741200000002 15.2308082000000002
 17.5714689700000015  8.5569575100000002 17.6360622499999984
 17.3032036299999987 10.6210175200000005 19.3216192599999985
 17.1378671800000006 12.7350236999999993 -0.2668092000000000
 17.3380509399999987 14.9227935699999996  2.0256069000000001
 17.3318288699999989 17.1655939099999983  4.3977026400000003
 17.2831504799999998 19.7061003499999998  6.5850455600000002
 17.0933968999999983  0.0909817800000000  8.4860664200000002
 17.2429837600000013  1.9659051599999999 10.8526171100000006
 19.1508235800000008  4.3328854899999998 15.4563853400000006
 19.5300564600000008  6.4873795899999998 17.1310749700000002
 19.8025507199999993  8.5858158400000004 19.3948524900000017
 19.8682318699999989 10.6651143699999995 -0.1251319400000000
 19.6417257700000008 13.0032432799999995  1.9756771600000000
 19.4018900400000014 14.9790470800000008  4.0967519499999998
 19.6464186400000003 17.4991416400000013  6.0944639699999996
 19.0772132100000000 19.5890546199999989  8.6990754399999997
 19.4859205700000011 -0.2444049200000000 10.7961513199999999
 19.2017356700000015  2.2070890200000002 13.2061776700000006
  0.1863729800000000  4.1495245199999999 16.9592903499999998
  0.3416855400000000  6.2729632400000002 19.2972806599999984
  0.2648356300000000  8.5672674200000003 -0.0363009300000000
  0.0976186600000000 10.6830728500000003  2.4196072599999998
 -0.1219087100000000 13.1479018700000001  4.5187163000000004
 -0.2005861900000000 15.0198369500000002  6.5663675100000001
  0.0865283100000000 17.1880619099999983  8.8337992300000003
  0.0129402500000000 19.7283070699999996 10.6258729600000006
  0.0693517800000000  0.1801879000000000 12.8043332799999998
 -0.1299258100000000  1.9947744599999999 15.1978379300000004
  1.9420940900000001  4.0467554799999998 19.5593234299999992
  2.3343528500000001  6.4799686899999998 21.6933816999999998
  2.2209203300000002  8.7224859200000004  1.9743223900000000
  1.7745200400000001 10.7324117799999996  4.5720898700000001
  1.9783422900000001 12.6250289599999999  6.7452623500000000
  1.8222853100000000 15.1173344200000006  8.7455001100000000
  2.2767082900000002 17.7418501900000010 10.7556979300000002
  2.3229190100000001 19.5629494500000014 12.7688993400000008
  2.3027333500000000 -0.2152198200000000 14.8575821799999996
  2.3159795600000002  2.2739911899999998 17.3901249299999989
  6.1094473000000002  6.5243215200000000 -0.2072203300000000
  6.4977932100000002  8.5480886900000002  1.7841636000000001
  6.4820103199999997 10.5204427999999997  4.1999935500000003
  6.4304233899999996 12.4945207000000007  6.1589922799999997
  6.4766454299999996 15.0888952700000001  8.6419701500000006
  6.5618765899999998 17.4581994999999992 10.6581597800000001
  6.5738308200000004 19.6278543399999990 12.8196888599999994
  6.2598003400000000 -0.3010452200000000 15.4264522100000008
  6.1650049300000003  2.3624518499999998 17.3802882600000004
  6.4067784799999998  4.6227821999999996 19.5821043999999986
  8.3832111200000003  6.5906508099999996  2.0981806600000001
  8.8401214400000008  8.6295875599999992  4.2706573499999996
  8.7949955200000005 10.3880730000000003  6.3343472700000003
  8.6119350499999996 12.6916233799999993  8.4995762799999994
  8.7310721200000003 15.4842924699999998 10.9056595900000008
  8.4418608099999997 17.3528297900000013 13.0461417999999991
  8.9227748200000008 19.6728854999999996 15.2282678600000008
  8.7209750899999996 -0.0026111200000000 17.5128979899999990
  8.6194910700000005  2.3390505199999998 19.5018696100000000
  8.5849526899999997  4.4823330500000003 21.8263639699999992
 10.6788428999999994  6.7604558299999997  3.9196458700000001
 10.8789385700000008  8.5146229800000004  6.4365044500000002
 10.7007927200000008 10.8988821199999997  8.6410590900000006
 10.7799052000000000 13.1443363099999999 10.8537215800000002
 10.7194911299999998 15.5574071600000003 13.0455922799999993
 10.7431223800000009 17.4399880799999991 15.3156028200000005
 10.7288904100000000 19.4052790000000002 17.5225194799999997
 10.9555481199999996  0.0812158700000000 19.4387417900000017
 11.2152685400000003  2.2564739800000000  0.0760847900000000
 10.8598994300000005  4.2269630300000003  2.2558864000000001
 12.8698837499999996  6.3223652000000001  6.3657971000000000
 12.4469935899999999  8.6917760699999995  8.5877474100000004
 12.9293616700000005 11.1373626399999992 10.7178495300000005
 12.8467510499999999 13.0508762899999997 13.3628322100000005
 12.7982728899999998 15.4808913199999996 15.0286406199999991
 13.0172994000000006 17.4946907500000002 17.6730257500000008
 13.0253835999999996 19.6170179000000005 19.7511145100000007
 13.2333881499999997 -0.0029325900000000  0.1705537700000000
 13.0745762600000006  2.0371381199999998  2.3144379200000000
 13.0274002299999996  4.3690158900000000  4.1863677800000003
 14.8780741200000008  6.9354671300000001  8.6123077699999993
 14.8198399199999997  9.0822970099999996 10.7952821399999994
 15.1137127099999997 11.0604058100000007 12.6199176699999995
 14.8028889299999999 13.3633743999999997 15.0950405100000005
 14.9884594199999999 15.4081096100000003 17.3575839800000011
 15.1706439900000003 17.5459271699999988 19.4196831000000003
 15.1736005299999999 19.4036467799999990 -0.1514138900000000
 15.3434183900000001  0.1068798000000000  2.3355000800000001
 15.1837120500000005  2.0695654100000000  4.1823595999999998
 15.2554701399999999  4.0026843300000001  6.4946102000000003
 17.1070661100000017  6.3398266100000003 10.9082924600000002
 17.2377274699999994  9.0744747100000005 12.9246463499999997
 17.3322160600000004 11.1139569100000006 15.4002795500000005
 17.4150090199999994 13.0748260300000005 17.4273826199999995
 17.2364091299999984 15.3857265999999999 19.6767979599999983
 17.4607311000000003 17.4010292699999987  0.1560151900000000
 17.2979137200000004 19.2381538799999987  2.3342227100000001
 17.7511084900000000  0.2326831700000000  4.1817903999999997
 17.7280222099999989  2.2258890299999998  6.5752143099999998
 17.2786950799999985  4.5412713499999997  8.8348037500000007
 19.2250040400000017  6.4556703100000004 13.0300744999999996
 19.4156596800000010  8.5308304100000001 14.8696047500000006
 19.4054172899999990 10.9687437400000007 17.1808948299999997
 19.5389465099999988 13.0435823000000006 19.3272069299999991
 19.2762923400000012 15.0374324799999997  0.2439107400000000
 19.5788383400000008 17.0939060400000002  2.3951822800000002
 19.5447264800000013 19.4627830199999998  3.9772139399999999
 19.7757444999999983 -0.0429690000000000  6.2533259799999996
 19.4410742799999987  1.8386984700000000  8.8385704500000006
 19.4331980000000009  4.2845338100000001 11.0705920899999999
 -0.3763602600000000  6.7843010899999996 15.1551437599999996
  0.1566305000000000  8.3616289100000003 17.0076163899999990
 -0.0477393000000000 11.0358014099999995 19.0011384700000008
 -0.0433116000000000 13.1834199099999996 -0.1523959000000000
  0.0405235000000000 14.9780304999999991  2.2395378899999998
  0.0624377500000000 17.2746391700000004  4.3283197900000001
 -0.1279658300000000 19.3901889099999991  6.8948962500000004
 -0.1095499000000000  0.1672182500000000  8.7628309299999998
 -0.1472550800000000  2.4156374500000002 10.8333131900000001
 -0.0052794400000000  4.4806285099999998 13.3579487100000005
  2.1747093700000000  6.1412934999999997 17.4042381699999993
  1.8197998799999999  8.7146259100000005 19.2042770599999990
  1.9769162000000000 10.8036369800000003 -0.1236631300000000
  2.1463747500000001 12.9087828699999996  2.3167268499999998
  2.0742614499999998 14.9640132200000000  4.7178690899999998
  2.2744284499999998 17.0656585800000009  6.6979712400000002
  2.2190482899999999 19.5078771800000013  8.8298456299999994
  2.1699931700000001  0.1521739500000000 10.6934554300000002
  2.2927539399999999  2.0725620800000000 12.9850534500000006
  2.4173550399999999  4.3206143399999997 14.9699630799999994
  3.9318575000000000  6.3963635200000004 19.3340781600000007
  4.0885014899999996  8.8688815999999999 21.2354623899999986
  4.2462264999999997 10.8746751300000000  1.7390541900000001
  4.3058431400000003 12.8083605800000004  4.2653097200000003
  4.1666636199999996 14.8425657399999995  6.5368875299999996
  4.1900072000000002 17.2071023600000004  8.7263861800000004
  4.6359951500000003 19.5443762200000002 10.4340819000000007
  4.5214085300000004 -0.0913146400000000 12.6795604700000002
  4.2271905299999997  1.9524658500000001 15.1250386900000002
  4.2160211700000003  4.3639671699999996 17.1342420699999991
  8.6640121000000008  8.7393003199999999  0.0519216400000000
  8.8124958499999995 10.8836604900000005  2.0735461200000000
  8.2537085799999996 12.6639981400000003  4.1739950900000000
  8.4898953899999992 15.0562935200000005  6.1468174099999997
  8.6248457900000002 17.4882652800000002  8.2773397800000001
  8.6965980300000005 19.4007388300000017 10.6230761600000001
  8.9101715699999993  0.1473375000000000 13.0804326199999998
  8.6138427899999996  1.8897922400000000 15.3684629099999999
  8.5719676000000007  4.3097282999999997 17.4425084599999991
  9.0191890499999996  6.5069648300000003 19.2673743299999991
 10.7220594699999996  8.5278523300000000  2.0326561500000002
 10.9497363700000001 10.5425875500000004  4.1401527800000002
 10.4861825900000003 12.9661407900000007  6.0658835099999999
 10.5320256699999995 15.0935310699999992  8.6217686199999992
 10.7842625800000000 17.1163189399999993 10.5504862700000004
 10.7919117599999996 19.6318865299999992 13.0294921200000005
 11.0602190999999994  0.0020722100000000 15.4032757799999995
 10.9575773900000009  2.1618834800000002 17.7699347699999990
 10.9899944600000001  4.2751026599999999 19.5624117099999992
 10.9864478499999993  6.4005208199999997 21.8416657500000007
 13.2282688600000000  8.7552771600000003  4.5517994899999996
 12.8897627000000004 10.8992109199999998  6.0568713199999999
 12.6057004599999996 13.2116312199999992  8.0088538499999995
 12.9393438700000001 14.9359074399999994 10.7805241600000006
 12.7440777399999998 17.2278441999999998 12.8264311299999996
 12.9285407600000006 18.9852062599999982 15.2041775099999992
 13.4795847700000007 -0.3101553200000000 17.3686278099999996
 13.1134339799999999  2.2522500499999998 19.4287883599999986
 13.2850090800000000  4.7425650199999998  0.0078095900000000
 13.1880581200000009  6.8486902000000001  1.9980217600000001
 15.2657860900000006  8.7168016500000007  6.4576020400000003
 14.7775938100000008 10.8083196699999995  8.4595038799999998
 14.7584177099999998 13.0271982299999998 10.8992944000000005
 14.9674794400000000 15.1604858999999994 12.8237006400000002
 15.0541225999999995 17.4476877200000011 15.4379177399999996
 15.3686592999999991 19.4979403100000006 17.1775257199999984
 15.1781779399999994 -0.1224422400000000 19.4128585800000018
 15.0672177800000000  2.1640216500000000  0.0154397700000000
 15.2274966599999999  4.6430620400000002  2.1388951899999999
 15.2157772100000006  6.4155430800000000  4.6205271500000000
 17.4166657499999999  8.6097378899999999  8.8335261999999997
 17.0419080200000010 11.0964309399999994 10.5475294500000008
 17.1936999200000002 13.1214874300000002 12.8219863699999994
 17.1304298099999990 15.0558826400000001 15.5085444999999993
 17.7289245000000015 17.3032497800000016 17.5273991900000006
 17.7739326999999996 19.5027986200000001 19.6373020599999997
 17.4317631999999989  0.0277671800000000 -0.1604062800000000
 17.2228787399999987  2.5933768700000002  1.8192366400000000
 17.4903166100000007  4.1049583700000003  4.4571563500000000
 17.4031879200000006  6.5939162600000003  6.6491836299999996
 19.4532768400000009  8.5037893899999997 10.7983890500000008
 19.4095499300000007 11.2377314800000008 13.0694302199999992
 19.2812459499999989 13.2324832699999995 14.8814817099999992
 19.5588309199999983 15.3045673099999995 17.1661618800000007
 19.9656082499999989 17.4104640599999989 19.4080346699999993
 19.3778833199999987 19.5403743600000013  0.1740051900000000
 19.3389419099999991  0.0103650200000000  2.1494436399999999
 19.5094648500000005  2.4341612499999998  4.0800305200000002
 19.3405001399999996  4.6170677199999997  6.9343769599999998
 19.6231893100000008  6.7301867299999998  8.9155949600000000
 -0.0853760900000000  8.6466092900000007 12.9576063700000006
 -0.3111859100000000 10.4164004200000004 15.1732179499999997
 -0.3054548200000000 13.5622437999999992 16.9267520699999992
 -0.3557872200000000 15.1112068799999992 19.4989930200000003
  0.0921224700000000 17.4428814699999997  0.4897891200000000
  0.1838353600000000 19.3169979299999994  2.2819773099999998
 -0.0083644000000000  0.2554716500000000  4.5694218900000001
 -0.0871573700000000  2.5071551099999998  6.4322880299999996
 -0.1915824800000000  4.3430167800000001  8.9005423599999993
 -0.2566510700000000  6.5319476700000001 11.1685260799999995
  2.0323939800000002  8.5348469599999994 15.4080567399999993
  1.9781708600000001 10.8605702900000001 17.0957479100000000
  1.7611111900000000 12.9567158700000000 19.3137077300000009
  2.0195262500000002 15.0649023199999998 -0.1365849300000000
  2.1893927899999999 16.9568608099999985  2.3182116000000001
  1.9096300100000001 19.4756711500000002  5.0381354700000003
  2.2277924699999998  0.0530511400000000  6.6416868700000000
  2.1813263900000002  2.3779423099999999  8.8409566599999998
  1.7020162900000000  4.5582639800000004 11.2579660300000004
  2.1858544499999999  6.6452564000000001 13.0720994400000006
  4.2726605600000003  8.8418980699999992 17.3826716899999987
  4.2215608800000002 10.7228911999999994 19.2374593099999984
  4.1471545399999998 12.9860371200000007 -0.0581973000000000
  4.2680159099999999 15.1219445799999992  2.4539295999999999
  4.3063627999999996 17.6824594300000015  4.6461613100000001
  4.3600970999999999 19.5569726899999985  6.7894146299999996
  4.4296165199999997  0.3105421500000000  8.9743842699999998