Li                                      
   1.00000000000000     
    22.0829999999999984   -0.0000000000000006    0.0000000000000000
    -0.0000000000000006   22.0829999999999984    0.0000000000000000
     0.0000000000000006    0.0000000000000006   22.0829999999999984
   Li
   500
Direct
  0.0071278069102902  0.0117544387085076  0.9958380890277567
  0.0031470751256606  0.1014668618394268  0.0996549907168429
  0.9997549345650469  0.2049229325725648  0.2281010419779932
  0.9861049236969635  0.2972363021328590  0.3254293488203572
  0.9838837852646805  0.4013568428202703  0.4315192356111055
  0.0040574623013185  0.5171530045736574  0.5016497722229758
  0.0243754901960784  0.5911587157541973  0.5924371706742733
  0.9983811406964662  0.7120620291627020  0.6846243504052865
  0.9846102947969015  0.8197304609880902  0.8141985830729510
  0.9818919870488614  0.8992945410496773  0.8977815084001293
  0.0911436571118074  0.0038481347642971  0.1031421016166263
  0.1068969053117783  0.0952131929538567  0.2146199144138023
  0.1111450527555107  0.1950947602227942  0.3093113000950964
  0.1015430195172726  0.3054169736901713  0.4148950532083475
  0.1252815631934041  0.3920613118688578  0.5127816116469717
  0.1174246529004179  0.4947997590907036  0.6084050776615513
  0.0870871466739089  0.5971448159217516  0.7202849101118503
  0.0897119218403262  0.7163289811166962  0.7913026608703504
  0.0887283919757280  0.8085525435855629  0.8945790531177806
  0.1024150817370852  0.8994494122175425  0.9950881949916237
  0.1965110003169883  0.9850308314087783  0.1982903233256366
  0.2060847615813088  0.0824109423538459  0.3179093538015678
  0.2183598279219297  0.1924722053163066  0.4170241230811058
  0.2219151772856947  0.3032574183761270  0.5201950491328162
  0.2096881786894897  0.3849124475841137  0.6080820115020629
  0.2053821020694642  0.5000423407145789  0.6893623918851617
  0.1947357845401427  0.6092065385137886  0.7872114187383943
  0.2021419752750973  0.7189820681066905  0.9026560988090395
  0.1896330974052418  0.8091006946519954  0.9982062926232871
  0.1966867395734297  0.8978274401123016  0.1000007716342921
  0.3055888144726708  0.9694934546936551  0.3146878236652597
  0.2823609917130838  0.0941393850473204  0.4133186292623279
  0.3200324407915573  0.1982460992618726  0.5313511012996415
  0.3213391486663966  0.3089751646062595  0.6280409563917928
  0.3070056024996575  0.3910912149617332  0.6759846755422743
  0.2998940945523714  0.5001236761309613  0.7857668056876363
  0.2845510143549319  0.5908150110945058  0.9036111809989578
  0.2926771290132706  0.7150423198840770  0.9648967871213117
  0.3097067413847725  0.7877685491101758  0.0925864678712145
  0.3141219621428277  0.8932556188017955  0.1893732441244396
  0.4002661599420350  0.0238131268396486  0.3861399492822528
  0.3989072549019639  0.0859875401892864  0.5074821124847162
  0.4019596889009662  0.1828949182629174  0.6295048340352309
  0.4341265480233645  0.2977125318118041  0.7133306416700620
  0.3885151365303656  0.4113818883303892  0.8083869125571681
  0.4014781084997523  0.4965268419145943  0.9002009165421399
  0.3849733224652425  0.6006570751256604  0.9866596739573410
  0.3651547384866163  0.6749168382918995  0.0757627523434294
  0.4098955843861773  0.7751180700086024  0.1820966032694855
  0.4041983208803117  0.8938356803876317  0.2989392673096987
  0.5010837617171546  0.0067175157360850  0.4942630521215392
  0.5217795761445458  0.0902048557714110  0.6118734791468583
  0.5161664592673105  0.1781386872254700  0.6835742276864565
  0.5202938047366743  0.3157967518000291  0.8126497676946087
  0.5016039890413424  0.4110573989041342  0.9158826884934115
  0.5014418045555402  0.5087904564597210  0.0168858293710059
  0.4841081270660723  0.6001796526740009  0.0981650106416723
  0.4908803681565033  0.6927717474980781  0.1771859484671481
  0.5201146243716863  0.7878699574333226  0.2782322623737699
  0.5002801073223750  0.8956713702848376  0.3937461739799843
  0.5801212973780707  0.9822958166915754  0.5955539161345840
  0.6075605864239435  0.0989418539147735  0.7226478952135125
  0.5965435950731361  0.1975307268034214  0.8191810890730409
  0.6094697070144477  0.3227161486211116  0.9040216356473323
  0.5851339170402596  0.4011404591767445  0.0293913480958210
  0.6121819684825454  0.4997313086989976  0.1198893053480035
  0.6048773250916994  0.6047259389575714  0.1929993465561779
  0.6119035171851621  0.6966913643979566  0.2790950450572822
  0.5992338645111630  0.7931327373998087  0.3898408572204843
  0.5819137626228326  0.8840196114658312  0.4871805868767822
  0.6941569845582549  0.9814284114477232  0.6868776538513757
  0.6941736000543415  0.0966944993886685  0.7939351369832011
  0.7062087664719456  0.2144116573835078  0.9070382814834943
  0.7082007145768259  0.3032461431870672  0.0178573010913397
  0.6966892686682087  0.3943260693746353  0.1018409378254788
  0.7065954037042061  0.5062990073812443  0.1746953031743885
  0.7081450699633223  0.6281362355658189  0.2891304723090187
  0.6885701938142432  0.6900726051714017  0.3940743920662939
  0.6864318575374710  0.7867181483494079  0.5112511742064001
  0.6702715912693051  0.8673612471131662  0.6066232328035142
  0.8024991137979427  0.0215848036951485  0.8206622116560283
  0.7902270302947940  0.1027236457908813  0.9152120635783163
  0.8120219951999275  0.1917362966988208  0.0060703808359364
  0.8130101281528752  0.2844719268215385  0.1231295648236213
  0.8059409459765448  0.4014268278766480  0.2176499900375859
  0.8065880482724239  0.5133852361545053  0.2953261219037273
  0.8245497676946059  0.6085719526332483  0.3980038459448423
  0.8071148367522554  0.7089513897568267  0.4891064660598659
  0.7898797948648308  0.8066390318344432  0.6084736847348609
  0.7991054634786963  0.8988302377394390  0.6906022963365501
  0.8889395485214848  0.0274911597156162  0.9134478884209543
  0.9107996630892572  0.1282460992618724  0.9903723257709558
  0.9087169234252599  0.2062118738396066  0.1174566327038917
  0.8844914291536483  0.3026074396594680  0.2429788715301342
  0.9076034325046436  0.4089581098582613  0.3160521926368673
  0.8980631608024296  0.5098916487796075  0.3861363782094855
  0.9059553181180107  0.5872477525698514  0.4855950604537398
  0.9181229565729296  0.6885204827242646  0.5885743780283477
  0.8928317053842321  0.7987720418421418  0.6938553054385750
  0.8770481374813173  0.9228966666666665  0.7860220998052796
  0.0923700824163376  0.0834442091201382  0.0008804397047513
  0.0842263062083930  0.2028073889417215  0.1082057614454541
  0.0840265607028030  0.2998622496943355  0.2210165810804696
  0.1128778888737969  0.3978751166055332  0.3194005624235814
  0.1069253747226355  0.4985486029977793  0.4145217927817768
  0.1064773246388597  0.6215057157089134  0.5161813173029017
  0.1085595136530344  0.7170265652311727  0.6190729031381608
  0.0880107340488152  0.8163910071095444  0.7120600978127953
  0.0959080011773779  0.9118831141602115  0.8138222836571103
  0.1042422361092221  0.9920611832631465  0.9049993184802787
  0.2022346882217079  0.1110979300819608  0.1123821944482160
  0.1820384214101338  0.2364817081012518  0.1913328587601342
  0.2128735588461694  0.3087445813521725  0.3134995915410030
  0.2216875066793449  0.3975996132771797  0.4035257754834021
  0.2235336910745858  0.4801693008196324  0.5015260874881164
  0.2143264185119804  0.6049088339446627  0.6096801883802030
  0.1969917570076518  0.7049565072680366  0.7064946257302012
  0.2077891504777440  0.8150853172123362  0.8140549812072635
  0.1991644364443204  0.9133327826835114  0.9101664393424826
  0.1927995698048264  0.0179683231445011  0.0229343626318865
  0.2924798600733567  0.1145962237920557  0.2205809102024148
  0.2746987587737166  0.2098153475524143  0.2940033328804930
  0.3021193406692930  0.2909230729520473  0.4115377344563669
  0.3436655028755169  0.3835574749807549  0.5064516447040717
  0.2920668138387015  0.5078438527374018  0.5881412933025416
  0.3192047122220742  0.6192655703482330  0.6920355517819132
  0.2799254956301240  0.7123828537789265  0.8064488375673591
  0.3064963523977724  0.8372743128198152  0.9180134537879852
  0.2954148082235193  0.9054951301906442  0.0138627600416612
  0.2964968088574906  0.0178301190961392  0.1106319924829080
  0.3802565978354409  0.1072926386813364  0.3059966970067478
  0.3742630272155054  0.1902428886473757  0.3916047285242072
  0.4047093823302959  0.2684430571027505  0.5055816487796037
  0.4276977838156029  0.4176429620069726  0.5909567816872681
  0.3997604944980324  0.5314091753837786  0.6890598727527930
  0.3918544323687883  0.6039505067246296  0.8040548435448116
  0.3974084766562527  0.7086326106054415  0.8958984309197149
  0.4032002726078900  0.8205433324276612  0.9973022198070893
  0.3923580378571785  0.9161628220803308  0.1075956142734213
  0.4043899791694940  0.0130696775800416  0.1977947113163978
  0.4926482343884402  0.1081114834940919  0.3982251759271804
  0.4985271099941144  0.1817969601050606  0.5012820341439124
  0.4967021238056404  0.3012591663270356  0.6084403441561363
  0.5194682212561688  0.4077268890096448  0.7104365756464261
  0.4899998917719515  0.5071075904541971  0.8008277652492879
  0.5076758982022369  0.6060342018747420  0.9182999673957326
  0.4954039976452478  0.7075834764298321  0.0151024724901490
  0.4836701200018112  0.8085045002943474  0.0913858411447706
  0.5247811112620582  0.8967282131051064  0.2019625100756244
  0.5045867305166851  0.0023232373318862  0.2961204433274460
  0.6021157369922534  0.0970992777249435  0.4780865978354356
  0.6046758660508118  0.1857793578771023  0.5971514680976284
  0.5980532092559869  0.2852442806683868  0.6976518874247191
  0.6040538681338603  0.4028009283158980  0.8155599705655945
  0.6188275596612769  0.4844774736222419  0.9071737820948229
  0.5966205348005289  0.5896521736177149  0.0236932640492711
  0.5905779174025270  0.7123431535570361  0.0926785631481195
  0.5947899827921930  0.7939510351854366  0.1862191500249040
  0.6065607711814494  0.8995026875877343  0.2938734216365546
  0.6015399601503404  0.9876361649232450  0.4096512199429441
  0.6837023325635130  0.1048887134900127  0.5893487066974572
  0.7024456758592592  0.1960596191640605  0.6822229601956238
  0.7131697233165752  0.2888795770502171  0.8094530584612585
  0.7165159620522559  0.4049424412443940  0.9132164094552380
  0.6934396232395983  0.4840570398043766  0.0357312783589165
  0.7039532803513993  0.6246439102476984  0.0915429271385264
  0.6942885794502587  0.7218903867228192  0.1830028927229108
  0.7031712090748528  0.7802118389711552  0.2935267413847740
  0.6877102993252748  0.8765303618167835  0.4075330231399690
  0.6886743368201778  0.9901079124213226  0.5017021844858007
  0.7954742331205011  0.1162082235203528  0.6681510166191202
  0.7731588860209229  0.1832706819725587  0.7951029262328504
  0.7880389113797932  0.2892711456776738  0.8968438953040803
  0.8195395317665159  0.3869156428021583  0.0201040818729368
  0.8030297731286495  0.5126075270570141  0.0957911157904263
  0.7900552565321775  0.6064839315310451  0.2036158438617974
  0.8026191735724311  0.7188127749852811  0.2914967477244943
  0.7917514033419408  0.7945255078567257  0.3881706747271636
  0.7931116401757023  0.8822393198387886  0.5199060019019157
  0.7811251147941860  0.0022466168545918  0.5830496549381863
  0.9151653516279481  0.1074844935017865  0.7960104641579520
  0.9048939116062158  0.1833633170312012  0.8844785522800365
  0.9120568550468704  0.2747901598514702  0.9886826119639522
  0.8895423352805309  0.3824657573699213  0.1005764628900039
  0.8922534931848034  0.4972636965086252  0.2296377367205551
  0.9116289190780265  0.6117370447855848  0.3024611959425769
  0.9151674197346367  0.6969031091790043  0.3975438214916451
  0.9077437191504814  0.8131003106461989  0.5066169166327015
  0.8947307295204467  0.9112569709731488  0.6128087352261957
  0.9113972182221630  0.0044729638183227  0.6850463773038058
  0.9928270121813156  0.1118665357967643  0.9060752556264973
  0.0089007806910288  0.2079355223475048  0.9987574731694053
  0.9932158995607452  0.3138906697459589  0.1240115532309929
  0.9975743467825922  0.3922592958384286  0.2161588765113436
  0.9998646673912077  0.4976912240184745  0.3221387479056261
  0.0150905085359767  0.6043708730697830  0.3958753525336220
  0.9935445315400955  0.6953457356337438  0.5110538269256892
  0.9875361241679101  0.8121623583752182  0.5815970719558052
  0.0019876520400288  0.8805158950323744  0.7020357827287995
  0.9846354621201812  0.9955845944844484  0.8029999207535212
  0.1749667395734278  0.2005585504686849  0.0100359892224802
  0.1897257351809074  0.3127578870624461  0.0941822963365482
  0.2100333518996536  0.4000682484263933  0.1946956228773260
  0.2183832776343806  0.4903086093374966  0.3061681478965710
  0.1916291187791543  0.5917682706154039  0.3874648281483459
  0.1873751473984484  0.6916359928451783  0.4842409627315121
  0.2168013349635487  0.7872971090884420  0.5988659081646546
  0.2020681814065100  0.9037852837023976  0.7109652515509666
  0.2179306172168651  0.9948424797355457  0.7837943467825923
  0.1913986573382260  0.0993368523298486  0.9010608042385542
  0.2805374627541539  0.1986206525381533  0.1032381134809555
  0.2994878331748438  0.3154927333242767  0.2074649200742655
  0.2918946293528961  0.4087262142824812  0.3122862708871068
  0.3360174967169343  0.5117447864873412  0.3944336992256510
  0.3044259140515351  0.6116417565548176  0.4796215364760243
  0.3170986546212049  0.6800004677806442  0.5959624439614188
  0.3054414468142923  0.7838296350133618  0.6998152710229562
  0.3065087479056317  0.9097389073042592  0.7994933835982465
  0.2812478752886847  0.9983599388670044  0.9039228030611781
  0.2866640202870983  0.1109843898021126  0.0069845319929343
  0.3879502784947704  0.2098895471629731  0.2079223552053620
  0.3824207141239881  0.2991267889326608  0.3132930684236754
  0.4077377186070734  0.4044488670017685  0.4109220676538499
  0.4207832794457289  0.5205550867182893  0.4834196612779067
  0.4090051107186525  0.6025912126975470  0.5843920952769110
  0.3924684617126317  0.7121177670606329  0.7159810705067216
  0.3851836480550617  0.8099648915455333  0.8246086736403555
  0.4231074808676354  0.9250135162794919  0.9180821953538896
  0.4125626056242382  0.0014312276411701  0.0161432771815413
  0.3935321958067277  0.1081751473984482  0.1286001209074854
  0.5044723085631517  0.2020389521351262  0.2999277149843778
  0.4922854521577662  0.2827235208078633  0.4019204822714286
  0.4903635991486652  0.3979318131594454  0.4869362926232839
  0.5028876262283219  0.5062098981116705  0.6037192306298991
  0.5003970076529427  0.6258676357378974  0.6951100271702231
  0.5057656120092346  0.7084269623692450  0.7919713915681754
  0.5143192197618092  0.7825097396187104  0.9064161739799843
  0.5145623656206126  0.8973088235294142  0.9827608766924811
  0.5072248738848870  0.9992815994203710  0.1084712000181156
  0.5002437413394887  0.1028672766381362  0.2157379513653055
  0.6107539953810601  0.2214799800751734  0.3995449024136235
  0.5816524788298665  0.3103339007381223  0.5062879327989833
  0.5901490608160103  0.3866867391205915  0.5868002286826979
  0.6032420572386030  0.4975621038808100  0.6827806172168636
  0.5983149359235611  0.5988822755060426  0.7978487796042231
  0.6153205542725146  0.6924115867409313  0.8946499900375855
  0.6189719644070095  0.8036666662138288  0.0008790227777027
  0.6322236159036336  0.8929788941719892  0.0842821242584790
  0.6030152542679872  0.0007128103065739  0.2109357469546680
  0.6093875895485183  0.1089983322012387  0.3179677444187803
  0.6794040755332134  0.2148906570665190  0.4922586401304159
  0.6825061155640100  0.2882938296427113  0.6015342806683890
  0.6815602132862395  0.3933096649005989  0.7045676230584590
  0.7062602141919143  0.4978849744147098  0.7957982583888068
  0.7016229710637134  0.5912959081646534  0.9054352488339461
  0.7141649721505203  0.6925263225105311  0.0027991368926337
  0.6973642453471030  0.7835307603133614  0.0827526685685811
  0.6953772915817567  0.8856596245981052  0.1953793569714293
  0.6761235497894305  0.9856143205180459  0.3021182407281628
  0.6987759167685539  0.0985083802019631  0.3818648050536595
  0.7997917384413356  0.1972848018838036  0.5843782891817213
  0.8004561853009093  0.3006335602046804  0.6875080369514990
  0.7948029022324832  0.3936808717112683  0.7883713227369498
  0.8032178155141949  0.4919472707512540  0.9196012620567870
  0.8050725363401696  0.6095069650862683  0.0063047267128553
  0.8264711719422166  0.7109748485260141  0.0919555458950327
  0.8192805370647136  0.8023985088076770  0.2227335103926080
  0.7813686509985089  0.8848760711859782  0.3112085577140817
  0.8077792242901793  0.9954211103563821  0.4256248068650095
  0.7862709437123598  0.1054209532219375  0.5043523497713167
  0.8874345568989739  0.1944544998415054  0.6685316972331634
  0.9031482520490854  0.2856684345424085  0.7809068505184982
  0.8800579948376566  0.3715786550740390  0.8828795928995135
  0.9078632178598909  0.4796006724629791  0.9982504858941255
  0.9176264379839694  0.6034248965267395  0.0997013974550569
  0.9201709432595209  0.6912485246569773  0.1929246470135411
  0.9218188126613214  0.7989767137617179  0.2920102798532795
  0.8959338060951865  0.8979827206448405  0.3963765960240906
  0.9033890042113839  0.9909372204863445  0.5019617542906332
  0.8957863736811120  0.0958663306615932  0.5816016089299438
  0.0317522130145349  0.1782357039351510  0.7783957600869442
  0.0018221333152226  0.2974209894488951  0.8758120658425028
  0.9897687583208779  0.3931688153783455  0.9646085989222470
  0.0259497518453102  0.4912670683331086  0.0957425295476142
  0.9984958900511671  0.5866455794049728  0.1872491921387507
  0.9928998872435812  0.6986015867409350  0.2718224421500679
  0.0258486917538363  0.7939586220169375  0.4049449984150684
  0.0066691640628562  0.8940215862880976  0.4948824000362251
  0.0053063179821606  0.0000371625232063  0.5862865403251405
  0.0202932645021079  0.1025379812525458  0.6950461536023198
  0.0938194525200373  0.1955905366118742  0.8868267681021607
  0.0911998786396779  0.3015972073540709  0.9949021985237536
  0.0895904469501403  0.4087970081057861  0.0913428795906341
  0.1046289005117060  0.4986478621564103  0.2120868586695650
  0.1015056600099626  0.5887014314178316  0.3018700547932767
  0.1159399279989159  0.6984756871801849  0.3972497418828951
  0.0981051003033997  0.7904414567767049  0.5090719173119567
  0.1010238898700351  0.8905291219490081  0.5897709400896645
  0.0877980523479565  0.9647573631300119  0.6991113834171117
  0.0892259507313327  0.0765477059276378  0.8109929651768297
  0.2791032558981996  0.2802870805597095  0.9969256319340687
  0.2941447357695992  0.4021254770638052  0.0920466159489166
  0.3027963152651338  0.5028404623466045  0.1887085808087647
  0.3127816505909493  0.6097400113209233  0.2953625358873353
  0.2824652787211903  0.7142938174161131  0.3774696522211656
  0.2985239926640375  0.7781410686953762  0.5115461314133043
  0.2907204750260348  0.9031797224109042  0.6254655554046096
  0.3119856618213106  0.9953617234977159  0.6969914137571891
  0.3167469958791855  0.0966420124077345  0.8014836113752679
  0.2860644762939799  0.1992784245799939  0.8967833985418636
  0.3934072861477134  0.3104132196712399  0.0757877426074387
  0.3850029348367556  0.3936584970339183  0.1946213748132024
  0.3936375863786594  0.4837037866231952  0.2980173771679588
  0.4408470121813153  0.6184268256124597  0.3796796612779048
  0.3962916451569072  0.6910477657021232  0.4730331866141384
  0.3920632241996103  0.7959687682832950  0.5882954358556347
  0.4067187628492519  0.8919873998098069  0.7082038287370409
  0.4069264769279570  0.9952238042838388  0.8046955889145480
  0.3899123035819443  0.1104825150568303  0.9057403192500999
  0.4067695285966551  0.1914570669745927  0.9864356550287567
  0.4817199746411234  0.3023134777883456  0.2127789362858294
  0.5041628949870969  0.4171139079835200  0.3007224951319998
  0.4989580251777355  0.5140881881990680  0.3857308952587957
  0.5027600316985925  0.6249952827967249  0.5082317157994822
  0.4784883045781854  0.7010032350677022  0.6030631082733322
  0.4892825177738516  0.7748330688765108  0.6969720735407350
  0.4998996250509435  0.8857550876239628  0.8133616152696632
  0.4998086532626900  0.0219768238011113  0.9168030421591240
  0.4817109975999614  0.0942749345650498  0.0258033686546213
  0.4887793646696537  0.1972812693021808  0.0944831549155438
  0.6060608209935268  0.3020389783996720  0.2956198319974632
  0.5922751682289515  0.4029324131685001  0.3970899918489366
  0.5886931829914417  0.5130438146990883  0.4802386917538399
  0.6072251940406659  0.6228870656160836  0.6105761689987759
  0.6253584005796284  0.7114699696599160  0.6979259946565222
  0.6094196834669177  0.7862795507856717  0.7987190888919073
  0.6188887329620059  0.9051291328171018  0.8984835140153038
  0.6094325983788451  0.0012092618756512  0.0033197255807664
  0.6043651320019947  0.1082275302268698  0.1185350260381313
  0.6064881401983442  0.2020189236063956  0.2240695951636980
  0.7054672870533878  0.3290106842367422  0.3970296055789504
  0.6726729235158260  0.4151722234297850  0.5092489716071213
  0.6991473210161629  0.5155060132228400  0.6054152438527396
  0.7072777149843787  0.6117056468776880  0.6964367911968452
  0.6919426961916386  0.6982091980256300  0.7991466988180989
  0.7138199936602803  0.8075114853054401  0.8989574256215178
  0.7170596069374611  0.9070382991441406  0.9969555816691553
  0.6937576715120244  0.0040902916270440  0.0942136965086249
  0.6895488756056665  0.1013279694787812  0.2138472114296093
  0.6986860403930635  0.2123454195535004  0.2971610936014102
  0.7844407815967003  0.3126845233890307  0.5119836838291931
  0.7796210166191173  0.3968177915138327  0.6049527247203699
  0.8008444169723319  0.4899104292895018  0.6801727546076179
  0.8065710071095396  0.6051381112167746  0.7858584915998748
  0.8150383534845815  0.7008560462799451  0.9044957492188530
  0.8135895693519899  0.8118826377756676  0.9921263981343103
  0.8013810600914724  0.8928919295385569  0.1043031060091479
  0.8058586917538406  0.9999058633337867  0.2014297876194391
  0.7938492347054265  0.1041431037449598  0.3088115604763857
  0.7840318226690215  0.1932947022596565  0.4048226780781619
  0.9086193035366605  0.3074367037993042  0.5998924860752624
  0.9082175343024019  0.3851547085993730  0.6806808979758188
  0.8883972802608326  0.4988382343884439  0.7910559679391369
  0.8963898926776253  0.5861095933523544  0.8952938300955466
  0.9014413847756231  0.7120465670425205  0.9899706199338851
  0.9193461350360010  0.8057611470361792  0.1085380980845017
  0.8999295793144029  0.9109491151564555  0.2104531105375145
  0.8999081664628932  0.9969991029298555  0.3244524684146199
  0.8780180731784668  0.0791770841824047  0.3974924009418999
  0.8898318475750600  0.2177473613186649  0.4854285029207972
  0.0194544903319311  0.2766573346012748  0.6743149404519286
  0.9920204487614939  0.4033695430874431  0.7816448838473065
  0.9942515256079361  0.4838335026943810  0.8934993551600812
  0.0095747258071839  0.5911310967712708  0.9811563170764828
  0.0131778164198693  0.6850895349363739  0.0713488602092127
  0.0133344790110073  0.7842869211610761  0.1997365543630849
  0.9835944581804981  0.8978333564280234  0.3091157505773694
  0.0052317384413385  0.9876998908662742  0.3972144192365192
  0.9770220590499505  0.0985206095186371  0.5034845365213059
  0.9905080247249032  0.1856072961101276  0.5841712806231030
  0.1156886306208378  0.2902312258298210  0.7847403785717546
  0.1204852972875088  0.3861740374949036  0.8837502812117890
  0.0874121016166285  0.5008104704976688  0.9888471272019217
  0.1075146506362330  0.5976652678531025  0.0993095050491348
  0.1114744110854531  0.6939440524385247  0.2148854594031633
  0.0997072286374134  0.8031331159715620  0.3003358117103687
  0.1107553267219146  0.8855545310872586  0.4077667259883171
  0.0969201870216878  0.9926022356563848  0.5096689385500142
  0.1065518729339345  0.0831696513154938  0.5920715016075704
  0.1295793393107800  0.1889816632703898  0.7036476203414423
  0.2014609156364600  0.2930949046778082  0.8814061391115331
  0.2109691251188721  0.3903385169587494  0.9925526798895064
  0.1715718145179537  0.4850073386768088  0.0955878204954033
  0.2095715228909114  0.5930769560295275  0.1912870715029626
  0.2189625105284634  0.7046004157043910  0.2850059674862990
  0.2064688321333179  0.8164220644839943  0.3892807752569851
  0.2166381737082830  0.8846663143594640  0.4987069782185358
  0.2047338323597359  0.9825997346375033  0.5974262373771708
  0.1877156717837281  0.0831743712357920  0.7179186478286468
  0.1880635769596495  0.1821120898428674  0.7877216460625789
  0.3706723819227449  0.4070975098492084  0.9701509622786730
  0.3919881492550843  0.5012038242086660  0.0979978521939984
  0.3726163727754397  0.5994801612099820  0.1842330263098333
  0.3953964520219202  0.7223022669021404  0.2907233722773199
  0.4022980654802311  0.7890731204999355  0.3770280423855468
  0.3930811176017741  0.9036414096816543  0.4987655544989380
  0.4375380867635741  0.9839246121450884  0.6210856468776882
  0.4231540619481038  0.0939015785898647  0.7092918371598032
  0.4180152818910443  0.1946211588099445  0.8089425186795296
  0.4109404800072483  0.3002218570846367  0.8895788045102577
  0.4961010392609708  0.3890357682380099  0.0948185699406778
  0.4923319757279359  0.4958457614454588  0.1721724426029070
  0.4973632712946596  0.6001096870896134  0.2617377734003554
  0.5196283516732336  0.7104661268849313  0.3890159629579344
  0.4968451473984530  0.7895565231173336  0.4777578961191864
  0.4870011230358173  0.8805363419825198  0.5963538880586867
  0.5110044174251698  0.9936063573789795  0.7141647792419477
  0.5237266689308484  0.1122401960784316  0.8082368980663830
  0.5069178277407929  0.1821380251777356  0.9229951863424333
  0.5022411040166617  0.3063308422768642  0.9848777484943199
  0.5993204111760164  0.3898875438119802  0.1976271611646965
  0.5897803197029390  0.4976271167866670  0.2771157564642479
  0.5875338735679065  0.6062672182221647  0.3726422587510783
  0.6071380211022088  0.7076954725354341  0.4865207983516768
  0.5684070755784987  0.7981059049947916  0.6088760440157586
  0.5770990395326692  0.9065545587103188  0.7174687882081230
  0.5959706362360180  0.0067391998369786  0.8178214377575515
  0.5966355169134658  0.0902811017524812  0.9215567834986160
  0.6007926934746166  0.2163432885024648  0.9998803704206836
  0.5780927124937705  0.2904126640402112  0.1251699356971443
  0.6978335185436748  0.4137552492867798  0.2910412308110324
  0.7039181379341599  0.5206065910428848  0.3891869524068312
  0.6833326219263682  0.5970896427115875  0.4871569184440503
  0.7002545048227162  0.7108221342208907  0.5958655721595818
  0.7040617805551790  0.7959006692931183  0.6999447348639194
  0.6961126228320396  0.9060273246388633  0.8024311230358165
  0.7027269546710144  0.0011906484626181  0.8878272875062265
  0.7127622007879353  0.0975923588280594  0.0064480917447796
  0.7095295539555337  0.2076593954625707  0.0985739790789282
  0.7120748738848874  0.3004557578227605  0.2044606443870833
  0.7842516238735655  0.4034402409092976  0.3935759747316965
  0.7953907236335667  0.5031849114703633  0.4964496001449064
  0.8090197369016892  0.6105364637956825  0.5827913019064468
  0.8109347448263406  0.6958369342933466  0.6995024570936934
  0.8016069750486778  0.8012502218901432  0.7971718376126447
  0.8103824272064486  0.9242462088484373  0.8959131816329275
  0.7987710587329602  0.9982162659059028  0.0050433374088641
  0.8076571004845334  0.0971817583661618  0.1048712566227437
  0.8007209536747695  0.1725052542679890  0.2120524063759461
  0.7908263877190578  0.2922888692659527  0.3194343571978422
  0.8873434972603391  0.4012762115654596  0.5070359656749517
  0.8792745722954294  0.5129035380156708  0.5930096630892550
  0.9085808223520360  0.6062214318706722  0.6832555427251705
  0.9033844785581664  0.7023492256486890  0.8042407204637030
  0.8947797165240203  0.8041693723678875  0.8900750862654547
  0.8860798030158961  0.9042596092016453  0.0068814047004508
  0.9022281877462319  0.0019777584567322  0.1055721324095487
  0.9116003917040274  0.0907646116922507  0.2251580478195905
  0.8824710216003240  0.1898757732192209  0.3197357134447287
  0.8771360816012290  0.3076930344608968  0.3911448516958771
  0.0051713580582344  0.4168541674591282  0.5861360802427242
  0.9952827550604511  0.4952038835303156  0.6839037848118465
  0.9953137404338150  0.6056941217225926  0.7901972893175753
  0.9823707114069649  0.7090524371688645  0.8977100670198794
  0.9794713725490212  0.8071274174704541  0.9995452533623137
  0.9747982375583035  0.9207734565050032  0.1022313730018567
  0.9952372354299683  0.0131050178870638  0.2117557071050129
  0.0049883095593870  0.0932879681202721  0.3299968917266654
  0.9764194045193122  0.1959762441697208  0.4156147004483088
  0.0036347040710041  0.3058608762396418  0.4908095951637037
  0.0867677081918217  0.3994903514015320  0.6971328365711216
  0.1015104179685764  0.4962704147987154  0.7955758180500823
  0.0971840501743415  0.6227128397409771  0.8700271181451811
  0.1142757664266654  0.6982474156591039  0.9974170918806351
  0.0728908798623351  0.7917707616718772  0.0966290399855083
  0.0755159439387754  0.9095186541683660  0.1837021595797665
  0.1031391848933580  0.9799240153058904  0.3203606552551719
  0.1001420635783177  0.0879199302630980  0.4189353439297179
  0.1028012280940089  0.1861720391251183  0.4917420359552622
  0.0952214268894593  0.2826803622696161  0.5987372345242932
  0.2165816836480516  0.4130145972014674  0.7722975709822038
  0.1852193524430561  0.4885449649051310  0.8867880143096514
  0.1786625150568284  0.6009817615360262  0.9845862441697264
  0.2056616406285343  0.7089515663632682  0.0867070914277974
  0.1801944364443244  0.8180642498754693  0.2060810324684113
  0.1819171688629240  0.9006332282751472  0.2919993248199972
  0.2007412308110332  0.9869108961644670  0.4229965924013968