Li 
 1.0000000000000000
    22.0829999999999984   -0.0000000000000006    0.0000000000000000
    -0.0000000000000006   22.0829999999999984    0.0000000000000000
     0.0000000000000006    0.0000000000000006   22.0829999999999984
 Li 
 500
Cartesian
  0.1574033600000000  0.2595732700000000 -0.0919074800000000
  0.0694968600000000  2.2406927099999998  2.2006811599999998
 -0.0054117800000000  4.5253131199999999  5.0371553100000002
 -0.3068449700000000  6.5638692599999997  7.1864563099999996
 -0.3558943700000000  8.8631631599999992  9.5292392800000005
  0.0896009400000000 11.4202898000000008 11.0779319199999993
  0.5382839500000000 13.0545579200000006 13.0827900400000008
 -0.0357492700000000 15.7244657900000000 15.1185595300000006
 -0.3398508600000000 18.1021077699999999 17.9799473100000000
 -0.3998792500000000 19.8591213499999988 19.8257090500000004
  2.0127253800000000  0.0849783600000000  2.2776870300000001
  2.3606043600000000  2.1025929400000001  4.7394515699999999
  2.4544161999999998  4.3082775900000003  6.8305214400000001
  2.2423744999999999  6.7445230299999999  9.1621274600000007
  2.7665927600000000  8.6578899499999995 11.3237563300000001
  2.5930886100000001 10.9266630800000009 13.4354093300000006
  1.9231454600000000 13.1867489700000000 15.9060516700000001
  1.9811083700000001 15.8186928899999995 17.4743366599999987
  1.9593890800000000 17.8552658199999996 19.7549892299999996
  2.2616322499999999 19.8625413699999989 21.9745326100000007
  4.3395524200000004 -0.3305641500000000  4.3788452099999997
  4.5509697899999999  1.8198808399999999  7.0203922600000004
  4.8220400799999998  4.2503637100000002  9.2091437099999993
  4.9005528600000003  6.6968335699999999 11.4874672699999998
  4.6305440500000001  8.5000215800000003 13.4282750600000007
  4.5354529599999998 11.0424350100000002 15.2231897000000007
  4.3003503299999997 13.4531079899999995 17.3839897599999986
  4.4639012400000002 15.8772810100000008 19.9333546300000002
  4.1876676899999996 17.8673706400000007 -0.0396104400000000
  4.3434332700000002 19.8267233599999990  2.2083170399999998
  6.7483177899999998 -0.6736760400000000  6.9492512099999999
  6.2353777800000003  2.0788800400000000  9.1273152900000003
  7.0672763900000000  4.3778686100000002 11.7338263699999992
  7.0961324200000000  6.8230985600000000 13.8690284399999992
  6.7796047200000000  8.6364672999999996 14.9277695900000005
  6.6225612900000002 11.0442311400000008 17.3520883700000006
  6.2837400499999996 13.0469678899999995 19.9544457100000017
  6.4631890399999996 15.7902795499999993 -0.7751842500000000
  6.8392539699999997 17.3962928699999999  2.0445869700000001
  6.9367552899999998 19.7257638300000018  4.1819293499999999
  8.8390776100000004  0.5258652800000000  8.5271284999999999
  8.8090689100000006  1.8988628500000000 11.2067274900000005
  8.8764758100000005  4.0388684799999996 13.9013552499999999
  9.5868165600000008  6.5743858399999997 15.7524805600000004
  8.5795797599999997  9.0845462399999999 17.8516081900000003
  8.8658410700000001 10.9648022500000000 19.8791368400000010
  8.5013658799999998 13.2643101899999998 -0.2945944200000000
  8.0637120899999992 14.9041885399999998  1.6730688600000001
  9.0517241899999998 17.1169323400000017  4.0212392899999996
  8.9259115199999997 19.7385733300000012  6.6014758400000000
 11.0654327099999996  0.1483429000000000 10.9148109800000004
 11.5224583799999998  1.9919938300000000 13.5120020400000005
 11.3985039199999996  3.9338366300000001 15.0953696700000002
 11.4896480899999993  6.9737396699999996 17.9457448200000016
 11.0769208900000002  9.0773805400000001 20.2254374100000014
 11.0733393699999993 11.2356196500000003  0.3728897700000000
 10.6905597700000001 13.2537672700000009  2.1677779300000002
 10.8401111700000001 15.2984784999999999  3.9127972999999998
 11.4856912500000004 17.3985322700000005  6.1442030499999998
 11.0476856100000003 19.7791108700000002  8.6950967600000002
 12.8108186100000001 -0.3909614800000000 13.1516171300000000
 13.4167604300000001  2.1849329599999998 15.9582334699999997
 13.1734722099999999  4.3620710400000000 18.0899759899999992
 13.4589195400000001  7.1265407099999996 19.9635097799999990
 12.9215122900000008  8.8583847599999999  0.6490491400000000
 13.5188144099999992 11.0355664900000008  2.6475155300000002
 13.3575059700000001 13.3541629099999994  4.2620045700000002
 13.5126653700000006 15.3850353999999996  6.1632558800000004
 13.2328814300000008 17.5147502400000015  8.6088556500000006
 12.8504016199999995 19.5218050800000000 10.7584088999999992
 15.3290686899999997 -0.4101163900000000 15.1683192299999998
 15.3294356100000009  2.1353046299999998 17.5324696300000014
 15.5952081899999992  4.7348526299999998 20.0301263700000014
 15.6391963799999996  6.6965845799999997  0.3943427800000000
 15.3849891200000002  8.7079025899999998  2.2489534299999998
 15.6037462999999992 11.1806009799999995  3.8577963799999999
 15.6379675799999998 13.8711324900000008  6.3848682200000004
 15.2056955899999995 15.2388733399999996  8.7023448000000005
 15.1584747100000001 17.3730968700000012 11.2899596800000008
 14.8016075499999999 19.1539384199999994 13.3960608499999996
 17.7215879299999983  0.4766572200000000 18.1226836200000001
 17.4505835100000013  2.2684462700000001 20.2106279999999998
 17.9318817199999998  4.2341126400000002  0.1340522200000000
 17.9537026600000011  6.2819935600000001  2.7190701800000001
 17.7975939099999998  8.8647086399999999  4.8063647300000003
 17.8118838699999991 11.3370861699999992  6.5216867499999998
 18.2085325199999986 13.4390944300000008  8.7891189300000008
 17.8235169400000011 15.6557735400000002 10.8009380900000007
 17.4429155099999988 17.8130097399999983 13.4369243800000007
 17.6466459499999999 19.8488681400000004 15.2505705099999993
 19.6304520499999988  0.6070872800000000 20.1716697200000006
 20.1131889599999987  2.8320586099999998 21.8703920700000012
 20.0671958199999985  4.5537768099999996  2.5937948199999998
 19.5322242300000006  6.6824800900000003  5.3657024199999999
 20.0426065999999992  9.0310219400000005  6.9793805700000000
 19.8319287799999984 11.2599372800000008  8.5270496399999995
 20.0062112899999995 12.9681921199999994 10.7233957199999992
 20.2749092500000003 15.2045978200000000 12.9974879899999998
 19.7164025500000015 17.6392829999999989 15.3224067099999992
 19.3678540199999993 20.3803270900000015 17.3577260299999985
  2.0398085300000002  1.8426984700000000  0.0194427500000000
  1.8599695199999999  4.4785955700000004  2.3895078299999999
  1.8555585400000001  6.6218580600000001  4.8807091600000003
  2.4926824200000000  8.7862761999999996  7.0533226200000003
  2.3612330500000001 11.0094487999999995  9.1538847499999996
  2.3513387600000000 13.7247107199999991 11.3988320299999994
  2.3973197399999999 15.8340976399999995 13.6709869200000007
  1.9435410399999999 18.0283626099999985 15.7244231400000007
  2.1179363900000001 20.1371148099999999 17.9716374899999991
  2.3019813000000000 21.9076871100000012 19.9850999499999986
  4.4659486199999998  2.4533755899999998  2.4817360000000002
  4.0199544600000001  5.2222255600000000  4.2252035200000000
  4.7008868000000001  6.8180065900000004  6.9230114800000004
  4.8955252099999997  8.7801922599999997  8.9110596999999991
  4.9362944999999998 10.6035786699999992 11.0752005899999997
  4.7329702999999999 13.3582017799999999 13.4635675999999993
  4.3501689700000004 15.5675545500000005 15.6015208199999993
  4.5886078100000001 17.9995290600000004 17.9767761499999992
  4.3981482500000002 20.1691278400000016 20.0992054799999984
  4.2575928999999997 22.4797944799999989 22.5894595299999992
  6.4588327500000000  2.5306284099999998  4.8710882399999997
  6.0661726900000001  4.6333523200000002  6.4924755999999997
  6.6717013999999999  6.4244542200000003  9.0879877899999997
  7.5891653000000003  8.4700997200000003 11.1839716700000000
  6.4497114499999997 11.2147158000000005 12.9879241800000003
  7.0489976600000004 13.6752415900000006 15.2822210900000002
  6.1815947199999997 15.7315505600000005 17.8088096799999995
  6.7683589499999997 18.4895286500000005 20.2724910999999999
  6.5236452099999998 19.9960489599999995  0.3061313300000000
  6.5475390300000003 22.4767425199999984  2.4430862900000001
  8.3972064500000005  2.3693433399999999  6.7573250600000003
  8.2648504299999992  4.2011337099999997  8.6478072200000007
  8.9371972900000003  5.9280280300000001 11.1647595499999994
  9.4448501599999997  9.2228095299999993 13.0500986099999992
  8.8279110000000003 11.7351088200000007 15.2165091700000001
  8.6533214300000001 13.3370390400000005 17.7559431100000005
  8.7759713900000005 15.6487339399999996 19.7841250500000001
  8.9038716200000003 18.1200584099999986 -0.0595750800000000
  8.6644425500000004 20.2316235999999989  2.3760339500000001
  8.9301439100000000 22.3716176900000008  4.3679006100000004
 10.8791509600000005  2.3874258899999998  8.7940065599999997
 11.0089741700000001  4.0146222700000003 11.0698111600000004
 10.9686730000000008  6.6527061700000001 13.4361881200000006
 11.4714167299999996  9.0038328900000000 15.6885709000000002
 10.8206676099999992 11.1984569199999999 17.6846795400000012
 11.2110068599999995 13.3830532800000004 20.2788181799999983
 10.9400064799999992 15.6255659100000006  0.3335079000000000
 10.6808872600000004 17.8542048800000011  2.0180735300000001
 11.5887412800000007 19.8024491299999994  4.4599381100000004
 11.1427887699999992 22.1343040500000008  6.5392277500000002
 13.2965218200000006  2.1442433500000000 10.5575863400000003
 13.3530571499999997  4.1025655600000004 13.1868958700000007
 13.2068090199999997  6.2990494500000000 15.4062466300000001
 13.3393215699999992  8.8950528999999996 18.0100108299999988
 13.6655689999999996 10.6987160499999998 20.0331186300000006
 13.1751712699999999 13.0212889500000006  0.5232183500000001
 13.0417321499999996 15.7306738599999996  2.0466207100000000
 13.1347471900000006 17.5328207099999993  4.1122774900000003
 13.3946815099999998 19.8637178500000005  6.4896067700000000
 13.2838069399999998 21.8099694299999989  9.0463278900000006
 15.0981986100000007  2.3162574600000001 13.0145874900000003
 15.5121078600000004  4.3295845699999997 15.0655296300000003
 15.7489270000000001  6.3793277000000002 17.8751518900000015
 15.8228219899999996  8.9423439299999998 20.1665579699999995
 15.3132272000000000 10.6894316099999998  0.7890538200000000
 15.5454002899999999 13.7940114699999992  2.0215424600000000
 15.3319747000000000 15.9415054099999995  4.0412528800000000
 15.5281298099999994 17.2294180399999988  6.4819510300000003
 15.1867065399999994 19.3564199799999983  8.9995517500000002
 15.2079953799999998 21.8645530299999997 11.0790893399999995
 17.5664574900000012  2.5662262000000000 14.7547788999999998
 17.0736676799999998  4.0471664699999996 17.5582579199999991
 17.4022632799999997  6.3879747099999999 19.8050037400000001
 18.0978914800000013  8.5442581400000002  0.4439584400000000
 17.7333064799999995 11.3199120200000003  2.1153552100000002
 17.4467902300000013 13.3929846599999998  4.4964486800000003
 17.7242392100000004 15.8735425100000000  6.4371226799999999
 17.4842462400000009 17.5455067900000010  8.5719730100000007
 17.5142843500000005 19.4824908999999984 11.4810842399999995
 17.2495859100000004 22.1326120400000015 12.8754855300000006
 20.2095964600000002  2.3735800700000000 17.5782990800000007
 19.9827722500000000  4.0492121299999999 19.5319398699999986
 20.1409515299999988  6.0681910999999999 -0.2499218800000000
 19.6437633900000002  8.4459913199999992  2.2210300300000001
 19.7036338899999990 10.9810742099999992  5.0710901399999999
 20.1315014199999993 13.5089891600000005  6.6792505899999997
 20.2096421299999989 15.3897113599999997  8.7789602099999993
 20.0457045500000000 17.9556941600000002 11.1876213700000005
 19.7583386999999995 20.1232876900000015 13.5326553000000001
 20.1263847700000014 22.1817764599999983 15.1278791500000001
 21.9245989100000003  2.4703487100000001 20.0088598699999984
 22.2795559400000016  4.5918401400000004 22.0555612799999992
 21.9331867100000011  6.9316476600000003  2.7385471300000002
 22.0294342999999984  8.6622620300000008  4.7734364700000000
 22.0800114500000007 10.9905153000000002  7.1137899700000000
 22.4162436999999990 13.3463219899999999  8.7421154100000003
 21.9404438900000009 15.3553198799999997 11.2856016599999993
 21.8077602299999995 17.9349813599999983 12.8434081399999993
 22.1268933200000006 19.4444325099999986 15.5030561900000006
 21.7437049100000017 21.9854945999999991 17.7326472499999994
  3.8637905099999998  4.4289344699999997  0.2216247500000000
  4.1897134100000004  6.9066324200000002  2.0798276499999999
  4.6381665099999996  8.8347071300000000  4.2994634400000002
  4.8225579200000004 10.8274850199999992  6.7611112100000001
  4.2317458300000004 13.0680187199999995  8.5563857999999993
  4.1378053799999996 15.2733976299999998 10.6934931800000008
  4.7876238799999999 17.3858820600000001 13.2247558499999993
  4.4622716499999999 19.9582904200000009 15.7002456499999994
  4.8125618200000000 -0.1138935200000000 17.3085305600000012
  4.2266565500000004  2.1936557099999998 19.8981257400000011
  6.1951087899999999  4.3861398700000001  2.2798072600000001
  6.6135898199999996  6.9670260300000004  4.5814478300000001
  6.4459090999999997  9.0259009900000002  6.8962177200000001
  7.4202743800000004 11.3008601199999994  8.7102793799999993
  6.7226374599999996 13.5068849100000001 10.5914823899999995
  7.0024895899999997 15.0164503299999996 13.1606386499999992
  6.7450634699999998 17.3093098300000001 15.4540206300000005
  6.7686326799999996 20.0897642900000015 17.6552123899999991
  6.2107968299999996 -0.0362174700000000 19.9613272600000009
  6.3304015600000003  2.4508682799999999 22.2372394200000016
  8.5671060000000008  4.6349908700000002  4.5915493700000001
  8.4449966300000003  6.6056168800000004  6.9184508300000003
  9.0040720400000005  8.9314443299999997  9.0743920199999994
  9.2921571600000004 11.4954179799999991 10.6753563800000002
  9.0320598600000004 13.3070217500000005 12.9051306399999994
  8.6668810399999998 15.7256966499999997 15.8110099799999997
  8.5060105000000004 17.8864547000000016 18.2098333399999994
  9.3434825000000004 20.4270734800000007 20.2740091199999988
  9.1106200200000007  0.0316058000000000  0.3564919900000000
  8.6903714799999996  2.3888317799999998  2.8398764700000001
 11.1402619900000008  4.4616261799999997  6.6233037299999999
 10.8711396400000009  6.2433835100000001  8.8756100100000008
 10.8286993599999999  8.7875282299999995 10.7530141500000003
 11.1052674499999995 11.1786331800000003 13.3319317700000006
 11.0502671200000009 13.8210350000000002 15.3501147299999996
 11.1688220099999995 15.6441926099999993 17.4891042399999996
 11.3577113300000008 17.2801625799999989 20.0163883700000014
 11.3630807199999992 19.8152707499999998 -0.3806915600000000
 11.2010468900000006 -0.0158644400000000  2.3953695100000001
 11.0468825400000004  2.2716180700000002  4.7641411800000002
 13.4872804800000008  4.8909424000000001  8.8231500799999996
 12.8446316899999999  6.8531035300000003 11.1803564200000007
 13.0322617100000002  8.5392032600000007 12.9583094499999998
 13.3213943500000003 10.9876639399999991 15.0778443699999993
 13.2125887300000002 13.2251172900000000 17.6188946000000008
 13.5881238000000000 15.2905250699999993 19.7565557299999988
 13.6687578900000002 17.7473709900000003  0.0194114600000000
 13.9613941100000005 19.7196529200000015  1.8612021500000000
 13.3163858600000005  0.0157409900000000  4.6580940999999996
 13.4571061400000005  2.4070101699999999  7.0216817000000002
 15.0032802000000007  4.7454303800000002 10.8705475499999995
 15.0717825500000000  6.3663926399999999 13.2836815200000000
 15.0508941899999993  8.6854573300000002 15.5589668200000002
 15.5963443099999992 10.9947938900000004 17.5736129400000003
 15.4939400700000007 13.0575875400000001 19.9947265999999999
 15.7709050800000004 15.2930587800000009  0.0618133400000000
 15.3998946300000004 17.3027097800000007  1.8274271799999999
 15.3560167300000003 19.5580214900000016  4.3145623400000002
 14.9308363499999999 -0.3176789600000000  6.6716771100000001
 15.4310685700000008  2.1753605600000001  8.4327204899999995
 17.6618009600000008  4.3566402799999997 12.9048257599999996
 17.6764739400000011  6.6388909099999998 15.1822399800000003
 17.5516324899999994  8.6936546900000007 17.4096039199999986
 17.7374590199999993 10.8636715800000001 20.3075546699999983
 17.7784168200000003 13.4597423099999993  0.1392272800000000
 18.2509628900000003 15.7004575800000001  2.0306543200000000
 18.0921720999999991 17.7193662699999983  4.9186241099999997
 17.2549639200000016 19.5407182800000001  6.8724185799999997
 17.8381886099999996 -0.1011156200000000  9.3990726099999993
 17.3632212499999987  2.3280109100000002 11.1376129400000003
 19.5972173199999986  4.2941387200000003 14.7631854699999998
 19.9442228499999992  6.3084160400000000 17.2447659800000004
 19.4343207000000007  8.2055714399999999 19.4966300500000003
 20.0483434400000000 10.5910216500000001 -0.0386345200000000
 20.2639446300000010 13.3254319900000002  2.2017059600000000
 20.3201349399999991 15.2648411700000004  4.2603549799999998
 20.3565248399999987 17.6438027700000006  6.4484630100000002
 19.7849062400000015 19.8301524200000010  8.7531843699999996
 19.9495393800000009 -0.2001333600000000 11.0848214200000008
 19.7816504900000005  2.1170161799999998 12.8435083300000006
  0.7011841200000000  3.9359790499999998 17.1893135699999995
  0.0402381700000000  6.5679477100000003 19.3405578499999997
 -0.2259365100000000  8.6823469499999995 -0.7815483100000000
  0.5730483700000000 10.8486506699999996  2.1142822799999998
 -0.0332152600000000 12.9548943300000001  4.1350239100000001
 -0.1567917900000000 15.4272188400000001  6.0026549899999999
  0.5708166600000000 17.5329882499999989  8.9424004000000004
  0.1472751500000000 19.7426786900000018 10.9284880399999995
  0.1171794200000000  0.0008206600000000 12.9469656700000009
  0.4481361600000000  2.2643462400000001 15.3487042099999993
  2.0718149700000001  4.3192258199999998 19.5837955199999989
  2.0139669200000001  6.6601711300000002 21.9704252500000017
  1.9784258400000001  9.0274643300000008  2.0171248099999999
  2.3105200099999998 11.0116407400000007  4.6835141000000000
  2.2415494900000001 13.0002937099999993  6.6661964200000003
  2.5603014300000000 15.4244386000000002  8.7724660500000002
  2.1664549300000000 17.4553186899999986 11.2418351500000000
  2.2309105599999999 19.6655546000000001 13.0239116700000004
  1.9388443900000001 -0.7782631500000000 15.4384766800000008
  1.9703766700000001  1.6904029899999999 17.9091576500000009
  6.1634371999999997  6.1895796000000001 -0.0678912700000000
  6.4955981999999999  8.8801369099999992  2.0326654199999998
  6.6866510300000002 11.1042259300000001  4.1672515900000002
  6.9071571900000004 13.4648886700000006  6.5224908800000003
  6.2376807500000000 15.7737503700000001  8.3356623299999999
  6.5923053300000003 17.1836892200000015 11.2964732199999993
  6.4199802500000001 19.9449178099999997 13.8121558600000007
  6.8895793699999999 -0.1024270600000000 15.3916613899999994
  6.9947239100000003  2.1341455599999999 17.6991625900000003
  6.3171618299999999  4.4006654500000000 19.8036677899999987
  8.6876131000000001  6.8548551299999998  1.6736207200000000
  8.5020198100000002  8.6931605899999997  4.2978238199999996
  8.6926988200000004 10.6816307199999994  6.5811177399999998
  9.7352245699999997 13.6567195899999998  8.3844659600000000
  8.7513083999999992 15.2604078100000002 10.4459918599999995
  8.6579321799999995 17.5773783100000003 12.9913281099999995
  8.9815704400000005 19.6977577500000010 15.6392651499999999
  8.9861573900000007 -0.1054727300000000 17.7700926899999985
  8.6104333999999998  2.4397853800000000 20.0014634700000009
  8.9826914999999996  4.2279464100000004 21.7834585700000005
 10.6378222000000004  6.6759885299999997  4.6987972500000001
 11.1334292099999992  9.2111264300000002  6.6408548600000001
 11.0184900700000004 11.3526094600000000  8.5180953600000002
 11.1024497800000006 13.8017708300000006 11.2232809800000002
 10.5664572299999993 15.4802544399999995 13.3174426199999996
 10.8048258399999995 17.1106386599999993 15.3912343000000007
 11.0392834200000003 19.5601295999999998 17.9614645499999988
 11.0372744899999997  0.4853142000000000 20.2457615799999999
 10.6376239600000009  2.0818733800000002  0.5698157900000000
 10.7937147099999997  4.3565622700000004  2.0864715100000000
 13.3836411099999992  6.6699267600000001  6.5281727500000004
 13.0792125400000003  8.8979564799999995  8.7689382899999995
 13.0001115600000006 11.3295465600000007 10.6051110299999998
 13.4093539600000007 13.7552150700000002 13.4833535399999995
 13.8097895600000005 15.7113913400000005 15.4122997399999999
 13.4578148700000000 17.3634113200000009 17.6381136400000003
 13.6669198900000008 19.9879666399999998 19.8412114399999986
 13.4581000700000004  0.0267041300000000  0.0733095000000000
 13.3461952099999994  2.3899885500000000  2.6176089800000000
 13.3930775999999998  4.4611838900000000  4.9481288699999997
 15.5788340999999999  7.2655429399999996  8.7676047799999992
 14.8546361699999991  9.1682482099999998 11.2457450399999992
 15.4392702899999996 11.3839192899999997 13.3693848299999996
 15.6188137800000000 13.5082958000000009 15.3794136600000009
 15.2801705600000002 15.4185537200000002 17.6475565500000009
 15.7632869200000005 17.8322761300000003 19.8516768299999988
 15.8348273000000006 20.0301267600000017 -0.0672298900000000
 15.3202506599999992  0.0903259100000000  2.0805210600000001
 15.2273078200000000  2.2376255500000002  4.7223879699999998
 15.4290838299999997  4.6892239000000000  6.5622084300000001
 17.3228057799999995  6.9050123299999999 11.3061356899999996
 17.2163709099999984  8.7629272900000004 13.3591710199999998
 17.6850472600000010 10.8186920099999995 15.0202549399999992
 17.8115075500000017 13.3632649099999998 17.3541130700000004
 17.9984919599999991 15.4770040699999996 19.9739796299999988
 17.9664984600000004 17.9288042899999986 -0.1738727500000000
 17.6968979500000003 19.7177324799999987  2.3033254900000002
 17.7957774899999990 -0.0020788200000000  4.4481739999999999
 17.5305726499999999  2.2997921600000000  6.8194856899999996
 17.3137747399999995  4.2685269100000003  8.9396991999999997
 20.0650400799999993  6.7891247300000002 13.2474257699999995
 20.0561678100000016  8.5053714300000003 15.0314762700000006
 19.6184771399999995 11.0158447299999995 17.4688889399999994
 19.7949780000000004 12.9430581500000006 19.7707736499999989
 19.9065301000000012 15.7241243399999995 -0.2214788000000000
 20.3019207000000002 17.7936234099999986  2.3968468199999999
 19.8731448999999998 20.1164893099999986  4.6474360399999997
 19.8726720400000012 -0.0662688100000000  7.1648838599999998
 19.3892731100000013  1.7484675500000000  8.7778246899999992
 19.6501566899999993  4.8085149800000000 10.7197176299999999
  0.4296135100000000  6.1094239200000002 14.8908968300000009
 -0.1762124300000000  8.9076096200000006 17.2610639699999986
 -0.1269435600000000 10.6844952400000004 19.7311462599999992
  0.2114386700000000 13.0539480099999992 -0.4161250500000000
  0.2910057200000000 15.1288321999999997  1.5755968800000000
  0.2944653000000000 17.3194080799999988  4.4107823300000000
 -0.3622835800000000 19.8268540100000017  6.8262031199999997
  0.1155324800000000 -0.2716233100000000  8.7716860200000006
 -0.5074218700000001  2.1756306200000002 11.1184490199999999
 -0.2096112900000000  4.0987659200000000 12.9002543900000006
  2.5547520300000000  6.4091761600000003 17.3294217800000006
  2.6606768199999999  8.5278812700000000 19.5158574599999994
  1.9303214399999999 11.0593976200000004 -0.2462888900000000
  2.3742460300000001 13.1982421100000007  2.1930518000000001
  2.4616894199999999 15.3243665100000008  4.7453155999999996
  2.2018347299999999 17.7355885999999998  6.6323157300000002
  2.4458098800000001 19.5557007100000000  9.0047126100000003
  2.1402884900000001 -0.1633648300000000 11.2550191700000006
  2.3529850099999998  1.8366354100000000 13.0747149700000005
  2.8615005500000001  4.1732820700000000 15.5386503999999999
  4.4488614000000002  6.4724147800000003 19.4640917699999996
  4.6588311899999999  8.6198454699999996 21.9185408300000013
  3.7888203800000002 10.7104170599999993  2.1108658400000002
  4.6279679399999996 13.0969184199999997  4.2241923999999997
  4.8353491200000001 15.5596909799999992  6.2937867799999996
  4.5594512199999997 18.0290484500000012  8.5964873599999994
  4.7840207899999996 19.5360862200000014 11.0129462000000000
  4.5211372200000000 -0.3842500600000000 13.1929636000000006
  4.1453251800000004  1.8367396400000000 15.8537975000000007
  4.1530079700000000  4.0215812800000004 17.3952571099999993
  8.1855582099999999  8.9899343100000007 -0.6591563000000000
  8.6562742999999998 11.0680840499999995  2.1640865699999998
  8.2284873600000008 13.2383203999999992  4.0684179199999999
  8.7315398500000008 15.9506009599999992  6.4200442300000002
  8.8839481800000009 17.4251017200000007  8.3259102600000006
  8.6804103200000000 19.9551132500000001 11.0142397400000007
  9.6621535699999992 -0.3549927900000000 13.7154343399999998
  9.3445111500000007  2.0736285600000000 15.6632916400000006
  9.2310314699999996  4.2978190500000002 17.8638776399999983
  9.0747986199999993  6.6297992700000004 19.6445687400000004
 10.9553992499999993  8.5910768700000002  2.0938784799999999
 10.8721670199999991 10.9497619499999992  3.8020840499999999
 10.9832731199999998 13.2522222200000002  5.7799552500000004
 11.4749528900000008 15.6892234800000008  8.5906395100000008
 10.9718313900000002 17.4357767000000017 10.5503276199999991
 10.7544457999999992 19.4448840400000016 13.1692829099999997
 11.2845105500000003 -0.1411908100000000 15.7709008199999996
 11.5654560300000000  2.4786002499999999 17.8482954199999995
 11.1942663899999992  4.0221540100000004 20.3825026999999999
 11.0909902999999996  6.7647039900000001 21.7490553200000001
 13.2347926400000002  8.6098866300000001  4.3642006000000002
 13.0241188000000001 10.9890996199999993  6.1195472500000001
 12.9745105299999999 13.3881989800000003  8.2290589999999995
 13.4074289199999992 15.6280391200000004 10.7438387899999999
 12.5521334499999995 17.6245727000000016 13.4458096800000000
 12.7440780900000004 20.0194443200000016 15.8438632500000001
 13.1608195600000002  0.1488217500000000 18.0599508100000001
 13.1755021200000009  1.9936775700000000 20.3507384500000015
 13.2673050499999992  4.7775088400000003 -0.0026417800000000
 12.7660213700000007  6.4131828600000000  2.7641276900000000
 15.4102575900000005  9.1369571700000005  6.4270635000000000
 15.5446242399999992 11.4965553499999995  8.5944154699999995
 15.0900342900000002 13.1855305800000000 10.7578862300000004
 15.4637202299999998 15.6970851899999992 13.1584994300000009
 15.5477962999999999 17.5758744799999995 15.4568795800000007
 15.3722550499999997 20.0078014099999990 17.7200864899999999
 15.5183193399999997  0.0262930900000000 19.6058899900000014
 15.7399276799999992  2.1551320600000001  0.1423932100000000
 15.6685411400000003  4.5857424299999998  2.1768091799999998
 15.7247494400000001  6.6349644999999997  4.5151044100000002
 17.3186286100000011  8.9091708399999998  8.6913382499999994
 17.5646133499999983 11.1118324000000008 10.9630965200000006
 17.8655828499999991 13.4824767300000001 12.8697803200000003
 17.9078719699999986 15.3661670200000007 15.4471127599999996
 17.7018868299999994 17.6940086500000007 17.6039456899999998
 17.8956751400000016 20.4101290300000002 19.7844507900000011
 17.6392612900000003 -0.0393902000000000  0.1113720200000000
 17.8354917499999992  2.1460647700000002  2.3158719600000000
 17.6823208200000010  3.8094335300000002  4.6827532900000000
 17.4638191200000001  6.4546150999999998  7.0540689099999998
 19.5952064499999992  8.8613825800000008 11.1968752299999998
 19.4170203800000003 11.3264488300000004 13.0954323899999991
 20.0641902999999999 13.3871878800000008 15.0883321499999994
 19.9494394399999990 15.5099779499999997 17.7600478300000013
 19.7594204799999993 17.7584722500000005 19.6555281300000004
 19.5673002899999986 19.9687649500000006  0.1519620600000000
 19.9239050700000000  0.0436748400000000  2.3313494000000001
 20.1308714500000008  2.0043549199999999  4.9721651700000002
 19.4876075700000015  4.1930266999999999  7.0607237600000001
 19.3697960900000012  6.7947852800000001  8.6376517600000007
  0.1141991000000000  9.2053905799999995 12.9436430599999994
 -0.1041709200000000 10.9355873599999995 15.1026472799999993
 -0.1034866700000000 13.3755432899999995 17.4499267399999987
 -0.3893075800000000 15.6580049700000004 19.8241314099999997
 -0.4533336800000000 17.8237947599999984 -0.0100421700000000
 -0.5565305200000000 20.3334402400000016  2.2575754099999998
 -0.1051761300000000  0.2893981100000000  4.6762012799999999
  0.1101568400000000  2.0600782000000000  7.2873213600000000
 -0.5207302900000000  4.3277434000000001  9.1780194300000009
  0.0802651700000000  6.7543257299999997 10.8385482900000003
  1.9160912999999999  8.8219454299999995 15.3947844299999996
  2.2416545600000002 10.9591395699999996 17.5687007900000012
  2.1461153799999999 13.7513676399999998 19.2128088499999983
  2.5235517500000002 15.4193976799999994 -0.0570383600000000
  1.6096493000000001 17.4846737300000008  2.1338590900000001
  1.6676185900000000 20.0849004399999984  4.0566947899999999
  2.2776226199999998 -0.4433379700000000  7.0745243499999999
  2.2114371899999998  1.9415358199999999  9.2513491999999999
  2.2701595200000000  4.1112371400000001 10.8591393800000002
  2.1027747699999999  6.2424304399999997 13.2219143500000005
  4.7827733200000004  9.1206013499999994 17.0546472599999994
  4.0901989600000004 10.7885384599999998 19.5829397199999988
  3.9454043200000002 13.2714802400000007 -0.3403819700000000
  4.5416260099999999 15.6557774399999996  1.9147527000000000
  3.9792337400000002 18.0653128299999999  4.5508874400000003
  4.0172768400000001 19.8886835799999986  6.4482210899999997
  4.4329685999999997 -0.2890466800000000  9.3410337499999994