Li                                      
   1.00000000000000     
   -10.5278949999999991   18.2348490367503473   -0.0000000000000021
   -18.0478199999999980  -10.4199137352859115    0.0000000000000046
    -0.0000000000000002    0.0000000000000000   22.0820499999999988
   Li
   504
Direct
  0.9906630888760617  0.9912883400841253  0.9992072977825899
  0.9279101658627411  0.0288544657673029  0.6645960365998604
  0.8711175439800769  0.0788796460913233  0.3357380170772188
  0.7811272722679234  0.1038080713308815  0.0094125346152225
  0.7156075619053510  0.1694818225721733  0.6672147069678758
  0.6457053073314327  0.2109512763021755  0.3596254953684124
  0.5763988771740216  0.2567446917685317  0.9959031969405032
  0.4887648601698373  0.3177295248092165  0.6822159265104446
  0.4223103189224275  0.3416900525918436  0.3267120638708789
  0.3625216755747189  0.3941624979817675  0.0023952459124033
  0.2990167480859043  0.4031742466907460  0.6715553515185420
  0.1764021046361464  0.4765250791847251  0.3420504169676306
  0.0906028720596694  0.0201832097315560  0.6623319795942848
  0.0063139903469747  0.0832755253873358  0.3338597113945525
  0.9311233247742052  0.1366411813020250  0.9874196598594764
  0.8438216091165813  0.1580628513853526  0.6477979662214324
  0.7750443223990260  0.2055817629739707  0.3534002282396784
  0.7211326568236629  0.2594632768882548  0.9873743723974897
  0.6450784052332281  0.3000759483936122  0.6762341607776463
  0.5623123690664684  0.3473047947767114  0.3193719047823933
  0.4982053748081796  0.3765799351713284  0.9903286216632949
  0.4185741248217880  0.4243297813342153  0.6538130707973195
  0.3509760325860327  0.4828661750514840  0.3315692465147038
  0.2952455394883202  0.5175116280552814  0.0085302555695677
  0.1530411935916121  0.0750368085005704  0.3210801180144074
  0.0610830111470264  0.1312124324356247  0.9930818995518962
  0.9993189357604777  0.1311055696921812  0.6636809603275040
  0.9335999411967251  0.2190209253568938  0.3218168516962905
  0.8424517789587256  0.2469696943209385  0.9937476289565481
  0.7811660224097210  0.2970660583108042  0.6660467420370821
  0.7077346521184111  0.3514364429962100  0.3200768049162122
  0.6593359830574528  0.3829173817474540  0.0094770394958772
  0.5507722124080985  0.4222744879353755  0.6423124623846093
  0.4927896938004324  0.4492368173323342  0.3396726499577696
  0.4341137809955384  0.4907978761770693  0.9876226953566345
  0.3516025968639838  0.5547308942846598  0.6610832988785020
  0.2235584191391666  0.1175702193914177  0.9865122558820403
  0.1484714170581825  0.1491416431851746  0.6602008137831419
  0.0690036012234856  0.2053162238817379  0.2950425440572744
  0.0041404161311220  0.2618343790948288  0.9875173731605500
  0.9148866107571649  0.2768265876456368  0.6651594716070264
  0.8778475745595173  0.3328916378284319  0.3265050939564063
  0.7998384329055881  0.3727816867303275  0.0091449756702815
  0.7034859707483037  0.4173834233712839  0.6701894479905661
  0.6569055252542810  0.4738785435140116  0.3144989550336135
  0.5715778262464895  0.5069088111998425  0.0040918990763998
  0.4795357076694415  0.5501139196260496  0.6410071012428631
  0.4361000683867431  0.5942239628127695  0.3538459232725231
  0.2794957363656110  0.1625885705085253  0.6609219375012714
  0.2095083437098921  0.2226698673744707  0.3392662076211224
  0.1390610498470082  0.2582005244190668  0.9907130189452502
  0.0647451217541715  0.2812627057677801  0.6655534377469507
  0.0139836025635418  0.3304462528155412  0.3457284808249241
  0.9285068992031498  0.3573326057337454  0.9909065390215162
  0.8481349292038018  0.4048584848203234  0.6480802923641633
  0.7989415158028450  0.4369775446833373  0.3405931138639744
  0.7178180088042083  0.5115294724903166  0.0045008946180261
  0.6403625511275308  0.5395811233599019  0.6464667302175329
  0.5494366878571952  0.5922536035427939  0.3209989964699815
  0.4971418778781924  0.6272731770150415  0.9837113257147792
  0.3738518870660883  0.2240931174743750  0.3431691111106048
  0.2777813899657460  0.2600504821904579  0.9988132886212995
  0.2234243630295225  0.2780237605197371  0.6734403241546900
  0.1476722975193923  0.3156465970575439  0.3320189909904201
  0.0711989895311333  0.3928832099450261  0.0067610973618812
  0.9897897924783337  0.3818148398375172  0.6666004976893021
  0.9212030876461057  0.4611559728313992  0.3360597113945474
  0.8790060317779052  0.5064601028310065  0.9894539356626737
  0.7991448381861872  0.5512962476234691  0.6691681238834235
  0.7164852540495090  0.5893816475518037  0.3264377863468297
  0.6446696211111984  0.6454473703334571  0.9947736233728293
  0.5522020679606214  0.6743509980555942  0.6713918866228425
  0.4294655009127766  0.2525292351246762  0.9868081065843057
  0.3605097014912388  0.2843140958973933  0.6731754787259305
  0.2784010539209447  0.3625135011558740  0.3334735683507617
  0.2186943943671196  0.3882087298640187  0.9982029413030062
  0.1600390682781239  0.3985547275665482  0.6772217217151493
  0.0554319648100403  0.4555401763113878  0.3254130386445127
  0.9985408628343748  0.4934087115712771  0.9869722584633251
  0.9377941388903679  0.5371309074529123  0.6474671799040408
  0.8507436111524598  0.5933008540569489  0.3249739716194853
  0.7814613625679030  0.6224543340042317  0.9844414123688665
  0.7020821451890527  0.6745727092842770  0.6656282627745185
  0.6404585699524930  0.7021621294810103  0.3232522614521756
  0.1330829598722190  0.5294383516777117  0.0210352095933146
  0.0641788571326458  0.5103013965613314  0.6734297775795284
  0.9852047094328569  0.5789393492169879  0.3323438983246589
  0.9283501645923451  0.6316145403677069  0.9967076263299859
  0.8541387454778047  0.6805641275332945  0.6812545574346558
  0.7733045991488652  0.7115014532028567  0.3384386694170161
  0.7103986880211366  0.7446247732067235  0.0064272406773824
  0.2331186714766318  0.5268227522301601  0.6798305755126890
  0.1319230090177825  0.5832749596891347  0.3256130938930042
  0.0590638698996955  0.6255170701725916  0.0153044024445208
  0.0012922802097108  0.6503028204869921  0.6582002440896559
  0.9141874487927026  0.7055669592666902  0.3296266270568182
  0.8427513105444504  0.7529485888863974  0.9957872326165358
  0.7826763880918790  0.7904549500820295  0.6704639809256818
  0.2815968943299723  0.5973399670524202  0.3398701424913000
  0.2090492950600265  0.6338742070667820  0.0167095890100768
  0.1430301339212505  0.6353947007583827  0.6603384549894571
  0.0855738775249293  0.7130364028827145  0.3170783188155113
  0.0065285048802579  0.7525348056504129  0.9863176009473733
  0.9444350642242441  0.7857000978250497  0.6723155852830658
  0.8624217180044838  0.8358761948606102  0.3580811808686235
  0.3568867956471919  0.6181276136696781  0.0392262919430024
  0.2660824519435749  0.6727747974323464  0.6785496903593611
  0.2154794630867798  0.7259807981222082  0.3525647292710588
  0.1431489223115605  0.7472918649754234  0.9931577643380010
  0.0734134361921832  0.7573471140658228  0.6464689587243910
  0.0211372122227615  0.8258240124915943  0.3301506585665734
  0.9293636189429009  0.8627639738732498  0.9861069520266454
  0.4246502587197156  0.7023962287121677  0.6693577258452024
  0.3641706163276481  0.7258046251135752  0.3355550970131844
  0.2946853542836081  0.7263349746431658  0.0030151670700889
  0.2074527410667315  0.7844404285164259  0.6736757071920394
  0.1421717591161169  0.8325130845753250  0.3223481683086504
  0.0834801683569992  0.8811439289041658  0.0039311440740306
  0.0076521083327279  0.9057593984727461  0.6575059439680615
  0.9337630438750111  0.9600047855754070  0.3359372549197204
  0.8770482024308208  0.9823196510642020  0.0131055282457950
  0.7854218857974971  0.0354806821888687  0.6509786233615102
  0.7110256630660459  0.0808078309145017  0.3453074719059117
  0.6548703598112766  0.1092273783368114  0.0266862786743047
  0.5449128607654004  0.1896637298971413  0.6592792652856048
  0.4996083892815122  0.1959442484757190  0.3285200332396698
  0.0671764819765173  0.9474479749510962  0.3176283628558068
  0.1332719051544728  0.0041189526537693  0.9998398038225602
  0.2167069070047773  0.0231042761551805  0.6722641380668932
  0.2778172028871353  0.1112787316590342  0.3257930228398180
  0.3638730093556930  0.1356932379738538  0.9979120579837470
  0.4387943252233626  0.1825024378264288  0.6762145072581589
  0.8665813481411249  0.8964233446372916  0.6781703976759417
  0.7921692485021765  0.9627878380624466  0.3500293496301268
  0.7079083295868287  0.9959660771486227  0.0098685280578579
  0.6323813365014601  0.0669071455363053  0.6450429303438767
  0.5591496126978797  0.0875277761095816  0.3323192303250835
  0.5228791922320752  0.1330010026970498  0.9760653218338007
  0.1259247226196862  0.8853846050301826  0.6812670069128544
  0.2093142616893715  0.9730006112057694  0.3338193229342394
  0.2905887656219051  0.0119439753584061  0.0223905298647580
  0.3699730448291305  0.0539698230151089  0.6619233667164082
  0.4196158469879876  0.0996631910432626  0.3129079016667404
  0.8007029270318711  0.8598872039955978  0.0080397005712811
  0.7182979109462408  0.9287939848047415  0.6886765463351452
  0.6616098758606128  0.9723848119039573  0.3432341829676133
  0.5620173203684331  0.0034128106873723  0.0026245457283167
  0.5077092130335785  0.0570936093472696  0.6690469680124806
  0.2239028732268054  0.8741134863085875  0.0143667471996451
  0.2950445971478359  0.9014984314399328  0.6642569525927158
  0.3728448690149619  0.9754189457630744  0.3535300807669586
  0.4275873606115255  0.9976544000413767  0.0087994144565400
  0.7265788642739039  0.8398352381453833  0.3291835907445204
  0.6482385206643428  0.8693598761230135  0.0086792978912769
  0.5958517508481336  0.9222919084689849  0.6598663797065925
  0.5021484467531536  0.9779956686275568  0.3275909913255362
  0.2695121899377071  0.8262929219770427  0.3752689012116193
  0.3659502739090641  0.8694909823493475  0.0165866058631323
  0.4505621990409381  0.9231915537459869  0.6635191913794216
  0.6399128840809922  0.7954559978572604  0.6650776019436577
  0.5791856459777804  0.8458620611042633  0.3393439576488575
  0.4989192080356659  0.8767752384674381  0.9919820994880482
  0.3455391047730387  0.7986988504182477  0.6591988071759616
  0.4292220990118807  0.8415888146005059  0.3431822987449067
  0.5678347256289200  0.7346092514899283  0.9933111368736149
  0.4934527292295030  0.8256905769898211  0.6761041447691696
  0.4387466140525618  0.7605211812645010  0.0119925151876714
  0.5223485934683438  0.7213560742830794  0.3473315973833948
  0.9831530369430155  0.0065972121914371  0.7773083119547337
  0.9442028912909777  0.0357390389416636  0.4468261692188875
  0.8504966644259540  0.0602523262683974  0.1134625367662849
  0.7897132672553795  0.1065575799308931  0.7737212441779633
  0.7071954121835375  0.1412851610914814  0.4533502324286047
  0.6495030591433490  0.2114136189944276  0.1047340944341641
  0.5562055291347221  0.2523288497364291  0.7894568090372047
  0.4821213058860252  0.3112657774938512  0.4244442707991354
  0.4276699062325875  0.3257780691808492  0.0885837139214871
  0.3536256555752573  0.3927001315836236  0.7734513770234202
  0.2868136340310912  0.4247686987321586  0.4636205334196788
  0.2269011272381505  0.4496751384408242  0.1087984331164904
  0.0700792814880202  0.0244106059800373  0.4255928611700455
  0.9847369908105392  0.0511718383788562  0.1041399575673481
  0.9051653005839739  0.1088383338158607  0.7749860162439646
  0.8540712232640217  0.1544868061048277  0.4314004786693246
  0.7828443338553939  0.2146957838578558  0.1096855713124469
  0.7192718469855492  0.2332052047549311  0.7861234672505475
  0.6459671634249844  0.2809383476793315  0.4359146877214783
  0.5786072895278167  0.3497859059773702  0.1095670311406778
  0.5009130409579328  0.3856486794894991  0.7762235517082914
  0.4144449447790919  0.4359068623293538  0.4435602065931405
  0.3570302238241041  0.4668200991451243  0.1165612178217117
  0.2717005503896246  0.5004387917241999  0.7789489553732523
  0.1542764646957906  0.0889769068348158  0.0967925627376047
  0.0754885874891329  0.1301072294169643  0.7934588586657512
  0.9953159538449157  0.1684380754072166  0.4189259294313672
  0.9264823178480697  0.1948742257147345  0.1063062822518717
  0.8479663019794259  0.2375844683303754  0.7650008196702771
  0.7969536376725799  0.2795996393312379  0.4421505159167722
  0.7093334486472571  0.3260715999302874  0.1185802550035007
  0.6459398063097979  0.3731822310312296  0.7741766661156930
  0.5746099465420542  0.4298679628259592  0.4243135646373446
  0.5031809863921879  0.4559028026247276  0.1065716154070842
  0.4181239580578335  0.5165125202147820  0.7620541086538637
  0.3582910298954403  0.5556714554898576  0.4312031043313453
  0.2273989936087588  0.1164074703859725  0.7797801023908590
  0.1153599666228970  0.1582573875509965  0.4224318833622789
  0.0720122391832945  0.1934838782281361  0.1028254079671029
  0.9922545237864924  0.2340593107810705  0.7692475752930577
  0.9243259581575956  0.2863172492158341  0.4363581460960404
  0.8801097178303863  0.3323076705220913  0.0941307754488392
  0.7825265199987186  0.3661977437019033  0.7773856113902440
  0.7221684148734795  0.4034459594508135  0.4382371496305808
  0.6432870919982676  0.4609250558010274  0.1102753290568614
  0.5452924001560646  0.5164303941893849  0.7564323470873404
  0.4927904646022867  0.5395493284876451  0.4422268783921766
  0.4352316560207541  0.5867498886146549  0.1143351935169079
  0.2851964685311259  0.1923073271416484  0.4617939081742861
  0.2205022289184910  0.1903292423506073  0.0825754438559798
  0.1447625069402605  0.2302017599353334  0.7705588928564140
  0.0579801164353597  0.2682510260009678  0.4376187835821383
  0.0082536409616765  0.3247811699467178  0.0943546301181257
  0.9194929568300338  0.3601919155473539  0.7784010080585801
  0.8598641685582464  0.4036343219932661  0.4373800050267107
  0.8023669152007145  0.4460849368673365  0.0907089821823632
  0.7229924029429711  0.5033447200835752  0.7854025115421805
  0.6499626088177735  0.5274559426257781  0.4383451663228755
  0.5932428871077065  0.5981853772385364  0.1252436902370917
  0.4813128173498029  0.6318105304012960  0.7785754556302535
  0.3630802972219485  0.2116270848378647  0.1141369895458055
  0.3041383636040607  0.2433035791859979  0.7767456862021405
  0.2147195043282935  0.2842387664537682  0.4479992324082218
  0.1572129588664239  0.3288662678603274  0.1052976897525397
  0.0625608059575598  0.3590756619782027  0.7746305170942023
  0.9826428312599518  0.4188044955009786  0.4396589130085289
  0.9432044982168861  0.4576199762212241  0.1016319635178817
  0.8559889068980553  0.4856586832654912  0.7648968741579694
  0.7786125909584669  0.5396483346305132  0.4296567193716143
  0.7183570273292048  0.5884288309483381  0.1162625797876586
  0.6535280717328646  0.6331369296260689  0.7623027635568249
  0.5793450818610992  0.6625630790533137  0.4395967353574477
  0.4174205028436759  0.2569035293578139  0.7866635638448400
  0.3489450283065096  0.3030103802684820  0.4418549849311972
  0.2901384218227321  0.3049547512987445  0.1015777276113425
  0.2168619209358909  0.3461576709479957  0.7809035193743341
  0.1318416451229751  0.3992060405920554  0.4636418960196167
  0.0662609662500415  0.4530845894252593  0.1084166134937661
  0.9950440031061589  0.4806687741189037  0.8022605134034180
  0.9164114270201580  0.5475175804906982  0.4421291252397310
  0.8611540298776816  0.5689907625752539  0.0918434923388034
  0.7876431179315162  0.6172204092762641  0.7774931838303090
  0.7160816100591276  0.6678221590123670  0.4454681630555157
  0.6522455071429434  0.7087271934547985  0.1012599817498838
  0.1303712849723624  0.4754254397925024  0.7710002046911413
  0.0676094898887598  0.5292504978134502  0.4481499684132615
  0.0080228522846753  0.5892011242103692  0.0965521081602461
  0.9301639048002528  0.6170321095552183  0.7886668606402054
  0.8626805324036013  0.6524447493553680  0.4523390523071882
  0.7901401604813145  0.6918939808336759  0.1049114348531930
  0.7317357307556094  0.7391547992420513  0.7639453153126610
  0.2207242212145530  0.5296869602587151  0.4644258658050333
  0.1546129871278055  0.5842037817244474  0.1259757594969670
  0.0723481958481216  0.6123392133050700  0.7592535656789110
  0.0120849150475024  0.6599269065901581  0.4304346906197551
  0.9249657558300726  0.7024014226663056  0.0970982988445357
  0.8600287447016086  0.7456148692085662  0.7686489315982925
  0.7981274327925405  0.7911344007719805  0.4431488353662800
  0.2768721092707267  0.5981982829598991  0.1221187964885502
  0.2046360387725130  0.6393200187383883  0.7854318670594438
  0.1620075763529343  0.6420913615578954  0.4454435779286783
  0.0869325465442330  0.7228661737483932  0.1032566487260027
  0.0082325519753041  0.7516511410919406  0.7690981199662161
  0.9453910490292401  0.7782955133573068  0.4496108119490714
  0.8600646838861508  0.8302259089928015  0.1287896947973550
  0.3618940795082253  0.6374518883619089  0.7817507468735911
  0.3127415718549003  0.6730467274926681  0.4348981489490313
  0.2196107908405693  0.7068681704030482  0.1207677276339822
  0.1346414203646233  0.7513142021446555  0.7755349765986423
  0.0654819211785167  0.7824815650551855  0.4363370697014091
  0.9932137518562385  0.8251615008295445  0.1126570485982938
  0.9246031040734408  0.8932084408887491  0.7859159090754702
  0.4420438040784020  0.6720958717042862  0.4654944636027878
  0.3630698278782418  0.7107407085415218  0.1500394279516613
  0.2676440644959541  0.7502317754506294  0.7876797525592067
  0.2068172282242742  0.8020773354933581  0.4671759035053356
  0.1290403711062922  0.8315835060540238  0.1120371274406153
  0.0695831099032134  0.8763667969408786  0.7850308485851656
  0.0140557028294523  0.9023302845695653  0.4432543586306537
  0.9423767453073140  0.9361433754859547  0.1092579389141832
  0.8288190129659014  0.9966227858816907  0.7507777353099030
  0.7789961428931491  0.0367102920029083  0.4384701488312928
  0.7285343510451057  0.0845185240269402  0.1263828281341617
  0.6385105598935183  0.1229442652381181  0.7568873551142232
  0.5567065700942990  0.2008722679103130  0.4451944828491889
  0.5071056730341681  0.2352952323544883  0.1009017808582087
  0.0837274270393564  0.9615354125600462  0.0861694276573033
  0.1416758393216355  0.0115304114061985  0.7870473796590431
  0.2186927350117074  0.0342510645902934  0.4378910975203851
  0.2998328459598767  0.0910403095877044  0.1215092729162350
  0.3587434020189519  0.1265480302663562  0.7751718839509891
  0.4119862877984062  0.1697453537667499  0.4569260978939909
  0.8775606224759400  0.9061655346982960  0.4481924019735501
  0.8029863615339750  0.9392918645763473  0.1109867281343924
  0.7034193001720084  0.9961377787907679  0.7729789412667785
  0.6378166984494698  0.0649632248923879  0.4257333775623167
  0.5783240674599099  0.0710388275043243  0.1219807327671134
  0.5063920869241585  0.1338886341969072  0.7733524052341139
  0.1506663779139501  0.9098047178712818  0.4601760425322823
  0.2253237966086985  0.9679172392179396  0.1293355906720635
  0.2877121334472648  0.9922008912345746  0.7711632506945705
  0.3465928747886764  0.0553154041029131  0.4686965888583714
  0.4460745834562019  0.1014434010979954  0.1146847308107724
  0.7830441213494197  0.8512495897047998  0.7911136855500303
  0.7278801554971324  0.9132522105352621  0.4413918829999943
  0.6682748005255803  0.9530669077440237  0.1212165985495020
  0.5714212321372827  0.9953587484409780  0.7777294096336149
  0.4876243897357213  0.0636597442474098  0.4213183304992043
  0.2294295001791014  0.8920064701560619  0.7913148136155854
  0.3081657053191478  0.9289223059515805  0.4453692990460567
  0.3722371153722719  0.9567941537680369  0.1444422026034715
  0.4110316119185455  0.0096852200454549  0.7689771850892484
  0.7208960704103902  0.8154681315974344  0.1272142595456458
  0.6381377949034714  0.8763931599342598  0.7689969232929030
  0.5498719521919924  0.9410024254385121  0.4384507104186426
  0.5156200113932030  0.9547705778400655  0.1044494419675743
  0.2737754908208743  0.8282511903966423  0.1365888081043209
  0.3629786480559147  0.8919023397853820  0.7852804286739712
  0.4306196522099413  0.9408580319726809  0.4506135576180625
  0.6508120325530129  0.8189463235196968  0.4437291261454419
  0.5986938772608923  0.8171686011415460  0.1147484862139123
  0.4890347167257119  0.8739247660358416  0.7955174732418442
  0.3639201292469636  0.7992920037379321  0.4703363510181333
  0.4386420332492804  0.8394555703328734  0.1345496663579695
  0.5708314180990683  0.7560032534429055  0.7932685113021662
  0.5015153079274981  0.8061443014860856  0.4711913164765065
  0.4212424856811054  0.7601658876922670  0.7887126648114631
  0.5156795566116799  0.7137440995281210  0.1255312794781247
  0.0144835487090376  0.9941362042597888  0.2197350789442112
  0.9251370929652651  0.0399023081267700  0.8858472474249481
  0.8535077987537392  0.0493577658154578  0.5466413059475883
  0.7976192647413569  0.1366923928111987  0.2425253819278552
  0.7193518028107135  0.1481613819258030  0.8984144606139353
  0.6329885090198673  0.2097907592624608  0.5703637456667323
  0.5900708137130692  0.2416387902064727  0.2197141805221889
  0.5059738066975612  0.2807058653254444  0.8889181950951084
  0.4062355685131536  0.3381379745270152  0.5574635869405213
  0.3613060709486149  0.3759010563154135  0.2144400202879737
  0.2818855359090122  0.4247597624494972  0.8905608093451463
  0.2260262731161689  0.4429890252336079  0.5631041950362388
  0.0745421436362719  0.0356721049258226  0.8939191732651608
  0.0032429383841830  0.0966768897961003  0.5374458589668976
  0.9378018117418492  0.1191791731728316  0.2346556230060131
  0.8570567559486051  0.1581560800325192  0.8956693803337998
  0.7811906849884096  0.2160618702682058  0.5468751338757016
  0.7171082510000986  0.2546357692971952  0.2442587268845031
  0.6473430461691194  0.2856346307172473  0.8892715961606825
  0.5584610511921966  0.3219986159801493  0.5418748825403412
  0.4966225165913798  0.3797917294548725  0.2074886951166235
  0.4265681666388303  0.4080969430814321  0.8824037310847501
  0.3536682371769615  0.4789542678376577  0.5641429106446196
  0.2999915441781411  0.5084633131317062  0.2388850881145572
  0.1407114499859148  0.0957352156244085  0.5344636766061157
  0.0845513694887714  0.1221043283851486  0.2070865789181724
  0.0001440600778082  0.1469866698929394  0.8887064593187688
  0.9329997261107366  0.2051925832858146  0.5523874694604913
  0.8636711576583949  0.2602562867783504  0.2252136327922472
  0.7897999332484105  0.2919069024266534  0.8848223484685533
  0.7044717726082297  0.3254279834083391  0.5428928772464516
  0.6630047689938365  0.3770855952427254  0.2050032583025612
  0.5615100961374964  0.4103496165423053  0.8696733065997080
  0.4955063908055806  0.4578363933023439  0.5409558152436063
  0.4605642542542725  0.4902844244045923  0.2304898412964391
  0.3625244046481910  0.5400180389058846  0.8939142498092352
  0.1966952886797060  0.1524483230542728  0.2043648479194644
  0.1479973938924672  0.1709026351562954  0.9030780674801449
  0.0583091933430069  0.2200317254355397  0.5440513607205872
  0.9762750230230210  0.2577309817191775  0.2169345142321504
  0.9299133366256811  0.2752705092861731  0.8820605890304591
  0.8529657064162919  0.2969816572998027  0.5503420271215731
  0.8052510645445068  0.3760932929205367  0.1986044656180042
  0.6943412690582420  0.4247254779351834  0.9029280913683309
  0.6341144604750042  0.4584458633861317  0.5433445468151703
  0.5809651055758067  0.4891354540234758  0.2268311746418448
  0.4831874548311248  0.5351882027979400  0.8885104372103143
  0.4179124240557783  0.5924241083047832  0.5257947527516720
  0.2800984689308521  0.1681655146956942  0.8906923917842775
  0.1949340375510076  0.2036920814113259  0.5489417925419033
  0.1402300721162106  0.2617614113459723  0.2056930348405146
  0.0655688585882857  0.2738615251876766  0.8892492526735509
  0.0023194677087162  0.3248110374276081  0.5366072194384159
  0.9293048953429306  0.3737324285616594  0.2168261139703986
  0.8539842681586336  0.4201119117530041  0.8810208676277824
  0.7814920843290807  0.4445959735221408  0.5530415763029239
  0.7465424624072341  0.4927559058509701  0.2027181095052342
  0.6164230680041101  0.5406978695750979  0.8817728027968386
  0.5629184143742947  0.5803249201233669  0.5661857132829624
  0.5181833559873823  0.6436611223636532  0.2319068293025310
  0.3343860689110159  0.2091249046722581  0.5731270647426285
  0.2654186829674288  0.2651130177872218  0.2330113250354913
  0.1834785196591184  0.2829834672704692  0.8848258730507368
  0.1480813045647125  0.3121717555959478  0.5674019477358314
  0.0865233841536721  0.3775516437212616  0.2184687658075219
  0.9823688308774834  0.4047317364229670  0.8770133651540490
  0.9278175975522842  0.4444738308459009  0.5592248880878330
  0.8693822285658044  0.4916387144149894  0.2275119284667895
  0.7818044315939972  0.5313170844813229  0.9058437568070019
  0.7024507097083372  0.5772412488331042  0.5485524029698325
  0.6592363186358625  0.6263177878112174  0.2235108837268314
  0.5525168580209083  0.6616587595081285  0.8828398214839623
  0.4338757684565024  0.2579993277108059  0.2128749332602737
  0.3629946470495966  0.2969393594517129  0.8954924805441493
  0.2852149605104657  0.3374332491855867  0.5611711942505337
  0.2095670012509885  0.4021361469343532  0.2182835343638843
  0.1214566709724636  0.4019600234794254  0.8886212290072706
  0.0732881114696227  0.4340254683224600  0.5771563849370835
  0.0144305657603283  0.5030781922074112  0.2035121576121810
  0.9142558440805360  0.5494920201101152  0.8964064495823507
  0.8499087887740799  0.5641478545447214  0.5755133726261832
  0.7890871750864719  0.6458461888938984  0.2207453569754634
  0.7156018353750753  0.6552638382565874  0.8750825453252773
  0.6377100227624339  0.7249234395018078  0.5491502324286017
  0.1552394565865498  0.5306811443819655  0.2316691344327211
  0.0652349857377601  0.5354488874460372  0.8822072620069221
  0.9955394505644222  0.5730891994767262  0.5545000301149585
  0.9268956470965151  0.6321648177680643  0.2113460371659315
  0.8579632816471729  0.6719681743813410  0.8694534112548453
  0.7799145419069049  0.7139450999528449  0.5619502220129036
  0.7086162690458835  0.7737663099583898  0.2082809132304320
  0.1883634235447076  0.5335914589729285  0.8922146589650879
  0.1267412342808640  0.5454406982849278  0.5649024089701840
  0.0700048915839986  0.6431503628647306  0.2081495477095672
  0.0025306279500512  0.6567483953551090  0.8838390670250291
  0.9172573373823312  0.7086697714216541  0.5559015992627465
  0.8586395477839943  0.7605931989615726  0.2220326323869415
  0.7793089367935195  0.7874473593418045  0.8928486150515909
  0.2778097737809873  0.5971991327296067  0.5588136196594036
  0.2180879526208273  0.6286207898817153  0.2439124134761030
  0.1261687672626053  0.6684734414449949  0.9008921599217459
  0.0570291311808688  0.6844806472464029  0.5436303658401300
  0.0291637278956998  0.7450243101330543  0.2090226636566825
  0.8989710533196771  0.8030903113290719  0.8832491100237547
  0.8578710091624302  0.8232531941250443  0.5544455433259117
  0.3763754720570631  0.6219758818299255  0.2463555290382899
  0.2808475150550507  0.6641124451867029  0.9044214463783931
  0.2001530235831126  0.6854462264021066  0.5585673309316874
  0.1648583661990841  0.7674919325871201  0.2286338686852005
  0.0520232343591687  0.7959672071810502  0.8966752683740893
  0.0025783477322179  0.8221845339659666  0.5425315000192441
  0.9341518688826866  0.8829528497264079  0.2205456105751082
  0.4208471128048927  0.6809973124364603  0.9135549471176816
  0.3420454669021282  0.7172603931792523  0.5631345418563924
  0.2979649848567263  0.7544724291217335  0.2441772412434560
  0.2122557391724555  0.7891676044444722  0.8894697956032189
  0.1132876904183391  0.8249986824161155  0.5510967238096072
  0.0635764227258662  0.8734370448656108  0.2151355462921245
  0.0116905622297736  0.9275146493235198  0.8940814956038921
  0.9321258738391194  0.9467145950834208  0.5571848954241148
  0.8740685067416933  0.9952276589758071  0.2096790705573071
  0.8001061861474170  0.0181365031006280  0.8901223025036202
  0.7056914064023161  0.0759528746959006  0.5509466467107913
  0.6495235264306274  0.1154027452461648  0.2277585219669405
  0.5924719073574636  0.1437791566455644  0.9109756621328202
  0.4628923888957743  0.2215065527806743  0.5464507384957500
  0.0739896911384932  0.9735635539700382  0.5602574620562848
  0.1526051135804209  0.9801238851984451  0.2157867362858070
  0.1975452001251696  0.0345374502476332  0.9052502068422115
  0.2721083082500328  0.0906634082186102  0.5668086690320848
  0.3588747005631561  0.1428047079544612  0.1949394096109742
  0.4372343588726366  0.1729538481321597  0.8790411918277528
  0.8497986405063003  0.9210056556197301  0.8811525850181496
  0.7738866876219745  0.9435392912173342  0.5673399322073820
  0.7123576149105588  0.0149663598025285  0.2294206448223761
  0.6430957428707842  0.0415822672272554  0.8953510271917722
  0.5640064166147241  0.0950306622380950  0.5468792910984277
  0.4856789517739415  0.1231970915054532  0.2154723759795871
  0.1400773465582432  0.8999827288590083  0.8755553225357247
  0.1979605059528708  0.9382396505052313  0.5599264379892261
  0.2823849939627578  0.0254814312190845  0.2415478024005893
  0.3376909979189762  0.0590143137212067  0.8881781279364915
  0.4301619654191455  0.0820208537692437  0.5623273079265729
  0.8119952128097481  0.8929529399692768  0.2305274292921169
  0.7114830765275144  0.9000536444867748  0.8929016495298185
  0.6362298834121063  0.9689052340712152  0.5359993302252306
  0.5772121913302755  0.0134487803488170  0.2296653313437815
  0.4978738362054855  0.0300049146756436  0.8836066144221206
  0.2149054578052088  0.8631964744384533  0.2408742403898216
  0.2767199296725735  0.9398230476589262  0.9232658833758620
  0.3399603856562194  0.9604157812772840  0.5542091286814426