Li 
 1.0000000000000000
   -10.5278949999999991   18.2348490367503473   -0.0000000000000021
   -18.0478199999999980  -10.4199137352859115    0.0000000000000046
    -0.0000000000000002   -0.0000000000000000   22.0820499999999988
 Li 
 504
Cartesian
  0.2555244900000000 -0.0794824200000000 -0.0175044900000000
 -10.2897010000000009 16.6196407499999985 14.6756429100000005
 -10.5946396899999993 15.0627777999999992  7.4137836799999999
 -10.0971352900000007 13.1620667400000002  0.2078480600000000
 -10.5926186999999992 11.2830098900000007 14.7334685200000006
 -10.6051283400000003  9.5762447000000002  7.9412681699999998
 -10.7019488400000000  7.8352889699999997 -0.0904658100000000
 -10.8799904000000005  5.6018391999999997 15.0647262000000008
 -10.6127992599999992  4.1403840399999998  7.2144721299999999
 -10.9303639500000003  2.5033888000000002  0.0528919400000000
 -10.4244331599999995  1.2514843899999999 14.8293188499999999
 -10.4573816900000001 -1.7486844699999999  7.5531744099999996
 -1.3181204600000000  1.4418223900000000 14.6256478899999998
 -1.5694147199999999 -0.7525891300000001  7.3723068400000002
 -12.2688440399999994 15.5551039400000004 -0.2777997000000000
 -11.7363551899999994 13.7399583799999991 14.3047070800000000
 -11.8698879000000002 11.9906719800000001  7.8038015100000004
 -12.2747554099999991 10.4461601700000006 -0.2787997400000000
 -12.2070344199999994  8.6361418400000005 14.9326365499999998
 -12.1880600000000001  6.6347951600000004  7.0523863699999998
 -12.0415007599999999  5.1607693599999998 -0.2135638600000000
 -12.0649319500000001  3.2111562600000001 14.4375329200000007
 -12.4097206300000007  1.3685710799999999  7.3217286799999997
 -12.4482707500000007 -0.0086686800000000  0.1883655300000000
 -2.9654524300000000  2.0088059899999999  7.0901072200000002
 -3.0111738899999998 -0.2533827400000000 -0.1527658400000000
 -2.3589995500000001 -1.3785278299999999 14.6554361499999999
 -13.7816923899999999 14.7418748399999995  7.1063758100000003
 -13.3265084599999994 12.7885781000000005 -0.1380651700000000
 -13.5854286099999992 11.1490417900000001 14.7076774599999993
 -13.7936177699999991  9.2434971200000007  7.0679520100000000
 -13.8522439800000008  8.0329260300000005  0.2092724600000000
 -13.4196059699999992  5.6431844099999999 14.1835759100000001
 -13.2957833700000005  4.3049367900000002  7.5006684400000001
 -13.4281360299999992  2.8019277300000001 -0.2733162600000000
 -13.7133185500000003  0.6311722100000000 14.5980744599999994
 -4.4754857200000000  2.8514824800000000 -0.2978370400000000
 -4.2547730200000000  1.1533108200000000 14.5785873800000001
 -4.4319729199999998 -0.8811070900000000  6.5151442099999999
 -4.7691296100000002 -2.6527917799999998 -0.2756419900000000
 -14.6279465999999996 13.7983100699999994 14.6880847100000000
 -15.2498554500000001 12.5387158500000009  7.2099018099999999
 -15.1485118199999995 10.7005800600000001  0.2019398100000000
 -14.9390873299999996  8.4788612099999998 14.7991568999999998
 -15.4683070499999999  7.0407995400000001  6.9447816500000004
 -15.1661103199999996  5.1406892900000001  0.0903575200000000
 -14.9768585800000000  3.0121216500000001 14.1547508600000000
 -15.3156628500000007  1.7604564800000000  7.8136433700000003
 -5.8768710200000003  3.4024036799999999 14.5945112699999999
 -6.2243875299999996  1.5001522100000000  7.4916933600000002
 -6.1239767199999999 -0.1546699400000000 -0.2050755800000000
 -5.7578085300000001 -1.7501156099999999 14.6967842900000001
 -16.6389473899999984 15.0466164700000000  7.6343936000000001
 -16.2242976900000002 13.2078082099999996 -0.2008022600000000
 -16.2358885400000013 11.2470219100000008 14.3109414200000007
 -16.2976644600000000 10.0153096099999992  7.5209941699999998
 -16.7891044700000016  7.7592100500000001  0.0993889800000000
 -16.4799326899999983  6.0545256900000002 14.2753106600000006
 -16.4732981900000013  3.8476636000000002  7.0883158899999996
 -16.5547708799999995  2.5291747000000000 -0.3596873200000000
 -7.9802656599999997  4.4821017699999999  7.5778774699999998
 -7.6177976000000003  2.3555981199999998 -0.0262050200000000
 -7.3699110200000000  1.1771259300000001 14.8709429100000001
 -7.2514114100000002 -0.5962282600000000  7.3316599599999996
 -7.8402609400000003 -2.7955063299999998  0.1492988900000000
 -17.3113285099999992 14.0701897500000008 14.7199055199999993
 -18.0211893699999983 11.9927937799999995  7.4208873500000001
 -18.3945839800000002 10.7512717099999993 -0.2328787200000000
 -18.3630083900000010  8.8278261400000009 14.7766039700000000
 -18.1801354099999983  6.9236945199999997  7.2084155200000000
 -18.4359320400000009  5.0299472999999999 -0.1154091100000000
 -17.9840908199999987  3.0426421200000000 14.8257092099999994
 -9.0789698800000007  5.1999057300000002 -0.2913040500000000
 -8.9266579099999994  3.6113116299999999 14.8650945799999992
 -9.4735554799999999  1.2992417800000000  7.3637800100000002
 -9.3087128999999997 -0.0572422100000000 -0.0396827400000000
 -8.8779184900000008 -1.2346176300000000 14.9544439199999992
 -8.8050890099999997 -3.7358958300000000  7.1857869900000004
 -19.4174849700000003 13.0669656799999991 -0.2876792400000000
 -19.5670401600000012 11.5036768299999999 14.2974026399999996
 -19.6643264299999991  9.3310376000000002  7.1760914900000001
 -19.4610869499999986  7.7639095100000004 -0.3435655100000000
 -19.5660139400000013  5.7733724899999999 14.6984365799999992
 -19.4151762999999988  4.3621965200000004  7.1380726000000001
 -10.9562915000000007 -3.0899542699999998  0.4645005500000000
 -9.8854960199999997 -4.1470047599999997 14.8707100200000006
 -20.8207248999999983 11.9325610700000002  7.3388345800000003
 -21.1728385900000013 10.3469560800000000 -0.0727023600000000
 -21.2749819000000002  8.4836715799999993 15.0434971999999991
 -20.9823197800000010  6.6873088599999999  7.4734196199999996
 -20.9178566699999990  5.1950869300000004  0.1419266500000000
 -11.9622510999999996 -1.2385638500000000 15.0120527599999996
 -11.9157130700000007 -3.6720786099999998  7.1902046200000003
 -11.9110377100000004 -5.4408131600000003  0.3379525800000000
 -22.2780482400000004 11.4823142800000007 14.5344107000000005
 -22.3584149500000002  9.3181232699999992  7.2788316599999998
 -22.4614779099999993  7.5217835800000001 -0.0930265400000000
 -22.5059234900000007  6.0355133900000002 14.8052191499999992
 -13.7453067400000002 -1.0893540700000000  7.5050294800000001
 -13.6408966199999995 -2.7929322200000000  0.3689819800000000
 -12.9732954199999995 -4.0126250700000003 14.5816267800000006
 -13.7696654499999998 -5.8693510699999996  7.0017392899999997
 -24.1782391300000015 10.5125475799999997 -0.3021354200000000
 -24.1230871299999983  9.0347035800000004 14.8461063699999993
 -24.1652284000000002  7.0163719899999997  7.9071665400000004
 -14.9131226199999993  0.0669404300000000  0.8661969400000000
 -14.9434065599999997 -2.1582820100000002 14.9837681899999993
 -15.3709159300000007 -3.6354218100000000  7.7853519799999997
 -14.9940458900000007 -5.1764177800000004 -0.1510905900000000
 -14.4413533399999992 -6.5528086700000001 14.2753598700000008
 -25.6547484799999985 10.0152679399999993  7.2904033500000001
 -25.3552515000000014  7.9568791100000000 -0.3067869800000000
 -17.1473940399999982  0.4245252500000000 14.7807907699999994
 -16.9331412400000012 -0.9222253700000000  7.4097444299999999
 -16.2111793499999983 -2.1948048299999998  0.0665810700000000
 -16.3414803299999996 -4.3909321800000001 14.8761406500000000
 -16.5218156500000006 -6.0822339599999999  7.1181083699999999
 -16.7815974700000012 -7.6591954600000003  0.0868077200000000
 -26.9554381800000016  8.9364492799999997 14.5190791299999997
 -27.1565528500000006  7.0238610899999996  7.4181832600000002
 -8.9143796300000009 16.1770692800000013  0.2893969300000000
 -8.9091881100000005 13.9523438700000000 14.3749425100000003
 -8.9440087100000003 12.1234350000000006  7.6250968600000002
 -8.8657224499999998 10.8033222900000005  0.5892877399999999
 -9.1598022399999994  7.9601240500000001 14.5582376999999994
 -8.7961911900000000  7.0685613900000002  7.2543958000000002
 -17.8065974599999990 -8.6473731600000008  7.0138853900000004
 -1.4774107400000001  2.3872739400000000 -0.0035374600000000
 -2.6984493800000000  3.7108731700000002 14.8449703100000008
 -4.9331688600000003  3.9064399700000001  7.1941778200000002
 -6.2797839700000004  5.2212575599999997 -0.0461060400000000
 -7.9133517299999996  6.0996886200000002 14.9322025600000003
 -25.3017646099999993  6.4613261399999997 14.9753926300000000
 -25.7160962700000013  4.4129204399999997  7.7293656000000004
 -7.3799810499999996 12.9506346499999996  0.2179173300000000
 -7.8651724300000003 10.8342115200000002 14.2438702399999997
 -7.4663539600000002  9.2839769000000008  7.3382898599999997
 -7.9051953900000003  8.1487641600000007 -0.5285267600000000
 -17.3049842399999996 -6.9294129000000000 15.0437721100000008
 -19.7641784600000001 -6.3217684700000003  7.3714149800000000
 -3.2748507299999998  5.1743870799999998  0.4944288000000000
 -4.8690750200000004  6.1840417199999997 14.6166248799999998
 -6.2163749099999999  6.6131497699999997  6.9096479300000002
 -23.9488058200000005  5.6407465099999996  0.1775330700000000
 -24.3248716400000013  3.4201007699999999 15.2073899299999997
 -24.5147853600000012  1.9321903499999999  7.5793143900000004
 -5.9784531300000001 10.2127397999999996  0.0579553500000000
 -6.3755244700000002  8.6630903700000008 14.7739285999999996
 -18.1330688000000002 -5.0253520299999996  0.3172472300000000
 -19.3762799600000015 -4.0134422000000001 14.6681552400000008
 -21.5294571899999987 -3.3650113699999999  7.8066689199999999
 -4.4592618699999997  7.8214319200000002  0.1943091100000000
 -22.8065412000000016  4.4980451700000001  7.2690485100000002
 -22.5146376400000001  2.7618766500000000  0.1916566900000000
 -22.9184230199999988  1.2550646000000001 14.5712023899999998
 -22.9372559100000011 -1.0340293800000000  7.2338806499999997
 -17.7501819599999990 -3.6953868700000001  8.2867066400000002
 -19.5451027999999987 -2.3869730300000001  0.3662662600000000
 -21.4050665100000010 -1.4036426700000000 14.6518639600000000
 -21.0931823200000004  3.3801319599999999 14.6862768599999995
 -21.3635718899999993  1.7475531099999999  7.4934102400000002
 -21.0764507200000004 -0.0382059100000000 -0.1770516800000000
 -18.0525725000000001 -2.0215197100000002 14.5564610200000004
 -19.7076486300000013 -0.9424826700000000  7.5781686800000001
 -19.2361999099999998  2.6998154699999999 -0.1477038100000000
 -20.0969334300000000  0.3944114400000000 14.9297655299999992
 -18.3448276700000008  0.0759131700000000  0.2648193200000000
 -18.5181357300000009  2.0084796800000002  7.6697936999999996
  0.0582977600000000 -0.3759442100000000 17.1645610099999999
 -10.5854806400000001 16.8449994799999985  9.8668378099999998
 -10.0413627200000004 14.8808542399999997  2.5054854099999999
 -10.2371503799999992 13.2899814200000002 17.0853512000000016
 -9.9951682000000002 11.4234223900000007 10.0109025000000003
 -10.6534549500000004  9.6406785599999996  2.3127435099999998
 -10.4096590700000000  7.5130790100000002 17.4328247300000001
 -10.6933912099999997  5.5480466799999997  9.3725996100000000
 -10.3820478200000004  4.4039168000000002  1.9561100000000000
 -10.8103150600000006  2.3564089500000001 17.0793919800000005
 -10.6856928399999997  0.8039501200000000 10.2376918000000003
 -10.5044471999999995 -0.5480683500000000  2.4024924400000001
 -1.1783455400000000  1.0235287099999999  9.3979628399999999
 -0.7628527700000000 -0.8115248100000000  2.2996237499999999
 -11.4937798999999998 15.3714665600000000 17.1132799599999998
 -11.7797222300000008 13.9641206300000000  9.5262069399999998
 -12.1164938099999997 12.0379366999999995  2.4220822700000002
 -11.7812640399999999 10.6858354299999991 17.3592177099999994
 -11.8709992000000000  8.8517603600000001  9.6258899299999996
 -12.4043898600000002  6.9060776099999996  2.4194646600000000
 -12.2336778499999994  5.1156477100000002 17.1406072800000011
 -12.2304014500000005  3.0152291000000000  9.7947186599999991
 -12.1838618299999997  1.6461670700000000  2.5739106399999998
 -11.8922641000000002 -0.2601105200000000 17.2007897800000009
 -3.2300456199999998  1.8860763500000000  2.1373782100000001
 -3.1428877800000001  0.0208168900000000 17.5211981899999998
 -2.9906269200000000 -1.8405230900000000  9.2507433199999998
 -13.2709635099999996 14.8636925800000004  2.3474606400000000
 -13.2151819100000001 12.9869278399999999 16.8927863500000015
 -13.4364081800000008 11.6189251500000008  9.7635898000000001
 -13.3526696099999995  9.5369504099999993  2.6184951200000000
 -13.5355121900000004  7.8900882000000001 17.0954078500000008
 -13.8076127999999994  5.9987385399999997  9.3697133499999996
 -13.5254883100000001  4.4249614499999996  2.3533197399999999
 -13.7238901200000001  2.2424113499999998 16.8277169300000011
 -13.8007087500000001  0.7433342100000000  9.5218485099999999
 -4.4949338000000001  2.9336305199999999 17.2191432099999986
 -4.0706984600000000  0.4545432500000000  9.3281619700000000
 -4.2500995000000001 -0.7029530100000000  2.2705958000000002
 -14.6706117500000008 15.6547336200000000 16.9865634199999995
 -14.8986088100000007 13.8715432700000001  9.6356824000000003
 -15.2631317200000005 12.5860505800000002  2.0786004899999999
 -14.8474280000000007 10.4535040600000002 17.1662679400000009
 -14.8842333000000000  8.9647599299999996  9.6771746499999995
 -15.0911513999999993  6.9274436899999996  2.4351053299999998
 -15.0612239300000006  4.5621644400000001 16.7035769099999989
 -14.9257354299999996  3.3639022700000001  9.7652760399999998
 -15.1716295500000005  1.8225003200000001  2.5247554600000002
 -6.4732465000000001  3.1966887900000001 10.1973561700000008
 -5.7564522199999999  2.0376105700000000  1.8234350800000001
 -5.6786843999999999  0.2410399800000000 17.0155199999999986
 -5.4517548099999997 -1.7378938799999999  9.6635198599999992
 -16.4763805599999991 15.0011611600000005  2.0835436600000001
 -16.1810041600000005 13.0136465700000006 17.1886899799999995
 -16.3372792699999998 11.4736584900000000  9.6582471400000003
 -16.4980952800000011  9.9828730100000005  2.0030402800000000
 -16.6958630100000001  7.9388487599999999 17.3432975300000010
 -16.3621680100000013  6.3559246299999996  9.6795598799999993
 -17.0415408399999997  4.5846544600000003  2.7656374300000000
 -16.4700135299999992  2.1932553399999999 17.1925421400000005
 -7.6418787799999999  4.4155784400000000  2.5203787100000001
 -7.5930359599999999  3.0107148399999999 17.1521370799999993
 -7.3904344899999996  0.9536343200000000  9.8927414500000008
 -7.5904407300000001 -0.5600035700000000  2.3251888500000000
 -7.1391665099999999 -2.6007505700000002 17.1054298100000004
 -17.9036687000000008 13.5544369699999994  9.7085700999999993
 -18.1890008799999983 12.4308309599999998  2.2442421000000001
 -17.7768418299999986 10.5483069100000009 16.8904910199999989
 -17.9366276099999986  8.5747939599999992  9.4877011600000003
 -18.1826449799999992  6.9677542900000002  2.5673161000000002
 -18.3070162600000010  5.3197535399999998 16.8332077399999989
 -18.0571033800000009  3.6604199799999999  9.7071970899999993
 -9.0311078800000004  4.9346872399999997 17.3711441499999992
 -9.1423334199999999  3.2056178900000001  9.7570638699999996
 -8.5583153000000003  2.1130281200000001  2.2430444600000001
 -8.5304908699999995  0.3475113200000000 17.2439505599999983
 -8.5928137600000003 -1.7555800100000001 10.2381635299999996
 -8.8747776100000006 -3.5128436199999999  2.3940610800000002
 -19.1507423000000010 13.1359500199999992 17.7155567699999992
 -19.5293820199999999 11.0055380700000001  9.7631174499999993
 -19.3351820699999983  9.7741790700000006  2.0280925900000000
 -19.4317068900000010  7.9311699300000003 17.1686433600000008
 -19.5915661199999995  6.0989907700000003  9.8368502499999995
 -19.6577530299999985  4.5087221399999997  2.2360279799999998
 -9.9529279600000002 -2.5765913700000000 17.0252650699999997
 -10.2636033300000005 -4.2818956899999998  9.8960700100000007
 -21.2461545799999989 12.2417196500000003  2.1320684800000000
 -20.9287523700000015 10.5319770300000002 17.4153810500000006
 -20.8574154599999986  8.9324312700000004  9.9885735699999998
 -20.8056906700000006  7.1986109500000000  2.3166595499999998
 -21.0437697099999994  5.6411613400000000 16.8694786500000014
 -11.8834563400000004 -1.4944195800000000 10.2554751900000003
 -12.1713539900000001 -3.2680085299999999  2.7818030199999999
 -11.8130621100000006 -5.0612633499999999 16.7658752000000000
 -22.5653657400000007 11.5788341999999993  9.5048803599999996
 -22.4147567999999993  9.5476486900000008  2.1441294900000001
 -22.5110152700000015  7.9132517099999999 16.9733441399999982
 -22.6808530700000013  6.3101810399999998  9.7856347400000008
 -13.7110554300000000 -1.1844533900000001  2.6966333699999998
 -13.6927193500000008 -2.9301521699999999 17.3439457600000004
 -13.2939480700000008 -3.7363529000000000  9.8363073599999993
 -13.9613753099999993 -5.9470013100000001  2.2801184800000001
 -24.1802309400000013 10.5528283300000005 16.9832631399999983
 -23.9995150300000013  9.1292909499999997  9.9283284300000005
 -24.0384384500000010  7.0322673199999999  2.8439404800000001
 -15.3145998100000007 -0.0431097800000000 17.2626590799999988
 -15.4395366200000002 -1.3102934900000001  9.6034426699999997
 -15.0694688499999998 -3.3609357399999999  2.6667990000000001
 -14.9770742200000004 -5.3734631999999998 17.1254021300000012
 -14.8114732300000007 -6.9593374600000004  9.6352169900000000
 -25.3488163299999982  9.5129911699999994  2.4876985800000000
 -25.8545895600000009  7.5528431200000004 17.3546343999999984
 -16.7836560699999993  1.0574210300000000 10.2790720199999992
 -16.6496813999999986 -0.7853333700000000  3.3131781500000002
 -16.3577766500000017 -2.9369012699999999 17.3935836799999990
 -16.6530974399999998 -4.5862957099999999 10.3162016600000008
 -16.3667929100000009 -6.3119967099999998  2.4740094500000001
 -16.5490738800000017 -7.8628289200000001 17.3350904499999992
 -26.9609665199999995  9.0889489300000008  9.7879649099999995
 -26.8165905600000016  7.4295644699999999  2.4126392700000001
 -8.6647681900000002 15.1485798599999999 16.5787114899999999
 -8.8637303400000000 13.8223589899999997  9.6823197499999996
 -9.1953082599999991 12.4040381800000006  2.7907919300000001
 -8.9410480999999997 10.3620750299999997 16.7136244199999986
 -9.4862548499999999  8.0583885599999991  9.8308068300000002
 -9.5853212800000005  6.7952393700000000  2.2281181700000001
 -18.2350916100000013 -8.4923590600000001  1.9027976099999999
 -1.6996471500000001  2.4632916499999999 17.3796195900000008
 -2.9205312000000001  3.6309358700000001  9.6695331099999997
 -4.7996878399999998  4.5187745100000001  2.6831738399999998
 -6.0607289399999997  5.2230122200000002 17.1173843000000012
 -7.4008819700000004  5.7437758199999998 10.0898649400000000
 -25.5931785500000011  6.5600187700000001  9.8970070299999993
 -25.4059266000000008  4.8549948799999996  2.4508144800000000
 -7.3358198600000000 12.8669887599999999 17.0689596299999984
 -7.8873118199999999 10.9535800099999996  9.4010657299999991
 -7.3706310300000002  9.8054336099999997  2.6935846400000001
 -7.7476406899999999  7.8388752400000001 17.0772064800000010
 -18.0061915900000002 -6.7327080199999996 10.1616303800000001
 -19.8409813799999988 -5.9768687199999997  2.8559949800000002
 -2.8882462200000001  5.3276533600000002 17.0288654599999987
 -4.6472158500000003  5.7436870100000004 10.3497815099999997
 -6.5270586200000000  7.0770711999999998  2.5324739599999999
 -23.6070056599999987  5.4087440500000001 17.4694119599999986
 -24.1452573599999987  3.7567754999999998  9.7468376299999999
 -24.2363069300000014  2.2550151399999998  2.6767109900000001
 -23.9799182600000016  0.0482276100000000 17.1738597099999986
 -6.2825779800000001  8.2284280899999995  9.3035724399999999
 -18.5141819000000005 -5.1110181700000004 17.4738532800000002
 -20.0093587600000014 -4.0599351800000001  9.8346671299999997
 -21.1869219300000005 -3.1820249399999998  3.1895799399999998
 -22.5499147600000001 -3.0257334999999999 16.9805926499999984
 -22.3069401899999988  4.6483234299999996  2.8091516400000001
 -22.5352336999999991  2.5044052300000001 16.9810285100000016
 -22.7720365700000009  0.2216679400000000  9.6818905100000006
 -22.6599208700000005 -0.5463739900000000  2.3064578000000000
 -17.8304080200000001 -3.6380512100000000  3.0161608900000001
 -19.9182939800000014 -2.6746845900000000 17.3406016899999997
 -21.5139548900000008 -1.9513751800000001  9.9504711100000005
 -21.6318765800000001  3.3341091199999999  9.7984487500000004
 -21.0510981000000008  2.4022661400000000  2.5338818100000000
 -20.9209430199999993 -0.1887464400000000 17.5666566199999998
 -18.2567911199999990 -1.6925251100000001 10.3859908200000000
 -19.7683202999999992 -0.7484833700000000  2.9711324600000002
 -19.6538638699999986  2.5315360500000001 17.5169949299999992
 -19.8290477500000009  0.7451018500000000 10.4048702100000003
 -18.1541337700000014 -0.2395698400000000 17.4163925000000006
 -18.3105452600000014  1.9661869199999999  2.7719879900000000
 -0.0466525500000000  0.3252055700000000  4.8522010000000000
 -10.4598958500000006 16.4539566199999996 19.5613232100000012
 -9.8764405600000007 15.0492822000000004 12.0709606500000000
 -10.8642515700000004 13.1201439400000002  5.3554576100000002
 -10.2472501999999999 11.5734427100000001 19.8388330400000008
 -10.4503024199999999  9.3564482899999994 12.5948007499999992
 -10.5732569600000001  8.2419968600000004  4.8517395199999998
 -10.3929680399999995  6.3014250799999996 19.6291360300000015
 -10.3794587099999998  3.8842757400000001 12.3099387999999994
 -10.5879869800000002  2.6715050800000002  4.7352752499999999
 -10.6336490599999998  0.7141801100000000 19.6654083200000009
 -10.3745670600000004 -0.4943524600000000 12.4344949899999992
 -1.4285755899999999  0.9875644800000000 19.7395678799999992
 -1.7789484200000001 -0.9482303600000000 11.8679063300000003
 -12.0240032699999997 15.8588377600000001  5.1816772000000002
 -11.8773759999999999 13.9803278500000001 19.7782160400000002
 -12.1237392499999999 11.9935481599999996 12.0761240500000007
 -12.1452609000000002 10.4230779499999997  5.3937334200000002
 -11.9702420200000006  8.8279145099999994 19.6369398500000010
 -11.6907923700000005  6.8282551600000003 11.9657082500000005
 -12.0828024799999998  5.0984395600000001  4.5817757400000003
 -11.8561250400000002  3.5260711800000002 19.4852833099999998
 -12.3674624800000004  1.4584247600000000 12.4574319599999992
 -12.3349338300000007  0.1721566600000000  5.2750724599999996
 -3.2092073100000000  1.5682993599999999 11.8020536299999996
 -3.0938648799999999  0.2694648900000000  4.5728961899999998
 -13.1822006100000007 16.7058875299999983 19.6244604699999989
 -13.5258019600000008 14.8750201400000002 12.1978477200000004
 -13.7896978800000003 13.0370651199999994  4.9731787000000001
 -13.5832139999999999 11.3602378099999992 19.5386913399999997
 -13.2898705199999991  9.4550049099999995 11.9881876599999995
 -13.7856175400000005  8.1605924999999999  4.5268921999999998
 -13.3174353500000002  5.9632442299999999 19.2041694400000011
 -13.4795880700000001  4.2648685100000003 11.9454133599999999
 -13.6973371499999992  3.2895982400000001  5.0896882000000003
 -13.5627672300000004  0.9836364100000000 19.7394591599999991
 -4.8221472399999996  1.9982105200000000  4.5127947900000001
 -4.6425210200000002  0.9179194200000000 19.9418150400000016
 -4.5849660400000003 -1.2294522600000000 12.0137693500000005
 -4.4017083000000001 -3.1181559700000001  4.7903587900000000
 -14.7580625699999999 14.0885343499999998 19.4777060300000002
 -14.3398048899999999 12.4591776400000001 12.1526801599999992
 -15.2652627100000000 10.7647719300000002  4.3855937400000000
 -14.9753209500000004  8.2356053800000009 19.9385032600000009
 -14.9498388799999997  6.7860151100000001 11.9981614499999996
 -14.9441682599999996  5.4970617600000002  5.0088973399999999
 -14.7459271399999992  3.2342353899999998 19.6201319000000005
 -15.0917017900000001  1.4475618600000000 11.6106260199999998
 -5.9838682099999998  3.3552831400000001 19.6683139300000001
 -5.7284430999999998  1.4321388300000000 12.1217601100000003
 -6.2005503099999997 -0.1704571300000000  4.5421238800000001
 -5.6329055700000001 -1.6579752299999999 19.6364464599999984
 -16.4144452500000000 14.8926411900000009 11.8493874500000000
 -16.5286799600000016 13.0514748100000002  4.7879650900000001
 -16.5727608699999998 11.1947443300000007 19.4547468499999994
 -16.2514547100000009  9.6177384900000007 12.2122917399999995
 -16.7526905500000005  8.4786150700000000  4.4764314299999999
 -16.2480551599999998  5.6063564299999999 19.4713511200000013
 -16.3999456600000002  4.2177967000000001 12.5025412300000003
 -17.0720600400000002  2.7421019000000002  5.1209781999999997
 -7.2946300600000002  3.9184160200000000 12.6558205000000008
 -7.5790120500000002  2.0774148399999999  5.1453677300000003
 -7.0388772700000004  0.3970397900000000 19.5387691699999984
 -7.1930040799999997 -0.5525625300000000 12.5293981799999994
 -7.7248932100000003 -2.3563147099999999  4.8242382099999999
 -17.6468014300000000 13.6960775500000000 19.3662529799999987
 -17.7897499400000001 12.2872348500000008 12.3488319400000002
 -18.0257718400000009 10.7302207000000003  5.0239297799999996
 -17.8198700700000003  8.7198075999999993 20.0028871300000013
 -17.8132734699999986  6.7942786300000000 12.1131615900000007
 -18.2440414400000002  5.4948974300000000  4.9355785100000000
 -17.7583376599999987  3.1806342999999999 19.4949130799999999
 -9.2241239600000000  5.2233283999999998  4.7007149200000002
 -9.1806776400000007  3.5250700799999999 19.7743097299999988
 -9.0926477000000006  1.6848263999999999 12.3918103700000000
 -9.4639801800000001 -0.3688013300000000  4.8201479200000001
 -8.5331852300000008 -1.9736447100000001 19.6225784099999991
 -8.6047830699999999 -3.1861102899999998 12.7447961500000009
 -19.7592831400000009 13.2559568599999995  4.4939656399999999
 -19.5423225999999985 10.9456578499999999 19.7944920400000015
 -19.1293894199999990  9.6195864800000006 12.7085150700000007
 -19.9635426900000006  7.6592239400000004  4.8745100099999998
 -19.3598647899999996  6.2210987700000002 19.3236165200000016
 -19.7970319100000012  4.0749062900000004 12.1263628899999993
 -11.2119824700000006 -2.6988836900000002  5.1157294100000001
 -10.3504722200000003 -4.3897811000000004 19.4809448699999983
 -20.8239455199999988 12.1819715700000000 12.2444973899999994
 -21.1674568900000004 10.3146993299999998  4.6669537600000002
 -21.1601080000000010  8.6429805099999992 19.1993137000000011
 -21.0960110599999986  6.7823775800000003 12.4090129000000005
 -21.4250327600000006  4.8589324899999999  4.5992695399999999
 -11.6132329500000004 -2.1251983800000001 19.7019287100000007
 -11.1783339500000007 -3.3723377499999998 12.4742032399999996
 -12.3444661300000007 -5.4250426699999998  4.5963687200000001
 -22.4074140100000001 11.4377330300000004 19.5169784700000015
 -22.4467334100000002  9.3417711899999993 12.2754469099999994
 -22.7667161500000006  7.7318470100000001  4.9029356899999996
 -22.4161908600000004  6.0054472600000004 19.7159277599999996
 -13.7028945800000006 -1.1569441600000001 12.3397502899999996
 -13.6412419299999996 -2.5733735100000001  5.3860861099999999
 -13.3927798800000009 -4.6647671700000002 19.8935457199999988
 -12.9537802200000005 -6.0923116999999998 12.0044729199999995
 -24.2809923099999985 11.0035561699999995  4.6156489100000000
 -23.9583022399999983  8.0244696799999993 19.5039510100000015
 -23.8895013700000014  7.0649210800000004 12.2432942100000002
 -15.1877502100000008  0.3822148800000000  5.4400351100000002
 -14.9425150200000001 -1.7987823500000000 19.9714795999999986
 -14.4780001299999999 -3.4925303799999998 12.3343117299999996
 -15.5871678199999995 -4.9910323099999996  5.0487045200000003
 -14.9131680299999996 -7.3452738100000001 19.8004281099999986
 -25.3936780499999983  9.7147728999999998 11.9802077100000002
 -25.7700268900000005  7.8338257799999997  4.8700992000000003
 -16.7211511299999991  0.5781503200000000 20.1731660200000000
 -16.5460052299999987 -1.2366439700000000 12.4351651099999998
 -16.7535266699999994 -2.4281911100000002  5.3919340499999997
 -16.4773610099999992 -4.3526069999999999 19.6413164999999985
 -16.0821086300000005 -6.5306311700000004 12.1693454100000000
 -16.4329604700000012 -7.9418321900000004  4.7506338899999996
 -27.3905894500000002  8.7834020400000004 19.7431522900000012
 -26.8994579300000005  7.1324901799999996 12.3037847199999995
 -9.1159711100000003 15.9882346500000008  4.6301437200000004
 -8.7507582599999996 14.4008347200000006 19.6557251899999983
 -8.8002288400000008 12.0767538600000002 12.1660313999999996
 -8.9208834600000007 10.6414767999999995  5.0293750700000004
 -8.8323823699999995  9.3054693799999999 20.1162101200000016
 -8.8709928599999994  6.1326936600000002 12.0667525300000005
 -18.3496554799999991 -8.7952574000000006 12.3716332900000001
 -1.2478900700000000  2.9898386100000001  4.7650135000000002
 -2.7030608100000002  3.2423296499999998 19.9897803299999985
 -4.5010045700000001  4.0171490299999997 12.5162973700000002
 -6.3555088299999998  5.0560132500000003  4.3046617899999999
 -7.7245973399999999  6.1707383499999997 19.4110315500000006
 -25.5687351499999984  5.8991504399999997 19.4576554399999999
 -25.1762250799999983  4.2801089000000001 12.5280287500000007
 -7.7697363399999997 12.8337853899999992  5.0660781500000001
 -7.5209137300000002 11.2934701499999992 19.7711861499999983
 -7.6528966199999999  9.2943605599999994 12.0762158500000005
 -7.3366159399999997  7.5725793000000001  4.7580717799999999
 -17.7174458900000005 -6.8234531299999999 19.3340564099999987
 -19.0172877500000013 -6.1665962800000003 12.3643236000000005
 -3.4328038500000000  4.8837334200000004  5.3338706499999997
 -4.6202550799999997  5.5428203099999998 19.6127938300000011
 -6.0089976099999998  6.9892882800000002 12.4173397300000001
 -24.6644542700000002  5.5021175199999997  5.0905182199999999
 -23.7344252900000008  3.5953051600000001 19.7170988700000009
 -24.1847886699999997  1.5056469200000000 11.8359640099999996