Li                                      
   1.00000000000000     
    20.0207999999999977    0.0000000000000000    0.0000000000000000
     0.0000000000000000   20.0207999999999977    0.0000000000000000
     0.0000000000000000    0.0000000000000000   20.0207999999999977
   Li
   432
Direct
  0.9920589177255650  0.0064170482697961  0.9849237423079984
  0.9090170492687619  0.0976642087229251  0.0926838073403644
  0.8365202429473371  0.1850267142172157  0.1750266737592909
  0.7481820142052271  0.2813660652920973  0.2559142202109825
  0.6766799663350085  0.3604549083952691  0.3426258221449672
  0.5706102203708170  0.4310894050187812  0.4225078663190303
  0.5050648385678898  0.5165758286382172  0.5031697229880905
  0.3952370090106285  0.5825835830736068  0.5992392851434545
  0.3245921156996729  0.6769924703308590  0.6662651832094610
  0.2481156472268822  0.7609762147366723  0.7509657925757196
  0.1616377612283202  0.8401919238991482  0.8222574862143404
  0.0742279184647998  0.9058327819068168  0.9055169353871975
  0.0547062350155869  0.9256287001518402  0.0753782790897475
  0.9897956839886533  0.9962841944377843  0.1599006892831483
  0.9242617382921736  0.0881786836689855  0.2551708323343718
  0.8201318793454817  0.1591783310357258  0.3143319982218458
  0.7641583677974921  0.2663769155078697  0.4408135279309491
  0.6717551131822930  0.3498521512626880  0.5070488322144939
  0.5940949577439483  0.4161976968952317  0.5736918135139462
  0.5194317979301530  0.5055788514944481  0.6639131173579500
  0.4235210645928262  0.5758133596060091  0.7459509515104301
  0.3247748081994715  0.6846573838208272  0.8256032900783197
  0.2426809548069997  0.7538662436066517  0.9147443938304178
  0.1511974676336578  0.8407414214217184  0.9889915303084820
  0.1692851479461339  0.8392461769759478  0.1531717773515524
  0.0809598023055997  0.8873739595820354  0.2372772201910038
  0.9981532036681884  0.9908688638815661  0.3198443273995011
  0.9306029968832448  0.0995427650243741  0.3896487298209834
  0.8507091664668778  0.1631418220051160  0.4857684687924575
  0.7678064043394883  0.2429480984775836  0.5763868811436126
  0.6690707918764502  0.3192274974027001  0.6659065706665075
  0.5760587154359484  0.4116653909933703  0.7530121928194689
  0.4956827604291547  0.5023144699512514  0.8483734860744860
  0.4248276981938801  0.5979504765044368  0.9109473028050843
  0.3351643905338477  0.6786165063334124  0.0013675377607285
  0.2336762756732966  0.7427894794413845  0.0668852972908169
  0.2472733871773372  0.7441321650483488  0.2433201475465552
  0.1704922285822761  0.8197373731319431  0.3299513016462896
  0.0759841270079136  0.9115331425317663  0.4068280718053217
  0.9898273845200976  0.0078523835211399  0.4860382871813300
  0.9246307215495904  0.0934298219851328  0.5743013720730445
  0.8384301041916444  0.1597753446415737  0.6708090695676532
  0.7516231833892775  0.2457201500439510  0.7338985170422774
  0.6688940491888431  0.3172177645248908  0.8246898325741228
  0.5780023200871085  0.4101870754415415  0.9103798824222835
  0.4973593297970140  0.5125291222128965  0.0188825836130420
  0.3962136183369296  0.5711343837409117  0.0860877322584486
  0.3252711789738640  0.6721263371094039  0.1670221744385856
  0.3456145393790493  0.6712399349676303  0.3465546496643483
  0.2463101484456161  0.7484470830336463  0.4178620354830969
  0.1610486269279932  0.8358371953168700  0.5020194013226273
  0.0808338822624464  0.9257478916926374  0.5743242307999665
  0.9991718732518180  0.9951809018620636  0.6628007207504183
  0.9290715336050539  0.0604188878566276  0.7623111768760467
  0.8325373471589543  0.1748218243027253  0.8107674813194308
  0.7549724806201539  0.2491734041596771  0.9224388191281037
  0.6707945321865267  0.3237279274554439  0.0186881827899015
  0.5787078763086413  0.4148725325661289  0.0801740889474942
  0.5021409189442991  0.5014901367577735  0.1656909878726154
  0.4110663804643195  0.5824438488971495  0.2274617238072381
  0.4117632027691229  0.5699336290258117  0.4251844546671464
  0.3342506363382114  0.6784703897946116  0.5113494270958228
  0.2497947199912076  0.7590636827699200  0.5807460580995780
  0.1641273315751590  0.8553012462039504  0.6641188174298733
  0.0847648210860683  0.9228160737832667  0.7687261293255006
  0.9909048005074723  0.9907782860824739  0.8533978772077049
  0.9005155578198654  0.0917266612722756  0.9149052445456718
  0.8257087469032243  0.1844857433269382  0.0127636113442051
  0.7442798999041003  0.2520568283984659  0.1118891657676002
  0.6670872437664812  0.3616505754015833  0.1761072254854952
  0.5786600705266522  0.4294543549708294  0.2725846100055946
  0.4797878501358568  0.4951173624430609  0.3311631663070429
  0.0909595535642964  0.0818966734596032  0.9173713892551731
  0.0023342169144058  0.1607148695356813  0.9969193129145708
  0.9180477433469179  0.2491830880883867  0.0920591080276481
  0.8472000739231191  0.3613114306121616  0.1699141233117558
  0.7619762796691418  0.4421228542315987  0.2569273550507489
  0.6674079117717611  0.5163501408535112  0.3444173439622773
  0.5880762092423879  0.5888671576560398  0.4295946835291318
  0.4991593902341549  0.6585805806960749  0.5036817240070306
  0.4318008381283462  0.7691860495085123  0.5775892871413717
  0.3318746753376516  0.8343337783704925  0.6611216499840182
  0.2497000639335099  0.9190011657875843  0.7448340126268675
  0.1760309328298604  0.0085103981858836  0.8422744970230980
  0.1671054408415245  0.9954077474426626  0.9965148715336056
  0.0770193338927498  0.0913561980540223  0.0803483027651239
  0.9877234576040905  0.1681208972668458  0.1869425672300835
  0.9095028145728463  0.2661928359506121  0.2498502512387120
  0.8251738232238495  0.3361679498321735  0.3484636273275825
  0.7380714736673895  0.4283210975585376  0.4323226844082129
  0.6744826880044741  0.5047359835770777  0.4984048040038331
  0.5960409973627421  0.5782480320466732  0.5828647926156805
  0.4985486219331889  0.6759809827779080  0.6610234281347402
  0.4331455795972161  0.7410606234516095  0.7409934413210237
  0.3347277181730988  0.8225733307360343  0.8313244495724419
  0.2607171236913643  0.9122585031567141  0.9137515968392904
  0.2476393615639765  0.9183489940461911  0.0786664548869211
  0.1582663964476936  0.9912543534723852  0.1645603517341954
  0.0858293629625209  0.0742461589946473  0.2426618027251664
  0.0029774159873739  0.1774896927195684  0.3275801616319001
  0.9181509699912098  0.2490562290218179  0.4120115175217762
  0.8424059418205090  0.3495082029689129  0.5083183199472572
  0.7574545407775943  0.4097913225245762  0.5830548809238394
  0.6621372652441480  0.4986509699912105  0.6614507572124992
  0.5725683444218035  0.5777964886517992  0.7534565681691063
  0.4946880719052160  0.6644629200631371  0.8309949252777145
  0.4244554877926987  0.7521624215815521  0.9195931875849084
  0.3396335735834697  0.8251718512746749  0.9999809193438836
  0.3236334447174940  0.8202582129585210  0.1642919104131693
  0.2494602128786028  0.9050699572444643  0.2347565856509206
  0.1617155563214254  0.9854144509709926  0.3214706615120306
  0.0885180537241297  0.0888997772316813  0.4008908045632538
  0.0142573093982250  0.1730993851394516  0.4901821750379582
  0.9304657141572790  0.2600341115240141  0.5837015079317496
  0.8363244006233543  0.3241813454007811  0.6705080361424152
  0.7476615380004787  0.4059681795932235  0.7429331859865727
  0.6669606119635603  0.4897664448973060  0.8231642506792909
  0.5793958578078815  0.5897471309837741  0.9183402166746575
  0.5040174128905903  0.6598073653400434  0.0140112982498195
  0.4275587563933527  0.7300381108646974  0.0822454412411062
  0.4270987448054058  0.7447999475545402  0.2507413400063925
  0.3274839806601122  0.8289756877847054  0.3333548194877309
  0.2480720965196213  0.9091496099056968  0.4113957798889132
  0.1632282745944238  0.9851839212219318  0.4938935492088206
  0.0877752467433837  0.0871913345121058  0.5894136403140706
  0.0022103262606876  0.1597872852233664  0.6812716419923248
  0.9322136917605661  0.2456055961799706  0.7604883396267894
  0.8347379240589774  0.3236016642691624  0.8314742672620454
  0.7474252647246900  0.3896600270718480  0.9186385434148505
  0.6715323328738094  0.4859256713018496  0.9997529644170058
  0.5960458003676194  0.5802748341724637  0.0985335111484034
  0.5084299093942306  0.6664907171541614  0.1664237852633264
  0.4850228722129017  0.6540394269959222  0.3295798504555236
  0.4250616209142493  0.7538800467513767  0.4345580746024140
  0.3240117802485400  0.8327142686605953  0.4897930457324406
  0.2550962868616651  0.9254667096219933  0.5914952589307134
  0.1661545133061608  0.0030932125589374  0.6624852208702947
  0.0848636927595336  0.0677062599896132  0.7690709936665883
  0.9951680432350329  0.1563372212898599  0.8498421756373347
  0.9216527421481686  0.2394122652441482  0.9268062649844140
  0.8506194133101559  0.3279706380364402  0.0050052760129446
  0.7568600950012012  0.4272231619116127  0.0830618162111421
  0.6689223287780734  0.4895080945816375  0.1694634470151044
  0.5855646467673594  0.5663869405817934  0.2614802050867127
  0.1852383026652262  0.1748564268161132  0.8218153785063507
  0.0761489401022928  0.2520773385678865  0.9155258905738037
  0.9993846764365060  0.3373156642092212  0.0018038554902873
  0.9255267571725412  0.4145334502117777  0.0832238202269622
  0.8548605095700452  0.4951135843722554  0.1579638615839514
  0.7449738886557995  0.5868750104890950  0.2322203383481209
  0.6696226953967894  0.6684736668864417  0.3367249075960999
  0.5594108901742203  0.7462659923679382  0.4191267771517602
  0.5074299623391667  0.8428755454327472  0.5055835620954241
  0.4021683653999872  0.9113655698074012  0.5777052075841098
  0.3454539129305516  0.9921925981978745  0.6610887936545993
  0.2478415353032872  0.0730601189762652  0.7469779429393455
  0.2473491778550283  0.0700544558659004  0.9101306381363372
  0.1572215266123251  0.1663695831335446  0.9999969072164916
  0.0867415577799093  0.2439854536282269  0.0863102873012096
  0.0051307360345234  0.3415725215775609  0.1642861499041004
  0.9236398215855530  0.4206768995244943  0.2756058474186815
  0.8412079951850089  0.5159504140693656  0.3476612992487844
  0.7552751373571454  0.5983590630744047  0.4035130359426233
  0.6612197000119906  0.6669270134060596  0.4895034509110516
  0.5861703882961748  0.7544455501278691  0.5636166197154964
  0.4998661152401525  0.8472387237273225  0.6557794618596660
  0.4147399829177658  0.9079573813234205  0.7367974971030122
  0.3484146317829442  0.0032682290417938  0.8328133596060070
  0.3313274514504911  0.0011445646527619  0.0144514619795402
  0.2427364735674900  0.0675702474426600  0.0720446305841946
  0.1652782990689659  0.1582525203788094  0.1693070641532799
  0.0821400278710129  0.2454098457604061  0.2418900938024464
  0.0050591634699941  0.3270642516782516  0.3279098862183361
  0.9325638136338199  0.4211206285463120  0.4142319792415918
  0.8414807859825757  0.4902684652960900  0.4878835206385332
  0.7603803679173637  0.5796627817070217  0.5725204836969553
  0.6680566101254684  0.6595238442020275  0.6458164114321079
  0.5883538769679504  0.7593278550307687  0.7341576100855107
  0.4915075401582385  0.8456039933469199  0.8241175582394291
  0.4276368381882847  0.9036936446096036  0.9200651567369960
  0.4219339591824536  0.9004782905778015  0.0949460860704860
  0.3283563304163692  0.9958882682010710  0.1643937639854585
  0.2468314557859799  0.0613298894150063  0.2451799533485186
  0.1640053389474971  0.1710556296451671  0.3206523180891878
  0.0962288594861320  0.2574044273955067  0.4166689737672797
  0.0005777151762132  0.3488813638815600  0.4979878306561147
  0.9227957459242404  0.4205271892232076  0.5907923319747468
  0.8444584137496989  0.4983218158115577  0.6661344531687021
  0.7383611798729319  0.5863716090266138  0.7231422480620182
  0.6732017641652703  0.6651859366259103  0.8276733856788923
  0.5672678479381474  0.7433573923119923  0.8931719376848051
  0.5042829702109799  0.8218188968472759  0.0085557580116671
  0.5028512212299177  0.8254736723807241  0.1806390778590270
  0.4111327534364264  0.9019139085351213  0.2535451270678521
  0.3276771207943767  0.9913347393710552  0.3536833962678827
  0.2413751758171472  0.0814529089746685  0.4189319952249662
  0.1512888456005754  0.1677338408055604  0.5100019654559276
  0.0850066725605387  0.2569852878006884  0.5977151032925789
  0.9980683668984227  0.3387654953847985  0.6813833023655391
  0.9226361773755301  0.4116625469511703  0.7476579467353943
  0.8116954152681188  0.5000226194757431  0.8356602713178276
  0.7268622517581704  0.5907485904659140  0.9236517926356598
  0.6637357463238232  0.6708331690042328  0.0008280598177919
  0.5848419498721356  0.7554031292455861  0.0914754185646913
  0.5921471164988432  0.7371106719012204  0.2572058594062199
  0.5010627327579300  0.8116631223527548  0.3197650218772452
  0.4200004015823566  0.9146570077119804  0.4091785787780680
  0.3281553129745092  0.9889792820466710  0.4914319662550923
  0.2346102912970522  0.0692442060257363  0.5648153570286922
  0.1638765134260396  0.1554665412970522  0.6724852033884758
  0.0789484591025342  0.2430802665228171  0.7635557380324443
  0.9945682615080287  0.3352105710061508  0.8433143380883905
  0.9097227833053623  0.4121554383441222  0.9105956914808573
  0.8098657341365012  0.4936271877247691  0.9879692714576862
  0.7459034264365059  0.5834996313833614  0.0926285947614502
  0.6682798689363096  0.6769190481898804  0.1767596849276742
  0.2636629680132643  0.2538663754695136  0.7601740969391813
  0.1748573423639428  0.3391023125949033  0.8375684453168688
  0.0817290862502986  0.4220893965276105  0.9115248891153200
  0.9997960011587921  0.4914366249100937  0.9819040198193889
  0.9267368167106227  0.5769360844721518  0.0645215011388132
  0.8395845720450765  0.6751249275753253  0.1495007911771751
  0.7651193563693752  0.7411249300727221  0.2624729736074514
  0.6711926871054104  0.8291847668424808  0.3294629869935264
  0.5744149139894503  0.9165857438264240  0.4147534519100162
  0.5065829287540993  0.9923790822544518  0.5022388181291433
  0.4230783964676732  0.0639807879804977  0.5696034299328687
  0.3228179398425652  0.1610515099296705  0.6451571935187417
  0.3356472978102758  0.1538937090425989  0.8338685352233668
  0.2656160003596284  0.2485880154639162  0.9183252607288424
  0.1582351634300352  0.3243752582314414  0.9918457094621616
  0.0818731793934333  0.4279586165388025  0.0762670552625266
  0.9967538355110719  0.4914212419084123  0.1698044014225175
  0.9285288120354807  0.5831235440142279  0.2488433713937539
  0.8558637142371950  0.6602938688763658  0.3292172685407166
  0.7640720675497477  0.7515035383201507  0.3946695057140559
  0.6624889245184988  0.8295641797530564  0.4963681221529583
  0.5826728197674385  0.9101859161472063  0.5802579232598077
  0.5085039933469204  0.9873586764764681  0.6679131623111942
  0.4332162351154807  0.0889575761208334  0.7401538629824955
  0.4185635598977058  0.0720578678174704  0.9259206964756643
  0.3230822529569224  0.1575203648205843  0.0081597888196256
  0.2524157521177983  0.2521856569168079  0.0760164074362635
  0.1660969376848058  0.3405009265364001  0.1682418529729048
  0.0829048799248753  0.4130868541716595  0.2648626798129925
  0.0063518770478694  0.5033189987413067  0.3541322959122510
  0.9422420597578522  0.5965713847598479  0.4144443993247009
  0.8275837164349085  0.6497293809438176  0.5035028045832348
  0.7477856099656393  0.7593716869455776  0.5645015249140926
  0.6636137561935556  0.8338236114440960  0.6593526802125780
  0.5869447095021201  0.9145581625109855  0.7433059667945372
  0.5088498576480447  0.9993814008431201  0.8369260479101754
  0.4997188688763714  0.9976531941780564  0.0090535967593723
  0.4199733292375925  0.0777370170023204  0.1077515319068141
  0.3340887901582335  0.1526758116558753  0.1756661167385900
  0.2645446750379605  0.2523482348357717  0.2477289583832842
  0.1785029464357066  0.3253613067409873  0.3267825891073315
  0.0900079002837018  0.4177308229441365  0.4153189388036438
  0.0189431760968617  0.4966765089307117  0.5108059967633665
  0.9282720810357219  0.5916556671062096  0.5662118296971173
  0.8222635948613473  0.6561870025173846  0.6520962359146480
  0.7393386388156316  0.7525947144969223  0.7339551231719028
  0.6737111948573471  0.8374300692280059  0.8246361898625452
  0.5724814582833844  0.9185230645129039  0.9252308439223214
  0.5844048619435753  0.9048334062574952  0.0824625564412997
  0.5115963537920578  0.9772232208503127  0.1843350710261333
  0.4193874225805132  0.0650917121193970  0.2726074647366730
  0.3386320256932791  0.1603585056541164  0.3263637691800554
  0.2565171471669458  0.2377055157636079  0.4170551471469679
  0.1663559972628477  0.3242633631023750  0.5138422056061671
  0.0850884550067903  0.4114398630424390  0.5895302085830707
  0.0125314707703978  0.5037350560417195  0.6815798079996824
  0.9144816191161169  0.5853190002397497  0.7433158150523482
  0.8223181536202375  0.6590481354391429  0.8302303479381479
  0.7490469521697420  0.7398542560736843  0.9177747432670031
  0.6490528740110264  0.8276068353911938  0.9916968243027284
  0.6650745704467340  0.8264245739431004  0.1848676706225518
  0.5789338168304994  0.9029064472948107  0.2680439432989701
  0.5019624340685667  0.9968991838487966  0.3388182455246564
  0.4149944922280824  0.0864310297290842  0.4336995684488159
  0.3276098107967726  0.1635027231679089  0.5054693234036591
  0.2265253935906628  0.2476702534364250  0.5843272072045096
  0.1761634125509488  0.3354718532725940  0.6870296616518843
  0.0942706560177413  0.4104029833972689  0.7583856988731696
  0.9991602583313366  0.5003942439862570  0.8242280992767519
  0.9098241184168501  0.5745524879125696  0.9099000963997455
  0.8170685112483014  0.6626961180372390  0.9893692519779407
  0.7423977733157514  0.7514527321585547  0.0919607508191476
  0.3371732528170668  0.3469344431790944  0.6674591889434964
  0.2580611833692927  0.4321744181051699  0.7662563958483162
  0.1648733637017514  0.5120765134260381  0.8261100730240543
  0.0841411831695069  0.5840089357068621  0.9070864191241128
  0.9904334502117820  0.6683390139255181  0.9899957599096965
  0.8999184817789470  0.7455970625549426  0.0636810756812949
  0.8123366244106123  0.8402220820346855  0.1729055472308829
  0.7520365150243720  0.9094838343123186  0.2598321155997780
  0.6545867133181460  0.9916042021297855  0.3494452019899299
  0.5795115235155421  0.1030160053544336  0.4312867223087977
  0.5016332679013829  0.1714752017901375  0.5131033689962408
  0.4143709532086604  0.2650084876728229  0.5748484536082472
  0.4194719476744169  0.2473233816830529  0.7346498776272696
  0.3470967613681779  0.3380072204906881  0.8363254075761191
  0.2462113541916437  0.4290522496603515  0.9225859860744805
  0.1629443658595093  0.5104524409614015  0.9919333143530693
  0.0802565252137768  0.5681311516023371  0.0880399939063352
  0.9936465356029700  0.6711644369855350  0.1582999175857083
  0.9048719816390971  0.7529041322025094  0.2266845320866295
  0.8429951765164247  0.8293181581155622  0.3461642047270814
  0.7469979101734197  0.9072730165627760  0.4195696890234188
  0.6681488481978732  0.0020367517781494  0.4815470800367621
  0.5860184787820657  0.0833655877886983  0.5640342808479204
  0.5018219207024686  0.1620671971150003  0.6559057789898475
  0.5016348942100208  0.1603410383201478  0.8371694492727570
  0.4196217763525922  0.2399729741069265  0.9131294268960275
  0.3222368461799761  0.3359708598058049  0.0032425082913790
  0.2336239655758021  0.4292896182969699  0.0871368591664634
  0.1693096634500151  0.4973339761647892  0.1824674658355292
  0.0792836055502306  0.5656090266123215  0.2639013570886277
  0.0005062015503867  0.6809387851634270  0.3339683294373827
  0.9192832484216424  0.7296939298129956  0.4202933084592004
  0.8358310676896039  0.8363615110285281  0.4938932764924502
  0.7554320781387389  0.9260830960800774  0.5658260059538094
  0.6635383386278306  0.0074829172660458  0.6494709966634673
  0.5815975780188580  0.1036362308199443  0.7300019369855377
  0.5775925327659266  0.0962389869535656  0.9189105380404357
  0.4960421881243491  0.1558134639974398  0.0060209761847645
  0.4064165412970482  0.2353321300847142  0.0714203882961755
  0.3369450901062905  0.3234267307000707  0.1611017062255229
  0.2568614156277462  0.4291758351314598  0.2596130339446958
  0.1785609031607152  0.5073944462758746  0.3421504720091093
  0.0962762831655084  0.5844248206864862  0.4257847353752098
  0.0258641153200685  0.6769126173779298  0.4972709397226893
  0.9239206240509859  0.7401170013186302  0.5837097753336522
  0.8332895988172311  0.8378030388396098  0.6505182105610174
  0.7537996273875152  0.9315778250619360  0.7313937395109065
  0.6582674138895541  0.0021931616119204  0.8158163325141885
  0.6625806785942601  0.0120195366818479  0.9924069467753540
  0.5941325266722615  0.0841835571006158  0.0980757642052268
  0.4952095345840348  0.1522799223807212  0.1720536397146972
  0.4137641103252605  0.2592732862822658  0.2418560012586894
  0.3378242587708797  0.3289455521257878  0.3344681950771218
  0.2588078343522753  0.4023442514784605  0.4269272047071055
  0.1606759475145836  0.4919633920722433  0.5058811730799988
  0.1066150628346492  0.5956051146807297  0.6045156577159787
  0.0022770908255438  0.6753718332933758  0.6866016397946169
  0.8993219881323427  0.7515965316071274  0.7495321745384800
  0.8220909354271555  0.8390669768440802  0.8177510459122530
  0.7458649444577645  0.9134705810956589  0.9079803624230820
  0.7210038489970430  0.9255020893270967  0.0841423574482505
  0.6576024259769824  0.9870203793055197  0.1820323248821225
  0.5882776252697184  0.0915420262926574  0.2673037316191156
  0.4972025798169923  0.1914283545113094  0.3417357313394049
  0.4133677595300895  0.2479678893950279  0.4324679488332137
  0.3187778225645346  0.3378069712498970  0.5145360809757875
  0.2229778825021995  0.4198080721050133  0.5988336919603583
  0.1597995624550492  0.5042361119435768  0.6689755973787257
  0.0815149814193248  0.6086586709821802  0.7488357253456428
  0.9963337743746479  0.6741814807600122  0.8425955930831961
  0.9010164833573100  0.7483422270838318  0.9151048809238418
  0.8175144814393036  0.8285466160193380  0.9908054997802296
  0.4256152920962180  0.4254028405458357  0.5801287870614544
  0.3279534069567660  0.5039190641732603  0.6763543754495345
  0.2550805392391879  0.5819020403780044  0.7571277546351780
  0.1604407421281877  0.6839427020898299  0.8352408410253318
  0.0788147551546388  0.7444577029888890  0.9137840625749192
  0.9902689547870196  0.8435291676656291  0.9838932899784254
  0.8999831685047539  0.9154390004395410  0.0625709671941195
  0.8270825011987526  0.0054993706545190  0.1727151562375155
  0.7380252422480638  0.0907603896947151  0.2606978437425056
  0.6778799358666987  0.1870932600095898  0.3430004989810627
  0.5964301691241118  0.2631815746623545  0.4293826490449959
  0.5078184368257013  0.3419010858706955  0.5005251088867553
  0.5138057145568595  0.3330014749660322  0.6527836749780249
  0.4453309872732376  0.4261224481539188  0.7464875479501316
  0.3399882791896403  0.4998208667985296  0.8276254575241779
  0.2488611808718915  0.5952535787780704  0.9147859990609746
  0.1498920977183715  0.6688309598018094  0.9912005054743034
  0.0921261667865423  0.7561909853752127  0.0847249655358411
  0.9925710211380192  0.8337094646567564  0.1502781037720737
  0.9202186211340191  0.9020200496483639  0.2609392551746197
  0.8150206924798198  0.9997466434907665  0.3354410717853398
  0.7423323788260205  0.0965178064812591  0.4247856034723867
  0.6707392546751407  0.1643406751977921  0.5025915173219886
  0.5798549138895552  0.2530084502117802  0.5768861783744939
  0.5763311071485688  0.2377094736474064  0.7452813463997430
  0.5126544978222682  0.3192994315911477  0.8215473132941753
  0.4291019949252757  0.4135230050747225  0.9168523135938642
  0.3340309757851827  0.4997712678814068  0.9897151872053058
  0.2480564058379287  0.5823274079956846  0.0717493316950382
  0.1767557130584194  0.6489925052944940  0.1735741958363306
  0.0879773170902283  0.7580769015224149  0.2341813059418172
  0.0013276907016717  0.8153501583353346  0.3232866983337317
  0.9160439602813071  0.9243196725405554  0.4138258770878309
  0.8364971090066362  0.0127074967034275  0.4932960326260698
  0.7469174068968272  0.0868447075041985  0.5654603352513377
  0.6684741528810036  0.1791787525973021  0.6526296771357778
  0.6563846904219588  0.1787055971789329  0.8274595086110423
  0.5813685152441437  0.2354949932070625  0.9350688923519570
  0.4918645618556710  0.3204925427555310  0.0111243666586773
  0.4135675207783933  0.4237325511468057  0.0985054877926927
  0.3270036282266418  0.4962752157755901  0.1617678774074989
  0.2656651107847807  0.5952684438184264  0.2621606409334305
  0.1787949207823871  0.6676661816710592  0.3453874750259729
  0.0860565786581944  0.7661683204467380  0.4217244540677711
  0.0017425602373535  0.8282177984895682  0.5011853442419891
  0.9194181626108815  0.9245602598297751  0.5682220265923448
  0.8407041122232854  0.0041476874051014  0.6535962179333481
  0.7518177775113912  0.0861012656836877  0.7347304463358100
  0.7489535662910569  0.0888908919723477  0.9044941475865116
  0.6818413155318481  0.1798033664988381  0.0155513126348623
  0.5626147756333424  0.2331816101254702  0.0883939218213072
  0.4997084312315181  0.3179859556061686  0.1809775638336149
  0.4095398525533440  0.4210691435906639  0.2502242702589328
  0.3343381408335304  0.4965493891352963  0.3420130204587224
  0.2510606933788893  0.5787583323343739  0.4193206095660500
  0.1711165877487417  0.6662847723367733  0.4941799838168279
  0.0986627487413116  0.7467885099496527  0.5874990140254113
  0.9979599816191183  0.8309179263565909  0.6681481993726521
  0.9247581964756648  0.9216573538519910  0.7517035333253403
  0.8232950296691470  0.0064771717413876  0.8246797575521470
  0.8161172195916251  0.0182867248062024  0.0146505224566482
  0.7409689692719539  0.0832754465356018  0.1000082539159308
  0.6636240914448948  0.1770062400103924  0.1807512277231709
  0.5932726404539252  0.2564198738312129  0.2749121748381711
  0.4982467968312960  0.3312005833932687  0.3345276837089415
  0.4116152866019362  0.4051895613561882  0.4326205910852678
  0.3266439827579291  0.4782420108087564  0.4988913569887288
  0.2554410667905387  0.5819554433389271  0.5809429488332114
  0.1843259265364026  0.6699537291217155  0.6701104096739385
  0.0780872332773939  0.7564914923479549  0.7532269729481342
  0.9909287840645717  0.8245589616798554  0.8385022756333385
  0.8928198428634246  0.9102114700711255  0.9099187794693506
 
  0.00000000E+00  0.00000000E+00  0.00000000E+00
  0.00000000E+00  0.00000000E+00  0.00000000E+00
  0.00000000E+00  0.00000000E+00  0.00000000E+00
  0.00000000E+00  0.00000000E+00  0.00000000E+00
  0.00000000E+00  0.00000000E+00  0.00000000E+00
  0.00000000E+00  0.00000000E+00  0.00000000E+00
  0.00000000E+00  0.00000000E+00  0.00000000E+00
  0.00000000E+00  0.00000000E+00  0.00000000E+00
  0.00000000E+00  0.00000000E+00  0.00000000E+00
  0.00000000E+00  0.00000000E+00  0.00000000E+00
  0.00000000E+00  0.00000000E+00  0.00000000E+00
  0.00000000E+00  0.00000000E+00  0.00000000E+00
  0.00000000E+00  0.00000000E+00  0.00000000E+00
  0.00000000E+00  0.00000000E+00  0.00000000E+00
  0.00000000E+00  0.00000000E+00  0.00000000E+00
  0.00000000E+00  0.00000000E+00  0.00000000E+00
  0.00000000E+00  0.00000000E+00  0.00000000E+00
  0.00000000E+00  0.00000000E+00  0.00000000E+00
  0.00000000E+00  0.00000000E+00  0.00000000E+00
  0.00000000E+00  0.00000000E+00  0.00000000E+00
  0.00000000E+00  0.00000000E+00  0.00000000E+00
  0.00000000E+00  0.00000000E+00  0.00000000E+00
  0.00000000E+00  0.00000000E+00  0.00000000E+00
  0.00000000E+00  0.00000000E+00  0.00000000E+00
  0.00000000E+00  0.00000000E+00  0.00000000E+00
  0.00000000E+00  0.00000000E+00  0.00000000E+00
  0.00000000E+00  0.00000000E+00  0.00000000E+00
  0.00000000E+00  0.00000000E+00  0.00000000E+00
  0.00000000E+00  0.00000000E+00  0.00000000E+00
  0.00000000E+00  0.00000000E+00  0.00000000E+00
  0.00000000E+00  0.00000000E+00  0.00000000E+00
  0.00000000E+00  0.00000000E+00  0.00000000E+00
  0.00000000E+00  0.00000000E+00  0.00000000E+00
  0.00000000E+00  0.00000000E+00  0.00000000E+00
  0.00000000E+00  0.00000000E+00  0.00000000E+00
  0.00000000E+00  0.00000000E+00  0.00000000E+00
  0.00000000E+00  0.00000000E+00  0.00000000E+00
  0.00000000E+00  0.00000000E+00  0.00000000E+00
  0.00000000E+00  0.00000000E+00  0.00000000E+00
  0.00000000E+00  0.00000000E+00  0.00000000E+00
  0.00000000E+00  0.00000000E+00  0.00000000E+00
  0.00000000E+00  0.00000000E+00  0.00000000E+00
  0.00000000E+00  0.00000000E+00  0.00000000E+00
  0.00000000E+00  0.00000000E+00  0.00000000E+00
  0.00000000E+00  0.00000000E+00  0.00000000E+00
  0.00000000E+00  0.00000000E+00  0.00000000E+00
  0.00000000E+00  0.00000000E+00  0.00000000E+00
  0.00000000E+00  0.00000000E+00  0.00000000E+00
  0.00000000E+00  0.00000000E+00  0.00000000E+00
  0.00000000E+00  0.00000000E+00  0.00000000E+00
  0.00000000E+00  0.00000000E+00  0.00000000E+00
  0.00000000E+00  0.00000000E+00  0.00000000E+00
  0.00000000E+00  0.00000000E+00  0.00000000E+00
  0.00000000E+00  0.00000000E+00  0.00000000E+00
  0.00000000E+00  0.00000000E+00  0.00000000E+00
  0.00000000E+00  0.00000000E+00  0.00000000E+00
  0.00000000E+00  0.00000000E+00  0.00000000E+00
  0.00000000E+00  0.00000000E+00  0.00000000E+00
  0.00000000E+00  0.00000000E+00  0.00000000E+00
  0.00000000E+00  0.00000000E+00  0.00000000E+00
  0.00000000E+00  0.00000000E+00  0.00000000E+00
  0.00000000E+00  0.00000000E+00  0.00000000E+00
  0.00000000E+00  0.00000000E+00  0.00000000E+00
  0.00000000E+00  0.00000000E+00  0.00000000E+00
  0.00000000E+00  0.00000000E+00  0.00000000E+00
  0.00000000E+00  0.00000000E+00  0.00000000E+00
  0.00000000E+00  0.00000000E+00  0.00000000E+00
  0.00000000E+00  0.00000000E+00  0.00000000E+00