Li 
 1.0000000000000000
    20.0207999999999977    0.0000000000000000    0.0000000000000000
     0.0000000000000000   20.0207999999999977    0.0000000000000000
     0.0000000000000000    0.0000000000000000   20.0207999999999977
 Li 
 432
Cartesian
 -0.1589868200000000  0.1284744400000000 -0.3018387400000000
 18.1992485399999993  1.9553155900000001  1.8556039700000000
 16.7478044799999992  3.7043828400000001  3.5041740300000002
 14.9792024700000006  5.6331737200000003  5.1236074199999999
 13.5476742699999999  7.2165956299999996  6.8596430599999998
 11.4240730999999993  8.6307547600000003  8.4589454899999996
 10.1118021200000001 10.3422613499999994 10.0738603900000001
  7.9129611100000004 11.6637894000000006 11.9972498800000000
  6.4985938299999999 13.5539308500000004 13.3391619800000001
  4.9674737499999999 15.2353526000000006 15.0349359400000004
  3.2361172900000001 16.8213144700000008 16.4622526799999989
  1.4861023099999999 18.1354969600000011 18.1291734600000005
  1.0952625899999999 18.5318270799999993  1.5091334500000000
 -0.2042985700000000 -0.0743934000000000  3.2013397200000000
 18.5044594099999991  1.7654077900000000  5.1087242000000002
 16.4196963300000007  3.1868775299999998  6.2931780699999997
 15.2990618499999993  5.3330789500000000  8.8254394800000000
 13.4490747699999993  7.0043199500000002 10.1515232599999994
 11.8942563299999993  8.3326108500000000 11.4857690600000009
 10.3994401399999994 10.1220930700000000 13.2920717400000008
  8.4792305300000006 11.5282441099999993 14.9345348100000006
  6.5022514800000000 13.7073885499999992 16.5292383500000000
  4.8586668599999996 15.0930052900000007 18.3139145600000006
  3.0270942600000001 16.8323158500000005 -0.2203983700000000
  3.3892240899999999 16.8023798599999985  3.0666215200000000
  1.6208800100000000 17.7659365700000009  4.7504797700000001
 -0.0369743400000000 -0.1828126500000000  6.4035393100000002
 18.6314164799999986  1.9929257899999999  7.8010792899999997
 17.0318780799999985  3.2662297900000001  9.7254733600000005
 15.3720984600000001  4.8640152900000002 11.5397264699999997
 13.3953325099999994  6.3911898799999998 13.3319822699999992
 11.5331563300000006  8.2418704599999995 15.0759065099999994
  9.9239654099999992 10.0567375400000003 16.9851158899999994
  8.5053903799999997 11.9714469000000001 18.2378937599999986
  6.7102592300000001 13.5864453500000000 20.0481791999999999
  4.6783859799999998 14.8712396099999999  1.3390971599999999
  4.9506110300000001 14.8981212500000009  4.8714640100000004
  3.4133908100000001 16.4117980000000010  6.6058890200000002
  1.5212630100000000 18.2496227399999995  8.1450234600000009
 -0.2036639000000000  0.1572110000000000  9.7308753400000008
 18.5118467500000001  1.8705397800000001 11.4979729099999997
 16.7860414300000009  3.1988302200000001 13.4301342199999993
 15.0480974300000003  4.9195139799999996 14.6932354299999997
 13.3917939799999992  6.3509534199999997 16.5109501999999999
 11.5720688500000009  8.2122734000000008 18.2265335499999992
  9.9575316699999998 10.2612430499999991  0.3780444300000000
  7.9325136100000000 11.4345672700000005  1.7235452700000000
  6.5121892199999998 13.4565069699999995  3.3439175500000000
  6.9194795700000000 13.4387604899999999  6.9383013299999998
  4.9313262199999999 14.9845093600000006  8.3659322399999994
  3.2243223500000000 16.7341293200000010 10.0508300300000002
  1.6183589899999999 18.5342133900000015 11.4984305599999992
 -0.0165797600000000 -0.0964822000000000 13.2698006700000004
 18.6007553600000008  1.2096344699999999 15.2620796100000007
 16.6680637199999993  3.5000727800000000 16.2322135900000006
 15.1151530399999992  4.9886508899999997 18.4679631099999995
 13.4298431699999998  6.4812920900000002  0.3741523700000000
 11.5861946499999995  8.3060799999999997  1.6051493999999999
 10.0532629100000008 10.0402337300000006  3.3172661300000001
  8.2298777899999997 11.6609918100000005  4.5539656800000001
  8.2438287300000006 11.4105272000000006  8.5125329300000008
  6.6919651399999998 13.5835199800000002 10.2376246099999992
  5.0010901299999997 15.1970621799999996 11.6270006800000001
  3.2859604800000000 17.1238151899999984 13.2961900199999992
  1.6970595300000000 18.4755160499999995 15.3905120899999996
 -0.1820931700000000 -0.1846260900000000 17.0857082200000008
 18.0290418800000012  1.8364411400000000 18.3171349200000009
 16.5313496800000017  3.6935521699999998 20.2763377100000000
 14.9010790199999992  5.0463793499999996  2.2401106099999999
 13.3556202899999992  7.2405338400000003  3.5258075400000002
 11.5852375399999996  8.5980197500000006  5.4573619600000001
  9.6057365899999994  9.9126456899999997  6.6301515200000001
  1.8210830300000000  1.6396369200000001 18.3665091099999991
  0.0467328900000000  3.2176402600000000 -0.0616778200000000
 18.3800502600000009  4.9888447700000000  1.8430969900000000
 16.9616232400000015  7.2337438900000004  3.4018166800000000
 15.2553747000000008  8.8516532399999992  5.1438911899999997
 13.3620403200000002 10.3377429000000003  6.8955107599999996
 11.7737561700000004 11.7895915900000006  8.6008292399999995
  9.9935703199999999 13.1853100899999998 10.0841110599999997
  8.6449982199999997 15.3997200599999999 11.5637995999999994
  6.6443965000000000 16.7040297100000004 13.2361843300000004
  4.9991950400000000 18.3991385399999992 14.9121728000000004
  3.5242800999999999  0.1703849800000000 16.8630092500000011
  3.3455846100000000 -0.0919405700000000 -0.0697750600000000
  1.5419886800000000  1.8290241700000001  1.6086373000000000
 -0.2457862000000000  3.3659148600000002  3.7427397500000001
 18.2089739500000007  5.3293935299999999  5.0022019100000001
 16.5206400799999997  6.7303512899999998  6.9765205899999998
 14.7767813599999993  8.5753310299999992  8.6554459999999995
 13.5036830000000005 10.1052181799999996  9.9784629000000002
 11.9332176000000008 11.5769882000000006 11.6694194400000004
  9.9813422500000009 13.5336800600000000 13.2342178500000003
  8.6719210199999992 14.8366265300000002 14.8352814899999998
  6.7015167000000000 16.4685761399999997 16.6437805400000016
  5.2197653900000001 18.2641450399999989 18.2940379700000015
  4.9579381299999996 18.3860815399999993  1.5749653600000000
  3.1686198700000001 -0.1750948400000000  3.2946298899999999
  1.7183725100000000  1.4864675000000001  4.8582834200000002
  0.0596102500000000  3.5534856399999999  6.5584169000000001
 18.3821169399999995  4.9863049500000001  8.2488001900000008
 16.8656408800000008  6.9974338300000003 10.1769394200000001
 15.1648458700000006  8.2043501100000000 11.6732251599999994
 13.2565177599999995  9.9833913400000007 13.2427733199999995
 11.4632763099999995 11.5679479399999998 15.0848032599999993
  9.9040509500000002 13.3030792299999998 16.6371831999999991
  8.4979384299999996 15.0588934099999996 18.4109912899999983
  6.7997358500000002 16.5206006000000016 20.0204179899999986
  6.4794004699999999 16.4222256299999998  3.2892554800000000
  4.9943930300000003 18.1202246000000002  4.7000146500000000
  3.2376748100000001 -0.2920143600000000  6.4360998199999999
  1.7722022500000001  1.7798446600000000  8.0261546199999998
  0.2854427400000000  3.4655881700000002  9.8138392900000007
 18.6286679699999986  5.2060909400000002 11.6861711499999998
 16.7438835600000004  6.4903698800000003 13.4241072900000002
 14.9687821200000002  8.1278077300000007 14.8741167300000008
 13.3530850200000000  9.8055160400000005 16.4804068299999997
 11.5999685899999996 11.8072093599999999 18.3859058100000006
 10.0908318200000000 13.2098712999999996 20.3013173999999985
  8.5600683499999999 14.6159470099999993  1.6466195299999999
  8.5508585499999992 14.9114907900000002  5.0200422199999997
  6.5564912800000004 16.5967564500000009  6.6740301700000000
  4.9666018300000001 18.2019025100000000  8.2364726299999997
  3.2679606400000001 -0.2966297500000000  9.8881439699999998
  1.7573306600000000  1.7456402700000000 11.8005326099999994
  0.0442525000000000  3.1990692799999998 13.6396032900000002
 18.6636638800000014  4.9172205199999999 15.2255849500000000
 16.7121210299999987  6.4787641999999996 16.6467800100000005
 14.9640517400000004  7.8013054700000000 18.3918785500000013
 13.4446145300000008  9.7286206800000006 20.0158541499999991
 11.9333137600000008 11.6175663999999994  1.9727197200000000
 10.1791735299999999 13.3436773500000001  3.3319373200000002
  9.7105459199999995 13.0943925599999993  6.5984522700000001
  8.5100736999999995 15.0932816400000007  8.7002003000000006
  6.4869750499999999 16.6716058300000007  9.8060486099999995
  5.1072317399999996 18.5285839000000010 11.8422082799999995
  3.3265462800000001  0.0619285900000000 13.2634841100000003
  1.6990390200000001  1.3555334900000000 15.3974165500000009
 -0.0967396400000000  3.1299962400000001 17.0145202299999987
 18.4522252199999990  4.7932250800000000 18.5554028700000018
 17.0300811500000009  6.5662345499999999 20.1210096299999996
 15.1529445900000006  8.5533494799999996  1.6629640100000000
 13.3923601600000008  9.8003436599999993  3.3927937799999999
 11.7234726800000004 11.3395196600000006  5.2350428899999999
  3.7086190100000000  3.5007655500000001 16.4534013299999984
  1.5245626999999999  5.0467899799999998 18.3295607499999988
 -0.0123192700000000  6.7533294499999998  0.0361146300000000
 18.5297860999999990  8.2992913000000001  1.6662074600000001
 17.1149912899999990  9.9125700499999994  3.1625628799999999
 14.9149732299999993 11.7497072100000004  4.6492369499999997
 13.4063820600000003 13.3833775900000003  6.7415020300000004
 11.1998535500000003 14.9408421800000006  8.3912533800000002
 10.1591537899999995 16.8750427199999997 10.1221873799999997
  8.0517324099999996 18.2462677999999983 11.5661204200000007
  6.9162637000000000 19.8644895699999999 13.2355265200000005
  4.9619858099999998  1.4627220299999999 14.9550959999999993
  4.9521284200000002  1.4025462500000001 18.2215434800000011
  3.1477007399999999  3.3308521500000001 -0.0000619200000000
  1.7366353800000001  4.8847839700000000  1.7280009999999999
  0.1027214400000000  6.8385551400000004  3.2891401500000002
 18.4920081399999994  8.4222880700000005  5.5178495500000002
 16.8416570300000004 10.3297400499999998  6.9604573399999996
 15.1212124699999997 11.9796271300000008  8.0786537900000006
 13.2381473700000001 13.3524123499999998  9.8002506900000004
 11.7356001100000000 15.1046034700000007 11.2840556200000002
 10.0077195200000002 16.9623970399999990 13.1292294500000004
  8.3034262499999993 18.1780331400000001 14.7512753300000004
  6.9755396599999999 20.0862325599999991 16.6735897100000017
  6.6334406399999999  0.0229151000000000  0.2893298300000000
  4.8597783899999998  1.3528104100000000  1.4423911400000000
  3.3090037699999999  3.1683420600000001  3.3896628700000000
  1.6445090700000000  4.9133014399999997  4.8428331900000003
  0.1012885000000000  6.5480879700000001  6.5650182499999996
 18.6706736000000006  8.4311718800000008  8.2932556099999992
 16.8471185199999987  9.8155668899999995  9.7678183900000004
 15.2234232699999996 11.6053126199999994 11.4623180999999992
 13.3750277799999999 13.2041949800000005 12.9297612100000006
 11.7793153000000004 15.2023511199999994 14.6984226800000002
  9.8403741599999996 16.9296684299999995 16.4994928099999996
  8.5616316099999992 18.0926697200000000 18.4204404900000007
  8.4474554099999999 18.0282957599999989  1.9008966000000000
  6.5739564200000000 -0.0823201600000000  3.2912946700000001
  4.9417632100000004  1.2278734499999999  4.9086988099999997
  3.2835180899999998  3.4246705500000001  6.4197159299999997
  1.9265787500000000  5.1534425600000002  8.3420461899999996
  0.0115663200000000  6.9848840100000000  9.9701147599999995
 18.4751090699999985  8.4192907500000000 11.8281351200000007
 16.9067330100000000  9.9768014100000002 13.3365446599999995
 14.7825815100000000 11.7396287099999999 14.4778863199999996
 13.4780378800000005 13.3175545999999994 16.5706833200000005
 11.3571561299999999 14.8826096799999998 17.8820167300000001
 10.0961484899999991 16.4534717700000002 20.1920931199999991
 10.0674837299999993 16.5266432999999999  3.6165388500000000
  8.2312066300000009 18.0570379800000005  5.0761762800000003
  6.5603581000000002 -0.1734854500000000  7.0810245399999996
  4.8325241200000004  1.6307524000000000  8.3873536899999994
  3.0289237199999999  3.3581656799999999 10.2106473500000003
  1.7019015900000001  5.1450510500000002 11.9667345399999991
 -0.0386728400000000  6.7823562300000004 13.6418388200000003
 18.4719143800000012  8.2418135199999991 14.9687102200000002
 16.2507915700000005 10.0108528600000000 16.7305871599999989
 14.5523637699999995 11.8272593799999992 18.4922478099999985
 13.2885206300000007 13.4306167100000007 20.0373784199999996
 11.7090037099999993 15.1237749699999995  1.8314110600000000
 11.8552589899999994 14.7575453400000001  5.1494670700000000
 10.0316767599999999 16.2501450399999996  6.4019515499999997
  8.4087440400000002 18.3121650199999983  8.1920824900000007
  6.5699318900000003 -0.2206435900000000  9.8388611099999999
  4.6970857199999996  1.3863243999999999 11.3080552999999995
  3.2809389000000002  3.1125645300000002 13.4636917599999997
  1.5806113100000001  4.8666613999999999 15.2869967199999994
 -0.1087477500000000  6.7111837999999997 16.8838277000000012
 18.2133779000000011  8.2516815999999995 18.2308542200000012
 16.2141598900000012  9.8828112000000008 19.7799351899999998
 14.9335833200000003 11.6821294200000008  1.8544985700000001
 13.3794976000000005 13.5524608799999999  3.5388703000000001
  5.2787435499999997  5.0826079300000000 15.2192935600000006
  3.5007838800000002  6.7890995800000002 16.7687903300000016
  1.6362816899999999  8.4505673899999998 18.2494574999999983
 -0.0040842200000000  9.8389543800000006 -0.3622960000000000
 18.5540124599999992 11.5507219600000006  1.2917720699999999
 16.8091548000000017 13.5165411500000001  2.9931254400000000
 15.3183016100000007 14.8379139999999996  5.2549189099999998
 13.4378145500000006 16.6009423799999993  6.5961125699999998
 11.5002461100000009 18.3507798599999994  8.3036959100000001
 10.1421954999999997 -0.1525768700000000 10.0552229299999993
  8.4703679600000008  1.2809465600000001 11.4039163499999994
  6.4630734099999998  3.2243800700000000 12.9165631399999992
  6.7199274200000003  3.0810751700000001 16.6947151699999985
  5.3178448200000004  4.9769309399999999 18.3856063799999987
  3.1679945599999999  6.4942521700000002 -0.1632554200000000
  1.6391665500000001  8.5680738699999992  1.5269274600000000
 -0.0649908100000000  9.8386464000000000  3.3996199599999999
 18.5898896399999991 11.6745998499999999  4.9820433700000004
 17.1350762500000009 13.2196114900000001  6.5911930900000000
 15.2973340499999999 15.0457020400000001  7.9015992400000004
 13.2635582599999999 16.6085385300000006  9.9376868999999992
 11.6655759900000007 18.2226501899999995 11.6172278299999991
 10.1806567500000007 19.7677105900000001 13.3721558399999996
  8.6733355999999997  1.7810018400000001 14.8184724600000006
  8.3799773200000001  1.4426561600000001 18.5376730800000011
  6.4683651700000002  3.1536837200000001  0.1633655000000000
  5.0535652899999999  5.0489585999999997  1.5219092900000000
  3.3253935700000001  6.8171009500000004  3.3683364899999999
  1.6598220200000000  8.2703292899999994  5.3027627400000004
  0.1271696600000000 10.0768490100000001  7.0900118699999997
 18.8644398299999985 11.9438363800000005  8.2975084300000006
 16.5688880699999999 13.0081019900000001 10.0805289499999997
 14.9712661399999991 15.2032286699999997 11.3017721299999998
 13.2860782900000007 16.6938157599999997 13.2007681399999992
 11.7511026399999992 18.3101860599999995 14.8815801000000008
 10.1875812299999993 -0.0123848500000000 16.7559290200000000
 10.0047715299999993 -0.0469849300000000  0.1812602500000000
  8.4082020300000000  1.5563572699999999  2.1572718700000002
  6.6887248499999998  3.0566918900000002  3.5169761899999998
  5.2963960300000004  5.0522135400000003  4.9597319300000002
  3.5737717899999999  6.5139936499999997  6.5424488600000004
  1.8020301700000001  8.3633052600000006  8.3150174099999994
  0.3792575400000000  9.9438610500000006 10.2267446999999994
 18.5847496800000016 11.8454197800000003 11.3360137999999999
 16.4623749799999999 13.1373887400000005 13.0554883200000003
 14.8021510200000002 15.0675482600000006 14.6943687300000008
 13.4882370900000002 16.7660199299999988 16.5098762299999997
 11.4615367799999994 18.3895665699999995 18.5238616799999996
 11.7002528600000009 18.1154886600000005  1.6509663500000000
 10.2425682800000004 -0.4560093400000000  3.6905355900000001
  8.3964717100000001  1.3031881500000000  5.4578195300000001
  6.7796840600000001  3.2105055700000000  6.5340637499999996
  5.1356785000000000  4.7590545899999999  8.3497776899999998
  3.3305801499999999  6.4920119400000003 10.2875320299999995
  1.7035389400000001  8.2373552100000005 11.8028663999999992
  0.2508900700000000 10.0851788100000004 13.6457730200000000
 18.3086535999999995 11.7185546400000007 14.8817772700000006
 16.4634672900000005 13.1946709099999993 16.6218757500000009
 14.9965192199999997 14.8124740900000003 18.3745845800000005
 12.9945577799999992 16.5693509299999988 -0.1662362200000000
 13.3153249599999999 16.5456811100000003  3.7011986600000002
 11.5907181599999998 18.0769094000000017  5.3664541799999999
 10.0496894999999995 -0.0620808200000000  6.7834123300000000
  8.3085217300000007  1.7304183600000000  8.6830123199999996
  6.5590105000000003  3.2734553200000001 10.1199002300000007
  4.5352195999999996  4.9585566099999996 11.6986981500000002
  3.5269324499999999  6.7164148800000003 13.7548834499999995
  1.8873739500000000  8.2165960499999997 15.1834883999999999
 -0.0168123000000000 10.0182930799999994 16.5017059300000000
 18.2154067099999999 11.5030004500000000 18.2169278500000011
 16.3583652499999985 13.2677064399999995 -0.2128360800000000
 14.8633973400000006 15.0446848600000003  1.8411278000000000
  6.7504782600000004  6.9459051000000001 13.3630669300000005
  5.1665913400000001  8.6524775900000002 15.3410660500000002
  3.3008966399999999 10.2521814599999992 16.5393845500000012
  1.6845737999999999 11.6923261000000007 18.1605957800000013
 -0.1915299800000000 13.3806817299999992 -0.2002928900000000
 18.0170879399999997 14.9274496699999997  1.2749460800000001
 16.2636290899999985 16.8219182600000003  3.4617073800000000
 15.0563726599999992 18.2085939500000009  5.2020468199999996
 13.1053496700000007 -0.1680905900000000  6.9961725000000001
 11.6022843099999999  2.0624628399999998  8.6347052099999999
 10.0430993300000004  3.4330707199999999 10.2727399300000002
  8.2960379799999995  5.3056819300000004 11.5089259199999994
  8.3981639700000006  4.9516119600000001 14.7082782699999992
  6.9491548400000003  6.7671749600000002 16.7439037199999987
  4.9293482800000001  8.5899692800000000 18.4709095099999985
  3.2622765600000001 10.2196662299999996 -0.1615015000000000
  1.6067998400000001 11.3744401600000007  1.7626311100000001
 -0.1272014400000000 13.4372489599999998  3.1692909899999999
 18.1162609699999990 15.0737430499999991  4.5384056800000003
 16.8774378300000016 16.6036129800000012  6.9304843099999998
 14.9554957599999998 18.1643316100000014  8.4001208300000005
 13.3768744599999998  0.0407774000000000  9.6409577800000008
 11.7325587599999999  1.6690457599999999 11.2924175299999998
 10.0468763100000000  3.2447149400000002 13.1317584200000006
 10.0431318899999997  3.2101558600000000 16.7608021100000002
  8.4011636599999999  4.8044509199999998 18.2815816300000016
  6.4514394499999996  6.7264053900000000  0.0649176100000000
  4.6773386900000000  8.5947215900000007  1.7445496300000001
  3.3897149099999999  9.9570240699999992  3.6531446399999998
  1.5873212100000000 11.3239452000000007  5.2835162899999997
  0.0101345600000000 13.6329392299999999  6.6863131300000003
 18.4047860599999993 14.6090562300000002  8.4146082700000004
 16.7340066400000005 16.7446265399999987  9.8881385099999992
 15.1243545499999996 18.5409244499999986 11.3282892999999998
 13.2845683700000006  0.1498139900000000 13.0029289299999995
 11.6440487899999994  2.0748802500000001 14.6152227799999999
 11.5638645800000006  1.9267815100000001 18.3973240999999987
  9.9311614400000003  3.1195102000000001  0.1205447600000000
  8.1367842899999996  4.7115375100000003  1.4298933100000000
  6.7459102599999996  6.4752618899999996  3.2253850399999999
  5.1425710300000000  8.5924435599999995  5.1976606299999997
  3.5749321300000001 10.1584427300000009  6.8501261700000002
  1.9275282100000000 11.7006524499999998  8.5245510299999996
  0.5178202800000000 13.5523321299999999  9.9557620300000007
 18.4976300299999998 14.8177344600000005 11.6863366699999993
 16.6831244000000005 16.7734870799999989 13.0238949900000005
 15.0916715799999999 18.6509333200000000 14.6430877800000001
 13.1790402400000008  0.0439088500000000 16.3332956299999985
 13.2653952499999992  0.2406407400000000 -0.1520190000000000
 11.8950084900000004  1.6854221599999999  1.9635552599999999
  9.9144910500000005  3.0487658700000000  3.4446515099999999
  8.2838884999999998  5.1908586100000003  4.8421506299999999
  6.7635119200000000  6.5857531099999997  6.6963208400000003
  5.1815398899999998  8.0552537900000001  8.5474241800000001
  3.2168610100000001  9.8495006800000002 10.1281457899999996
  2.1345188500000001 11.9244908800000005 12.1028870800000004
  0.0455891800000000 13.5214844000000003 13.7463141100000001
 18.0051456600000002 15.0475638400000005 15.0062337600000006
 16.4589181999999994 16.7987921299999989 16.3720301399999997
 14.9328128800000002 18.2884118099999995 18.1784932400000017
 14.4350738599999993 18.5292922299999994  1.6845973100000000
 13.1657266499999999 -0.2598623900000000  3.6444327699999999
 11.7777886800000005  1.8327446000000001  5.3516345500000000
  9.9543934099999998  3.8325488000000001  6.8418227299999996
  8.2759532399999998  4.9645155200000000  8.6583543100000000
  6.3821870299999999  6.7631658100000003 10.3014239700000001
  4.4641955900000001  8.4048934499999994 11.9891295800000002
  3.1993150799999999 10.0952103500000003 13.3934266399999995
  1.6319951399999999 12.1858335199999992 14.9922902899999997
 -0.0734007700000000 13.4976525899999995 16.8694378500000006
 18.0390708099999983 14.9824100599999994 18.3211317999999999
 16.3672939299999989 16.5881660900000014 -0.1840812500000000
  8.5211586399999995  8.5169051899999992 11.6146424199999991
  6.5658895700000004 10.0888627999999994 13.5411556799999993
  5.1069164599999999 11.6501443699999996 15.1583033500000006
  3.2121520100000001 13.6930800500000007 16.7221898300000014
  1.5779344500000001 14.9046387800000009 18.2946879600000010
 -0.1948233100000000 16.8881287600000007 -0.3224692200000000
 18.0183830200000017 18.3278211400000011  1.2527208200000000
 16.5588533399999989 20.1309018000000002  3.4578956000000001
 14.7758557699999997  1.8170956100000000  5.2193793900000003
 13.5716986199999994  3.7457567400000000  6.8671443900000000
 11.9410091299999994  5.2691056700000001  8.5965841399999992
 10.1669313599999995  6.8451332599999999 10.0209130999999996
 10.2868014500000005  6.6669559300000003 13.0692514000000006
  8.9158826300000005  8.5313123100000006 14.9452779000000007
  6.8068373400000004 10.0068136100000000 16.5697237599999987
  4.9823999299999997 11.9174528500000001 18.3147475300000018
  3.0009597100000001 13.3905308800000000 -0.1761729200000000
  1.8444395600000001 15.1395484800000002  1.6962615900000000
 -0.1487341000000000 16.6915304499999984  3.0086878600000002
 18.4235129700000009 18.0591630099999989  5.2242126400000002
 16.3173662800000017 20.0157276000000017  6.7157986100000002
 14.8620880900000003  1.9323637000000000  8.5045476099999995
 13.4287364700000005  3.2902317900000000 10.0622842499999994
 11.6091592600000002  5.0654315800000003 11.5497227999999996
 11.5386098300000004  4.7591338299999997 14.9211287800000001
 10.2637531699999993  6.3926300600000001 16.4480344500000015
  8.5909652199999993  8.2790613799999999 18.3561167999999988
  6.6875673600000001 10.0058205999999998 -0.2059101800000000
  4.9662876899999997 11.6586605700000003  1.4364790199999999
  3.5387907799999998 12.9933491500000002  3.4750942600000001
  1.7613762700000000 15.1773060300000004  4.6884970900000003
  0.0265814300000000 16.3239624499999998  6.4724583300000003
 18.3399329199999990 18.5056192999999993  8.2851251200000000
 16.7473413200000003  0.2544142500000000  9.8761812100000004
 14.9538840200000003  1.7387005200000001 11.3209682800000007
 13.3833873200000006  3.5873019700000000 13.0661682399999997
 13.1413466099999994  3.5778290199999998 16.5664013300000015
 11.6394627699999997  4.7147981600000000 18.7208272800000017
  9.8475220199999995  6.4165171000000001  0.2227187200000000
  8.2799526199999995  8.4834646599999992  1.9721586700000000
  6.5468742400000002  9.9358268400000007  3.2387223199999999
  5.3188280499999996 11.9177504600000006  5.2486657599999997
  3.5796173499999999 13.3672110899999996  6.9149335599999997
  1.7229215499999999 15.3393027100000001  8.4432609500000009
  0.0348874500000000 16.5815829000000008 10.0341315400000006
 18.4074871500000015 18.5104360499999991 11.3762595500000003
 16.8315688899999998 20.1038400199999998 13.0855191600000005
 15.0519933600000009  1.7238162200000000 14.7098913200000005
 14.9946495599999992  1.7796667700000000 18.1086964299999984
 13.6510086099999999  3.5998072400000001  0.3113497200000000
 11.2639978999999997  4.6684823800000004  1.7697170300000000
 10.0045625600000001  6.3663332199999996  3.6233156100000001
  8.1993154799999992  8.4301411099999992  5.0096900700000004
  6.6937170500000001  9.9413160099999995  6.8473742800000004
  5.0264359299999999 11.5872048200000002  8.3951340600000002
  3.4258909800000001 13.3395541699999995  9.8938786200000006
  1.9753071600000001 14.9513034000000005 11.7622002600000002
 -0.0408428000000000 16.6356416200000012 13.3768614699999997
 18.5143988999999998 18.4523175500000001 15.0497060999999999
 16.4830251300000015 20.1504781599999987 16.5107484900000010
 16.3393196299999985  0.3661148600000000  0.2933151800000000
 14.8347915399999994  1.6672410600000001  2.0022452500000001
 13.2862852100000008  3.5438065299999999  3.6187841800000000
 11.8777928799999994  5.1337310100000000  5.5039616699999998
  9.9752994699999995  6.6309006400000001  6.6975118499999997
  8.2408673300000004  8.1122191699999995  8.6614103300000007
  6.5396738499999998  9.5747876499999993  9.9882040799999992
  5.1141345100000004 11.6512135400000005 11.6309425900000001
  3.6903525099999999 13.4130096200000004 13.4161464899999991
  1.5633688800000001 15.1455648699999994 15.0802065800000005
 -0.1816130000000000 16.5083300599999987 16.7874863599999991
 17.8749675100000012 18.2231617999999997 18.2173018999999989
