Li                                      
   1.00000000000000     
   -10.8535000000000021   18.7988134399488125    0.0000000000000014
   -18.6059999999999981  -10.7421791085421763    0.0000000000000014
     0.0000000000000001    0.0000000000000001   22.7650000000000006
   Li
   504
Direct
  0.9874553364990319  0.0014367346720263  0.0031156134416861
  0.9428389057877880  0.0559782589504536  0.6625138036459504
  0.8632507779015981  0.1000581851039968  0.3353339086316680
  0.7835994759201483  0.1301068326400454  0.0006683663518530
  0.7216129100905135  0.1776294319215665  0.6668440606193684
  0.6502938332588499  0.2217738364358297  0.3474394434438821
  0.5670235732609044  0.2526917315711472  0.9933489852844275
  0.5266975654397683  0.3013632373158899  0.6579150081265084
  0.4215886822562140  0.3225735384893156  0.3316977680650126
  0.3626007333915950  0.3599969886130481  0.9954387485174578
  0.2835180992148452  0.4090246345357258  0.6571672936525346
  0.2247737563788732  0.4508585942782943  0.3504984858335192
  0.0869637950622462  0.0340017333275213  0.6660883593235241
  0.0081013505816045  0.0790340283490565  0.3458409145618262
  0.9339571494518140  0.1351633740957112  0.0085787586206862
  0.8626104714492868  0.1709310388114176  0.6880509255435996
  0.7759520732977592  0.2103793309933764  0.3382238629475083
  0.7228878202798086  0.2645329986344791  0.0043819406984440
  0.6396258859549704  0.3091216863800810  0.6764077491763700
  0.5560502062705268  0.3328545348942740  0.3370030375576576
  0.4858563975201875  0.3736574083368041  0.9986900070283298
  0.4398646287709127  0.4131611873392984  0.6658537289699069
  0.3651252981060935  0.4416181273248156  0.3402722310564457
  0.2805042616863886  0.4951246251632142  0.0058555558972131
  0.1292478536883408  0.0796715247766073  0.3551362960685296
  0.0825069948478685  0.1305514281102162  0.0141888144080795
  0.9908320171284117  0.1577011492043852  0.6909388495497453
  0.9201165880261399  0.2262841632730428  0.3375219732044812
  0.8647497629609120  0.2584914623080579  0.0153428034263143
  0.7950560729287872  0.3108610390447879  0.6850174249945056
  0.7009935059157257  0.3195574413384747  0.3256829000658925
  0.6402521679600781  0.3757685018298034  0.9952306202503820
  0.5789626107511197  0.4185247288085989  0.6568264146716416
  0.5062317623643366  0.4627844897978406  0.3344604124752877
  0.4237880421312070  0.4998178756706935  0.9888925113112208
  0.3522778319569895  0.5478338810520711  0.6733610819240070
  0.2209451289952966  0.1271303537810127  0.0062026408961131
  0.1329030895435821  0.1647239566612271  0.6445112163408737
  0.0718977896500661  0.2009906707531428  0.3571914039095105
  0.9900110450510269  0.2474751968471836  0.0173976288161626
  0.9497814596939094  0.2951977022042414  0.6864163856797703
  0.8346271732399302  0.3207459768483503  0.3484089119261995
  0.7754564266249773  0.3900366464380198  0.0171715238304415
  0.7169332334000416  0.4223538955870509  0.6749151456182716
  0.6439393228841510  0.4537016929526416  0.3460056433121039
  0.5656965364120481  0.4934824348087616  0.0123080048319792
  0.5018996466224976  0.5494530562927409  0.6709648754667228
  0.4242923155586595  0.5780921795702483  0.3359350836810862
  0.2940625831862675  0.1708862766520411  0.6652854724357553
  0.2177446221920150  0.1908795347220789  0.3518661427630150
  0.1475134847906432  0.2682291778364387  0.9936413191302407
  0.0570921133292188  0.3032264370623068  0.6638360206457250
  0.9943518041285344  0.3351043901908497  0.3412688442784955
  0.9357980198424869  0.3702946238653979  0.9957449800131783
  0.8511993897831402  0.4112331319460765  0.6727784392708074
  0.7739580132173245  0.4355449647181402  0.3236617663079286
  0.7218495500906315  0.5142291361975353  0.0091158866681340
  0.6447401642334967  0.5492177215678637  0.6655579824291706
  0.5849593153882964  0.5879926964652853  0.3300420193279123
  0.5035827460141604  0.6380731976854435  0.9927883896332119
  0.3459430407874677  0.2211660726009441  0.3445369066549517
  0.3010963835570308  0.2473966925219671  0.0028236028991842
  0.2022661837612532  0.2977843090695060  0.6638003931473762
  0.1342628204945413  0.3256348725014817  0.3401809598067231
  0.0712460195133104  0.3712289265404820  0.9951919512409404
  0.9989754912010795  0.4301988184590471  0.6654409391609946
  0.9089492294511388  0.4396077930856706  0.3283563830441452
  0.8589022471918426  0.5010762689510528  0.9907315066988787
  0.7679567490310646  0.5446314938402281  0.6567575892817956
  0.7115948183286633  0.5805598344227576  0.3416415558972119
  0.6452122231692314  0.6167188533716441  0.9992679600263585
  0.5857832024065885  0.6628111965323100  0.6598066285965274
  0.4425571749046497  0.2469228599469204  0.9951322626839456
  0.3630707352796918  0.3057482373772942  0.6780627160114179
  0.2930426459724913  0.3233972219680510  0.3535687212826701
  0.2197163618704039  0.3898332111383169  0.0085433516362841
  0.1511390452836423  0.4145386500061292  0.6423019130243830
  0.0728025209167100  0.4523736310453899  0.3143771561607736
  0.9989257244107463  0.4934449779699008  0.9959107977157942
  0.9258881970759631  0.5712073929396979  0.6652833327476415
  0.8578322640782616  0.5557565243376672  0.3237627906874607
  0.7611539942124637  0.6277171715476157  0.0032856125631469
  0.7035798865714398  0.6713292782487841  0.6519167173292360
  0.6361023518164686  0.7078866953971783  0.3261102279815518
  0.1336491004987863  0.5002662236771158  0.0026697100812640
  0.0595669352142565  0.5455535821053417  0.6442016630792864
  0.9947988573857032  0.5944974148857511  0.3296891667032753
  0.8919013566387903  0.6206017320069250  0.0035890529321350
  0.8543189195010967  0.6945687276789698  0.6350971166263975
  0.7826767444755518  0.7042660084829961  0.3393977645508457
  0.6990583041970453  0.7538679724496049  0.9723080737974996
  0.2067621657968672  0.5377893584609126  0.6769038018888622
  0.1430926356432209  0.5790749967239748  0.3121056033384590
  0.0624835062827884  0.6234377848306849  0.9951367406105831
  0.9882919195634585  0.6742252467493302  0.6681918655831325
  0.9175315719981896  0.7052037161838953  0.3334894847353382
  0.8377797003986274  0.7507662384028535  0.9958065517241366
  0.7597913832487109  0.8060288112388534  0.6610411882275429
  0.2845987143213193  0.5641265905682857  0.3476075853283547
  0.2372840142014283  0.6147046459134060  0.0030461642872837
  0.1270811697271057  0.6733219850783030  0.6697058822754229
  0.0646075452590011  0.7293241474541219  0.3236106233252798
  0.9857136842936001  0.7405763230957447  0.9946964322424776
  0.9100289040529503  0.7902327587800357  0.6734665864265352
  0.8624500328699298  0.8249077081718923  0.3352016556116837
  0.3657616916053641  0.6425925330625191  0.0107450375576548
  0.2822616096785495  0.6540240970307352  0.6665032892598290
  0.2217384209142566  0.7115085654416404  0.3509321629694711
  0.1311503581678721  0.7297846951319471  0.0221290450252596
  0.0660846108753432  0.7809202179869104  0.6602228029870432
  0.9740020903758051  0.8387283861177153  0.3202467876125610
  0.9154896128951648  0.8702222179104737  0.9947958163848014
  0.4404173444629080  0.6849252865673350  0.6687882560948850
  0.3760747469467915  0.6940494337317489  0.3517187458818327
  0.2833642532638478  0.7510371034720436  0.9993324436635191
  0.2043198158837001  0.7813415821942513  0.6945197983746993
  0.1441206800061963  0.8144892491428948  0.3434532650999316
  0.0636002248527276  0.8474736047275542  0.0170121111355144
  0.9987603320098657  0.9098683976422066  0.6562415910388779
  0.9271156562605327  0.9650458575070573  0.3418294662859651
  0.8508416571167174  0.0023648320156795  0.9965944361959131
  0.7887487051702564  0.0725169401502015  0.6642340496375994
  0.7238365577691539  0.0904763726890536  0.3262986176147606
  0.6509524092336818  0.1301311526594802  0.0067358212167790
  0.5822673485422314  0.1784310025044036  0.6599279235668760
  0.4989315268956602  0.1994086908974495  0.3233365864265352
  0.0734251257609912  0.9469266987828178  0.3497036683505357
  0.1233605387203056  0.9920107628184027  0.9947473661322235
  0.2109342635990501  0.0556341486632093  0.6567701401273851
  0.3003932584248403  0.0823507395295096  0.3469370401932821
  0.3729497911187707  0.1107674880195830  0.9857187107401728
  0.4482379687859321  0.1879441602591569  0.6561920215242694
  0.8701394388854595  0.9313256358194479  0.6557184155501901
  0.7973522542961788  0.9608380376220751  0.3191611825170213
  0.6938452113072060  0.0041270186540459  0.0016484511311248
  0.6480381084610585  0.0353124518874495  0.6717629672743257
  0.5788275270961023  0.0931248255757566  0.3247878761256331
  0.5051559941551176  0.1242045881671174  0.0062048785416238
  0.1649729133551858  0.9295637356175206  0.6733546980013188
  0.2220244165286758  0.9390897976569903  0.3367431961344138
  0.2989226540057786  0.0155348615902540  0.9956486338677806
  0.3630315289393664  0.0442385069685400  0.6686777245772006
  0.4219135828195348  0.0735580763661261  0.3172964889084113
  0.7875844157671423  0.8848200206100927  0.0130520448056259
  0.7272182111508769  0.9203830267265403  0.6698802442345695
  0.6568475958406665  0.9622367154973261  0.3385199204919829
  0.5813215208538978  0.9996813895201626  0.9895910090050535
  0.4893336512575459  0.0627214509338998  0.6688781142104077
  0.2068939092434334  0.8932712343344278  0.0011199235668755
  0.2791723214779225  0.9161659947779910  0.6691537061278297
  0.3703878615457938  0.9275114051764390  0.3517521093784310
  0.4201374591261100  0.9793927140371252  0.9794635787392920
  0.7342790561953905  0.8388061508966658  0.3197463039753998
  0.6371432984237018  0.8886719580005575  0.9936484884691410
  0.5750542671424981  0.9335856267638860  0.6580490481001533
  0.5248276782671510  0.9612154468412086  0.3338678519657350
  0.3062574124014290  0.8250879380039251  0.3355273555897185
  0.3461559547952717  0.8518831712689234  0.9915683597627947
  0.4374894104874798  0.9148515464513665  0.6641842178783222
  0.6334797325827566  0.7974878024515206  0.6509451008126490
  0.6061491108292714  0.8473545031502994  0.3067395971886668
  0.5024868035154739  0.8647228575752379  0.9916579925323958
  0.3555871031631739  0.7827336426861535  0.6462622121677981
  0.4770752160321692  0.8191734716110304  0.3265881598945768
  0.5577743476988530  0.7471730821912530  0.9869143364814406
  0.4880224784857674  0.7951771853033804  0.6644243558093592
  0.4279967839063730  0.7613619174391104  0.9905122543378013
  0.5006563248440372  0.7077348768303366  0.3378149808917215
  0.0177899452354566  0.9951212861113063  0.7741854403689885
  0.9346104248272127  0.0351367894301760  0.4454028007906885
  0.8643750788061482  0.0857079927000726  0.1061951201405691
  0.7830419189124385  0.1349572451404839  0.7909011245332778
  0.7035067525451737  0.1673628131382898  0.4407424599165353
  0.6578301312996686  0.2222354477017703  0.1169307296288196
  0.5611673426307462  0.2494105856582394  0.7800913753569105
  0.5072563895754740  0.2952414702645711  0.4499685512848686
  0.4325545908796400  0.3410048649837591  0.1166096648363748
  0.3678601423733667  0.4032274285042803  0.7773480325060405
  0.2920866243475757  0.4028676831475622  0.4525210722600477
  0.2058156776520050  0.4514874326885945  0.1295597105205388
  0.0825870955178516  0.0252317773189787  0.4392372071161859
  0.0055769470600922  0.0712466427541258  0.1246960812650997
  0.9326131863595464  0.1064568511150554  0.7924539415769800
  0.8409459950006806  0.1854170651005091  0.4478811271688983
  0.7940580477891785  0.2215686739933460  0.1247868262683909
  0.7214917749723710  0.2535624744887315  0.7990163452668568
  0.6223113361780079  0.3186202962910869  0.4291847704810010
  0.5620123078053538  0.3400976597460286  0.1063965684164287
  0.5076889932170445  0.3792973853659447  0.7786645627059059
  0.4195205333903829  0.4127701843946809  0.4536222459916530
  0.3690193386560239  0.4494763440770058  0.1067090173512000
  0.2759489546242619  0.4967512050406100  0.7712259999999986
  0.1538426397683281  0.0901701558247012  0.1337656573687696
  0.0857362465809928  0.1203129962234328  0.7890500707226025
  0.0073431211981756  0.1613986452797818  0.4694839516802105
  0.9286496423103330  0.2131186879063094  0.1263741366132223
  0.8582202963842960  0.2253635587011189  0.7919719020426115
  0.7812552135671069  0.2873544936874879  0.4583728653634935
  0.7132690930268311  0.3349643453097499  0.1107832431363960
  0.6461834406061016  0.3675098402333461  0.7690460535910404
  0.5529271038785240  0.4274252482024323  0.4660716846035555
  0.4939805955606786  0.4629241328647851  0.1048472365473287
  0.4224582322124633  0.5028398799678655  0.7787154618932561
  0.3578598785903395  0.5441081493991007  0.4545325596310121
  0.2227084729413846  0.1037195780356157  0.7652160250384341
  0.1314451772916172  0.1843387906194494  0.4698217320448066
  0.0714253065703545  0.2087059273964655  0.1033140606193683
  0.0111804960142194  0.2451345134101715  0.7864571482539020
  0.9356435797582989  0.2937308296836108  0.4496103826048738
  0.8717158287432554  0.3463484307607771  0.1283266606632978
  0.7969299490364605  0.3812148080260513  0.7738982978256104
  0.7221182982515444  0.4072307449170580  0.4475228267076687
  0.6520334023980823  0.4554466611347081  0.1100501339775946
  0.5616460808151231  0.5077612072381541  0.7767293362618020
  0.5019387554779726  0.5611056184789760  0.4507391262903582
  0.4214952295149530  0.5789771872761165  0.1026139951680207
  0.2897730979683217  0.1628875632162092  0.4631127704810041
  0.2103098729665405  0.1990949131332727  0.1345049066549535
  0.1514016273408174  0.2495847639286453  0.7395711425433760
  0.0651902396818826  0.2880142364620397  0.4431230239402595
  0.0075194554443527  0.3346686294923558  0.1263786927300714
  0.9400399358953564  0.3668430530882389  0.7926114698001285
  0.8565915235926269  0.4086385901691614  0.4580294017131550
  0.7765442649426575  0.4781238278213920  0.1151588438392253
  0.7014921113940531  0.4974516117910710  0.7837147142543373
  0.6430827142718059  0.5458048877056285  0.4442240474412458
  0.5658524068181023  0.6022259417714579  0.1320972514825414
  0.4958791743773503  0.6318608309628857  0.7844676740610552
  0.3450997699464438  0.2172585664240714  0.1141926751592379
  0.2740277944387088  0.2599096604890647  0.7697424660663330
  0.2222018897051541  0.2788897699712507  0.4261125288820580
  0.1363540090881017  0.3430654666431465  0.1013615001098174
  0.0648914176971402  0.3824285718598333  0.7621382508236323
  0.0264103842062227  0.4207856162000283  0.4356475523830454
  0.9130111374048369  0.4447223363526049  0.1148174645288833
  0.8469784011453214  0.5091317195081828  0.7745330177904677
  0.7886747750405476  0.5270443662849331  0.4290213323083663
  0.7022731408815446  0.5884372914888800  0.0977276173951225
  0.6233492716078430  0.6194439971301904  0.7637328060619382
  0.5827054173400299  0.6549560363807387  0.4485070981770249
  0.4235635252928489  0.2643268030868526  0.7732874153305502
  0.3659653272088619  0.2788893986422991  0.4403717663079263
  0.2834641227842667  0.3271897755219229  0.1165954364155510
  0.2063305056834110  0.3822238571732299  0.7639068679991183
  0.1394615322869015  0.4037825830014015  0.4299188438392250
  0.0816905074360506  0.4705575291595636  0.1124897526905357
  0.9818753248829282  0.5182524632582570  0.7814276015813775
  0.9167834074726429  0.5327105770716756  0.4658986646167378
  0.8231295651419828  0.5723644644056520  0.1161296376015812
  0.7691525948413229  0.6348044040572773  0.7504572470898339
  0.7221098324384414  0.6640218619600873  0.4370157584010528
  0.6220836100116074  0.7093550192808280  0.1011795901603350
  0.1011580417261158  0.5064095170442613  0.7633911640676487
  0.0789954034430878  0.5387160624922274  0.4345760645728092
  0.9736968044521532  0.5685219043791534  0.0966861027893700
  0.8835207223596697  0.6635129667778870  0.7765823514166499
  0.8680722283303979  0.6660019918206999  0.4410922635624885
  0.7630296303754420  0.7010123974373954  0.1072835717109584
  0.6857987734199611  0.7580148996391713  0.7708074074236748
  0.2161802212778383  0.5528769041363546  0.4364789918734928
  0.1409386855021779  0.5771618916963419  0.1307267889303745
  0.0428970907170907  0.6228899358218882  0.7634636090489764
  0.0067179371367558  0.6521608545246806  0.4549000426092675
  0.9258515737383064  0.7014233771058400  0.1099846417746519
  0.8239535741608748  0.7595315523403698  0.7861586114649697
  0.8053413018198725  0.7784859760667544  0.4406007805842336
  0.2893008603062484  0.5714009949836694  0.1163021493520731
  0.2000438191653942  0.6235778344990024  0.7893690235009885
  0.1366762816006499  0.6706184691845252  0.4307393806281539
  0.0646250118571530  0.7035968098359859  0.1284002121678043
  0.9811700955352833  0.7638738766047410  0.7758731500109803
  0.9383224789058460  0.7893741634524005  0.4410603492202938
  0.8607715191491181  0.8283726135072058  0.1088755717109606
  0.3617119293202080  0.6174099529787753  0.7804895260267983
  0.2875027626584199  0.6650713106248958  0.4524972738853492
  0.2431307939294811  0.7120844038528631  0.1244823457061273
  0.1243655139877973  0.7600648782077499  0.7900720250384339
  0.0737077133766917  0.7914094949406731  0.4413689079727661
  0.9928674566498970  0.8270154433650632  0.1231173560289918
  0.9278199906577029  0.8799085999890721  0.7617923175927928
  0.4379995004129782  0.6617976895768933  0.4385036042169972
  0.3660866199176880  0.7205816177965900  0.1105358502086560
  0.2833838765622900  0.7544533707261749  0.7783277654293883
  0.2062064533287113  0.7971164881649386  0.4653513138589958
  0.1495058382028560  0.8166869926402924  0.1163511223369227
  0.0893203631864026  0.8684655943328181  0.7673759209312507
  0.9930810055581816  0.9123609656118603  0.4397598910608380
  0.9178296994069655  0.9581660280278683  0.0954041366132188
  0.8602863490584198  0.0240385268458780  0.7835676595651222
  0.7966175035076688  0.0480433798602391  0.4478461440808275
  0.7327247507510748  0.0898953212793288  0.1153681462771772
  0.6427856072795066  0.1461211889386149  0.7585500355809387
  0.5723870782736853  0.1855008597203351  0.4634353011201426
  0.5037156999130588  0.2072513748787230  0.1033581168460387
  0.0666882642205522  0.9552786323918241  0.1209296973424117
  0.1720619846170663  0.9725171552165222  0.7687143004612338
  0.2020035722144016  0.0490497731361401  0.4456547928838148
  0.2873027057240165  0.1025865808569506  0.1226534280694054
  0.3738056847557374  0.1521046608891581  0.7802758440588633
  0.4393906556567018  0.1669301493512805  0.4357219986821903
  0.8579720810426323  0.9116443646352650  0.4323412466505587
  0.7782044575158764  0.9432016430372698  0.1055462354491539
  0.7080180147517865  0.0023172431952858  0.7651164875905963
  0.6471524243270608  0.0551264018363042  0.4437664493740385
  0.5891710234480882  0.0867060151029904  0.1343286039973677
  0.4961956375105672  0.1256090496763989  0.7645123971008161
  0.1483464886571468  0.9074158833365402  0.4382684489347710
  0.2115349589393247  0.9631511702220834  0.0865251908631706
  0.2959526260096368  0.9874225047621437  0.7782538335163594
  0.3746592201027141  0.0289396675596691  0.4619065460136156
  0.4118148845813110  0.0720223503276785  0.1207392989237874
  0.7936764604084416  0.8829987663633787  0.7641237100812646
  0.7337165265411443  0.9087764774366178  0.4377106514386142
  0.6648256135607795  0.9635976923152754  0.1093607814627688
  0.5806656747988512  0.0162051805100845  0.7747917118383469
  0.4963873814838351  0.0474785872871735  0.4362655717109618
  0.2308517613799239  0.8714718745492291  0.7904205714913246
  0.3001100527202567  0.9198992907019630  0.4631727485174579
  0.3407207252023028  0.9543665000009014  0.1076981822973835
  0.4518025879680962  0.0018499414967366  0.7751167924445426
  0.7040770027325323  0.8353437380867703  0.1007656854821022
  0.6322560503820327  0.8642764520680757  0.7718551675818119
  0.5769671670006673  0.9122190241297545  0.4395264889084132
  0.5230683739696218  0.9414593944491401  0.1032142512629051
  0.2699242600376053  0.8214137549006679  0.1335966878980912
  0.3639297651265423  0.8689274881328117  0.7752128157258937
  0.4539423037341805  0.8982631310556286  0.4420123768943540
  0.6638668223305899  0.7845912460407902  0.4451566558313189
  0.5727220638984889  0.8188464941136075  0.1077222609268631
  0.5062333523537603  0.8812241578108342  0.7705171038875491
  0.3630878026996740  0.7971197099537264  0.4405587392927757
  0.4412853584630412  0.8274820795400046  0.1232617500549082
  0.5600680125188049  0.7431140339743720  0.7597847300680840
  0.5134930882597004  0.7812811650313520  0.4342966347463175
  0.4192189456413686  0.7530483915662387  0.7804620144959387
  0.4949824205929687  0.6841444549120794  0.1142591188227513
  0.0104907319385603  0.0104775298777184  0.2345949009444297
  0.9330152091736466  0.0388599444928417  0.8935046092686107
  0.8732519575391038  0.0823207728071225  0.5616319573907305
  0.8174058944064981  0.1435671904256210  0.2197769136832832
  0.6900747818696971  0.1757369947854031  0.8882047963979787
  0.6476932799021782  0.2132857544115723  0.5439883623984159
  0.5718930758095837  0.2271473418091290  0.2218555466725221
  0.4932773175607323  0.3001168947573163  0.9046588262683954
  0.4306430922082214  0.3345079479048749  0.5595035677575240
  0.3550964015141602  0.3743847579364754  0.2272198444981299
  0.3177831813461509  0.4100863098602332  0.8866050393147376
  0.2002156442193197  0.4679703114836968  0.5354705143861196
  0.0674480498555425  0.0448167919430773  0.8964144853942457
  0.0154439984591406  0.0741368699733300  0.5440452339117030
  0.9782847041548024  0.1212929556839626  0.2292264019327916
  0.8600316913572570  0.1651394172768974  0.9164095580935623
  0.7864429539014708  0.2077588465995035  0.5734303110037331
  0.7230677057075994  0.2471023855800567  0.2213895286624208
  0.6281910773186894  0.2882038472708572  0.8773079477267700
  0.5884028399095556  0.3404399310459851  0.5653641475949911
  0.5073469277525078  0.3635891260689093  0.2305797272128274
  0.4367284971876799  0.4170419276455704  0.8772829492642202
  0.3496134195702467  0.4520941739597077  0.5519659516802093
  0.3022211234097014  0.4779273399480175  0.2186055835712750
  0.1519553676628860  0.0968067202553442  0.5427774434438817
  0.0957402739331670  0.1099716143645253  0.2337866386997618
  0.0128935310942850  0.1652383494715792  0.8959340188886458
  0.9244396096709124  0.2251930482874727  0.5515102508236325
  0.8659463894466057  0.2421671187864831  0.2497811298045249
  0.7833370344147212  0.2983668255928080  0.8973160606193744
  0.7137950972787195  0.3381841664885243  0.5728434829782572
  0.6527174639944491  0.3667520458205047  0.2278437843180328
  0.5750548667054289  0.4237220726761564  0.8837700171315603
  0.5023173627202908  0.4654309902029112  0.5674301344168668
  0.4453005364666041  0.4820170970364259  0.2113306782341340
  0.3593844800726274  0.5561700427567331  0.8809228754667231
  0.2336092585802589  0.1199049082016117  0.2570248354930840
  0.1431005539227570  0.1837906663441586  0.8828940922468718
  0.0567029212603458  0.2232265701440852  0.5724475277838792
  0.0216754754742752  0.2586656302773278  0.2324829914342175
  0.9189857789705442  0.2926049762411651  0.8919307832198555
  0.8579647973812357  0.3403190821037683  0.5590072325938920
  0.7875799738911908  0.3705831841003970  0.2231057153525171
  0.7153890377826357  0.4122146441162045  0.8741912563145178
  0.6235641792917974  0.4580950247262408  0.5693088723918294
  0.5654613170883280  0.4966975102107867  0.2156353898528423
  0.4953034593136110  0.5550652840126702  0.8843075176806536
  0.4301751983899820  0.5786998045939171  0.5558830643531749
  0.3110073467880170  0.1778652833299077  0.8778383241818588
  0.1991031572072117  0.2025232921235869  0.5575916867999098
  0.1419231069048124  0.2481539148236394  0.2114774860531483
  0.0721052223232235  0.2965525244284066  0.8712431227761925
  0.9910531958529916  0.3366699569391400  0.5390456055348096
  0.9126971355352893  0.3656701380988778  0.2425330959806686
  0.8470618694499734  0.4235716161412810  0.8770952927739941
  0.7866126490412597  0.4737722865543716  0.5601611614320205
  0.7117055730423303  0.4917336425338661  0.2304308934768287
  0.6447135930376078  0.5486679795746738  0.8902510841203579
  0.5610825197994842  0.5925353719959290  0.5568231245332740
  0.4924950078588566  0.6160301393208556  0.2328664555238333
  0.3571305209507756  0.2129578416027513  0.5583448583351611
  0.2911791956953493  0.2582219686939951  0.2342654219196163
  0.2234554558124984  0.2884553203450011  0.8814025301998711
  0.1249229933440930  0.3247394174857519  0.5345395255875260
  0.0738450007612030  0.3629436861355657  0.2269855233911713
  0.9914600667084486  0.4146949852724831  0.8675131179442133
  0.9395395719113537  0.4537793731194313  0.5723442995826957
  0.8712621820785458  0.4868386121041866  0.2191753907313867
  0.7849262300843947  0.5432539445221423  0.8827420404129143
  0.7318957320283985  0.5994855800510450  0.5328032923347266
  0.6405956784892908  0.6368307864944924  0.2199608781023485
  0.5648047862117380  0.6878971204370004  0.8748339749615610
  0.4260965179750755  0.2451453892377486  0.2118514104985749
  0.3668255168727299  0.3051485758691754  0.8778983962222711
  0.2730183601277290  0.3196809318689517  0.5568569031407833
  0.2149483353079873  0.3560112846788499  0.2323922279815491
  0.1339320544116447  0.3973554072580470  0.8848959068745899
  0.0834204958718487  0.4411681709155602  0.5405104884691383
  0.9996868696174559  0.4860471471894527  0.2213677755326131
  0.9231436536106301  0.5432350637179937  0.8797361256314531
  0.8616243372336427  0.5954174973575519  0.5593254131341965
  0.7780505262411737  0.6251065330238319  0.2209470428289038
  0.6898759377781971  0.6726742179578835  0.8490925086755965
  0.6396390194718933  0.7081276637730767  0.5622735905996024
  0.1435850870969873  0.4815785105446011  0.2249258629475079
  0.0913644801894336  0.5343851028842295  0.8819511350757736
  0.0149338822302383  0.5868119654527604  0.5407425807160138
  0.9097442804337206  0.6220086919441385  0.2014486066329866
  0.8232523880520972  0.6694365858473930  0.9096082828904031
  0.7834812035416832  0.7231677344598708  0.5506158598726145
  0.7086477295382991  0.7533005426989163  0.2315226584669432
  0.2052956554934298  0.5272432399818356  0.9009208126510018
  0.1429964681780120  0.5819600990341769  0.5551870358005715
  0.0398503709760831  0.6163251536392096  0.2223107327037113
  0.9800989996525828  0.6607457979829405  0.8827438945750075
  0.9253655611790848  0.7151184737043295  0.5485024076433120
  0.8500019101869185  0.7540986788018031  0.2326608868877642
  0.7637161909331311  0.8112756095725686  0.8814910358005719
  0.2804637896840845  0.5906065961874560  0.5665378915001114
  0.2177310387686759  0.6247209900421495  0.2243751179442128
  0.1374818684125358  0.6631501349663864  0.8936825574346585
  0.0680461711957321  0.6937850516460884  0.5519468100153730
  0.9973322832140212  0.7326805409081274  0.2258869721063022
  0.8945774264088300  0.7806377460212701  0.8916887959587072
  0.8502869224546714  0.8345926264182637  0.5505015308587744
  0.3422632590600756  0.6187363026868482  0.2128326070722579
  0.2784389938788081  0.6695705869040296  0.8805861866900955
  0.2071724653046729  0.7098103288087572  0.5661701484735318
  0.1476671290493456  0.7280317728078529  0.2395380900505160
  0.0650148497893923  0.7923560113840082  0.8960208943553667
  0.0034723603787867  0.8351679193071533  0.5568477654293886
  0.9284968703618119  0.8774182165714350  0.2228599666154167
  0.4146156412416957  0.6838523184877587  0.8927308605315147
  0.3644645252497938  0.7035662670752103  0.5562046334285071
  0.2852486251419535  0.7448768073213898  0.2468534553041977
  0.1989487240961409  0.7866832141794333  0.8869282323742596
  0.1480343154493582  0.8225080069477784  0.5666913015594091
  0.0702164055438459  0.8384687526835393  0.2308714777070051
  0.9977388051645804  0.8958035267196678  0.8981916679112700
  0.9396124652169462  0.9447022486707439  0.5436999556336488
  0.8586925869190196  0.0018625060665585  0.1959140276740641
  0.7694269787017163  0.0513041146222122  0.8942130397540069
  0.7082516744639165  0.0975684613138696  0.5646911012519240
  0.6711395859754248  0.1202437806952403  0.2195634311443015
  0.5613707873764540  0.1602057808884041  0.8929636046562734
  0.5148885452511465  0.2050201679090975  0.5479543215462357
  0.0829717842267286  0.9409433645004412  0.5505828631671434
  0.1482078081495928  0.0045380825673647  0.2176065275642429
  0.2028804145272787  0.0396485451428674  0.8895043079288385
  0.2904603877663021  0.0568511765762878  0.5518500535910391
  0.3622259955962619  0.1156586556377448  0.2314362754228014
  0.4616518847053754  0.1790229017171967  0.8787964647485182
  0.8578112863688929  0.9203745347412209  0.8805845227322635
  0.7899098290960183  0.9757416177526750  0.5527014526685718
  0.7319017318819618  0.0085073375803049  0.2124723826048793
  0.6380787526687115  0.0355818793889142  0.8808473753569075
  0.5874910459910794  0.0648336537856480  0.5606230669887964
  0.4927761358263751  0.1189503649257517  0.2304781445200987
  0.1207628084208352  0.9146505384716974  0.8920966628596503
  0.2011662358687332  0.9688506981080707  0.5465916332088767
  0.2981880702241142  0.9928133456854056  0.2217592545574334
  0.3685346608748503  0.0681612220893726  0.8587123645947727
  0.4280498247951314  0.0904012435013470  0.5499688416428725
  0.7956946415249604  0.8753535745570673  0.2191133507577447
  0.7089275357632374  0.9228700403414862  0.8934395932352288
  0.6670400599744966  0.9462265376258614  0.5453282618054018
  0.5839957827256512  0.0133491154566912  0.2175814777070073
  0.4966992838979039  0.0237277642810980  0.8815012264441009
  0.2184133846103009  0.8581613140993269  0.2322594135734661
  0.2797268311348660  0.9179997198902328  0.8809518743685487
  0.3564075306750638  0.9297889726872057  0.5466047511530832