Li 
 1.0000000000000000
   -10.8535000000000021   18.7988134399488125    0.0000000000000014
   -18.6059999999999981  -10.7421791085421763    0.0000000000000014
     0.0000000000000001    0.0000000000000001   22.7650000000000006
 Li 
 504
Cartesian
  0.1094216200000000 -0.2512584500000000  0.0709269400000000
 -11.2746335500000008 17.1229242100000008 15.0821267399999996
 -11.2309749100000005 15.1532473799999998  7.6338764299999999
 -10.9255646399999993 13.3331094599999993  0.0152153600000000
 -11.1369989300000007 11.6573393000000003 15.1807050399999994
 -11.1842881199999997  9.8424181799999992  7.9094589300000004
 -10.8557727100000001  7.9449105299999996 -0.1514103500000000
 -11.3236764200000000  6.6639913999999996 14.9774351600000006
 -10.5775160199999991  4.4602242600000004  7.5510996900000000
 -10.6335910299999998  2.9493114100000000 -0.1038368900000000
 -10.6874760400000000  0.9359879700000000 14.9604134400000000
 -10.8282569700000000 -0.6177238600000000  7.9790980300000003
 -1.5764978000000001  1.2695634499999999 15.1635015000000006
 -1.5584351400000001 -0.6967019100000000  7.8730684200000001
 -12.6515536599999994 16.1053370399999984  0.1952954400000000
 -12.5426856600000001 14.3798814900000007 15.6634793200000004
 -12.3361136600000005 12.3270458099999995  7.6996662400000000
 -12.7677639299999992 10.7477724200000004  0.0997548800000000
 -12.6936976500000007  8.7035671800000003 15.3984224100000002
 -12.2281823900000006  6.8775010600000002  7.6718741499999998
 -12.2255121500000001  5.1196289699999999 -0.0298219900000000
 -12.4613478000000004  3.8306816200000000 15.1581601399999997
 -12.1796343000000000  2.1199813399999998  7.7462973399999999
 -12.2567417800000005 -0.0455701200000000  0.1333017300000000
 -2.8851599700000001  1.5738605000000001  8.0846777799999998
 -3.3245295399999999  0.1486267800000000  0.3230083600000000
 -2.8346828799999999 -1.8664011899999999 15.7292229100000007
 -14.1967285299999997 14.8663150700000006  7.6836877200000000
 -14.1950537000000008 13.4795078799999999  0.3492789200000000
 -14.4130215800000006 11.6067858299999997 15.5944216800000000
 -13.5539187699999992  9.7451028700000002  7.4141712200000001
 -13.9405256499999997  7.9994085100000003 -0.1085749300000000
 -14.0708418000000002  6.3879425100000002 14.9526533300000004
 -14.1049546499999998  4.5452425800000000  7.6139912900000004
 -13.8991949100000003  2.5975792000000002 -0.2528619800000000
 -14.0164446399999996  0.7374755700000000 15.3290650300000006
 -4.7634153200000000  2.7878492300000000  0.1412031200000000
 -4.5073176200000002  0.7289261400000000 14.6722978400000006
 -4.5199750800000000 -0.8074846500000000  8.1314623099999999
 -4.4961083899999998 -2.8462033899999999  0.3960570200000000
 -15.8009015200000000 14.6836978800000004 15.6262690200000005
 -15.0264256700000001 12.2444897899999994  7.9315288800000001
 -15.6734381700000007 10.3878171800000008  0.3909097400000000
 -15.6395514299999991  8.9404929099999997 15.3644432900000005
 -15.4305691399999994  7.2315503500000000  7.8768184699999999
 -15.3215215400000009  5.3333469500000001  0.2801917300000000
 -15.6704913799999996  3.5327946799999999 15.2745153899999995
 -15.3610397400000007  1.7662223500000001  7.6475621800000004
 -6.3711183100000000  3.6923366500000001 15.1452237800000002
 -5.9147958799999998  2.0428783799999999  8.0102327399999993
 -6.5917096900000001 -0.1082873900000000 -0.1447553700000000
 -6.2614803400000003 -2.1840487099999999 15.1122270099999998
 -17.0271495900000005 15.0928826800000007  7.7689852400000001
 -17.0463855799999990 13.6141212199999995 -0.0968655300000000
 -16.8898962300000015 11.5839985700000003 15.3158011700000003
 -16.5039029100000008  9.8707902799999996  7.3681601099999998
 -17.4023414000000010  8.0459735400000003  0.2075231600000000
 -17.2164323000000010  6.2205549299999996 15.1514274699999998
 -17.2890480400000008  4.6802181799999998  7.5134065699999999
 -17.3376252499999985  2.6124615200000001 -0.1641723100000000
 -7.8697087400000001  4.1275131199999997  7.8433826800000004
 -7.8710124600000002  3.0026751599999999  0.0642793200000000
 -7.7358708800000002  0.6035118700000000 15.1114159499999996
 -7.5159839599999998 -0.9740464100000000  7.7442195500000004
 -7.6803540799999999 -2.6484669900000002 -0.1094552300000000
 -18.8466597100000008 14.1582811300000007 15.1487629800000008
 -18.0446230599999993 12.3648213400000007  7.4750330600000003
 -18.6451205999999985 10.7636920800000002 -0.2109972500000000
 -18.4684321500000017  8.5861465999999993 14.9510865200000005
 -18.5251906400000017  7.1406605100000000  7.7774700200000000
 -18.4774818500000002  5.5043198300000000 -0.0166648900000000
 -18.6900631100000005  3.8919925499999999 15.0204979000000005
 -9.3975410299999993  5.6670601800000000 -0.1108140400000000
 -9.6293399300000004  3.5408966899999998 15.4360977300000002
 -9.1976670699999996  2.0348631500000001  8.0489919400000005
 -9.6379282600000007 -0.0572512800000000  0.1944894000000000
 -9.3532937500000006 -1.6118137100000001 14.6220030500000000
 -9.2070259399999994 -3.4908775599999999  7.1567959600000002
 -20.0228776099999983 13.4779440000000008 -0.0930906900000000
 -20.6770123000000012 11.2695873599999992 15.1451750700000005
 -19.6508883700000005 10.1561925700000000  7.3704599300000000
 -19.9404905700000015  7.5657416499999997  0.0747969700000000
 -20.1270568499999989  6.0149276800000004 14.8408840699999995
 -20.0748767299999997  4.3537237700000002  7.4238993400000002
 -10.7585138699999998 -2.8615048700000001  0.0607759500000000
 -10.7970796799999995 -4.7406465899999999 14.6652508600000004
 -21.8582682999999989 12.3148404199999995  7.5053738799999996
 -21.2271672000000002 10.1000722500000002  0.0817047900000000
 -22.1954961399999995  8.5990003099999992 14.4579858600000009
 -21.5983553999999991  7.1480424999999999  7.7263901099999996
 -21.6136967999999996  5.0432818599999996 -0.6304067000000000
 -12.2502019700000009 -1.8901462300000000 15.4097150500000009
 -12.3273253100000009 -3.5305555700000002  7.1050840600000003
 -12.2778481599999996 -5.5224645700000004 -0.1107121000000000
 -23.2710612899999987 11.3360670599999995 15.2113878200000006
 -23.0794492600000005  9.6730802199999992  7.5918881200000001
 -23.0615986100000008  7.6843988899999998 -0.0954638500000000
 -23.2433678400000012  5.6246706099999999 15.0486026499999994
 -13.5850314900000004 -0.7098307400000000  7.9132866799999997
 -14.0125566900000003 -2.1426094899999999  0.0693459300000000
 -13.9071043299999992 -4.8439701599999996 15.2458544099999997
 -14.2710230800000009 -6.6199854299999998  7.3669958400000004
 -24.4776065400000000 10.5748441500000006 -0.1207357200000000
 -24.5800694200000009  8.6186417599999992 15.3314668399999992
 -24.7088342499999989  7.3517309199999996  7.6308656900000003
 -15.9258711900000005 -0.0269582800000000  0.2446107800000000
 -15.2322987300000001 -1.7194606500000000 15.1729473800000001
 -15.6449663200000000 -3.4747332399999999  7.9889706900000004
 -15.0018144499999995 -5.3740067900000001  0.5037677100000000
 -15.2470508999999996 -7.1464725800000002 15.0299721099999992
 -26.1767120400000017  9.3003130400000007  7.2904181200000000
 -26.1276210999999989  7.8620355100000001 -0.1184732400000000
 -17.5237895299999984  0.9217333900000000 15.2249646500000004
 -16.9952110300000001 -0.3858443200000000  8.0068772500000005
 -17.0492902700000002 -2.7408633500000001 -0.0151969200000000
 -16.7552266000000003 -4.5523411200000004 15.8107432100000000
 -16.7186007699999983 -6.0400916200000001  7.8187135799999998
 -16.4583789299999985 -7.9081044900000004  0.3872807100000000
 -27.7690566700000012  9.0015398599999994 14.9393398200000007
 -28.0180930000000004  7.0619788100000003  7.7817477999999998
 -9.2786099899999996 15.9694101300000000 -0.0775276600000000
 -9.9099342600000000 14.0485498000000000 15.1212881400000008
 -9.5395634699999992 12.6353550099999996  7.4281880300000003
 -9.4863321999999997 10.8392407500000001  0.1533409700000000
 -9.6395259000000006  9.0291974699999997 15.0232591800000002
 -9.1253514300000003  7.2372368199999997  7.3607573899999998
 -18.4154377599999997 -8.7917509599999999  7.9610040099999999
 -1.1902458600000001  2.4048535700000002 -0.1195762100000000
 -3.3245040000000001  3.3676818800000001 14.9513722399999995
 -4.7925360899999996  4.7624104300000001  7.8980217200000000
 -6.1087504399999997  5.8211293499999996 -0.3251135500000000
 -8.3618398400000000  6.4074121200000000 14.9382113699999994
 -26.7723031800000015  6.3531221899999997 14.9274297300000001
 -26.5314152199999995  4.6677819800000000  7.2657043200000002
 -7.6074363099999998 12.9991335100000001  0.0375269900000000
 -7.6905050900000003 11.8030148199999996 15.2926839500000007
 -8.0149850699999998  9.8809071399999997  7.3937960000000000
 -7.7936611500000001  8.1621053600000000  0.1412540600000000
 -19.0859963800000010 -6.8842451200000001 15.3289197000000001
 -19.8824467799999987 -5.9140752200000000  7.6659588599999999
 -3.5333986600000000  5.4525129400000001 -0.0990588500000000
 -4.7632643600000000  6.3493440200000002 15.2224483999999993
 -5.9478606400000000  7.1413007000000004  7.2232545699999999
 -25.0110087599999993  5.3007573600000004  0.2971298000000000
 -25.0175094499999986  3.7839201600000001 15.2498237600000000
 -25.0324717099999994  2.0114362699999999  7.7064059900000004
 -6.3034450599999996 10.9315773899999993 -0.2369606800000000
 -6.4779780999999996  8.5251269599999997 15.2270102699999992
 -18.8657276299999985 -5.7063195899999997  0.0254950600000000
 -20.0761812900000010 -4.5935108199999997 15.2332841200000004
 -21.2772818599999987 -3.0006413300000001  8.0076367699999995
 -4.1765427500000003  8.1194528699999999 -0.4675116300000000
 -23.5763249799999990  4.7929690799999998  7.2790246099999996
 -23.4498652400000012  2.4312646600000001 -0.1445921600000000
 -23.6116456600000006  0.7815938700000000 14.9804865800000009
 -23.5805918100000014 -0.4594108800000000  7.6005016500000000
 -18.6755509999999987 -3.1059664499999999  7.6382802500000002
 -19.6071419400000018 -2.6437603900000002 -0.1919462900000000
 -21.7700191899999993 -1.6032173599999999 15.1201537199999994
 -21.7135303300000011  3.3419105000000000 14.8187652199999995
 -22.3447172599999995  2.2924502100000002  6.9829269299999996
 -21.5427740099999987  0.1571478600000000 -0.1899058000000000
 -18.4229067800000017 -1.7236493700000000 14.7121592600000000
 -20.4194774700000004  0.1687398300000000  7.4347794599999997
 -19.9557062499999986  2.4592288299999998 -0.2978951300000000
 -20.0918186799999994  0.6323077800000000 15.1256204600000004
 -18.8111629299999983 -0.1328543900000000 -0.2159885300000000
 -18.6019885400000007  1.8091300400000001  7.6903580399999996
 -0.1023098200000000  0.3868378800000000 17.6243315500000008
 -10.7975493500000006 17.1921213299999991 10.1395947599999996
 -10.9761778299999992 15.3285352400000008  2.4175319100000001
 -11.0097599699999993 13.2705240500000006 18.0048640999999989
 -10.7494630400000002 11.4272508800000008 10.0335020999999998
 -11.2746720699999994  9.9791329300000005  2.6619280600000002
 -10.7311631100000007  7.8700669999999997 17.7587801600000006
 -10.9987700200000003  6.3642814799999998 10.2435340700000008
 -11.0394677699999999  4.4683777200000003  2.6546190200000002
 -11.4950195900000001  2.5837929300000000 17.6963279600000014
 -10.6659182900000005  1.1632051500000000 10.3016422100000007
 -10.6341956300000007 -0.9808683400000000  2.9494268099999998
 -1.3658214900000001  1.2814951299999999  9.9992350200000004
 -1.3861444300000001 -0.6605042100000000  2.8387062900000002
 -12.1028533899999999 16.3884427399999986 18.0402139800000008
 -12.5770772700000002 13.8170035500000008 10.1960138600000008
 -12.7408157699999993 12.5472187200000000  2.8407721000000001
 -12.5484943799999993 10.8393757599999994 18.1896070999999999
 -12.6825053200000006  8.2760384200000008  9.7703913000000000
 -12.4276576399999996  6.9117745499999996  2.4221178800000001
 -12.5674096399999993  5.4694702199999998 17.7262987699999996
 -12.2332681599999997  3.4524369899999998 10.3267104300000003
 -12.3681082500000006  2.1087703100000001  2.4292307800000001
 -12.2375649000000006 -0.1486775000000000 17.5569598900000017
 -3.3474370100000002  1.9234351199999999  3.0451751900000001
 -3.1690819600000002  0.3193159500000000 17.9627248600000016
 -3.0826817599999998 -1.5957311900000000 10.6878021600000004
 -14.0443852000000007 15.1681522599999994  2.8769072200000001
 -13.5078083600000003 13.7126275300000007 18.0292403499999985
 -13.8258711699999992 11.5998575699999993 10.4348582800000003
 -13.9738127100000007  9.8103656200000007  2.5219805300000000
 -13.8512400600000003  8.1996254200000003 17.5073334100000011
 -13.9538684899999996  5.8028949000000001 10.6101218999999993
 -13.9745848099999996  4.3134351100000003  2.3868473400000001
 -13.9409892299999996  2.5401174399999999 17.7274574899999990
 -14.0077084200000002  0.8824339000000000 10.3474337199999997
 -4.3469728800000000  3.0724807500000000 17.4201428100000015
 -4.8564477699999999  0.4908130600000000 10.6954917300000005
 -4.6583970499999996 -0.8992454400000000  2.3519445900000000
 -4.6823202700000000 -2.4230987900000001 17.9036969799999994
 -15.6201634100000000 14.4336799199999994 10.2353803600000006
 -15.9053266499999992 12.6666863599999999  2.9213564299999999
 -15.7423619200000005 10.8862596899999993 17.6177947500000016
 -15.4144461899999996  9.2004215699999996 10.1878571499999993
 -15.5508851099999994  7.3649646799999999  2.5052913000000001
 -15.5432307600000001  5.1038180600000000 17.6822433399999994
 -15.8877234200000004  3.4083559700000001 10.2610762100000006
 -15.3471480200000006  1.7041335399999999  2.3360075999999999
 -6.1757383199999998  3.6976230299999999 10.5427622200000002
 -5.9869581600000004  1.8148628499999999  3.0620042000000001
 -6.2870116800000000  0.1650867100000000 16.8363370600000017
 -6.0663351499999996 -1.8684013600000000 10.0876956399999997
 -17.1619569299999988 15.3450999199999991  2.8770109399999999
 -17.0282052899999989 13.7309415999999995 18.0438001099999994
 -16.9001457100000003 11.7132353200000008 10.4270393299999995
 -17.3241951199999988  9.4620189700000008  2.6215910800000000
 -16.8692293199999988  7.8435050200000003 17.8412654699999997
 -17.1349439799999992  6.2260581100000003 10.1127604400000006
 -17.3464949699999984  4.1681349000000001  3.0071939300000001
 -17.1384272399999986  2.5343778700000001 17.8584065999999986
 -7.7878532399999996  4.1536357600000002  2.5995962499999998
 -7.8100398100000001  2.3594012599999998 17.5231872399999986
 -7.6006912700000004  1.1812480100000000  9.7004517200000002
 -7.8629943100000004 -1.1219771100000000  2.3074945499999999
 -7.8197650100000002 -2.8882345599999999 17.3500772800000007
 -18.9692822800000016 14.7751428699999998  9.9175165300000003
 -18.1838701699999987 12.3862390500000004  2.6138195799999999
 -18.6655848499999983 10.4530048299999994 17.6322441499999982
 -18.3660691500000013  9.1645449800000005  9.7666706300000001
 -18.5705857799999983  6.8808029800000003  2.2247692099999998
 -18.2908963299999989  5.0640482999999996 17.3863773299999984
 -18.5105052599999986  3.9185153800000001 10.2102640900000008
 -9.5152112199999994  5.1230458299999997 17.6038880099999986
 -9.1610208300000000  3.8838340400000000 10.0250632599999996
 -9.1642708200000005  1.8140579900000000  2.6542951100000001
 -9.3510652299999997 -0.2271484500000000 17.3903398500000002
 -9.0264244799999993 -1.7157935000000000  9.7871024799999997
 -9.6418213099999992 -3.5191286499999999  2.5608292200000000
 -20.2993891700000013 12.8909302700000001 17.7891993500000005
 -19.8619217100000007 11.5119678099999998 10.6061831000000009
 -19.5832499599999998  9.3254175400000001  2.6436912000000001
 -20.1591684300000011  7.6399735299999998 17.0841592300000009
 -20.1922098299999995  6.4417662499999997  9.9486637400000006
 -19.9500439500000013  4.0744150599999998  2.3033533700000000
 -10.5201742800000009 -3.5382905800000000 17.3785998500000005
 -10.8807276700000006 -4.3019645799999999  9.8931241100000005
 -21.1459368199999993 12.1971804499999994  2.2010591300000000
 -21.9346144199999991  9.4815661000000002 17.6788972300000005
 -21.8132549900000008  9.1644151899999997 10.0414653800000000
 -21.3245787600000014  6.8136509399999996  2.4423105100000000
 -21.5469422100000010  4.7494713800000001 17.5474306300000009
 -12.6331397100000000 -1.8751710800000001  9.9364442499999992
 -12.2683521800000008 -3.5504963599999999  2.9759953499999998
 -12.0550737199999993 -5.8847808500000003 17.3802490600000006
 -23.0605179900000010 11.9194739799999994 10.3557994699999991
 -23.0994134100000004  9.8700954599999999  2.5038003700000000
 -23.0746241800000007  7.3303255500000004 17.8969007900000001
 -23.2252818900000015  6.7768250999999999 10.0302767700000004
 -13.7714137999999995 -0.6995789300000000  2.6476184300000001
 -13.7734647799999994 -2.9379983500000000 17.9699858200000016
 -13.9609432600000005 -4.6345517899999997  9.8057820000000007
 -13.7925298099999996 -6.3432894099999997  2.9230308300000001
 -24.8617669799999987 10.2391635799999996 17.6627522600000013
 -24.8711787099999988  9.1597505800000008 10.0407388500000003
 -24.7550845300000013  7.2829562200000000  2.4785523899999999
 -15.4133700099999995  0.1674267800000000 17.7678440600000016
 -15.4947280400000000 -1.7396043400000001 10.3011004400000008
 -15.8878624899999998 -3.0787677699999998  2.8338405999999998
 -15.4915682300000004 -5.8268289600000003 17.9859896500000005
 -15.5249517299999997 -7.1158449900000003 10.0477631899999995
 -26.1635362799999989  9.7807820700000008  2.8027666099999999
 -26.4416736800000010  7.9897791299999996 17.3422021099999988
 -17.0672353900000005  1.1247215800000001  9.9825345500000005
 -17.3804627099999998 -0.8586227300000000  2.5163486300000000
 -17.1130663200000015 -2.7771926100000002 17.7186315800000003
 -17.0692111199999985 -4.6863314400000000 10.5937226599999992
 -16.8179398000000013 -5.9624655899999999  2.6487333000000000
 -17.1281094100000004 -7.6500961199999997 17.4693128400000006
 -27.7537928200000010  8.8679996499999998 10.0111339200000007
 -27.7893017600000007  6.9613182000000000  2.1718751699999999
 -9.7843787199999994 15.9141364200000002 17.8379177700000007
 -9.5399832000000000 14.4593732399999997 10.1952174699999993
 -9.6252204300000006 12.8086842500000007  2.6263558499999999
 -9.6952044300000004 10.5139467300000007 17.2683915600000013
 -9.6638321499999993  8.7675144399999994 10.5501046299999999
 -9.3231974300000005  7.2429260800000002  2.3529475299999998
 -18.4977153100000002 -9.0081139300000004  2.7529645600000001
 -1.3561289400000001  3.5297867900000002 17.4997810499999993
 -3.1050658499999999  3.2705260200000001 10.1453313600000001
 -5.0269658399999999  4.2989465400000002  2.7922052900000001
 -6.8871593200000003  5.3931678200000004 17.7629795900000005
 -7.8748288400000002  6.4668293999999999  9.9192113000000006
 -26.2740550299999995  6.3358100400000001  9.8422484800000003
 -25.9954518499999985  4.4972794299999999  2.4027600499999999
 -7.7275881499999999 13.2850063299999999 17.4178768400000017
 -8.0495506700000004 11.5735200099999993 10.1023432199999998
 -8.0078198199999999 10.1443046100000007  3.0579906700000001
 -7.7225413300000003  7.9785743099999999 17.4041247199999987
 -18.4934585399999989 -6.9588859799999998  9.9771812400000002
 -20.2162853499999997 -6.3697361499999996  1.9697459700000000
 -2.9781049500000001  5.6986679100000002 17.7169485199999990
 -4.6048153000000003  6.7322736900000004 10.5153025200000005
 -5.8096807000000004  6.9679542000000003  2.7486301399999999
 -25.0432425099999989  5.4348448100000004 17.3952762599999993
 -24.8720874599999995  4.0307604100000001  9.9644829799999997
 -25.1443834600000002  2.1467936800000000  2.4895981900000002
 -6.6037684900000002 10.7417467400000000 17.6381333200000014
 -6.2709270400000001  8.8214702900000006  9.9315857399999992
 -18.7201552900000010 -5.0217677700000003 17.9939243100000006
 -20.3728906599999995 -4.2400100500000004 10.5441276199999994
 -21.4549554899999997 -3.8468305300000001  2.4517491200000001
 -4.9380594000000002  8.4734801599999994 17.6455337800000009
 -23.1841053399999986  4.2624001700000003  2.2939308299999999
 -22.9429187100000007  2.6014510899999999 17.5712828899999991
 -23.2348603099999984  1.0470779900000000 10.0058205200000003
 -23.1939160899999983 -0.2802606600000000  2.3496724300000000
 -18.2128472799999983 -3.7495178700000000  3.0413285999999999
 -20.1171765499999999 -2.4927269500000002 17.6477197500000003
 -21.6399466099999991 -1.1157267600000000 10.0624117599999998
 -21.8033832799999985  4.0516888499999997 10.1339912699999992
 -21.4514967900000002  1.9702995299999999  2.4522972699999999
 -21.8904603699999996  0.0503186100000000 17.5408218699999985
 -18.7719827899999991 -1.7371828300000001 10.0293197000000003
 -20.1856222099999982 -0.5933195800000000  2.8060537399999999
 -19.9050778900000012  2.5459500300000002 17.2964993800000002
 -20.1097145899999994  1.2603985600000001  9.8867628900000000
 -18.5612111999999989 -0.2085619500000000 17.7672177600000012
 -18.1014834299999983  1.9558799099999999  2.6011088400000002
 -0.3088060800000000  0.0846618100000000  5.3405529200000004
 -10.8495086999999995 17.1221383699999983 20.3406324299999994
 -11.0095004200000002 15.5317961499999999 12.7855515099999995
 -11.5429260199999995 13.8240364400000004  5.0032214399999999
 -10.7594891700000002 11.0847888099999992 20.2199821899999996
 -10.9981337600000000  9.8847113600000007 12.3838950699999994
 -10.4333449399999996  8.3108538099999993  5.0505415200000003
 -10.9377603099999998  6.0491188300000003 20.5945581799999999
 -10.8978396800000006  4.5022348599999997 12.7370987200000005
 -10.8198416000000002  2.6536828799999999  5.1726597600000002
 -11.0791256400000009  1.5687261500000000 20.1835637199999987
 -10.8800961100000002 -1.2632043600000000 12.1899862599999995
 -1.5659086400000000  0.7865133000000000 20.4068757599999984
 -1.5470120400000000 -0.5060626900000000 12.3851897500000003
 -12.8745897700000000 17.0876409900000006  5.2183390400000000
 -12.4069379600000005 14.3936181199999993 20.8620635900000018
 -12.4012197000000004 12.5524116299999999 13.0541410300000003
 -12.4454023300000003 10.9383968199999995  5.0399326200000001
 -12.1803926400000009  8.7133095199999993 19.9719154299999992
 -12.7204555799999994  7.4042085000000002 12.8705148200000004
 -12.2714291600000003  5.6317807300000000  5.2491474900000004
 -12.4995148500000006  3.7300384599999998 19.9713463400000002
 -12.2061934500000007  1.7158408599999999 12.5655048899999997
 -12.1724730500000007  0.5474174300000000  4.9765561099999998
 -3.4504334200000000  1.8166654799999999 12.3563285000000000
 -3.0852489200000002  0.6184687700000000  5.3221528300000003
 -3.2143646700000001 -1.5326368600000000 20.3959379399999996
 -14.2233471599999994 14.9593036999999995 12.5551308600000002
 -13.9043105499999999 13.6773620600000001  5.6862674200000001
 -14.0533616600000002 11.5206968900000000 20.4274001200000015
 -14.0394296900000004  9.7856659799999992 13.0407818899999999
 -13.9080575599999996  8.3305976699999995  5.1868637499999997
 -14.1251308800000004  6.2586507600000001 20.1190244400000005
 -14.1117104999999992  4.4432273300000000 12.9175470099999998
 -13.8014794799999994  3.1932077200000002  4.8109428899999997
 -14.2486792700000002  0.7815235800000000 20.0542092600000004
 -4.7664288099999998  3.1035368700000001  5.8511703800000001
 -4.9727509999999997  0.7158083600000000 20.0990840099999986
 -4.7687787200000002 -1.3319921600000000 13.0317679700000006
 -5.0479874899999997 -2.3711593099999999  5.2924753000000004
 -15.4184203400000008 14.1326271499999994 20.3048042799999990
 -15.6438977700000006 12.4729516300000007 12.7257996500000008
 -15.4430699699999998 10.8246980599999993  5.0790016099999997
 -15.4341405900000002  9.0203815200000008 19.9009639500000013
 -15.2911698499999993  6.8013278699999997 12.9603164799999995
 -15.3787882800000002  5.2943881900000003  4.9089396499999998
 -15.7033207699999995  3.3485066300000002 20.1312606400000007
 -15.4361950799999992  1.8702863500000000 12.6546779600000008
 -6.6848796999999998  3.9359083600000000 19.9839894499999993
 -5.9291144899999999  1.5673616300000000 12.6935747499999998
 -6.1575141799999997  0.0022722100000000  4.8142849700000001
 -6.3002503000000001 -1.8301277100000000 19.8338496900000010
 -17.0204770799999991 15.0140551599999998 12.2713732100000001
 -16.7096169500000009 13.2295290600000008  5.5212659300000002
 -17.0745594899999986 11.3736758899999995 19.9670743399999999
 -17.3525075499999986  9.6980376800000005 12.7520688399999997
 -16.8736925900000010  8.0969294299999994  5.2457592899999996
 -17.2059154099999994  6.2259608499999999 20.2665659299999987
 -17.1144222600000013  4.1825645199999997 12.6760784300000005
 -16.8071513400000008  2.6408156800000002  5.3012048600000004
 -7.8384097099999996  4.4259987599999997 12.7107206999999995
 -7.9647913499999996  2.6999567400000002  5.3330523300000001
 -7.7922734800000004  1.1020587100000001 20.0651286000000013
 -7.3979533100000001 -1.1400049400000001 12.1687922999999998
 -7.5544069399999998 -2.5106076900000001  5.1673254399999999
 -18.4766267299999996 14.1835450200000004 19.7489361300000006
 -18.6403117599999995 12.7876498299999994 13.0294179799999998
 -18.5143633100000002 11.1489876500000005  4.9895277699999996
 -18.6269797299999986  8.9199505899999991 20.0956225500000016
 -19.0976590299999991  7.3189898500000004 12.1292669499999999
 -18.8015788099999988  5.2014882800000004  5.0074093900000003
 -18.9291225700000005  3.2281457300000000 19.9155954400000006
 -9.1858136699999999  5.3767132699999998  4.8227973600000000
 -9.6589351499999996  3.6179237999999998 19.9853569899999997
 -8.9111881900000007  1.6983513900000000 12.6768473999999998
 -8.9568877199999992  0.2164366700000000  5.2904090699999999
 -8.8468262600000003 -1.7506992500000000 20.1446553199999983
 -9.1137793400000007 -3.1709011700000000 12.3047212699999999
 -19.8934946600000018 13.5717214500000001  5.0394374099999997
 -20.1267712400000001 11.5184769700000000 20.0271928999999993
 -20.4299776999999985  9.8014337699999992 12.7330430299999993
 -20.0753035400000002  7.9114203500000002  5.0298594300000001
 -20.0033449899999987  5.7428621199999998 19.3295909600000009
 -20.1177454100000013  4.4176203999999997 12.8001582900000006
 -10.5186505100000005 -2.4739733500000001  5.1204372700000000
 -10.9343936100000008 -4.0229166699999999 20.0776175899999991
 -21.9338083200000007 12.7759134700000008 12.3100048500000003
 -21.4470032699999997 10.4203842299999998  4.5859775300000001
 -21.3907069099999987  8.2849603500000004 20.7072325600000013
 -21.9587721100000017  6.9601196500000002 12.5347700500000006
 -21.7072180299999999  5.2296471100000002  5.2706133199999998
 -12.0380641199999996 -1.8044265900000001 20.5094622999999991
 -12.3799617699999995 -3.5633556899999999 12.6388328699999999
 -11.8998618100000009 -5.8715355000000002  5.0609038300000000
 -22.9313408099999982 11.3268485400000003 20.0956647599999982
 -23.3489494399999984  9.7138438199999992 12.4866573100000000
 -23.2562557500000011  7.8783642599999997  5.2965250900000003
 -23.3835876700000007  5.6420902899999996 20.0671434300000016
 -14.0328400700000007 -1.0720153800000001 12.8972350999999996
 -13.9867025700000003 -2.6177795900000000  5.1078995599999999
 -13.8307308700000000 -4.5391815299999996 20.3446834199999991
 -13.6471037899999992 -6.1735760099999997 12.5650691299999995
 -24.4568000800000007 10.8780779299999999  5.1423169199999998
 -24.2338419999999992  8.4312436599999998 20.2992954400000016
 -24.7570195200000001  7.0190417500000004 12.5321673499999999
 -15.2269619299999999 -0.2124330300000000  4.8451342999999998
 -15.4800679599999995 -1.9583244700000000 20.0465445399999993
 -15.4552773299999995 -3.7303131600000001 12.8888634300000007
 -15.1484643499999994 -5.0446808900000004  5.4530846200000003
 -15.4482146199999999 -7.2894281599999999 20.3979156599999989
 -26.4303215700000003  9.8925663200000002 12.6766393799999992
 -26.4026841200000000  8.0292558100000004  5.0734071399999996
 -17.2237870999999991  0.4482180000000000 20.3230180400000009
 -17.0462696899999990 -0.7063342400000000 12.6619984799999994
 -16.9551238300000016 -2.6392643900000001  5.6196189099999998
 -16.7963178599999985 -4.7106920399999996 20.1909212099999991
 -16.9102744200000004 -6.0526588500000003 12.9007274800000005
 -16.3626433700000007 -7.6869964099999999  5.2557891899999998
 -27.4962785399999987  9.1334237300000005 20.4473333199999985
 -27.7752139299999996  7.5154386799999999 12.3773294899999993
 -9.3544737799999993 16.1223943699999985  4.4599828400000003
 -9.3055400699999993 13.9131962399999995 20.3567598499999995
 -9.5023683400000003 12.2661932100000008 12.8551929200000004
 -9.5214692799999998 11.3249476399999995  4.9983615099999996
 -9.0736266000000008  8.8321455100000001 20.3283164599999999
 -9.4029480700000008  7.4769303400000000 12.4741801300000006
 -18.4077264999999990 -8.5480110600000003 12.5340188799999996
 -1.6930090099999999  2.7373820400000000  4.9538126000000000
 -2.9396634100000001  3.3879992900000002 20.2495655700000015
 -4.2102848100000001  4.8496051199999997 12.5628664699999995
 -6.0833647900000001  5.5669929199999997  5.2686468099999999
 -8.3414388400000004  6.7554115799999996 20.0058015199999986
 -26.4347433900000013  6.2390062400000001 20.0465066599999986
 -26.7279348699999986  4.3677762900000001 12.5822485700000009
 -8.1019829699999999 13.6674967699999996  4.8369337899999998
 -7.5874241900000001 11.6128965100000006 20.0524905000000011
 -7.5826290299999997 10.3476798500000005 12.7625841199999996
 -7.5615362800000003  7.9858205199999999  5.2468349600000002
 -18.3286870600000000 -7.5551424000000003 20.3085805300000004
 -20.2097938299999988 -6.6258811900000003 12.4431585299999998
 -3.1026693299999999  5.6827822299999999  5.0483494300000000
 -5.2680986399999998  6.1958142799999996 19.5485869799999996
 -6.3278443099999997  7.0757224499999998 12.5200406799999993
 -24.9229003999999996  5.5549102399999999  4.9881154299999997
 -24.8652649799999992  3.4133612200000001 20.3391523399999983
 -24.8452102500000009  2.3750266999999998 12.4143978799999992