Li                                      
   1.00000000000000     
   -11.0705700000000018   19.1747897087477881    0.0000000000000013
   -18.9781199999999970  -10.9570226907130195    0.0000000000000076
     0.0000000000000001    0.0000000000000001   23.2203000000000017
   Li
   504
Direct
  0.9828243805715289  0.0150754109035134  0.9875917132853615
  0.9262236345697090  0.0395020817573979  0.6645964074538213
  0.8508936049418168  0.0857011987456744  0.3386331610702698
  0.7871497349912318  0.1270389600391439  0.9928375800484943
  0.7047922880351507  0.1556931814029383  0.6783100670533955
  0.6457384229164518  0.2045504558625311  0.3323332015520890
  0.5602626914329036  0.2465014261741203  0.9977389439412931
  0.4962530150526163  0.2889517997119313  0.6779405085205639
  0.4207903048239459  0.3394040782293075  0.3411165562029765
  0.3369308199888934  0.3832014104745625  0.9937843783241362
  0.2772595318214996  0.4064660933118205  0.6686735946563971
  0.1979427256769952  0.4669465742340151  0.3166054426514719
  0.0790549545984405  0.0394655767415912  0.6603461484132396
  0.9900565689793410  0.0873196896823458  0.3295961163292489
  0.9335594250069619  0.1332016904888746  0.9822462599535768
  0.8503861749454629  0.1679938773299980  0.6728392682265110
  0.7793209999322528  0.1987747694597743  0.3335973734189466
  0.6975885646591138  0.2415484064671176  0.0144811135084382
  0.6424238002025291  0.2766020248682111  0.6732859678815544
  0.5805076467152546  0.3339410479807015  0.3476130739051584
  0.4919413151878089  0.3952989876932662  0.0076295659401495
  0.4190584508662880  0.4002253408447842  0.6763331912163082
  0.3570987584592160  0.4492450857916452  0.3206070813038622
  0.2837897470427109  0.5120682533402316  0.0069211689771436
  0.1340737856866667  0.0809532398567825  0.3345055447173380
  0.0656683794151718  0.1312319976318932  0.9959559260646955
  0.0064981496798566  0.1745128542289081  0.6623540759593993
  0.9202435793257848  0.1944963330415987  0.3251971817762893
  0.8359380144599555  0.2427203303203882  0.0044586689233128
  0.7778895488240281  0.2885401987907770  0.6730521862335976
  0.7117539469251142  0.3367893652158003  0.3401425046188038
  0.6356686223018073  0.3820153234358443  0.9924892171935795
  0.5808087288081580  0.4094890347999822  0.6822248175088177
  0.4992180456351605  0.4568971083823214  0.3492674806096403
  0.4126434413757281  0.5126117606595955  0.9986913717738375
  0.3527423662376776  0.5394247671845349  0.6802139261766627
  0.2166811028404680  0.1244884800669084  0.9918618975637727
  0.1542188442560288  0.1605689909930277  0.6671006162711066
  0.0783518428141647  0.2087529618053239  0.3330641834946135
  0.9826642468255642  0.2605186435231914  0.9973705163154634
  0.9242530055761975  0.2801537567503161  0.6681553153921342
  0.8562909594431787  0.3233069125454548  0.3313914919273202
  0.7715056855604630  0.3797998933827458  0.9914764507779807
  0.7179913684034815  0.4223971476992148  0.6710604850066559
  0.6407174622167702  0.4514911194737365  0.3348148490760252
  0.5616905062528375  0.5121400308456501  0.9988418960995347
  0.4894149980707851  0.5295417525449082  0.6628075593338565
  0.4336355662425078  0.5716612203644331  0.3320260789050948
  0.2808900391251896  0.1688661832448020  0.6831961714534245
  0.2120181172622893  0.1929007589571370  0.3254323522951879
  0.1384602201425409  0.2645207138903416  0.9983709710899547
  0.0558112227454615  0.2913196202685384  0.6643814141074813
  0.0041365333173005  0.3177636693388735  0.3274954311529115
  0.9103466872107546  0.3919605964639956  0.9971237412953329
  0.8544717385426637  0.4116875072684607  0.6775898584428290
  0.7846888318932983  0.4495171085601228  0.3289844859885562
  0.7152193631639818  0.4969912290963308  0.0074227180527373
  0.6475379870435916  0.5382059411983278  0.6547217770657596
  0.5667869178532001  0.5629699612407251  0.3383473800941417
  0.4994467542130181  0.6365953069225014  0.0043229445786679
  0.3673896505579179  0.1975317658557856  0.3313164455239601
  0.2843810509468270  0.2620685710080650  0.9964986330925925
  0.1996728582030158  0.2864434778662712  0.6616343630357946
  0.1294684641648018  0.3392452921928566  0.3319453202585692
  0.0725221476606066  0.3888393454026513  0.0118153576827140
  0.9910355378078393  0.3995889690976071  0.6693426958307995
  0.9281751063983137  0.4569046619138248  0.3338264677889597
  0.8568990997005557  0.5050873439428187  0.0028088737010279
  0.7846649317595507  0.5321667165351869  0.6729047436940974
  0.7056678687410525  0.5760691170859573  0.3389644255242175
  0.6314370693752309  0.6273100324419190  0.0135655891612103
  0.5812229160782607  0.6580269954005757  0.6693524708983105
  0.4094975725212393  0.2591091840800672  0.9933246241435327
  0.3499823963475848  0.2773635345580203  0.6663773189838196
  0.2689679515616490  0.3325195970138353  0.3196178356868771
  0.2167784347481359  0.4051944314626681  0.0076102195062049
  0.1400417510680043  0.4210756003165272  0.6581699844532594
  0.0726244048734017  0.4693834042645264  0.3305506530923381
  0.0108532355095363  0.5233772621611195  0.9944461591796809
  0.9360664270838299  0.5388497988377452  0.6675751441626474
  0.8598651007774194  0.5729362503391542  0.3348193882077339
  0.7815346762748447  0.6155191504148974  0.0050403168779027
  0.7116208950724499  0.6649491555347851  0.6660842095063373
  0.6258061751061632  0.7025340709224608  0.3576230518124248
  0.1331768415422943  0.5125604545301172  0.9985266482345168
  0.0675040728501131  0.5390828072658280  0.6632344586417886
  0.0166470798818281  0.5864073942451995  0.3308795205057606
  0.9162313354058682  0.6166527488073541  0.9994135299716191
  0.8700985862045627  0.6535964913553798  0.6574711571340615
  0.7756677029223056  0.6936321473391160  0.3333950271960333
  0.7253804517718550  0.7517664090030038  0.0102227632717913
  0.2044203916388767  0.5452735273533094  0.6594792341184217
  0.1475340871708184  0.6071508231895137  0.3168528137018072
  0.0778332069747023  0.6246607832526081  0.0051314983010542
  0.0139028181355272  0.6598033687548295  0.6658166246775465
  0.9244665770998566  0.7000796562333704  0.3344826655986353
  0.8469040833504522  0.7443056404945807  0.0010010839653205
  0.7921135192181055  0.7751428765098751  0.6690579165643840
  0.2782018247267217  0.5910727967383025  0.3326053754688800
  0.2224255463397853  0.6387084515988519  0.9871099163232202
  0.1362618513600609  0.6632117684042953  0.6700735012036887
  0.0688055957969098  0.7115399894899284  0.3252738526203345
  0.0008390937713330  0.7644049338747934  0.0029604548606201
  0.9226539407727614  0.7713900250867454  0.6696724125011286
  0.8581748033316074  0.8150966343073591  0.3264741247959790
  0.3651037035176614  0.6417453395251229  0.0054744968841902
  0.2860326361554968  0.6637921690428783  0.6618665103379371
  0.2265187205873644  0.7171939827246945  0.3251382531664078
  0.1530040163446102  0.7439706686845611  0.0140568933217935
  0.0719093769112078  0.8120018705355463  0.6648881267683890
  0.9906438784138061  0.8294959252522602  0.3464565772190724
  0.9272090084186999  0.8693024602895392  0.0256658759792074
  0.4445741038314921  0.6747138469640959  0.6622633742888766
  0.3652885190232027  0.7094084045183280  0.3227002209273806
  0.2956588610415309  0.7525865382197736  0.9964688350279687
  0.2125920209601588  0.8006636121238060  0.6561810850850307
  0.1395994788601840  0.8250657524198814  0.3302286882598438
  0.0780339417643816  0.8782445418893730  0.9971256706416369
  0.0063637855126544  0.9173402585196655  0.6501070111066625
  0.9105967794277703  0.9525255737433582  0.3326509915892544
  0.8523235334419610  0.0005186251527292  0.9841646731523710
  0.7826907398131766  0.0317828102333877  0.6713627640469753
  0.7199172383541992  0.0631604225599318  0.3248010413302183
  0.6425195185113282  0.1135159975779487  0.0022856190488483
  0.5719553393791372  0.1478586666397632  0.6763346825837715
  0.5085176677002892  0.2115492727144357  0.3370729292903221
  0.0602282231286253  0.9564122589528878  0.3275330835518915
  0.1256388826976860  0.0119165241010961  0.9909051777970106
  0.2266181879387830  0.0450637606438633  0.6644743612270290
  0.2829353904712093  0.0757099393570684  0.3285858498813568
  0.3495016361759014  0.1139518509525814  0.9848730537503840
  0.4325404234791677  0.1623053060073545  0.6816753358053091
  0.8834762208802758  0.8949002584771009  0.6654365826453557
  0.7825748289598877  0.9552340550993250  0.3351619595784712
  0.7051347235808976  0.9943504827225809  0.9972840988273219
  0.6489741631104238  0.0370619123018869  0.6804357320964840
  0.5749891616676663  0.0740067354678331  0.3359214820652596
  0.5034284112861442  0.1333712597911685  0.0026916517013120
  0.1450381958624689  0.9301078726465448  0.6650623497543080
  0.2046598895470453  0.9542159105631782  0.3250152767190784
  0.2798650062411028  0.9942966040818320  0.9946274936155035
  0.3731760073831865  0.0403351511079038  0.6630395326503091
  0.4316023961705042  0.0920411395347216  0.3243994418676763
  0.7843991002035011  0.8716097286380347  0.0157605332403108
  0.7316013508041408  0.9041429859136798  0.6595052156948853
  0.6335711941655617  0.9495643485764944  0.3209340749258160
  0.5783519895649576  0.0110215540254686  0.0037961865264435
  0.5175602122190810  0.0343203853392140  0.6622364913459364
  0.2090611694065743  0.8720514239451873  0.9955275259148237
  0.2809158311297253  0.9222510542335129  0.6770773344874925
  0.3595897855175281  0.9552977085266221  0.3525911362040972
  0.4313028895939510  0.0019504439611495  0.0022416700042669
  0.7195469385412139  0.8194524393666924  0.3369317674620902
  0.6328122858022809  0.8825379227850689  0.0143212559699890
  0.5871187162472538  0.9132103355587731  0.6764875686360625
  0.4974995223752359  0.9501835293790108  0.3280636563696433
  0.2961379029247340  0.8396181137024428  0.3338712208713943
  0.3632622587831094  0.8889609263606459  0.9946551508809094
  0.4401101647685124  0.9156245114489039  0.6523239923687427
  0.6442341475660243  0.7901308893072638  0.6761938863838992
  0.5711560621222631  0.8256368319597058  0.3405401467681273
  0.5048349713233549  0.8964268031563094  0.9838128594376485
  0.3577954274594504  0.7934066174431536  0.6590113168219176
  0.4321810239975505  0.8324298113387130  0.3270044585987293
  0.5712129308833980  0.7566600355435753  0.0009824059120689
  0.5104861036097788  0.7910420239707960  0.6690351252998425
  0.4310559538865064  0.7588143324303331  0.0105927503089944
  0.4929109989215448  0.6981423435339806  0.3446100722212861
  0.9965867503817947  0.0089839319608984  0.7655714852951974
  0.9358298245315098  0.0434589068588593  0.4394902012463220
  0.8507747366049827  0.0768349649060625  0.1023539377182914
  0.7832131600132399  0.1071850039494038  0.7789386394663325
  0.7057880701782935  0.1650536925641859  0.4365189958786075
  0.6444671976080301  0.1993321881290910  0.1127617597533188
  0.5655520935439995  0.2600330822955357  0.7796493391558244
  0.5102580682327087  0.2841699924737000  0.4488361674913790
  0.4139673462687483  0.3413098755523549  0.1066995400576189
  0.3367467503312227  0.3904118968678532  0.7744304539562350
  0.2806294172266064  0.4099368832388919  0.4315796514256931
  0.2094366200164046  0.4600517347105537  0.1200171875471057
  0.0594970981108602  0.0431755859150869  0.4402657825264953
  0.9894274051799385  0.0891422601942224  0.1064007282421002
  0.9145917387725078  0.1415693664334157  0.7749690856707261
  0.8665280271326665  0.1731979663246861  0.4376790144830167
  0.7888407277740086  0.1986639363818412  0.1080580237981437
  0.7157122955267212  0.2411947828610366  0.7769531293738652
  0.6531086506031798  0.2791841760876181  0.4435604699336366
  0.5670701588722196  0.3275897465762654  0.1076344181599751
  0.4954424237179751  0.3831084689769284  0.7916600341080837
  0.4266713690738158  0.4015589290020571  0.4630727208520113
  0.3422810136650156  0.4691230495196876  0.1148152737044725
  0.2830927035862274  0.5156030053798446  0.7674710735864707
  0.1221831209244897  0.0765113629267304  0.1080187172431053
  0.0432827047672788  0.1432209311082744  0.7891935117117370
  0.9938575767076472  0.1869458422134329  0.4417482935190336
  0.9210525586400422  0.2039256525881541  0.1098942920634087
  0.8507057464638237  0.2429635593183122  0.7860133964677445
  0.7920811595447645  0.2969908366886997  0.4254586538502920
  0.7195913920696810  0.3312290502270585  0.1056325607334969
  0.6473903019921252  0.3729513879391106  0.7940150583756420
  0.5806287649010002  0.4067527686699179  0.4509426906629130
  0.5001951474948783  0.4654327987175577  0.1137976089886834
  0.4356624571267034  0.5024755213902523  0.7820287085007536
  0.3697949243894172  0.5266635374790667  0.4377749830966877
  0.1949684421383537  0.1373476774051596  0.7822594118077717
  0.1239536519367803  0.1767793189988396  0.4428052303372496
  0.0630260315012663  0.2140592427723647  0.1009116441217373
  0.9861637369705534  0.2439055053085326  0.7648611671683838
  0.9174738342234150  0.2958454085579234  0.4397141565785105
  0.8568663292615000  0.3290043129281273  0.0987433448318953
  0.7832952693189057  0.3728565189985176  0.7782048311175984
  0.7198635494196921  0.4237024007489083  0.4436478021386492
  0.6343661170740731  0.4510222669739292  0.1050401519360236
  0.5849922762984221  0.5104536996171873  0.7722581594553048
  0.5092999134631384  0.5338657894992949  0.4529076123047489
  0.4325437391774329  0.5870890761242151  0.1201436600732961
  0.2748360434214447  0.1498231712508868  0.4472002463361804
  0.2065356459468930  0.1894155097580636  0.1123918334388421
  0.1316902081803590  0.2563218976392179  0.7715914936499502
  0.0676613855556170  0.2955726734212618  0.4430958420003179
  0.9995323919765795  0.3286804750605370  0.1169595513408552
  0.9348945487313784  0.3609963777049998  0.7670806311718650
  0.8686756230794188  0.4245084005900353  0.4453138878481298
  0.7727764466211724  0.4548472916879547  0.1007052044977854
  0.7140769449875464  0.4798997058259289  0.7788966477607957
  0.6339888705719758  0.5484242116243294  0.4240039258752049
  0.5662011722224918  0.5636533823597318  0.1215900733409967
  0.5031765727784503  0.6325161537969066  0.7790933894049630
  0.3477381517572482  0.1991100324637429  0.0999205505527456
  0.2722535010643909  0.2693117805515826  0.7841795317028613
  0.2030670977536317  0.2864133428190740  0.4401176134675282
  0.1444418495260038  0.3359893279151436  0.0974966477607921
  0.0690415623259497  0.3825349081658871  0.7686592149972213
  0.0083948895232453  0.4146609821147038  0.4326937123982049
  0.9411613804531527  0.4589471505289637  0.1113558162469914
  0.8578824405085967  0.4953457134099040  0.7752207714801287
  0.7825353516245102  0.5388338176998673  0.4536716597115458
  0.7181287886733614  0.5765892409773130  0.1203325495363998
  0.6569461091569551  0.6246514081663648  0.7720009371110592
  0.5700840623778092  0.6569537752718446  0.4644271869872512
  0.4200068362857152  0.2638086105694555  0.7855793150820602
  0.3511141362739991  0.2734653109153697  0.4345632162375139
  0.2749644234258994  0.3439164144264026  0.1042123077651880
  0.2022910557984687  0.3918090393784581  0.7822446850385205
  0.1520559271949509  0.4338353010768898  0.4507324767552561
  0.0801495625140802  0.4553123058405433  0.1063353582856408
  0.9975853148441729  0.4953549519681388  0.7777990805459041
  0.9261538558277920  0.5487110771925003  0.4445087884308094
  0.8591878782921611  0.5829745312083148  0.1143259432479340
  0.7923521739176209  0.6264828963033651  0.7719666907834934
  0.7296175817026267  0.6685270674086965  0.4493263859640066
  0.6419125756565407  0.6990105282985866  0.1047942274647582
  0.1579125434509692  0.5040385329973702  0.7715920448917544
  0.0865537932647769  0.5495828661056379  0.4386989573778095
  0.0115618903504995  0.5969059149980325  0.1165565595621061
  0.9389785404228732  0.6223552543534723  0.7822473417656113
  0.8533472440997656  0.6659522618618965  0.4456073259174076
  0.7815071214396312  0.6990253653472536  0.1088468727794236
  0.7148282933915837  0.7450704268930721  0.7802094305413760
  0.2248041176335676  0.5577506749588110  0.4332614789645248
  0.1517105564069041  0.5905311888405365  0.1071698328617643
  0.0752329318028515  0.6213223681888067  0.7851058789076788
  0.0174375867969090  0.6611550841038891  0.4411841655792585
  0.9355322991805579  0.6945780854299954  0.1157684582025240
  0.8598977348335524  0.7456158910199591  0.7787709107978813
  0.7925327151207355  0.7879750296639401  0.4540624462216272
  0.2870213859237651  0.5928270416476451  0.1168568093435454
  0.2144706522790116  0.6341378677655953  0.7722559975538630
  0.1399413637127154  0.6775238420414098  0.4413036334586522
  0.0730441633037628  0.7008020972074291  0.1249612446867587
  0.0201934369202874  0.7388295939235974  0.7755965870380663
  0.9340713938420251  0.7806030033256377  0.4370905397432381
  0.8586195980656726  0.8128088180621731  0.1136803378939959
  0.3591198539133913  0.6325829876121603  0.7832309707454215
  0.2845077894201111  0.6655666816143793  0.4280750528632282
  0.2305427690354094  0.7205359939445870  0.1031124361011706
  0.1458843255126041  0.7472417311361710  0.7817212266852707
  0.0641331953884077  0.7935704917625657  0.4501509846987304
  0.0099217417676840  0.8272492698559688  0.1152182228481138
  0.9430082846049928  0.8745217958733775  0.7689141669142927
  0.4337624352759590  0.6381763940214853  0.4519921491109073
  0.3815935698829946  0.7173063640160535  0.1091178464533158
  0.2966046588987581  0.7510011271577568  0.7808888524265427
  0.2097894174503665  0.7942122069444437  0.4413932899230417
  0.1458486757154205  0.8356779404959553  0.1163400425489769
  0.0760127579783685  0.8882487454978332  0.7832091480299539
  0.0017936991669103  0.9166727108804125  0.4434314595418627
  0.9147889076021229  0.9430259115848756  0.1167767543916298
  0.8601527246363574  0.9889388549141032  0.7674046928764895
  0.7903958509903291  0.0352278452187065  0.4511173546422711
  0.7030765236365539  0.0875118120090335  0.1018274156664631
  0.6423440975558634  0.1186621263813805  0.7827218024745619
  0.5653343794055132  0.1708777560361483  0.4341902326843297
  0.4941507900160360  0.2100327212902116  0.1009307868546045
  0.0607473244047867  0.9660000886739084  0.1030894200333350
  0.1498682382844834  0.0176916958737152  0.7687574247533391
  0.2077753913799611  0.0330555769196721  0.4309314237972828
  0.2709749246143787  0.0604430085178009  0.0953670749301239
  0.3441822143484998  0.1349836724238216  0.7929166750644896
  0.4314179286552786  0.1643333439543397  0.4593535716592783
  0.8598986086650342  0.9170130076040763  0.4341977842663525
  0.7692985220145445  0.9582818325071969  0.1129180910668666
  0.7098014471299052  0.9874317731918154  0.7662314181987284
  0.6596179250373950  0.0456061774095033  0.4434570307015875
  0.5698368772915998  0.0761841737412325  0.1171622119438567
  0.4968080157607062  0.1278230206659074  0.7917889626749002
  0.1407896994236140  0.9231859634806767  0.4414214790506605
  0.2146209529524015  0.9483428293673839  0.1052459602158464
  0.2829522170471321  0.0117724260635157  0.7927126423861850
  0.3687721737497114  0.0442398565533182  0.4465224269281620
  0.4234448609272263  0.0690686140652943  0.0999611809494283
  0.7920073333942597  0.8668452720894138  0.7880122414439086
  0.7158348760730462  0.9011003585177093  0.4592893683544119
  0.6319143037771084  0.9527887934123171  0.1194746286654365
  0.5658659566703435  0.0118709348483392  0.7893736196345458
  0.4998791292038476  0.0372930479209614  0.4544584363681778
  0.2168237079434618  0.8725564246380770  0.7662880793960483
  0.2829856961485788  0.9206490886235557  0.4461776088164200
  0.3572025427878884  0.9628369831094261  0.1166264389348939
  0.4336636059171539  0.0081568835185877  0.7721794330822576
  0.7194888508031525  0.8177145019087320  0.1265950818895547
  0.6501931355796344  0.8825741542916887  0.7805539062802822
  0.5830552350193301  0.9084400918980364  0.4467287614716398
  0.4922305542493177  0.9611980592937641  0.1127403474545972
  0.3071262446268861  0.8290442989095297  0.1110625190027719
  0.3640574831946992  0.8801419349371429  0.7765774305241564
  0.4368406251519303  0.9200472681388803  0.4458259131018991
  0.6451452817805574  0.7834608727249375  0.4413955745619162
  0.5695132941089724  0.8289099700937754  0.1100830363948759
  0.5039544211815254  0.8838902074336374  0.7681809098073700
  0.3569764451145048  0.7875269687413038  0.4382395559058239
  0.4354841511007947  0.8453799275875653  0.0990904260496208
  0.5681867337943487  0.7500031557634941  0.7850868778611826
  0.4899388878425555  0.7838889118846808  0.4467130157663775
  0.4311461509233752  0.7615823425066495  0.7775036782470508
  0.5082444756697129  0.7066915703444323  0.1116637033113292
  0.9905841016630319  0.9999691229506524  0.2102356119429984
  0.9149233377754697  0.0392854120704769  0.8656816699181320
  0.8760360123474200  0.1000357117979576  0.5556259811458091
  0.7752003326382564  0.1261649290606712  0.2247320168128724
  0.7143762035609100  0.1580636460378955  0.9015613682855061
  0.6397323275479323  0.1997914280559812  0.5596989095748128
  0.5686174467593901  0.2586180987594560  0.2259619134981037
  0.5103239357497316  0.3025851241644091  0.8954831462125838
  0.4275436108391659  0.3228326735289002  0.5662948222029840
  0.3560881903720770  0.3656042148702099  0.2255760588795113
  0.2808569841649700  0.4243639399905135  0.8903812177275938
  0.2176764898650561  0.4628998789972130  0.5520150058354076
  0.0615777238179191  0.0466454300021866  0.8827770179541190
  0.9990043292207460  0.0917576015463410  0.5413664018122049
  0.9125787443953186  0.1260283131131814  0.2221578291408832
  0.8473390231213926  0.1742724263943458  0.8782285271938761
  0.7878668678994529  0.2236901546748769  0.5568621908416347
  0.7123565692698151  0.2391137343919567  0.2257068965517206
  0.6413220834832885  0.2836628566081600  0.9013058362725701
  0.5742776236013256  0.3358441504473504  0.5611407303092548
  0.4965493765798143  0.3653862494344438  0.2185089856720168
  0.4176688650634901  0.4191415273216776  0.8990732165389730
  0.3497970675212514  0.4614405704153626  0.5540556827431189
  0.2807943639930599  0.5005179979792160  0.2255209532176607
  0.1576012447981512  0.0704190908991507  0.5598055270603766
  0.0802087044433719  0.1265425581064079  0.2253803641641170
  0.9941046163125762  0.1586059740263224  0.8857261245548074
  0.9464126515148337  0.2178990660043993  0.5643026752453650
  0.8542133729961705  0.2510075639373071  0.2226456742591623
  0.7667712771958364  0.2867330189615274  0.9021341489989396
  0.7195359737545033  0.3339598582490027  0.5661737049047630
  0.6325500853008563  0.3759611285085640  0.2270745455485041
  0.5580545659730944  0.4267112582055148  0.8823409409008462
  0.5119487531150071  0.4384750856369095  0.5698983940775975
  0.4171319110513210  0.4905510882781101  0.2162062441053720
  0.3538153893993723  0.5394363938354800  0.8900476130799362
  0.2038146317496299  0.1113562751311221  0.2176943230707593
  0.1389007928350807  0.1772429297456100  0.8823182361985005
  0.0819868393087759  0.2116734753681300  0.5512363479369355
  0.9869842054418783  0.2580218090496444  0.2296758090980759
  0.9299046606581456  0.2861394227066612  0.8821954931676146
  0.8488875877625546  0.3348579879115263  0.5446860695167572
  0.7696802605783333  0.3734887774789755  0.2129909587731404
  0.7066310487789949  0.4223109965749359  0.8874255276632965
  0.6360793360833341  0.4758908824654924  0.5578349818908421
  0.5699953727304319  0.4798822805689724  0.2401403982722030
  0.5075144055964387  0.5499486622930121  0.8913094486290021
  0.4272895180158898  0.5763793642646817  0.5632963243368962
  0.2831468435871543  0.1750054788245237  0.8954575177753981
  0.2250244731165481  0.2063946270046841  0.5577411084266757
  0.1292770742456000  0.2433472219676602  0.2238464916473930
  0.0591118689876851  0.2841570712241790  0.8830088577666970
  0.9923683533968699  0.3359976988202860  0.5469712006304803
  0.9144398734764110  0.3818000987394043  0.2165735175686763
  0.8566087211860562  0.4133238845312022  0.8789135407380613
  0.7878878482038516  0.4536631349316949  0.5595757053095767
  0.7135287200664777  0.5032261850749009  0.2121034822978203
  0.6345459203244914  0.5517613373101895  0.8896952989410138
  0.5691955308298304  0.5950161207886353  0.5682836440528334
  0.5054891809680058  0.6226294932190868  0.2328668221340777
  0.3530287851199105  0.1875619056215783  0.5587002032704120
  0.2798947689005047  0.2497682382793016  0.2116220862779556
  0.2006770848829618  0.3059805420351012  0.8917454180178552
  0.1353257807014501  0.3344581808914668  0.5601316111333645
  0.0641330916814198  0.3715251315317047  0.2177417182379244
  0.0069787668982357  0.4153949749785255  0.8888265694241682
  0.9350396907129124  0.4543850687625692  0.5537595685671590
  0.8500018540647645  0.4968200630223762  0.2150998062040514
  0.7869605953429328  0.5334978223351072  0.8872996735614933
  0.6990234416171290  0.5869938902239369  0.5520625853240446
  0.6382337930018807  0.6325855810906020  0.2329530453956252
  0.5818790183173803  0.6698154151299605  0.8856188218929120
  0.4180666140424805  0.2497756676941520  0.2245734202400484
  0.3513161392921518  0.3081440905546202  0.8962073633846259
  0.2827703301527791  0.3274891225327181  0.5506648320650456
  0.2191784626949769  0.3898462211348033  0.2216213718169016
  0.1227750652452073  0.4281112241859759  0.8896286124640937
  0.0730831034248212  0.4614830334995403  0.5527420003186876
  0.9967711126336738  0.4958697828663219  0.2194674991279157
  0.9477723807980070  0.5557101427490707  0.8863110377557533
  0.8437375658139956  0.5774371352919374  0.5462083638023643
  0.7868484491135348  0.6208074379705195  0.2279317872723468
  0.7258796908197738  0.6681326343811378  0.9102954793865692
  0.6450634526396968  0.7127744446294244  0.5582970663600406
  0.1465008155424030  0.5035458916099600  0.2201351265918206
  0.0890208630719513  0.5589986771029771  0.8862378470562362
  0.9993634298178691  0.5812544538005469  0.5584324982881341
  0.9371393831665031  0.6165645532275263  0.2380206147207389
  0.8767372681436356  0.6725693588936679  0.8838867254083738
  0.7856040239264956  0.7189006535336517  0.5567650654814997
  0.7176588172930920  0.7414800747934791  0.2305230203744131
  0.2233394371261710  0.5536327843608433  0.8913734658897567
  0.1372672535414097  0.5894592931735119  0.5509383926994929
  0.0808385625190624  0.6264375688916175  0.2163415791354950
  0.0172856820542791  0.6807897946066461  0.8921525561685257
  0.9356236129748154  0.7028446515729385  0.5462594208515839
  0.8465375446322625  0.7477634810255367  0.2162657915703079
  0.8021720523405520  0.7839026290549498  0.8833985874428834
  0.2859372976725894  0.5789237069058899  0.5391404473671741
  0.2376714872189396  0.6377478877643625  0.2209997144739759
  0.1514714232372896  0.6804816707899448  0.8912502822960917
  0.0678177540928928  0.7152887855104666  0.5648474459847606
  0.9953631090875348  0.7403504665071594  0.2308146096303645
  0.9368370920345086  0.8152788191894444  0.8938529803663187
  0.8673583191232197  0.8273976596767270  0.5558609527008684
  0.3733759935892635  0.6026627867591969  0.2174650056200846
  0.2936613254413132  0.6789080894424302  0.8866278842219941
  0.2313710658289381  0.7045500908291302  0.5529831965995271
  0.1466908400631226  0.7499322591870197  0.2384207641589455
  0.0705182433931526  0.8082254849394488  0.8925958811901680
  0.0071340840475926  0.8397635589386709  0.5506452186233588
  0.9421566782167901  0.8613512414735283  0.2204188042359476
  0.4372656684674823  0.6841038547882476  0.8885535544329741
  0.3656619750130545  0.7109088175899245  0.5488315684982510
  0.3034113617731862  0.7582541838019097  0.2110604712256077
  0.2023895888736646  0.8025961380317383  0.8700175979638516
  0.1464178200480433  0.8266136937647559  0.5476232292433778
  0.0832160462925273  0.8562834524386673  0.2132313169941824
  0.0104499862971750  0.9330790860842981  0.8943370481862871
  0.9364503363106493  0.9671833216540620  0.5470919639281107
  0.8416242610630178  0.9939328618537360  0.2249685430420811
  0.7933256793555543  0.0335825226048101  0.8852809347855128
  0.7258330721395083  0.0933469593702938  0.5551530755416607
  0.6300756581562581  0.1207076149315682  0.2248459817487287
  0.5826418862046125  0.1527978047266956  0.8868009534760546
  0.5084338204378227  0.2004476096934624  0.5665341817289189
  0.0781744875782096  0.9512184691134493  0.5587729852758159
  0.1394655349619995  0.0035309468280218  0.2160919794317877
  0.2016360210071895  0.0449867244447049  0.8922882512284502
  0.2985593350992204  0.0860643673678254  0.5549804666606377
  0.3425930471589496  0.1220342288863989  0.2177451355064335
  0.4274816043385243  0.1701814197327280  0.9054650659121535
  0.8606523131129151  0.9094693337391462  0.8859689844661744
  0.8043650100155659  0.9850888750346201  0.5570308790153433
  0.7036156952462775  0.9939890707128782  0.2141067975004631
  0.6404668565975769  0.0313335483892274  0.8843993066411713
  0.5920382548847343  0.0840741726061722  0.5601458185294774
  0.5039971123582987  0.1264058688552723  0.2145846763392356
  0.1345618552292436  0.9255146396141853  0.8708649074301391
  0.2211710101607096  0.9602209602450174  0.5518762582740067
  0.2818404586884711  0.9945058511199818  0.2244963764464742
  0.3501806880871428  0.0510334047778755  0.8898204497788598
  0.4480465134680145  0.0795169363138442  0.5604672816457992
  0.7969768392183596  0.8655926926931841  0.2411360809291878
  0.7222522936916604  0.9119619791120499  0.8958784473068846
  0.6563172343488972  0.9772806539812251  0.5590458387703876
  0.5621677056506371  0.0070630880643208  0.2361125950138430
  0.4808003663167426  0.0436245465127669  0.8978752432139103
  0.2338799646632239  0.8753668555999354  0.2205959100442314
  0.2823662554611133  0.9092884418098279  0.8788946495092631
  0.3655007870528024  0.9661896437516901  0.5582977829743783