hr9
1.0
0 -1.754555921061889 -7.436566666666667
-1.51949 0.8772779605309445 -7.436566666666667
1.51949 0.8772779605309445 -7.436566666666667
Li
3
Direct
0.0 0.0 0.0
0.222396545 0.222396545 0.222396545
0.7776034549999999 0.7776034549999999 0.7776034549999999
