Li                                      
   1.00000000000000     
    21.2169999999999987    0.0000000000000006    0.0000000000000000
     0.0000000000000006   21.2169999999999987    0.0000000000000000
    -0.0000000000000006   -0.0000000000000006   21.2169999999999987
   Li
   500
Direct
  0.0039986515529975  0.0001163449121009  0.9796307008530860
  0.0004452670028741  0.1047973874723098  0.0922825102512164
  0.9959677320073510  0.1955223952490925  0.2065253183767766
  0.0011659730404858  0.2830078630343564  0.3105221355516790
  0.9956026068718486  0.4026135801479924  0.4074910642409364
  0.0071269199227046  0.4985543403874217  0.4953142022906150
  0.0100308964509566  0.6023430107932342  0.5961980063156886
  0.0108028302776049  0.6813856996747916  0.6845966149785525
  0.9959349832681355  0.7966252184568958  0.7874500014139585
  0.9699356096526373  0.8951852966960487  0.8928581184898903
  0.0842396912852905  0.0001262459348652  0.0893665786868993
  0.1035493613611749  0.0851686798322078  0.2132232964132541
  0.1028701560069720  0.1908389107790924  0.3070418508742989
  0.1087767728708116  0.3115780949238811  0.4034919465522933
  0.1000153579676706  0.4134531361643994  0.4874213489183177
  0.0995573455248149  0.4829209751614272  0.5875668713767226
  0.1129850803600903  0.5816476499976417  0.6828628934345105
  0.0989958971579412  0.7050207625960283  0.8065078800018881
  0.1031391266437325  0.7999861408304696  0.9075150275722308
  0.0880604091059070  0.8935282070980790  0.9904017820615536
  0.1763436084272030  0.9917685045011098  0.2123879200641028
  0.2122677244662299  0.0913154489324626  0.3175717094782513
  0.1877441075552611  0.2118303959089403  0.4061237059904812
  0.2023452010180549  0.3219270339821847  0.5068609563086213
  0.2028995296224707  0.4164532228873057  0.5977106758731239
  0.2111200829523483  0.4944878479521151  0.7118070108874974
  0.2025754541169817  0.6057296285997111  0.8104428378187336
  0.1926130456709245  0.7101820087665516  0.9144924904557641
  0.2044476575387648  0.8081548814629755  0.0080791516236971
  0.1884846924635895  0.9193783258707668  0.0962900603289825
  0.2956420021680728  0.9940725847198024  0.3063893726728537
  0.2877693359098856  0.1004107296036167  0.4124410477447356
  0.2974619093180024  0.2133483027760761  0.5056207993590078
  0.2995696172880216  0.3055519691756601  0.6176330329452782
  0.3129616076730954  0.3900350247443072  0.7042832912287338
  0.3061138318329668  0.5068232026205379  0.8129548682660115
  0.2977081528962628  0.6153218150539672  0.9124831729273666
  0.2977637352123281  0.7170916519771851  0.0148694815478123
  0.3067473771032638  0.8334973271433270  0.0980261191497362
  0.3015089187915336  0.9156307748503565  0.2028569137955429
  0.3884684394589257  0.9799738601121746  0.4123407116934530
  0.3997649794975757  0.0956526983079584  0.4987082957062725
  0.3928253164914892  0.2089033609841167  0.6005696667766429
  0.4105062464061859  0.3222750478389997  0.7129082339633328
  0.3968548875901377  0.3987119522081315  0.8121351303200299
  0.4086420690955350  0.4925226045152442  0.9065307428005838
  0.4000942041758933  0.5836896776170022  0.0127072008295244
  0.4000188438516261  0.7221751760380855  0.0963793802139818
  0.4093565202432004  0.8150669821369689  0.1800133072536170
  0.4059747122590380  0.8988434524202304  0.2956714719328843
  0.5022650582080388  0.0006657581184868  0.5004706183720629
  0.4885932492812373  0.0981611391808457  0.5832612961304591
  0.4925681265023343  0.2140044558608665  0.6945328142527245
  0.5045779205354179  0.2869871664231525  0.8077542979686072
  0.5108503779987714  0.3803610977046716  0.8944256506574888
  0.4988886261017100  0.4924934896545210  0.9902088890983620
  0.4840380289390609  0.6164933953904921  0.0988953655087883
  0.5087446896356695  0.7030192331620881  0.2013259999057340
  0.4925944200405326  0.8060450695197261  0.2973971009096488
  0.5023987717396423  0.9112043050384102  0.4017063807324348
  0.6027555969269898  0.9882983758307020  0.5979082730829077
  0.5852306829429210  0.1029852420229034  0.7028890064570845
  0.6101863651788690  0.2100846580572195  0.7877213126266653
  0.6180530909176625  0.3035416109723315  0.8939740373285545
  0.5932163086204483  0.3981836272800123  0.0067088249988245
  0.5820662845831208  0.5041607871046807  0.1127947551491744
  0.6055886279869895  0.6023978008200999  0.2020516538624690
  0.5940866644671701  0.6998267417636796  0.3029112541829662
  0.5976961002969290  0.7964599929301954  0.3876934085874524
  0.6005040354432793  0.8994818508743023  0.5033908964509592
  0.7076491134467631  0.0110165829287823  0.6830174779657838
  0.7021663119196901  0.0907859329782710  0.7903810793231827
  0.7082439652165746  0.2092285869821353  0.8980232770891234
  0.7071600791817900  0.3010899957581188  0.9952833553282758
  0.6949201319696456  0.3938221944667006  0.1111369251072247
  0.7174275288683631  0.5051286557948842  0.2055864481312142
  0.7010032271291919  0.6034562223688553  0.3070041876796878
  0.7041571009096472  0.6992630800772943  0.4018840547674003
  0.7017796064476585  0.7908358368289612  0.5103994598670880
  0.7010176174765519  0.8963759560729585  0.6113820874770255
  0.8030098421077412  0.9915052981100061  0.7918389696941119
  0.8019066771928181  0.1005625220342168  0.8906592227930403
  0.7940059852948096  0.2092728147240450  0.9859504048640275
  0.7992692062968345  0.3119374921053861  0.0969775670452933
  0.8038006843568866  0.4017176415138834  0.1973271442711066
  0.7964547961540305  0.4975283098458760  0.2918781203751735
  0.8146993147004764  0.5988078451241918  0.3998414813592888
  0.8060995069991037  0.6834535627091469  0.5029873492953740
  0.7810979261912649  0.7784152863270037  0.6063989404722605
  0.7999380685299542  0.8993087137672617  0.7020186496677212
  0.8901979007399703  0.0019305368336688  0.9064333737097598
  0.9118969359475884  0.1233719324126881  0.9753364170240815
  0.8965920591978147  0.2066417712211930  0.0901329858132627
  0.8927727534524195  0.2990885360795588  0.1999921628882504
  0.9217192670971386  0.3840210425602137  0.3064980807842801
  0.9094386605080800  0.5153882853372309  0.3791544327661782
  0.9054657081585518  0.6011460936984463  0.4888850912004514
  0.9075422420700363  0.6910565136447175  0.6068910859216672
  0.9081572258094894  0.7905426832257163  0.7057247160296001
  0.8979669529151124  0.9023873318565307  0.7891453358156184
  0.1018845406984994  0.1009154206532514  0.9766766927463806
  0.1058095692133634  0.1825506428807060  0.1009149780836154
  0.0939282942923114  0.2900843290757393  0.1877158514398829
  0.0999296229438684  0.3836584861196215  0.3040913404345602
  0.1119043710232361  0.5008337243719652  0.3953793924683069
  0.1069847202714769  0.5942919710609402  0.4915171763208761
  0.0927091973417546  0.6959575741150985  0.5911296870434057
  0.0823363086204481  0.8015476259603176  0.6936846561719392
  0.1004625663383152  0.8949158010086222  0.7960116910967585
  0.0837318805674698  0.9932393486355267  0.8900583829005058
  0.1936945529528202  0.0928315916482063  0.1036861318753850
  0.2131417966724811  0.1857548121789137  0.2091039435358439
  0.1998823900645732  0.2904973865296725  0.2839845110053290
  0.2140844393646617  0.4001113173398707  0.3904846580572183
  0.2085225757647180  0.4968923429325542  0.4838070797002416
  0.1985027581656240  0.5832432026205367  0.5903786510816786
  0.2023398604892321  0.6979742121883419  0.7025450732902883
  0.1835716887401588  0.8039078946128129  0.8081191313569320
  0.1970708408351811  0.8983050784748059  0.9088121449780857
  0.1909446929349130  0.9971086788895676  0.9948662704435094
  0.2918336583871408  0.0838348098223136  0.1953808846679550
  0.3027905660555206  0.1927077390771572  0.3006617570815848
  0.2992927737191877  0.2972255125606793  0.3949715793938822
  0.2990952594617511  0.4033564405900947  0.4894480666446697
  0.2878789791205136  0.5059247853136668  0.6040578027053769
  0.2911350765895264  0.6086971800914327  0.6999145067634416
  0.2921425144930936  0.7033452349531046  0.8137500485459768
  0.3026807739077171  0.8035232615355596  0.9102181543102219
  0.3000509940142351  0.9069163293585305  0.9979077546307238
  0.2947080652307079  0.9956447560918136  0.1033838982891098
  0.3831277037281424  0.0870010435028519  0.2990647254559988
  0.4052048663807355  0.2033546787953071  0.3997857722580918
  0.3974037762171818  0.3186565603054134  0.5097162317952595
  0.3823083018334330  0.4232896719611645  0.5934198369232249
  0.3826061549700697  0.5058773563651755  0.7075385582316045
  0.3936763010793243  0.6159204765046908  0.8253127812603083
  0.4047037851722664  0.7118066781354599  0.9187182924070285
  0.4009915275486620  0.8185393929396270  0.0015227444973362
  0.4026230673516551  0.9234928095395176  0.1011245317434160
  0.4078272408917343  0.0019917283310562  0.1975557147570370
  0.4909669180374223  0.0985489527265884  0.4065284856483018
  0.4896879921760871  0.2066523928924937  0.5092195051138262
  0.4816876231323945  0.3209911132582377  0.6166535391431367
  0.5026768468680771  0.4109693514634500  0.7107941565725611
  0.4981177079700245  0.5048832073337408  0.8117146472168528
  0.5131585634161269  0.6099785690719699  0.9011502262336819
  0.5098357529339665  0.7052306155441386  0.9993732954706118
  0.5177507395013450  0.8078682014422398  0.0944519031908371
  0.5122295687420433  0.9054544002450839  0.2043807531696302
  0.5001445680350685  0.0061763416128571  0.2995100848376282
  0.6043790799830333  0.1137177315360347  0.4852315765659583
  0.5914983202149244  0.2111866960456226  0.6083250841306480
  0.6059542692180813  0.3094835787340315  0.6980734274402636
  0.6073515072818978  0.4019327878587902  0.7972466149785546
  0.5954883753593805  0.4956122020078269  0.8996228420606087
  0.5915498416364215  0.5944967672149701  0.9997205363623536
  0.6016330847904996  0.7032021600603287  0.0985173978413556
  0.6067453612669098  0.7970918070415252  0.1926075491351256
  0.6016016958099613  0.9004754423339776  0.3085171871612360
  0.6063430338879172  0.9973459584295625  0.3922341410189958
  0.6890679360889820  0.1152857562332059  0.5920807517556668
  0.7041091836734665  0.2071988532780296  0.6973959772823690
  0.7070837630202220  0.3083541674129222  0.7976972955648804
  0.7010618659565466  0.4061001748597803  0.8947084130649969
  0.6960575623320935  0.5025332968845717  0.0067799439129033
  0.7035962949521632  0.6037385167554348  0.0965216614035924
  0.6964745336286953  0.7046704387990772  0.1951372192110128
  0.7105082202950470  0.8016587420464703  0.2889812753923735
  0.7022647820144243  0.8896219781307408  0.4034169213366638
  0.6869511358816069  0.9907530513267631  0.5092597973323265
  0.7896826846396792  0.0983566861479019  0.6860834891832042
  0.7961835094499676  0.1996571343733820  0.7904773502380138
  0.8126452255267012  0.3030662016307701  0.8849133294056628
  0.7973134043455730  0.4006724395531904  0.0016627138615277
  0.8029728953197903  0.4977205523872357  0.0926285431493596
  0.8185800603289834  0.6176108545034609  0.1930879172361770
  0.8175973752179857  0.7049310581137789  0.2984906697459593
  0.8010566493849254  0.7926191290003288  0.4055342300985032
  0.7859822477258831  0.8935622062497046  0.5142476924164612
  0.7949794235754339  0.0064668676061643  0.6035453735212357
  0.8948892817080676  0.0953299382570592  0.7908682094546791
  0.9013443865768025  0.1958404501107580  0.8861003091860269
  0.9029416265259016  0.3006351421030331  0.9924605467313938
  0.9039768214167907  0.4003116816703596  0.0928144681151934
  0.9049501852288273  0.5059831107131103  0.2133739463637667
  0.9052497869632816  0.6152685398501205  0.2960219691756620
  0.9111092157232434  0.7026665169439568  0.4031438238205212
  0.8874816519771898  0.7996827011358789  0.4976254409200180
  0.8909958363576393  0.8992124937550088  0.6095744478484235
  0.9006761818353226  0.0082355347127319  0.6948692397605711
  0.9995803134279129  0.1058838030824347  0.8794097525569100
  0.9994007644813152  0.2080838577555753  0.9852361290474647
  0.9896595725126076  0.2974722354715524  0.1008866324173994
  0.9891229165291975  0.4057964589715795  0.1936163241740090
  0.0237157232407981  0.5019871951736832  0.2944936621577057
  0.0054313314794712  0.5985476825187348  0.3907248913607049
  0.0050989456567834  0.7054036239807715  0.4980625517273864
  0.9926091610501047  0.8074171928170841  0.5939816057878105
  0.9970146340198909  0.9011530046660710  0.6965504095772275
  0.9931136852523892  0.9875348795776944  0.7990037031625548
  0.1972530230475584  0.1840651336192707  0.9891963109770501
  0.1961174723099433  0.2912281651505850  0.1079900075411260
  0.1954629419804874  0.4023688674176356  0.2071082796813855
  0.2039041386623950  0.4871715185935841  0.2956095154828660
  0.1961097454871066  0.6032667719281690  0.3946567101852310
  0.1896411566196932  0.7030127364848937  0.4896751510581154
  0.1965959904793309  0.7793630334166011  0.6061153961446024
  0.2021524461516719  0.8886235777913924  0.6893510665975384
  0.1989378404109914  0.9820253556110643  0.7917319658764228
  0.1970249276523575  0.0830360569354767  0.8957547725880204
  0.2934233397747121  0.1832810991186307  0.0998100273365665
  0.2974858514398804  0.2980340194183881  0.1916196267144272
  0.3007045727482662  0.3850404486967989  0.2991319701183031
  0.2982303483056015  0.5009589084224899  0.3759222076636632
  0.2857867460055630  0.6081965692604996  0.5004933317622644
  0.2948968742046461  0.6992699519253449  0.6012047334684425
  0.3075798303247410  0.7942672691709447  0.6995770537776309
  0.3170742498939561  0.8951208083140898  0.7863986053636225
  0.3017505825517262  0.9921483989253872  0.8974487156525441
  0.2900464203233284  0.0759089027666491  0.0028437474666561
  0.3903103402931620  0.1877286317575511  0.1969800122543219
  0.4004182721402643  0.2917870533063081  0.2931604025074250
  0.4009265551208969  0.4003136843097508  0.3935726346797352
  0.3903518461610958  0.5175121006739900  0.4752097445444718
  0.4003619903850719  0.5778180246971800  0.5990981835320710
  0.4050860456237899  0.6934730386011196  0.7014520752226971
  0.4031317999717174  0.7821617344582208  0.7985255780741838
  0.4007884234340366  0.9057241499740769  0.8927431748126509
  0.4226939840693760  0.0079270556629112  0.0006860277136269
  0.4025314851298489  0.0807182297214482  0.1012485596455690
  0.5054375760003751  0.1898900527878595  0.3045008276382148
  0.5072908823113522  0.2986468577084409  0.3980883470801686
  0.4858173483527395  0.4097103907244204  0.4924771815053930
  0.4925413965216592  0.4815682240656045  0.6024712230758382
  0.5006371494556277  0.5953331531319250  0.7200451562426338
  0.5138909855304732  0.6943760272423063  0.8126341122684622
  0.5034406032898175  0.7954703049441463  0.9030232634208417
  0.5083421968232997  0.8983457284253191  0.9951712621954059
  0.5280114172597479  0.9942102422585677  0.1144623900645740
  0.4970191893293148  0.0987136093698453  0.1968672489041836
  0.5834472046000840  0.1989953782344358  0.4025998232549384
  0.5932369067257355  0.3060866753075331  0.4985269962765670
  0.5963283291700066  0.3912799033793632  0.5891462511193879
  0.5874974275345224  0.4879400386482544  0.7042261323467045
  0.5937983008907963  0.5924405358910292  0.8123847895555443
  0.6224729759155423  0.6874233072536171  0.9014042183154984
  0.6064872621011475  0.8005106259131836  0.9948515506433537
  0.6220384960173462  0.8923901805156262  0.0952729914691020
  0.6146015129377389  0.0059634764575591  0.2245629452797289
  0.6136913668284834  0.1005971800914338  0.3091327148041643
  0.6950056647970939  0.2167595197247465  0.4968904501107616
  0.7008577527454420  0.2937384809350974  0.5949668553518421
  0.7060374280058426  0.4043580572182677  0.6968803270961956
  0.7091261021822106  0.5071109860017913  0.8056596615921165
  0.7011242136022986  0.5869376820474130  0.9113168115190646
  0.6985086812461674  0.6988806966112051  0.0034777230522707
  0.7027414167884274  0.8037681170759328  0.1041282730829067
  0.7114782532874599  0.9100089927888035  0.1944669034264948
  0.7049261144365389  0.0007459933072553  0.3052313159259086
  0.6975747033039568  0.1097605915068129  0.4050915355611053
  0.7929262157703718  0.2189276075788271  0.6016941476174793
  0.8016091440825761  0.3081971112786945  0.6927682363199352
  0.8059310977046721  0.3962742861856086  0.7962221529905236
  0.7970452604043956  0.5014084554838121  0.9154441174529850
  0.8107255743036248  0.6094104963001357  0.0019398472922632
  0.8044393839845441  0.7094546109251993  0.1192613710703654
  0.8054506551350329  0.7961046731394603  0.2016479803930835
  0.7917752005467307  0.8943609633784249  0.2993258189187884
  0.7749964236225679  0.9962450487816383  0.4075193962388681
  0.7919526228967371  0.1035726318518186  0.5096132483385958
  0.8998299651223078  0.2051225474855087  0.6950097388886292
  0.8928893076306750  0.3072759362775130  0.7885895852382490
  0.9042343823349199  0.4003683583918587  0.9090713314794741
  0.8999271136352931  0.4916559504171190  0.0133711000612706
  0.9046903016449050  0.6006896474525121  0.1086596031484177
  0.9358425531413488  0.7038356275628033  0.2106427628788268
  0.8946971348446979  0.8059004138191099  0.3041262553612682
  0.8801887976622496  0.9044194565678438  0.4118765777442590
  0.8886968902295322  0.9957815845784026  0.5155741113258259
  0.8998965409812882  0.1031381736343491  0.5957077353065969
  0.9950388301833470  0.1977044798981922  0.7892278856577306
  0.0062149328368761  0.3021890908233971  0.8846224442663910
  0.9959477744261704  0.4083471489843049  0.9940284055238706
  0.0041046495734562  0.5003222467832416  0.1168012155347142
  0.0190183244568018  0.6070318122260474  0.2051552523919469
  0.0079749578168418  0.7157308271668938  0.3102836253947316
  0.9862960913418490  0.8076583847857819  0.4044904387990726
  0.9819864585002591  0.9016901720318629  0.5037357600037708
  0.9913310468020953  0.9912228241504479  0.6038331733986908
  0.0186822260451507  0.0947003143705487  0.7082297704670779
  0.1010555210444437  0.2021058778338158  0.8828322345289124
  0.1012594066079089  0.2958747230994021  0.0021204472828416
  0.0933316896827989  0.3954880647593910  0.0975936418909384
  0.0999810562284935  0.4934564500164953  0.1956061526134718
  0.1108844591601041  0.6115532700193214  0.3081779813357244
  0.0949851618984781  0.7116797813074456  0.3926359796389676
  0.0973801941839056  0.8004710755526219  0.4940888466795528
  0.0954420323325635  0.9049307814488401  0.5956701654333756
  0.0984813847386548  0.9884404995993776  0.7052313347787162
  0.1154348376302039  0.1037527030211649  0.8004573983126733
  0.2886273342131318  0.2787433034830542  0.0036711603902546
  0.3092897337041052  0.3966870221991812  0.1063814002922214
  0.3126807644813141  0.5027639694584565  0.1975024202290641
  0.2968917099495698  0.6162761969175676  0.2979990964792378
  0.2961005401329118  0.7035384729226593  0.4049393891690656
  0.2880457392656837  0.7928220233774823  0.5096737804590674
  0.3153555926851084  0.8861680261111360  0.6011097841353603
  0.3136641645849991  0.0152561695809936  0.6777457929961841
  0.3094370745157207  0.0920007376160612  0.8111920469434892
  0.2979738775510228  0.1781076570674429  0.9111317222038906
  0.3955650025922637  0.2901598670877092  0.1077772003581998
  0.4006541952208167  0.4084564519017775  0.2105638766083828
  0.3915986388273538  0.5020857402083223  0.2958071197624577
  0.3815187095253805  0.6107803765848132  0.3804359315643140
  0.4063608078427663  0.7009860932271295  0.5032386784182492
  0.4037515987180100  0.8027727426120563  0.6122161441297038
  0.4109284809350982  0.9044259301503530  0.6936193019748345
  0.3986231602017227  0.0138496842154865  0.7962145058208066
  0.4020429594193331  0.1022167436489596  0.8904037074044382
  0.4053308893811547  0.1798743007965342  0.9999934632605942
  0.4941655903285067  0.2769901767450662  0.2076860602347139
  0.4993010274779692  0.4063501008625181  0.2958557505773669
  0.4694101937125907  0.5069444219258159  0.3853362398076996
  0.4973265485224090  0.5913443828062412  0.4858327770184303
  0.5011919819013073  0.6869024683037210  0.5928982570580175
  0.5030018593580650  0.7869830744214568  0.7078606098883000
  0.5086594631663317  0.9136292444737677  0.7920298251402187
  0.5090982556440622  0.0020179770938427  0.8949958943300160
  0.5079858929160608  0.1032694730640529  0.9897872366498532
  0.4986585827402550  0.1979954861667537  0.0896369034264950
  0.5832347061318757  0.3063190738558674  0.2964706494791898
  0.5885897115520606  0.3981049761983328  0.3908630890323792
  0.5825856006975556  0.4872512871753756  0.4910409096479214
  0.5753665716171028  0.5893085780270511  0.5967907017957330
  0.5990355615779777  0.6956127459112977  0.7172132101616597
  0.6101952566338298  0.7989006626761537  0.8111199387283747
  0.6137851435169921  0.8857632535231161  0.9047891615214212
  0.6098896738464461  0.9901802215204754  0.9959172809539538
  0.5926205966913329  0.0986391601074601  0.0947423500023561
  0.6082646373191309  0.1925920667389391  0.2056038761370615
  0.6814794546825667  0.3115188249988208  0.3976401432813290
  0.6951232012065773  0.3967355752462680  0.4985008059574838
  0.6883082867511874  0.4972682198237237  0.5850228104821582
  0.6788011528491324  0.6002406367535471  0.7021599424989375
  0.6980638629400957  0.6806886675778827  0.7933463105057257
  0.7266617174906926  0.8032705801951252  0.8934461629825137
  0.7113814884290903  0.8996370759296823  0.9967128326342092
  0.6937943960032058  0.0112600763538637  0.0972846278927264
  0.7044049064429458  0.1175645416411371  0.1874703365226011
  0.6997968921148114  0.2039795121836292  0.3045090125842478
  0.7933881811754731  0.3013429179431597  0.5026250954423332
  0.7964963199321318  0.3957557793278994  0.5994800857802716
  0.7875236574445026  0.5184115025686964  0.6919310684828233
  0.7937496078616206  0.5955383697035401  0.7945901894707106
  0.8065899029080441  0.6932850200311051  0.8912152962247220
  0.8066534774001966  0.7933821261252803  0.9971582325493742
  0.7944899604091091  0.9149664938492705  0.0869451892350455
  0.8022442432954691  0.0109574822076652  0.1967772818965940
  0.7794688070886551  0.1089622901446958  0.3032704486968001
  0.8004683093745584  0.2142083188009636  0.3960766083800706
  0.9130305773672021  0.3007577268228303  0.5970297897912076
  0.8910144714144295  0.4150533327049075  0.6974299231748091
  0.9025071928170831  0.4926034863552786  0.7960877923363370
  0.9014017712211881  0.5977608238676524  0.9083448715652551
  0.9026573483527329  0.6929549936371799  0.0157600410048531
  0.9000517547249842  0.8002839539048878  0.1097754272517335
  0.8929081307442175  0.9168426426921812  0.1995865471084528
  0.8910961408304630  0.0062054814535486  0.3019361724089151
  0.8776102012537095  0.0953357774426138  0.4063050445397565
  0.9082247127303589  0.1983446227082055  0.5027191016637573
  0.0007072658717036  0.3071955196304827  0.7063479737945997
  0.9931805047839006  0.4120704821605301  0.8128307428005854
  0.9977611005325926  0.5133205778385275  0.9059937903567885
  0.0059640081067087  0.5920471513409069  0.0251068940000962
  0.0089997247490246  0.6945935815619535  0.0955998081726932
  0.9949690601875858  0.8340559871800934  0.2019041575152016
  0.9773885101569491  0.9048436880803123  0.3124129363246482
  0.9842292006409963  0.0080460380826679  0.4022028288636506
  0.9842261200923801  0.0897398157138127  0.5112474313050868
  0.9991319814299828  0.2053413215817486  0.6096661332893447
  0.1015586765329672  0.2988120450582059  0.7950464297497319
  0.0977856977895115  0.4071259433473173  0.8924720285620040
  0.0967494089645129  0.5089294857897002  0.0107865791582213
  0.1190568760899282  0.5987309039920845  0.1043031705707662
  0.0883147362963683  0.7287090743271918  0.2037557444502056
  0.0902620299759604  0.8218402422585669  0.3121713837960129
  0.0888318452184578  0.8944827228166119  0.4203099816185158
  0.0840309435829738  0.9916570834707983  0.5104801753311037
  0.1050006589055954  0.1027537352123318  0.6033930659376949
  0.1063096931705729  0.2034107767356375  0.7040085412640806
  0.1915542965546493  0.2839900994485589  0.9067721817410543
  0.2018663237026885  0.3883635928736382  0.0173605721826817
  0.1993760946410887  0.4808528458311727  0.1018279139369369
  0.2000046670123012  0.5978391572795374  0.2087901187726828
  0.1881304501107621  0.7316238525710546  0.2961950822453687
  0.1980477428477130  0.8188422741198096  0.4052328298062875
  0.2093830027807897  0.8926217731064696  0.5094214290427459
  0.2075379238346642  0.0040391059056404  0.6039177291794289
  0.1984924701890023  0.0865200758825466  0.6947273888862711
  0.2086325639817161  0.1947236192675703  0.7901688363105066
  0.4074263821463902  0.3853624296554656  0.9997128293349675
  0.4136540769194497  0.4834496545223175  0.0900118947070752
  0.4214636734693897  0.6076432695480065  0.2021267167837095
  0.4026275745864183  0.7165547301692072  0.2890368374416710
  0.3960975001178326  0.8077144817834778  0.4000673464674520
  0.3909122302870358  0.8789691285290075  0.5116002276476408
  0.3983250209737506  0.9837917627374253  0.6011943319036632
  0.3894667101852320  0.1004447358250431  0.6940375043597129
  0.3961703549040863  0.1928124711316386  0.8015652354244267
  0.3940013663571662  0.2950066903897834  0.9145582061554407
  0.4939800061271598  0.3777138483291722  0.0984937748032237
  0.4946332148748667  0.4909182391478524  0.2010236385916926
  0.4912412117641480  0.5893564556723376  0.2999976014516648
  0.4838831352217596  0.6993444285242987  0.3782499085638875
  0.4999489597963915  0.7812986355281168  0.4878491525663406
  0.5090876094641104  0.8811009963708329  0.5946041749540427
  0.5027726629589466  0.0134242244426659  0.6950223405759530
  0.5054053655087927  0.1043767017014687  0.7934749384927215
  0.5119464127822013  0.1945567224395504  0.8996582462176548
  0.5102491026064016  0.2906133317622661  0.9922546792666225
  0.6126200815383882  0.3853017311589753  0.1961699599377837
  0.5928271042088866  0.4918097765942377  0.2880232657774400
  0.6022505462600733  0.5855073733327032  0.3863046896356721
  0.6023720940755055  0.6893944568035053  0.4823842277419033
  0.5880874916340701  0.7997774199934042  0.6014591092048818
  0.5999528062402817  0.9023479667247969  0.7081514469529182
  0.6140005142103035  0.0048493467502482  0.8061685502191622
  0.6106258735919283  0.1050767214969142  0.9029681745769906
  0.6142156893057447  0.2023655771315447  0.0028051270207854
  0.5980795168968314  0.2851850063628234  0.0949448984305050
  0.6885810614130179  0.3883218772682255  0.3019774638261765
  0.6968597412452269  0.4988963538671811  0.3969549394353606
  0.6904556746948174  0.5926407036810133  0.4982796615921217
  0.6794229613046170  0.6739022109629076  0.6033653565537094
  0.6878798270254975  0.7921736070132468  0.7014478210868660
  0.7122986524956403  0.8967407380873809  0.8007717198472903
  0.7136269769524404  0.9952152943394452  0.8887504439835965
  0.7039838459725658  0.1036541198095833  0.9873742004053341
  0.7050445934863561  0.2035319583352972  0.0918035702502706
  0.6838343026818094  0.3029231733986890  0.1987367643870499
  0.8095319767167837  0.4070480906819967  0.3895574619408961
  0.8009478974407287  0.4895534995522439  0.5006336352924521
  0.8064678663335982  0.6062710274779661  0.5936354503464187
  0.7969490116416083  0.6798452090304963  0.6900611613328920
  0.8113237828156699  0.7930915501720293  0.7986972489041833
  0.8095146245934828  0.8909953725785940  0.8862701418673709
  0.8044818461610959  0.0008659367488306  0.9809834957816861
  0.8083733246924609  0.1001595640288429  0.0957495371635986
  0.7962166244049556  0.2092759438186391  0.1935373540085763
  0.7981707564688705  0.3001215270773443  0.2926218965923582
  0.9002591370127746  0.4042457878116608  0.5079050497242790
  0.9080089442428232  0.4970137912994304  0.6091254446905765
  0.9184500287505273  0.5933872540887037  0.6914484729226587
  0.9082209671489849  0.6883198538907465  0.7804082382052115
  0.8921425851911238  0.7915968284865897  0.8892079450440704
  0.8960134283829007  0.8984529674317798  0.9982864151388071
  0.8951388900410038  0.0111816222840204  0.0766650775321693
  0.8892435122778934  0.1021465320262038  0.1836497473723924
  0.9003390432200575  0.1937213149832715  0.2916703214403569
  0.9086321435641196  0.2855275354668407  0.4099253523118236
  0.0056717273884175  0.3823046561719394  0.5932498637884720
  0.0055949493330800  0.4935250657491608  0.6950328321628874
  0.0054650921430905  0.5921046924635931  0.7911929556487749
  0.9953574685393818  0.6963225861337605  0.8954245397558580
  0.9919954140547702  0.8054148131215513  0.0018447970966662
  0.9943010812084623  0.9103199410849783  0.1002302705377787
  0.9903332747325280  0.0067293788000171  0.2035453556110696
  0.9908341212235499  0.0873731295659113  0.3104140288447965
  0.0017526591883836  0.1957479681387539  0.4063983305839685
  0.0016800711693463  0.2996582391478526  0.4963866861479005
  0.1064398128858954  0.4168491827308287  0.7139153645661480
  0.1013119064900820  0.5167510826224273  0.8116699655936301
  0.0993108455483807  0.6264787693830414  0.9103826290238928
  0.1031952769005997  0.7005638370174836  0.0185455573360969
  0.0928818018570041  0.8286639784135374  0.0944899688928658
  0.0973754522317023  0.9117897921478075  0.2045112508837263
  0.0946747485506876  0.0023908384785756  0.3144361549700676
  0.1125911830136204  0.0953719357119311  0.4207124141018994
  0.1076573144176862  0.2036974148088788  0.5194157628316916
  0.0974845166611686  0.3060879568270707  0.6053385973511780
  0.2236748465852827  0.3936470391667086  0.8089092845359858
  0.2106069962765673  0.5036060197011807  0.9063298878257982
  0.2085625130791371  0.5950044619880259  0.0066395725126043
  0.1986576914738194  0.7090227562803406  0.1247287340340293
  0.1977606706886021  0.8283230206909522  0.1993228995616718
  0.1908558104350320  0.9079383489654518  0.3114651388037899
  0.1961628665692601  0.9892258613376086  0.4204608219823740