Li 
 1.0000000000000000
    21.2169999999999987    0.0000000000000006    0.0000000000000000
     0.0000000000000006   21.2169999999999987    0.0000000000000000
    -0.0000000000000006   -0.0000000000000006   21.2169999999999987
 Li 
 500
Cartesian
  0.0848393900000000  0.0024684900000000 -0.4321754200000000
  0.0094472300000000  2.2234861700000002  1.9579580200000000
 -0.0855526300000000  4.1483986599999998  4.3818476799999999
  0.0247384500000000  6.0045778299999997  6.5883481499999998
 -0.0932994900000000  8.5422523300000002  8.6457379099999994
  0.1512118600000000 10.5778274400000001 10.5090814300000002
  0.2128255300000000 12.7799116599999998 12.6495330999999993
  0.2292036500000000 14.4569603900000008 14.5250863799999994
 -0.0862474600000000 16.9019972600000017 16.7073266800000013
 -0.6378761700000000 18.9931464400000003 18.9437707000000017
  1.7873135300000000  0.0026785600000000  1.8960907000000000
  2.1970068000000000  1.8070238800000000  4.5239586799999998
  2.1825961000000000  4.0490291699999998  6.5145069500000004
  2.3079167900000002  6.6107524399999997  8.5608886300000009
  2.1220258500000000  8.7722351900000000 10.3416187599999994
  2.1123082000000002 10.2461343300000003 12.4664063100000000
  2.3972044499999998 12.3408181900000002 14.4883020100000000
  2.1003959499999998 14.9584255200000005 17.1116776900000005
  2.1883028499999999 16.9733059500000003 19.2547463400000005
  1.8683776999999999 18.9579879700000014 21.0133546100000004
  3.7414823400000001 -0.1746476400000000  4.5062344999999997
  4.5036843099999997  1.9374398799999999  6.7379189600000000
  3.9833667300000002  4.4944055100000000  8.6167266700000003
  4.2931581300000001  6.8303258800000002 10.7540689100000009
  4.3049193199999998  8.8358880299999996 12.6816274100000008
  4.4793348000000002 10.4915486700000002 15.1024093500000003
  4.2980434100000000 12.8517655299999998 17.1951656899999996
  4.0866709900000000 15.0679316799999992 19.4027871699999999
  4.3377659499999996 17.1466221200000000  0.1714153600000000
  3.9990797200000001 19.5064499399999995  2.0429862100000000
  6.2726363599999999 -0.1257619700000000  6.5006633200000001
  6.1056020000000002  2.1304144500000000  8.7507617100000008
  6.3112493299999999  4.5266109400000003 10.7277564999999999
  6.3559685699999999  6.4828961300000003 13.1043200599999992
  6.6401064300000003  8.2753731199999994 14.9427785899999996
  6.4948171700000001 10.7532678900000001 17.2484634399999983
  6.3164738800000002 13.0552829500000005 19.3601554799999995
  6.3176531699999998 15.2145335799999994  0.3154857900000000
  6.5082591000000001 17.6843127899999999  2.0798201700000001
  6.3971147300000002 19.4269381500000016  4.3040151399999997
  8.2421348800000001 -0.4248946100000000  8.7486328800000006
  8.4818135699999999  2.0294633000000002 10.5810939099999999
  8.3345747400000008  4.4323026099999998 12.7422866199999998
  8.7097110299999994  6.8377096899999996 15.1257739999999998
  8.4200701500000008  8.4594714900000003 17.2310710600000014
  8.6701587799999995 10.4498520999999993 19.2338627700000018
  8.4887987299999992 12.3841438900000007  0.2696086800000000
  8.4871998099999999 15.3223907100000005  2.0448813100000001
  8.6853172900000004 17.2932761600000013  3.8193423399999999
  8.6135654699999993 19.0707615299999986  6.2732616200000004
 10.6565577400000002  0.0141253900000000 10.6184851099999999
 10.3664829699999999  2.0826848899999999 12.3750549200000002
 10.4508179400000003  4.5405325400000001 14.7359027200000003
 10.7056297399999991  6.0890067099999996 17.1381229399999988
 10.8387124700000008  8.0701214100000005 18.9770290300000006
 10.5849199800000005 10.4492343699999992 -0.2077380000000000
 10.2698348599999996 13.0801403700000005  2.0982629699999999
 10.7940360799999997 14.9159590699999995  4.2715337399999997
 10.4513758100000000 17.1018582399999985  6.3098742899999998
 10.6593947399999998 19.3330217399999995  8.5230042800000003
 12.7886655000000005 -0.2482733600000000 12.6858198299999998
 12.4168394000000006  2.1850378799999999 14.9131960499999998
 12.9463241100000008  4.4573661900000001 16.7130830900000014
 13.1132324300000001  6.4402423600000001 18.9674471500000017
 12.5862704200000000  8.4482620199999996  0.1423411400000000
 12.3497003599999999 10.6967794200000004  2.3931663200000002
 12.8487739199999993 12.7810741399999994  4.2869299400000003
 12.6047367599999998 14.8482239800000002  6.4268680800000002
 12.6813181600000000 16.8984916699999985  8.2256910500000000
 12.7408941200000001 19.0843064300000016 10.6804446500000001
 15.0141912400000006  0.2337388400000000 14.4915818299999994
 14.8978626399999996  1.9262051400000000 16.7695153599999998
 15.0268122099999992  4.4392029300000004 19.0533598700000013
 15.0038154000000006  6.3882264400000004 -0.1000730500000000
 14.7441204399999997  8.3557255000000001  2.3579921399999999
 15.2216598800000007 10.7173146900000003  4.3619276700000000
 14.8731854699999992 12.8035306700000007  6.5137078500000003
 14.9401012099999999 14.8362647699999997  8.5267739900000006
 14.8896579100000004 16.7791639500000009 10.8291453400000002
 14.8734907900000000 19.0184086599999986 12.9716937500000000
 17.0374598199999987 -0.1802320900000000 16.8004474200000011
 17.0140539699999991  2.1336350300000002 18.8971167300000005
 16.8464249899999992  4.4401413099999996 -0.2980902600000000
 16.9580947500000008  6.6183777700000004  2.0575730399999999
 17.0542391199999983  8.5232431999999996  4.1866900200000003
 16.8983814099999989 10.5560581500000001  6.1927780800000001
 17.2854753599999995 12.7049060500000000  8.4834367099999994
 17.1030132399999992 14.5008342399999997 10.6718825899999992
 16.5725547000000013 16.5156371300000018 12.8659663200000001
 16.9722860000000004 19.0806329800000007 14.8947296900000001
 18.8873288600000002  0.0409602000000000 19.2317968899999983
 19.3477172899999985  2.6175822900000001 20.6937127600000004
 19.0229937199999988  4.3843184600000003  1.9123515600000001
 18.9419595100000002  6.3457614700000002  4.2432337200000001
 19.5561176900000007  8.1477744600000008  6.5029697799999999
 19.2955600599999997 10.9349932499999998  8.0445195999999992
 19.2112659299999997 12.7545166699999992 10.3726749799999993
 19.2553237499999987 14.6621460500000005 12.8764081699999995
 19.2683718599999985 16.7729441100000010 14.9733613000000005
 19.0521648399999997 19.1459520199999993 16.7432965899999999
  2.1616843000000001  2.1411224799999999 -0.4948506100000000
  2.2449616300000002  3.8731769900000002  2.1411130900000002
  1.9928766200000001  6.1547192099999997  3.9827672199999999
  2.1202068100000000  8.1400821000000008  6.4519059700000003
  2.3742750400000001 10.6261891300000002  8.3887645699999993
  2.2698948099999998 12.6090927500000003 10.4285199300000002
  1.9670110400000000 14.7661318500000007 12.5419985700000005
  1.7469294600000000 17.0064359799999991 14.7179073500000008
  2.1315142699999998 18.9874285500000006 16.8889800500000007
  1.7765393100000000 21.0735592599999997 18.8843687100000004
  4.1096173299999998  1.9696078800000001  2.1999086600000002
  4.5222294999999999  3.9411598500000000  4.4365583700000002
  4.2409046699999999  6.1634830500000000  6.0252993699999999
  4.5422295500000001  8.4891618199999996  8.2849129900000005
  4.4242234900000001 10.5425648400000007 10.2649348099999997
  4.2116330199999998 12.3746710300000000 12.5260638400000008
  4.2930448200000004 14.8089188600000004 14.9058988200000009
  3.8948405199999998 17.0565138000000012 17.1458636099999993
  4.1812520299999996 19.0593388499999996 19.2822672799999992
  4.0512735500000003 21.1556548400000004 21.1080776599999993
  6.1918347300000001  1.7787231600000000  4.1453962300000002
  6.4243074399999998  4.0886801000000004  6.3791405000000001
  6.3500947800000000  6.3062336999999999  8.3801120000000004
  6.3459041200000001  8.5580136000000007 10.3846196299999995
  6.1079283000000002 10.7342061700000002 12.8162944000000003
  6.1770129200000001 12.9147280700000007 14.8500860899999996
  6.1983877300000003 14.9228758500000005 17.2653347799999999
  6.4219779800000003 17.0483530399999985 19.3120985800000007
  6.3661819399999997 19.2420437600000014 -0.0443911700000000
  6.2528210199999998 21.1245947899999997  2.1934961700000000
  8.1288204900000007  1.8459011400000001  6.3452562800000001
  8.5972316499999994  4.3145762200000002  8.4822547299999993
  8.4317159200000003  6.7609362400000004 10.8146492900000002
  8.1114352400000005  8.9809369700000001 12.5905886799999998
  8.1177547899999993 10.7331998700000000 15.0118455900000001
  8.3526300800000008 13.0679847500000008 17.5106612800000008
  8.5866002100000003 15.1024022900000006 19.4924460099999983
  8.5078372400000006 17.3669502999999992  0.0323080700000000
  8.5424536199999999 19.5937469399999991  2.1455591900000002
  8.6528705699999993 21.2592585000000014  4.1915395999999996
 10.4168450999999997  2.0909131300000001  8.6253148799999995
 10.3897101299999992  4.3845438200000002 10.8041102400000000
 10.2199662999999994  6.8104684500000001 13.0835381399999999
 10.6652946600000007  8.7195367299999997 15.0809196199999995
 10.5685634099999994 10.7121070100000004 17.2221496700000003
 10.8876852399999997 12.9419152999999998 19.1197043499999992
 10.8171851700000001 14.9628779699999992 -0.0132967900000000
 10.9851174399999998 17.1405396299999992  2.0039860300000001
 10.8679747599999992 19.2110260100000012  4.3363464399999998
 10.6115673000000008 21.3480434400000014  6.3547054699999999
 12.8231109399999994  2.4127491100000000 10.2951583600000003
 12.5498198599999995  4.4807481300000003 12.9068333099999997
 12.8565317300000004  6.5663130900000004 14.8110239099999994
 12.8861769299999995  8.5278079600000005 16.9151814300000005
 12.6344768599999995 10.5154040900000005 19.0872978400000015
 12.5509129900000005 12.6134379100000000 -0.0059293800000000
 12.7648491600000007 14.9198402300000001  2.0902436299999998
 12.8733163299999998 16.9118968699999996  4.0865543700000000
 12.7641831799999999 19.1053874599999993  6.5458091600000001
 12.8647801499999996 21.1606892000000002  8.3220317700000006
 14.6199543999999992  2.4460178899999998 12.5621773099999992
 14.9390845500000005  4.3961380700000001 14.7966504499999996
 15.0021962000000002  6.5423503700000003 16.9247435199999998
 14.8744296100000000  8.6162274100000005 18.9830283999999985
 14.7682532999999996 10.6622489599999994  0.1438500700000000
 14.9282025899999997 12.8095201099999993  2.0479000900000002
 14.7771001799999997 14.9509927000000005  4.1402263799999997
 15.0748529100000006 17.0087935299999984  6.1313157199999999
 14.8999518799999997 18.8751095100000015  8.5592968200000001
 14.5750422499999992 21.0208074899999993 10.8049651200000003
 16.7546975200000006  2.0868338099999999 14.5566333900000000
 16.8926255199999993  4.2361254199999996 16.7715579400000010
 17.2418937499999991  6.4301556000000000 18.7752061099999992
 16.9165984999999992  8.5010671500000008  0.0352778000000000
 17.0366759200000004 10.5601369599999995  1.9652997999999999
 17.3678131399999991 13.1038495000000008  4.0967463400000002
 17.3469635099999984 14.9565222599999998  6.3330765400000004
 16.9960189300000017 16.8170000600000016  8.6042197599999994
 16.6761853500000008 18.9587093300000014 10.9107932900000009
 16.8670784299999994 21.3542075300000000 12.8054221899999998
 18.9868658900000007  2.0226153000000000 16.7798507999999984
 19.1238238500000008  4.1551468299999996 18.8003902600000004
 19.1577124900000015  6.3785758100000001 -0.1599645800000000
 19.1796762200000011  8.4934129499999997  1.9692445700000001
 19.2003280799999985 10.7354436599999996  4.5271550200000004
 19.2066847299999992 13.0541526099999992  6.2806981200000003
 19.3310042300000013 14.9084754900000007  8.5535025099999995
 18.8296982100000001 16.9668678700000015 10.5581189799999997
 18.9042586600000000 19.0785914800000000 12.9333410600000001
 19.1096465500000008 21.3917333399999983 14.7430406600000001
 21.2080955099999997  2.2465366499999999 18.6584367200000010
 21.2042860200000014  4.4149152100000002 20.9037549499999997
 20.9976071500000003  6.3114684199999997  2.1405116799999999
 20.9862209200000009  8.6097834700000000  4.1079575500000001
 21.7201765000000009 10.6506623200000003  6.2482720299999999
 21.3322365599999983 12.6993861799999994  8.2900100200000004
 21.3251843299999990 14.9665486899999998 10.5673931600000000
 21.0601885700000011 17.1309705799999996 12.6025077299999992
 21.1536594899999990 19.1197632999999989 14.7787100400000000
 21.0708930599999995 20.9525275399999984 16.9524615700000005
  4.1851173900000003  3.9053099400000000 -0.2292218700000000
  4.1610244099999996  6.1789879799999996  2.2912239900000002
  4.1471372400000002  8.5370602600000005  4.3942163699999996
  4.3262341099999997 10.3363181100000006  6.2719470900000003
  4.1608604700000003 12.7995111000000001  8.3734314199999993
  4.0236164199999997 14.9158212300000006 10.3894376800000003
  4.1711771300000002 16.5357454799999992 12.8599503599999991
  4.2890684500000003 18.8539264499999994 14.6259615800000002
  4.2208641599999996 -0.3813680300000000 16.7981771199999983
  4.1802778900000002  1.7617760200000001 19.0052290100000008
  6.2255630000000002  3.8886750800000001  2.1176693499999999
  6.3117573100000000  6.3233877900000000  4.0655936199999996
  6.3800489200000001  8.1694031999999996  6.3466830099999996
  6.3275532999999999 10.6288451599999991  7.9759414800000004
  6.0635373899999996 12.9041066099999995 10.6189670199999995
  6.2568269799999996 14.8364105700000000 12.7557608299999998
  6.5259212599999996 16.8519686499999999 14.8429263500000008
  6.7273643600000002 18.9917781900000016 16.6850192100000001
  6.4022421100000004 -0.1665874200000000 19.0411694000000011
  6.1539149000000002  1.6105591900000000 21.2773357899999986
  8.2812144900000000  3.9830383800000000  4.1793249200000000
  8.4956744799999999  6.1908459100000002  6.2199842600000004
  8.5064587199999995  8.4934554400000000  8.3504305900000002
  8.2820951199999993 10.9800542399999994 10.0825251500000004
  8.4944803499999999 12.2595650299999992 12.7110661599999997
  8.5947106299999998 14.7134174600000005 14.8827086800000004
  8.5532474000000001 16.5951255199999999 16.9423171900000007
  8.5035279799999994 19.2167492899999992 18.9413319400000013
  8.9682982599999992  0.1681883400000000  0.0145554500000000
  8.5405105199999998  1.7125986799999999  2.1481906899999998
 10.7238690499999993  4.0288972500000000  6.4605940600000000
 10.7631906500000003  6.3363903800000001  8.4462404600000003
 10.3075866800000000  8.6928253600000005 10.4488883599999998
 10.4502508100000000 10.2174330100000006 12.7826319399999999
 10.6220184000000000 12.6311835099999996 15.2771980799999998
 10.9032250400000006 14.7325761699999997 17.2416579600000013
 10.6814992800000006 16.8774934600000002 19.1594445799999988
 10.7854963900000005 19.0602013200000009 -0.1024513300000000
 11.2028182399999992 -0.1228412900000000  2.4285485300000000
 10.5452561399999993  2.0944066499999998  4.1769324200000000
 12.3789993400000000  4.2220849400000002  8.5419604499999995
 12.5867074500000005  6.4942409899999998 10.5772472799999999
 12.6522981600000008  8.3017857100000008 12.4999160099999997
 12.4649329200000007 10.3526237999999999 14.9415658499999999
 12.5986185499999994 12.5698108499999996 17.2363680799999983
 13.2070091299999994 14.5850603099999994 19.1250932999999996
 12.8678402399999996 16.9844339499999997 -0.1092346500000000
 13.1977907699999992 18.9338424600000010  2.0214070600000000
 13.0400003000000009  0.1265270800000000  4.7645520100000001
 13.0206897300000008  2.1343703700000001  6.5588688099999999
 14.7459351900000009  4.5989867300000000 10.5425246799999996
 14.8700989400000001  6.2322493500000000 12.6234117700000006
 14.9799961100000001  8.5792649000000001 14.7857099000000005
 15.0455285100000005 10.7593737899999997 17.0936810399999999
 14.8757524399999994 12.4530568000000006 19.3354087899999989
 14.8202586899999993 14.8281517399999991  0.0737868500000000
 14.9100646399999999 17.0535481400000002  2.2092895700000001
 15.0954341000000003 19.3076608000000007  4.1260042900000000
 14.9564173700000005  0.0158277400000000  6.4760928299999998
 14.8004424799999992  2.3287904699999999  8.5948271100000007
 16.8235155200000008  4.6449870500000001 12.7661447300000006
 17.0077412099999989  6.5390181099999998 14.6984636700000006
 17.0994400999999989  8.4077515300000005 16.8934454199999990
 16.9109092899999993 10.6383831999999998 19.4229778400000015
 17.2011645100000017 12.9298625000000005  0.0411577400000000
 17.0677904100000006 15.0524984800000006  2.5303685100000002
 17.0892465499999986 16.8909528500000015  4.2783651999999996
 16.7990944300000002 18.9756565600000009  6.3507958999999996
 16.4430991199999994 -0.0796688000000000  8.6463390300000000
 16.8028587999999992  2.1975005300000001 10.8124642899999994
 19.0916923700000005  4.3520850900000001 14.7460216299999995
 18.9444324399999999  6.5194735399999999 16.7315052299999998
 19.1851408899999996  8.4946154600000003 19.2877664399999986
 19.0937535700000005 10.4314643000000000  0.2836946300000000
 19.1948141300000010 12.7448322500000000  2.3054307999999999
 19.8557714499999989 14.9332805099999995  4.4692075000000004
 18.9827891099999988 17.0987890799999995  6.4526467600000004
 18.6749657199999994 19.1890676099999986  8.7387853500000006
 18.8554819199999990 -0.0895021200000000 10.9389359200000005
 19.0931049100000010  2.1882826299999998 12.6391310200000007
 -0.1052611400000000  4.1946959499999998 16.7450480500000012
  0.1318622300000000  6.4115459399999999 18.7690343999999989
 -0.0859760700000000  8.6639014599999999 -0.1266993200000000
  0.0870883500000000 10.6153371100000005  2.4781713900000000
  0.4035117900000000 12.8793939599999998  4.3527789900000000
  0.1692046800000000 15.1856609599999999  6.5832876799999998
 -0.2907558300000000 17.1360879500000003  8.5820736400000008
 -0.3821933100000000 19.1311603800000007 10.6877616199999999
 -0.1839291800000000 -0.1862253400000000 12.8115284400000000
  0.3963807900000000  2.0092565699999998 15.0265110400000008
  2.1440949900000001  4.2880804100000001 18.7310515200000012
  2.1484208300000001  6.2775740000000004 21.2619895300000010
  1.9802184599999999  8.3910702700000002  2.0706443000000001
  2.1212980699999999 10.4696654999999996  4.1501757399999999
  2.3526355699999999 12.9753257299999998  6.5386122300000000
  2.0153001800000001 15.0997099200000005  8.3305575800000007
  2.0661155800000000 16.9835948099999996 10.4830830600000002
  2.0249936000000002 19.1999163899999985 12.6383338999999992
  2.0894795400000001 -0.2452579200000000 14.9628932300000006
  2.4491809500000001  2.2013210999999999 16.9833046199999984
  6.1238061500000001  5.9140966700000002  0.0778910100000000
  6.5622002799999999  8.4165085499999996  2.2570941699999998
  6.6341477800000002 10.6671431400000003  4.1904088499999999
  6.2991514100000003 13.0755320699999995  6.3226468300000001
  6.2823651600000003 14.9269757799999994  8.5915990200000003
  6.1114664500000000 16.8213048699999987 10.8137486000000003
  6.6908996099999998 18.8018270100000002 12.7537462900000005
  6.6550125800000002  0.3236901500000000 14.3797324900000003
  6.5653264099999999  1.9519796500000000 17.2110616599999986
  6.3221117600000003  3.7789101600000001 19.3314817499999982
  8.3927026599999994  6.1563219000000000  2.2867088600000001
  8.5006800600000005  8.6662205399999994  4.4675337700000002
  8.3085483199999999 10.6527531500000006  6.2761396600000001
  8.0946824599999996 12.9589272500000003  8.0717091599999993
  8.6217572600000008 14.8728219399999997 10.6772150400000001
  8.5663976700000006 17.0324292799999988 12.9893899299999998
  8.7186695800000003 19.1892049600000014 14.7165207299999992
  8.4575875899999993  0.2938487500000000 16.8932831700000001
  8.5301454700000008  2.1687326499999999 18.8916954600000011
  8.5999054800000003  3.8163930399999999 21.2168613099999988
 10.4847113299999997  5.8769005800000000  4.4064751400000004
 10.5936699000000001  8.6215300900000003  6.2771714599999999
  9.9594760800000000 10.7558398000000004  8.1756790000000006
 10.5517773800000008 12.5465537699999992 10.3079140299999992
 10.6337902799999995 14.5740096700000006 12.5795223200000006
 10.6721904500000004 16.6974198899999990 15.0186785599999997
 10.7922278299999999 19.3844716800000008 16.8044967999999990
 10.8015376900000000  0.0428154200000000 18.9891278899999989
 10.7779366900000007  2.1910684100000002 -0.2166842000000000
 10.5800391499999993  4.2008702299999996  1.9018261800000000
 12.3744907600000005  6.4991717900000001  6.2902177699999999
 12.4881079100000001  8.4465932800000001  8.2929421600000008
 12.3607186900000006 10.3380105600000007 10.4184149799999997
 12.2075525500000008 12.5033601000000001 12.6621083199999998
 12.7097375100000001 14.7588156300000009 15.2171126799999996
 12.9465127599999992 16.9502753599999991 17.2095317399999992
 13.0226793900000004 18.7932389499999992 19.1969116399999997
 12.9400292100000005 -0.2083462400000000 -0.0866230500000000
 12.5736311999999995  2.0928270599999999  2.0101484400000000
 12.9055508099999994  4.0862258799999998  4.3622974399999999
 14.4589495899999996  6.6094949099999996  8.4367309200000005
 14.7484289600000000  8.4175386999999997 10.5766916000000002
 14.6038369200000009 10.5505398199999991 12.4124289700000006
 14.4021240600000002 12.7353055899999994 14.8977275000000002
 14.8108209800000008 14.4421714600000008 16.8324286699999988
 15.4175816599999997 17.0429919000000005 18.9562472399999997
 15.0933810400000006 19.0875998399999993 -0.0697438300000000
 14.7202356999999999  0.2389050400000000  2.0640879499999998
 14.9453589000000004  2.4943668799999998  3.9775581299999998
 14.8475906599999998  4.3278333099999999  6.4607677199999998
 16.8333170400000007  6.3935926900000002 10.6641966499999992
 16.8992624199999995  8.3967503699999995 12.7191689799999992
 16.7088894400000001 10.9991368499999993 14.6807014799999997
 16.8409854299999999 12.6355375900000002 16.8588200499999985
 17.1134179700000004 14.7094282700000001 18.9089149399999989
 17.1147668300000007 16.8331885700000008 -0.0602937800000000
 16.8566934900000014 19.4128441000000009  1.8447160800000000
 17.0212161100000010  0.2324849000000000  4.1750235900000003
 16.5379896799999990  2.3118529099999998  6.4344891100000003
 16.9835361200000001  4.5448579000000002  8.4035574000000004
 19.3717697599999994  6.3811766900000002 12.6671810499999999
 18.9046540400000005  8.8061865600000004 14.7973706800000002
 19.1484951099999989 10.4515681699999998 16.8905946900000004
 19.1250413799999990 12.6826913999999995 19.2723531399999999
 19.1516809600000002 14.7024261000000003  0.3343807900000000
 19.0963980800000002 16.9796246500000017  2.3291052400000001
 18.9448318100000002 19.4526503499999990  4.2346277700000003
 18.9063868200000016  0.1316617000000000  6.4061797699999996
 18.6202556399999999  2.0227391899999998  8.6205741299999996
 19.2698037299999996  4.2082778599999999 10.6661911800000002
  0.0150060600000000  6.5177673399999998 14.9865849600000001
 -0.1446892300000000  8.7428994200000005 17.2458298700000014
 -0.0475027300000000 10.8911227000000004 19.2224702500000006
  0.1265383600000000 12.5614644099999992  0.5326929700000000
  0.1909471600000000 14.7371920200000002  2.0283411299999998
 -0.1067414500000000 17.6961658799999988  4.2838005099999998
 -0.4797479800000000 19.1980685300000005  6.6284652700000004
 -0.3346090500000000  0.1707127900000000  8.5335374200000000
 -0.3346744100000000  1.9040096700000000 10.8471367500000007
 -0.0184167500000000  4.3567268199999996 12.9352863500000002
  2.1547704400000001  6.3398951600000002 16.8685000999999986
  2.0747191500000000  8.6379911400000005 18.9355790299999995
  2.0527322099999998 10.7979569000000009  0.2288588500000000
  2.5260297399999998 12.7032735900000002  2.2130003700000000
  1.8737737600000000 15.4610204299999996  4.3230856299999996
  1.9150894899999999 17.4369844200000017  6.6233402500000000
  1.8847452600000001 18.9782399300000009  8.9177168800000004
  1.7828845300000000 -0.1770116600000000 10.8308578799999999
  2.2277989800000002  2.1801260000000000 12.8021906800000007
  2.2555727600000002  4.3157664499999999 14.9369492200000007
  4.0642075100000001  6.0254179399999996 19.2389853799999990
  4.2829977899999996  8.2399103500000006 21.5853392600000014
  4.2301625999999999 10.2022548299999993  2.1604828500000002
  4.2434990199999998 12.6843533999999991  4.4298999500000003
  3.9915637600000000 15.5228632799999993  6.2843710599999998
  4.2019789599999999 17.3733765300000016  8.5978249499999997
  4.4424791700000004 18.9387561600000005 10.8083944600000006
  4.4033321299999999  0.0856977100000000 12.8133224600000002
  4.2114147400000004  1.8356964499999999 14.7400310099999992
  4.4265571100000001  4.1314510300000000 16.7650122000000010
  8.6443655499999998  8.1762346699999995 -0.0060929000000000
  8.7764985499999995 10.2573513199999997  1.9097823700000001
  8.9421947599999996 12.8923672499999995  4.2885225499999997
  8.5425492500000004 15.2031417100000006  6.1324945800000004
  8.4040006599999995 17.1372781600000010  8.4882288900000002
  8.2939847899999997 18.6490879999999990 10.8546220299999998
  8.4512619699999991 -0.3438901700000000 12.7555401400000008
  8.2633151900000001  2.1311359599999999 14.7253937300000004
  8.4055464200000003  4.0909022000000004 17.0068096000000004
  8.3595269900000009  6.2591569500000004 19.4041814600000002
 10.4807737900000006  8.0139547199999992  2.0897424199999999
 10.4946329200000008 10.4158122800000008  4.2651185399999996
 10.4226647900000007 12.5043759199999993  6.3650491100000002
 10.2665484800000009 14.8379907400000004  8.0253283100000008
 10.6074170799999994 16.5768131499999996 10.3506954699999998
 10.8013118099999996 18.6943198399999986 12.6157167799999996
 10.6673275899999993  0.2848217700000000 14.7462890000000009
 10.7231856400000005  2.2145604799999998 16.8351577699999986
 10.8619670399999997  4.1279099800000001 19.0880490099999989
 10.8259552100000001  6.1659430600000000 21.0526675300000008
 12.9979602700000001  8.1749468299999997  4.1621380400000003
 12.5780126699999997 10.4347280300000005  6.1109896299999997
 12.7779498399999998 12.4227099400000007  8.1962265999999993
 12.7805287199999995 14.6268821899999999 10.2347461600000003
 12.4774523100000003 16.9688775199999995 12.7611579200000005
 12.7291986900000005 19.1451168100000011 15.0248492500000008
 13.0272489100000008  0.1028885900000000 17.1044781300000004
 12.9556491600000001  2.2294128000000000 19.1582757599999987
 13.0318142800000007  4.2935904499999999  0.0595163800000000
 12.6894531100000005  6.0507702800000001  2.0144459100000001
 14.6096243799999996  8.2390252700000008  6.4070558499999999
 14.7852731300000002 10.5850839400000005  8.4221929499999995
 14.6493980500000003 12.5740578099999993 10.5719995800000000
 14.4153169699999992 14.2981832099999995 12.8016027700000006
 14.5947462899999998 16.8075474199999988 14.8826184200000000
 15.1128405099999998 19.0261482400000013 16.9899735800000009
 15.1410235699999998 -0.1015171000000000 18.8566181700000008
 14.9364252600000000  2.1992294600000002 -0.2678815900000000
 14.9589311400000007  4.3183375599999998  1.9477963500000000
 14.5089123999999998  6.4271209699999998  4.2165979299999998
 17.1758399500000003  8.6363393399999993  8.2652406700000007
 16.9937115399999996 10.3868565999999998 10.6219438400000001
 17.1108287200000007 12.8632523899999995 12.5951633500000000
 16.9088671800000014 14.4242758000000002 14.6410276600000007
 17.2138567000000009 16.8270234199999997 16.9459595299999997
 17.1754717899999996 18.9042488199999994 18.8039935999999983
 17.0686913300000001  0.0183725800000000 -0.4034731700000000
 17.1512568300000012  2.1250854700000001  2.0315179300000001
 16.8933281199999996  4.4402077000000002  4.1062820400000000
 16.9347889400000007  6.3676784399999997  6.2085587799999997
 19.1007981099999995  8.5768828799999994 10.7762214400000005
 19.2652257700000007 10.5451416099999999 12.9238145600000003
 19.4867542600000014 12.5898973699999992 14.6704622499999999
 19.2697242600000003 14.6040823399999997 16.5579215899999994
 18.9285892300000000 16.7953099100000003 18.8663249700000009
 19.0107169099999993 19.0624766100000009 -0.0363571300000000
 18.9921618300000006  0.2372404800000000  1.6266029500000001
 18.8670796000000003  2.1672429700000002  3.8964966900000002
 19.1024934799999997  4.1101851399999996  6.1883692100000003
 19.2784481899999989  6.0580377199999997  8.6973862000000004
  0.1203370400000000  8.1113578900000007 12.5869823600000004
  0.1187080400000000 10.4711213200000000 14.7465115999999998
  0.1159528600000000 12.5626852600000003 16.7867409400000014
 -0.0985005900000000 14.7738763100000003 18.9982224600000009
 -0.1698333000000000 17.0884860900000000  0.0391410600000000
 -0.1209139600000000 19.3142581900000003  2.1265856500000000
 -0.2050989100000000  0.1427772300000000  4.3186218099999998
 -0.1944724500000000  1.8537956900000001  6.5860544499999998
  0.0371861700000000  4.1531846400000001  8.6225533799999994
  0.0356460700000000  6.3578488599999998 10.5318363200000000
  2.2583335099999999  8.8442891100000001 15.1471422899999997
  2.1495347200000001 10.9639077199999999 17.2212016599999984
  2.1070782100000001 13.2920000500000004 19.3155882400000003
  2.1894941900000000 14.8638629299999998  0.3934810900000000
  1.9706731900000001 17.5817636300000011  2.0047936700000002
  2.0660149699999999 19.3454440199999986  4.3391152100000001
  2.0087141399999999  0.0507264200000000  6.6713918999999997
  2.3888471299999998  2.0235063599999998  8.9262552900000003
  2.2841652400000001  4.3218480499999998 11.0204442399999998
  2.0683289899999999  6.4942681799999997 12.8434690200000006
  4.7457092200000002  8.3520092300000002 17.1626282900000007
  4.4684486400000001 10.6850089199999996 19.2296012300000001
  4.4250708400000001 12.6242096700000008  0.1408718100000000
  4.2149202399999997 15.0433358199999994  2.6463695500000002
  4.1958881500000000 17.5745295299999995  4.2290339599999998
  4.0493877300000003 19.2637279499999998  6.6083558499999997
  4.1619875400000002 -0.2285949000000000  8.9209172599999995