Li                                      
   1.00000000000000     
    21.0004999999999988    0.0000000000000000    0.0000000000000000
     0.0000000000000000   21.0004999999999988    0.0000000000000000
     0.0000000000000000    0.0000000000000000   21.0004999999999988
   Li
   500
Direct
  0.9983454141568089  0.9848184081331368  0.9987281959953336
  0.0088165829385005  0.1023570453084446  0.0746305535582508
  0.0022487993143017  0.1979563738958561  0.1744126916025834
  0.0001384962262776  0.2948903830861198  0.2908032837313428
  0.9936740277612444  0.3941152186852719  0.4041931520678048
  0.9870533873002998  0.4836885159877156  0.5174391909716434
  0.9997941115687752  0.6223222656603440  0.5731422894692955
  0.9987862193757309  0.6953175929144564  0.7071719211447345
  0.0038180514749655  0.8054498978595745  0.7951023032784903
  0.9986011185447978  0.9219589562153274  0.9036584700364259
  0.1181621032832538  0.9962831504011831  0.0804638875264843
  0.1115867060308062  0.1044413599676233  0.1711861465203199
  0.0893275002976139  0.1994855974857757  0.2937740234756347
  0.0881631756386767  0.2838287297921482  0.4173577748148887
  0.0932359662865139  0.3911763538963342  0.5042637661008058
  0.0831084569415026  0.5019693393014464  0.5941738944310870
  0.0933944725125571  0.5762618770981618  0.6910649508345017
  0.0971436665793703  0.6867766124616068  0.7969576162472336
  0.0848623870860195  0.7825937358634292  0.9095351305921255
  0.1080406947453625  0.8859635094402520  0.0026225804147515
  0.2183929554058253  0.0202075483917028  0.1967569691197824
  0.2018320525701753  0.1120540663317513  0.3059657012928270
  0.1932172010190243  0.1827377338634761  0.4168451784481348
  0.1843142472798291  0.3045926201757112  0.4903707283159946
  0.1783555115354432  0.4058161672341143  0.5837697792909680
  0.2146706754601055  0.4958587343158527  0.6927878388609798
  0.2117746582224243  0.6008362900883313  0.7931638884788441
  0.1896434489654979  0.7029968634080106  0.9052431465917508
  0.2166339934763428  0.8025751682102822  0.9975886802695157
  0.2078960734268236  0.8962854322516165  0.1031968186471772
  0.2955640503797525  0.0001001728530241  0.2972889807385570
  0.2914465931763530  0.0934241651389272  0.4126828870741193
  0.2980354186805059  0.1843007699816681  0.4955972929215946
  0.2897064041332342  0.3020919120973318  0.5912572919692423
  0.3017612933025404  0.3864700716649594  0.6983135596771533
  0.3032193085878916  0.5178862141377607  0.7972351048784532
  0.2908716525797033  0.6153152986833632  0.9064562815171087
  0.3141356358181966  0.6980934458703345  0.0116303464203256
  0.3002289945477514  0.8002093735863411  0.1029046922692345
  0.3172062665174664  0.9040931868288880  0.2077032470655453
  0.3833997052451110  0.0065113521106639  0.4069430708792652
  0.3842330596890520  0.0952533420632875  0.5066243094212055
  0.3946182852789235  0.2021594652508298  0.6018451741625199
  0.3950866831742132  0.2995700992833505  0.7108543382300425
  0.4009548739315747  0.3937136591985890  0.8094362572319724
  0.3933291964477021  0.5112060041427569  0.8983739382395655
  0.3939151091640696  0.5759201880907625  0.0309005071307809
  0.4015593176352965  0.7052569557867656  0.1204087483631326
  0.4112525968429352  0.8061066665079437  0.2040950801171419
  0.3937968567415027  0.9041513449679783  0.3102814609175937
  0.4970985847956015  0.0030191281159944  0.4942732039713320
  0.4915428304087968  0.1054728096950086  0.6034645298921433
  0.5011022051855889  0.2034567219828105  0.6872118611461602
  0.4906370491178791  0.2915943853717735  0.7898282045665610
  0.5067839703816546  0.4145467741244246  0.9104475412490203
  0.5094066579367151  0.4861285878907680  0.0144747553629685
  0.5130678326706501  0.5940619999523804  0.0868748029808799
  0.5066533168257905  0.7077563705626062  0.2140181819480489
  0.5164095064403256  0.8042670622128014  0.3141521963762770
  0.4989923939906191  0.9245381238541910  0.4021681840908542
  0.6006015985333661  0.9915599490488347  0.5949311664007979
  0.5916188347896494  0.0812665603199889  0.6759934558700991
  0.5794348205995092  0.1775723820861401  0.7972906140330025
  0.5855197481012340  0.2928536068188876  0.8849316321039993
  0.5990341977571987  0.3787366043665656  0.0086390500226159
  0.6168598738125297  0.4794434770600731  0.0894534663460362
  0.6066834027761274  0.6068695221542342  0.1895010366419854
  0.6112717378157697  0.6999978729077867  0.3134668007904580
  0.5971257074831584  0.7985421842337104  0.4214188305040381
  0.6018283026594631  0.9108939668103133  0.4817709845003719
  0.7039513944906091  0.0045439403823693  0.7043312511606885
  0.6979835865812731  0.0976203080879046  0.7940900554748680
  0.6854998671460208  0.1813157220066159  0.8683203833242032
  0.6961209771195911  0.2932097450060738  0.9811857936715782
  0.7128964157996265  0.3821656017713835  0.0828321473298246
  0.6888212594938210  0.4813535644389404  0.1874461593771599
  0.7119241903764220  0.5971996081045674  0.2928818466226986
  0.7044407333158702  0.6942492426370777  0.4074285312254489
  0.7071318820980466  0.7962457022451872  0.5108291659722397
  0.7210132387324109  0.8959719516201972  0.5850945291778800
  0.7917785367015071  0.9947505987952638  0.7937059298588096
  0.7878370657841458  0.0882504330849301  0.8800013333015855
  0.7850851032118271  0.1906778848122670  0.9758961367586494
  0.8099436837218192  0.2917843656103400  0.0880822132806358
  0.8213798595271555  0.4221047565534164  0.1714634813456826
  0.8163538496702429  0.4948519644770357  0.2830122116140075
  0.7859522049474990  0.5743591633532503  0.3826965253208243
  0.8089969657865268  0.6861584095616777  0.4907448598842876
  0.8124083102783288  0.8006950996404854  0.6113806295088224
  0.8091662769934018  0.9223345191781149  0.7015174581557559
  0.8791960567605557  0.9928274326801727  0.9048580190947817
  0.8878800804742752  0.0792706149853544  0.9866287836003877
  0.9065022599461940  0.2136902730887371  0.0736621585200368
  0.9145141363300837  0.2934646184614635  0.1876538601461846
  0.9065070584033705  0.4000716544844138  0.3086724454179688
  0.8935425547010780  0.5107137282445677  0.4019018651936861
  0.8715881879002865  0.5865097040546630  0.4905667650770198
  0.9001123973238734  0.7047410085474155  0.5947904721316135
  0.9138032427799345  0.7971576510083125  0.6972795847717919
  0.8981308883121812  0.8961028875502990  0.7921952129711229
  0.1084661941382379  0.1083279669531692  0.9955717287683612
  0.0935299145258455  0.2277967400776149  0.0963847036975309
  0.0923642037094368  0.2959494254898658  0.2091608918835277
  0.0922811856860548  0.3938914749648816  0.3085822042332325
  0.1023280493321579  0.4986363362777055  0.4013428880264769
  0.1016675369634044  0.5935378995738176  0.4919203509440280
  0.0882379286207495  0.7175101607104608  0.5770733558724785
  0.1032071874479144  0.7918594028713599  0.7125585457489123
  0.1096487321730422  0.8996935844384666  0.8019509692626343
  0.1176790828789791  0.0040579248113133  0.9026463150877362
  0.2091537682436098  0.1114236332468295  0.0859407756958177
  0.1941446032237337  0.2009676512464011  0.2006391766862663
  0.1780096450084514  0.3026062793743023  0.3234647117925746
  0.1898799147639352  0.3953775229161209  0.4088384786076489
  0.1951292883502802  0.4988226194614427  0.4804926358896182
  0.1804711540201396  0.5942567553153495  0.5947624099426179
  0.2018251389252654  0.6966789424061304  0.6756344415609163
  0.1973413442537080  0.7924028875502955  0.8032195485821774
  0.1880199990476399  0.8771478621937590  0.9027815818670959
  0.1853365938906251  0.9950581690912088  0.0012030099283322
  0.2867155582009957  0.1062474783933709  0.2107468403133268
  0.2989706506987915  0.2155669193590626  0.3383494612033076
  0.2987240203804689  0.2959827575533893  0.4069944691793026
  0.2952250984500395  0.4013792176376754  0.4990462488988356
  0.2834338430037349  0.5117332830170724  0.5867830999261940
  0.2976195071545931  0.5931927501726122  0.6850275917240083
  0.3220760134282514  0.6980110278326705  0.8001438903835592
  0.3206952582081399  0.8001407314111546  0.9092642051379727
  0.3041019494773920  0.9180940106187947  0.0121542410894975
  0.3075560319992405  0.0199044613223478  0.0926081102830878
  0.3974944144187020  0.1040070079283808  0.3265703726101776
  0.4107369272160213  0.1955060646175113  0.4209946982214703
  0.3970845437013395  0.2984303497535805  0.4971772433989656
  0.3918818428132695  0.3981419266207951  0.5926751224970843
  0.3911123158972387  0.4962905445108419  0.6817381324254157
  0.4086572138758626  0.6013885088450266  0.7980562838979992
  0.4184860117616225  0.6875507326016077  0.9252362910406902
  0.4046036261041408  0.8121805666531756  0.0182503583247993
  0.3949693959667613  0.9056310183090872  0.1154786595557269
  0.4064461750910695  0.0220524377990969  0.2307258731934922
  0.4911493988238362  0.0858702749934537  0.4019692302564195
  0.5067362262803243  0.2046574729173116  0.4968349410728337
  0.5073956243898934  0.2907097102449967  0.5844533982524212
  0.5014831337349079  0.3728275183924197  0.6838723368491202
  0.4977429161210480  0.4926226637461042  0.7846428189805010
  0.5215568176948153  0.5942505426061260  0.9290501197590544
  0.4939797685769420  0.7119770524511324  0.9982941110925907
  0.5075750224994664  0.8083361939001463  0.1038482245660788
  0.5123712635413469  0.9164195828670714  0.2178945720339982
  0.4828558129568350  0.0073610828313591  0.3010825075593431
  0.6156153620151912  0.1144501497583406  0.4913697783386084
  0.5916336077712430  0.2051505878431499  0.5902692559700924
  0.5888878417180550  0.3151022347086965  0.6947809433108745
  0.5995969157877212  0.4054769000738077  0.7874803909430739
  0.6044070403085655  0.5046207276017256  0.9120489683578938
  0.5908328263612788  0.5869364034189672  0.0121552986833677
  0.5844190462131849  0.7039449146448860  0.0963792109711648
  0.6111185833670660  0.8160540296659633  0.2002428775505365
  0.6115507930763542  0.9185329649294047  0.3196875488678828
  0.6006868993595376  0.0306853770148336  0.3949118130520688
  0.7072526396990568  0.1048507954572528  0.6106501402347533
  0.6881465527011272  0.2031316192471593  0.7059620604271331
  0.6848388957405760  0.2885715002023730  0.8080761134258694
  0.7019665169876887  0.3993850927358906  0.8927372695888209
  0.7081801114259179  0.5053734244422756  0.9909442522797107
  0.6890951624961303  0.6052860422370898  0.0909073883955145
  0.6967928163615156  0.7053882955167765  0.2032377971953068
  0.6854198314325828  0.8109315949620282  0.3107605414156822
  0.7097665865098435  0.9167850879740982  0.4146095931049274
  0.7153402566605536  0.0148125163686572  0.4985133206352259
  0.8174855917716215  0.1056211361634212  0.7092464027047001
  0.8101084974167279  0.1927301064260405  0.7986629961191412
  0.7910076217232955  0.2846936239613314  0.8784413037784802
  0.8104875588676492  0.4003928025523180  0.0001519230494509
  0.8055336949120289  0.5119145544153696  0.0849292583509893
  0.7916427818385259  0.5874027970762583  0.1983146710792596
  0.8017138172900644  0.6806579362396121  0.3080790033570651
  0.8038998642889439  0.7944070312611586  0.4041815318682893
  0.8094696845313223  0.8959566843646556  0.5122476136282472
  0.8172272593509646  0.0185955943906109  0.6108648760743804
  0.9077848441703793  0.1001231175448183  0.7961425775576743
  0.8889211690197882  0.1901956310564046  0.8860570162615176
  0.8890154234423022  0.2967078040999027  0.9789483340872849
  0.9142823766100818  0.4027869165019879  0.0821838622889928
  0.9126745187019338  0.5100510049760700  0.1930728168376916
  0.9081259370015005  0.5942716621032815  0.2959842218042397
  0.8995732777790977  0.6857565672245869  0.4011267003166594
  0.8856969048355978  0.8057073317301970  0.5053721982809947
  0.8989391000214297  0.9023172514940114  0.6141584828932665
  0.9039500069045943  0.0145953624913702  0.7203860198566687
  0.9974274964881786  0.0871984724173203  0.8966102659460518
  0.9815246884597997  0.1913479469536412  0.9687781629008825
  0.0070384805123709  0.3020023294683440  0.0776139449060764
  0.0007618642413263  0.3987866388895469  0.1928943220399546
  0.0075734615842507  0.4993513087783654  0.3038607137925311
  0.9977347086974149  0.5884027570772119  0.4235565643675159
  0.9853091088307409  0.7024977805290362  0.4897725106545110
  0.0130491345444170  0.8050064846075102  0.5828713954429645
  0.9975850860693782  0.9000319344777523  0.7130100973786355
  0.0058636856265295  0.9922107497440535  0.8153269474536344
  0.2103805342729927  0.1903056636746712  0.0035719044784628
  0.2057048841694211  0.2995457741482355  0.1179417332920636
  0.2026535115830583  0.4092124439894320  0.2094132782552762
  0.1995092397800065  0.4818845713197319  0.3127424299421477
  0.1891575852955896  0.6026025851765411  0.3815258417656722
  0.1858548991690654  0.7007638918121017  0.4869819190019271
  0.1930435527725507  0.8115269369776925  0.5900420304278455
  0.2148609271207818  0.8751011780671902  0.7004105964143719
  0.2215043913240180  0.0025184014666308  0.8059836299135767
  0.2004408071236412  0.1237301483297983  0.8957591266874587
  0.3101330954024917  0.1945218175757688  0.1062405276064879
  0.2959810794981053  0.2942485359872364  0.2286513930620728
  0.3038334882502767  0.3902376500559512  0.3126263769910267
  0.3080069522154218  0.4909201428537386  0.4098559543820386
  0.2840549944048973  0.6105033932525430  0.4761985247970273
  0.2870172033999197  0.7109100764267495  0.5845617290064524
  0.2926385233684883  0.7963834032523067  0.7057711364015162
  0.2955141949001217  0.9027197557200992  0.7963497045308472
  0.2781840818075736  0.0090809504535585  0.9146264622270905
  0.3052451617818619  0.0782097773862560  0.9907365591295445
  0.3919331301635651  0.1845924744648926  0.2196030475464852
  0.4053285902716581  0.3005630618318591  0.3123820642365658
  0.4086083145639421  0.3887567815052009  0.4132894873931576
  0.3858888455036791  0.4822456627223133  0.4999454851074958
  0.3899572900645225  0.5982110992595437  0.5908395795338208
  0.3933509678341025  0.6958576557700979  0.6747866384133729
  0.3956375967238870  0.8107902402323788  0.7831590519273348
  0.3728022804218938  0.9120955834384930  0.8925077269588826
  0.4159660017618663  0.9853824966072224  0.9900560872360202
  0.3976897954810568  0.0816916254374931  0.1083796385800326
  0.5094789933572983  0.2040638175281515  0.3176694854884374
  0.5154013504440371  0.3049090712125917  0.4052028285040805
  0.5119094231089747  0.4044855498678572  0.4962796866741286
  0.5099434456322456  0.4987249555962947  0.5942790890693104
  0.4996764062760377  0.5865598323849426  0.6641489621675660
  0.5109056346277470  0.7070925044641783  0.7965556101045195
  0.4829487212209216  0.8072683669436458  0.8831718987643171
  0.4910889031213514  0.8999962186614638  0.9925718340039538
  0.4993756134377776  0.9899794833456355  0.1156229732625391
  0.5125703540391910  0.0990638022904236  0.2084033946810777
  0.6129314397276246  0.1865048303611800  0.3958768486464592
  0.6267030504035631  0.3090448055998678  0.4828480779029078
  0.5920069050736885  0.3963785295588167  0.6019965343682259
  0.6142415547248845  0.4907862236613383  0.7059221470917336
  0.5742030575462493  0.5853318906692664  0.7996262831837342
  0.5965713659198570  0.6978905640341893  0.9028257855765318
  0.5837786690793081  0.8127548358372394  0.0045376862455626
  0.5920981357586754  0.9038724097045332  0.0890169510249734
  0.6021385119401899  0.9951334625366073  0.1972611466393630
  0.6116461546153644  0.1070583214685357  0.2990582533749162
  0.7182568200757089  0.2012032461131881  0.5232282626604103
  0.7036363605628466  0.3139379948096490  0.6099198557177203
  0.6890904030856433  0.4163391485917032  0.7008687369348365
  0.6654866750791655  0.5112004199899971  0.7955165786528866
  0.6927724368467452  0.5985413090164542  0.8780101545201333
  0.6888090754981988  0.7056402242803728  0.0065799447632173
  0.6997123511344938  0.8017644551320231  0.0948118682888506
  0.7013026613652045  0.8991940734744404  0.2127175743434648
  0.7098419790005011  0.0065311906859336  0.2982721420918537
  0.7126655022499477  0.1221201376157737  0.3999932815885359
  0.8123946510797353  0.2072746867931698  0.6449354077283900
  0.7973953105878451  0.3095825223208948  0.7270144387038400
  0.7880809966429396  0.4201632113521114  0.7867597176257703
  0.7940331882574228  0.4874433532534965  0.8851727335063444
  0.7772366634127792  0.6134016332944441  0.9795331601628519
  0.7946172457798610  0.6990502773743472  0.1032518954310646
  0.7953600333325426  0.8024095902478479  0.2214089683578990
  0.7910783357539088  0.9015861503297558  0.3082505554629620
  0.8145486474131545  0.0079084445608473  0.3944204423704178
  0.7990544791790697  0.1065981862336614  0.5104716701983278
  0.9211306221280466  0.2101656622461405  0.7183233199209553
  0.8979886316992420  0.3183570314992465  0.8108088645508431
  0.8980888169329333  0.4053088583605131  0.8800484750363111
  0.8865371272112554  0.5194559791433520  0.9994048394085837
  0.8999170100711922  0.6162478721935187  0.0977279121925676
  0.8894033999190469  0.7105110125949352  0.2074589990714486
  0.9000364577033864  0.8141086345563195  0.3202235508678370
  0.8811335934858704  0.9080995490583561  0.4112896250089264
  0.8915816490083586  0.0005597885764601  0.5122980186186012
  0.9125375457727216  0.1104302597557236  0.6237415885336048
  0.9920213452060693  0.2135789681198048  0.8178782233756365
  0.0014195071545942  0.3195095716768677  0.9051180009999769
  0.0034700730934958  0.4286803666579360  0.9909088069331702
  0.9995458755743911  0.5083725911287829  0.1021960900930949
  0.0005339710959262  0.6111783681340910  0.2013719697150052
  0.9910173857765301  0.7004763238970497  0.3087960648555992
  0.9977757477202900  0.7955455865336560  0.4037928830265969
  0.9828866169853114  0.9033267231732580  0.5166582700411908
  0.0004441203780843  0.9964203309445026  0.6207260479512371
  0.0155082207566508  0.1099724930358832  0.7222427342206146
  0.0999163934192069  0.1967711478298142  0.8925603776100601
  0.0976180086188450  0.2985171386395535  0.9957143439441936
  0.1173919401919008  0.4079983452774911  0.0995028875502939
  0.0867086574129203  0.5016016609128329  0.2077286593176382
  0.1019350467846039  0.5867455517725801  0.2954078155282005
  0.0841062260422376  0.6919623308968852  0.4003263850860677
  0.1118545601295224  0.8088515587724103  0.4948288226470794
  0.0832605223685121  0.8979002261850937  0.6064550667841218
  0.1151096407228422  0.9834506573653030  0.7181077712435382
  0.1053043403728466  0.0928509906906996  0.7865113492535869
  0.2972482083759900  0.3060314506797468  0.9907635603914215
  0.2965412318754304  0.3962139020499507  0.1129346853646354
  0.3319359296207267  0.4981186243184652  0.2401403947525083
  0.3205449551201127  0.5907612561605688  0.2942974533939662
  0.2836486555082018  0.6960048598842903  0.3837665793671547
  0.2952181300445247  0.7856436432465870  0.4692953672531601
  0.3242416871026848  0.8637995628675483  0.6005642237089575
  0.2985678055284424  0.9848123087545559  0.6882272760172370
  0.2848788609795037  0.1060060631889712  0.7960051903526093
  0.3146576381514734  0.2019509030737368  0.8874340896645307
  0.3984338391943041  0.2972988466941260  0.1130284821789971
  0.3949283812290219  0.4042794404895105  0.2174567405537928
  0.4299333939668131  0.4865758148615527  0.3284775976762475
  0.3993016504368967  0.5910990304992723  0.4247494169186439
  0.3939959000976145  0.6949301235684828  0.4981077955286750
  0.3957547286969358  0.8121434237280099  0.5957984581319522
  0.3945356391514494  0.9007531549248853  0.6987452679698123
  0.3750517354348730  0.0120793252541631  0.8021291593057285
  0.3942727273160145  0.1030872741125179  0.9149157734339681
  0.3827572614937722  0.1866203195162015  0.0098575714863927
  0.5086245308445001  0.2895436965786544  0.2020110925930325
  0.5069028742172819  0.4058541539487166  0.3067709597390547
  0.5103946801266659  0.4922967438870529  0.4112479702864249
  0.4913516701983269  0.5960698430989737  0.5113148310754525
  0.5069267388871666  0.7009875674388724  0.5900521697102477
  0.4951953901097568  0.8107674422037547  0.6870729001690421
  0.4800915768672169  0.8972941134734853  0.7897044003714200
  0.4992392952548741  0.0063603647532204  0.8824750601176135
  0.4863689407395029  0.0907703002309503  0.9901636546748875
  0.4758793876336256  0.1931261674722009  0.1055486893169189
  0.6203265998428620  0.2795508145044181  0.3080006352229674
  0.6009663150877387  0.4124994733458749  0.3689446465560309
  0.6091432856360584  0.4961155448679762  0.5029753301111910
  0.5997790081188512  0.6058639646675061  0.5986016718649552
  0.5864576467226996  0.6956939810956868  0.7039488278850499
  0.5892247213161568  0.8173544320373338  0.8058161615199637
  0.5822569100735677  0.9249393438251445  0.8908981705197476
  0.5854901388062217  0.9872195619151896  0.9823441170448319
  0.5851352382086148  0.1088315154401087  0.0785297702435628
  0.6144515125830310  0.1877708540272849  0.1908211328301732
  0.7052303440394283  0.3110994766791251  0.3802684150377402
  0.7090444132282556  0.4183927335063444  0.4971405295111992
  0.7092991543058531  0.5009553377300549  0.5893060155710543
  0.6916217685293233  0.5941410218804322  0.6950520163805649
  0.6886302159472422  0.6953218494797753  0.7950146163186602
  0.6773678183852780  0.8012718911454471  0.8869041213304456
  0.6874003452298751  0.8983609504535579  0.9932009128354053
  0.6944412094950110  0.9929608609318805  0.0993098678602919
  0.7035272922073261  0.1075086869360220  0.1931043646579838
  0.7111998204804664  0.1995152463036618  0.2908040937120546
  0.7964803204685609  0.2986694983452765  0.5032204347515545
  0.8124422704221317  0.3968585752720202  0.6047817542439446
  0.7960771429251707  0.5051114573462527  0.7080586866979388
  0.8153956605795116  0.6031118397181032  0.8027545101307112
  0.7849103616580564  0.7083689016928147  0.8912941939477648
  0.7709129754053450  0.8039206185567025  0.0056954786790797
  0.8047960315230611  0.8876872383990886  0.1055942148996465
  0.7988103349920266  0.0055845651294035  0.2034704059427170
  0.8152809256922424  0.1190587105068914  0.3143638037189618
  0.8009415523439927  0.2101465160353300  0.4153432227804075
  0.9177796023904179  0.3075113949667880  0.5977375672007810
  0.9162566653174906  0.3922721173305419  0.7044658727173143
  0.9296038437180059  0.5043784781314713  0.8015537658627210
  0.8867375900573791  0.5949550396419099  0.9051301011880639
  0.8786648955977228  0.7092407028404111  0.9947016875788677
  0.8915043270398328  0.7839757910525904  0.1140012613985348
  0.8956294578700508  0.8891374319659064  0.2029103035642024
  0.9305215832956364  0.0123645184638477  0.3003895673912496
  0.9212565986524126  0.0978319959048619  0.4018392519225742
  0.9080576995785847  0.1825462203280850  0.5132029194543009
  0.0197656770076904  0.3048632870645918  0.7195865646056063
  0.0054402838027698  0.4257616880550472  0.8098423199447637
  0.0139009804528456  0.5182571448298816  0.8909500326182709
  0.0134214447275056  0.6222528915978174  0.0007613233018233
  0.9846197395300109  0.7009108378371920  0.0964987609818806
  0.0118663093735876  0.7964217013880628  0.2006117701959482
  0.9842510135472935  0.8940463146115576  0.3031864198471439
  0.9907490169281701  0.9939032780171928  0.3896896531034955
  0.0046476483893230  0.0845339801433269  0.5144797500059539
  0.0053115006785518  0.1959308149805992  0.6287204718935229
  0.1044463993714402  0.3260508292659665  0.8030528944548934
  0.1302630299278604  0.4127778219566167  0.9127297973857793
  0.1081511421156662  0.5185020813790118  0.0223351777338650
  0.0987172824456550  0.6127650746410822  0.1012844279898104
  0.1009152434465861  0.6996038841932304  0.2137639113354410
  0.1002182195662016  0.7989849570248353  0.3113705592723974
  0.0974772729220703  0.9194476126758886  0.4001535368205538
  0.1049674098235727  0.9814771953048762  0.5227175252970184
  0.1148217351967844  0.0983108416466294  0.6367043232303971
  0.1121798457179608  0.1914559181924247  0.7185692931120684
  0.1975228027904095  0.2798305078450483  0.9134528377895776
  0.1899280131425414  0.4153166148425029  0.0086159186686032
  0.2105668331706383  0.5060193319206689  0.1133150444037057
  0.1956217509106892  0.5879362977071949  0.2107060665222278
  0.2075787895526275  0.6987578643365637  0.3164808204566540
  0.1908661589009810  0.8132249794052555  0.3836019870955454
  0.2046822699459554  0.8974042479940962  0.5025357072450660
  0.2099407180781441  0.9706823661341417  0.6141126706506981
  0.2080196485797927  0.1073098754791530  0.6970074622032811
  0.2016285155115369  0.2107301149972614  0.7993807809337881
  0.3926909006928412  0.4128448117901939  0.9912995104878490
  0.3865802833265874  0.4978885774148267  0.1146361953286856
  0.4337007466488885  0.5931659370015012  0.2069791190685919
  0.4047276626746950  0.6999212399704788  0.3022244889407375
  0.3915625066069879  0.7953831108783120  0.3870011275921996
  0.3796515944858427  0.8924171200685720  0.5039945053689223
  0.3847527482678998  0.9901390504987972  0.5847152086855090
  0.3772804957024860  0.1009392400180928  0.6860564677031533
  0.4150840156186746  0.2021216847217957  0.7932115659150938
  0.4076452165424627  0.2921473264922270  0.9111244008475978
  0.5041469412633006  0.3986242656127246  0.1094619228113629
  0.5205354572510146  0.5161249855955816  0.1974222685174141
  0.5119038327658885  0.5855661750910670  0.3249253355872455
  0.4937512221137581  0.6986585995571559  0.4199882859931918
  0.4871093078736237  0.7929174167281730  0.4843717906716520
  0.4937297969095980  0.9241208123616076  0.5932146677460040
  0.4898712440179978  0.9917052408275993  0.6993526868407898
  0.4956866193662037  0.1037097354824894  0.7928503130877829
  0.4972094664412765  0.1804935201542790  0.9049549305968938
  0.5018814099664297  0.3057903397538126  0.0107307145067992
  0.6070314525844651  0.3590370281659929  0.1999119206685549
  0.6113326620794766  0.4999459455727262  0.2903213209209312
  0.5977056746267948  0.6046179033832502  0.4003543596581025
  0.6159208771219724  0.6904449303588009  0.5101067555534371
  0.5811437561010422  0.8081323516106735  0.5814860441418048
  0.5956524687507425  0.9118764662746131  0.6900927244589425
  0.5894508535511065  0.9835619928096975  0.7810979043356099
  0.5864761267588889  0.0625803985619413  0.8814815166305578
  0.5990736253898703  0.2089400319039996  0.9617161486631289
  0.6095524868455513  0.2886533549201218  0.1117064017523361
  0.7364077455298670  0.3930362958024816  0.2749783224208926
  0.7082718040046672  0.5036992538272926  0.3913009899764290
  0.7137309230732569  0.5841303092783505  0.5066854365372251
  0.7167201538058592  0.7129318830504019  0.6182583295635808
  0.7056948482179024  0.8049947629818348  0.7068781052832094
  0.6984606137949072  0.8812566757934306  0.7937771538772864
  0.6868100169043601  0.9798492107330787  0.8925467936477673
  0.7005876869598353  0.0914388619318558  0.9721116068665054
  0.7227000509511683  0.1995267031737313  0.0755684197995308
  0.7220253908240295  0.2793627018404337  0.1909691212114026
  0.8181307364110353  0.4082758029570712  0.3860812180662379
  0.7832239403823706  0.4959094116806710  0.4813808733125384
  0.7955591843051337  0.5892599328587380  0.6138969757862895
  0.7941545206066536  0.6938040184757526  0.7041696235803911
  0.8142132434942013  0.8038023580390927  0.7857894716792444
  0.7934844294183492  0.8890576157710512  0.8997052265422241
  0.7904795085831324  0.9958334953929651  0.0119892007333178
  0.7982464817504322  0.1071421609009278  0.0782905916525820
  0.8106772167329339  0.2032961139020486  0.1716555348682149
  0.7967914402038048  0.3018504154662978  0.2829156801028532
  0.8877100840456151  0.3995808871217363  0.5004230761172366
  0.8710171662579427  0.5056978905264131  0.5898456327230335
  0.8951285112259200  0.5913481369491222  0.6943802438037210
  0.8931138325277956  0.6998934958691478  0.8008659165257939
  0.9005724577986243  0.8044108287897913  0.9046528235042004
  0.8871017542439432  0.8882479974286355  0.0012326387466999
  0.9111644989405008  0.9884344996547725  0.0934775086307482
  0.8991116059141433  0.1041033870622101  0.1853990866884132
  0.9038578976691056  0.2021298269088803  0.2944442565653205
  0.8879977029118322  0.3066685902716628  0.4121956343896542
  0.0095316406752204  0.4048291926382674  0.6072331220685214
  0.9896545987000280  0.5089945491774017  0.7002780871884013
  0.0043377719578075  0.6026839465727036  0.8130030218328130
  0.0011729820718571  0.6978719297159586  0.8973302959453378
  0.9882694616794865  0.7986886555082009  0.0029226018428119
  0.9963769491202612  0.9022692854932046  0.0890788214566314
  0.0031300083331374  0.9963972553034424  0.1783168491226377
  0.0047864693697761  0.1084508797409569  0.2778985200352366
  0.0129901607104586  0.1961538706221262  0.4069693373967311
  0.9989437151496361  0.2928268665031766  0.5034587071736354
  0.1053533334920616  0.4082203618961486  0.6944177881479021
  0.1175912730649245  0.4984872188757379  0.7878429746910811
  0.1090735258684319  0.6072064546082245  0.9075287412204460
  0.1008707787909842  0.6974292007333176  0.9918570781648057
  0.0930838303849910  0.7978479431442125  0.0916087664579379
  0.1048761648532164  0.9002096935787236  0.2068688635984870
  0.0873927844575135  0.0174366157948640  0.2708287778862442
  0.0769549796433395  0.0913971181638544  0.4020673231589740
  0.0958607056974827  0.1816148001238034  0.5153831399252411
  0.0944941810909299  0.2872451232113491  0.6027225699388126
  0.2009508802171354  0.4006441356158206  0.8032105554629680
  0.2085146153662976  0.4981960496178672  0.9160777676721992
  0.2102711678293403  0.6157759886669396  0.0072975924382774
  0.2039573162543746  0.7087424780362355  0.0960910525939838
  0.1983525335111054  0.7959412756839157  0.2086593452536860
  0.1933418166234162  0.9011573100640433  0.2854687564581795
  0.1916638099092864  0.9918384090854957  0.4005004752267780