Li 
 1.0000000000000000
    21.0004999999999988    0.0000000000000000    0.0000000000000000
     0.0000000000000000   21.0004999999999988    0.0000000000000000
    -0.0000000000000000   -0.0000000000000000   21.0004999999999988
 Li 
 500
Cartesian
 -0.0347471300000000 -0.3188210200000000 -0.0267085200000000
  0.1851526500000000  2.1495491300000000  1.5672789400000000
  0.0472259100000000  4.1571828300000000  3.6627537299999999
  0.0029084900000000  6.1928454899999998  6.1070143600000000
 -0.1328485800000000  8.2766166499999994  8.4882582899999992
 -0.2718853400000000 10.1577006799999996 10.8664817300000003
 -0.0043237600000000 13.0690787400000001 12.0362746499999993
 -0.0254900000000000 14.6020171100000002 14.8509639300000007
  0.0801809900000000 16.9148505799999995 16.6975459199999996
 -0.0293772100000000 19.3615990599999996 18.9772797000000004
  2.4814632500000000 -0.0780557000000000  1.6897818700000000
  2.3433766199999999  2.1933207800000001  3.5949946700000002
  1.8759221699999999  4.1892972899999998  6.1694013800000000
  1.8514707699999999  5.9605452400000001  8.7647219500000002
  1.9580019099999999  8.2148990200000007 10.5897912200000004
  1.7453191500000000 10.5416071099999993 12.4779488700000005
  1.9613306200000000 12.1017875499999992 14.5127094999999997
  2.0400655699999999 14.4226522500000005 16.7365084199999998
  1.7821525600000001 16.4348597500000011 19.1006925099999982
  2.2689086100000000 18.6056766799999984 21.0555754999999998
  4.5863612600000003  0.4243686200000000  4.1319947299999997
  4.2385740199999997  2.3531914199999999  6.4254327099999999
  4.0576578300000001  3.8375837800000001  8.7539571699999996
  3.8706913500000000  6.3965973199999997 10.2980304799999995
  3.7455549200000000  8.5223424199999993 12.2594572500000005
  4.5081915199999996 10.4132813500000001 14.5488910100000002
  4.4473737099999999 12.6178625100000001 16.6568382399999990
  3.9826072500000000 14.7632856300000004 19.0105587000000007
  4.5494221799999996 16.8544798200000017 -0.0506389200000000
  4.3659214899999998 18.8224422199999992  2.1671847899999999
  6.2069928399999998  0.0021036800000000  6.2432172399999999
  6.1205241800000003  1.9619541800000000  8.6665469700000006
  6.2588928099999999  3.8704083200000001 10.4077909500000008
  6.0839793400000000  6.3440811999999998 12.4166987599999992
  6.3371380400000001  8.1160647400000006 14.6649339100000002
  6.3677570899999996 10.8758694400000007 16.7423358200000010
  6.1084501400000004 12.9219289300000000 19.0360351399999992
  6.5970054200000003 14.6603114100000003  0.2442430900000000
  6.3049590000000002 16.8047969500000001  2.1610499900000000
  6.6614902000000003 18.9864089699999994  4.3618720399999997
  8.0515855100000007  0.1367416500000000  8.5460079600000007
  8.0690863700000008  2.0003678100000002 10.6393638100000008
  8.2871813000000003  4.2454498500000000 12.6390495800000000
  8.2970178899999993  6.2911218699999996 14.9282965300000008
  8.4202528300000008  8.2681836999999998 16.9985661199999996
  8.2601097899999996 10.7355816900000001 18.8663018899999990
  8.2724142500000006 12.0946119099999994  0.6489261000000000
  8.4329464499999993 14.8107486999999995  2.5286439199999999
  8.6365101600000003 16.9286430500000016  4.2860987300000000
  8.2699308899999995 18.9876303200000009  6.5160658199999997
 10.4393188299999995  0.0634032000000000 10.3799844199999995
 10.3226452099999992  2.2149817399999998 12.6730568600000009
 10.5233968600000001  4.2726928900000001 14.4317926900000000
 10.3036233500000005  6.1236278899999999 16.5867872100000007
 10.6427167699999998  8.7056895300000008 19.1198535900000017
 10.6977945200000004 10.2089434099999998  0.3039771000000000
 10.7746810199999992 12.4755990299999997  1.8244142999999999
 10.6399729799999996 14.8632376599999994  4.4944888299999999
 10.8448578399999995 16.8900104400000011  6.5973531999999997
 10.4790897699999999 19.4157628699999982  8.4457329500000000
 12.6129338700000009 -0.1772452900000000 12.4938519600000006
 12.4242913399999999  1.7066384000000001 14.1962005700000002
 12.1684209499999998  3.7291088100000001 16.7435015400000005
 12.2962074700000006  6.1500721699999996 18.5840067399999995
 12.5800176700000002  7.9536580600000004  0.1814243700000000
 12.9543657799999998 10.0685527399999994  1.8785675200000000
 12.7406547999999997 12.7445634000000005  3.9796165200000000
 12.8370121299999997 14.7003053300000008  6.5829595500000000
 12.5399384200000004 16.7697851399999998  8.8500061500000005
 12.6386952699999995 19.1292287499999993 10.1174315600000000
 14.7833312600000006  0.0954250200000000 14.7913084399999999
 14.6580043100000008  2.0500752800000002 16.6762882099999992
 14.3958399600000000  3.8077208200000001 18.2351622099999986
 14.6188885800000001  6.1575512500000000 -0.3951077400000000
 14.9711811800000003  8.0256687200000005  1.7395165100000001
 14.4655908600000007 10.1086655299999997  3.9364630699999998
 14.9507639599999997 12.5414903700000000  6.1506652199999996
 14.7936076199999995 14.5795812199999997  8.5562028699999999
 14.8501230900000003 16.7215578700000016 10.7276679000000001
 15.1416385200000008 18.8158589700000007 12.2872776600000009
 16.6277451599999999 -0.1102400500000000 16.6682213799999985
 16.5449723000000013  1.8533032199999999 18.4804679999999983
 16.4871797099999995  4.0043309200000001 -0.5061931800000000
 17.0092223300000001  6.1276175700000000  1.8497705200000001
 17.2493877399999995  8.8644109400000008  3.6008188400000001
 17.1438390200000015 10.3921386800000004  5.9433979499999996
 16.5053892799999993 12.0618296100000002  8.0368183799999997
 16.9893407799999991 14.4096696800000004 10.3058874300000003
 17.0609807199999999 16.8149974399999991 12.8392989100000001
 16.9928963999999993 19.3694860700000007 14.7322173799999998
 18.4635567899999984 -0.1506275000000000 19.0024708300000000
 18.6459256300000007  1.6647225500000000 20.7196977699999998
 19.0370007100000009  4.4876025799999999  1.5469421600000000
 19.2052541199999993  6.1629037200000001  3.9408248900000000
 19.0371014800000005  8.4017047799999993  6.4822756899999998
 18.7648404199999987 10.7252436499999995  8.4401401200000006
 18.3037877400000006 12.3169970400000004 10.3021473500000003
 18.9028103999999999 14.7999135499999994 12.4908973099999994
 19.1903250000000014 16.7407092499999983 14.6432199199999999
 18.8611977199999998 18.8186086900000014 16.6364955700000010
  2.2778443099999999  2.2749414699999999 -0.0929959100000000
  1.9641749700000000  4.7838454400000003  2.0241269700000002
  1.9396944599999999  6.2150859100000000  4.3924833100000003
  1.9379510400000000  8.2719179199999999  6.4803805800000003
  2.1489402000000002 10.4716123799999998  8.4284013200000008
  2.1350691099999999 12.4645926599999992 10.3305733300000000
  1.8530406200000000 15.0680721299999991 12.1188290100000007
  2.1674025399999999 16.6294433899999987 14.9640857399999998
  2.3026781999999999 18.8940151199999988 16.8413713300000012
  2.4713195799999998 21.0857184500000017 18.9560239400000015
  4.3923337099999999  2.3399520100000002  1.8047992600000000
  4.0771337399999998  4.2204211599999999  4.2135230300000002
  3.7382915500000000  6.3548831699999999  6.7929206799999999
  3.9875731499999998  8.3031256700000000  8.5858124700000005
  4.0978126200000000 10.4755244199999993 10.0905856000000007
  3.7899844699999998 12.4796889899999996 12.4903079899999998
  4.2384288300000001 14.6306061300000003 14.1886610900000001
  4.1442668999999999 16.6408568400000014 16.8680121300000003
  3.9485139899999999 18.4205436800000015 18.9588646099999991
  3.8921611399999998 20.8967190800000004 21.0257638100000008
  6.0211700800000001  2.2312501700000000  4.4257890199999999
  6.2785331500000003  4.5270130899999996  7.1055078600000003
  6.2733537899999998  6.2157859000000002  8.5470873500000000
  6.1998746799999997  8.4291642600000003 10.4802207500000009
  5.9522524199999998 10.7466548100000008 12.3227384900000008
  6.2501584599999997 12.4573443499999996 14.3859219399999994
  6.7637573199999999 14.6585805899999997 16.8034217699999999
  6.7347607700000003 16.8033554299999999 19.0950029400000005
  6.3862929900000003 19.2804332699999996  0.2552451400000000
  6.4588304499999998 21.4185036400000008  1.9448166200000001
  8.3475814499999998  2.1841991699999999  6.8581411100000000
  8.6256808399999993  4.1057251099999998  8.8410991600000006
  8.3389739600000006  6.2671865599999999 10.4409706999999994
  8.2297146399999992  8.3611795299999994 12.4464739099999999
  8.2135541900000000 10.4223495800000006 14.3168416500000006
  8.5820058199999991 12.6294593800000001 16.7595809899999999
  8.7884154900000002 14.4389091599999997 19.4304247299999986
  8.4968784500000005 17.0561979900000011  0.3832666500000000
  8.2945548000000002 19.0187041999999984  2.4251095899999999
  8.5355729000000000 21.4636122200000017  4.8453587000000002
 10.3143829500000006  1.8033187100000001  8.4415548200000003
 10.6417141199999996  4.2979092600000000 10.4337821799999997
 10.6555618100000000  6.1050492700000003 12.2738135899999996
 10.5313965500000002  7.8295643000000004 14.3616610100000006
 10.4528501100000000 10.3453222500000006 16.4778915200000000
 10.9529539499999995 12.4795585199999994 19.5105170399999999
 10.3738221300000006 14.9518740900000005 -0.0358245200000000
 10.6593292599999998 16.9754642400000009  2.1808646399999998
 10.7600527199999991 19.2452694499999986  4.5758949600000003
 10.1402134999999998 21.1550864199999999  6.3228831999999997
 12.9282304099999994  2.4035103699999998 10.3190110300000004
 12.4246015799999991  4.3082649200000001 12.3959495099999994
 12.3669391199999996  6.6173044799999996 14.5907471999999991
 12.5918350300000004  8.5152176399999995 16.5374819500000001
 12.6928500500000006 10.5972875900000005 19.1534843600000002
 12.4077847699999992 12.3259579400000003  0.2552673500000000
 12.2730921800000008 14.7831951799999999  2.0240116200000000
 12.8337958099999998 17.1375426500000003  4.2052005499999998
 12.8428724299999999 19.2896515300000004  6.7135983699999997
 12.6147252299999995 21.6449082600000011  8.2933455299999999
 14.8526590600000006  2.2019191299999998 12.8239582700000003
 14.4514216799999993  4.2658655699999999 14.8255562500000000
 14.3819592299999996  6.0601457900000000 16.9700024200000001
 14.7416478400000006  8.3872866399999992 18.7479290300000017
 14.8721364299999994 10.6130946000000002 -0.1901752300000000
 14.4713429599999994 12.7113095299999994  1.9091006100000001
 14.6329975399999999 14.8135069000000001  4.2680953600000002
 14.3941591700000000 17.0299689600000015  6.5261267500000004
 14.9054532000000002 19.2529452399999990  8.7070087600000008
 15.0225030600000000 21.3115702499999990 10.4690289900000000
 17.1676061699999991  2.2180966700000000 14.8945290799999999
 17.0126835000000014  4.0474285999999999 16.7723222499999984
 16.6115555599999993  5.9787084500000001 18.4477066000000001
 17.0206439799999991  8.4084490499999998  0.0031904600000000
 16.9166103600000000 10.7504615999999995  1.7835568900000001
 16.6248942399999997 12.3357524400000003  4.1647072500000002
 16.8363910200000007 14.2941569899999994  6.4698131099999996
 16.8822991000000009 16.6829448599999992  8.4880142599999999
 16.9992681099999992 18.8155383500000006 10.7574560100000003
 17.1621810600000018 21.3910167800000011 12.8284678299999992
 19.0639356199999987  2.1026355300000001 16.7193922000000015
 18.6677890099999999  3.9942033499999998 18.6076403699999986
 18.6697683999999988  6.2310122400000001 -0.4420955100000000
 19.2003870499999998  8.4587266400000001  1.7259021999999999
 19.1666212300000005 10.7113261299999998  4.0546256899999999
 19.0710987400000000 12.4800020400000005  6.2158166499999998
 18.8914886200000005 14.4012307899999996  8.4238612699999997
 18.6000778500000017 16.9202568199999988 10.6130688499999994
 18.8781705700000018 18.9491134400000014 12.8976352199999997
 18.9834021200000009 21.3070099100000014 15.1284666100000003
 20.9464761400000015  1.8312115200000001 18.8292638900000000
 20.6125092199999997  4.0184025600000002 20.3448258099999997
 21.1483116100000004  6.3421999199999997  1.6299316500000001
 21.0164995300000008  8.3747188099999992  4.0508772100000003
 21.1595464799999995 10.4866271599999994  6.3812269199999996
 20.9529277500000006 12.3567520999999996  8.8948996299999994
 20.6919839400000001 14.7528046400000008 10.2854676099999995
 21.2745383500000003 16.9055386799999994 12.2405907400000000
 20.9497855999999985 18.9011206399999985 14.9735685499999995
 21.1236403300000006 20.8369218499999995 17.1222735600000000
  4.4180964100000004  3.9965140899999998  0.0750117800000000
  4.3199054200000004  6.2906110300000000  2.4768353699999999
  4.2558250700000002  8.5936659300000002  4.3977835499999998
  4.1897937900000004 10.1198169399999998  6.5677474000000000
  3.9724038699999999 12.6549555900000001  8.0122334399999993
  3.9030458100000001 14.7163921099999992 10.2268637899999995
  4.0540111300000001 17.0424714399999999 12.3911776600000003
  4.5121868999999997 18.3775622900000002 14.7089727299999993
  4.6517029699999997  0.0528876900000000 16.9260592199999991
  4.2093571699999996  2.5983949800000001 18.8113895400000004
  6.5129500699999996  4.0850554299999997  2.2311041999999999
  6.2157506600000003  6.1793663800000003  4.8017935800000000
  6.3806551699999998  8.1951857700000001  6.5653102299999997
  6.4683000000000002 10.3095684599999995  8.6071799700000007
  5.9652969100000002 12.8208765099999997 10.0004071200000002
  6.0275047800000001 14.9294670600000003 12.2760885900000005
  6.1455553099999998 16.7244496600000012 14.8215467499999995
  6.2059458500000000 18.9575662300000012 16.7237419699999990
  5.8420048099999997  0.1907045000000000 19.2076130200000001
  6.4103010200000003  1.6424444300000001 20.8059631100000004
  8.2307916999999993  3.8765342600000001  4.6117737999999999
  8.5121030599999994  6.3119745800000002  6.5601795400000000
  8.5809789100000007  8.1640867900000007  8.6792858800000001
  8.1038587000000000 10.1274000399999995 10.4991051599999992
  8.1892980699999995 12.5627321900000002 12.4079265900000006
  8.2605670000000000 14.6133586999999991 14.1708567999999993
  8.3085873499999998 17.0270004399999983 16.4467316699999984
  7.8290342900000001 19.1544632999999997 18.7431085199999998
  8.7354940200000009 -0.3069748800000000 -0.2088271400000000
  8.3516845499999999  1.7155649799999999  2.2760265999999998
 10.6993136000000000  4.2854422000000003  6.6712180300000004
 10.8236860600000000  6.4032429500000001  8.5094619999999992
 10.7503538400000007  8.4943987900000000 10.4221215600000008
 10.7090673299999999 10.4734734300000003 12.4801580100000002
 10.4934543700000003 12.3180497599999992 13.9474602799999996
 10.7292737799999998 14.8492961399999999 16.7280660899999987
 10.1421646200000009 16.9530393400000001 18.5470514599999987
 10.3131125099999998 18.9003705900000014 -0.1559952000000000
 10.4871375699999998 -0.2104358600000000  2.4281402500000002
 10.7642337200000000  2.0803893800000002  4.3765754899999996
 12.8718667000000000  3.9166946899999999  8.3136117600000006
 13.1610774100000008  6.4900954400000002 10.1400510599999993
 12.4324410099999998  8.3241473100000007 12.6422282199999998
 12.8993797699999995 10.3067560900000004 14.8247180499999995
 12.0585513100000004 12.2922623699999995 16.7925517599999985
 12.5282969699999995 14.6560507900000001 18.9597929100000009
 12.2596439400000001 17.0682579300000015  0.0952936800000000
 12.4343568999999992 18.9817725400000015  1.8694004799999999
 12.6452098199999998 -0.1021997200000000  4.1425827100000001
 12.8448750700000005  2.2482782800000001  6.2803728500000000
 15.0837523499999993  4.2253687700000002 10.9880551299999993
 14.7767153899999997  6.5928548600000001 12.8086219299999993
 14.4712430100000002  8.7433302899999994 14.7185939099999992
 13.9755529200000002 10.7354644199999996 16.7062459099999998
 14.5485675600000004 12.5696667600000005 18.4386522500000005
 14.4653349900000006 14.8187975299999994  0.1381821300000000
 14.6943092300000000 16.8374544399999984  1.9910966400000001
 14.7277065399999998 18.8835251399999997  4.4671754200000002
 14.9070364800000004  0.1371582700000000  6.2638641200000000
 14.9663318800000003  2.5645839499999998  8.4000589100000003
 17.0606938700000015  4.3528720600000002 13.5439660300000000
 16.7457002199999998  6.5013877600000001 15.2676667199999994
 16.5500949700000000  8.8236375200000001 16.5223474500000016
 16.6750939699999989 10.2365541400000009 18.5890699899999987
 16.3223585500000006 12.8817409999999999 -0.4298138700000000
 16.6873594700000005 14.6804053499999991  2.1683414299999999
 16.7029583799999983 16.8510026000000011  4.6496990399999998
 16.6130405900000007 18.9337599499999989  6.4734157899999998
 17.1059288699999996  0.1660812900000000  8.2830265000000001
 16.7805435900000006  2.2386152099999999 10.7201603100000007
 19.3442036299999991  4.4135839900000002 15.0851488800000002
 18.8582102599999999  6.6856568400000000 17.0273915600000016
 18.8603142000000013  8.5116886800000007 18.4814579999999999
 18.6177229400000002 10.9088352900000007 -0.0124986700000000
 18.8987071700000016 12.9415134399999996  2.0523350200000001
 18.6779161000000009 14.9210865199999994  4.3567427099999998
 18.9012156299999994 17.0966883799999998  6.7248546800000000
 18.5042460300000009 19.0705445800000000  8.6372877700000004
 18.7236604200000016  0.0117558400000000 10.7585145400000002
 19.1637447300000012  2.3190906700000000 13.0988852300000005
 -0.1675557400000000  4.4852651200000002 17.1758516300000004
  0.0298103600000000  6.7098607599999998 19.0079305800000000
  0.0728732700000000  9.0025020399999995 -0.1909196000000000
 -0.0095368400000000 10.6760786000000003  2.1461689900000001
  0.0112136600000000 12.8350513199999998  4.2289120499999999
 -0.1886393900000000 14.7103530399999993  6.4848717599999999
 -0.0467104100000000 16.7068550900000012  8.4798524400000002
 -0.3593896000000000 18.9703128499999991 10.8500820000000004
  0.0093267500000000 -0.0751748400000000 13.0355573699999994
  0.3256803900000000  2.3094773399999999 15.1674585400000002
  2.0982942200000001  4.1322924900000002 18.7442142099999991
  2.0500269900000001  6.2690091700000004 20.9104990800000010
  2.4652894399999998  8.5681692500000004  2.0896103899999998
  1.8209251600000000 10.5338856799999991  4.3624057100000000
  2.1406869500000001 12.3219499599999995  6.2037118299999996
  1.7662728000000001 14.5315549300000004  8.4070542499999998
  2.3490016900000001 16.9862871599999998 10.3916526900000008
  1.7485126000000000 18.8563536999999997 12.7358596300000002
  2.4173600099999999 -0.3475444700000000 15.0806222499999993
  2.2114438000000001  1.9499172300000001 16.5171315900000018
  6.2423609999999998  6.4268134799999999 -0.1939698500000000
  6.2275141400000003  8.3206900499999996  2.3716848599999998
  6.9708204900000004 10.4607401699999993  5.0430683600000004
  6.7316043299999997 12.4062817600000006  6.1803936700000000
  5.9567635900000004 14.6164500600000000  8.0592900499999995
  6.1997283400000001 16.4989093300000000  9.8554373599999998
  6.8092375499999998 18.1402227200000006 12.6121489800000006
  6.2700731999999997 -0.3189491100000000 14.4531169100000003
  5.9825985199999998  2.2261803300000000 16.7165070000000000
  6.6079677300000004  4.2410699400000000 18.6365595999999982
  8.3673098400000008  6.2434244300000001  2.3736546399999998
  8.2936934699999991  8.4900703899999996  4.5667002800000001
  9.0288162399999994 10.2183354000000008  6.8981937899999997
  8.3855343100000006 12.4133751900000000  8.9199501300000001
  8.2741109000000002 14.5938800600000000 10.4605127600000003
  8.3110471799999992 17.0554179700000006 12.5120655200000002
  8.2854456899999995 18.9162666299999991 14.6739999999999995
  7.8762739699999997  0.2536718700000000 16.8451134099999997
  8.2799244099999996  2.1648843000000002 19.2136886999999987
  8.0380938700000009  3.9191200199999998 21.2075139300000011
 10.6813694600000009  6.0805623999999998  4.2423339499999999
 10.6452138099999996  8.5231401600000005  6.4423435400000004
 10.7185434799999992 10.3384777700000008  8.6364129999999992
 10.3186307500000005 12.5177647400000005 10.7378671099999998
 10.6457149799999993 14.7210894099999994 12.3913905900000003
 10.3993507899999997 17.0265216700000011 14.4288744399999995
 10.0821631600000003 18.8436250299999983 16.5841872600000002
 10.4842748199999996  0.1335708400000000 18.5324175000000011
 10.2139909400000004  1.9062216900000000 -0.2065681700000000
  9.9937050799999998  4.0557460799999996  2.2165752500000000
 13.0271687600000003  5.8707068800000002  6.4681673399999999
 12.6205931000000007  8.6626951900000009  7.7480220500000003
 12.7923135699999992 10.4186744999999998 10.5627334200000007
 12.5956590599999991 12.7234461900000007 12.5709344099999996
 12.3159038100000000 14.6099214499999999 14.7832773599999996
 12.3740137600000004 17.1648517500000004 16.9225422999999999
 12.2276862400000006 19.4241886900000011 18.7093070300000015
 12.2955856600000004 -0.2683955900000000 -0.3707823700000000
 12.2881325700000001  2.2855162400000002  1.6491644400000001
 12.9037889900000007  3.9432818200000002  4.0073391999999997
 14.8101898399999996  6.5332445600000000  7.9858268499999996
 14.8902871999999995  8.7864565999999993 10.4401996900000000
 14.8956368900000005 10.5203125699999998 12.3757209800000005
 14.5244029500000007 12.4772585300000003 14.5964398699999993
 14.4615788500000004 14.6021064999999997 16.6957044500000009
 14.2250628700000004 16.8271103500000017 18.6254300000000015
 14.4357509499999992 18.8660291399999984 -0.1427842300000000
 14.5836126200000002 -0.1478254400000000  2.0855568799999999
 14.7744248999999996  2.2577361800000002  4.0552882099999996
 14.9355518299999996  4.1899199300000003  6.1070313699999996
 16.7264849700000013  6.2722087999999996 10.5678807399999997
 17.0616939000000016  8.3342285100000009 12.7007192300000007
 16.7180180400000005 10.6075931600000004 14.8695864499999999
 17.1237165699999991 12.6656501899999991 16.8582460900000015
 16.4835100499999996 14.8761011199999995 18.7176237199999989
 16.1895579400000003 16.8827349499999997  0.1196079000000000
 16.9011190599999992 18.6418758500000017  2.2175313100000000
 16.7754164400000008  0.1172786600000000  4.2729802599999998
 17.1213070800000011  2.5002924499999999  6.6017970600000000
 16.8201730699999992  4.4131819099999996  8.7224153500000003
 19.2738305399999987  6.4578930500000000 12.5527877799999992
 19.2418480999999986  8.2379105999999993 14.7941355600000009
 19.5221455199999987 10.5922002299999996 16.8330298599999999
 18.6219327600000000 12.4943533099999993 19.0081846900000002
 18.4524021400000002 14.8944093800000008 -0.1112672100000000
 18.7220366200000008 16.4638835999999991  2.3940834899999999
 18.8086664299999988 18.6723306399999984  4.2612178299999997
 19.5414185099999997  0.2596610700000000  6.3083311100000001
 19.3468492000000012  2.0545208300000000  8.4388252099999992
 19.0696657199999997  3.8335618999999999 10.7775179100000003
  0.4150891000000000  6.4022814600000002 15.1116776500000007
  0.1142486800000000  8.9412083300000003 17.0070936400000008
  0.2919275400000000 10.8836591699999996 18.7103961599999984
  0.2818570500000000 13.0676218500000001  0.0159881700000000
 -0.3229931600000000 14.7194780499999993  2.0265222299999999
  0.2491984300000000 16.7252539400000018  4.2129474800000004
 -0.3307365900000000 18.7754196299999983  6.3670664099999996
 -0.1942752700000000 -0.1280342100000000  8.1836775599999996
  0.0976029400000000  1.7752558500000000 10.8043319899999997
  0.1115441700000000  4.1146450799999998 13.2034442700000003
  2.1934266099999999  6.8472304399999997 16.8645123099999985
  2.7355887600000002  8.6685406500000006 19.1677821100000010
  2.2712280599999999 10.8888029599999996  0.4690499000000000
  2.0731122900000001 12.8683729499999995  2.1270236300000001
  2.1192705699999999 14.6920313700000005  4.4891490200000002
  2.1046327200000001 16.7790835899999990  6.5389374299999998
  2.0470714700000001 19.3088595900000008  8.4034243499999999
  2.2043680900000000 -0.3889881600000000 10.9773293899999995
  2.4113138500000000  2.0645768300000000 13.3711091399999997
  2.3558328500000001  4.0206700099999999 15.0903144400000002
  4.1480776199999996  5.8765805799999997 19.1829663199999985
  3.9885832400000001  8.7218565699999999 21.1814385999999999
  4.4220087799999996 10.6266589800000002  2.3796725900000002
  4.1081545799999999 12.3469562199999991  4.4249327500000000
  4.3592583700000000 14.6742645300000003  6.6462554699999998
  4.0082847700000004 17.0781311799999997  8.0558335299999992
  4.2984300099999997 18.8459379100000000 10.5535011200000000
  4.4088600500000004 -0.6156849700000000 12.8966731400000008
  4.3685166300000002  2.2535610400000001 14.6375052100000005
  4.2342996399999997  4.4254377800000002 16.7873960900000014
  8.2467052600000006  8.6699474700000003 -0.1827146300000000
  8.1183792399999994 10.4559090700000006  2.4074174199999998
  9.1079325299999994 12.4567812599999996  4.3466649899999998
  8.4994832799999998 14.6986960000000000  6.3468653799999997
  8.2230084199999993 16.7034430200000017  8.1272171800000006
  7.9728733099999998 18.7412057300000008 10.5841366099999998
  8.0800000900000004 -0.2070848700000000 12.2793117400000007
  7.9230790500000001  2.1197745100000001 14.4075288500000003
  8.7169718700000001  4.2446564400000000 16.6578394900000006
  8.5607533700000005  6.1352399300000000 19.1340679800000011
 10.5873378400000000  8.3713088899999999  2.2987551100000001
 10.9315048699999995 10.8388827600000006  4.1459663500000001
 10.7502364400000001 12.2971824600000001  6.8235945100000004
 10.3690225399999996 14.6721799199999996  8.8199640000000006
 10.2295390200000007 16.6516622100000014 10.1720497900000009
 10.3685726000000003 19.4069991199999983 12.4578046300000000
 10.2875410600000006 -0.1741940900000000 14.6867561000000002
 10.4096668500000007  2.1779563000000000 16.6502529999999993
 10.4416474000000008  3.7904541699999998 19.0045060200000009
 10.5397605500000004  6.4217500300000001 21.2258503699999999
 12.7479640199999995  7.5399571099999996  4.1982502899999998
 12.8382915700000009 10.4991148299999999  6.0968929000000003
 12.5521180200000000 12.6972782800000008  8.4076417299999999
 12.9346463800000002 14.4996887599999997 10.7124969199999995
 12.2043094500000002 16.9711834500000016 12.2114976700000000
 12.5089996699999997 19.1498617300000014 14.4922922599999993
 12.3787626500000005 -0.3452063700000000 16.4034465400000009
 12.3162918999999995  1.3142196600000000 18.5115525900000009
 12.5808456700000004  4.3878451399999996 -0.8039800200000000
 12.8009070000000005  6.0618647799999996  2.3458902899999998
 15.4649308600000008  8.2539587300000008  5.7746822599999996
 14.8740620200000002 10.5779361800000000  8.2175164400000007
 14.9887062499999999 12.2670285600000000 10.6406475100000009
 15.0514815899999999 14.9719260100000007 12.9837340500000007
 14.8199446600000009 16.9052925199999997 14.8447936499999997
 14.6680221199999998 18.5068308200000011 16.6697171200000014
 14.4233537599999995 -0.4231766500000000 18.7439289400000000
 14.7126917200000005  1.9202618199999999 -0.5856702000000000
 15.1770624200000004  4.1901605300000000  1.5869746000000000
 15.1628942200000001  5.8667564199999997  4.0104470299999999
 17.1811545300000006  8.5739959999999993  8.1078986200000003
 16.4480943599999989 10.4143456000000008 10.1092390299999995
 16.7071406499999995 12.3747532200000006 12.8921434399999999
 16.6776420099999996 14.5702312900000006 14.7879141799999996
 17.0988852199999997 16.8802514200000005 16.5019717999999997
 16.6635697600000015 18.6706544600000015 18.8942596099999989
 16.6004649200000003 -0.0874986800000000  0.2517792100000000
 16.7635752400000015  2.2500389500000000  1.6441415699999999
 17.0246268900000004  4.2693200400000002  3.6048520599999998
 16.7330186400000009  6.3390096500000004  5.9413707400000000
 18.6423556200000000  8.3913984199999998 10.5091348100000008
 18.2917960000000015 10.6199085499999999 12.3870532099999995
 18.7981462999999991 12.4186065499999998 14.5823323100000000
 18.7558370399999994 14.6981133600000007 16.8185846800000007
 18.9124718999999999 16.8930296099999993 18.9981616200000012
 18.6295803900000010 18.6536520699999997  0.0258860300000000
 19.1349100599999993 -0.2428812900000000  1.9630744200000001
 18.8817932800000001  2.1862231799999998  3.8934735200000001
 18.9814677799999991  4.2448274300000000  6.1834766099999996
 18.6483957599999997  6.4401937299999998  8.6563144199999993
  0.2001692200000000  8.5016154600000000 12.7521991799999999
 -0.2172586000000000 10.6891400300000008 14.7061899700000005
  0.0910953800000000 12.6566642199999997 17.0734699600000006
  0.0246332100000000 14.6556594600000007 18.8443848799999998
 -0.2463471700000000 16.7728611100000009  0.0613761000000000
 -0.0760858800000000 18.9481061299999993  1.8706997900000000
  0.0657317400000000 -0.0756594400000000  3.7447429900000002
  0.1005182500000000  2.2775227000000000  5.8360078700000004
  0.2727998700000000  4.1193293600000001  8.5465595699999994
 -0.0221825100000000  6.1495106100000001 10.5728845800000002
  2.2124726799999999  8.5728317100000009 14.5831207599999999
  2.4694755300000000 10.4684808399999998 16.5450963900000012
  2.2905985800000002 12.7516391500000008 19.0585573299999993
  2.1183367899999999 14.6463619299999994 -0.1710054300000000
  1.9548069800000001 16.7552057300000001  1.9238299000000001
  2.2024518999999998 18.9048536700000014  4.3443495700000003
  1.8352921700000000  0.3661776500000000  5.6875397500000000
  1.6160930499999999  1.9193851799999999  8.4436148200000005
  2.0131227500000000  3.8140016100000000 10.8233036299999998
  1.9844250500000000  6.0322912100000003 12.6574753300000005
  4.2200689599999999  8.4137271699999996 16.8678232699999988
  4.3789111800000002 10.4623661400000003 19.2380911599999997
  4.4157996600000002 12.9316036499999996  0.1532530900000000
  4.2832056200000004 14.8839464100000001  2.0179601500000000
  4.1655023800000004 16.7151647600000004  4.3819505799999998
  4.0602748200000001 18.9247540900000004  5.9949866199999997
  4.0250358400000001 -0.1713974900000000  8.4107102299999994