Li                                      
   1.00000000000000     
    21.0527999999999977    0.0000000000000000    0.0000000000000000
     0.0000000000000000   21.0527999999999977    0.0000000000000000
     0.0000000000000000    0.0000000000000000   21.0527999999999977
   Li
   432
Direct
  0.0036811108261148  0.9951548411612734  0.0038372753267950
  0.9239378472222199  0.0779983056885527  0.0927997620269068
  0.8420476601687170  0.1550729323415396  0.1662996765275864
  0.7474794317145452  0.2413818413702700  0.2530614079837363
  0.6720420081889316  0.3328843408002768  0.3201891515617845
  0.5790243207554369  0.3859522301071578  0.4200718512501922
  0.5057802648578829  0.4823349312205494  0.4903757424190616
  0.4336651704286396  0.5779804306315555  0.5924183172784652
  0.3361158183234565  0.6607976668186666  0.6832545566385448
  0.2474728254673977  0.7656148417312636  0.7434489844581265
  0.1637839992780030  0.8373450937642488  0.8246955877602957
  0.0768133939428495  0.9179231389648876  0.9167657404240757
  0.0934062504749988  0.9040734657622735  0.0693393201854420
  0.0213573828659364  0.9937359809621498  0.1569666386418902
  0.9372115485826100  0.0816108826379391  0.2326771275079764
  0.8431305740804049  0.1637230496656059  0.3388228040925654
  0.7409107235142116  0.2372672057873544  0.3909312955996356
  0.6604272681068579  0.3335846490728045  0.4860176361339086
  0.5827383716180279  0.4100080602105152  0.5714839950030424
  0.4958476036441724  0.4852676921834629  0.6833318271203837
  0.4290534774471837  0.5950653452272405  0.7655985892612875
  0.3403923777359807  0.6774402801527586  0.8243220773483841
  0.2510786303959591  0.7500545827633402  0.9098147742818057
  0.1813228663170676  0.8298381383948907  0.9923676418338658
  0.1810830412106696  0.8295711126311005  0.1482928869319053
  0.0894031629996945  0.9235078616621095  0.2567755576455397
  0.0163677278081806  0.0225685205768329  0.3244864782831769
  0.9344077528879779  0.0935209986320089  0.4378787724198219
  0.8381948510411945  0.1610462375550981  0.4857270296587615
  0.7595357714888280  0.2534962266301903  0.5772593735750107
  0.6525416091921272  0.3082989744832076  0.6655271227580215
  0.5740278262273932  0.3841866996313996  0.7585216009271960
  0.4928233517631853  0.4964347953716342  0.8330108641130849
  0.4209876667236685  0.5872740937072507  0.9122044768391859
  0.3374537234952086  0.6700791224920195  0.9932955174608580
  0.2523678123574982  0.7396085304567563  0.0708361500607992
  0.2579427411080744  0.7377354280665784  0.2440650493046022
  0.1694791153670749  0.8386589921530643  0.3422874928750588
  0.0700080298107650  0.9296323111415106  0.4295606883644965
  0.9930773184564501  0.0238698743160057  0.5076872473020231
  0.9105852793927625  0.0900662923696629  0.5748992005813989
  0.8346166528917749  0.1726012848647187  0.6541801470588240
  0.7379713363543061  0.2435949251405987  0.7453521498328044
  0.6690865120079010  0.3125925055099543  0.8381550948092382
  0.5706857225642210  0.4257508844429267  0.9206062129502968
  0.4941433980278163  0.4968136361909075  0.9937974530703784
  0.4048853335423317  0.5814250042749691  0.0798629673962594
  0.3444472754217998  0.6703766240120075  0.1637590895272822
  0.3280602656178786  0.6678349207706304  0.3398343868749052
  0.2431109999619991  0.7332899661802728  0.4178895662334696
  0.1682127959226349  0.8377667056163531  0.5113442482710155
  0.0801916462418291  0.9202495254787948  0.5743675340097312
  0.9918506635696929  0.0094537733698132  0.6752529468764266
  0.9143288588691263  0.0793655779753735  0.7556839099787211
  0.8434958309583536  0.1742324336905270  0.8232793547651625
  0.7535872435020536  0.2548926356589121  0.9228934811521512
  0.6760260939162492  0.3491726435438522  0.9996605572655426
  0.5696464774281793  0.4165718977998196  0.0883476972184241
  0.4875355577405358  0.5067179434564508  0.1633930137558934
  0.3985283173734615  0.5681329504863939  0.2611042478910193
  0.4236923858109165  0.5889672072123417  0.4345059474274180
  0.3385784351725221  0.6790658976478170  0.5128708243084077
  0.2608837071553438  0.7399689271735852  0.5932130405456775
  0.1758256526447823  0.8464072626918977  0.6572331314599467
  0.0818379749961977  0.9021973965458301  0.7588483242134032
  0.0039436630756953  0.9949948325163405  0.8545500740994072
  0.9240573966408263  0.0806621447028419  0.9099205108109132
  0.8464196895424863  0.1726524661802671  0.0006776994034041
  0.7438073562661529  0.2391392631858977  0.0881944126196998
  0.6633663816689435  0.3371862308101541  0.1644778936768532
  0.5785259960670288  0.4276436782755724  0.2532485674114611
  0.4885119195546466  0.5045376819235443  0.3478957796587636
  0.0837764188136489  0.0845926779335784  0.9214312851497155
  0.9946556923544634  0.1705833722830192  0.0104835352067170
  0.9024176147590808  0.2611335779563788  0.0807859315625450
  0.8312451764135886  0.3327355909902749  0.1692828227124181
  0.7588978724920210  0.4145844253495952  0.2401391396868817
  0.6636903761019894  0.5101977157432742  0.3380804415564711
  0.5885028499772034  0.5878553019075881  0.4141773061065521
  0.4935165441176466  0.6754595136988897  0.5036150193798434
  0.4190545053389556  0.7498291533667754  0.5971678308823556
  0.3313555850053191  0.8292388447142400  0.6572176043091673
  0.2575843598001200  0.9176507932436522  0.7533963197294398
  0.1731279516263839  0.9840787610199087  0.8345646878324970
  0.1688000669744625  0.9901277796777634  0.9991291728416201
  0.0732834687072526  0.0838567178712566  0.0763946586677307
  0.0079113471842192  0.1876831053351609  0.1595585337817269
  0.9082486505357963  0.2630511442658445  0.2462494528043777
  0.8404955868103059  0.3325374515503867  0.3313693404202738
  0.7500903699270438  0.4146608256383928  0.4233651813535459
  0.6626733023635794  0.5002389240386051  0.4839125964242257
  0.5728596998973998  0.5584914695432417  0.5752580293357639
  0.5069286137710876  0.6672057346291211  0.6735977675178617
  0.4302003714470288  0.7777486757105976  0.7468956965344304
  0.3351175463596263  0.8373181044801612  0.8321559369775073
  0.2551207872587042  0.9095408339983280  0.9127148198814439
  0.2696194069197446  0.9075670438136498  0.0697767669858607
  0.1582522695318431  0.9894830991602035  0.1579616074821431
  0.0962406131250972  0.0971019626842988  0.2459285691214461
  0.9830823158914725  0.1622397842567267  0.3194476022191850
  0.9281406805745576  0.2422908582231358  0.4199545989132076
  0.8301422181372544  0.3269742262311937  0.4974260031919755
  0.7476742385810908  0.4139067905456741  0.5707477413930704
  0.6542395187338528  0.4924556914044658  0.6587606389648855
  0.5810431524547823  0.5917064927230555  0.7288951426888559
  0.5178409261475920  0.6815668647400841  0.8439303978568162
  0.4194505723704225  0.7585896194330459  0.9025564176736580
  0.3425270790583710  0.8310329718612266  0.9953058476782175
  0.3368078564371473  0.8320923981608175  0.1695360669364661
  0.2557594025497778  0.9213724810951547  0.2449918029905760
  0.1615868772799800  0.0084545613885112  0.3393005011209880
  0.0660739331585347  0.0914687542749633  0.4211628377222993
  0.0146247283021737  0.1656344989740077  0.5300626059241509
  0.9132573002165998  0.2546732748138041  0.5863760763413879
  0.8331870117039060  0.3295994357045160  0.6516516734116138
  0.7487947626919009  0.3998149215306270  0.7405167930156580
  0.6624056111301115  0.4933467871257022  0.8159834986320078
  0.5951582601839220  0.5909459288075709  0.9219319463444293
  0.4976097687718521  0.6687400616545034  0.9984843218004258
  0.4185368426052563  0.7600695109439144  0.0800763385392926
  0.4211996176280621  0.7475910771963825  0.2573172632618963
  0.3190526846785247  0.8259729503913960  0.3351127959226332
  0.2568702367381093  0.9215282717738233  0.4160225570945428
  0.1554560471766209  0.0106889834131323  0.4841876543737627
  0.0863234743122021  0.0846558187034532  0.5935373256763938
  0.9986106565397463  0.1627120202538350  0.6769221476478222
  0.9009318603701146  0.2589723827709349  0.7496629669212638
  0.8363244276295774  0.3330944154696738  0.8257061003761947
  0.7489427976326155  0.4241558115785082  0.9039093460252303
  0.6704183999277973  0.4926514012387884  0.9904887758397933
  0.5756942306961577  0.5739750935742549  0.0771324764401911
  0.4978061364759085  0.6645075016149846  0.1587564366735066
  0.4918980767403838  0.6558691542217687  0.3336613733090132
  0.4074776979784147  0.7525139705882324  0.4097173392612845
  0.3364191703716344  0.8297327913626660  0.5014129407964703
  0.2574539277435761  0.9295994034047723  0.5896637454400349
  0.1715550800843602  0.9968147101573166  0.6697570047689609
  0.0789590786023737  0.0780779459264309  0.7708066703716341
  0.0135801712836283  0.1752129051717617  0.8351512349901213
  0.9202075913892713  0.2618725570945415  0.9213188943988442
  0.8160510454666365  0.3415579333865324  0.9942744423544596
  0.7472204462114291  0.4312726316689464  0.0873681372548987
  0.6697243953298369  0.4994875455996350  0.1683581300349601
  0.5714903077025397  0.5890007058443558  0.2262306971044197
  0.1510060524015842  0.1652340306277580  0.8291910909712712
  0.0666913365443094  0.2703887748898026  0.9136981992894064
  0.9914428907318751  0.3483316532717708  0.0121847207972365
  0.9154110294117643  0.4342447175672604  0.0875343441252454
  0.8462601782185715  0.5093824374905012  0.1593090814523492
  0.7341074018657849  0.5840476259689922  0.2523190207478336
  0.6605563630490963  0.6652686963254268  0.3275725281197737
  0.5710291676166577  0.7461638475642189  0.4066211031311724
  0.4886954319615455  0.8559139625132985  0.4825888665640647
  0.4110301722336231  0.9308367267061897  0.5958857273141831
  0.3419034546473654  0.0141654753761955  0.6818972312471487
  0.2579255614455107  0.0795689200486365  0.7491805702804371
  0.2377477518429885  0.0857523331813326  0.9171659109477091
  0.1521670932132508  0.1804859130376926  0.0088225556695534
  0.0815574108907100  0.2787877887976862  0.0808378766719855
  0.9935038013945885  0.3321393311103478  0.1697730211658310
  0.9009372211772302  0.4349889392384867  0.2504239065587441
  0.8183253643220851  0.5133262216902281  0.3436576963634295
  0.7337601250190033  0.5988146864075077  0.4294045471386241
  0.6542469248745988  0.6741608607881133  0.5201798463862275
  0.5627275702044372  0.7584186939504463  0.5904914134936945
  0.4956143809849536  0.8434309056277556  0.6563071786175740
  0.4145775008549961  0.9095697256421929  0.7607593859249135
  0.3527644284845692  0.0061316613467071  0.8417361785605735
  0.3127710413816658  0.0051107035643696  0.9860951455388332
  0.2386299656102722  0.0895827804377589  0.0886709734572122
  0.1704769992590087  0.1739176119091042  0.1561629759461951
  0.0834365804073585  0.2523144717092265  0.2609975732444170
  0.0056380281957757  0.3251964313535467  0.3393559540773694
  0.9215213301793597  0.4194435809013513  0.4157991032071777
  0.8404079186616542  0.5026427382580962  0.4893195874183007
  0.7384870929282599  0.5793254683462550  0.5806057607539117
  0.6623567981456162  0.6525359681372578  0.6526775217548249
  0.5971498674760625  0.7631258079685352  0.7424775483546142
  0.5019939091237262  0.8447139601383213  0.8403490115329078
  0.4262994798791624  0.9176323101915216  0.9113479171416614
  0.4148256141700841  0.9240815440226484  0.0598607244642011
  0.3317990053579578  0.0041397828317358  0.1611560258017946
  0.2428603710670316  0.0981464033287764  0.2509677164082689
  0.1541722754218000  0.1618241426318576  0.3526311849255208
  0.0742611277359799  0.2473031981494174  0.4160519712342321
  0.0076198063915456  0.3479862716598277  0.5085239474084204
  0.9197097678218569  0.4301309274775775  0.5659580825353387
  0.8271878999468001  0.5044901937034538  0.6671138276143793
  0.7268233128135009  0.5658773303313609  0.7347969063497501
  0.6686379445964405  0.6509783002736000  0.8415766919364671
  0.5955437623498980  0.7514741687566513  0.9184560543015650
  0.5097584710822289  0.8274649144056880  0.9986488676090559
  0.4855472725718215  0.8430312704248379  0.1703514021887855
  0.3972467614759054  0.9100662700448368  0.2602456537847715
  0.3223087423050615  0.0165770562585479  0.3241653860769134
  0.2388644541343652  0.0678366112821109  0.4156182840287244
  0.1550849008207962  0.1518560737764076  0.4928126814485481
  0.1027006977694214  0.2508879341465260  0.6028096048981624
  0.9903741264819885  0.3309508103435164  0.6583646982824121
  0.9119185747263998  0.4196393092605248  0.7313051423088623
  0.8391065620725016  0.4991216527017812  0.8221208770329866
  0.7460668433652557  0.5766502507979965  0.9135924817601477
  0.6594557056543522  0.6523500892992828  0.0063211335309319
  0.5846304900060773  0.7634490918072672  0.0843926475338179
  0.5747519356095125  0.7531774771051829  0.2585222250721984
  0.4915204348115196  0.8408451369889036  0.3240405879502930
  0.3957092515009890  0.9231153818019422  0.4041868991298045
  0.3310016111871121  0.0041139582383352  0.4946643448852441
  0.2408050373347024  0.0792330792103684  0.5915832829837342
  0.1760911147210820  0.1555243473552181  0.6767138589641277
  0.0918320612935091  0.2577830051109586  0.7360745155038728
  0.9962651998784011  0.3269629308215514  0.8273310576265374
  0.9170735526865812  0.4210907043243637  0.9226983265883888
  0.8413881160700711  0.5071528993768055  0.9963072717168231
  0.7280527070033429  0.5888798231114123  0.0852896916324681
  0.6461494851041181  0.6810253486472106  0.1641946311179510
  0.2605619475794185  0.2231982391890881  0.7601432061293494
  0.1593709791571669  0.3278218626500973  0.8332769394094868
  0.0822032921986633  0.4093488030095784  0.9384287676698619
  0.9953549974350224  0.5001360151618783  0.0013016249620037
  0.9127606479898134  0.5829894987840092  0.0784524528803772
  0.8180670566385473  0.6606424513603883  0.1777106669896611
  0.7439087176052581  0.7634238490842051  0.2471945517935836
  0.6595100599445232  0.8427201954134347  0.3474044150896773
  0.5727771336829335  0.9303517779107793  0.4077605183158539
  0.4923600689694467  0.9868664139686913  0.4946993492552068
  0.4063943475452163  0.0764139439884488  0.5774525008549958
  0.3389655490006049  0.1568070128438990  0.6784319881440979
  0.3284531591997251  0.1578866046321608  0.8524925990842078
  0.2520137896146863  0.2496079148616843  0.9263186227010181
  0.1698280067259432  0.3274736082611369  0.0025761281159760
  0.0853240984572139  0.4144327144132873  0.0822588458542342
  0.0097588515541887  0.5127652345531217  0.1676910477466151
  0.9264462427800595  0.5902298487612114  0.2698635639914855
  0.8187421487878126  0.6784449902150769  0.3333739830331339
  0.7452358664880663  0.7590126738486092  0.4318188231494133
  0.6312481517897837  0.8372574070907461  0.4971442791457648
  0.5853183852029176  0.9279479651162816  0.5784694168946629
  0.4955529046017659  0.0040757257941948  0.6564165968422273
  0.4424688877488947  0.0869589508283966  0.7660456395348803
  0.4140639164386712  0.0931214978530193  0.9277247254521939
  0.3273156159750741  0.1620520434336541  0.0098838439542490
  0.2425017318361427  0.2635429125816984  0.0826686892004886
  0.1622640033629708  0.3369465078279390  0.1781812215002248
  0.0748015864873111  0.4097573382162949  0.2460363286593719
  0.0118316114721111  0.4829169934640518  0.3299606574897425
  0.9283719547993599  0.6096584288075704  0.4063755172708596
  0.8269851207440340  0.6588827106133124  0.5011299133606926
  0.7524629498213997  0.7597065577975357  0.5983067254711969
  0.6742628571971423  0.8365475979442181  0.6642176299589622
  0.5820264691632460  0.9276222901466795  0.7524989227086181
  0.5099259281425716  0.9986633079685348  0.8471276167540651
  0.4907798558861529  0.0079103335423341  0.0042700315397468
  0.4111561925254605  0.0837620549285631  0.0745461159560747
  0.3373227494680009  0.1822929334815342  0.1732261917654654
  0.2203364231836176  0.2371030423506610  0.2667531819995475
  0.1716826602637198  0.3496361652606765  0.3325941185970507
  0.0962229978910187  0.4231888884138897  0.4210602423430601
  0.9983265513375912  0.5088294701892409  0.4896806595797258
  0.9225581233850164  0.5876831072351436  0.5803684968270275
  0.8214003567221440  0.6682486315359455  0.6657074127906952
  0.7503262159902704  0.7441675634594915  0.7508080388356859
  0.6717569639192860  0.8311568879198958  0.8385576051641621
  0.5830619556543581  0.9215587959796352  0.9185167664158698
  0.6017814409484714  0.9023757728188144  0.0674611614607059
  0.5013854921910621  0.9961910748214038  0.1580847953716358
  0.4216010635164906  0.0931672447370389  0.2537594115747055
  0.3276694933690507  0.1797955127108963  0.3511342752508000
  0.2432531710746346  0.2486835437566484  0.4146689765731892
  0.1781345279487780  0.3370060063269520  0.5021403157774742
  0.0946293979898130  0.4260577343631269  0.5919996475528180
  0.0007860669364632  0.4827473708960355  0.6596783928978596
  0.9264654886760937  0.5789481337399280  0.7492684369775020
  0.8165450605145139  0.6606678204324368  0.8173606042901653
  0.7459403305023571  0.7405279478264148  0.9065395895082844
  0.6811928836069328  0.8147527834777293  0.9880583917578676
  0.6615468887748932  0.8105672874866983  0.1552398949308440
  0.5824665835423346  0.9091332701588399  0.2280236657356767
  0.4924499415754653  0.9774054881060934  0.3238644246846007
  0.4295014824631380  0.0819643463102295  0.4064395439086468
  0.3327604442164471  0.1676829001367963  0.4883689756231959
  0.2609006920694625  0.2447560547765590  0.5788002583979335
  0.1813741839565282  0.3375346324479409  0.6783895130338990
  0.0903454257865945  0.3932436569007436  0.7454734187376530
  0.0125313810989525  0.4841562708998310  0.8166093498251996
  0.9226085974312213  0.5839547528119766  0.9030917678408557
  0.8313743677800574  0.6556696748176023  0.9902925078849378
  0.7551783558481517  0.7420124287505701  0.0842619409294727
  0.3366869908040755  0.3249491222070233  0.6661258621181005
  0.2818374776751753  0.4038482543889614  0.7541571966674283
  0.1758263589641302  0.4901421559127499  0.8200364417084671
  0.0886338297043636  0.5605088881288935  0.9023981389648910
  0.0066746209530351  0.6434391406368718  0.9926921549627608
  0.9117691898464813  0.7229600133948964  0.0654196439428461
  0.8421457668338661  0.8160051665336709  0.1605827528879757
  0.7558927325581379  0.9034192720208267  0.2494145804833536
  0.6680925192848477  0.0134443147704815  0.3114221903974794
  0.5889739269835843  0.0704145158838756  0.4259492181562550
  0.4974261347659237  0.1420056415298703  0.5038078212874311
  0.4230340273027835  0.2429357980886167  0.5724363946838409
  0.4257667127413001  0.2334294796891641  0.7464417222412223
  0.3437570152188769  0.3119214532033752  0.8578763105145129
  0.2595731541647694  0.4145102200182365  0.9068616131820946
  0.1865874016757871  0.5036308381782959  0.0022798169364648
  0.0917390019379880  0.5779443047955581  0.0765712266301861
  0.9955137796397651  0.6650981527397803  0.1803824669402658
  0.9277928622321028  0.7556016221120245  0.2621497107273143
  0.8439720578735361  0.8353616853815140  0.3485044606893126
  0.7361742908306752  0.9261477043433644  0.4064554534313700
  0.6594326436388513  0.9923406112251101  0.4961823016415892
  0.5744026775535787  0.0797687509499951  0.5806444567943458
  0.5040787852447153  0.1518083290583689  0.6599887596899237
  0.5038175857843115  0.1643545514135880  0.8583535277967798
  0.4184864151086813  0.2321860930612587  0.9219121152530789
  0.3188232467890231  0.3416834487574079  0.9974275892042854
  0.2533159247225996  0.4187480035909701  0.0650326327139368
  0.1707964764781877  0.4966609006877931  0.1719632865937086
  0.0877044920390659  0.5906947246922059  0.2564307906786780
  0.0178753339223263  0.6894495668034679  0.3392303741070037
  0.9289483793129634  0.7492616516567878  0.4239014734382138
  0.8276297613619121  0.8533311934754551  0.4977503282223736
  0.7521781254749982  0.9389582188592485  0.5825727152682774
  0.6755471053731554  0.9957357795637662  0.6690245207288328
  0.5996013076645355  0.0758505452956371  0.7545019033097731
  0.5843825201398403  0.0759213168794659  0.9332202405380770
  0.4904378324973422  0.1748413469942207  0.9963571657926735
  0.4019110446116443  0.2585240766073866  0.0801676228340185
  0.3245602675178603  0.3257983954628330  0.1735847079723385
  0.2498371185780499  0.4163025227048180  0.2558249506003918
  0.1760092918756655  0.5099671340629257  0.3384592477010173
  0.0743581357349115  0.5992263717890225  0.4214035562965464
  0.0162343878248947  0.6698282057493543  0.5146637549399600
  0.9137965429776571  0.7383574479404160  0.5884178261323925
  0.8447868350053227  0.8439212385050894  0.6706576455388387
  0.7487677249581992  0.9152094006497933  0.7413352751177982
  0.6830787078203358  0.9993176304339570  0.8432662785947684
  0.6762424907850715  0.9918331675596619  0.0015218659750715
  0.5895257267441849  0.0856284712722299  0.0663360716864290
  0.4938647187072505  0.1638203065625490  0.1622311341009279
  0.4278772586069337  0.2398884328925348  0.2605518030855762
  0.3240144465344272  0.3256778884518923  0.3284488676090618
  0.2513210371067061  0.4238215501026019  0.4122330051109557
  0.1596650464546272  0.5133716636266925  0.5141514055137577
  0.0830075814143498  0.5918192439960492  0.6044125816993500
  0.0058355249658035  0.6814951873384985  0.6697192363961122
  0.9002972312471513  0.7576849654202746  0.7657803384822941
  0.8193305693304467  0.8344679605563172  0.8396428437072530
  0.7581613053845544  0.9270215781273734  0.9310651656786746
  0.7516862289101667  0.9089712670048655  0.0812667369661071
  0.6603085480316153  0.9847773417312666  0.1606731000152024
  0.5697278324023429  0.0587824184906509  0.2484469956490329
  0.5107906216750280  0.1546568983698151  0.3181263119395012
  0.4378541186920515  0.2364540616925055  0.3967515052629551
  0.3266882324441411  0.3262579447864411  0.4859833718080253
  0.2594106969144221  0.4184899562053488  0.5930613006345951
  0.1788884575923362  0.5096053707820332  0.6722722141472843
  0.0843275716294301  0.5751808510031893  0.7411072650668800
  0.0121472264971914  0.6656923805859520  0.8180407304491553
  0.9050273564561451  0.7229972388470927  0.9091524975300231
  0.8427745573035423  0.8183372093023280  0.9924915008929958
  0.4047229570413435  0.3916990699574399  0.5931512957896317
  0.3478403024775787  0.5026826531387769  0.6757148365063088
  0.2603336145310848  0.5824032940986470  0.7522155015009915
  0.1654032109743113  0.6670163184944542  0.8302268239854058
  0.0911491355069174  0.7506424247605992  0.9149255186958527
  0.0066775654544742  0.8107244162296681  0.9980615542825646
  0.9179331879844952  0.9113659104727176  0.0763101962684303
  0.8319830934602521  0.0003470241488088  0.1684349093707240
  0.7436618654050733  0.0902163593441259  0.2448322451170384
  0.6660627522229845  0.1477494618293065  0.3221068722450227
  0.5874459045827649  0.2399441252469998  0.4122979921910641
  0.4933177833827358  0.3221334758321959  0.4856341674266602
  0.4902824498404001  0.3306687970246216  0.6665009433424558
  0.4332885863163085  0.4005964983280137  0.7593616535567733
  0.3461353501672022  0.5081595687984475  0.8320121789025663
  0.2578296801375615  0.5888438910738714  0.8782202201132421
  0.1689183638280909  0.6576647429320559  0.9948994680042560
  0.0921345531235715  0.7417446847925220  0.0709586601307208
  0.0101817401960815  0.8254551698586425  0.1409246884024924
  0.9277899467054240  0.9154465458276348  0.2283167426660597
  0.8386741131820941  0.0083074417654672  0.3261567482710106
  0.7537431781045782  0.0781978273673829  0.4114542911156747
  0.6615964042787681  0.1527268515351849  0.4991876876234969
  0.5625233911878738  0.2485521740576075  0.5711443123955036
  0.5651516786365676  0.2294398260563923  0.7591284608223106
  0.4885632025193800  0.3131047380870982  0.8414825054149588
  0.4260103596671243  0.4270276642536857  0.9281936958504318
  0.3275533301983558  0.5101279440264506  0.9887832093593261
  0.2435584364075112  0.5891674314105515  0.0819675131098947
  0.1468085969562267  0.6538611063611484  0.1709920229138149
  0.1032264021887812  0.7525919725642183  0.2518081656596749
  0.0083145643334888  0.8355010008169970  0.3289435733014159
  0.9237838107045135  0.9346154293015658  0.4172884575923419
  0.8275928907318715  0.0024891249619969  0.4903099991450048
  0.7528569202196351  0.0748045993882016  0.5739295713634291
  0.6684218892498848  0.1727831091351248  0.6499215672024619
  0.6704091783515764  0.1752094961240331  0.8466738923088641
  0.5954993858299105  0.2711668932398510  0.9308692420960654
  0.4873935623765036  0.3244110412866732  0.0137889121637045
  0.4116203977618156  0.4162661907204708  0.0907155124259020
  0.3354058913778672  0.4899950315397490  0.1545437704248371
  0.2486361861605104  0.5845055954552336  0.2350434132276931
  0.1623497653518768  0.6720086363809088  0.3529349905950738
  0.0790687680498579  0.7677844628742960  0.4354910496466005
  0.9813780841503288  0.8436661294459640  0.5077489816081453
  0.9205034223476218  0.9368397866317082  0.5949309631022928
  0.8346892669858619  0.0124281530247785  0.6617773436312504
  0.7482248161764673  0.1039851449688385  0.7415517323111445
  0.7573744599293235  0.0821827243882041  0.9150711192810448
  0.6596500726744168  0.1729963881288938  0.9975286916704675
  0.5890099910700712  0.2690776609287155  0.0854627108983124
  0.4950531957744317  0.3266947004673995  0.1815180351307220
  0.4054614763831879  0.4059360868863067  0.2707782024243812
  0.3312262326151370  0.5036407370991043  0.3525379512463900
  0.2554850499696002  0.6024707772837843  0.4545777051033610
  0.1500128761969890  0.6824444591693251  0.5207318261703904
  0.0820937594999265  0.7661558058785545  0.5971458257333921
  0.9857052249582026  0.8554324982900141  0.6899103511171916
  0.8916632884936888  0.9280585114569107  0.7716549803351569
  0.8259663645690836  0.0001186398008812  0.8462682688288510
  0.8486284384974923  0.9876132457440363  0.0175418504901970
  0.7485292882656935  0.0788780851003210  0.0734252721728197
  0.6494795314637472  0.1514878168224669  0.1522210518315887
  0.5907877298981603  0.2455139534883699  0.2525411565207492
  0.5251140066879429  0.3245032722488190  0.3349463895538847
  0.4228126776485794  0.3959376971234221  0.4143558429282592
  0.3434243316803460  0.4900222274471773  0.5097153409522690
  0.2696397353321203  0.5841298022115851  0.5966045547385619
  0.1664263679890539  0.6677198890408889  0.6635252009233952
  0.0866286764705890  0.7629714270785826  0.7471101696686446
  0.9892057089793269  0.8325680113809071  0.8386394683842511
  0.9292862954096393  0.9138215410776738  0.9360327880376929
 
  0.00000000E+00  0.00000000E+00  0.00000000E+00
  0.00000000E+00  0.00000000E+00  0.00000000E+00
  0.00000000E+00  0.00000000E+00  0.00000000E+00
  0.00000000E+00  0.00000000E+00  0.00000000E+00
  0.00000000E+00  0.00000000E+00  0.00000000E+00
  0.00000000E+00  0.00000000E+00  0.00000000E+00
  0.00000000E+00  0.00000000E+00  0.00000000E+00
  0.00000000E+00  0.00000000E+00  0.00000000E+00
  0.00000000E+00  0.00000000E+00  0.00000000E+00
  0.00000000E+00  0.00000000E+00  0.00000000E+00
  0.00000000E+00  0.00000000E+00  0.00000000E+00
  0.00000000E+00  0.00000000E+00  0.00000000E+00
  0.00000000E+00  0.00000000E+00  0.00000000E+00
  0.00000000E+00  0.00000000E+00  0.00000000E+00
  0.00000000E+00  0.00000000E+00  0.00000000E+00
  0.00000000E+00  0.00000000E+00  0.00000000E+00
  0.00000000E+00  0.00000000E+00  0.00000000E+00
  0.00000000E+00  0.00000000E+00  0.00000000E+00
  0.00000000E+00  0.00000000E+00  0.00000000E+00
  0.00000000E+00  0.00000000E+00  0.00000000E+00
  0.00000000E+00  0.00000000E+00  0.00000000E+00
  0.00000000E+00  0.00000000E+00  0.00000000E+00
  0.00000000E+00  0.00000000E+00  0.00000000E+00
  0.00000000E+00  0.00000000E+00  0.00000000E+00
  0.00000000E+00  0.00000000E+00  0.00000000E+00
  0.00000000E+00  0.00000000E+00  0.00000000E+00
  0.00000000E+00  0.00000000E+00  0.00000000E+00
  0.00000000E+00  0.00000000E+00  0.00000000E+00
  0.00000000E+00  0.00000000E+00  0.00000000E+00
  0.00000000E+00  0.00000000E+00  0.00000000E+00
  0.00000000E+00  0.00000000E+00  0.00000000E+00
  0.00000000E+00  0.00000000E+00  0.00000000E+00
  0.00000000E+00  0.00000000E+00  0.00000000E+00
  0.00000000E+00  0.00000000E+00  0.00000000E+00
  0.00000000E+00  0.00000000E+00  0.00000000E+00
  0.00000000E+00  0.00000000E+00  0.00000000E+00
  0.00000000E+00  0.00000000E+00  0.00000000E+00
  0.00000000E+00  0.00000000E+00  0.00000000E+00
  0.00000000E+00  0.00000000E+00  0.00000000E+00
  0.00000000E+00  0.00000000E+00  0.00000000E+00
  0.00000000E+00  0.00000000E+00  0.00000000E+00
  0.00000000E+00  0.00000000E+00  0.00000000E+00
  0.00000000E+00  0.00000000E+00  0.00000000E+00
  0.00000000E+00  0.00000000E+00  0.00000000E+00
  0.00000000E+00  0.00000000E+00  0.00000000E+00
  0.00000000E+00  0.00000000E+00  0.00000000E+00
  0.00000000E+00  0.00000000E+00  0.00000000E+00
  0.00000000E+00  0.00000000E+00  0.00000000E+00
  0.00000000E+00  0.00000000E+00  0.00000000E+00
  0.00000000E+00  0.00000000E+00  0.00000000E+00
  0.00000000E+00  0.00000000E+00  0.00000000E+00
  0.00000000E+00  0.00000000E+00  0.00000000E+00
  0.00000000E+00  0.00000000E+00  0.00000000E+00
  0.00000000E+00  0.00000000E+00  0.00000000E+00
  0.00000000E+00  0.00000000E+00  0.00000000E+00
  0.00000000E+00  0.00000000E+00  0.00000000E+00
  0.00000000E+00  0.00000000E+00  0.00000000E+00
  0.00000000E+00  0.00000000E+00  0.00000000E+00
  0.00000000E+00  0.00000000E+00  0.00000000E+00
  0.00000000E+00  0.00000000E+00  0.00000000E+00
  0.00000000E+00  0.00000000E+00  0.00000000E+00
  0.00000000E+00  0.00000000E+00  0.00000000E+00
  0.00000000E+00  0.00000000E+00  0.00000000E+00
  0.00000000E+00  0.00000000E+00  0.00000000E+00
  0.00000000E+00  0.00000000E+00  0.00000000E+00
  0.00000000E+00  0.00000000E+00  0.00000000E+00
  0.00000000E+00  0.00000000E+00  0.00000000E+00
  0.00000000E+00  0.00000000E+00  0.00000000E+00