Li 
 1.0000000000000000
    21.0527999999999977    0.0000000000000000    0.0000000000000000
     0.0000000000000000   21.0527999999999977    0.0000000000000000
     0.0000000000000000    0.0000000000000000   21.0527999999999977
 Li 
 432
Cartesian
  0.0774976900000000 -0.1020041600000000  0.0807853900000000
 19.4514787099999999  1.6420827300000000  1.9536948300000001
 17.7274609800000000  3.2647194300000000  3.5010738300000002
 15.7365349800000001  5.0817636300000002  5.3276512100000000
 14.1483659900000003  7.0081474500000001  6.7408781700000002
 12.1900832200000000  8.1253751100000002  8.8436886700000006
 10.6480907600000005 10.1545008400000007 10.3237824299999996
  9.1298660999999992 12.1681064100000000 12.4720643500000001
  7.0761791000000001 13.9116411200000005 14.3844215299999991
  5.2099959000000000 16.1183361400000003 15.6516827799999998
  3.4481117800000001 17.6284587899999998 17.3621512699999982
  1.6171370199999999 19.3248522600000001 19.3004857799999989
  1.9664631100000001 19.0332778599999983  1.4597868400000000
  0.4496327100000000 -0.1318751400000000  3.3045872500000000
 19.7309272900000003  1.7181375900000000  4.8985050299999999
 17.7502593500000003  3.4468286199999998  7.1331687300000004
 15.5982452800000004  4.9951390299999998  8.2301983799999991
 13.9038431899999999  7.0228909000000002 10.2320320900000006
 12.2682743900000002  8.6318176900000001 12.0313382499999992
 10.4389804300000009 10.2162436700000008 14.3860482899999997
  9.0327770500000000 12.5277916999999999 16.1179939800000014
  7.1662126500000003 14.2620147300000006 17.3542878300000005
  5.2859081899999998 15.7907491199999992 19.1541484799999999
  3.8173540400000001 17.4704163600000015 -0.1606825100000000
  3.8123050500000000 17.4647947200000004  3.1219804899999999
  1.8821869099999999 19.4424263099999983  5.4058444600000000
  0.3445865000000000  0.4751305500000000  6.8313489299999999
 19.6718995399999983  1.9688788800000001  9.2185742200000007
 17.6463485599999998  3.3904742300000001 10.2259140100000003
 15.9903546900000002  5.3368053599999996 12.1529261399999999
 13.7378279899999995  6.4905566500000003 14.0112094099999993
 12.0848930200000009  8.0882057500000002 15.9690035600000009
 10.3753114600000007 10.4513424599999993 17.5372111199999985
  8.8629691499999996 12.3637640399999995 19.2044584100000009
  7.1043457500000002 14.1070417500000005 20.9116518700000000
  5.3130490799999999 15.5708304700000006  1.4912993000000001
  5.4304169399999997 15.5313964200000001  5.1382526700000000
  3.5680099200000002 17.6561200300000003  7.2061101299999999
  1.4738650499999999 19.5713631200000009  9.0434552600000000
 -0.1457418300000000  0.5025276900000000 10.6882380799999996
 19.1703697700000006  1.8961476399999999 12.1032378900000008
 17.5710174700000010  3.6337403300000002 13.7723238000000006
 15.5363629499999991  5.1283552400000003 15.6917497400000006
 14.0861445199999995  6.5809474999999997 17.6455115800000009
 12.0145323800000003  8.9632482200000005 19.3813384800000001
 10.4031021300000006 10.4593181200000007 -0.1305809800000000
  8.5239699499999997 12.2406243299999993  1.6813390800000001
  7.2515796000000003 14.1133049899999996  3.4475873600000000
  6.9065871599999999 14.0597950199999993  7.1544653800000004
  5.1181672599999999 15.4378069999999994  8.7977454599999998
  3.5413503500000001 17.6373348999999990 10.7652281900000002
  1.6882586900000001 19.3738292100000002 12.0920448199999999
 -0.1715663500000000  0.1990284000000000 14.2159652399999992
 19.2491826000000010  1.6708676400000000 15.9092622200000005
 17.7579490299999989  3.6680805799999998 17.3323356000000004
 15.8651215200000006  5.3662036799999999 19.4294918800000005
 14.2322421499999994  7.3510618299999999 -0.0071462200000000
 11.9926533600000003  8.7700048499999994  1.8599664000000000
 10.2639885900000003 10.6678315200000000  3.4398804400000000
  8.3901369599999995 11.9607893799999996  5.4969755100000004
  8.9199110600000004 12.3994088199999997  9.1475668100000007
  7.1280240800000003 14.2962385300000001 10.7973668899999993
  5.4923325099999998 15.5784178299999994 12.4887955000000002
  3.7016222999999999 17.8192428199999995 13.8365976699999997
  1.7229185199999999 18.9937813499999990 15.9758820000000004
  0.0830251500000000 -0.1053727900000000 17.9906718000000012
 19.4539955599999992  1.6981640000000000 19.1563745300000008
 17.8195044399999993  3.6348178400000002 21.0670674700000014
 15.6592275099999991  5.0345510800000000  1.8567393299999999
 13.9657197600000007  7.0987142800000003  3.4627202000000001
 12.1795920899999999  9.0030968300000005  5.3315914400000004
 10.2845437400000002 10.6219309099999997  7.3241802700000003
  1.7637281899999999  1.7809127300000001 19.3987085599999993
 -0.1125126400000000  3.5912576199999999  0.2207077700000000
 18.9984175600000000  5.4975929900000002  1.7007700600000000
 17.5000384500000017  7.0050158500000004  3.5638774099999999
 15.9769251299999997  8.7281629899999995  5.0556012800000003
 13.9725407500000003 10.7410904699999996  7.1175399199999996
 12.3896327999999993 12.3760001000000006  8.7195919899999996
 10.3899051000000000 14.2203140500000007 10.6025062800000001
  8.8222706899999999 15.7860031999999997 12.5720549100000003
  6.9759628600000001 17.4577995500000007 13.8362707799999995
  5.4228720099999999 19.3191186200000011 15.8611020400000005
  3.6448281400000000 -0.3351866600000000 17.5699234599999983
  3.5537140500000000 -0.2078378800000000 -0.0183333500000000
  1.5428222100000000  1.7654187100000001  1.6083214699999999
  0.1665560100000000  3.9512548800000000  3.3591538999999999
 19.1211771900000009  5.5379631299999996  5.1842404799999997
 17.6947854900000010  7.0008444599999997  6.9762524499999996
 15.7915025399999998  8.7297714299999996  8.9130224899999995
 13.9511284999999994 10.5314300200000002 10.1877151099999992
 12.0603006900000000 11.7578092099999996 12.1107922400000003
 10.6722667199999997 14.0465488900000004 14.1811190800000002
  9.0569223799999996 16.3737873200000017 15.7242457200000008
  7.0551626799999996 17.6278905899999998 17.5192125099999991
  5.3710069100000002 19.1483812700000016 19.2152025600000016
  5.6762434500000003 19.1068274600000017  1.4689963200000000
  3.3316533800000001 -0.2214102100000000  3.3255341299999999
  2.0261343799999998  2.0442681999999999  5.1774849800000000
 -0.3561646200000000  3.4156017300000001  6.7252664800000002
 19.5399601199999999  5.1009009799999996  8.8412201800000005
 17.4768180899999983  6.8837229899999999 10.4722101599999995
 15.7406362099999999  8.7138968800000001 12.0158380499999993
 13.7735737399999998 10.3675711800000006 13.8687559799999995
 12.2325852800000003 12.4570784499999991 15.3452836599999998
 10.9020014500000002 14.3488908899999998 17.7670978800000015
  8.8306090099999999 15.9704355400000004 19.0013397499999996
  7.2111540900000000 17.4955709500000012 20.9539749499999992
  7.0907484399999996 17.5178748400000011  3.5692089100000000
  5.3844515499999996 19.3974705699999994  5.1577634300000001
  3.4018562100000000  0.1779921900000000  7.1432255900000001
  1.3910412999999999  1.9256733900000000  8.8666569899999992
  0.3078914800000000  3.4870699799999998 11.1593020299999992
 19.2266232899999991  5.3615855200000002 12.3448582600000005
 17.5409195199999992  6.9389909999999997 13.7190923500000004
 15.7642263800000002  8.4172235799999999 15.5899519400000006
 13.9454928500000008 10.3863312400000005 17.1787373999999993
 12.5297478200000008 12.4410664499999992 19.4092488799999998
 10.4760789400000007 14.0788507700000007 21.0208907300000014
  8.8113724399999995 16.0015913999999988  1.6858311399999999
  8.8674313100000006 15.7388854299999998  5.4172488799999998
  6.7169523599999996 17.3890433299999998  7.0550626699999999
  5.4078377199999998 19.4007503999999997  8.7584396899999994
  3.2727850699999999  0.2250330300000000 10.1935058499999993
  1.8173508400000000  1.7822420200000000 12.4956226099999999
 -0.0292495700000000  3.4255436200000000 14.2511065899999991
 18.9671382699999995  5.4520937800000002 15.7825045100000008
 17.6069709100000011  7.0125701100000004 17.3834253899999993
 15.7673429299999999  8.9296674700000001 19.0298226799999988
 14.1141844899999995 10.3716914199999994 20.8525621000000001
 12.1199755000000007 12.0837828500000004  1.6238546000000000
 10.4802130299999998 13.9897435300000001  3.3422675100000001
 10.3558318299999996 13.8078821299999994  7.0245061599999996
  8.5785464800000000 15.8425261200000005  8.6256971999999994
  7.0825655100000002 17.4681985100000006 10.5561463599999996
  5.4201260500000004 19.5706703200000014 12.4140729000000007
  3.6117147900000002 -0.0670592700000000 14.1002602699999997
  1.6623096900000001  1.6437593800000001 16.2276386700000010
  0.2859006300000000  3.6887222500000001 17.5822719200000002
 19.3729463799999984  5.5131505699999996 19.3963424199999999
 17.1801594500000014  7.1907508599999996 20.9322609799999988
 15.7310826099999996  9.0794964599999997  1.8393439199999999
 14.0995737499999994 10.5156113999999992  3.5444100399999998
 12.0314711499999998 12.4001140599999999  4.7627896200000004
  3.1791002200000000  3.4786389999999998 17.4567942000000009
  1.4040393700000000  5.6924408000000000 19.2359054500000006
 -0.1801511100000000  7.3333566299999999  0.2565224900000000
 19.2719653199999996  9.1420671900000006  1.8428430400000000
 17.8161462800000017 10.7239265800000005  3.3539022300000001
 15.4550163099999995 12.2958378600000007  5.3120218799999996
 13.9065610000000000 14.0057688099999993  6.8963189199999997
 12.0217628600000008 15.7088382499999994  8.5605127599999999
 10.2884071899999991 18.0193854699999996 10.1598468900000007
  8.6533360100000003 19.5967194400000011 12.5450630400000005
  7.1980250500000000 21.3510229199999984 14.3558460300000004
  5.4300552599999996  1.6751485600000000 15.7723487099999993
  5.0052558700000001  1.8053267200000001 19.3089104899999988
  3.2035433800000002  3.7997338300000001  0.1857395000000000
  1.7170118599999999  5.8692635600000003  1.7018636500000000
 -0.1367631700000000  6.9924629100000004  3.5741974600000002
 18.9672511300000011  9.1577351399999998  5.2721244199999999
 17.2280402300000013 10.8069542799999994  7.2349567500000003
 15.4477051599999999 12.6067258300000002  9.0401680500000001
 13.7737296600000008 14.1929737700000000 10.9512422699999998
 11.8469909900000001 15.9668370799999995 12.4314976300000009
 10.4340704399999993 17.7565821700000015 13.8171037699999992
  8.7280172100000009 19.1489895200000007 16.0161152000000016
  7.4266789600000003 21.1818886400000004 17.7209034199999991
  6.5847061800000004  0.1075946200000000 -0.2927361200000000
  5.0238289399999996  1.8859683599999999  1.8667722700000000
  3.5890181700000001  3.6614526999999999  3.2876679000000002
  1.7565736400000000  5.3119261099999999  5.4947297099999997
  0.1186962800000000  6.8462954299999996  7.1443930299999998
 19.4006042600000015  8.8304618200000000  8.7537353600000003
 17.6929398300000003 10.5820370399999995 10.3015474099999995
 15.5472210700000009 12.1964232199999998 12.2233769599999995
 13.9444651999999998 13.7377092300000001 13.7406893300000004
 12.5716767300000001 16.0659350100000005 15.6312313300000003
 10.5683773700000003 17.7835940599999986 17.6916996699999984
  8.9747976900000008 19.3187294999999999 19.1864254299999999
  8.7332406900000006 19.4545039300000013  1.2602358600000001
  6.9852980999999996  0.0871540200000000  3.3927855800000000
  5.1128908199999996  2.0662566000000000  5.2835731399999997
  3.2457580799999999  3.4068513100000000  7.4238738099999999
  1.5634046699999999  5.2064247699999999  8.7590589399999992
  0.1604182600000000  7.3260853800000003 10.7058529599999996
 19.3624657999999989  9.0554603900000004 11.9150023199999993
 17.4146214199999996 10.6209311500000005 14.0446139900000002
 15.3016658400000001 11.9133022600000000 15.4695323100000000
 14.0767009200000004 13.7049159599999992 17.7175457799999982
 12.5378637200000007 15.8206353800000006 19.3360716199999985
 10.7318431400000005 17.4204533499999989 21.0243548800000006
 10.2221296200000005 17.7481687299999997  3.5863740000000002
  8.3631566199999998 19.1594431699999994  5.4788997000000004
  6.7855014899999997  0.3489934500000000  6.8245890400000002
  5.0287655800000000  1.4281506100000001  8.7499286099999996
  3.2649713999999999  3.1969955500000000 10.3750868199999999
  2.1621372499999998  5.2818934999999998 12.6908300500000006
 -0.2026515900000000  6.9674412200000004 13.8604203199999994
 19.1984393699999991  8.8345824499999992 15.3960208999999999
 17.6655426300000009 10.5079083299999994 17.3079463999999987
 15.7067960400000004 12.1401024000000000 19.2336798000000009
 13.8833890800000006 13.7337959600000001 21.1858775600000016
 12.3081087799999995 16.0727410400000004  1.7767015300000000
 12.1001375499999995 15.8564947899999993  5.4426167000000003
 10.3478814099999994 17.7021444999999993  6.8219616900000002
  8.3307877300000008 19.4341635100000012  8.5092659499999996
  6.9685107200000003  0.0866103400000000 10.4140695200000000
  5.0696202899999996  1.6680781700000000 12.4544845399999993
  3.7072110199999999  3.2742229799999998 14.2467215300000003
  1.9333220200000001  5.4270540499999997 15.4964295599999993
 -0.0786280000000000  6.8834851900000000 17.4176352899999998
 19.3069660899999995  8.8651383799999994 19.4253833299999989
 17.7135757299999987 10.6769885599999999 20.9750577299999996
 15.3275480300000009 12.3975691399999999  1.7955868200000000
 13.6032558800000007 14.3374904599999997  3.4567567299999999
  5.4855585700000002  4.6989478900000003 16.0031428899999995
  3.3552053499999999  6.9015681100000004 17.5428127499999995
  1.7306094700000001  8.6179384799999994 19.7565531599999993
 -0.0977903100000000 10.5292635000000008  0.0274028500000000
 19.2161673700000009 12.2735613200000007  1.6516438000000000
 17.2226021299999985 13.9083734000000003  3.7413071300000000
 15.6613614499999994 16.0722096100000016  5.2041374600000001
 13.8845333899999996 17.7416197300000000  7.3138356699999996
 12.0585624399999993 19.5865099100000002  8.5845006399999999
 10.3655580599999997 -0.2764987600000000 10.4148064599999994
  8.5557389199999996  1.6087274800000000 12.1569920099999997
  7.1361739100000001  3.3012266800000001 14.2828929599999999
  6.9148586700000001  3.3239551100000000 17.9473561900000007
  5.3055959100000001  5.2549455099999998 19.5016007000000009
  3.5753550600000001  6.8942363799999997  0.0542347100000000
  1.7963111800000000  8.7249690500000003  1.7317790300000000
  0.2054511500000000 10.7951439300000001  3.5303660899999998
 19.5042874600000005 12.4259909600000000  5.6813836400000000
 17.2368147100000009 14.2831666899999998  7.0184557900000000
 15.6893016500000009 15.9793420200000007  9.0909953199999993
 13.2895410900000002 17.6266127399999988 10.4662790799999996
 12.3225908999999998 19.5359029200000016 12.1784009399999995
 10.4327761900000002 21.1386054399999992 13.8194073300000007
  9.3152089999999994  1.8307294000000001 16.1274056399999992
  8.7172048199999992  1.9604682700000000 19.5312030999999990
  6.8909102000000004  3.4116492599999999  0.2080825900000000
  5.1053404599999999  5.5483162300000002  1.7404073799999999
  3.4161116100000002  7.0936674399999999  3.7512136200000001
  1.5747828399999999  8.6265392900000002  5.1797536199999996
  0.2490885500000000 10.1667548799999992  6.9465957300000003
 19.5448290900000003 12.8350169699999999  8.5553424899999992
 17.4103523500000001 13.8713259299999994 10.5501878399999995
 15.8414519899999995 15.9939502200000003 12.5960318299999994
 14.1951210799999998 17.6116692700000002 13.9836409199999991
 12.2532868500000003 19.5290465500000003 15.8422093200000003
 10.7353685799999994 -0.0281411100000000 17.8344082899999989
 10.3322901500000004  0.1665346700000000  0.0898961200000000
  8.6559890900000003  1.7634257900000001  1.5694044700000001
  7.1015883799999999  3.8377766699999998  3.6468963699999999
  4.6386986500000003  4.9916829299999996  5.6159013900000003
  3.6144007100000000  7.3608202599999997  7.0020374600000004
  2.0257635299999999  8.9093110299999996  8.8644970700000005
 -0.0352307800000000 10.7122850700000001 10.3091489900000006
 19.4224316600000009 12.3723749200000004 12.2183818899999999
 17.2927774300000010 14.0685047900000004 14.0150050200000003
 15.7964677600000005 15.6668108799999999 15.8066114800000008
 14.1423650100000007 17.4981797300000004 17.6539855500000016
 12.2750867400000008 19.4013930200000004 19.3373497800000003
 12.6691843199999994 18.9975366699999988  1.4202463400000001
 10.5555684900000006 -0.0801885400000000  3.3281275799999999
  8.8758828699999999  1.9614313699999999  5.3423461400000001
  6.8983603100000002  3.7851989700000002  7.3923596700000003
  5.1211603600000002  5.2354849100000003  8.7299430299999994
  3.7502305900000001  7.0949200499999998 10.5714596400000005
  1.9922137900000001  8.9697082699999999 12.4632501799999993
  0.0165489100000000 10.1631838499999994 13.8880772700000001
 19.5046926399999982 12.1884792700000002 15.7741985499999995
 17.1905598499999996 13.9089074900000007 17.2077293299999994
 15.7041325900000004 15.5901867799999998 19.0851966699999984
 14.3410175399999993 17.1528273999999996 -0.2514042900000000
 13.9274143400000003 17.0647109899999982  3.2682344600000000
 12.2625524899999991 19.1398009100000017  4.8005366299999999
 10.3674501299999999 -0.4756777400000000  6.8182529599999997
  9.0422088100000000  1.7255789900000000  8.5566904299999997
  7.0055390800000001  3.5301945600000000 10.2815343699999993
  5.4926900900000000  5.1528002700000002 12.1853660799999997
  3.8184344200000000  7.1060491099999998 14.2819987400000006
  1.9020241800000000  8.2788800600000005 15.6943027900000001
  0.2638206600000000 10.1928451399999993 17.1919133200000012
 19.4234942799999999 12.2938826199999998 19.0126103700000009
 17.5027582899999992 13.8036825299999997 -0.2043698900000000
 15.8986188899999998 15.6214392600000007  1.7739497900000001
  7.0882038800000000  6.8410888800000000 14.0238145500000009
  5.9334680500000001  8.5021365299999996 15.8771206300000003
  3.7016371700000001 10.3188647800000002 17.2640631999999989
  1.8659902900000001 11.8002815200000004 18.9980075399999997
  0.1405194600000000 13.5461955399999994 -0.1538506000000000
 19.1952944000000016 15.2203325700000001  1.3772666800000000
 17.7295264000000010 17.1791935699999989  3.3807165800000001
 15.9136585200000003 19.0195052500000017  5.2508752799999998
 14.0652181899999995  0.2830404700000000  6.5563090900000001
 12.3995502900000005  1.4824227200000000  8.9674236999999994
 10.4722129299999995  2.9896163699999998 10.6065652999999998
  8.9060507700000002  5.1144787699999998 12.0513889299999999
  8.9635814499999995  4.9143441499999998 15.7146882899999998
  7.2370476899999998  6.5668199700000001 18.0606983899999989
  5.4647417000000003  8.7266007600000002 19.0919761699999988
  3.9281872500000001 10.6028393100000002  0.0479965300000000
  1.9313628599999999 12.1673458599999993  1.6120387199999999
 -0.0944475000000000 14.0021783899999992  3.7975560000000002
 19.5326375699999986 15.9075298299999996  5.5189854299999999
 17.7679749399999984 17.5867024900000004  7.3369947099999999
 15.4985301100000008 19.4980023899999999  8.5570253699999999
 13.8829035600000008 -0.1612515800000000 10.4460267600000005
 12.0927846900000002  1.6793555600000001 12.2241916199999991
 10.6122698500000006  3.1959903900000000 13.8946113600000007
 10.6067708700000001  3.4601234999999999 18.0707451500000005
  8.8103107999999999  4.8881673799999996 19.4088313799999987
  6.7121220499999996  7.1933933100000003 -0.0541564500000000
  5.3330095000000002  8.8158179699999994  1.3691190099999999
  3.5957440599999999 10.4561026100000003  3.6203086799999999
  1.8464251300000001 12.4357778999999997  5.3985861499999999
  0.3763258300000000 14.5148438399999993  7.1417492200000003
 19.5569644400000016 15.7740556999999999  8.9243129400000001
 17.4239238400000005 17.9650109499999999 10.4790381099999994
 15.8354556399999993 19.7676995899999994 12.2647868599999992
 14.2221580999999997 -0.0897737800000000 14.0848394300000006
 12.6232864100000004  1.5968663599999999 15.8843776699999992
 12.3028883199999992  1.5983563000000001 19.6468990800000007
 10.3250896000000001  3.6808999099999999 -0.0766918600000000
  8.4613528400000000  5.4426556799999997  1.6877529300000000
  6.8329024000000000  6.8589684599999998  3.6544441399999998
  5.2597708900000004  8.7643337500000005  5.3858315200000000
  3.7054884200000000 10.7362360799999994  7.1255148500000001
  1.5654469600000001 12.6153929599999994  8.8717247900000000
  0.3417793200000000 14.1017592500000006 10.8351130999999992
 19.2379758599999988 15.5444916800000001 12.3878428100000004
 17.7851282799999986 17.7669050499999983 14.1192212799999997
 15.7636571599999993 19.2677204700000004 15.6071832799999992
 14.3807194200000001 -0.0143657900000000 17.7531163099999993
 14.2367979099999999 -0.1719346900000000  0.0320395400000000
 12.4111672199999994  1.8027190799999999  1.3965600499999999
 10.3972351500000002  3.4488761499999998  3.4154196200000002
  9.0080143499999998  5.0503232000000002  5.4853449999999997
  6.8214113400000000  6.8564314499999996  6.9147683200000003
  5.2910115299999996  8.9226303300000005  8.6786590100000005
  3.3613962900000001 10.8079109599999992 10.8243267099999994
  1.7475420100000001 12.4594521799999995 12.7245772000000006
  0.1228541400000000 14.3473818800000004 14.0994651399999995
 18.9537775500000016 15.9513900399999997 16.1218203100000004
 17.2492026100000011 17.5678870799999984 17.6768328600000011
 15.9614183300000008 19.5163998800000016 19.6015287200000010
 15.8250998400000000 19.1363902900000014  1.7108923599999999
 13.9013437999999994 -0.3204795800000000  3.3826186400000000
 11.9943661099999996  1.2375345000000000  5.2305049099999996
 10.7535728000000006  3.2559607499999998  6.6974496200000004
  9.2180551899999994  4.9780200700000004  8.3527300899999997
  6.8777020200000001  6.8686432599999998 10.2313107300000006
  5.4613215200000003  8.8103853500000007 12.4856009500000003
  3.7661029199999998 10.7286199500000006 14.1532124699999997
  1.7753315000000001 12.1091674200000003 15.6023830300000004
  0.2557331300000000 14.0146885500000007 17.2220478899999989
 19.0533599299999992 15.2211162699999996 19.1402056999999992
 17.7427641999999999 17.2282896000000001 -0.1580749300000000
  8.5205514699999991  8.2463621800000002 12.4874956000000008
  7.3230123200000001 10.5828773599999995 14.2256893099999999
  5.4807515200000001 12.2612200700000002 15.8362425099999999
  3.4822007199999998 14.0425611499999992 17.4785992800000010
  1.9189445199999999 15.8031248400000006 19.2617439600000004
  0.1405814500000000 17.0680189899999988 -0.0408097100000000
 19.3250638200000004 19.1868042400000007  1.6065433000000000
 17.5155736699999984 21.0601058300000012  3.5460264600000002
 15.6561645200000008  1.8993069700000000  5.1544042900000004
 14.0224859100000003  3.1105398700000002  6.7812515600000003
 12.3673811400000009  5.0514956800000004  8.6800271700000007
 10.3857206299999998  6.7818116399999999 10.2239590000000007
 10.3218183600000000  6.9615040500000003 14.0317110599999992
  9.1219379499999995  8.4336779600000007 15.9866890200000000
  7.2871183000000004 10.6981817699999997 17.5161860000000011
  5.4280366899999999 12.3968126699999992 18.4889946499999986
  3.5562045300000000 13.8456843000000003 -0.1073804800000000
  1.9396903200000000 15.6158024999999991  1.4938784800000000
  0.2143541400000000 17.3781426000000003  2.9668592800000000
 19.5325761900000003 19.2727130399999993  4.8067067200000002
 17.6564383700000000 21.2276949100000003  6.8665127899999998
 15.8684043799999994  1.6462832199999999  8.6622649000000003
 13.9284567799999994  3.2153278599999999 10.5092985500000005
 11.8426924499999995  5.2327192100000000 12.0241869799999996
 11.8980252600000007  4.8303507699999999 15.9817796600000008
 10.2856233899999996  6.5917314300000003 17.7155628900000011
  8.9687108999999996  8.9901280099999994 19.5410762399999989
  6.8959147500000002 10.7396215799999997 -0.2361448500000000
  5.1275870499999998 12.4036241000000000  1.7256456600000001
  3.0907320299999999 13.7656071000000004  3.5998608600000002
  2.1732048000000002 15.8441682799999999  5.3012669499999996
  0.1750448600000000 17.5896354700000010  6.9251832599999998
 19.4482358099999999 19.6762717100000017  8.7850904399999994
 17.4231476100000009  0.0524030500000000 10.3223983500000003
 15.8497461699999995  1.5748462700000001 12.0828244799999993
 14.0721523499999996  3.6375682399999998 13.6826687699999994
 14.1139903499999999  3.6886504800000002 17.8248561199999997
 12.5369294700000005  5.7088223700000000 19.5974039799999993
 10.2609991899999997  6.8297607700000000  0.2902952100000000
  8.6657619100000005  8.7635688599999995  1.9098155400000001
  7.0612331499999996 10.3157674000000004  3.2535790900000001
  5.2344879000000004 12.3054793999999994  4.9483219700000003
  3.4179171400000001 14.1476634200000007  7.4302697699999998
  1.6646189600000001 16.1640127400000004  9.1683059700000005
 -0.3920434700000000 17.7615342900000002 10.6895377600000003
 19.3791744500000007 19.7231006600000001 12.5249625800000004
 17.5725462000000014 21.3144474200000005 13.9322660599999999
 15.7522274099999997  2.1891784599999999 15.6117403100000001
 15.9448530300000009  1.7301764600000000 19.2648092599999998
 13.8874810499999999  3.6420583600000001 -0.0520279600000000
 12.4003095400000003  5.6648381800000003  1.7992293600000000
 10.4222559199999996  6.8778381900000003  3.8214628899999998
  8.5360993700000005  8.5460912499999999  5.7006393400000004
  6.9732396300000001 10.6030477100000002  7.4219109799999998
  5.3786756599999999 12.6836967800000000  9.5701335099999998
  3.1581910799999999 14.3673667100000007 10.9628629899999996
  1.7283035000000000 16.1297249500000000 12.5715916399999994
 -0.3009450400000000 18.0092493000000005 14.5245446400000002
 18.7720088800000013 19.5382302299999999 16.2454979699999988
 17.3889046799999996 21.0552977000000006 17.8163166100000012
 17.8660047900000016 -0.2607758600000000  0.3693050700000000
 15.7586373999999996  1.6606045500000000  1.5458075700000000
 13.6733626800000003  3.1892427099999998  3.2046793600000001
 12.4377359199999997  5.1687561600000000  5.3166984599999996
 11.0551201599999995  6.8317024899999996  7.0515593499999998
  8.9013907400000001  8.3355971499999999  8.7233506900000002
  7.2300437700000000 10.3163399499999997 10.7309351300000007
  5.6766714199999999 12.2975679000000007 12.5601963699999999
  3.5037410400000000 14.0573732800000002 13.9690633500000008
  1.8237762000000000 16.0626848600000010 15.7287609800000006
 -0.2272500500000000 17.5278878300000009 17.6557090000000017
 19.5640785199999989 19.2385021400000014 19.7061110799999994
