Li                                      
   1.00000000000000     
    20.6400000000000006    0.0000000000000000    0.0000000000000000
     0.0000000000000000   20.6400000000000006    0.0000000000000000
     0.0000000000000000    0.0000000000000000   20.6400000000000006
   Li
   432
Direct
  0.9957626472868242  0.0085751085271326  0.0078063076550379
  0.9102379946705454  0.0785762122092990  0.0728679525193812
  0.8344468667635638  0.1543010368217068  0.1730568750000003
  0.7391968202519408  0.2506081908914695  0.2426128028100791
  0.6561573003875978  0.3616464689922481  0.3248026884689921
  0.5711571017441841  0.4410207529069794  0.4153751157945749
  0.5049526807170537  0.5268569844961206  0.5109407945736422
  0.4292968221899258  0.6034107902131751  0.5737447984496100
  0.3426039631782913  0.6810048192829470  0.6783597388565923
  0.2528665043604619  0.7686711666666639  0.7553545247093041
  0.1676659999999970  0.8115021913759719  0.8287088052325586
  0.0924853638565892  0.9286324045542642  0.8946071400193816
  0.0913251947674425  0.9305785295542606  0.0913317819767414
  0.0139970731589116  0.0220511438953466  0.1702409878875955
  0.9334741933139554  0.0602047989341088  0.2649977843992275
  0.8198183822674423  0.1481775697674408  0.3190354796511627
  0.7458098459302320  0.2493416889534856  0.3974268827519367
  0.6715660290697656  0.3266340343992269  0.4956186385658938
  0.5991849680232590  0.4070112204457388  0.5862689016472871
  0.5131939118217019  0.4969185891472847  0.6606527272286797
  0.4302524820736409  0.5695331220930200  0.7396642146317802
  0.3371776400193767  0.6571228323643439  0.8418379370155051
  0.2550647863372077  0.7454069462209318  0.9232113294573665
  0.1804781225775187  0.8582805387596864  0.9837637562984511
  0.1961663948643420  0.8508079922480647  0.1599233299418614
  0.1147793154069774  0.9238405959302298  0.2459488003875947
  0.0330941293604639  0.0026840285852714  0.3391938120155018
  0.9247297553294587  0.0673077616279087  0.4011769874030975
  0.8190655465116308  0.1505205067829465  0.4806272112403107
  0.7510796366279067  0.2334356734496126  0.5786829777131786
  0.6719825867248090  0.3328575804263565  0.6650607514534883
  0.5922074612403065  0.4188179001938011  0.7423801099806226
  0.4973059394379860  0.5090565469961206  0.8546520683139534
  0.4007581007751924  0.5893862553294582  0.9240645092054294
  0.3220619510658906  0.6796466768410880  0.0014734607558111
  0.2623103071705444  0.7553466196705401  0.0810483832364355
  0.2493074723837196  0.7554952529069752  0.2334250847868233
  0.1887403168604678  0.8303544471899258  0.3550424505813936
  0.1085421390503853  0.9116277156007726  0.4216698284883691
  0.0160714287790711  0.9918324471899211  0.4854195532945766
  0.9468481036821714  0.0971351487403069  0.5671305014534909
  0.8360603493217056  0.1549860188953502  0.6686081812015487
  0.7403264239341070  0.2612197776162759  0.7301796879844957
  0.6702776884689925  0.3215496831395370  0.8148621458333309
  0.5987651167635661  0.4446931821705391  0.9244445314922487
  0.5199888415697700  0.4957890828488374  0.0136211807170525
  0.4082582126937950  0.5716175503876002  0.0824891855620180
  0.3222631831395333  0.6721886870155060  0.1556938856589127
  0.3262380474806221  0.6573016603682191  0.3135478590116278
  0.2510164520348823  0.7474259152131779  0.4386504181201545
  0.1554376996124063  0.8247973338178269  0.4857161647286787
  0.0930157165697665  0.9107275697674453  0.5800829462209336
  0.9928761322674404  0.9907913478682175  0.6581700334302312
  0.9085741952519371  0.0871749375000022  0.7554158992248077
  0.8345270184108529  0.1590404970930237  0.8222439428294592
  0.7396284312015524  0.2599542446705456  0.9183967955426340
  0.6606292781007781  0.3288830935077485  0.0334839147286843
  0.5939183599806199  0.4400882441860432  0.1101404055232535
  0.4906326913759713  0.5017703333333330  0.1774133154069801
  0.4008479413759716  0.5675151821705455  0.2385075591085268
  0.4046443502906953  0.5869073580426374  0.4365464486434121
  0.3169880276162758  0.6685888100775159  0.5024475954457372
  0.2482775489341051  0.7586992708333327  0.5953723590116269
  0.1525843478682205  0.8312837185077484  0.6833638226744156
  0.0625327243217058  0.9194053672480607  0.7647880101744207
  0.9900681676356555  0.0007689898255805  0.8527908367248074
  0.9202232030038786  0.0980587030038791  0.9158408454457359
  0.8181969777131783  0.1701411681201535  0.9987617218992213
  0.7448839152131796  0.2419504156976728  0.0738845954457332
  0.6541121187015477  0.3211120188953487  0.1609088226744220
  0.5638021463178262  0.4281090736434123  0.2453939244186074
  0.4837093924418596  0.5233955944767459  0.3393564282945718
  0.0648497218992219  0.0965847073643431  0.8996134602713184
  0.9919643953488375  0.1740638866279056  0.9951101535852729
  0.9020749491279076  0.2633294607558128  0.0816533207364358
  0.8431944583333362  0.3243382126937959  0.1643616366279090
  0.7431611337209318  0.4165865891472862  0.2278600683139516
  0.6696545644379839  0.5273493226744179  0.3198934137596865
  0.5806545843023230  0.6055145876937971  0.4094095610465089
  0.4851764161821706  0.6957623250969007  0.4838454060077524
  0.4055258250969018  0.7617713202519383  0.5753593493217082
  0.3232611574612392  0.8385312054263565  0.6536129418604659
  0.2631005033914704  0.9096016196705392  0.7574285140503889
  0.1599855804263584  0.0142371027131816  0.8039781535852697
  0.1394322126937979  0.0248288803294585  0.9952380620155026
  0.0817042795542662  0.1183238323643394  0.1198563372092991
  0.9738983856589130  0.1823884186046527  0.1710012625968957
  0.9004953381782954  0.2557902810077550  0.2648032693798470
  0.8134115358527154  0.3565640077519348  0.3274645760658927
  0.7281760726744153  0.4428047272286832  0.4273372674418638
  0.6522516850775162  0.5343707936046513  0.5180792960271319
  0.5556755915697664  0.6231367790697675  0.5901279646317832
  0.4918668885658946  0.6834272291666679  0.6692829142441852
  0.4003829171511626  0.7567262441860478  0.7424611400193797
  0.3264828289728712  0.8261336671511614  0.8402801424418627
  0.2344160571705416  0.9408691308139510  0.9017835053294547
  0.2479766899224813  0.9399498289728712  0.1002827228682150
  0.1735496879844973  0.0159977713178279  0.1590531269379838
  0.1007987180232561  0.0881531986434112  0.2322949757751971
  0.9972245474806201  0.1477011501937966  0.3175572911821689
  0.9177742427325555  0.2388535489341095  0.4107196075581427
  0.8324588929263541  0.3184224597868237  0.4907225348837230
  0.7270477403100770  0.4212033129844954  0.5831453217054232
  0.6636691240310100  0.5192871220930257  0.6355498992248059
  0.5732565746124010  0.5858675746124007  0.7730476686046543
  0.4949166356589174  0.6885840431201515  0.8443628120155040
  0.4093218338178275  0.7442221264534865  0.9413470111434137
  0.3090154258720901  0.8551530746124030  0.9972029001937983
  0.3263656860465147  0.8479302475775228  0.1641909103682195
  0.2555982548449620  0.9331892936046486  0.2676872126938008
  0.1878668958333307  0.0128519738372077  0.3519033963178302
  0.0811396293604645  0.0976545687984469  0.4238476206395347
  0.9936533657945716  0.1715795310077510  0.4855692257751940
  0.9173549152131812  0.2435785242248087  0.5608688614341091
  0.8254037209302325  0.3488404781976726  0.6551470968992277
  0.7293285121124029  0.4422725033914716  0.7508686429263562
  0.6761666337209320  0.5114969651162795  0.8414497257751918
  0.5697907320736419  0.6096243580426375  0.9302770925387591
  0.4878736564922477  0.6696626782945714  0.0137249137596882
  0.4092541487403096  0.7604033875969023  0.0666281613372064
  0.3926389563953521  0.7726030450581405  0.2276186874999979
  0.3433116405038774  0.8172439593023242  0.3421122117248032
  0.2588058687015504  0.9221277742248049  0.4102546569767469
  0.1620958018410832  0.0142732374031027  0.5076981908914746
  0.0748687839147308  0.0913446976744154  0.5807778139534889
  0.9938823362403113  0.1615413871124005  0.6669938958333361
  0.9024550363372086  0.2532298231589181  0.7365763720930261
  0.8343787916666656  0.3294732611434128  0.8226724127906948
  0.7323525067829451  0.4027572068798477  0.9306449718992269
  0.6839338381782980  0.5335048154069781  0.0182357344961233
  0.5991335271317837  0.5958940872093024  0.0690585750968964
  0.4769648425387629  0.6760593706395355  0.1618184680232559
  0.4560308575581402  0.6639797311046536  0.3291769685077526
  0.3877879825581374  0.7512407315891494  0.4184332751937987
  0.3238544462209276  0.8449267233527138  0.5067101695736440
  0.2401921933139519  0.9136507587209337  0.5860949200581373
  0.1496247369186037  0.9943822136627887  0.6756343706395356
  0.0537544970930242  0.1012739345930243  0.7401889491279050
  0.9689221375968984  0.1818255431201550  0.8194025353682193
  0.8908272766472862  0.2475223309108543  0.9230266845930259
  0.8386075339147254  0.3419648851744199  0.0035506647286851
  0.7671727146317835  0.4338518309108537  0.0833672950581388
  0.6783475305232542  0.5237978396317828  0.1653730261627899
  0.5677004510658890  0.5954522824612383  0.2435879825581395
  0.1653667034883739  0.1615932315891442  0.8087652814922492
  0.0740061090116271  0.2329817330426351  0.9220636850775179
  0.9915918754844952  0.3138441569767423  0.0031458565891498
  0.9295548338178321  0.4031421128875934  0.0581187863372108
  0.8613338968023285  0.5127467979651144  0.1510670717054268
  0.7906774723837202  0.5893461826550421  0.2607007446705438
  0.6878776710271310  0.6604132819767443  0.3250850857558163
  0.6012405964147263  0.7390968003875997  0.3971283938953505
  0.5018419786821724  0.8283355566860493  0.4739127732558117
  0.4214721821705396  0.9114586109496159  0.5775923120155042
  0.3375300712209324  0.9988181579457347  0.6575512189922463
  0.2692279515503841  0.1052998672480641  0.7207232824612433
  0.2536087601744157  0.0782036584302332  0.9009739888565917
  0.1517695930232534  0.1595229820736463  0.9992247688953455
  0.1000688173449618  0.2391425198643375  0.0947101090116291
  0.0070798943798422  0.3394963561046538  0.1737159510658941
  0.9261260266472888  0.4365587916666698  0.2332290358527160
  0.8311714999999964  0.4781319200581393  0.3254123158914695
  0.7508432601744204  0.5919238774224809  0.4333232078488365
  0.6518708284883701  0.6542740072674391  0.4949580014534902
  0.5740366027131785  0.7470164258720899  0.5889659181201523
  0.4820954762596870  0.8368029704457385  0.6741650557170544
  0.4051716618217043  0.9328192625969010  0.7568711351744213
  0.3483731002907007  0.0183535993217063  0.8250559699612410
  0.3284977117248076  0.9959639849806194  0.9954243614341109
  0.2531616560077552  0.0929167146317837  0.0759849350775212
  0.1724314471899220  0.1476356589147301  0.1688502049418616
  0.0842165687984462  0.2537512679263543  0.2452623217054253
  0.9940066753875954  0.3270508512596919  0.3228233662790672
  0.9079793740310080  0.4218796618217056  0.4214490092054248
  0.8277726075581384  0.5092613812984510  0.4935651094961244
  0.7591273144379826  0.6086675644379866  0.5757591850775228
  0.6822629660852684  0.6635296463178264  0.6592931656976759
  0.5646436564922510  0.7645977703488356  0.7473184200581429
  0.4729547974806181  0.8269111472868218  0.8356580935077531
  0.4111298546511648  0.9282149970930220  0.9235653992248061
  0.3771598493217070  0.9164048977713151  0.0855211225775179
  0.3195368711240292  0.9970996947674422  0.1769148459302343
  0.2482769069767414  0.0949355237403111  0.2475262257751965
  0.1701055770348816  0.1701783546511635  0.3386208435077549
  0.0551371928294557  0.2536794040697643  0.3927508221899245
  0.9876528468992234  0.3326387519379850  0.4755918173449629
  0.9195859224806213  0.4046967582364331  0.5729842175387603
  0.8325268488372117  0.4897905198643429  0.6656435310077526
  0.7516051753875956  0.5859999626937977  0.7562511453488341
  0.6685307785852714  0.6551645862403106  0.8466906913759686
  0.5879113580426321  0.7429040024224776  0.9163189588178327
  0.4984075164728665  0.8396172025193778  0.0006756889534856
  0.5085282596899248  0.8285859626938006  0.1497846908914724
  0.4198242761627924  0.9382013163759666  0.2649972015503863
  0.3391761356589171  0.0193846928294548  0.3470456080426345
  0.2427734457364323  0.0854581719961232  0.4421042766472851
  0.1694342185077531  0.1837159307170566  0.4922161870155009
  0.0653721216085259  0.2360101196705457  0.5648742863372078
  0.9799057049418636  0.3181095232558135  0.6688557209302317
  0.9154401472868230  0.4086347858527120  0.7602358943798464
  0.8291279888565910  0.4904513716085290  0.8385450174418594
  0.7506092015503896  0.5795347059108522  0.9345380261627909
  0.6940520901162799  0.6786161569767444  0.0114936346899199
  0.5808933832364360  0.7361382136627910  0.0886277495155028
  0.5740821453488394  0.7378854893410818  0.2538585998062004
  0.4842531579457372  0.8035154239341082  0.3296626157945752
  0.4108045823643423  0.9085317068798417  0.4106193226744210
  0.3333088255813976  0.0019088124999982  0.5091981196705433
  0.2385771700581429  0.0897033880813964  0.5656336128875949
  0.1742904893410824  0.1706542504844961  0.6442412291666670
  0.0619937432170516  0.2417858396317811  0.7464266429263589
  0.9702607868217044  0.3186947466085286  0.8399633464147271
  0.9265029689922457  0.4090466734496090  0.9097954287790699
  0.8365824907945765  0.5133165484496089  0.9852718454457374
  0.7700663885658940  0.6015882621124007  0.0974431395348816
  0.6786598934108525  0.6572125508720958  0.1632277853682140
  0.2715058173449592  0.2711803890503859  0.7428474278100765
  0.1676031962209308  0.3271077315891446  0.8154307422480613
  0.0905552340116245  0.3902381298449598  0.9144188158914730
  0.0109353832364363  0.4933883134689907  0.9924897034883742
  0.9342896623061989  0.6042050620155024  0.0737475809108545
  0.8559037703488386  0.6650144956395323  0.1711610765503906
  0.7513938013565920  0.7725675542635670  0.2474415876937996
  0.6677194646317801  0.8386643095930211  0.3305652553294607
  0.5802679767441887  0.9204675581395350  0.3981614263565874
  0.4956693173449622  0.9853013522286815  0.5183618696705423
  0.4209014370155018  0.0752058347868214  0.5833842209302347
  0.3456012311046521  0.1790540726744183  0.6386198536821723
  0.3516877030038756  0.1683676119186046  0.8186051666666643
  0.2463239326550379  0.2325170707364350  0.9151286104651177
  0.1780297592054296  0.3052589985465133  0.9782070266472900
  0.0973227587209280  0.4008084912790721  0.0778688803294543
  0.0212456138565926  0.5140589268410878  0.1596443958333325
  0.9613551884689926  0.5754173338178319  0.2551897577519355
  0.8552173943798422  0.6611230222868230  0.3422301705426349
  0.7417199636627885  0.7239580406976742  0.4257883003875946
  0.6776065314922448  0.8195797640503883  0.4798740935077532
  0.5891897005813931  0.8800362742248069  0.5850567892441845
  0.4843239413759690  0.9873353468992221  0.6752730600775223
  0.4300183638565898  0.0920713706395375  0.7458710731589164
  0.4274767156007755  0.0862663837209325  0.8912226225775157
  0.3383988183139550  0.1479471991279055  0.9769905281007780
  0.2754313827519397  0.2349387475775160  0.0609215300387618
  0.1878418381782936  0.3054707102713152  0.1730603270348823
  0.1036915203488391  0.4185768173449631  0.2393550833333364
  0.9995373197674411  0.4673308105620180  0.3226220043604684
  0.9166132427325593  0.5803986196705395  0.4001707306201538
  0.8369932969961269  0.6567865503875936  0.5157383362403110
  0.7306317160852700  0.7304038468992218  0.5731411710271317
  0.6882512572674386  0.8200190377907006  0.6880456734496150
  0.5646618173449625  0.9061933783914711  0.7429306656976777
  0.5117958638565909  0.9928183008720950  0.8301647708333348
  0.4775028420542640  0.9973659505813970  0.0112665518410822
  0.4070916438953489  0.0636564234496149  0.0981203880813979
  0.3407629016472882  0.1651733275193763  0.1797056521317799
  0.2655360993217073  0.2463552238372060  0.2464255789728682
  0.1770310862403122  0.3292606710271286  0.3336312708333367
  0.0821325949612373  0.4084709801356610  0.4154689612403075
  0.9948159321705461  0.5070442698643376  0.4860291812015518
  0.9018927432170543  0.5741594384689890  0.5784121405038789
  0.8118830193798416  0.6672257688953493  0.6741615518410882
  0.7502475978682170  0.7499778120155014  0.7623556671511622
  0.6744099118217051  0.8296858270348864  0.8421020678294582
  0.5711753032945737  0.8956198192829490  0.9099740513565919
  0.5745941434108559  0.9043931627906971  0.0682806686046504
  0.4999060528100756  0.9985238764534898  0.1688685455426366
  0.4280627093023242  0.0952596550387597  0.2358847994186064
  0.3451672718023246  0.1614146540697661  0.3416699268410852
  0.2328966889534883  0.2625814651162770  0.4173807330426342
  0.1588764452519413  0.3099770072674417  0.4965250213178294
  0.0648057422480619  0.4102058929263563  0.5776851521317852
  0.9844378774224793  0.4892107238372105  0.6540964563953509
  0.9118004544573637  0.5797636177325600  0.7352089442829453
  0.8494428929263549  0.6660140702519399  0.8208435508720910
  0.7818390440891463  0.7431553599806193  0.9087999287790680
  0.6731685184108542  0.8207382572674433  0.0041301041666699
  0.6549898187984482  0.8125691598837221  0.1674284394379839
  0.5774100213178315  0.9175919568798463  0.2434072151162781
  0.5017560721899201  0.0175705513565916  0.3562285702519361
  0.4144705988372124  0.0709024026162766  0.4172389452519383
  0.3402266589147303  0.1832944496124043  0.5159664045542627
  0.2508963013565904  0.2685340610465090  0.5782765939922498
  0.1396408764534911  0.3321753667635647  0.6599878372093002
  0.0736320402131767  0.3936796574612416  0.7445306501937949
  0.0120956090116309  0.4894895474806233  0.8427273178294570
  0.9228145809108526  0.5939031608527117  0.9074848401162825
  0.8399169530038790  0.6583119345930228  0.9938801521317799
  0.7742475421511656  0.7496266031976759  0.1010057906976769
  0.3455573289728662  0.3541235818798469  0.6665110096899198
  0.2408712054263589  0.3939683468992214  0.7342073483527116
  0.1426726264534892  0.4860768619186047  0.8058802756782910
  0.0879517010658901  0.5877501879844971  0.9099949190891508
  0.0205615203488350  0.6736947650193770  0.9957308788759676
  0.9290898890503883  0.7508380188953510  0.0829851579457355
  0.8579718212209286  0.8294833154069750  0.1645566971899228
  0.7482936419573676  0.9115202378875935  0.2358600721899222
  0.6507901724806189  0.0154630998062046  0.3236887863372075
  0.5763549481589152  0.1015248900193768  0.4515574583333333
  0.4899806099806199  0.1628785077519410  0.4981354917635628
  0.4338815174418613  0.2538206298449595  0.5932026865310078
  0.4278953212209302  0.2645715358527099  0.7571373570736455
  0.3334887005813982  0.3508636632751916  0.8489975600775210
  0.2416004815891455  0.4136083362403085  0.9070942737403129
  0.1676976637596894  0.4950509418604625  0.9818015198643408
  0.0970416293604686  0.5838439389534855  0.0834733687015472
  0.0356122684108513  0.6801326569767454  0.1753355038759707
  0.9226581007751946  0.7504712858527114  0.2460190968992251
  0.8216898018410816  0.8404025872093044  0.3205542369186034
  0.7592410053294572  0.9227915707364360  0.4231321303294564
  0.6518996981589140  0.0021503013565862  0.5067907156007720
  0.5759931749031040  0.0588646579457333  0.5761031933139549
  0.5034904563953475  0.1439587790697701  0.6716565542635635
  0.5126658541666700  0.1704433953488405  0.8304304786821675
  0.4386865780038747  0.2560815445736466  0.9209255222868222
  0.3341944888565891  0.3253862117248048  0.9834222349806225
  0.2386380169573670  0.3949333745155030  0.0732479893410840
  0.1979285397286787  0.4977988929263546  0.1591082306201557
  0.0922263197674411  0.5673638609496123  0.2640962926356565
  0.0216315959302307  0.6742729399224814  0.3182562383720935
  0.9356235605620142  0.7489519995155050  0.4098792659883728
  0.8173001206395369  0.8263300726744163  0.4834899123062044
  0.7451467785852728  0.9188896177325603  0.5811031647286811
  0.6556858846899232  0.9842504907945724  0.6723018832364360
  0.5844295823643435  0.0655819796511636  0.7454594089147264
  0.5864290683139544  0.0842646051356581  0.9021922456395330
  0.5004857839147263  0.1738753023255839  0.0042827669573668
  0.4145739064922509  0.2417459108527140  0.0751665499031020
  0.3368177621124033  0.3387492156007781  0.1713889554263588
  0.2460493100775167  0.4335222877906943  0.2573110474806199
  0.1743354001937973  0.5062317533914751  0.3679885251938018
  0.0608092940891467  0.5893623294573658  0.4065926375969013
  0.9827292858527130  0.6548212112403107  0.5151047747093003
  0.9036996414728691  0.7668269249030999  0.5885711506782911
  0.8246258313953518  0.8122272955426340  0.6884981385658904
  0.7606007756782915  0.9153920382751934  0.7645737204457390
  0.6560971918604679  0.9629616007751949  0.8494878750000012
  0.6466169733527138  0.9865186574612395  0.9844214239341085
  0.5750023110465108  0.0625495111434091  0.0960842451550405
  0.4864150392441857  0.1745929631782914  0.1767027039728717
  0.4104451007751919  0.2619611758720950  0.2572803507751971
  0.3160118527131814  0.3488426075581401  0.3557304093992215
  0.2652209219961250  0.4309075537790719  0.4382394224806205
  0.1585376589147316  0.5279448187984528  0.5273924917635640
  0.0822805266472884  0.6043463924418617  0.6206682718023231
  0.9556086782945741  0.6619055276162769  0.6618200208333320
  0.9107407262596894  0.7421036661821674  0.7608151942829480
  0.8373088468992265  0.8120214452519363  0.8459160101744203
  0.7517424922480629  0.8896173662790687  0.9470582470930253
  0.7191753255813964  0.8832616986434090  0.0981616094961240
  0.6449724583333349  0.9913645692829434  0.1504552151162812
  0.5677292335271318  0.0851567277131764  0.2740583614341077
  0.4909296080426344  0.1816391976744214  0.3369939098837236
  0.4318476870155052  0.2577257848837178  0.4407927873062008
  0.3284391143410872  0.3180386400193811  0.5178274336240278
  0.2472501075581377  0.4003256598837197  0.5898174031007741
  0.1795288042635690  0.5026815620155034  0.6715281569767413
  0.0862172795542619  0.5724411332364312  0.7304139520348869
  0.0086120862403121  0.6568839161821671  0.8382355910852723
  0.9344610523255810  0.7208947141472848  0.9351346574612407
  0.8495747262596893  0.8087717868217084  0.0191646656976729
  0.4261001937984474  0.4197204578488396  0.5736438183139541
  0.3487297175387596  0.4855820954457357  0.6656651240310083
  0.2547424234496134  0.5759864762596933  0.7372768880813965
  0.1679416749030977  0.6545463706395367  0.8130727543604621
  0.0996604762596931  0.7459590639534852  0.8895567417635633
  0.0044853662790700  0.8297815484496098  0.9958564670542671
  0.9373117829457343  0.9073263638565905  0.0863093905038781
  0.8218858318798468  0.9851677223837214  0.1708241283914731
  0.7344270256782934  0.0652311036821729  0.2351153827519354
  0.6593259355620162  0.1456240644379818  0.3222200450581383
  0.6157234452519376  0.2474366894379827  0.4122149961240282
  0.5205521870155039  0.3040698861434095  0.5155286603682185
  0.5093604292635661  0.3475478221899237  0.6795040949612385
  0.4271886230620154  0.4321670668604654  0.7579596879844956
  0.3337047330426373  0.4930670188953457  0.8334391802325598
  0.2459177451550403  0.5778363047480610  0.9146381400193775
  0.1717975431201566  0.6710126240310075  0.0001231133720907
  0.1016816085271302  0.7719361715116264  0.0705811952519397
  0.0177102911821692  0.8273777994186062  0.1739778619186012
  0.9461786787790700  0.9116306812015509  0.2603189467054250
  0.8373696409883706  0.9777052349806183  0.3116203425387596
  0.7587166036821671  0.0807130038759709  0.3956286390503863
  0.6755573793604626  0.1655999990310093  0.4999744331395348
  0.5917128260658941  0.2405153081395355  0.5947513226744192
  0.5844896816860441  0.2511044481589124  0.7474976216085238
  0.5045195973837195  0.3571533730620189  0.8328719282945727
  0.4163187567829425  0.4189583284883724  0.9323692461240327
  0.3200351918604625  0.4967921627906975  0.0218347281976747
  0.2361634762596907  0.5846445552325577  0.0816737732558153
  0.1698929060077532  0.6608730140503880  0.1713413255813947
  0.1096455552325608  0.7542094389534881  0.2546498406007771
  0.0179329549418625  0.8269273987403096  0.3415270247093005
  0.9289763866279088  0.9210921894379851  0.4210477107558148
  0.8484781366279037  0.0062729428294546  0.4916234263565897
  0.7660752480620161  0.0570195242248062  0.5742236947674400
  0.6683033614341056  0.1467152349806184  0.6723224457364338
  0.6823921259689953  0.1691712277131785  0.8303391700581386
  0.5822569554263595  0.2707368541666639  0.9096462160852710
  0.5186636744186046  0.3465760266472842  0.0176287698643378
  0.4207747088178309  0.4335486627906988  0.0958066172480585
  0.3279673042635665  0.5022712669573650  0.1594962088178278
  0.2313627684108539  0.5696329806201561  0.2773100368217030
  0.1775796918604655  0.6619316434108526  0.3504340620155020
  0.0801863076550404  0.7413639559108560  0.4375428774224801
  0.0004763362403111  0.8374303565891452  0.4928534035852721
  0.9149496749030988  0.9233398410852729  0.5597695712209330
  0.8596987461240317  0.0061673687015471  0.6665391700581367
  0.7418767863372082  0.0541522131782912  0.7718897979651160
  0.7749640140503899  0.0831055847868214  0.9150928468992277
  0.6436178076550405  0.1754521269379836  0.0117670581395330
  0.5662455009689893  0.2457284496124004  0.0952052398255816
  0.4729941293604654  0.3321572131782915  0.1721954321705397
  0.4230245610465104  0.4180713900193780  0.2587603057170540
  0.3490909622093028  0.4905415532945767  0.3454776700581377
  0.2588022529069747  0.5851418401162789  0.4155364462209334
  0.1704782640503879  0.6457210324612390  0.5125424631782920
  0.0763060634689907  0.7351416191860451  0.5860398885658924
  0.0097167146317858  0.8291992756782918  0.6676027824612376
  0.9105535499030992  0.9019029597868240  0.7529202403100754
  0.8325476928294577  0.9976626443798438  0.8475151962209324
  0.8437206613372084  0.9974155421511597  0.0159549302325601
  0.7460728149224778  0.0787350770348851  0.0954889743217038
  0.6552355135658914  0.1536109365310097  0.1716258197674421
  0.5706841516472849  0.2462883217054284  0.2554057684108528
  0.5155874379844931  0.3401491632751927  0.3532293846899250
  0.4370725305232526  0.4092540155038762  0.4406817417635693
  0.3298590489341109  0.5190914336240340  0.5187043997092999
  0.2497797761627893  0.5813591279069783  0.6059369631782943
  0.1802763086240304  0.6813261705426328  0.6702732146317842
  0.0809535881782963  0.7261574486434128  0.7543176191860468
  0.9911244951550415  0.8188765062984515  0.8254473900193773
  0.9119871070736423  0.9016220324612405  0.9251264399224794
 
  0.00000000E+00  0.00000000E+00  0.00000000E+00
  0.00000000E+00  0.00000000E+00  0.00000000E+00
  0.00000000E+00  0.00000000E+00  0.00000000E+00
  0.00000000E+00  0.00000000E+00  0.00000000E+00
  0.00000000E+00  0.00000000E+00  0.00000000E+00
  0.00000000E+00  0.00000000E+00  0.00000000E+00
  0.00000000E+00  0.00000000E+00  0.00000000E+00
  0.00000000E+00  0.00000000E+00  0.00000000E+00
  0.00000000E+00  0.00000000E+00  0.00000000E+00
  0.00000000E+00  0.00000000E+00  0.00000000E+00
  0.00000000E+00  0.00000000E+00  0.00000000E+00
  0.00000000E+00  0.00000000E+00  0.00000000E+00
  0.00000000E+00  0.00000000E+00  0.00000000E+00
  0.00000000E+00  0.00000000E+00  0.00000000E+00
  0.00000000E+00  0.00000000E+00  0.00000000E+00
  0.00000000E+00  0.00000000E+00  0.00000000E+00
  0.00000000E+00  0.00000000E+00  0.00000000E+00
  0.00000000E+00  0.00000000E+00  0.00000000E+00
  0.00000000E+00  0.00000000E+00  0.00000000E+00
  0.00000000E+00  0.00000000E+00  0.00000000E+00
  0.00000000E+00  0.00000000E+00  0.00000000E+00
  0.00000000E+00  0.00000000E+00  0.00000000E+00
  0.00000000E+00  0.00000000E+00  0.00000000E+00
  0.00000000E+00  0.00000000E+00  0.00000000E+00
  0.00000000E+00  0.00000000E+00  0.00000000E+00
  0.00000000E+00  0.00000000E+00  0.00000000E+00
  0.00000000E+00  0.00000000E+00  0.00000000E+00
  0.00000000E+00  0.00000000E+00  0.00000000E+00
  0.00000000E+00  0.00000000E+00  0.00000000E+00
  0.00000000E+00  0.00000000E+00  0.00000000E+00
  0.00000000E+00  0.00000000E+00  0.00000000E+00
  0.00000000E+00  0.00000000E+00  0.00000000E+00
  0.00000000E+00  0.00000000E+00  0.00000000E+00
  0.00000000E+00  0.00000000E+00  0.00000000E+00
  0.00000000E+00  0.00000000E+00  0.00000000E+00
  0.00000000E+00  0.00000000E+00  0.00000000E+00
  0.00000000E+00  0.00000000E+00  0.00000000E+00
  0.00000000E+00  0.00000000E+00  0.00000000E+00
  0.00000000E+00  0.00000000E+00  0.00000000E+00
  0.00000000E+00  0.00000000E+00  0.00000000E+00
  0.00000000E+00  0.00000000E+00  0.00000000E+00
  0.00000000E+00  0.00000000E+00  0.00000000E+00
  0.00000000E+00  0.00000000E+00  0.00000000E+00
  0.00000000E+00  0.00000000E+00  0.00000000E+00
  0.00000000E+00  0.00000000E+00  0.00000000E+00
  0.00000000E+00  0.00000000E+00  0.00000000E+00
  0.00000000E+00  0.00000000E+00  0.00000000E+00
  0.00000000E+00  0.00000000E+00  0.00000000E+00
  0.00000000E+00  0.00000000E+00  0.00000000E+00
  0.00000000E+00  0.00000000E+00  0.00000000E+00
  0.00000000E+00  0.00000000E+00  0.00000000E+00
  0.00000000E+00  0.00000000E+00  0.00000000E+00
  0.00000000E+00  0.00000000E+00  0.00000000E+00
  0.00000000E+00  0.00000000E+00  0.00000000E+00
  0.00000000E+00  0.00000000E+00  0.00000000E+00
  0.00000000E+00  0.00000000E+00  0.00000000E+00
  0.00000000E+00  0.00000000E+00  0.00000000E+00
  0.00000000E+00  0.00000000E+00  0.00000000E+00
  0.00000000E+00  0.00000000E+00  0.00000000E+00
  0.00000000E+00  0.00000000E+00  0.00000000E+00
  0.00000000E+00  0.00000000E+00  0.00000000E+00
  0.00000000E+00  0.00000000E+00  0.00000000E+00
  0.00000000E+00  0.00000000E+00  0.00000000E+00
  0.00000000E+00  0.00000000E+00  0.00000000E+00
  0.00000000E+00  0.00000000E+00  0.00000000E+00
  0.00000000E+00  0.00000000E+00  0.00000000E+00
  0.00000000E+00  0.00000000E+00  0.00000000E+00
  0.00000000E+00  0.00000000E+00  0.00000000E+00