Li 
 1.0000000000000000
    20.6400000000000006    0.0000000000000000    0.0000000000000000
     0.0000000000000000   20.6400000000000006    0.0000000000000000
     0.0000000000000000    0.0000000000000000   20.6400000000000006
 Li 
 432
Cartesian
 -0.0874589600000000  0.1769902400000000  0.1611221900000000
 18.7873122099999996  1.6218130200000000  1.5039945400000001
 17.2229833300000017  3.1847734000000001  3.5718939000000001
 15.2570223699999996  5.1725530600000003  5.0075282500000000
 13.5430866800000000  7.4643831199999999  6.7039274899999999
 11.7886825799999997  9.1026683399999992  8.5733423900000005
 10.4222233299999996 10.8743281599999992 10.5458180000000006
  8.8606864099999996 12.4543987099999995 11.8420926400000006
  7.0713457999999996 14.0559394700000002 14.0013450099999996
  5.2191646499999997 15.8653728800000007 15.5905173900000005
  3.4606262399999999 16.7494052300000007 17.1045497399999995
  1.9088979100000001 19.1669728299999989 18.4646913700000006
  1.8849520200000001 19.2071408499999983  1.8850879800000000
  0.2888995900000000  0.4551356100000000  3.5137739899999998
 19.2669073500000003  1.2426270500000001  5.4695542699999997
 16.9210514100000005  3.0583850400000001  6.5848922999999999
 15.3935152199999994  5.1464124599999996  8.2028908600000001
 13.8611228400000002  6.7417264699999997 10.2295686999999997
 12.3671777400000007  8.4007115900000002 12.1005901300000005
 10.5923223400000008 10.2563996799999995 13.6358722900000000
  8.8804112300000000 11.7551636399999992 15.2666693900000006
  6.9593464899999997 13.5630152600000002 17.3755350200000009
  5.2645371900000004 15.3851993700000005 19.0550818399999997
  3.7250684500000002 17.7149103200000013 -0.3351160700000000
  4.0488743899999999 17.5606769599999986  3.3008175300000002
  2.3690450699999999 19.0680699000000011  5.0763832400000002
  0.6830628300000000  0.0553983500000000  7.0009602800000001
 19.0864221500000006  1.3892321999999999  8.2802930200000002
 16.9055128799999999  3.1067432600000000  9.9201456399999994
 15.5022836999999996  4.8181123000000001 11.9440166600000008
 13.8697205900000000  6.8701804600000003 13.7268539100000009
 12.2231620000000003  8.6444014599999992 15.3227254700000000
 10.2643945900000002 10.5069271299999993 17.6400186900000016
  8.2716472000000003 12.1649323099999993 19.0726914699999988
  6.6473586700000000 14.0279074099999992 20.6704122300000002
  5.4140847399999998 15.5903542300000009  1.6728386300000000
  5.1457062300000000 15.5934220200000002  4.8178937499999996
  3.8956001400000000 17.1385157899999996  7.3280761800000001
  2.2403097500000002 18.8159960499999990  8.7032652600000002
  0.3317142900000000 -0.1685782900000000 10.0190595800000004
 19.5429448599999986  2.0048694700000000 11.7055735500000004
 17.2562856099999991  3.1989114299999999 13.8000728600000002
 15.2803373899999997  5.3915762100000002 15.0709087600000000
 13.8345314899999998  6.6367854599999996 16.8187546899999987
 12.3585120100000001  9.1784672799999996 19.0805351300000012
 10.7325696900000001 10.2330866700000005  0.2811411700000000
  8.4264495099999994 11.7981862399999997  1.7025767900000000
  6.6515120999999997 13.8739744999999992  3.2135218000000001
  6.7335532999999996 13.5667062699999992  6.4716278100000002
  5.1809795699999999 15.4268708900000000  9.0537446300000006
  3.2082341200000002 17.0238169699999986 10.0251816399999996
  1.9198443900000000 18.7974170399999991 11.9729120099999999
 -0.1470366300000000 -0.1900665800000000 13.5846294899999993
 18.7529713899999990  1.7992907100000000 15.5917841599999996
 17.2246376599999991  3.2825958599999998 16.9711149799999994
 15.2659308199999995  5.3654556099999997 18.9557098599999989
 13.6353883000000007  6.7881470500000001  0.6911079999999999
 12.2584749500000001  9.0834213600000009  2.2732979699999998
 10.1266587500000007 10.3565396799999991  3.6618108299999999
  8.2735015099999991 11.7135133600000003  4.9227960199999998
  8.3518593899999996 12.1137678700000002  9.0103186999999991
  6.5426328900000001 13.7996730400000001 10.3705183699999992
  5.1244486100000000 15.6595529500000001 12.2884854899999993
  3.1493409400000001 17.1576959500000008 14.1046292999999991
  1.2906754300000001 18.9765267800000004 15.7852245300000007
 -0.2049930200000000  0.0158719500000000 17.6016028700000007
 18.9934069100000009  2.0239316299999999 18.9029550499999992
 16.8875856199999994  3.5117137100000000 20.6144419399999990
 15.3744040099999992  4.9938565800000001  1.5249780500000001
 13.5008741299999997  6.6277520699999997  3.3211580999999999
 11.6368763000000008  8.8361712800000003  5.0649306000000003
  9.9837618599999995 10.8028850700000003  7.0043166799999996
  1.3384982599999999  1.9935083600000001 18.5680218199999985
 -0.1658548800000000  3.5926786200000000 -0.1009264300000000
 18.6188269499999990  5.4351200700000000  1.6853245400000001
 17.4035336200000010  6.6943407099999996  3.3924241799999999
 15.3388457999999996  8.5983471999999992  4.7030318099999997
 13.8216702100000006 10.8844900199999994  6.6026000600000003
 11.9847106199999995 12.4978210900000004  8.4502133399999995
 10.0140412300000001 14.3605343899999998  9.9865691800000000
  8.3700530299999993 15.7229600499999993 11.8754169699999998
  6.6721102900000000 17.3072840799999987 13.4905711200000002
  5.4303943900000000 18.7741774300000017 15.6333245299999994
  3.3021023800000000  0.2938538000000000 16.5941090899999999
  2.8778808699999998  0.5124680900000000 -0.0982864000000000
  1.6863763300000001  2.4422039000000000  2.4738348000000001
 -0.5387373200000000  3.7644969599999998  3.5294660599999998
 18.5862237800000010  5.2795113999999996  5.4655394800000003
 16.7888140999999997  7.3594811199999999  6.7588688499999998
 15.0295541400000001  9.1394895700000003  8.8202411999999999
 13.4624747800000009 11.0294131800000006 10.6931566700000005
 11.4691442099999996 12.8615431200000003 12.1802411900000003
 10.1521325800000000 14.1059380099999991 13.8139993499999996
  8.2639034099999993 15.6188296799999993 15.3243979299999999
  6.7386055899999997 17.0513988900000015 17.3433821399999992
  4.8383474199999998 19.4195388599999994 18.6128115500000000
  5.1182388799999998 19.4005644699999991  2.0698354000000001
  3.5820655600000002  0.3301940000000000  3.2828565400000000
  2.0804855400000002  1.8194820199999999  4.7945682999999999
 -0.0572853400000000  3.0485517400000002  6.5543824900000001
 18.9428603699999982  4.9299372500000000  8.4772526999999993
 17.1819515500000009  6.5722395699999998 10.1285131199999991
 15.0062653600000004  8.6936363799999992 12.0361194400000002
 13.6981307200000000 10.7180862000000001 13.1177499199999996
 11.8320156999999995 12.0923067399999997 15.9557038799999997
 10.2150793600000007 14.2123746499999992 17.4276484399999987
  8.4484026500000002 15.3607446900000006 19.4294023100000004
  6.3780783899999998 17.6503594600000007 20.5822678600000017
  6.7361877600000000 17.5012803099999985  3.3889003899999999
  5.2755479799999998 19.2610270200000002  5.5250640700000000
  3.8775727299999998  0.2652647400000000  7.2632861000000002
  1.6747219499999999  2.0155902999999999  8.7482148899999999
 -0.1309945300000000  3.5414015200000000 10.0221488200000000
 18.9342054500000003  5.0274607400000004 11.5763332999999999
 17.0363328000000003  7.2000674699999996 13.5222360800000008
 15.0533404900000001  9.1285044699999993 15.4979287899999996
 13.9560793200000006 10.5572973599999997 17.3675223400000007
 11.7604807099999995 12.5826467500000003 19.2009191900000005
 10.0697122700000001 13.8218376799999998 20.9232822200000008
  8.4470056299999996 15.6947259199999998  1.3752052500000000
  8.1040680599999995 15.9465268499999997  4.6980497100000003
  7.0859522600000000 16.8679153200000016  7.0611960500000004
  5.3417531299999998 19.0327172599999983  8.4676561199999991
  3.3456573500000002  0.2945996200000000 10.4788906599999994
  1.5452916999999999  1.8853545599999999 11.9872540799999996
 -0.1262685800000000  3.3342142300000002 13.7667540099999997
 18.6266719499999986  5.2266635499999996 15.2029363199999992
 17.2215782600000011  6.8003281099999997 16.9799585999999998
 15.1157557400000009  8.3129087500000001 19.2085122199999994
 14.1163944200000007 11.0115393899999994 21.0163855599999998
 12.3661159999999999 12.2992539599999997  1.4253689899999999
  9.8445543499999992 13.9538654100000006  3.3399331800000001
  9.4124768999999997 13.7045416499999995  6.7942126299999996
  8.0039439600000009 15.5056086999999998  8.6364628000000003
  6.6843557699999998 17.4392875700000012 10.4584978999999993
  4.9575668700000000 18.8577516600000017 12.0969991500000003
  3.0882545700000001 -0.1159511100000000 13.9450934100000001
  1.1094928200000000  2.0902940100000000 15.2774999099999995
 -0.6414470799999999  3.7528792100000001 16.9124683299999994
 18.3866749899999995  5.1088609099999998 19.0512707699999986
 17.3088595000000005  7.0581552299999997 20.7132857199999982
 15.8344448300000007  8.9547017899999997  1.7207009700000000
 14.0010930299999998 10.8111874100000005  3.4132992600000001
 11.7173373099999996 12.2901351099999996  5.0276559599999997
  3.4131687600000000  3.3352843000000001 16.6929154100000012
  1.5274860900000000  4.8087429699999999 19.0313944600000013
 -0.1735436900000000  6.4777433999999996  0.0649304800000000
 19.1860117700000004  8.3208532099999992  1.1995717500000000
 17.7779316300000012 10.5830939100000005  3.1180243600000002
 16.3195830300000004 12.1641052100000007  5.3808633700000001
 14.1977951299999994 13.6309301400000003  6.7097561700000004
 12.4096059099999998 15.2549579600000005  8.1967300499999993
 10.3580184400000004 17.0968458900000009  9.7815596399999993
  8.6991858400000002 18.8125057300000016 11.9215053199999996
  6.9666206700000002 20.6156067800000002 13.5718571600000004
  5.5568649199999998  2.1733892600000000 14.8757285499999998
  5.2344848099999997  1.6141235100000000 18.5961031299999995
  3.1325243999999999  3.2925543500000001 -0.0160007700000000
  2.0654203899999999  4.9359016100000002  1.9548166499999999
  0.1461290200000000  7.0072047900000003  3.5854972300000001
 19.1152411899999990  9.0105734599999998  4.8138472999999999
 17.1553797599999989  9.8686428300000006  6.7165102000000001
 15.4974048900000003 12.2173088300000003  8.9437910100000000
 13.4546139000000000 13.5042155099999999 10.2159331499999997
 11.8481154800000006 15.4184190300000008 12.1562565500000002
  9.9504506300000006 17.2716133099999993 13.9147667500000001
  8.3627430999999994 19.2533895800000003 15.6218202300000009
  7.1904207900000001 21.0188182899999987 17.0291552199999998
  6.7801927700000002 -0.0833033500000000 -0.0944411800000000
  5.2252565799999999  1.9178009899999999  1.5683290599999999
  3.5589850699999999  3.0472000000000001  3.4850682300000000
  1.7382299800000001  5.2374261700000000  5.0622143199999998
 -0.1237022200000000  6.7503295699999999  6.6630742800000000
 18.7406942799999996  8.7075962199999992  8.6987075500000000
 17.0852266200000003 10.5111549100000001 10.1871838599999993
 15.6683877700000007 12.5628985300000000 11.8836695799999994
 14.0819076200000008 13.6952519000000006 13.6078109400000002
 11.6542450700000000 15.7812979799999997 15.4246521899999998
  9.7617870199999999 17.0674460799999999 17.2479830499999984
  8.4857201999999994 19.1583575400000008 19.0623898400000016
  7.7845792899999999 18.9145970900000009  1.7651559699999999
  6.5952410199999996 -0.0598623000000000  3.6515224200000000
  5.1244353599999997  1.9594692100000000  5.1089412999999997
  3.5109791100000001  3.5124812400000001  6.9891342099999996
  1.1380316600000000  5.2359429000000004  8.1063769699999995
 -0.2548452400000000  6.8656638399999999  9.8162151099999999
 18.9802534399999985  8.3529410899999998 11.8263942499999999
 17.1833541600000004 10.1092763300000001 13.7388824799999991
 15.5131308200000007 12.0950392299999994 15.6090236400000002
 13.7984752700000008 13.5225970600000007 17.4756958699999991
 12.1344904299999996 15.3335386099999997 18.9128233100000003
 10.2871311399999996 17.3296990599999994 20.6539462200000017
 10.4960232799999993 17.1020142700000015  3.0915560200000001
  8.6651730600000008 19.3644751699999986  5.4695422400000000
  7.0005954399999997  0.4001000600000000  7.1630213500000002
  5.0108439200000001  1.7638566700000000  9.1250322700000002
  3.4971222700000002  3.7918968099999999 10.1593420999999999
  1.3492805900000000  4.8712488699999996 11.6590052699999998
 -0.4147462500000000  6.5657805600000003 13.8051820799999998
 18.8946846400000013  8.4342219800000002 15.6912688599999992
 17.1132016900000004 10.1229163100000008 17.3075691599999999
 15.4925739199999999 11.9615963300000008 19.2888648600000003
 14.3252351400000002 14.0066374800000002 20.8772286200000003
 11.9896394300000004 15.1938927300000000  1.8292767500000000
 11.8490554800000005 15.2299565000000001  5.2396415000000003
  9.9949851800000005 16.5845583499999982  6.8042363899999998
  8.4790065800000001 18.7520944299999996  8.4751828200000006
  6.8794941600000001  0.0393978900000000 10.5098491900000006
  4.9242327899999996  1.8514779299999999 11.6746777700000006
  3.5973557000000000  3.5223037300000000 13.2971389700000007
  1.2795508600000001  4.9904597300000004 15.4062459100000009
 -0.6138173600000000  6.5778595700000002 17.3368434700000016
 19.1230212799999997  8.4427233400000006 18.7781776499999999
 17.2670626100000000 10.5948535600000007 20.3360108900000007
 15.8941702599999992 12.4167817300000003  2.0112264000000000
 14.0075401999999993 13.5648670500000001  3.3690214900000002
  5.6038800699999998  5.5971632299999996 15.3323709099999999
  3.4593299700000002  6.7515035799999996 16.8304905200000015
  1.8690600300000000  8.0545150000000003 18.8736043600000016
  0.2257063100000000 10.1835347899999995 -0.1550125200000000
 19.2837386299999984 12.4707924800000001  1.5221500699999999
 17.6658538199999988 13.7258991899999998  3.5327646200000000
 15.5087680599999995 15.9457943199999992  5.1071943700000002
 13.7817297500000002 17.3100313499999992  6.8228668700000004
 11.9767310400000007 18.9984503999999994  8.2180518399999993
 10.2306147099999993 -0.3033800900000000 10.6989889900000001
  8.6874056599999996  1.5522484299999999 12.0410503200000001
  7.1332094100000001  3.6956760599999998 13.1811137800000004
  7.2588341900000000  3.4751075100000000 16.8960106400000001
  5.0841259699999997  4.7991523400000000 18.8882545200000003
  3.6745342299999999  6.3005457299999996 -0.4498069700000000
  2.0087417400000001  8.2726872599999997  1.6072136900000000
  0.4385094700000000 10.6101762500000003  3.2950603300000001
 19.8423710900000003 11.8766137700000005  5.2671165999999996
 17.6516870200000007 13.6455791800000004  7.0636307199999999
 15.3091000499999996 14.9424939600000002  8.7882705199999993
 13.9857988100000004 16.9161263300000009  9.9046012900000004
 12.1608754200000000 18.1639486999999988 12.0755721299999994
  9.9964461500000006 20.3786015599999999 13.9376359599999997
  8.8755790300000008  1.9003530900000001 15.3947789499999992
  8.8231194100000003  1.7805381600000001 18.3948349299999983
  6.9845516099999996  3.0536301899999998 -0.4749155000000000
  5.6849037400000002  4.8491357500000003  1.2574203799999999
  3.8770555400000002  6.3049154600000001  3.5719651500000000
  2.1401929800000001  8.6394255100000006  4.9402889200000004
 -0.0095497200000000  9.6457079300000004  6.6589181699999997
 18.9188973300000001 11.9794275100000007  8.2595238799999997
 17.2755416500000010 13.5560744000000000 10.6448392599999995
 15.0802386199999994 15.0755353999999997 11.8296337699999992
 14.2055059499999992 16.9251929399999987 14.2012626999999991
 11.6546199099999992 18.7038313299999999 15.3340889399999991
 10.5634666300000006 -0.1482302700000000 17.1346008699999999
  9.8556586599999996 -0.0543667800000000  0.2325416300000000
  8.4023715299999999  1.3138685800000001  2.0252048100000000
  7.0333462899999999  3.4091774799999999  3.7091246600000001
  5.4806650899999996  5.0847718200000003  5.0862239499999999
  3.6539216200000002  6.7959402500000001  6.8861494299999997
  1.6952167600000001  8.4308410299999998  8.5752793599999997
 -0.1069991600000000 10.4653937300000006 10.0316422999999997
 18.6150662199999992 11.8506508099999994 11.9384265799999998
 16.7572655200000007 13.7715398699999998 13.9146944300000008
 15.4851104199999998 15.4795420400000001 15.7350209700000008
 13.9198205799999997 17.1247154700000017 17.3809866799999995
 11.7890582599999991 18.4855930700000002 18.7818644200000016
 11.8596231200000002 18.6666748799999986  1.4093130000000000
 10.3180609299999997 -0.0304671900000000  3.4854467800000002
  8.8352143200000004  1.9661592800000001  4.8686622599999998
  7.1242524899999999  3.3315984599999999  7.0520672900000001
  4.8069876599999999  5.4196814399999997  8.6147383299999998
  3.2792098300000001  6.3979254299999999 10.2482764399999997
  1.3375905200000000  8.4666496299999991 11.9234215399999997
 -0.3212022100000000 10.0973093400000007 13.5005508600000006
 18.8195613799999997 11.9663210699999993 15.1747126100000003
 17.5325013100000007 13.7465304100000001 16.9422108899999984
 16.1371578699999993 15.3387266300000000 18.7576305300000001
 13.8941982199999998 16.9400376299999991  0.0852453500000000
 13.5189898599999996 16.7714274600000017  3.4557229899999999
 11.9177428400000007 18.9390979900000005  5.0239249199999998
 10.3562453300000001  0.3626561800000000  7.3525576900000003
  8.5546731600000001  1.4634255899999999  8.6118118300000006
  7.0222782400000003  3.7831974399999999 10.6495465899999999
  5.1784996599999999  5.5425430200000001 11.9356288999999993
  2.8821876899999999  6.8560995699999996 13.6221489600000005
  1.5197653099999999  8.1255481300000003 15.3671126200000003
  0.2496533700000000 10.1030642600000000 17.3938918399999984
 19.0468929500000002 12.2581612399999997 18.7304871000000013
 17.3358859099999982 13.5875583300000002 -0.1263136600000000
 15.9804692700000004 15.4722930900000009  2.0847595200000000
  7.1323032700000004  7.3091107299999996 13.7567872399999995
  4.9715816799999999  8.1315066799999993 15.1540396699999995
  2.9447630100000000 10.0326264300000005 16.6333688899999999
  1.8153231100000000 12.1311638800000008 18.7822951300000014
  0.4243897800000000 13.9050599500000001 -0.0881146600000000
 19.1764153099999994 15.4972967100000005  1.7128136599999999
 17.7085383900000011 17.1205356299999991  3.3964502300000001
 15.4447807699999995 18.8137777100000001  4.8681518900000000
 13.4323091600000009  0.3191583800000000  6.6809365500000002
 11.8959661299999997  2.0954737300000001  9.3201459399999997
 10.1131997899999995  3.3618123999999998 10.2815165499999992
  8.9553145199999999  5.2388577999999999 12.2437034499999999
  8.8317594300000000  5.4607564999999996 15.6273150500000000
  6.8832067800000001  7.2418260099999996 17.5233096400000008
  4.9866339399999999  8.5368760600000009 18.7224258100000007
  3.4612797799999999 10.2178514400000005 -0.3756166300000000
  2.0029392300000000 12.0505388999999994  1.7228903300000000
  0.7350372200000000 14.0379380400000002  3.6189247999999998
 19.0436632000000010 15.4897273400000000  5.0778341600000001
 16.9596775099999988 17.3459094000000000  6.6162394500000001
 15.6707343500000000 19.0464180200000008  8.7334471699999998
 13.4552097699999997  0.0443822200000000 10.4601603700000005
 11.8884991299999996  1.2149665400000000 11.8907699099999995
 10.3920430199999991  2.9713091999999999 13.8629912799999993
 10.5814232300000004  3.5179516799999999 17.1400850799999986
  9.0544909699999998  5.2855230799999999 19.0079027799999984
  6.8977742500000003  6.7159714099999999 -0.3421650700000000
  4.9254886700000000  8.1514248499999997  1.5118385000000001
  4.0852450600000001 10.2745691499999996  3.2839938800000001
  1.9035512400000001 11.7103900900000006  5.4509474800000000
  0.4464761400000000 13.9169934800000004  6.5688087599999996
 19.3112702899999995 15.4583692700000004  8.4599080499999992
 16.8690744899999991 17.0554527000000000  9.9792317900000000
 15.3798295100000004 18.9658817100000014 11.9939693199999997
 13.5333566600000008 -0.3250698700000000 13.8763108699999993
 12.0626265799999999  1.3536120599999999 15.3862822000000001
 12.1038959699999999  1.7392214500000001 18.6212479500000008
 10.3300265800000002  3.5887862400000001  0.0883963100000000
  8.5568054300000007  4.9896355999999997  1.5514375899999999
  6.9519186099999999  6.9917838100000003  3.5374680399999998
  5.0784577600000000  8.9479000200000005  5.3109000200000001
  3.5982826600000002 10.4486233899999998  7.5952831600000001
  1.2551038299999999 12.1644384799999994  8.3920720400000004
 -0.3564675400000000 13.5155098000000002 10.6317625499999995
 18.6523606000000015 15.8273077299999994 12.1481085499999999
 17.0202771599999991 16.7643713800000000 14.2106015800000005
 15.6988000099999994 18.8936916699999990 15.7808015899999994
 13.5418460399999994 -0.7644725600000000 17.5334297399999990
 13.3461743300000002 -0.2782549100000000 -0.3215418100000000
 11.8680477000000000  1.2910219100000000  1.9831788200000000
 10.0396064099999993  3.6035987600000001  3.6471438100000002
  8.4715868800000003  5.4068786700000002  5.3102664400000004
  6.5224846400000001  7.2001114199999998  7.3422756500000004
  5.4741598299999996  8.8939319099999992  9.0452616799999994
  3.2722172800000000 10.8967810600000004 10.8853810299999996
  1.6982700700000000 12.4737095399999998 12.8105931300000009
 -0.9162368800000000 13.6617300900000007 13.6599652299999992
 18.7976885899999999 15.3170196700000005 15.7032256100000005
 17.2820545999999986 16.7601226300000015 17.4597064499999988
 15.5159650399999993 18.3617024399999984 19.5472822199999996
 14.8437787199999995 18.2305214599999985  2.0260556200000002
 13.3122315400000009 -0.1782352900000000  3.1053956399999998
 11.7179313799999996  1.7576348600000000  5.6565645800000004
 10.1327871100000007  3.7490330400000000  6.9555543000000002
  8.9133362599999995  5.3194602000000000  9.0979631300000001
  6.7789833200000000  6.5643175300000003 10.6879582299999996
  5.1032422200000003  8.2627216200000007 12.1738312000000004
  3.7054745200000001 10.3753474400000005 13.8603411600000008
  1.7795246499999999 11.8151849900000006 15.0757439699999995
  0.1777534600000000 13.5580840299999998 17.3011826000000006
 19.2872761200000014 14.8792668999999993 19.3011793300000001
 17.5352223500000015 16.6930496800000014  0.3955587000000000
  8.7947080000000000  8.6630302500000003 11.8400084099999994
  7.1977813700000004 10.0224144499999994 13.7393281599999995
  5.2578836200000003 11.8883608699999996 15.2173949700000009
  3.4663161699999998 13.5098370899999995 16.7818216500000013
  2.0569922300000001 15.3965950800000009 18.3604511499999994
  0.0925779600000000 17.1266911600000000 -0.0855225200000000
 19.3461151999999998 18.7272161500000003  1.7814258199999999
 16.9637235699999991 20.3338617900000003  3.5258100099999998
 15.1585738100000000  1.3463699800000000  4.8527814999999999
 13.6084873099999992  3.0056806900000002  6.6506217300000001
 12.7085319099999996  5.1070932700000000  8.5081175200000008
 10.7441971400000007  6.2760024500000000 10.6405115499999994
 10.5131992600000004  7.1733870499999997 14.0249645199999993
  8.8171731799999993  8.9199282600000007 15.6442879599999998
  6.8876656900000004 10.1769032700000004 17.2021846799999985
  5.0757422600000002 11.9265413299999992 18.8781312099999994
  3.5459012900000002 13.8497005600000005  0.0025410600000000
  2.0987084000000000 15.9327625800000003  1.4567958700000001
  0.3655404100000000 17.0770777799999998  3.5909030700000000
 19.5291279300000014 18.8160572600000009  5.3729830600000001
 17.2833093899999994 20.1798360499999987  6.4318438699999998
 15.6599106999999993  1.6659164000000000  8.1657751100000002
 13.9435043099999998  3.4179839799999998 10.3194722999999993
 12.2129527299999996  4.9642359599999999 12.2756673000000003
 12.0638670300000008  5.1827958100000000 15.4283509100000007
 10.4132844900000006  7.3716456199999998 17.1904766000000002
  8.5928191399999996  8.6472999000000002 19.2441012399999991
  6.6055263599999998 10.2537902400000007  0.4506687900000000
  4.8744141499999998 12.0670636200000008  1.6857466800000001
  3.5065895800000000 13.6404190100000005  3.5364849600000001
  2.2630842599999998 15.5668828200000000  5.2559727100000000
  0.3701361900000000 17.0677815099999997  7.0491177900000004
 19.1740726200000005 19.0113427900000005  8.6904247500000000
 17.5125887400000018  0.1294735400000000 10.1471075200000005
 15.8117931200000008  1.1768829800000000 11.8519770599999994
 13.7937813800000004  3.0282024500000002 13.8767352800000001
 14.0845734799999995  3.4916941399999999 17.1382004700000010
 12.0177835599999998  5.5880086699999998 18.7750978999999987
 10.7052182400000007  7.1533291900000000  0.3638578100000000
  8.6847899900000005  8.9484443999999996  1.9774485799999999
  6.7692451599999997 10.3668789500000003  3.2920017499999998
  4.7753275400000001 11.7572247200000000  5.7236791599999997
  3.6652448400000002 13.6622691199999995  7.2329590399999999
  1.6550453899999999 15.3017520499999993  9.0308849900000006
  0.0098315800000000 17.2845625600000012 10.1724942499999997
 18.8845612900000006 19.0577343200000016 11.5536439499999997
 17.7441821200000014 20.7672944900000012 13.7573684699999994
 15.3123368699999993  1.1177016799999999 15.9318054300000007
 15.9952572499999999  1.7152992700000000 18.8875163599999993
 13.2842715499999997  3.6213318999999999  0.2428720800000000
 11.6873071399999997  5.0718351999999998  1.9650361500000000
  9.7625988299999999  6.8557248800000004  3.5541137200000001
  8.7312269400000009  8.6289934899999992  5.3408127099999998
  7.2052374600000002 10.1247776599999995  7.1306591099999999
  5.3416785000000004 12.0773275800000004  8.5766722499999997
  3.5186713699999999 13.3276821099999996 10.5788764400000002
  1.5749571499999999 15.1733230199999998 12.0958632999999995
  0.2005529900000000 17.1146730500000004 13.7793214299999995
 18.7938252699999993 18.6152770899999993 15.5402737599999998
 17.1837843799999987 20.5917569799999995 17.4927136499999989
 17.4143944499999996 -0.0533432100000000  0.3293097600000000
 15.3989428999999998  1.6250919900000000  1.9708924299999999
 13.5240609999999997  3.1705297300000002  3.5423569200000000
 11.7789208900000002  5.0833909600000000  5.2715750600000000
 10.6417247199999991  7.0206787300000002  7.2906544999999996
  9.0211770300000005  8.4470028799999994  9.0956711499999994
  6.8082907700000002 10.7140471900000005 10.7060588100000000
  5.1554545799999998 11.9992523999999996 12.5065389200000006
  3.7209030099999998 14.0625721600000002 13.8344391499999997
  1.6708820600000001 14.9878897400000000 15.5691156599999996
 -0.1831904200000000 16.9016110899999994 17.0372341300000016
 18.8234138900000012 18.6094787500000010 19.0946097200000011
