Li 
 1.0000000000000000
   -10.5278949999999991   18.2348490367503473   -0.0000000000000021
   -18.0478199999999980  -10.4199137352859115    0.0000000000000046
    -0.0000000000000002   -0.0000000000000000   22.0820499999999988
 Li 
 504
Cartesian
 -0.5603418200000000  0.0511674800000000 -0.5335749300000000
 -10.7483831399999996 16.4705428000000005 15.0120161499999991
 -10.5515809600000008 14.7066981600000002  7.0403546400000003
 -10.3669183700000005 12.8870006600000000  0.0721670900000000
 -10.4951490500000002 11.0156294900000002 14.3983698499999999
 -11.0709137500000008  9.6306879700000003  7.2813593599999997
 -10.5580353500000008  7.3983321000000002 -0.4831568500000000
 -10.5070752699999996  6.1572948299999997 14.6680048599999999
 -11.2239962799999997  4.4975666199999997  7.1464749400000001
 -10.6866239800000002  2.5372718299999999 -0.0972531100000000
 -10.4508191799999999  0.5891401800000000 14.8433507599999999
 -11.0294536000000001 -1.1053314700000001  7.3984980499999997
 -1.3646378500000000  0.4423620000000000 14.3873137000000000
 -1.3982378000000000 -0.7285161500000000  7.1597803700000000
 -12.1996063699999997 15.3558081200000007  0.2476487000000000
 -12.2954167800000000 13.8692206500000008 14.8144729000000002
 -12.4827592000000003 12.1869548699999992  7.3837707400000001
 -12.0783587099999998 10.3411571599999998 -0.4639405200000000
 -11.8450213299999998  8.4634137200000001 14.5174054399999992
 -12.3275552800000003  6.5824688000000000  7.4632225900000000
 -11.8882860000000008  4.8331839900000002 -0.4438171800000000
 -12.4422179400000008  4.0223936199999999 14.6089220399999995
 -12.2991617200000007  1.5228341500000000  7.0165773800000002
 -12.3771818200000006 -0.0088530200000000 -0.1212992000000000
 -3.0244930700000001  1.7343020400000000  7.5353069000000001
 -3.0247048799999998  0.1751095400000000  0.2591327600000000
 -2.4704726199999998 -2.1163781699999999 14.6456756200000004
 -13.7441324799999993 15.0530555600000007  7.2714686100000003
 -13.3205020399999992 13.2073320600000006  0.1902381100000000
 -13.7443534100000004 11.3225722700000002 14.7912245799999997
 -13.4126115499999994  9.3492549100000009  7.7025439699999998
 -13.4067255200000002  7.8450932099999999 -0.2631109700000000
 -13.7965142200000006  6.4117806499999999 14.9695943099999997
 -13.7037840099999997  4.0810506000000002  7.0151871899999998
 -13.3227923300000004  2.5443701600000002 -0.4210745200000000
 -13.1677330000000001  0.9400845200000000 14.9247425800000002
 -4.1441648400000002  2.6638947800000001  0.1619305000000000
 -4.5371745099999998  0.1200174100000000 14.4827387999999999
 -4.9935702600000003 -0.7886079000000000  7.3820278000000004
 -4.6567024000000004 -2.1037072499999998  0.2705355900000000
 -14.9090201899999997 13.5886676099999999 15.0245750299999994
 -15.1514922999999992 12.0470881300000006  7.8133758000000002
 -14.8110178999999995 10.1449120100000005  0.5019130300000000
 -15.1347179000000001  8.0432336699999993 14.7424238600000006
 -15.5475025900000006  7.0335063000000000  7.2214794199999996
 -15.1539112599999992  5.1777140299999997 -0.1940456300000000
 -15.1260978099999992  3.2465771299999999 14.4778585599999996
 -14.8692343200000003  1.3040526299999999  7.2178582200000001
 -6.1817431000000003  2.9391699700000000 14.4571165799999992
 -6.2017255400000000  1.9038309499999999  7.4942384100000003
 -5.8438114099999998  0.5024876900000000  0.2870318100000000
 -5.8374181700000003 -2.0978738600000000 14.7829398600000008
 -16.2206958899999982 15.1217404999999996  7.5131830099999997
 -16.1514052399999990 13.2301556300000005  0.0125740900000000
 -16.4440296900000007 10.8822292800000007 14.8694728900000008
 -16.4101184999999994  9.8534211200000001  7.5656797400000002
 -16.5029180699999998  7.5794992499999996  0.1746186100000000
 -17.0167721800000002  5.8371065299999998 14.6667417899999997
 -16.7632389099999983  4.2010084599999997  7.2856617500000000
 -16.0139377299999985  2.6605873199999999  0.1810148700000000
 -7.4414318899999996  4.2594553199999998  7.3031701900000003
 -7.4074075199999996  2.9642435599999999  0.1023086300000000
 -7.6912878700000000  0.8819750900000000 14.4929521500000007
 -7.7516012800000000 -0.4342824000000000  7.3159133199999999
 -7.8571684199999998 -2.3290069000000000 -0.5705195100000000
 -17.3237174500000002 13.7839230100000005 15.3154168599999991
 -17.9942994100000000 12.2332299500000001  7.8562910300000004
 -17.8214701200000007 10.6435835999999995  0.1517463200000000
 -18.1205663699999988  8.2272669399999998 15.2263321400000002
 -18.0358870799999984  7.3040623699999996  6.7764286299999998
 -17.9422373300000011  5.1082903000000002  0.4686088000000000
 -18.3515588500000000  2.9744232400000001 14.8161430900000006
 -8.7181586499999995  5.3310248199999997  0.1308571400000000
 -9.4488841600000004  3.3816695299999999 14.7126441799999998
 -9.5035563100000005  2.2855718700000001  7.1569661199999999
 -9.1010593499999999  0.4821554400000000  0.4738123700000000
 -8.9668492600000000 -2.1819129300000002 14.8116720500000003
 -8.6286988900000008 -3.4509413699999998  8.0510766900000004
 -19.4602969899999998 12.7785424699999997  0.1527961800000000
 -20.2505817300000004 11.1316678400000004 14.8377257000000000
 -19.9159338099999985  9.8866789300000004  7.3617610300000003
 -19.0871379300000008  7.7000237000000000 -0.0092113400000000
 -19.7818485300000013  5.9745757099999999 14.8634541500000008
 -19.2467946300000001  4.2046272099999999  7.5486357200000000
 -10.2100374499999997 -2.0783875400000000  0.3525104000000000
 -10.5330698999999992 -4.2249962500000002 14.3859739500000003
 -21.0557077600000007 12.4175945199999997  7.4867644699999998
 -21.0295493399999991 10.2168079499999997 -0.0214972600000000
 -21.1730313999999993  8.4631176400000001 14.6195189100000000
 -20.6213736700000005  6.6262014799999998  7.0299594499999998
 -20.7194607700000013  5.2046578400000003  0.0332452800000000
 -12.3368476499999993 -1.9789562900000000 14.8515312900000005
 -11.7476898599999995 -3.5090130099999999  7.7539038700000003
 -11.9503397099999997 -5.2790048100000000  0.4675705200000000
 -23.0649623699999999 11.5573031299999993 14.7425386100000004
 -22.6966703400000007  9.2384787900000003  7.4697789200000004
 -22.3378692699999988  7.7428941299999998 -0.1053699600000000
 -22.8670426800000008  6.1718675300000001 15.2014774900000003
 -13.9294949199999998 -1.6135004799999999  7.8974631700000000
 -13.4826092699999993 -2.7501427600000001  0.2223135700000000
 -13.6737236800000002 -4.2383412500000004 14.4476641800000003
 -13.3995519900000009 -5.6591240300000001  6.9450229200000004
 -24.2396264700000010 10.5645364399999995  0.3065219900000000
 -24.2287837199999991  8.8978902299999998 14.9966074099999993
 -23.7217923299999995  6.8094300399999996  7.5020833800000002
 -14.8441427499999996 -0.1981488300000000  0.3665108100000000
 -15.1928047700000004 -1.7414765299999999 14.7022631700000002
 -14.6754387400000006 -3.6092876700000001  7.3093999299999997
 -14.8780291899999995 -4.9334380400000004 -0.1070591800000000
 -15.0828438200000008 -6.8320773099999998 14.8024784500000006
 -25.5723521500000004  9.4513508500000007  6.8470973500000003
 -25.3466005099999983  7.8703044400000000 -0.3243666000000000
 -16.5188987599999990  0.9352697400000000 14.7437148499999999
 -16.3902408299999998 -1.1951776500000000  7.4314871100000000
 -16.0792836399999999 -2.7914440200000001  0.1281514400000000
 -16.8087172600000017 -4.4285987899999997 14.3945319900000008
 -16.4827178200000013 -6.2821702200000002  7.3551564300000001
 -16.7259316099999999 -8.0375257399999995  0.1292217000000000
 -27.2349947999999991  8.6125469599999995 14.8293774799999998
 -26.8938095799999992  7.0483935999999998  6.9830515100000001
 -9.1407661200000003 16.0279879600000008 -0.0548474600000000
 -9.4605877500000002 14.2781477500000005 14.5671462100000007
 -8.9692126499999993 11.9236855599999991  7.1290464599999996
 -8.8638041600000008 10.3403641099999994  0.2228278400000000
 -8.7080345799999996  8.2745123700000001 14.2497136599999994
 -9.6976417200000000  6.6838516800000001  7.3075162699999998
 -17.9374970699999992 -8.7888847699999992  7.5123610400000000
 -1.6979935500000001  3.0623996999999998  0.0149437000000000
 -3.6102944899999998  3.0670606100000000 14.2723416000000007
 -4.3798796700000002  4.6605854100000004  7.3638322799999996
 -5.5939258900000004  4.9689880300000002  0.1730254700000000
 -7.3200929500000003  5.9264212599999997 14.6710746299999997
 -25.5672574799999985  6.3335045299999999 15.1632342999999992
 -25.7138864500000004  4.1482047499999997  7.2158871900000001
 -7.4052995399999997 13.2986146699999992 -0.0385321200000000
 -7.3969914299999999 11.5086218200000001 14.9255135200000009
 -7.9354538000000003  9.7219038700000002  7.0726166900000003
 -7.2169186099999996  7.5352506200000002 -0.2800658700000000
 -18.1794582399999989 -6.9841970599999996 14.3078970800000000
 -19.3364250099999992 -5.8000147799999997  7.2738575200000000
 -2.6550744700000002  5.2111401500000003 -0.3283334300000000
 -4.5770182000000004  5.8884160400000001 14.5807177200000009
 -6.2870810099999996  6.9938412799999998  7.1899636500000002
 -23.9578239300000000  5.7448383600000001  0.2805939600000000
 -23.7579673400000004  3.7387794599999999 14.6018247500000005
 -23.9411573799999999  1.7842973700000000  7.0397913699999997
 -6.0165415700000002 10.4957741400000000 -0.0960317600000000
 -5.6222780999999999  8.5538820799999993 14.4575788900000006
 -17.6303364299999998 -5.0608279999999999  0.4633073800000000
 -19.7624303499999989 -4.6982839099999998 15.2475436999999996
 -21.7060485400000012 -3.3883188500000001  7.3581213900000000
 -4.3479983999999998  7.9648615400000002  0.1934163500000000
 -22.3472381200000001  4.0634922099999997  7.3417511500000003
 -22.7677116999999996  2.8422862599999998  0.0127948200000000
 -22.3387422099999995  0.7573191000000000 14.5954631900000003
 -22.5658460800000000 -0.6560724500000000  6.9771449199999998
 -18.1411092600000003 -3.6046572600000002  7.3052347900000001
 -19.2096314200000009 -2.3092815199999999  0.0287563100000000
 -20.7179780099999995 -2.1609802299999998 14.4731244199999995
 -21.2518676599999985  3.5791642499999998 14.8024144500000006
 -20.6995766900000007  1.7944443500000000  7.0124278599999998
 -20.7583890599999989  0.4477284900000000 -0.1952549400000000
 -18.1393598999999988 -1.5810685300000000 14.7462291200000006
 -19.0438706099999990 -0.9405389500000000  7.2704554000000003
 -19.5808255899999999  2.2643330800000001 -0.2037271500000000
 -19.6920501899999998  0.6358501900000000 15.0146305099999999
 -17.7534506800000003  0.0364231100000000  0.0946975600000000
 -17.5277202000000010  1.4211241400000001  7.2006662199999996
  0.1194617600000000  0.0030010900000000 17.2377970900000008
 -10.6072472700000002 17.0304536900000016  9.8660042299999997
 -10.2559893399999993 14.3048776699999998  1.9506694000000000
 -10.5156056299999996 13.2408021999999992 16.8086006200000000
 -10.6826236899999998 11.3497517999999999  9.3647121700000007
 -10.8437913699999999  9.3060398400000004  2.3727218200000002
 -10.2501992400000006  8.1103821699999994 17.1429802400000000
 -10.7953937599999996  5.9399110100000003  9.8976332599999992
 -10.8550376300000000  4.3085146200000004  1.9284291800000000
 -10.8102033700000000  2.2914039300000000 16.8244114799999984
 -10.6134303400000007  1.1163879600000000  9.8110115699999998
 -10.7247815299999996 -0.5110915800000000  2.8300361000000001
 -1.8112389700000000  1.2053634200000001  9.6221572000000002
 -1.3655600000000001 -1.0599121300000001  2.5255425699999998
 -12.5683292000000009 15.7378849400000007 17.3028086700000010
 -11.8330082000000001 14.0967718499999997  9.4981359500000000
 -12.1071337700000008 12.2825286499999997  2.7077417700000002
 -12.6039012300000000 10.7902803200000008 16.6809048400000002
 -12.3721951299999997  8.2164602200000001  9.9165533700000008
 -11.9891091500000009  6.8917674599999996  1.8292841399999999
 -11.8818917899999992  5.1136561699999996 17.1031377000000013
 -12.4265041000000007  3.4872586200000000  9.6631046299999994
 -11.8068105499999998  2.1368235300000000  2.3436982099999999
 -11.8309160900000006  0.0435415100000000 17.4555747600000011
 -2.7165461600000000  1.8742623700000001  2.4935529399999998
 -3.0590480599999998  0.0874126700000000 16.9871554899999992
 -2.7385863399999999 -1.4107033700000000  9.3183974299999992
 -13.5501460599999994 14.4963061500000006  2.9061723499999998
 -13.1924364099999991 13.2301931699999997 17.4555619799999988
 -13.5738933700000004 11.3811869399999992 10.3279734399999992
 -13.4920201300000002  9.8098223900000008  2.4909061399999999
 -13.0129657600000002  7.7585784100000001 16.9759434300000009
 -13.6142115199999996  6.0710485800000002  9.5715736099999997
 -13.5501464400000007  4.2947688299999998  2.2262292800000001
 -13.3542351000000004  2.9181451100000002 16.9827251299999986
 -13.5357170599999996  0.6346440700000000  9.4635991599999993
 -4.9874147400000002  1.8990694400000001 17.1210119799999987
 -4.3532329299999999  0.6950438500000000 10.1925014100000002
 -3.9898852800000002 -0.6903503100000000  2.7413791500000002
 -15.0829257800000001 16.2969033600000017 16.6456248600000016
 -14.9411516300000002 13.8828300200000001  9.9257944499999997
 -15.2791311400000005 12.3077452800000007  2.7804391800000001
 -14.9066843999999996 10.5422893900000005 17.1617295600000013
 -15.0701433599999994  8.6316416799999995  9.9723300199999994
 -14.7137641000000006  6.9922247400000002  2.0925826199999999
 -14.7044080000000008  5.5222289000000000 16.8330273900000016
 -15.1630559799999993  3.1978402699999999  9.4277552599999996
 -15.1688705400000003  1.6459506699999999  2.5815287100000002
 -6.2851398700000001  3.4042136599999999  9.9277352600000004
 -6.1065661100000002  1.8803569499999999  2.4732303700000000
 -6.3596876299999998  0.0854134300000000 17.2915782399999998
 -6.0480532900000004 -2.2635363399999999 10.0121697500000000
 -16.7375954699999987 15.0342863799999993  2.6799346499999999
 -15.6979826300000003 12.7368596600000004 17.8025947600000016
 -16.6933529000000007 11.2405311599999997 10.2629505200000004
 -16.6497468899999994  9.2966121899999994  3.1529650800000000
 -16.0968594500000002  7.7047713099999999 17.3351065999999996
 -16.6414705699999992  6.0754503000000000  9.6756807200000008
 -16.5593636999999987  4.3250833599999998  2.6006549099999998
 -16.3510250699999986  2.7105942999999999 17.4864659899999992
 -7.6058837099999996  4.4535682300000001  2.6036004400000001
 -7.6346951499999998  2.9896907499999998 17.0751130499999988
 -7.8053399600000004  0.2817435700000000  9.5852862299999995
 -7.7483780299999996 -1.0563425600000000  2.1773559100000002
 -7.5086660800000002 -2.7146058399999999 17.6841824400000007
 -17.7370154000000007 13.2042848799999994 10.0050349799999996
 -17.8957238700000012 12.3038310800000001  2.5998025199999999
 -17.9611031600000004 10.6623355100000001 17.4926411100000010
 -17.9562718799999992  8.6005257999999998  9.6688454299999993
 -18.1146238699999991  6.7538560099999998  2.3450454000000001
 -17.4238614399999996  5.0771750100000004 17.4981552100000002
 -18.1111919400000012  3.3995444400000001  9.8664233800000005
 -9.3499256200000005  5.4287499199999996 17.1126942500000006
 -9.2994798500000009  3.5468729799999998  9.7651542300000003
 -9.0823361899999995  2.0412870100000000  2.3375317600000001
 -8.7474132600000001  0.1164047400000000 17.4054517599999983
 -9.3005401699999997 -1.8870683900000000 10.2274478200000001
 -9.1456467099999994 -3.2536113499999999  2.6793596599999998
 -19.2509317799999984 13.0372028899999997 17.1606229100000007
 -19.5669955800000004 11.1506626999999998  9.9215007199999992
 -19.6624565099999984  9.7574496499999999  2.1828727200000002
 -19.4996070999999986  8.0010680300000008 17.3107295299999997
 -19.5168700100000017  6.0181948099999998  9.3003136200000007
 -19.3455037300000008  4.0109531000000000  2.1396739400000002
 -10.3622140999999992 -2.2779150700000002 16.9453705700000015
 -10.7890445300000000 -4.4386856699999999 10.1141749399999998
 -21.1067213600000017 11.7504037900000000  2.5171755400000002
 -21.1572831299999997 10.6997159600000007 17.1425653000000011
 -20.7857463699999983  8.3970620399999998  9.7993098799999991
 -20.9811528500000009  7.1027703899999999  2.1976517300000000
 -21.2643660700000012  5.2784141699999996 17.0651955800000010
 -12.2612110600000008 -1.5516131600000000 10.0513224799999996
 -12.2778160799999991 -3.8019940299999999  2.6755678500000002
 -12.1234008899999992 -5.0417291799999999 17.1605905800000009
 -22.6759669200000005 11.2620167700000007  9.4738374299999997
 -22.2241178400000017  9.1732785600000000  2.5938687699999998
 -22.6186305099999991  8.0665107400000000 17.1367728600000007
 -22.6922904400000007  6.2708960200000003  9.8342424400000006
 -13.6479943800000001 -0.7473681900000000  3.1511382399999999
 -13.4238589299999997 -2.5078935100000002 17.2879967500000014
 -13.5724649300000006 -4.9124687900000001  9.4739360900000005
 -13.3474451100000007 -6.2632564300000002  2.3572144300000000
 -24.0502743899999984 10.9576008399999996 17.3009314799999991
 -24.4108292700000007  8.7451755799999997  9.9708872399999997
 -23.8916150000000016  6.7614826800000003  2.3878287999999999
 -15.0766211200000004 -0.1311950400000000 17.0043798200000005
 -15.1478966899999996 -1.9130324700000001 10.0109611199999993
 -14.7946897600000007 -3.3625313999999999  2.8193744000000001
 -14.8969091599999999 -4.7783086499999996 17.0331978299999989
 -15.2596615900000003 -7.1534076600000001  9.7964844400000004
 -25.3214792799999984  9.4807278799999999  2.2290751200000001
 -25.3081104000000003  8.1040054099999992 17.2599793199999993
 -16.7691441200000000  0.4410280500000000  9.8069809800000005
 -16.9110500600000009 -1.0579593599999999  2.5238133600000001
 -16.3658297200000007 -2.8395801100000000 17.1056336599999987
 -16.6290401299999999 -4.2963391099999999  9.7215243099999995
 -16.3111143100000007 -5.8841731199999998  2.6247451100000001
 -16.6102595800000010 -7.4344428699999998 16.9485689000000015
 -27.0634986899999994  8.6169868500000000  9.9054768800000002
 -26.9352738999999985  7.0837135699999996  2.0730596700000001
 -9.0768429699999995 15.7585586200000005 17.5748561599999995
 -9.1486081299999995 14.1370754299999994 10.4268199300000006
 -8.6506964600000007 12.0416602800000003  2.6983172500000001
 -9.1782803099999999 10.4683750199999999 16.7259316700000014
 -8.9467792100000008  8.8565295899999992  9.3681747099999999
 -8.9731556599999998  6.7882284200000003  2.3974698100000000
 -17.9200905500000012 -8.6790073299999992  2.5920204600000001
 -1.5724692199999999  2.7464020900000001 16.7522118300000002
 -3.1218271000000000  3.6749269800000000  9.6031642099999992
 -4.7461643000000002  4.6344344900000003  2.2995824300000001
 -6.1605055699999998  4.8419540599999999 17.2035204899999989
 -7.7671368100000002  6.0238106699999996  9.6758448000000001
 -25.8113845499999996  5.7735375099999997  9.7654502399999998
 -25.3913649600000007  4.3470765699999996  2.1154766199999999
 -7.8441105400000000 13.2426085300000000 17.0035795500000013
 -7.4125066100000003 11.6731703099999997  9.9222690999999994
 -7.3624393000000001  9.1384290600000000  1.9332727400000000
 -7.2238813600000000  7.6936685499999999 17.1289320200000006
 -18.1536581699999999 -6.7183663700000000  9.7709867999999993
 -19.5878761200000007 -6.2838853400000003  2.4247563099999998
 -3.3871129400000002  5.0100250500000003 17.3454825799999988
 -5.0607781400000000  5.9592039799999998  9.7454046400000003
 -5.9470401199999996  7.0884207300000002  2.6995321600000000
 -24.0888848200000005  5.0589199999999996 17.4924673000000013
 -24.0039820000000006  3.7797665000000000  9.9745676999999997
 -23.8980077100000017  1.3275135899999999  2.0317399500000000
 -24.2778076799999987 -0.0022411100000000 17.0787899699999990
 -6.0503881100000001  8.5621501799999997  9.4113206500000004
 -17.9665442199999994 -5.4215342700000004 17.0179500099999998
 -19.6871648400000012 -4.1706065900000002  9.9324737400000007
 -20.7469652199999999 -3.8719761099999999  2.5569925499999999
 -22.3610713399999987 -2.8021089899999998 17.1463129400000014
 -22.1855962700000013  4.1380758999999996  2.1657935799999999
 -22.4898520399999988  2.9397173900000002 17.1655405499999993
 -22.5220921999999995  0.7425699100000001  9.8405146299999995
 -22.3277268500000012 -1.1819472799999999  2.5884463599999998
 -18.0453369600000002 -3.3365655900000002  2.7408597600000002
 -19.4613743200000009 -2.7069100200000000 17.1710321199999996
 -20.9848005999999998 -2.1028630399999999  9.4344771699999992
 -21.5768386899999989  3.4296786799999999 10.0151701099999997
 -21.0098616500000013  1.6528489900000001  2.6496790300000002
 -21.4834290599999989  0.0308010100000000 16.9519835100000016
 -18.2730429699999988 -1.8744061900000000  9.7839499100000005
 -19.9045348699999991 -0.9477633600000001  2.4499243900000001
 -19.4870713799999997  2.8393855499999998 17.3417533500000012
 -19.6175142499999993  0.9096399400000000  9.9684766299999996
 -17.5660491400000005 -0.3220699100000000 17.3425746399999987
 -18.2661069299999994  1.6750330800000000  2.5940840500000002
 -0.1843863700000000 -0.2524258700000000  4.8319838300000004
 -10.8358260200000007 16.9091378699999986 19.7917148900000015
 -10.3904655300000002 15.0509406699999992 12.2032021200000003
 -10.4384516200000004 13.0635085699999998  4.9177126400000004
 -10.2082783700000004 11.2161412699999996 19.3215094299999990
 -10.4294108199999993  9.5946273600000005 12.1471066099999998
 -11.0541342999999994  7.1496022699999999  4.8804799499999998
 -10.0512880899999999  6.4739907399999996 19.9440707800000006
 -10.7872228299999993  3.9469748500000001 11.9702331700000002
 -10.5204954199999996  3.0997800799999999  4.6030649300000004
 -10.7537269999999996  1.0409603400000000 19.5817554899999990
 -10.5472724099999997 -1.2782031000000000 12.6685784699999999
 -1.7489466300000001  1.1794554500000001 19.4926672500000002
 -1.7577751100000001 -0.9029980700000000 11.8086021900000002
 -11.4750046099999992 15.5198452699999994  4.9218528299999997
 -11.6747941500000003 14.2535209799999993 20.0759638299999992
 -12.1257299599999993 12.2149838800000001 12.3468974399999993
 -12.1509441900000006 10.3654273000000003  5.2201430699999998
 -11.8659973200000000  9.0395571799999992 19.2633407199999986
 -12.7208453600000002  6.5688623899999996 12.4232368500000003
 -12.3977846599999992  4.8560269099999998  4.5755443800000002
 -12.2032942999999996  3.6292483299999998 19.3304875699999990
 -11.7000155100000001  1.5343479300000000 12.6022756699999992
 -12.3979068500000000  0.2732042500000000  5.2452877000000004
 -3.0284404800000000  1.6481551999999999 12.1305349499999995
 -3.5162871000000000 -0.1612600300000000  5.4858347500000004
 -14.0110972000000000 16.7700935800000011 19.7341766499999984
 -13.6948604899999999 14.5401743600000000 12.2967293699999995
 -13.5622792400000005 12.8068637899999995  5.3750811000000001
 -13.3148767800000005 11.4980534100000007 19.7529466599999992
 -13.3397507900000001  9.3853860999999998 12.5240142500000005
 -13.8517188600000001  7.9910528899999997  4.7277112700000004
 -12.7717701300000002  5.9966501399999999 19.2143177200000004
 -13.9505818700000006  4.2244073100000001 12.1995577599999994
 -13.8293137399999999  2.3536469599999998  4.2595676700000000
 -13.7697819500000005  0.8910260700000000 19.4700190800000001
 -4.6978236799999999  2.3861156000000001  4.6346172399999999
 -4.7595725499999997  0.8737379800000000 19.7488050800000003
 -4.4614689199999997 -0.9930262100000000 12.2173620799999991
 -3.9938993800000002 -2.3062399999999998  5.1011563899999999
 -14.8204203400000001 14.7267143399999991 19.8611761099999988
 -14.9874519300000006 12.0070760900000000 12.4701082700000008
 -14.9221794600000006 10.8453465900000001  5.3374038400000003
 -14.5165697300000005  8.9539184499999998 19.6240798000000005
 -15.0008559300000002  7.1394541199999999 12.0024427500000002
 -15.3369619999999998  4.8972163200000001  4.6693488299999997
 -14.6770494599999992  3.8909752300000000 19.6494203600000006
 -15.1030981999999998  1.5668607500000000 12.0198478600000005
 -5.8800496799999999  3.6207942399999999 19.7374807200000006
 -6.0572332199999996  1.8407958600000001 12.0907218200000006
 -6.1792166999999996 -0.0125355300000000  4.5667040500000002
 -6.9270238600000003 -1.3949669700000000 19.7457272400000008
 -16.4827399499999991 14.4029962499999993 12.6146428000000004
 -16.5229185600000008 13.4360214199999994  5.1914901799999997
 -16.3617807699999993 11.2083058799999993 19.8271654599999998
 -16.3313722900000009  9.4197900400000005 12.4674116300000009
 -16.6298196999999988  7.6557057400000001  4.9566995399999998
 -16.0471127200000012  6.3891832900000001 19.7321482500000016
 -16.7265701100000008  4.5101820500000001 12.2640758099999996
 -16.7303873100000011  2.2906064499999998  4.8884014699999998
 -7.7731800800000004  4.5753925999999998 12.3009992799999992
 -7.5150524599999997  2.8499895099999999  5.2004823900000003
 -8.0830758199999995  1.7328042699999999 19.9198403400000004
 -7.2674675300000002 -0.8688749200000000 12.1390649600000007
 -7.4371937199999998 -2.5144526200000001  5.2591534199999996
 -17.6712996500000017 13.8644060200000006 19.8325498899999992
 -18.4193471899999999 11.9936468200000004 12.8129380800000003
 -17.9861631899999992 10.6697565099999991  5.2927785199999997
 -17.9127800400000012  8.7567361300000002 19.7561621400000007
 -18.1418680700000010  6.8319672799999998 12.3642672200000003
 -18.1922685999999985  5.5094288300000001  5.0541463599999998
 -17.4470234300000016  3.7009643300000001 19.9215620800000011
 -9.3129558100000001  5.1381658500000000  4.8017011900000002
 -9.4819380500000001  3.7975880800000001 19.9520619699999990
 -9.1302125899999993  1.3720345800000000 12.1476002800000007
 -9.3500809199999999  0.0037000400000000  4.7207595400000004
 -9.4542856900000007 -1.3529532700000000 20.0658619700000003
 -8.8932148400000006 -3.8344949300000000 12.3007535400000005
 -19.6477832399999990 13.0888680900000001  4.8682525800000001
 -19.3255617300000004 11.4564294499999999 20.0665361000000004
 -18.9935988699999996  9.3852572100000007 12.1391231800000003
 -19.8528568400000012  7.9768681199999998  4.6384113100000004
 -19.2256280400000001  6.1774895000000001 19.5740374999999993
 -19.0321822300000001  4.2605518900000003 12.2950759000000005
 -10.4004156900000009 -2.4694869599999998  5.1969840100000004
 -10.3730019999999996 -3.7621495199999999 19.9127530200000002
 -21.8510932300000000 11.9928446999999991 12.4742345500000003
 -21.2858108500000007 10.5204870600000007  5.1290003799999999
 -20.8083898699999992  8.8966298899999998 19.7089925999999984
 -20.4688317600000005  6.9221581800000003 12.0652135800000000
 -21.0184784899999997  4.9181117800000003  4.5967351200000000
 -12.2523637799999996 -1.7397310200000000 19.5454269499999995
 -11.7827596799999998 -3.7760738400000000 11.8563575399999994
 -12.0298322800000008 -5.0408719599999996  4.5227935300000004
 -22.3443467300000016 11.5852995100000005 19.6122061899999984
 -22.8002725300000009  9.2893314599999997 12.1935790599999994
 -22.4924898099999986  7.5621101499999996  4.7109489599999996
 -22.1400894900000011  6.0085658100000003 19.6645938800000017
 -13.6245856700000001 -0.7938119700000000 12.3731239199999994
 -13.1272182700000002 -2.5655102900000002  5.3334823900000004
 -13.4577174300000006 -4.3672606099999998 19.4640852799999990
 -13.9071654200000001 -6.3940391999999999 11.7193523400000004
 -24.0143956400000000 10.4007952299999999  4.8315677900000003
 -23.5542160600000017  8.9642070799999996 19.4394430000000007
 -24.2830677199999982  6.9731235299999996 12.4285452099999993
 -15.8067248599999992 -0.4057719100000000  5.0449114300000000
 -14.7076692599999994 -1.6887318200000001 19.8279445599999988
 -15.1532607099999996 -3.2420201500000001 12.4106141200000000
 -15.0258834700000001 -5.5926488200000000  4.7761174500000001
 -14.6974159400000008 -7.1509581600000001 19.6786044300000000
 -25.7480988699999997  9.6480539499999995 12.6844102099999994
 -25.3561640299999986  7.7375032700000004  4.5166747400000000
 -16.5136736800000001  1.2197031500000000 19.9975131200000007
 -16.4588470200000003 -0.5033137900000000 12.1513450899999995
 -16.1479381099999983 -2.9148340199999998  5.1376289100000001
 -16.2583695100000014 -4.3967749200000004 19.6993239699999982
 -16.4851439000000006 -6.1808158899999999 11.7638213300000007
 -16.7288314999999983 -8.2045275800000006  4.7035420099999996
 -27.0020356499999998  9.0182237099999991 19.4855849700000014
 -27.3156349499999997  7.0319051799999999 12.5981026299999996
 -8.6247484799999992 15.4629924299999999  4.6004718300000000
 -9.2848463199999998 14.0386610800000007 19.3382766299999993
 -9.3633468600000000 12.3521496000000006 12.1607184999999998
 -9.0276253200000003 10.4477761800000000  4.7191856400000001
 -8.6197284599999993  8.9355855700000006 19.5584521500000008
 -9.3268921099999993  7.1972196600000000 11.4991296700000003
 -18.2764615600000013 -8.7040405900000000 12.2474997000000005
 -1.5729436299999999  2.3588248400000000  4.9260666400000002
 -3.3268545299999999  3.6711670299999999 19.2727520800000001
 -4.4230657999999998  4.1407285500000004 12.0713832199999995
 -6.1301363899999997  5.4351126199999999  4.8316997400000004
 -7.3650033099999996  5.8993823200000000 19.1390329600000015
 -25.2370063800000004  6.4837226899999996 19.8096574499999996
 -25.4765833000000015  4.5960729499999999 12.6833127099999992
 -7.3167349100000001 13.1080548199999996  4.8427749000000002
 -7.5868707000000004 11.1265532599999997 19.7380833299999985
 -7.2157963399999998  9.8405502299999998 12.1646461899999991
 -7.5546409099999998  7.6543313800000004  4.6580007400000003
 -18.1641468400000008 -6.6860107800000002 19.7811853800000002
 -19.4781008900000003 -6.2520929900000004 12.3276084600000004
 -3.0699535299999998  4.9608815100000001  5.2956757799999998
 -4.4159943699999999  6.1963998100000000 19.6151664900000000
 -5.9811364600000001  6.8958333600000001 12.0424497499999994
 -23.9926040799999996  5.1519861400000000  5.1648605600000002
 -24.0730144300000006  3.9774507799999999 19.7696666800000003