Li                                      
   1.00000000000000     
   -11.1791050000000016   19.3627778431472777   -0.0000000000000023
   -19.1641800000000018  -11.0644444817984429   -0.0000000000000019
     0.0000000000000000   -0.0000000000000001   23.4479499999999987
   Li
   504
Direct
  0.0010542900107495  0.9988094127309068  0.9983792600205987
  0.9389002404825249  0.0373534707522367  0.6720586371090036
  0.8589207903447971  0.0855626814219335  0.3395751236248827
  0.7819825466773835  0.1142411949024762  0.0118659426517027
  0.7215814547536681  0.1630097938579169  0.6560214334302117
  0.6451407252915686  0.2135863716678372  0.3303535025450017
  0.5712588290645755  0.2371939732203572  0.9863954639957839
  0.4910771625979322  0.3077360683428978  0.6427363065854408
  0.4245311209178695  0.3357084531397305  0.3183451836940989
  0.3563918973467963  0.3744514864925534  0.9981428052345720
  0.2826057540817288  0.4118474968152128  0.6436734831829654
  0.2170537808825230  0.4540983017727456  0.3357835759629282
  0.0750571124564701  0.0289498396932331  0.6727572333615512
  0.0025740481619607  0.0859969910177441  0.3374282216569071
  0.9240809376671280  0.1292552036831580  0.9996575167551995
  0.8550590574783854  0.1637319872412064  0.6680036438153465
  0.7756021928520695  0.2196244048989584  0.3498479696519325
  0.7216210665848024  0.2427870259221407  0.9844434157357043
  0.6469714536273088  0.2933852488286846  0.6511883546322821
  0.5713440425519067  0.3449888509285444  0.3171529476990500
  0.5034902102997592  0.3814653302456392  0.9966066790487034
  0.4265137459531658  0.4217461832463627  0.6554864762164740
  0.3536152311777556  0.4678315013251080  0.3348479525928738
  0.2858054481257142  0.4913726773506895  0.9952331666520919
  0.1446557951704222  0.0791741372149133  0.3420452350845196
  0.0731425021012058  0.1162849957080283  0.0063919208288965
  0.0110588319659826  0.1618621567045864  0.6846021332355292
  0.9356938545053950  0.2181254899833718  0.3500521636219815
  0.8568838779539050  0.2352249125997616  0.9955033450685420
  0.7862892084726454  0.2872357558798484  0.6508665674397989
  0.7115574596483043  0.3457497599719019  0.3357724129401518
  0.6399383608512892  0.3705914482391393  0.9859556553984490
  0.5648890463306415  0.4195576657973348  0.6654542004738175
  0.5022757825852651  0.4667002588956137  0.3294674114368235
  0.4313805416599479  0.4960997845890915  0.9821022609652417
  0.3478354571423523  0.5398280313523784  0.6640690998573433
  0.2075774500168848  0.1252571344366942  0.0117369684769884
  0.1497882912589006  0.1576368492805926  0.6775976258052410
  0.0731521440709102  0.2151162951118266  0.3384002179294967
  0.0041819425606278  0.2500164277840611  0.9936346333048292
  0.9295808912532237  0.2958892522762113  0.6615980885322585
  0.8597916776437700  0.3453664512384123  0.3441240394149574
  0.7904980566706925  0.3711102218922164  0.9854944376800532
  0.7092750123274243  0.4275761698812772  0.6747137323305452
  0.6495314886709380  0.4654504621299367  0.3298546363328114
  0.5738853881940571  0.5002790151946428  0.9903970304440293
  0.4952530440558576  0.5385289372636848  0.6585144070163906
  0.4309626499741412  0.5845580246512370  0.3270921189272400
  0.2861407190283742  0.1637880100899878  0.6664637177237225
  0.2202845943612317  0.2069860359145750  0.3336165511270721
  0.1503437948719721  0.2463890143500933  0.0138893690066695
  0.0724820449734622  0.2914562072902172  0.6611605654225627
  0.9948885470238480  0.3324544978977926  0.3425879904213360
  0.9362298553830470  0.3790975576590370  0.0016505711586703
  0.8530421806534676  0.4226846655085623  0.6575974014785970
  0.7889593570000955  0.4604964646211513  0.3311860354529941
  0.7281510532222768  0.4907518401605273  0.9936256495770408
  0.6452095312597521  0.5396104301382252  0.6676613260434294
  0.5649503038626378  0.5921333056430100  0.3169540898031613
  0.5086418781934583  0.6234854836616108  0.9832546243914706
  0.3613533891503096  0.2120030030287126  0.3328673832893685
  0.2841349366742350  0.2478261923416696  0.0013135634458479
  0.2106184770373360  0.2880775655550920  0.6731715284278579
  0.1389166927649015  0.3371466671325578  0.3441149955539800
  0.0720198002746315  0.3657125298682686  0.9971874696935146
  0.9937521402450997  0.4169582142426833  0.6683559338876108
  0.9300289856325108  0.4580864945210621  0.3361396011165141
  0.8584851530248443  0.5003855501980397  0.9848828959461287
  0.7897554588713689  0.5449117839090292  0.6658346695553377
  0.7053068765618065  0.5798638704966024  0.3375016434272524
  0.6474319551621832  0.6255157597604821  0.9988496405869185
  0.5680639218593768  0.6664183205763194  0.6691190027273208
  0.4150372109541678  0.2500850889438624  0.9945839342032059
  0.3548664096433498  0.2978328102545476  0.6609806157894411
  0.2844428806077701  0.3366159658896564  0.3357538978887291
  0.2121557838689228  0.3711728065470083  0.0076511831524684
  0.1477753745222330  0.4134623021596369  0.6705173352041456
  0.0679930157766009  0.4629381798421193  0.3413021701257435
  0.0021269298193758  0.5020018846734686  0.0009377152373631
  0.9293037239936695  0.5365306948997386  0.6663749210485364
  0.8680894236789811  0.5787386840085631  0.3376335973933777
  0.7922127728654615  0.6207039455795069  0.9838048298465338
  0.7087524121434896  0.6698007942758082  0.6681079825741705
  0.6366144117532500  0.7126790260004441  0.3345353073509614
  0.1467913830985239  0.4865923950435871  0.0024710339283374
  0.0664762650910902  0.5439543081174776  0.6631613680513624
  0.9943779311405976  0.5888732347586227  0.3237273202987865
  0.9189528731473970  0.6227429079164182  0.0029432381082373
  0.8550123806336885  0.6748470735818586  0.6716374412262027
  0.7892062328127025  0.7036563978595680  0.3377152109246211
  0.7254793080073085  0.7535940520522644  0.9935831665454771
  0.2072713304666252  0.5362991937679524  0.6673436628788423
  0.1482541278380083  0.5811997016420989  0.3336683859356597
  0.0609382191876762  0.6233672121211526  0.9978338008226757
  0.0070511845051371  0.6647834578908487  0.6626421456886433
  0.9356710143383538  0.7063595888399661  0.3591661356323286
  0.8587528764336625  0.7447095714659326  0.0076021972070066
  0.7950808850294280  0.7939373963698486  0.6734961133062782
  0.2875642169612505  0.5800659336505660  0.3375073526683536
  0.2147827829133391  0.6282678756732381  0.0013843960772704
  0.1417693280291559  0.6619663161263674  0.6703424977450041
  0.0718988314726303  0.6971685766669964  0.3403271979000309
  0.0033882935928773  0.7371642799302833  0.0180153945227630
  0.9330028689358372  0.7942776921770189  0.6664521649014077
  0.8561162669363753  0.8332129931836505  0.3435177002680376
  0.3560645298139775  0.6254929996709464  0.9957546437961540
  0.2869272718713489  0.6547057698470056  0.6697840574549190
  0.2117203637139866  0.6969090649014547  0.3164228932593289
  0.1386242077643232  0.7471246886566902  0.0038109711083507
  0.0763109891521836  0.7860213022218474  0.6682173529029214
  0.9932053071132572  0.8287588608134371  0.3424029367172849
  0.9283290114779561  0.8721117468183763  0.0176348350282254
  0.4180448465309041  0.6590159175045400  0.6588560031900457
  0.3526873704770352  0.7004326891765444  0.3243757577954582
  0.2854095869800517  0.7556708609052620  0.9965653539008770
  0.2131118238693261  0.7855709842123844  0.6764825500736720
  0.1457873289378497  0.8234776610391989  0.3370931079262789
  0.0763988850963031  0.8707127172477769  0.0016128493109235
  0.0095669079171969  0.9168871896354673  0.6697849760853316
  0.9363958388170914  0.9599138698499345  0.3331715036922205
  0.8595172895838274  0.0013938874727231  0.0144377423186270
  0.7970959299883091  0.0417904462172700  0.6753363355858397
  0.6996705401341856  0.0936019963511754  0.3276202691493282
  0.6483699797956390  0.1190861177998030  0.9929598050149409
  0.5632905586922874  0.1640369882181361  0.6530184732567221
  0.5054636153893455  0.2093535935209800  0.3354788154188313
  0.0783727110366996  0.9589211677299048  0.3339559095784495
  0.1440897304653959  0.0018727022865406  0.0019089869263595
  0.2163417830592493  0.0387138391151325  0.6718284583513707
  0.2933695687398981  0.0795834790349446  0.3515522487040457
  0.3425755978341201  0.1271113400821022  0.0035634859337392
  0.4241385503997464  0.1701261937914111  0.6491258254986079
  0.8605671186213257  0.9178792576246266  0.6717456080382291
  0.7819554627636833  0.9662895165063787  0.3324115852345315
  0.7146854442345045  0.9919430310574668  0.0037689618921917
  0.6383530299558160  0.0376668837933991  0.6502851259918216
  0.5664462385692133  0.0776782023639768  0.3208950714241539
  0.5021327862880369  0.1264160103977048  0.9979687315948738
  0.1428100964837071  0.9148463005643066  0.6641622111954320
  0.2167399183510810  0.9544716588480071  0.3215308958778920
  0.2868209368282919  0.9963420423413964  0.0006041649696442
  0.3671888212408305  0.0389846569236170  0.6757918820195385
  0.4221529952854652  0.0850476962562041  0.3263248458820485
  0.7831033436636190  0.8716091257404841  0.9865901914666324
  0.7066099266157195  0.9166189054955964  0.6684461784505658
  0.6392066119526518  0.9608191943661026  0.3339792890210020
  0.5714307573505195  0.0010076743877931  0.9960505937619288
  0.4987491184086608  0.0434044465587462  0.6592962421021866
  0.2126191708845866  0.8718125050833549  0.0010836469712672
  0.2887107040293699  0.9130624605400186  0.6810099117406878
  0.3532959166334564  0.9408717603301255  0.3312561878543789
  0.4196109520828415  0.9998536868008969  0.0082572301629753
  0.7112843391890422  0.8414365825905463  0.3361769105614769
  0.6497942980461033  0.8662176056445574  0.0025667143609596
  0.5736226309928085  0.9183417546566091  0.6648224185909655
  0.4924130869753682  0.9553039194647681  0.3225197038547094
  0.2852901916375785  0.8223697842648861  0.3251905863838829
  0.3601443847793888  0.8864636403639921  0.0084430830840247
  0.4373754839858748  0.9090244654400053  0.6537737755326134
  0.6367597903491458  0.7980184278121456  0.6694545454933163
  0.5646727861501049  0.8351716886913749  0.3271876471077420
  0.4983518320096110  0.8780305759506604  0.9941375446467617
  0.3567174223832836  0.7844872172901702  0.6698622962775005
  0.4193452243053386  0.8390712848784574  0.3225005913096908
  0.5748297261766240  0.7539013187076264  0.9909105184035312
  0.4955519676503926  0.7841761557593188  0.6723094927275071
  0.4326023619924229  0.7533639843728608  0.9885311752200110
  0.4925930717526441  0.7041280064476894  0.3342697472486904
  0.0108990013476813  0.9941979411349280  0.7844726886572175
  0.9208321623337170  0.0318755741124477  0.4322573730326127
  0.8459918669046615  0.0756519658407910  0.1128854390255896
  0.7735308801925953  0.1265570485971494  0.7875174396908875
  0.7159288579248511  0.1656057934504886  0.4442714830081087
  0.6454355075898022  0.2186161067118633  0.1114780857175148
  0.5737801446506765  0.2496495360633730  0.7509679447457032
  0.5001643134776756  0.2855514257526366  0.4308826502956578
  0.4240092537562532  0.3315197034930364  0.1039161137754050
  0.3546587072770819  0.3680933169165215  0.7680745630215000
  0.2878711979734447  0.4183703430764609  0.4379006680754642
  0.2185414388216458  0.4676868412090585  0.1128795792382675
  0.0703799127134133  0.0543222640303895  0.4461792344320088
  0.9957630594688922  0.0934332151480533  0.1203302275891929
  0.9300348219204722  0.1296853010196486  0.7953277015687945
  0.8400105617709173  0.1616344956504250  0.4454728123354101
  0.7862397663645382  0.2101521519123395  0.1086711205030753
  0.7158834583780376  0.2525029675691215  0.7571461918845799
  0.6395936115440861  0.2911644218129581  0.4302173968300025
  0.5667070827315968  0.3365538487897624  0.0958670519171179
  0.5102399952568319  0.3762658343756087  0.7676515017304268
  0.4342770837080892  0.4207548098657767  0.4386039368047108
  0.3534913730668876  0.4639495597458918  0.1019829575719839
  0.2824195317997322  0.4944038837017786  0.7770303399657550
  0.1442758948081533  0.0833829588832273  0.1224379832778553
  0.0732638782278627  0.1271249279950126  0.7905476726110408
  0.9957837995183070  0.1612983977339937  0.4565317629046461
  0.9316874226611063  0.2031703587052576  0.1141822666800323
  0.8505252592920769  0.2625798213762138  0.7689667301405905
  0.7804867279337984  0.2717462144125946  0.4538961218358111
  0.7240094127761481  0.3415768430262673  0.0893472627671059
  0.6445817959568600  0.3812939197977556  0.7620727577464095
  0.5703431116613444  0.4147008449467222  0.4424615832087682
  0.4966982110357847  0.4619311817943057  0.1066005488752779
  0.4290598847536842  0.4988667862152596  0.7670576958753301
  0.3624109037361904  0.5357350011317124  0.4435410195774026
  0.2086052572999648  0.1348084475877229  0.7846825381323299
  0.1454949855956045  0.1686030614956238  0.4556834776600951
  0.0771292153766012  0.2075465854911300  0.1133502463968057
  0.9953615748834181  0.2485633375084575  0.7845584552167679
  0.9356913765747379  0.2841869557516361  0.4527608840005186
  0.8697653861192762  0.3366625268186283  0.1091621224883212
  0.7914407786192967  0.3838311936400700  0.7652610360393979
  0.7202401186406391  0.3972822384523553  0.4319827110685566
  0.6359241197184389  0.4506203418896604  0.1112202640316085
  0.5746096086673020  0.4875769107104659  0.7744450738763931
  0.4905024731372123  0.5353751269315694  0.4403907173121766
  0.4311238005898588  0.5792892534513285  0.1009326239607304
  0.2899225221015698  0.1588652399195638  0.4347770538575872
  0.2126576651385790  0.2065145006131743  0.1117594642602029
  0.1350102873609629  0.2645381686830106  0.7911918444896031
  0.0688170422470193  0.2766200739573037  0.4624000793246310
  0.0032772739562432  0.3347765002379148  0.1135006864139498
  0.9251383781872278  0.3878266114550826  0.7815914726020807
  0.8606335592267698  0.4052111128616147  0.4492413306920255
  0.7716754471581382  0.4712972900639230  0.1065761036679120
  0.7182903537840275  0.4990790758885169  0.7746316078804369
  0.6429768324658625  0.5378813175046702  0.4419385327928467
  0.5783273429833855  0.5793127818888024  0.1115752383470650
  0.5019440672396982  0.6230447985877987  0.7929288368492777
  0.3627758064503794  0.2124130914148950  0.1083702822634791
  0.2789163726063819  0.2386495448495083  0.7976077145336831
  0.2096437387566041  0.2834110221176900  0.4381285455658173
  0.1447070101183598  0.3290068539144784  0.1209940843442610
  0.0660568150534573  0.3649305495226898  0.7838336728797159
  0.9854825972501544  0.4246895609239658  0.4568436059442291
  0.9201571036834579  0.4634727200134208  0.1055672184562013
  0.8697373019787662  0.5104063434366992  0.7767898033730063
  0.7759529657394069  0.5369677810862612  0.4359339298318190
  0.7148020349951238  0.5876418952741957  0.1040935527412827
  0.6494820543724487  0.6144402697404558  0.7810262696738945
  0.5649508553186280  0.6684625248016474  0.4455531336428109
  0.4339279663481719  0.2536795793901589  0.7688465273083551
  0.3541330930904536  0.2897048273584915  0.4437641307662261
  0.2824863286339721  0.3356405168985219  0.1153076128190307
  0.2174597212492486  0.3716952440899632  0.7936615021782316
  0.1343495654115259  0.4149135852178460  0.4595416503361704
  0.0769812998610959  0.4542903790204633  0.1138924490200637
  0.0011329101259605  0.5113451135788907  0.7732337001742167
  0.9241271210431137  0.5500474301802285  0.4366525060826234
  0.8490099481008428  0.5831187514485947  0.1175643593576439
  0.7895580642220850  0.6244060344071372  0.7725912785552680
  0.7148842425023503  0.6645781478894861  0.4493525365756952
  0.6368477787422435  0.7007670744286330  0.1076403723992954
  0.1371016181306146  0.4989558538506742  0.7852170437074477
  0.0632038156774328  0.5383594595824803  0.4386127013235708
  0.9947615052775660  0.5816453337708154  0.1109836633906198
  0.9368704454830947  0.6278919420788043  0.7805224473781323
  0.8638000521462104  0.6666223354222325  0.4455182056427134
  0.7699961002593980  0.7144530303727947  0.1139184065131502
  0.7132240484354426  0.7528742510253537  0.7850885527306204
  0.2166601241144903  0.5380650606084387  0.4406179354698381
  0.1383374970857290  0.5815141396418468  0.1111062549178072
  0.0774941625458609  0.6260798917570582  0.7769687955663471
  0.9988436962020089  0.6796409672404309  0.4528616945191359
  0.9300702078268657  0.7021287625837189  0.1208918506735159
  0.8601945654647167  0.7576755395869057  0.7812109711083508
  0.7881847892452640  0.7890324966486588  0.4434961145857130
  0.2824628455684248  0.5719062496173493  0.1077810815017912
  0.2194369215381826  0.6236381088701890  0.7886285415142922
  0.1353347111637717  0.6615979355107058  0.4469283220921199
  0.0804523425155281  0.7019977340811323  0.1204376092579551
  0.0124805279575355  0.7472999631347292  0.7770605703270448
  0.9358597371352104  0.7951536561070256  0.4531516755196066
  0.8635397601952093  0.8274942099846143  0.1148721031049647
  0.3619294281689704  0.6247349294313196  0.7806385743743078
  0.2783496031633419  0.6664345580937265  0.4289389110775161
  0.2204191058473910  0.6847449685677063  0.1175782437270669
  0.1407949301531488  0.7436565891340123  0.7765520465541798
  0.0827700545634897  0.8070799047587229  0.4455977059828271
  0.0139855791079597  0.8351380984037036  0.1312733684607821
  0.9357822447840434  0.8757874361659859  0.7826079439780429
  0.4281071053110850  0.6740009736123014  0.4333162293505382
  0.3603648806041306  0.7113383693648245  0.1084431005695592
  0.2801266806318168  0.7493736462460419  0.7770763866350805
  0.2168242140214147  0.7947101918742234  0.4387763331122798
  0.1546913943133319  0.8216941137254423  0.1103386202205314
  0.0747718309706187  0.8745750342846463  0.7875288995413214
  0.9955739223247306  0.9359928093490026  0.4372158632204517
  0.9327102268054546  0.9503084019231736  0.1174262811887630
  0.8606620127256406  0.0029669659869995  0.7964930891613164
  0.7882056367936485  0.0432354530531427  0.4357485775942038
  0.7124985685066179  0.0870075255145224  0.1095029420482376
  0.6428481043378582  0.1206408973697890  0.7786029785119837
  0.5664625069581675  0.1552683608769811  0.4499104731970149
  0.4961360095086818  0.2173458058430597  0.1122568889817686
  0.0787948590937120  0.9481259008593739  0.1138875087161111
  0.1424442273233169  0.0138926187349924  0.7807479937478519
  0.2107603885178619  0.0359431891642643  0.4583498109642861
  0.2918791809244823  0.0839001866571465  0.1138375486982852
  0.3590379683237757  0.1130351939463026  0.7783726995323690
  0.4189841517528521  0.1582686806437295  0.4368342584319720
  0.8524743165420432  0.9142792206905384  0.4572976592836469
  0.7885497406648128  0.9569045788228507  0.1069313176631681
  0.7118305688200977  0.0018701441413285  0.7714262278791963
  0.6362076357978950  0.0431457833110329  0.4363712512181266
  0.5695501703261741  0.0817924885466397  0.0999248979121816
  0.4948053060552056  0.1300563357812194  0.7760886985855890
  0.1460903550228139  0.9198208763282665  0.4448698845741319
  0.2197895482188628  0.9576715796114854  0.1103159363611752
  0.2745399509522457  0.0006753334402987  0.7970849153124249
  0.3553929953263406  0.0380750769916745  0.4466701140184952
  0.4308358194010182  0.0834708673762705  0.1116773918402245
  0.7913279584416273  0.8811318377903703  0.7861777477348753
  0.7137505641152586  0.9249971415393858  0.4414719943534493
  0.6449099996202108  0.9645130497989314  0.1081949935921926
  0.5660807365493810  0.0055797950988321  0.7749967148514045
  0.4973812178696804  0.0449289158423127  0.4443081420763875
  0.2045208042481121  0.8611940836824701  0.7827717902844356
  0.2936394163542104  0.9199987556179039  0.4435624700666807
  0.3650644486228600  0.9427050788021205  0.1094166061425383
  0.4300063900419673  0.9965053628722913  0.7676172125921426
  0.7130728976967475  0.8410576770826523  0.1041388889007351
  0.6342092878918422  0.8829021966336086  0.7826447557249168
  0.5711213270236897  0.9132835799633909  0.4460529526035302
  0.4914738179171465  0.9605892532189415  0.1147952661106828
  0.2826609581311459  0.8255450079080546  0.1062221008659634
  0.3445836614043642  0.8710874531483341  0.7818543723438509
  0.4189737555446200  0.9195208333736318  0.4416221861612613
  0.6417547046506371  0.8035287438578891  0.4600489629157352
  0.5729287111489043  0.8287919885198178  0.1043361539068428
  0.5041696073242079  0.8748824062346472  0.7786768698329709
  0.3627862079761925  0.7932225286175694  0.4536361536936084
  0.4341254213713981  0.8270083839391944  0.1187591324614701
  0.5668224947192186  0.7417711368382029  0.7859259500297497
  0.5088817710313904  0.8114744726387499  0.4403906179431445
  0.4330180621378119  0.7605825663537331  0.7808574630191529
  0.5143868162018492  0.6946976109107652  0.1027607820726359
  0.0010289638893681  0.9910616298030774  0.2302957913165145
  0.9218770737273658  0.0624979824708944  0.9103884531483573
  0.8658170344565050  0.0843450787365896  0.5617740578600703
  0.7929779644612793  0.1299802789684250  0.2387619015734828
  0.7105818531005283  0.1694444564335456  0.8694463430704999
  0.6535581968900175  0.2131128560343214  0.5395454963013862
  0.5631202947870690  0.2589105292762000  0.2170921837516744
  0.4964259833845261  0.2855701139843276  0.8724270970383330
  0.4227678713194507  0.3345021819818683  0.5217370699783999
  0.3570610553420437  0.3734979806555998  0.2224152537855133
  0.2845106771136514  0.4209182885427580  0.8781803236530266
  0.2185914967962717  0.4584594417923071  0.5681868965090757
  0.0723713497718350  0.0534673068145324  0.9092448124462891
  0.0057590871294053  0.0792199207206465  0.5645585221735772
  0.9268485330979388  0.1190250800922428  0.2328070347301150
  0.8479063962317568  0.1824733673109762  0.8972641923920861
  0.7780034214796530  0.2059763501970693  0.5560173153729835
  0.7221442401122289  0.2509908117456732  0.2170187261572991
  0.6328485384149189  0.2834900173116210  0.8789569160630251
  0.5674070748893598  0.3342921195725026  0.5346218948778017
  0.5154411719790346  0.3722558318239209  0.2021308220974518
  0.4324111552728667  0.4219883152857733  0.8710939817766601
  0.3591625670753942  0.4619752319480739  0.5334059484944333
  0.2952275393782031  0.4877815480964713  0.2253867950076653
  0.1425966782697898  0.0962541340652621  0.5680500256952072
  0.0657617581108809  0.1194512038132558  0.2307574154670249
  0.9867164702110784  0.1659871235962598  0.8909229041344773
  0.9234682021255267  0.2159979949195545  0.5604116760740254
  0.8676165283379618  0.2430675426746376  0.2106615559142710
  0.7783210060617449  0.2974707647042649  0.8794098132246120
  0.7233728328650599  0.3372561610908491  0.5431769638710406
  0.6662269777672947  0.3753925694554496  0.2087396083666135
  0.5649976647251123  0.4113623636014268  0.8804187645401811
  0.4934354368372666  0.4572317662887357  0.5558605660622788
  0.4418987584575831  0.4868405149520143  0.2261709821114408
  0.3571591976390494  0.5296035086227135  0.8727041673152698
  0.2174320795670397  0.1232176269556859  0.2285952473457158
  0.1374813488685547  0.1726945721370186  0.8895940293287907
  0.0722904470291823  0.2122559474062413  0.5651130623359393
  0.0063192199044195  0.2309365606652847  0.2257852869867065
  0.9225815955919856  0.3018988050524314  0.8879145942395823
  0.8687332952807338  0.3497912107411167  0.5635415722909656
  0.7938005730492321  0.3671635981723469  0.2179443175202920
  0.6918015852641872  0.4135349573613496  0.8732498589428914
  0.6381377387361482  0.4537928846528274  0.5522259941700653
  0.5704480446940039  0.5026512645634185  0.2093841917950172
  0.4998519084398367  0.5384784421300921  0.8852597318742141
  0.4283862506103162  0.5881931652630570  0.5490435146782531
  0.2873237572392213  0.1658167152900987  0.8996092481432285
  0.2217362752817422  0.2089973239823735  0.5643783477873328
  0.1451381846616897  0.2479668753976227  0.2266189214835421
  0.0705285404523863  0.2944171318984701  0.8877254834644361
  0.0001832142954825  0.3366244430052987  0.5562825769416975
  0.9389853499048115  0.3731911091396753  0.2320134945698911
  0.8467216479057669  0.4253953355838007  0.8810568795992850
  0.7769236200077003  0.4599198580348229  0.5561125045046609
  0.7123111690256394  0.5029008822078325  0.2209775029373588
  0.6347335083501946  0.5382116356209750  0.8750076147381733
  0.5680995707483802  0.5866232084101171  0.5467750161528002
  0.4945210947531464  0.6269662212022453  0.2188067673293403
  0.3572296536496538  0.2069719321534720  0.5449201734053517
  0.2895837831387880  0.2563577832181849  0.2205799057060460
  0.2145571114952673  0.2972180736195185  0.8973090875748184
  0.1461328444759076  0.3282727514381065  0.5597116242571332
  0.0691953629723940  0.3762760776520864  0.2189850502922397
  0.9941915377642303  0.4260300774268586  0.8892583304723871
  0.9330582323697740  0.4799525938090667  0.5620769239954910
  0.8639236697947439  0.4987785641430662  0.2294676413076644
  0.7754182577114790  0.5432560567750002  0.8760722600483177
  0.7114663285489655  0.5888947405621678  0.5575163453521554
  0.6425047683699319  0.6230773939397309  0.2215266255685435
  0.5632257885061023  0.6743910379459237  0.8927200586831674
  0.4225546161523255  0.2616893260133466  0.2167967374546578
  0.3591732397428729  0.2984312112349272  0.8848728272620860
  0.2856634408310654  0.3263225115965440  0.5498404521503986
  0.2134607001562472  0.3751535698151329  0.2369467467305242
  0.1499573114500805  0.4246341481754925  0.8881689149797722
  0.0803587998264064  0.4682522721591340  0.5550640273456722
  0.0098108380094359  0.4966491032621576  0.2193093592403628
  0.9270750519536790  0.5379306394184056  0.8848028953490612
  0.8519621807524800  0.5861647059951949  0.5475284125051445
  0.7935665647941192  0.6307728552788205  0.2256304875266295
  0.7091602103055763  0.6627279209009700  0.8709230610778320
  0.6540093357049486  0.7128308174507936  0.5646754462543626
  0.1530798772008453  0.5028863702691524  0.2344879241042364
  0.0723961004786844  0.5358636712428222  0.9007472985911349
  0.0043681978100665  0.5914589112615616  0.5582488695173780
  0.9326247562610348  0.6266487981306028  0.2269943965250718
  0.8605645206183326  0.6678749497621581  0.8940169213086833
  0.7826801149581613  0.7081936974851359  0.5659355521484812
  0.7057712565002205  0.7488207122664292  0.2332427491529145
  0.2084692855934023  0.5337680327087497  0.8848392520454880
  0.1475383217444772  0.5866883482462981  0.5463323122063954
  0.0711833591013331  0.6344178182606015  0.2152379512921172
  0.0006360080106873  0.6689760292205378  0.8910714501694201
  0.9304097091022001  0.7251439747970991  0.5524132676843792
  0.8528159624008325  0.7478687650943101  0.2323612921385418
  0.7809949743035816  0.7850633060108976  0.8871824283146310
  0.2885180152723663  0.5860483998208466  0.5452739322627380
  0.2216316597568877  0.6283367070364321  0.2302402039410723
  0.1440658924764477  0.6839876916772383  0.8889373778944432
  0.0750591606352913  0.7214534408488262  0.5497849679822764
  0.9942310271081354  0.7536859971937346  0.2258109612993877
  0.9398042489473539  0.7951459499739286  0.8951961872999590
  0.8600047792729555  0.8358438681960720  0.5558128864143796
  0.3691341808647124  0.6259291878402493  0.2099747026925627
  0.2802959276109291  0.6565203475528278  0.8917695807096138
  0.2188958364413551  0.7128500770896196  0.5585329310238194
  0.1388467144239698  0.7509919516801347  0.2235341447759822
  0.0735928505253511  0.8084652908043992  0.9106629342863641
  0.9962918091142754  0.8510960466490900  0.5478414620467902
  0.9240194580504877  0.8707317086570114  0.2366967287118911
  0.4245209919404971  0.6630280985877306  0.8916189581605209
  0.3488561790033771  0.7055455686088550  0.5534769866875351
  0.2800611409685061  0.7475063315358810  0.2206452406287127
  0.2166372247891033  0.7866570256162291  0.8817745005426900
  0.1407191161468120  0.8486494473067765  0.5465578103842788
  0.0733893184739713  0.8700371126184905  0.2364658961657611
  0.0090144083782278  0.9300234699437624  0.8969273625199676
  0.9199449593099018  0.9626415002183180  0.5661861416456446
  0.8724705406116939  0.0011275670075719  0.2138800803481757
  0.7821290260593088  0.0451161210203281  0.8993333472648999
  0.7145841081448552  0.0732146532602655  0.5595689827895427
  0.6403757943786985  0.1225505857898526  0.2300318309276506
  0.5601698501754058  0.1596317127607279  0.8850854931881074
  0.4900718687557060  0.2136268753285435  0.5391729703449570
  0.0707246944048450  0.9757345769636530  0.5492227341835871
  0.1412561871460838  0.0057614759407514  0.2353295277412286
  0.2129522875973464  0.0411299579193596  0.9085444288306661
  0.2832321035424101  0.0776149819678409  0.5607701278789818
  0.3669837223419137  0.1345583919921935  0.2204338490145190
  0.4213402610353896  0.1665312030651975  0.8884511840054259
  0.8680330461864685  0.9106463121934567  0.9183099673958708
  0.8019028040028360  0.9433992346272007  0.5623327975366692
  0.7045237561060844  0.9972735616914292  0.2248164368313681
  0.6513816230678344  0.0352631566106254  0.8821905190005950
  0.5648165049954841  0.0913619802633079  0.5499655210796703
  0.4997098404290412  0.1283198057162096  0.2201713616755399
  0.1402079377631935  0.9199270697682778  0.8966265353687604
  0.2073706185739255  0.9555985531886648  0.5695428645148084
  0.2829015765598868  0.9987344713403559  0.2106747523770736
  0.3541831507045217  0.0227975587290103  0.9015990873402586
  0.4216638723194777  0.0780613121267919  0.5507510178928214
  0.7781123910585919  0.8586254141087650  0.2307671578965298
  0.7177768828824327  0.9198735734941224  0.8886365895526041
  0.6487951017685347  0.9665860304925076  0.5466247138875673
  0.5601695095825221  0.9928060164629287  0.2281090125149561
  0.4958041460448825  0.0467336109308576  0.8984622664241471
  0.2109067101308639  0.8657554475194047  0.2171740753456035
  0.2769838749132774  0.9125878142992576  0.9093080410014522
  0.3460454724067574  0.9564899750049420  0.5604484592469703