Li                                      
   1.00000000000000     
   -11.1791050000000016   19.3627778431472777   -0.0000000000000023
   -19.1641800000000018  -11.0644444817984429   -0.0000000000000019
     0.0000000000000000   -0.0000000000000001   23.4479499999999987
   Li
   504
Direct
  0.9989870935197231  0.9882778766374685  0.0200520331201659
  0.9219964334500901  0.0513083972721944  0.6732686183653556
  0.8562286764171816  0.0839728045928041  0.3399323382214661
  0.7759125610049296  0.1193274191594398  0.9840487501039519
  0.7178089895901394  0.1737352365417095  0.6661263411087077
  0.6400021289125561  0.2084332760735421  0.3351368964024601
  0.5671487122483114  0.2542782454120811  0.0047860179674544
  0.5021286361565771  0.2895730875466000  0.6580857136764635
  0.4310472620658743  0.3332153224089467  0.3401248591028221
  0.3599665860354122  0.3777083714627310  0.9859290223665624
  0.2928908980866325  0.4123236452979029  0.6792034898573220
  0.2199679657844840  0.4571507392363685  0.3410994074108800
  0.0696575669536585  0.0355620279594788  0.6528450039342459
  0.0032984960995535  0.0825105100119572  0.3114800918630394
  0.9261919958778577  0.1111748130064427  0.0083243016980177
  0.8576213949588407  0.1716855714937253  0.6561462477530000
  0.7907292123555081  0.2170024529361854  0.3522586963892351
  0.7082508558217810  0.2411662693853032  0.0108693536108717
  0.6380363480614690  0.2834249924183680  0.6660948952893548
  0.5753218537990179  0.3252747102973430  0.3220697442633593
  0.5011568236721828  0.3775016231689605  0.9973069824867409
  0.4298321904739382  0.4111455736854808  0.6726228489057675
  0.3533263834703035  0.4596008563849452  0.3343714491032301
  0.2807629510309226  0.5081110702527027  0.9970256623713354
  0.1367675779708435  0.0873846319158034  0.3241912811141248
  0.0726949985885170  0.1271335239913256  0.9983503743397577
  0.9901588717358081  0.1691792581881373  0.6755820973688529
  0.9291191250928108  0.2056103153424402  0.3585452062973502
  0.8514094198100324  0.2460835683005769  0.0090175913032908
  0.7907338763619478  0.2902682467547635  0.6697389166217107
  0.7074844044329041  0.3341476064711415  0.3243270989574754
  0.6352125224083949  0.3689103173045609  0.0125619241767438
  0.5744300400122171  0.4092752002720275  0.6817022775978288
  0.4966612356498104  0.4481559564375317  0.3281029889606586
  0.4412474027401103  0.5104756052067430  0.9942418360666920
  0.3572841965915714  0.5387883192217018  0.6756628745796576
  0.2152216539655356  0.1247856089874801  0.9985961723732757
  0.1335481677422550  0.1659922010882653  0.6455996566864073
  0.0562178490934713  0.2031105281890433  0.3334020257634478
  0.0028684569222364  0.2416989283589643  0.9982815939133260
  0.9322366205032040  0.2839864202146671  0.6687112523696115
  0.8561163565977949  0.3430615370642442  0.3267658605549713
  0.7717840543443373  0.3704916160857863  0.0038275486769663
  0.7083814060614486  0.4196822896461754  0.6636360556040088
  0.6455040139415900  0.4604222721882962  0.3444361204284405
  0.5689263358126695  0.4969539210487994  0.0125302898547659
  0.4913568393264924  0.5443224249981498  0.6912303310097485
  0.4316833759673528  0.5828007513656459  0.3413711275399365
  0.2851895280857661  0.1461088578080947  0.6748951592783143
  0.2107867979937552  0.2035165132353214  0.3442777880369050
  0.1421600182937013  0.2407062294704403  0.0113640919568638
  0.0792679006143260  0.2986010074995562  0.6685845444910967
  0.9991093397660435  0.3274192547906907  0.3321320320113301
  0.9167510332653848  0.3587592853055952  0.0140484319524745
  0.8499919423510889  0.4137806119178222  0.6685213675395900
  0.7837740627782992  0.4627065909381329  0.3268558308935354
  0.6996723314083155  0.4850242327921990  0.0079165573109776
  0.6322228272829946  0.5439505609113766  0.6581616239372750
  0.5772657292130532  0.5843706561003756  0.3379109853953111
  0.5053090907097229  0.6200641972420158  0.0075542407758462
  0.3634441160893473  0.2220284047950400  0.3400205267411422
  0.2869188155879527  0.2438829865961694  0.0231726005898167
  0.2215420603885292  0.2926559949343144  0.6685057209692076
  0.1389910350773462  0.3244785258128218  0.3562334912007259
  0.0760870551734030  0.3715296997354329  0.0056647792237712
  0.0002412287497293  0.4114791401707691  0.6475743256873230
  0.9186093889615705  0.4561207949838106  0.3320650270066281
  0.8396081157551194  0.4914834522072624  0.9868454939557623
  0.7948179587594026  0.5496415632259257  0.6807203602020664
  0.7155567628350141  0.5767347898426820  0.3421512379547025
  0.6406742843378979  0.6159721148823891  0.0176410074228244
  0.5789070739879065  0.6629754523619766  0.6751104949473188
  0.4250370644161521  0.2584072899544907  0.9897391128009048
  0.3585149190654420  0.2884640170203383  0.6510749600711350
  0.2920636210803451  0.3351588945241915  0.3340846304261120
  0.2113912013129067  0.3811083878593777  0.0081169394339398
  0.1550599205129544  0.4015268729105017  0.6724311263884459
  0.0675076880377858  0.4580533441617831  0.3452761008958163
  0.9943396637465298  0.4963463207563734  0.0042176778780245
  0.9274040568556927  0.5382589576482957  0.6646496909111477
  0.8554422242945137  0.5898230017239499  0.3270438251531615
  0.7828772093448961  0.6084885476251216  0.0169155491204975
  0.7186993660149099  0.6611139341148871  0.6774707422184036
  0.6405183324595782  0.6932762642079879  0.3408164952586503
  0.1350933130960712  0.5092921934620307  0.9911766904995929
  0.0802753571497234  0.5473080629335954  0.6771458532622248
  0.9922423586348472  0.5791568539521847  0.3292971244820961
  0.9226870354605836  0.6149450103498992  0.9941423672431924
  0.8642343979062446  0.6757137869292791  0.6852081930403315
  0.7796366794351854  0.7075542866296729  0.3557801249149719
  0.7024693387855123  0.7367193176246616  0.9951034649084463
  0.2158429330901797  0.5295434110656885  0.6723112242221632
  0.1355743103052163  0.5860266470986701  0.3244450359199860
  0.0701266814734751  0.6261784164261925  0.9796498580899424
  0.0018134042666702  0.6730490599282319  0.6689884667956036
  0.9222314787561885  0.7106960404608671  0.3307875349444203
  0.8423689623426966  0.7291579864742417  0.9936758731573576
  0.7927734816057210  0.8074819923374790  0.6674778865529802
  0.2859747153696190  0.5749803998677692  0.3213669958354544
  0.2252180605819234  0.6280103094866689  0.9870869018400299
  0.1465754443801828  0.6677544072771298  0.6532590448205511
  0.0721387110457528  0.7008895384334153  0.3228762595450760
  0.0038720707050786  0.7328331676607363  0.9977756989417017
  0.9381708322372404  0.7995763960932578  0.6643684885032570
  0.8621268790501375  0.8388899747224343  0.3160085529865100
  0.3666194146636457  0.6373050080116442  0.0141609300599868
  0.2875202146362383  0.6662477518453116  0.6573628057036984
  0.2139399428382802  0.7090570880317770  0.3393409521941138
  0.1447677375010343  0.7575880654358045  0.9779831934134933
  0.0749321737643740  0.7976435580134265  0.6605570435795016
  0.0021092650049113  0.8257766919866754  0.3260540332950228
  0.9249880474926186  0.8608527212400929  0.0135255998925246
  0.4286187029372357  0.6744057269813197  0.6804911107367602
  0.3726208846902495  0.6981395814929101  0.3316794977812592
  0.2949429141481232  0.7587917836156919  0.0185818274092213
  0.2193950459751264  0.7974326501089095  0.6442993511159827
  0.1482024391370160  0.8275647620524964  0.3131923993355485
  0.0854521853852361  0.8656551142338955  0.9858069861117897
  0.9968499619522504  0.9258246560035346  0.6643759117534813
  0.9274514241393419  0.9539927660430436  0.3218450414641794
  0.8502583020875605  0.9817929957786546  0.0072511579903605
  0.7819083586828413  0.0561618492368012  0.6596472791864514
  0.7131287061546132  0.0825975666782242  0.3152416872263899
  0.6386383155058510  0.1198189134070375  0.0022882166671323
  0.5848460962047426  0.1546596176662476  0.6641749248868223
  0.5098272732379456  0.2080603010725923  0.3177024933949468
  0.0739847060430350  0.9574054471806619  0.2964013724014265
  0.1530994373270573  0.9900298783814350  0.9644804543680792
  0.2087048051635492  0.0331637966806895  0.6640992172023559
  0.2921206281615270  0.0863633938481243  0.3410890790026428
  0.3525846593400956  0.1362420266271656  0.0099215654246976
  0.4253520925933358  0.1534521427438733  0.6830424463545839
  0.8653741788444265  0.9216133844708949  0.6475303231199305
  0.7840086460032509  0.9573231938659390  0.3283886979458757
  0.7104725222441814  0.9827695463211867  0.9961151260557983
  0.6383003619411838  0.0347055241769567  0.6612241343059821
  0.5791721544275390  0.0680299476720805  0.3335349721404199
  0.5015929214523140  0.1265566678995853  0.9896190605148831
  0.1397815964141955  0.9157538640640013  0.6506977620644889
  0.2197265471308825  0.9588150517442671  0.3254338639411998
  0.2932921390976730  0.0016187638267056  0.9970627150774405
  0.3483037394246580  0.0240273236360338  0.6647216763085879
  0.4330946828544668  0.0784975070902192  0.3183325761953597
  0.7825552475900110  0.8640447412250509  0.9838343104621075
  0.7274333782383238  0.9267132277075802  0.6630968634784722
  0.6464774418863044  0.9571149726741055  0.3359254275960168
  0.5592118059890581  0.0092417569449168  0.9942556905827615
  0.4938538553458969  0.0243546333019893  0.6788909947351485
  0.2263338074455135  0.8781698690743269  0.9963243042568735
  0.2828710254061164  0.9184364854393650  0.6602993664691397
  0.3686966773571285  0.9512426866515327  0.3380028262598671
  0.4281842505447955  0.0053627336944970  0.0072442413942397
  0.7122756347084049  0.8317875870845057  0.3356857571770675
  0.6398061432732050  0.8775587442146673  0.0232757294347721
  0.5697318580231752  0.9121963369846142  0.6778215942118635
  0.5155528790946775  0.9488093777844000  0.3327572760092039
  0.2994288646733025  0.8275106465179505  0.3323822509004017
  0.3574132314782972  0.8858148789520257  0.0101253380359481
  0.4229056174839840  0.9041087256045799  0.6741750916391425
  0.6348232225232096  0.7983425269943538  0.6843944980264780
  0.5782158490514604  0.8237457674051072  0.3320576476834844
  0.4969680188945844  0.8832126313328033  0.0010148123823157
  0.3573317899565396  0.7966256651856725  0.6688821044057178
  0.4342902592196793  0.8250221575724055  0.3403027190010235
  0.5754311335037059  0.7470269841074924  0.0134402001027780
  0.4965683955902520  0.7927398029039097  0.7053896357677303
  0.4243848974011115  0.7571401114756142  0.0414439705816534
  0.5070410313540989  0.7044887405140372  0.3320726971867458
  0.9889195619071032  0.9949158033835275  0.8017206749417340
  0.9257216693653589  0.0440575655931710  0.4300214406803136
  0.8418955331663085  0.0819158166800165  0.1022229188479145
  0.7936858782005558  0.1291848062676735  0.7656692683155697
  0.7119403085896892  0.1573500012285152  0.4313076025835940
  0.6719428997810013  0.2154265400003368  0.1257017308549351
  0.5779064654691553  0.2554184531945225  0.7667557296053573
  0.4942210578057882  0.2839916511730749  0.4369694152367245
  0.4352770763064981  0.3241562289582234  0.1146390511750468
  0.3620756391843400  0.3942760859904340  0.7721853518111388
  0.2796768469152866  0.4093919005282274  0.4503994485658680
  0.2052316808169792  0.4657658475771242  0.1167028776502832
  0.0624857671702301  0.0652072229439753  0.4332680473133053
  0.0012517926914342  0.0914794480152139  0.0794202977232530
  0.9191993026383827  0.1109804656332187  0.7688490047104324
  0.8452413368838947  0.1607086196557646  0.4357711821289314
  0.7817942011768579  0.2188845631095475  0.1068671231386986
  0.7092558455368518  0.2511356630380064  0.7810111604639189
  0.6255559472339201  0.2757397056642930  0.4468030160419119
  0.5809213665028850  0.3402856682164739  0.1172003697551389
  0.4902691106191384  0.3783774846683770  0.7832193978578061
  0.4347209586508853  0.4063245193658744  0.4354018735113314
  0.3518841040329690  0.4708401936938884  0.0988938069212892
  0.2813558425916725  0.5116993658640325  0.7557078665725570
  0.1383577757863677  0.0876456903931029  0.0823582722583396
  0.0580961217180658  0.1067332056587276  0.7604030842781597
  0.9848706425540925  0.1681903439369847  0.4417375655441091
  0.9159851735560878  0.2074110098304871  0.1150755827268455
  0.8643599528156329  0.2242722386075968  0.7826529253090371
  0.7763783878756954  0.2792353182973102  0.4496293394518531
  0.7110661673344367  0.3390924231258907  0.1173702634985148
  0.6546553765783685  0.3685094753031919  0.8062451971281064
  0.5747524967919517  0.4203793310932511  0.4367799005883271
  0.4899703249578238  0.4740802387794503  0.1196242242925294
  0.4199050934117494  0.5042814203746389  0.7868391791180045
  0.3671528303444944  0.5221926864875925  0.4619791534014723
  0.2212658998981567  0.1384671753301703  0.7795148185662271
  0.1440871542333397  0.1405227718417521  0.4374218957307576
  0.0820000310998168  0.2110679618085385  0.1082589578193378
  0.0064431941942189  0.2410197678986208  0.7815380312564670
  0.9281059915796703  0.2990584882317791  0.4460632682174790
  0.8526494419412529  0.3329745066236782  0.1053410831224042
  0.7947991950598094  0.3708507029526373  0.7793166532681965
  0.7075595590789447  0.4001485696389153  0.4472245936211934
  0.6412756824897556  0.4748918994447138  0.1246584417827563
  0.5810482720154226  0.4831031594918755  0.7865852123533159
  0.5188881654829558  0.5335446622192421  0.4483814226830063
  0.4260673468462457  0.5858054585447618  0.1093298006862042
  0.2694375829507010  0.1542771310459372  0.4575289038060930
  0.2224382102919122  0.2168674652990461  0.1177331080115778
  0.1317651383977179  0.2529781072037736  0.7862741898545522
  0.0681036456919202  0.2901319489760184  0.4316716032744878
  0.0020276781489201  0.3235244734221325  0.1146872775658423
  0.9201173122503690  0.3653157637861568  0.7755519066698824
  0.8638286929466616  0.4074233752519802  0.4637568943127235
  0.7902779948400891  0.4795578175791064  0.1067754694973360
  0.7158359164987118  0.4810641575423347  0.7818564906527001
  0.6439384204772267  0.5460694208649102  0.4373764380255025
  0.5781926068553602  0.5873516314154941  0.1192907529229643
  0.5037926759438989  0.6231544181588902  0.7883027424572333
  0.3393449059552580  0.2097922747078655  0.1264294473504108
  0.2728267521389256  0.2694291788654652  0.7729162805277241
  0.2049984778020146  0.2831215664751170  0.4674996513554461
  0.1533882627248389  0.3277562575195745  0.1198067502702784
  0.0684361570529219  0.3637130388312428  0.7622101160229349
  0.0014768516006711  0.4203777334008905  0.4478231581012437
  0.9321408359166199  0.4544754526674382  0.0963746195296409
  0.8644439730141400  0.4924980035179019  0.7716479628283039
  0.7883507342563263  0.5410592994284897  0.4576667670308083
  0.7304890739472469  0.6184849720150254  0.1173519288466593
  0.6573315709900598  0.6102079566194405  0.7845630082800383
  0.5740509379421894  0.6507657238345601  0.4308711874598856
  0.4279309342713589  0.2626727990987519  0.7758161933132754
  0.3452186171483262  0.2856089355737694  0.4536867406319089
  0.2876169110433864  0.3365367749452588  0.1162691267253635
  0.2133753577283244  0.3872869176527516  0.7893019760789315
  0.1372767884028008  0.4279496810394363  0.4593933030392847
  0.0768537689551181  0.4546966224072690  0.1160268722852109
  0.9891297683382447  0.4908843368785440  0.7678738559234404
  0.9198151452743417  0.5383976163022837  0.4291433153004860
  0.8692795646651774  0.6029597839434615  0.1188727560405098
  0.8011036793742505  0.6301895250612830  0.7826640644491292
  0.7155506681754815  0.6587168633171956  0.4401631511496760
  0.6549753453571228  0.7421234006277047  0.1129955185847820
  0.1319073094265448  0.4826142891401162  0.7666319469292660
  0.0726213712336232  0.5587002671512877  0.4445999475433879
  0.0126203656060042  0.5699330019730624  0.1116358543070959
  0.9164210469380691  0.6202434558676373  0.7840866655720404
  0.8602819264230632  0.6712985379449705  0.4406561238828957
  0.7801605516453378  0.7182380486041566  0.1270301199038713
  0.7218989980045976  0.7576479151162090  0.7714392260304237
  0.2086431778695754  0.5358071316937298  0.4561508575376507
  0.1536481015417124  0.5824829296017100  0.1011633379463888
  0.0618228965080689  0.6262063108639211  0.7599634872131702
  0.0060874156713098  0.6825683379634171  0.4274242899699132
  0.9345906299791338  0.7210140441932325  0.1285993457850267
  0.8617746451674790  0.7469227206869817  0.7830782418079210
  0.7787290109626994  0.8054463045067379  0.4430917884079406
  0.2881807145015784  0.5877664671074783  0.1205774329952121
  0.1948909594006381  0.6192715144248027  0.7795187515326489
  0.1452442945757539  0.6766619192830916  0.4617688305374230
  0.0809918823798483  0.7073107762882671  0.0951426005258469
  0.9902833805026745  0.7390473649071154  0.7796928942615438
  0.9517328256781639  0.7839215275475979  0.4400066892841394
  0.8486996565691243  0.8423947565588392  0.1151430632528658
  0.3483916127362292  0.6345187344359289  0.7638695105542297
  0.2850100806559581  0.6514082633480101  0.4427827524367771
  0.2017776639002449  0.7228880801894206  0.1196527939542662
  0.1482028375307465  0.7583840293686350  0.7766550180292953
  0.0748786325921174  0.8112312681260718  0.4318901707825233
  0.9963177818713760  0.8435583663424566  0.1048776323729825
  0.9379425925211109  0.8758122348169479  0.7756454722054613
  0.4332529401357448  0.6548054944518285  0.4459461880462925
  0.3548107598776440  0.7011335564682710  0.1326138336187199
  0.2898140564301954  0.7358303007324523  0.7761736800018753
  0.2151104144064817  0.7716045382978294  0.4472244226041084
  0.1473523271181776  0.8427530347320626  0.1008319968270115
  0.0722610462151820  0.8692531893851267  0.7807106727880253
  0.9886403736863159  0.9338753056651186  0.4155534308969422
  0.9261734940198352  0.9758559579452566  0.0978406525943640
  0.8455262581831562  0.9899404952110302  0.7801895845905520
  0.7914795527729908  0.0257559788207828  0.4340342426523449
  0.7204502148130771  0.0795100276313434  0.1059082900637378
  0.6434646117430773  0.1339351071394574  0.7911737495175473
  0.5582653643611977  0.1480469977814280  0.4435334227512442
  0.5182889915675943  0.2086445547329348  0.0871932045232100
  0.0761380276232728  0.9589924909235137  0.0984649148433050
  0.1409671455102881  0.0080241011507027  0.7595827221569493
  0.1960276561776482  0.0321451238031685  0.4183962542567699
  0.2933841472334819  0.0838295837725056  0.1126941886177661
  0.3666332604297793  0.1434435903421445  0.7778236323431287
  0.4228387420303577  0.1588787506052824  0.4490969658328368
  0.8641482910600686  0.9287333096782078  0.4241471975161986
  0.7968537464434249  0.9585038456571340  0.0935704694866715
  0.7157560538606447  0.9961059591125832  0.7755347606080676
  0.6277794368172849  0.0449146887045870  0.4673144262078353
  0.5769497460996433  0.0727252336718180  0.1097435106267284
  0.4991219483248628  0.1432641778501207  0.7858816890175930
  0.1301925116804767  0.9123584819027073  0.4278098127981309
  0.2229329568318263  0.9667159480664722  0.0964372804445617
  0.2724151647345678  0.0098443058789854  0.7555720645088400
  0.3513526146055455  0.0492145215344451  0.4600417593009212
  0.4408729112180509  0.0939049139508015  0.0920522536085215
  0.7848965720345333  0.8583542372846580  0.7649982817261218
  0.7068043740851095  0.9193360507803234  0.4359214801293945
  0.6366966017052818  0.9672615502668762  0.1176827739738471
  0.5747428621253121  0.0128482244635890  0.7837259206028691
  0.5004915069694675  0.0424723078148972  0.4612264880298724
  0.2147851457674079  0.8858020777839641  0.7541637379813579
  0.2719815480851580  0.9194090629441760  0.4261851424111711
  0.3513590523025059  0.9739430344324589  0.1248033277962435
  0.4273995545703144  0.9989787625927775  0.7967148825377066
  0.7240985142584151  0.8545736086157163  0.1063531656285548
  0.6427035447829326  0.8684769047775305  0.7909841329412615
  0.5604346379533141  0.9164025195277290  0.4506006030377918
  0.5059883286643796  0.9550587656287064  0.1019678632886851
  0.2873261107265748  0.8385420095692098  0.1145044978345666
  0.3428442344460123  0.8757592803074985  0.7910746504491897
  0.4248563347034846  0.9064213508970695  0.4612292289944335
  0.6395416147970607  0.7842795599036378  0.4395450830456369
  0.5722423929836751  0.8377969145240911  0.1186609972300374
  0.5002397198640551  0.8684318539310922  0.7869000842291101
  0.3446916081842630  0.7661817823402473  0.4159861484692726
  0.4207240039186004  0.8466207270111994  0.1199739448437924
  0.5634785355107823  0.7443239473997210  0.7917009747120787
  0.4912426382274404  0.7768037414999469  0.4307559569173449
  0.4326094515853924  0.7669491403615751  0.7847301188376790
  0.5061962372449358  0.7092925026395065  0.1343965532168028
  0.9971886202028273  0.0050519343873532  0.2134268650351103
  0.9080904255566722  0.0528541087177885  0.9183979746630300
  0.8549438347551686  0.0878206874580272  0.5446770979979050
  0.7933534010572885  0.1350545766880415  0.2342343889337855
  0.7290283266384208  0.1847600079176246  0.8837910393019399
  0.6611926436299242  0.2123150253041572  0.5542778080813022
  0.5656411851248677  0.2592006106791231  0.1987158979782890
  0.5194869291038984  0.2828220807475148  0.8882732162086668
  0.4305191410662488  0.3394352822563036  0.5545113078115591
  0.3599722557418374  0.3850028462462305  0.2156969683916898
  0.2677194032775176  0.4051945551661120  0.8875717600046045
  0.2108223675909215  0.4670878783413883  0.5806798611392452
  0.0710924485588720  0.0306264944731964  0.8946941651615603
  0.9804680080393027  0.0826831812781847  0.5414905439494717
  0.9357022756409563  0.1262669131614729  0.2353231928590773
  0.8476318816181418  0.1772647519509434  0.9060143402728187
  0.7819290555224185  0.2129940997091495  0.5321483733119550
  0.7207086274257577  0.2653018981037363  0.2278668327081874
  0.6566268878517789  0.2941036190894550  0.8871145690774682
  0.5738410550096233  0.3349571712818715  0.5478521299303338
  0.4904405786490216  0.3931036869316529  0.2380617674466237
  0.4263716402969919  0.4035018411483122  0.8830412803677916
  0.3713457340266544  0.4458911650805817  0.5576285342641896
  0.2924537376952969  0.5138466455993296  0.1920386835522905
  0.1405196522093917  0.0671802546932696  0.5474330101352152
  0.0773245436660233  0.1151819617265346  0.1989869464068263
  0.9915760103388038  0.1634091609941777  0.9020613721028923
  0.9187530526354735  0.2069726080384129  0.5655400224753109
  0.8540999905976747  0.2643616802080544  0.2435519864209894
  0.7939599947255331  0.2998208377902856  0.8800350832375514
  0.7265547098419631  0.3300779694425842  0.5553422994334269
  0.6433678436787105  0.4037084786248144  0.2349666094477314
  0.5713326705996167  0.4083119692800068  0.9040795835030337
  0.4921236432472611  0.4653766959586250  0.5646377026563059
  0.4223368833735250  0.5015772908308449  0.2367951164174258
  0.3585865537456527  0.5410317036308996  0.8851550114189095
  0.2246387857873344  0.1165144862243466  0.2273037195149286
  0.1400669800693635  0.1573380589606046  0.8976444571913547
  0.0659692869895210  0.2069541902637653  0.5392850991238021
  0.0030421913283405  0.2423805038206908  0.2285208301791855
  0.9201947273302622  0.3010119589112890  0.8778273294680332
  0.8600391881992024  0.3411552892430763  0.5724013156800467
  0.7915077692832782  0.3873135578389721  0.2227271121782479
  0.7068438888840092  0.4120724151806812  0.9055283783870252
  0.6403000659176357  0.4584124795112459  0.5484470382272235
  0.5622401673470634  0.5045959229150228  0.2240430621866736
  0.5054060144698553  0.5284031013385331  0.8960982883365105
  0.4323102499883902  0.5822540924163491  0.5669018485624520
  0.2972117074809546  0.1789153506615548  0.8973354736768044
  0.2125976812103474  0.2091221637968843  0.5606806488413696
  0.1580492242635643  0.2571444677929904  0.2210203962393322
  0.0637932350427661  0.2805498715398826  0.8867367398855777
  0.9915482047862909  0.3369969451410171  0.5519507125356355
  0.9382071639899934  0.3719709610327016  0.2193126384182875
  0.8569973565387627  0.4337643805542797  0.8894982542183882
  0.7828912497805618  0.4566035658776926  0.5710847481336359
  0.7147323709868587  0.5012956326771558  0.2125615083621355
  0.6334443540172714  0.5256294631329794  0.9012422190426008
  0.5737002468618613  0.5860486262290010  0.5448704287581663
  0.4951228265255452  0.6415961900991363  0.2155608963683378
  0.3433291536769119  0.1975662721538143  0.5490943272226332
  0.2860281710885246  0.2731661538580497  0.2277235272166678
  0.2192411741645657  0.2812703018700020  0.9040065046198080
  0.1272512992476535  0.3225696358687955  0.5619153047494549
  0.0854923809119938  0.3733248673872183  0.2380228719354989
  0.9897444376265909  0.4165165657286849  0.8878113805258039
  0.9178043567123737  0.4653932089374493  0.5523705948707658
  0.8747017744810819  0.4948235139405739  0.2109164639126249
  0.7866761657447796  0.5522616424048294  0.8887508946411131
  0.7004555415908200  0.5975025173383059  0.5389359334184860
  0.6574202185351723  0.6360658153843417  0.2209819626022735
  0.5745172088696862  0.6611276557483166  0.9097084798457828
  0.4316000966795741  0.2660337411362690  0.2231005397060315
  0.3573340472370177  0.2928581826022523  0.9076234557818523
  0.2778016452183110  0.3487781584670842  0.5618747779656630
  0.2104581966032768  0.3876035604999188  0.2161918474749385
  0.1273793210845255  0.4115518798491422  0.8868343032120052
  0.0642197285288546  0.4601827290134182  0.5465666832281713
  0.0095780245434014  0.4923543150782734  0.2271050036357138
  0.9352823517879045  0.5352096382269451  0.8995464853004194
  0.8622919920931835  0.5858938665641418  0.5747780036207857
  0.7947598325111329  0.6041466904702233  0.2245121688676406
  0.7130915285186674  0.6668405847826193  0.8892446247966248
  0.6318445657789198  0.7040459745983441  0.5418389837917630
  0.1703745286445510  0.5100438424684555  0.2351129911143630
  0.0715975048990884  0.5422170296352391  0.8746852223755184
  0.9929982624064309  0.5794792367709434  0.5453403483033696
  0.9149261328513987  0.6306954429362577  0.2255801048705735
  0.8473315252381042  0.6694018199345422  0.8847149827596894
  0.7843190630486347  0.7176612670449600  0.5610705524363553
  0.7312648711314935  0.7526724218207903  0.2264167315266334
  0.2036171097188486  0.5252156753201263  0.8820451442450192
  0.1379888051730518  0.5974674318518183  0.5577703539115362
  0.0759223041122823  0.6264453772865224  0.2129664989903191
  0.9955625340072913  0.6639856747466624  0.8797847402438137
  0.9270397326472590  0.6990950632672224  0.5583888058444373
  0.8583516143719336  0.7488919054202512  0.2195847189199895
  0.7844662626109482  0.7749025161167680  0.8753363884689307
  0.3046518606469206  0.5841689637324805  0.5631178137107966
  0.2266883215909274  0.6367921518510684  0.2211870299962229
  0.1324915424577640  0.6712109500773167  0.8921701594382441
  0.0680667141349645  0.7082647129008492  0.5482856612198503
  0.0135264196262526  0.7571117858799141  0.2153198795630331
  0.9178431169575063  0.7905847838000284  0.9056723432112435
  0.8675889594399635  0.8340630653427326  0.5399687030209464
  0.3584628198985058  0.6397408173873629  0.2155175650749825
  0.2962537484802255  0.6533629400838379  0.8938986256794337
  0.2167868034084464  0.6997752328606097  0.5573682765444303
  0.1643218487850575  0.7437150067802420  0.2106406777564800
  0.0548581997069633  0.7870992771600385  0.8834005220072569
  0.9766738116084781  0.8337730009464863  0.5294867547056370
  0.9295043268733352  0.8722795899395948  0.2037973750370483
  0.4389194326652586  0.6488738487999299  0.8959495363134096
  0.3660296863505650  0.7013224616534544  0.5544532404751834
  0.2941053201584864  0.7639801971641731  0.2289580705349508
  0.2096696491750194  0.7763753699119533  0.8954617128576245
  0.1550120423591466  0.8492661664732140  0.5418654249092114
  0.0785147312451855  0.8726811142122060  0.1896904931987677
  0.9796894635328641  0.9128540031335817  0.8961389413573499
  0.9295530312393154  0.9625280116711181  0.5421671041604910
  0.8528727371336942  0.9775638467153343  0.2158944978132453
  0.7746872872591624  0.0419493144796519  0.8911443891683462
  0.7132557848579779  0.0865037037439293  0.5519397004855406
  0.6316407705562099  0.1286479026846550  0.2215989150437494
  0.5611182910961503  0.1602376212504595  0.8888416006516593
  0.4992936698072228  0.2311500194315528  0.5600594269435035
  0.0531373144295131  0.9501075252149818  0.5371722649528010
  0.1501534951695334  0.9945369873056293  0.1847298932316050
  0.2225919392992282  0.0399674010795295  0.8929299653061378
  0.2899260126820806  0.0787196786920035  0.5573538599323200
  0.3589443984670240  0.1421368626455859  0.2230451608776036
  0.4388890084835069  0.1694078823522318  0.8934281977742202
  0.8546425934434154  0.9209544671581966  0.8897642156350543
  0.7980053485909124  0.9561976916069739  0.5442362291799512
  0.7188864093091780  0.9966972908446792  0.2158288187240274
  0.6442669231992610  0.0406082570466637  0.8862400354828495
  0.5625023820051069  0.0933064737867610  0.5505576048225933
  0.4996917749996896  0.1289976836808080  0.2020415102386366
  0.1404801649031882  0.9030085433412722  0.8662359110284683
  0.2207706888068515  0.9604501788704667  0.5431626926874173
  0.3034763205487891  0.0114083789429813  0.2385115082555203
  0.3423713599698459  0.0390224266263530  0.8859744246298717
  0.4344192397557691  0.0712879875241299  0.5643483208553448
  0.7690257221671999  0.8749789526184841  0.2220344264637220
  0.7302068869010085  0.9006339827537886  0.8726242093658527
  0.6403626094647876  0.9699881023200092  0.5583371974948790
  0.5759437917644235  0.0109409162180327  0.2302485607483788
  0.4970118980811193  0.0375039007722648  0.8939970270322135
  0.2292230141000857  0.8924084733580386  0.2040891728274730
  0.2789662500945269  0.9071795265300722  0.8820065387379259
  0.3537836663543104  0.9484753647972468  0.5554002175030206