Li 
 1.0000000000000000
   -11.1791050000000016   19.3627778431472777   -0.0000000000000023
   -19.1641800000000018  -11.0644444817984429   -0.0000000000000019
     0.0000000000000000   -0.0000000000000001   23.4479499999999987
 Li 
 504
Cartesian
  0.2359682700000000  0.1100861000000000  0.4701790700000000
 -11.2903783000000004 17.2847131999999988 15.7867689000000002
 -11.1811402199999996 15.6498532099999998  7.9707164700000002
 -10.9608201300000001 13.7035309400000003 -0.3740241100000000
 -11.3539554099999993 11.9764921199999996 15.6192971400000005
 -11.1491038200000006 10.0860206300000002  7.8582731900000002
 -11.2132490699999998  8.1681269899999993  0.1122223100000000
 -11.1627795200000008  6.5186398800000003 15.4307609100000001
 -11.2045210199999996  4.6594299399999999  7.9752306900000001
 -11.2625754800000006  2.7908197299999999 -0.3299355800000000
 -11.1761026599999997  1.1090493100000001 15.9259294699999998
 -11.2199640400000007 -0.7989281200000000  7.9980818500000002
 -1.4602263600000001  0.9552899100000000 15.3078770100000003
 -1.6181205000000001 -0.8490649100000000  7.3035696200000002
 -12.4845717000000000 16.7035623099999988  0.1951878100000000
 -12.8776528199999998 14.7063270700000004 15.3852844100000006
 -12.9983189600000006 12.9097024800000000  8.2597442999999995
 -12.5393644799999997 11.0453331800000001  0.2548640600000000
 -12.5642829000000003  9.2182159699999993 15.6185597999999999
 -12.6652065100000009  7.5408452700000002  7.5518752600000001
 -12.8369938099999992  5.5269424899999997 -0.0631457400000000
 -12.6844069699999995  3.7736478400000002 15.7716269300000000
 -12.7577462799999992  1.7561521099999999  7.8403250199999999
 -12.8762105200000008 -0.1856160800000000 -0.0697421200000000
 -3.2035939299999998  1.6813378200000000  7.6016209500000000
 -3.2490747600000001  0.0009152900000000 -0.0386803400000000
 -3.1321667500000001 -2.0624260900000002 15.8410152400000008
 -14.3270733499999992 15.7153632900000009  8.4071500700000001
 -14.2339850999999999 13.7628734700000006  0.2114440300000000
 -14.4024499600000002 12.0991474799999992 15.7040046300000000
 -14.3127073199999995 10.0017057099999995  7.6048055999999997
 -14.1709712099999994  8.2176912299999998  0.2945513700000000
 -14.2650373399999992  6.5941585199999997 15.9845209199999996
 -14.1407695199999992  4.6581444699999999  7.6933424800000001
 -14.7155974300000008  2.8956464400000002 -0.1350171400000000
 -14.3195538800000008  0.9566210800000000 15.8429093000000005
 -4.7973993400000001  2.7866056299999999 -0.0329168800000000
 -4.6740534100000000  0.7492520100000000 15.1379884699999998
 -4.5209119600000003 -1.1587714400000000  7.8175940300000004
 -4.6640285500000003 -2.6187230800000001 -0.0402931000000000
 -15.8639379399999996 14.9085386000000000 15.6799080100000001
 -16.1451076899999997 12.7810054900000001  7.6619895600000003
 -15.7280230000000003 10.8445992699999998  0.0897481700000000
 -15.9619370600000003  9.0726803999999994 15.5609050500000006
 -16.0397724500000010  7.4044341500000002  8.0763209299999996
 -15.8838016399999997  5.5174751799999999  0.2938096100000000
 -15.9244226300000005  3.4914080699999999 16.2079342400000002
 -15.9947322900000000  1.9102227500000000  8.0044531299999999
 -5.9882201300000002  3.9054481299999999 15.8249079500000001
 -6.2566348400000003  1.8296207799999999  8.0726083600000003
 -6.2021592800000001  0.0893321400000000  0.2664646600000000
 -6.6085876399999997 -1.7690075199999999 15.6769369699999999
 -17.4438697500000011 15.7228200200000003  7.7878152800000002
 -17.1237835800000013 13.7813744000000007  0.3294069300000000
 -17.4319153000000000 11.8799525399999997 15.6754555999999994
 -17.6292849400000016 10.0564516699999995  7.6640991800000000
 -17.1168021599999989  8.1810762199999996  0.1856270400000000
 -17.4920518300000012  6.2230793699999998 15.4325408500000005
 -17.6522986400000015  4.7117313899999997  7.9233198900000001
 -17.5319252699999986  2.9235217800000002  0.1771314600000000
 -8.3179722500000004  4.5806667200000000  7.9727843099999998
 -7.8813130200000003  2.8571155199999998  0.5433499800000000
 -8.0851541200000003  1.0515936900000000 15.6750887199999998
 -7.7721602499999998 -0.8989220999999999  8.3529450900000004
 -7.9706472200000000 -2.6375129899999998  0.1328274600000000
 -19.0674620300000015 14.8146605999999998 15.1842904099999991
 -19.0104118299999989 12.7401063099999998  7.7862441499999999
 -18.8049446300000014 10.8191540499999999 -0.3084462000000000
 -19.4187832699999987  9.3084050000000005 15.9614969700000007
 -19.0519335100000013  7.4739165700000001  8.0227451199999997
 -18.9667655800000006  5.5898445700000003  0.4136454600000000
 -19.1770438699999985  3.8737939799999999 15.8299571300000004
 -9.7036977899999997  5.3707651399999996 -0.2405967700000000
 -9.5360522700000008  3.7501506299999998 15.2663731100000000
 -9.6880552699999996  1.9468160299999999  7.8335997099999997
 -9.6667941800000001 -0.1236317300000000  0.1903255900000000
 -9.4283643999999995 -1.4402809999999999 15.7671314299999992
 -9.5328922699999996 -3.7609694299999998  8.0960167500000004
 -20.6278977400000016 13.7613816999999994  0.0988959000000000
 -20.6828388799999985 12.0015823699999995 15.5846727200000004
 -20.8665526200000002 10.0376738900000007  7.6685072600000002
 -20.4130505800000002  8.4260897299999993  0.3966349500000000
 -20.7041221100000001  6.6011577399999997 15.8853000899999994
 -20.4464928099999987  4.7314974400000001  7.9914481400000001
 -11.2703895999999997 -3.0192533899999998 -0.2068885200000000
 -11.3861168799999994 -4.5013057700000001 15.8776821100000003
 -22.1914477099999985 12.8045194999999996  7.7213425100000004
 -22.0997321199999988 11.0617591599999994 -0.1373494800000000
 -22.6108677200000017  9.2575809699999994 16.0667274499999984
 -22.2753380099999987  7.2672366999999998  8.3423145800000000
 -21.9716001100000007  5.4503677599999998 -0.1148137100000000
 -12.5611960600000003 -1.6797849100000000 15.7643199700000007
 -12.7463195999999996 -3.8589640500000000  7.6075709800000002
 -12.7841494200000003 -5.5704689700000003 -0.4771691100000000
 -24.0978105700000000 11.9509764300000008 15.6864081199999994
 -23.9296293800000015  9.9935063599999996  7.7562895799999998
 -23.3906459799999986  8.2428750199999996 -0.1482878100000000
 -24.3372282400000017  6.4159571299999998 15.6509881100000001
 -14.2159692500000006 -0.8245738300000000  7.5353972499999999
 -14.5530389600000003 -2.5877379299999999 -0.3027856800000000
 -14.4355479399999993 -4.5502238000000004 15.3175854200000003
 -14.2384194999999991 -6.3581475500000000  7.5707863900000003
 -25.2665380199999987 11.3293599900000004 -0.0521553000000000
 -25.8111362200000016  9.3187247600000003 15.5780791000000001
 -25.7144453800000008  7.4113196800000001  7.4097527500000000
 -16.3119048199999988  0.0473444000000000  0.3320447800000000
 -15.9823105099999996 -1.8044712199999999 15.4138102000000003
 -15.9801547500000005 -3.7028512000000000  7.9568496800000004
 -16.1369277900000014 -5.5791855500000000 -0.5162489800000000
 -16.1238593600000009 -7.3745878300000003 15.4887085300000003
 -27.0280178599999985 10.2668587099999993  7.6452986699999999
 -26.8380750100000007  8.3854809299999999  0.3171475900000000
 -17.7160062300000014  0.8373240000000000 15.9561215399999998
 -17.5448406000000006 -0.5095512300000000  7.7772042800000003
 -17.8388201299999984 -2.6846954400000000  0.4357057600000000
 -17.7347831000000014 -4.5750517500000001 15.1074989700000000
 -17.5163706899999987 -6.2869334600000002  7.3437197200000002
 -17.5448493799999987 -7.9234012700000003 -0.3327970800000000
 -28.8865607500000010  9.0580488500000005 15.5782531599999992
 -28.6505659399999999  7.4026358900000000  7.5466064399999997
 -9.1562045300000001 16.6648129999999988  0.1700247900000000
 -9.8173314299999994 14.5185181799999992 15.4673764200000008
 -9.5550553199999992 12.8942565200000008  7.3917713200000001
 -9.4356360099999996 11.0400821100000002  0.0536539900000000
 -9.5019806700000000  9.6130222799999991 15.5735404299999995
 -9.6867176799999992  7.5696005800000004  7.4494721799999999
 -19.1749731200000006 -9.1606099899999993  6.9500045600000000
 -1.5204454800000000  3.0747442500000002 -0.8328605300000000
 -2.9686899000000002  3.6741657900000000 15.5717652399999995
 -4.9207308000000003  4.7007038500000000  7.9978396700000003
 -6.5525476500000002  5.3195760900000000  0.2326403700000000
 -7.6958401900000002  6.5381353600000001 16.0159451299999986
 -27.3360735999999989  6.5589078499999998 15.1832586400000000
 -27.1108289800000009  4.5883359099999996  7.7000417700000003
 -7.6122394099999999 13.9473670100000007 -0.0910923300000000
 -7.8007296799999999 11.9752707600000008 15.5043504399999996
 -7.7783644900000004 10.4616681800000002  7.8207113499999998
 -8.0327146999999997  8.3119530800000003 -0.2434117500000000
 -19.1123050300000017 -7.4257477900000000 15.2575285899999997
 -20.8312503800000002 -6.3542395899999997  7.6307569700000002
 -3.3097658999999999  5.6610398100000001 -0.0688733100000000
 -4.3541880300000004  6.4782789400000000 15.5863606299999997
 -6.3459512900000004  7.5173848200000002  7.4642463299999999
 -25.3069762300000001  5.5922683400000004 -0.3790522800000000
 -25.8917532199999982  3.8315638399999998 15.5482621000000005
 -25.5693628199999985  1.9276536099999999  7.8767626300000000
 -6.4285981899999998 10.7256390600000007 -0.1346922800000000
 -5.9875806799999998  9.2929119999999994 15.9186020999999993
 -19.3596148399999990 -5.3340105299999996 -0.0861875300000000
 -20.7633270199999984 -4.6848206799999996 15.4826665299999995
 -22.3514849399999989 -3.3859800400000002  7.9254733699999997
 -4.8894890899999996  8.2315008499999998  0.1698626100000000
 -23.9031311500000001  4.5883672999999998  7.8711428500000000
 -23.9701537900000012  2.6787242099999999  0.5457681400000000
 -23.8505870599999987  0.9386456700000000 15.8935268500000006
 -23.9465734700000006 -0.5155128200000000  7.8024759699999997
 -19.2059096999999994 -3.3581710199999999  7.7936823999999998
 -20.9714758299999993 -2.8805365500000000  0.2374184200000000
 -22.0542086600000005 -1.8148332800000000 15.8080238400000006
 -22.3963353500000011  3.4587244600000000 16.0476479699999999
 -22.2503478500000007  2.0815757200000000  7.7860711199999999
 -22.4817035099999991 -0.1495757800000000  0.0237952700000000
 -19.2613272400000000 -1.8952843800000001 15.6839141400000006
 -20.6658495400000000 -0.7193460500000000  7.9794011400000002
 -20.7489646500000013  2.8765066099999999  0.3151451400000000
 -20.7433985099999987  0.8437179900000000 16.5399409099999986
 -19.2542127100000009 -0.1600642400000000  0.9717761499999999
 -19.1692139600000004  2.0229462900000001  7.7864240000000002
  0.2213038400000000 -0.1582942500000000 18.7987062999999992
 -11.1930668600000001 17.4370705400000006 10.0831212400000005
 -10.9814880200000005 15.3950831699999995  2.3969178900000001
 -11.3484186499999993 13.9386052199999995 17.9533747199999993
 -10.9743392100000001 12.0441516800000006 10.1132790999999997
 -11.6401932200000005 10.6271061000000007  2.9474478999999998
 -11.3553622700000005  8.3638112099999997 17.9788500099999986
 -10.9674162200000005  6.4272826900000002 10.2460369999999994
 -11.0781964599999991  4.8415647300000000  2.6880507400000000
 -11.6036594700000002  2.6483443000000002 18.1061635199999991
 -10.9721969099999992  0.8856267000000000 10.5609437499999999
 -11.2203270499999999 -1.1795849199999999  2.7364432399999998
 -1.9481779100000001  0.4884163300000000 10.1592475100000001
 -1.7671225300000000 -0.9879310900000000  1.8622431699999999
 -12.4026751399999995 16.5703146900000000 18.0279330199999990
 -12.5288905699999997 14.5880686300000004 10.2179408899999995
 -12.9345026300000008 12.7158713399999996  2.5058149599999999
 -12.7416546200000003 10.9544867700000008 18.3131106400000014
 -12.2774809699999992  9.0615941699999993 10.4766147800000002
 -13.0154767499999995  7.4831794800000004  2.7481084099999999
 -12.7320640899999997  5.3064352000000001 18.3648892799999999
 -12.6466674700000006  3.9216502599999998 10.2092813600000003
 -12.9570155699999994  1.6038685500000001  2.3188570400000001
 -12.9516052599999991 -0.2138385500000000 17.7198002700000004
 -3.2263738900000001  1.7092400000000001  1.9311326499999999
 -2.6949170100000002 -0.0560413300000000 17.8298935000000007
 -3.0540973500000002 -2.1538791100000001 10.3578403500000000
 -14.2147563600000009 15.4411298200000004  2.6982865100000000
 -13.9607642199999997 14.2549620099999999 18.3516066600000016
 -14.0305314200000009 11.9432585699999994 10.5428862700000003
 -14.4475115800000005 10.0163469400000000  2.7520920699999998
 -14.3806431099999994  8.5985939899999995 18.9047970700000008
 -14.4814436799999999  6.4775411399999996 10.2415932699999992
 -14.5627887400000002  4.2417520700000004  2.8049428299999999
 -14.3583030399999991  2.5509352600000001 18.4497657299999993
 -14.1118346799999994  1.3313267000000000 10.8324640900000002
 -5.1271646000000004  2.7522600900000000 18.2780244900000000
 -4.3037691200000001  1.2351211499999999 10.2566467400000008
 -4.9616313700000001 -0.7476013600000000  2.5384506299999998
 -15.8700803599999993 16.8207861399999992 18.3254646799999996
 -16.1066050300000008 14.6617940900000008 10.4592692100000004
 -15.9130410199999996 12.8254837800000008  2.4700324500000002
 -15.9921932800000004 11.2862632299999994 18.2733779200000015
 -15.5784018199999998  9.2728969200000009 10.4864999099999991
 -16.2698020300000010  7.1624635200000002  2.9229849099999998
 -15.7538755500000001  5.9054405200000000 18.4438107299999992
 -16.0256512300000011  4.1437409799999996 10.5136251800000000
 -15.9895328600000006  1.7682354100000000  2.5635596999999999
 -5.9686657399999996  3.5100693100000000 10.7281148599999998
 -6.6427472500000002  1.9075036200000000  2.7606000300000000
 -6.3211342999999998 -0.2477231200000000 18.4365178900000011
 -6.3214787000000001 -1.8914730799999999 10.1218141700000004
 -17.4018538700000001 15.8224207499999991  2.6891815499999998
 -17.2870650999999995 13.7740111200000008 18.1851023299999994
 -17.4647665600000010 12.2182097600000006 10.8741484699999997
 -18.0249330199999989  9.9959363999999997  2.5036658699999998
 -17.2216049799999986  8.5378641599999998 18.3329318999999984
 -17.6636278900000008  6.4264817900000004 10.2555808499999994
 -17.7197882500000006  4.6966954799999998  2.7971236099999999
 -17.5741946599999999  2.8599682000000000 18.4840832900000009
 -7.8140692500000002  4.2494250500000001  2.9645113599999999
 -8.2133481899999996  2.3015995999999999 18.1233022999999989
 -7.7174921699999999  0.8367571300000000 10.9619084499999992
 -7.9959234099999996 -0.6564180600000000  2.8092226899999999
 -7.7353171300000003 -2.6991686200000000 17.8722646900000015
 -19.2518094300000016 14.7401277000000004 10.5005350199999992
 -19.1301496600000007 13.0203175099999999  2.2597872600000000
 -19.1020303300000016 11.2888197899999998 18.0935628500000014
 -19.1820134399999986  9.2781395500000006 10.7313474699999993
 -20.0189713900000008  7.3011050199999996  2.7516621600000000
 -19.0425137699999993  5.9761531200000002 18.3963941899999988
 -18.8887671799999985  3.9148595600000000 10.1030460600000005
 -9.8177936500000005  5.3796030100000003 18.1912993100000016
 -9.3326962200000008  3.5242871800000000 10.6380240100000005
 -9.6647509800000009  1.8454698899999999  2.7262726700000002
 -9.8073817299999995 -0.1535749500000000 18.5075132700000005
 -9.7359363499999994 -2.0769655299999998 10.7718311999999994
 -9.5730442700000005 -3.5428630800000001  2.7205922999999999
 -20.4649813300000005 13.7209374700000009 18.0050677800000010
 -20.6006589200000008 11.8531057799999999 10.0625309999999999
 -21.2729973600000015 10.1602520399999996  2.7873224400000001
 -21.0326876399999989  8.5388955600000003 18.3518678500000014
 -20.6229845900000015  6.5667124599999998 10.3209235600000007
 -21.5442245899999989  4.4709589400000000  2.6495132699999999
 -10.7235127699999993 -2.7857670799999998 17.9759475600000016
 -11.5188744199999995 -4.7755566099999998 10.4249573400000006
 -22.2424880300000005 13.3011511200000001  2.6176319299999999
 -22.1312243399999993 10.8818078600000003 18.3852249299999997
 -22.4820680000000017  9.2299024200000002 10.3324827599999995
 -22.4859399700000004  7.1591704299999996  2.9785959000000002
 -22.5898857200000016  5.5950166299999999 18.0886683999999995
 -12.6007483100000002 -1.8884967600000000 10.6958024999999992
 -12.8804559699999999 -3.4697959799999998  2.3720728900000001
 -12.6918551100000006 -5.7315619499999997 17.8195858499999993
 -24.3280193500000017 11.9284076399999996 10.0222233799999998
 -24.2655297099999991 10.1186508800000006  3.0153910300000000
 -23.9480307100000012  8.4220660299999999 18.3615794600000015
 -24.1412113400000017  6.1665409200000001 10.3895941000000001
 -14.4856648400000001 -0.9233302900000000  2.8272936199999998
 -14.0465372700000000 -3.0782649399999999 18.2781167099999990
 -14.5913720399999995 -4.6745552300000002 10.8275324499999996
 -14.4604477899999999 -6.2577729900000003  2.2308989399999999
 -25.2337186200000012 10.9974885600000007 18.2821999999999996
 -25.6627344499999985  9.7545350499999994 10.3172548499999994
 -25.6315073200000008  7.1125528899999999  2.6998687900000000
 -16.0547376600000007 -0.2747679100000000 17.9111740899999994
 -15.6698628299999996 -1.6888836899999999 10.3823478399999996
 -16.1092509799999988 -4.0913789500000002  2.8056127300000000
 -16.1905831300000003 -5.5214793699999998 18.2109680300000001
 -16.3836581400000014 -7.5259650000000002 10.1269391300000002
 -27.3040454699999984  9.9579751600000002  2.4591654799999998
 -27.2695820399999995  8.4707982000000008 18.1872962499999993
 -17.3921904699999992  1.1439213900000000 10.4565239200000004
 -17.4031164199999999 -0.8875313900000000  3.1095225399999999
 -17.3414460999999989 -2.5299483199999999 18.1996816400000014
 -17.1919101699999999 -4.3722404099999999 10.4864958999999995
 -17.7979379900000012 -6.4714437900000004  2.3643036199999998
 -17.4663384099999988 -8.2186290700000004 18.3060648199999996
 -28.9490690000000015  8.8100124500000003  9.7438760700000007
 -29.0552699700000012  7.1359875400000004  2.2941627300000000
 -9.2594446599999998 16.4830399300000003 18.2938463700000007
 -9.3416252400000008 15.0402671500000000 10.1772132200000005
 -9.5777330799999998 13.0701831700000000  2.4833322899999999
 -9.7601149599999992 10.9773447700000002 18.5514025199999999
 -9.0781064400000009  9.1715104400000005 10.3999495199999998
 -9.7925088599999999  7.7269785100000004  2.0445019000000002
 -19.2294597200000013 -9.1364754599999998  2.3088004000000000
 -1.7296618399999999  2.6407333000000000 17.8106576899999993
 -2.8074486900000002  3.4399720199999999  9.8105344500000005
 -4.8862974200000000  4.7532042900000002  2.6424477000000000
 -6.8476105000000000  5.5119147300000000 18.2383696399999984
 -7.7717396699999997  6.4294275100000000 10.5304032000000003
 -27.4588168000000010  6.4563932399999997  9.9453822800000005
 -27.2770519299999989  4.8239894799999998  2.1940356900000002
 -7.9268859799999998 13.9021108600000005 18.1847002899999985
 -7.8787654199999997 11.6585976900000006 10.9575653000000006
 -7.8435012600000000 10.3666854500000003  2.5732603500000000
 -8.3252771600000006  8.0792488599999999 18.4273145499999984
 -18.9400379299999990 -7.5738510899999998 10.0312631000000003
 -21.0185093700000003 -6.3795736200000004  2.2612565299999998
 -3.2340157800000000  5.1657925400000000 17.7166159900000011
 -4.8709637199999998  6.2586312800000004 10.7870361700000004
 -6.7281752399999997  7.4975185299999998  2.1584366400000001
 -25.2240962999999994  5.7005651500000001 17.9376414599999983
 -25.5197618700000000  3.5137533799999998 10.2214650700000007
 -25.6544726199999999  1.6260031300000000  2.7594197999999999
 -6.6713364899999998 10.9864598900000008 18.3767661999999987
 -6.4089940600000004  9.2209733699999994 10.8148156300000000
 -19.3767761599999986 -5.6420708499999996 17.6835936199999999
 -20.6602310600000010 -4.9064322400000000  9.9931679100000004
 -22.5926993600000010 -3.9728513599999999  2.9263821900000000
 -4.7583733199999996  8.2869420500000004 18.6813307299999991
 -24.4719757800000011  4.5651764200000002  2.4937637100000001
 -23.8284981400000007  2.8353114599999998 18.5469563999999991
 -23.8272605000000013  0.7120865900000000 10.5656604099999996
 -23.9594147500000005 -0.7698550900000000  2.3909373600000001
 -19.2820187700000005 -3.7145698600000001  2.6848957400000000
 -20.6159001800000006 -3.0513731900000001 18.5490788500000008
 -22.1203354999999995 -1.8026498900000001 10.8148798999999993
 -22.1795775199999987  3.7056845599999999 10.3064311300000000
 -22.4528486700000016  1.8104448799999999  2.7823571299999998
 -22.2350167200000008  0.0773145300000000 18.4511938300000011
 -18.5365892700000003 -1.8031887600000001  9.7540224099999993
 -20.9281098199999995 -1.2210026100000000  2.8131430599999998
 -20.5635438199999996  2.6749787100000000 18.5637648700000000
 -20.3784597599999984  0.9169202000000000 10.1003441400000007
 -19.5341378600000013 -0.1093454800000000 18.4003125899999986
 -19.2518300800000013  1.9534377700000001  3.1513236600000001
 -0.0653874700000000 -0.1103329700000000  5.0044224599999998
 -11.1645438699999993 16.9983518199999999 21.5345497899999998
 -11.2405183599999994 15.5824004200000008 12.7715613599999998
 -11.4571911899999996 13.8672217900000003  5.4923162400000001
 -11.6906582599999993 12.0717466800000004 20.7230880999999982
 -11.4603853499999992 10.4533784599999997 12.9966783299999999
 -11.2907293600000003  8.0844738399999994  4.6594804400000003
 -11.2274521899999993  6.9294407900000001 20.8281859599999990
 -11.3178175299999992  4.5803836499999999 13.0021534200000008
 -11.4024314899999997  2.7102202000000002  5.0576517299999999
 -10.7580847100000003  0.7005386700000000 20.8117382500000012
 -11.3081615600000003 -1.0859612300000001 13.6157523499999993
 -1.3816816000000001  1.0376821400000000 20.9787440499999995
 -1.3662051799999999 -1.2930370899999999 12.6968432000000000
 -12.8801158400000002 16.7207220399999983  5.5178464600000003
 -12.8728994199999995 14.4511718100000000 21.2441789499999985
 -12.8231242800000000 12.7836572000000004 12.4777884500000003
 -13.1411707500000006 11.0195029200000008  5.3430100999999999
 -12.9767556200000005  9.4600273900000005 20.8010180600000005
 -12.8342089300000008  7.4050418400000000 12.8460093499999992
 -13.0161965399999993  5.1468180500000003  5.5820604200000004
 -12.4992352499999999  3.7912156299999999 20.7055077899999986
 -12.6964515000000002  2.2567469099999999 13.0752459900000009
 -13.1168206499999993 -0.0227109300000000  4.5029134500000003
 -2.8583384399999998  1.9775386100000001 12.8361818499999991
 -3.0717870399999998  0.2227935400000000  4.6658359699999998
 -3.0374299100000002 -1.9711434299999999 21.1514899499999984
 -14.2372971600000007 15.4995743200000007 13.2607541700000002
 -14.6143482999999996 13.6127332400000007  5.7107948000000004
 -14.6215826500000006 12.0559199800000005 20.6350186300000011
 -14.4479050099999995 10.4159880699999992 13.0216384699999992
 -14.9290186299999998  7.9905785800000002  5.5094853099999996
 -14.2119519899999993  6.5448424599999999 21.1988128700000011
 -14.4200646500000005  4.3797461599999998 13.2395966200000004
 -14.3336658499999992  2.6279411600000002  5.5523600499999999
 -14.3771056900000005  0.9570165300000000 20.7550704500000016
 -4.7441651599999997  3.0604628400000000  5.3298062499999999
 -4.5810783600000002  0.9712276000000000 21.0479223500000003
 -4.7035849399999998 -1.0124845000000000 12.6451300399999997
 -15.8581375799999993 16.7398774900000014  5.3583449999999999
 -16.0556008400000003 14.4869959700000006 20.5832513299999995
 -16.1524297600000004 12.8780539800000007 13.4216374300000005
 -16.2708951999999982 11.0403797400000006  5.2224941899999999
 -15.7989119900000006  9.1271088299999992 21.2327841399999997
 -15.9430809399999998  7.3259084999999997 12.8599587300000007
 -15.9555089599999995  5.3034578799999998  5.2533505199999997
 -15.7763990500000002  3.9395775999999998 21.0116678599999993
 -15.9912639100000007  1.9284092500000001 13.2926862000000003
 -6.7513268699999998  3.7752452999999999 21.0406773200000003
 -6.3843065899999996  1.8026610999999999 13.1468118199999999
 -6.6948117399999996  0.2151113300000000  5.1824751999999998
 -6.0896595099999997 -1.8689142400000001 20.7921587400000014
 -17.5428916100000016 15.4704436199999993 12.9421127100000000
 -17.6168348500000000 14.0506448400000004  5.1424317799999999
 -17.8932020999999999 11.7944875200000006 20.8569105899999983
 -17.5024564100000006 10.1068845399999994 13.3907666200000008
 -17.5969879599999999  8.2926464200000005  4.9841316200000003
 -17.1545985899999991  6.4494442899999997 21.1322824900000015
 -17.6445966600000013  4.6241279400000002 12.7760945699999997
 -17.8306949400000008  2.4880478699999999  5.0544611200000000
 -7.6243082600000003  4.4618450799999998 12.8751363300000001
 -8.4325443000000000  2.5158681899999999  5.3396498799999996
 -7.8412347999999996  1.1330185100000001 21.1970993199999995
 -7.6043381999999999 -1.1051151900000000 13.1757619699999999
 -8.1101932600000008 -2.4752622899999999  5.5811484000000000
 -19.0466554300000013 14.5556772500000005 20.8173568600000003
 -19.1791105000000002 12.6219245400000002 12.9519580899999998
 -19.2612698699999996 11.4617088400000000  4.9455587000000003
 -19.3779769799999997  9.1217675499999995 20.8393865399999996
 -19.2811118400000012  6.9517316100000004 12.6369428199999998
 -19.5390494299999986  5.6917667400000003  5.1815740100000003
 -19.0925575999999992  3.8092388399999999 21.3307989499999984
 -9.9232212999999998  5.4134612300000002  5.2312503000000001
 -9.6070617600000006  3.6786666700000001 21.2819094100000008
 -9.7896211700000002  1.5199749700000000 13.1748116999999993
 -9.7808386800000005 -0.2135627700000000  5.0692556299999998
 -9.3110411099999997 -2.0871754299999998 20.7944464000000018
 -9.5369437399999999 -3.8481939199999999 12.8158682600000002
 -20.7217454600000011 14.1006080199999992  5.3251467699999999
 -20.7124734599999982 12.1878670699999994 21.0925210099999987
 -20.8678282400000015 10.2137781200000006 13.4773658899999997
 -20.4626795399999999  8.7042105599999999  5.2643501099999996
 -20.7511780700000017  6.4292122200000001 20.8509634999999989
 -20.5559205300000016  4.4443883599999996 12.7050134000000003
 -11.6792067500000005 -2.3444276300000002  5.5129176600000003
 -11.1915407800000004 -4.6130036399999996 20.5095753599999995
 -22.2060762400000016 12.8155889100000007 12.7871132200000002
 -22.3148163000000004 10.7372167399999991  5.2893910200000001
 -22.3009450600000001  9.0001328100000002 20.7447526800000013
 -22.5213748600000017  7.2460725300000002 13.1559542599999997
 -22.5992365500000005  5.8314170200000000  5.3090082000000001
 -12.3415847900000006 -1.8686268200000000 20.6821504400000009
 -12.9925647499999997 -3.9387986499999998 13.0785713700000006
 -12.8540553800000001 -5.4612033899999997  4.9936278200000004
 -23.8542390900000001 11.9302235400000001 20.6291486000000006
 -23.7610581399999994 10.2149658799999994 13.0930727999999998
 -23.9475021000000012  8.3339987099999995  5.1488115099999998
 -23.6200020200000012  6.6155800999999999 20.5248438700000015
 -14.6008543100000008 -0.5645987700000000 13.2039583399999998
 -14.7377719700000007 -2.6564358000000001  5.1863824200000002
 -14.3443443300000002 -4.8611719899999999 20.9195612900000008
 -14.3342373900000002 -6.5185949299999999 12.8561747700000009
 -25.8397448099999991 11.2476655799999996  5.0488097700000001
 -25.4115736800000001  9.0246109200000006 21.2361598200000010
 -25.6830027899999997  7.5704878000000004 12.6611591499999996
 -16.2674016799999990 -0.1375408100000000  5.0534450900000003
 -15.8330167500000005 -1.4928024600000001 20.9600902799999993
 -15.8341009600000007 -3.5450295000000001 13.0691434799999993
 -16.0896594600000000 -5.0470659500000004  4.9390920800000000
 -15.6973777999999999 -7.6466091199999999 20.7139312699999998
 -26.8969149600000001  9.6858829600000007 12.4153789499999991
 -27.1075495400000008  8.3464966900000004  4.7786306600000001
 -17.3418616599999993  1.3192707900000000 21.0081799300000007
 -17.5321541900000000 -0.6723919400000000 13.0007918599999996
 -17.9288882700000016 -2.7583205000000000  5.3685973899999997
 -17.2225163600000002 -4.5303753400000000 20.9967414699999999
 -18.0083855799999988 -6.3951946099999999 12.7056333899999991
 -17.6019423800000006 -8.1354684400000004  4.4478532000000000
 -28.4461498100000014  8.8692869999999999 21.0126210899999997
 -28.8376310099999991  7.3488910900000004 12.7127071500000000
 -9.1043833999999997 16.7622289100000010  5.0622833900000002
 -9.4642347400000002 14.5359519800000001 20.8955090800000001
 -9.6313338599999998 12.8534978800000008 12.9418544999999998
 -9.5266100599999994 10.8069023400000006  5.1960402800000001
 -9.3436229100000006  9.0918685499999992 20.8415134100000010
 -10.0114569400000004  7.1101658499999996 13.1322454400000002
 -18.8020592499999992 -9.4835259500000006 12.5955884099999995
 -1.5738875299999999  2.9678339700000000  4.3315372999999999
 -3.2543211300000001  3.8677811800000002 20.9373771799999986
 -4.7497114299999996  4.7427834600000001 13.0688054400000002
 -6.7366135399999996  5.3774952200000001  5.2299517800000004
 -8.1529494600000003  6.6237062599999996 20.9490597100000002
 -27.2034764699999982  6.3584050999999997 20.8631468399999989
 -27.2457302599999984  4.8718040100000000 12.7612238900000001
 -7.9732129399999998 13.9561804800000004  5.0607433500000001
 -7.9805515299999996 12.0254895000000008 20.7805120400000014
 -8.0764152500000002  9.8592243600000007 12.9094471899999998
 -8.0582416499999994  8.2481331200000003  4.7374592299999998
 -18.8758607800000000 -7.2712016700000000 20.3114563299999986
 -20.8742588200000014 -6.3521138800000001 12.7360516599999993
 -3.6112258800000001  5.7499171999999996  5.5926059199999996
 -4.5752381900000003  6.1974991099999999 20.7742840099999988
 -6.2225941200000001  7.6228012500000002 13.2328112099999995
 -25.3652734399999993  5.2093181700000004  5.2062521300000002
 -25.4229712200000009  4.1738190299999998 20.4612488299999988
 -25.7477074399999992  1.6668194400000000 13.0918626899999992