Li                                      
   1.00000000000000     
    21.0527999999999977    0.0000000000000000    0.0000000000000000
     0.0000000000000000   21.0527999999999977    0.0000000000000000
     0.0000000000000000    0.0000000000000000   21.0527999999999977
   Li
   432
Direct
  0.9895472127223002  0.9736047072123455  0.9812440558975553
  0.9120477760677943  0.0669591489018089  0.0665221713976294
  0.8244624211506277  0.1672807693038436  0.1564307773787803
  0.7592893149604834  0.2311345626235024  0.2595468493502082
  0.6695577220132236  0.3045115438326462  0.3147525160548739
  0.6186746841275266  0.3821142351611186  0.4145433918528667
  0.4850674485104136  0.4908415844923226  0.4656704148616839
  0.4183172038873693  0.5658175021849843  0.5838120226288197
  0.3359147567069485  0.6645823268163866  0.6589613177344589
  0.2600886770405850  0.7571739763831857  0.7195826664386686
  0.1693797224122235  0.8335482615139114  0.8411646132580941
  0.0995009609173110  0.9053248247263994  0.9025150759043896
  0.0904014397134816  0.9116343313003483  0.0785238106095179
  0.0011351525687786  0.9858360911612678  0.1758761599407208
  0.9189782404240745  0.0789368996048054  0.2680133326683389
  0.8407268719600225  0.1553292925406566  0.3668940340477249
  0.7423860108869107  0.2435753833219323  0.4191120368787082
  0.6817828958618364  0.3464848590211247  0.5107908867229085
  0.5708215919022663  0.4143104993160023  0.5790700353397185
  0.5138210109819141  0.5152207891586897  0.6807345488486121
  0.3977825391396834  0.5749115770823821  0.7551703265123848
  0.3370477698928411  0.6614207573339428  0.8505653989018072
  0.2675134053427541  0.7558038811939483  0.9031267484610126
  0.1856716346519249  0.8246074256155964  0.0028862184602545
  0.1687135749164028  0.8366915844923213  0.1555701669136624
  0.0778781045751629  0.9239057906786741  0.2745894921340621
  0.0085869399794802  0.0015504863961056  0.3448730829153348
  0.9364001852485160  0.0809137064903496  0.4117291424418639
  0.8321865628324971  0.1766193442202493  0.5004067758207924
  0.7451483812129496  0.2468809365025066  0.6024188312243481
  0.6733341550767591  0.3419999430004594  0.6629520306087571
  0.5799824032907708  0.4061435880262962  0.7549595863733103
  0.5102012045903663  0.5261176214090284  0.8227306823795431
  0.4210744827291393  0.5871889145386859  0.9365147367571041
  0.3235189832231313  0.6572481703146380  0.0029171112631090
  0.2544774519303843  0.7355821767175854  0.1100253324973366
  0.2374081262349890  0.7659167673658587  0.2254029369015029
  0.1723500118749044  0.8527030228758150  0.3464315145728847
  0.0825940839223307  0.9184584041077670  0.4183888974388239
  0.9912925235598138  0.0204018268353821  0.5025932412790723
  0.9141828288873697  0.0975577267631849  0.5606968232254133
  0.7946276196040429  0.1471550311597483  0.6716500850243179
  0.7402878605221161  0.2379541015921873  0.7380718104005197
  0.6467893634100932  0.3263310386266909  0.8242691209720334
  0.5671636167160656  0.4092012549399584  0.9358406207250312
  0.4780496299779600  0.4997370387786901  0.9968402549779611
  0.4069364497834016  0.5707686317259473  0.1120364977580195
  0.3354603292673630  0.6802176304339582  0.1853801009841902
  0.3203677833827356  0.6692332929586584  0.3248386922404620
  0.2450007528689753  0.7705705041609647  0.4292798269113831
  0.1431895068589455  0.8668604760411895  0.5070315169478619
  0.0570930926052569  0.9384299831851379  0.5831985232368169
  0.0138690582725332  0.0489034693722417  0.6641538669440621
  0.9260912876196983  0.1003285795713609  0.7601646588577324
  0.8179376762235933  0.1663591170770644  0.8149143957098346
  0.7626298235864084  0.2315995658534717  0.9190556496048004
  0.6784419226896219  0.3428468740500108  0.9783519037847697
  0.5802471082231335  0.3969724825201411  0.0825402369281036
  0.4824013209644349  0.4972752978226183  0.1678858864379080
  0.4167995126538955  0.5734873114265113  0.2660906439998456
  0.4091573054415534  0.5986937537999708  0.4016512596899204
  0.3349485370117051  0.6425669516643850  0.4856816238220105
  0.2603176741336100  0.7705300648844826  0.6099015812623492
  0.1479582288341703  0.8596355168908616  0.6197759243426049
  0.0619961648806822  0.9291939243236058  0.7512840833523313
  0.0022226221690218  0.9773613272343837  0.8346538697940389
  0.9191335736814139  0.0815060044269629  0.9077037201702396
  0.8361532589489258  0.1530896189580488  0.9900944306695578
  0.7349348262463877  0.2390677719828247  0.0397142076113397
  0.6891550534845692  0.3435672452120357  0.1631489179586580
  0.6065576583637338  0.4118081243350034  0.2204870995782002
  0.5075586240310059  0.4847375189998502  0.3504059982520147
  0.0840993839299315  0.0803573657660763  0.9282115253077947
  0.0019621974274173  0.1698663313193478  0.9766678741070081
  0.9219206965344284  0.2367964228036143  0.0763045077139353
  0.8251972839717254  0.3199700571895434  0.1545956575847427
  0.7916946439428472  0.4118918998898025  0.2427663460442346
  0.6890141216370296  0.5011330611605089  0.3074688901238787
  0.5935240025079764  0.5650932712038284  0.4261549884100901
  0.5052043471652254  0.6452089940530499  0.4727648987308086
  0.4105803712570264  0.7220722231722121  0.5873287030703764
  0.3396247881516956  0.8433930655304778  0.6523208594581220
  0.2588272320071425  0.9284932303541567  0.7346362284351713
  0.1650719395994855  0.0074743468802225  0.8281564219486270
  0.1442343745250056  0.9900195921682595  0.9778935272267830
  0.0749270671834594  0.0478609866621085  0.0723474345455202
  0.9941772253571983  0.1263655485256123  0.1492191513717884
  0.8886020686084493  0.2258326726136204  0.2657423706110364
  0.8196066846215260  0.3233987384100914  0.3229763827139394
  0.7500713672290615  0.4157584568323429  0.4105400388546911
  0.6761786408458761  0.4881805408306761  0.4976578122625028
  0.5869396156330779  0.5606257941936477  0.5798565278727779
  0.4990544521393829  0.6565933234534143  0.6488915331927316
  0.4107036465458265  0.7418365595075258  0.7275047252622002
  0.3614565748974030  0.8121534004977988  0.8363685652264792
  0.2553045951132376  0.9269693826949350  0.8999708770329846
  0.2634243017555846  0.9332712513299910  0.0850360721614223
  0.1526837456300356  0.9797368145804839  0.1736886205160388
  0.0835890860123101  0.0834086762805910  0.2192510297917636
  0.0088622686768502  0.1556666766415873  0.3338519992590037
  0.9187505201208381  0.2534702391130850  0.4236952310381525
  0.8147755405456749  0.3233790203678382  0.4996092410510684
  0.7726497582269332  0.4057199807151548  0.5739866160320730
  0.6653895681334561  0.4882875384746939  0.6553516344619226
  0.6107337622549025  0.5662230838653315  0.7309366046321628
  0.4869718403252747  0.6495004621713036  0.8077463297043650
  0.4182801636836899  0.7286349573453421  0.9443149600053218
  0.3373546160130729  0.8230704761361878  0.0130323914158694
  0.3513215301527595  0.8445226074441408  0.1789214356285171
  0.2388931448548419  0.9399522035073744  0.2343804695812466
  0.1773599492704037  0.0097544307645521  0.3677260107919125
  0.1048237531349727  0.0948292531159751  0.4296948828659382
  0.0132139473134245  0.1749897396070850  0.5013581419098614
  0.9123517152112797  0.2275480620155008  0.6146135606665126
  0.8300339289785654  0.3205678845569224  0.7022168039405656
  0.7185500717244295  0.4169790023179800  0.7481083941328492
  0.6589249506003938  0.4960881398198822  0.8399178703070405
  0.5735503353473206  0.5970684303275604  0.9399786099711207
  0.5159244276295780  0.6392369965040245  0.0080439865481097
  0.4337618810799526  0.7289158482482136  0.0869426888584925
  0.4216763713140281  0.7410747572769409  0.2681136670656628
  0.3043595882732930  0.8489501728986184  0.3192031677496558
  0.2602985645614808  0.9387211895804839  0.4349825809393550
  0.1614775469296248  0.0145608598381202  0.4974229921910620
  0.0758476763185882  0.1050545224388202  0.5779928489322117
  0.0164009803921559  0.1624919507143971  0.6486459801071618
  0.9250327215382299  0.2297101283439744  0.7510566537467724
  0.8348598229214161  0.3082104651162823  0.8425640028879755
  0.7626986239360107  0.4167840211278317  0.9066064589983256
  0.6570414567183462  0.5223169169896664  0.9955825757143941
  0.6002083523331834  0.5988070123689013  0.0733196311179540
  0.5086301332839369  0.6630429786061711  0.1601206300349602
  0.5087785610465119  0.6653628020975830  0.3505302715078287
  0.4088954428864540  0.7457784717472293  0.4118108655380723
  0.3665208874828991  0.8550492680308537  0.5212681410548683
  0.2675432275041771  0.9371464351535153  0.5530692962456314
  0.1610388969638237  0.0109499762501883  0.6612408192734449
  0.0888605292407689  0.0658614721082245  0.7546786617457073
  0.0264659261475941  0.1508699868901076  0.8394758996427996
  0.9111940824973388  0.2001987683348503  0.8863617324061437
  0.8509217158762752  0.3168305161308709  0.9989755110959138
  0.7656942886456903  0.4025071876424988  0.0559953464622254
  0.6990109519873826  0.4765680508055965  0.1600981517897822
  0.5848068427952597  0.5890750147248838  0.2286018919098680
  0.1505766069121464  0.1530657261741908  0.8514683343783247
  0.1111611096861225  0.2344790768923843  0.9439979389914868
  0.9997431002052011  0.3266806500798012  0.9922372867267057
  0.9234654630262966  0.4048644280095743  0.0753605325657389
  0.8393154649262797  0.5273763570641421  0.1642882789937659
  0.7719606565397470  0.5894809445774456  0.2568145320337436
  0.6682715976022209  0.6808112716598274  0.3278489307835528
  0.5738437177002567  0.7486981679396578  0.4360084506573969
  0.5017837066803494  0.8505658738980060  0.4854853283173739
  0.4176881664196657  0.9555838781539734  0.6065078977618157
  0.3389012691898472  0.0289636566157441  0.6411510948662382
  0.2542580668604657  0.0707981769645869  0.7802218170504602
  0.2539637283401746  0.0846903243274042  0.9254355895652822
  0.1690392741108084  0.1381597241222039  0.0240342671758640
  0.0600918319653445  0.2502563074745368  0.0733298663360671
  0.9682861087361303  0.3137580602105174  0.1623527616279077
  0.9045419896640823  0.4244059958770308  0.2496348352713156
  0.8328069092947246  0.5024401699536369  0.3351323486662139
  0.7506254593213271  0.5846451792635676  0.3998914054187566
  0.6872845944482435  0.6504052420580635  0.5147211933804527
  0.5623385734914095  0.7746756122701015  0.5789927610579113
  0.4831259143676832  0.8435477850927171  0.6653788222944215
  0.4050347697218442  0.9256458247834018  0.7391838976288199
  0.3761418623651025  0.9953221913474692  0.8468697018923876
  0.3413737099103216  0.9679636100661213  0.9888229546663609
  0.2752999335005342  0.0558098433462533  0.0897568446952448
  0.1506509514173899  0.1347953393372876  0.1267117780057774
  0.0769482634138896  0.2272966512767880  0.2347925525345786
  0.9879265807873523  0.3146977299931635  0.3432238856589152
  0.9184441684716518  0.3836369808291522  0.4158837385050944
  0.8306886238410129  0.5047477850927180  0.4678091123271031
  0.7622433932778563  0.5594751410738681  0.5876752127982954
  0.6517142608109125  0.6853124026257760  0.6437782698738417
  0.5799641344619246  0.7541268976098223  0.7607065905722763
  0.4938529492514050  0.8389414614683091  0.8331084497074031
  0.4438250641244892  0.9125060695014469  0.9298851810685491
  0.4475350689694508  0.9170525407546748  0.1052618269303878
  0.3679513470892246  0.9847302259081943  0.1751927553579549
  0.2420538764439897  0.0818025683044539  0.2476540080179390
  0.1788729978910197  0.1775415626424959  0.3422509566423457
  0.0806373845759225  0.2675889311635515  0.4252380315207489
  0.0028688848989233  0.3135048421112643  0.5345162519949866
  0.9147738481342174  0.4241146351079195  0.5879557408040768
  0.8182187932246521  0.4846892622359036  0.6719285439466489
  0.7274778984268124  0.5635774671302656  0.7491324740652061
  0.6485907057493563  0.6825275474046180  0.8364018672100642
  0.5825984249126037  0.7611773232064110  0.8915261029411781
  0.5318800055099544  0.8138344742742092  0.0024181757295949
  0.4989552335081342  0.8322997145272808  0.1833063967738227
  0.4446715871522997  0.9188173117115070  0.2776538579191339
  0.3391403471272199  0.0011884590173281  0.3536643558101531
  0.2826410083219315  0.1022194971690240  0.4521767817107474
  0.1977544169896674  0.1817816390218852  0.5145668775649810
  0.0934743188554492  0.2349271469828267  0.5882223062965508
  0.0082901338539259  0.3153985308367524  0.6749297623119048
  0.9239071814675484  0.4056123038265724  0.7386455141358894
  0.8202052938326503  0.5132369941290449  0.8146520576835385
  0.7236846205730387  0.5607980059659496  0.9101049076607381
  0.6791810324517371  0.6872350086449330  0.9789000973742219
  0.6155404198016399  0.7435111263109917  0.0958538588691269
  0.5517458338083330  0.7609024395804838  0.2627790778423744
  0.4972174280855768  0.8450788878438971  0.3394219376994982
  0.4268289225186166  0.8986594462494324  0.4226714888280867
  0.3737692335461347  0.0194513280893744  0.4975280898502845
  0.2476360954362349  0.0763502697978424  0.5692599958200333
  0.1556234201626410  0.1464451208390329  0.6969642356361163
  0.0914613823339394  0.2442791106171143  0.7484197403670763
  0.0228485018619864  0.3197281572997426  0.8590699968650242
  0.9024343526751792  0.4248060072769420  0.9042439703982339
  0.8514225703944334  0.5039690772723802  0.9949083504331995
  0.7631447892916867  0.6074391852865162  0.0818313160244699
  0.6847336544307652  0.6623467087513291  0.1781259765921845
  0.2390968750000013  0.2411086525307766  0.7372225955692358
  0.1452110579115384  0.3373282161992677  0.8450796093631254
  0.0800490889572885  0.4392340562775487  0.9486415479176173
  0.9835117865557095  0.4981082763337881  0.0092524714052260
  0.9014059683272535  0.6153982192392462  0.0759333205084332
  0.8369788503191984  0.6980555398806843  0.1845266339869269
  0.7591992575809385  0.7699748385012910  0.2685884067677478
  0.6725080540355677  0.8339533943228474  0.3270382766187865
  0.6008162396450842  0.9216767774357777  0.4208509376424985
  0.5035218954248393  0.9874272928066574  0.5124615984572145
  0.4343461283059753  0.0915004070717416  0.5706235194368432
  0.3620545632884955  0.1591159627222964  0.6442559863771109
  0.3335029449764377  0.1556605235408099  0.8207208765579850
  0.2511502987726075  0.2421063867989091  0.9253885478416208
  0.1506524243806027  0.3282427192582489  0.0132034095227240
  0.0673991426318565  0.4132775493046026  0.0728585717814241
  0.9685869019797835  0.5077984044877653  0.1694357705388327
  0.9110409883720934  0.5854053228074179  0.2673190440226492
  0.8473279392764823  0.6746674542103648  0.3417653851269193
  0.7554812751748017  0.7455405352257216  0.4278179130566926
  0.6734734168376662  0.8379004412714721  0.5023210461316339
  0.6121840334777318  0.9214304719562278  0.5804618796549619
  0.5248217234762151  0.0060809759271905  0.6635382561939522
  0.4297803698320379  0.0970910529715781  0.7498373394512825
  0.4177124453754359  0.0873256944444449  0.9184105762653871
  0.3371405471006241  0.1549216275269814  0.0057420419136633
  0.2720837617799035  0.2578553038075668  0.0657060699764429
  0.1547333219334277  0.3223455796853614  0.1778252165982650
  0.0568447370421055  0.3889011542407630  0.2579693964698251
  0.9955236856855123  0.4968339612783126  0.3653829742362049
  0.9119613894588809  0.5832074726402183  0.4182397495819998
  0.8353797675368568  0.6655703383872904  0.5037393182854544
  0.7656178560571547  0.7629218028005766  0.5695428964318268
  0.6738990248327994  0.8437547599369211  0.6822744656292770
  0.5755496432778529  0.9094720535985701  0.7290222483470146
  0.4883613752089957  0.9859571007181955  0.8255179634062912
  0.4914579238866068  0.9875572574669391  0.0113855501406022
  0.4189731437148509  0.0761449636152918  0.0951056158800725
  0.3337605311407543  0.1705219177496602  0.1651870558785546
  0.1997058495782014  0.2318908862479105  0.2506952837627310
  0.1619722046473626  0.3302736434108553  0.3186013437642501
  0.0721327989626062  0.3646578003875973  0.3871121280779732
  0.9934952495630043  0.4905876149490780  0.4867578787619706
  0.9324039785681748  0.5834988657090747  0.5848020619585057
  0.8075439675482627  0.6681924898350786  0.6711770054339539
  0.7469913906938714  0.7277589641282844  0.7524898170314671
  0.6644739436084492  0.8412713354043149  0.8169994205046365
  0.5753955340857289  0.9085716569767470  0.9126558966028284
  0.5773875926242624  0.9288891506117949  0.1065882376691007
  0.4940548492362069  0.0095104076417414  0.1845170723134189
  0.4072271123080995  0.0934493411802677  0.2635194130946985
  0.3289134903670785  0.1751833176584583  0.3333802149832792
  0.2655847070223416  0.2770876344239213  0.4388704186616508
  0.1712457430840573  0.3272424836601289  0.5020190905722757
  0.0593358009385909  0.4000443755699976  0.5765004517213868
  0.0111032841237275  0.5117760544915626  0.6758795580635351
  0.8955593108755124  0.5826303489322058  0.7484012288151689
  0.8073472445470458  0.6621977285681737  0.8261371124031029
  0.7437785857463126  0.7698873199764407  0.8940945232938162
  0.6484455996352025  0.8504944130946939  0.0267896721576193
  0.6662681823795396  0.8562608945128432  0.1798847725718176
  0.5808739754331995  0.9089352223932181  0.2587292193912418
  0.4955985398616818  0.0023761813155474  0.3436287021203839
  0.4241620330787370  0.1207569007447944  0.4236169758891961
  0.3581346628476965  0.2052818717700262  0.4976575776143761
  0.2418062979746196  0.2487892389610877  0.6014082150592799
  0.1347423126615013  0.3373170680384590  0.6759199393904822
  0.0645228093175234  0.4202813687490519  0.7543288655190779
  0.0053652701778404  0.5075540545675636  0.8284428612821131
  0.9215748755509949  0.5994530722754234  0.8954713724540184
  0.8182320498936022  0.6521710770063862  0.9773052776827811
  0.7382982463140308  0.7656342899756794  0.0772162225452178
  0.3374506079951374  0.3207136903404759  0.6723237555099573
  0.2378050629844992  0.4197465710024346  0.7516661318209472
  0.1619850380946986  0.5040913693190490  0.8366869138546917
  0.0815173801109594  0.5757591037771732  0.9247028504521992
  0.9946623993008075  0.6885392237612109  0.9890195218688262
  0.9317164548183641  0.7338990419326663  0.0648495273787830
  0.8365816637216881  0.8552257884936907  0.1764272999316034
  0.7691129189466466  0.9014855852903167  0.2613474891700847
  0.6742695052439558  0.0049783776979808  0.3450637691898493
  0.5704612977846182  0.0903946458428351  0.4162774913550678
  0.5066277169782651  0.1736935600015173  0.4979690995972064
  0.4394056448548440  0.2611579652112752  0.5861231489398051
  0.4243714916780661  0.2570116587817282  0.7398174048107649
  0.3211417331661366  0.3430551223590186  0.8294122173772607
  0.2448689627983001  0.4081315050729586  0.9049695783933700
  0.1417679586563310  0.5062026913284683  0.0035463586791309
  0.0591800154848769  0.5677425097849209  0.0775685961012300
  0.0113779877260995  0.6792931453298365  0.1681085304567560
  0.9373047803617567  0.7569514192886473  0.2522319278195795
  0.8475725851193161  0.8568434792521629  0.3383464318285476
  0.7871285149718830  0.9420653628020972  0.4056647177572614
  0.6733415322427447  0.0272721566727441  0.4690216213520273
  0.5694700168148685  0.0912152260031931  0.5652392484610118
  0.5183797632618905  0.1565573904658777  0.6415811341009245
  0.5074110835613297  0.1678149842301266  0.8379930408306748
  0.4269127203982350  0.2385582046093617  0.9008638518391834
  0.3321290882922909  0.3390577562129522  0.9973211615557105
  0.2408253206224344  0.4198831637596925  0.0876324906900763
  0.1611442477960168  0.4784222131972911  0.1851790070679442
  0.0629255134708941  0.5875501743236029  0.2641743867799065
  0.9691672808367500  0.6727342800007605  0.3426295385886888
  0.9218547119623040  0.7624055118559028  0.4433851269189830
  0.8304470312737493  0.8403733731380143  0.4998262411650742
  0.7324778419022664  0.9500334330825382  0.5700110009119896
  0.6444401362289085  0.0395394745592057  0.6736159484724098
  0.5576956153100809  0.0689271555327551  0.7465695959682321
  0.5714525820793455  0.0517641995364002  0.9209210000569996
  0.5105007998935989  0.1688526381288966  0.0459626149490830
  0.3900810277017754  0.2638824588653321  0.0825184597773188
  0.3186702191632449  0.3488709900820766  0.1815824066157461
  0.2443672865367077  0.3935022695318438  0.2446472564219491
  0.1616709302325603  0.4992372026523810  0.3618788032945730
  0.0951526471538244  0.5935565601725159  0.4152164030437788
  0.9971534655722749  0.6829294302895548  0.4932214175786598
  0.9281973723210228  0.7644337119053048  0.6251952300881598
  0.8176701882884956  0.8743289681182560  0.6877150835043295
  0.7370646051831571  0.9683534137976864  0.7520057897286847
  0.6260196809925489  0.9928719889990845  0.8508249814751494
  0.6843279625513006  0.9680406439998492  0.9777581846595211
  0.5965337043053651  0.0680110916362651  0.0754660828963338
  0.4972933353283153  0.1515422851117165  0.1430739497833997
  0.4056244722792215  0.2615678413322726  0.2448484149376782
  0.3336282632238934  0.3445653751520013  0.3082188188744510
  0.2379840197028429  0.3756540621675057  0.3984380215458287
  0.1483414818931479  0.4768125028499739  0.4963989645082805
  0.0912661071211431  0.5733206343099226  0.5949036674456636
  0.0006880148958786  0.6639550563345509  0.6891760649414778
  0.8903502569729440  0.7741894869091084  0.7661081290849694
  0.8417515755623981  0.8400548943608470  0.8262921145880853
  0.7405322156672725  0.9112548392612894  0.9177743487802132
  0.7416508644930815  0.9061674950600391  0.0670018605601186
  0.6991089674532631  0.9776632101193172  0.1620837959796333
  0.5713199275155816  0.0671369190796440  0.2325573600661173
  0.5058132552439574  0.2053974844201250  0.3074091090021298
  0.3969460584815323  0.2868458214584280  0.3858954281615752
  0.3535986695356428  0.3587265000380029  0.5546554957060366
  0.2321202794877664  0.4354377545979631  0.5895923934108538
  0.1755260606665132  0.4996525692544438  0.6674881478948151
  0.1023900388546863  0.5727293072655399  0.7408935875512981
  0.0051864611833139  0.6833065796473647  0.8183271446078422
  0.9271205497606019  0.7461191109971139  0.9028396674076618
  0.8244130823453446  0.8193843716750280  0.9859987260601883
  0.4350186683006569  0.4105880505205945  0.5852733617381034
  0.3359120159788702  0.4746660040469663  0.6721397191822476
  0.2668900863543087  0.6027694672442649  0.7283843108755121
  0.1600078592871270  0.6781481019151840  0.8137257818437433
  0.0981874073757396  0.7949224554453593  0.8961993036555711
  0.0109468322503403  0.8424943551451562  0.0068697071173460
  0.9105026837285308  0.8930595065739482  0.0669939874981011
  0.8076809778271752  0.0018855045409651  0.1700641947864412
  0.7639561398008823  0.0613626576987372  0.2670474839451273
  0.6467455122359027  0.1622879711962284  0.3321252393980814
  0.5716513409142721  0.2764065326227367  0.3928293281653765
  0.4858304258815949  0.3473556667046651  0.4998776243540064
  0.4907196401428777  0.3295563848989218  0.6782845184488551
  0.4365765712874321  0.4320365951322387  0.7587328526371806
  0.3131032366241087  0.5220895790583668  0.8422729285415684
  0.2373918124905003  0.5765571401428815  0.9078798649110809
  0.1551819648692785  0.6695086501557981  0.9888847540469641
  0.0855443879198958  0.7370468322503427  0.0947457378590997
  0.0218578645120857  0.8310912168452660  0.1832351235940095
  0.9192334929320580  0.8920275056049576  0.2441331290849647
  0.8517373546511635  0.9987407133492923  0.3300999263755884
  0.7613979608413146  0.0969064442734435  0.3972618217054276
  0.6656152815777503  0.1956086891054838  0.4833223514211866
  0.6135045875132974  0.2354667611909136  0.5946032508739947
  0.5620112312851475  0.2500765736624118  0.7337760886912932
  0.4816930170808646  0.3276913332193345  0.8457034888470929
  0.4012199465154254  0.4391728943418443  0.9055996252279996
  0.3298640950372373  0.5267312575999412  0.0093404701512370
  0.2311985840363278  0.5865848575961365  0.1235731874145003
  0.1389598509461933  0.6441571686426499  0.1640153267023834
  0.0958799086107334  0.7498081233850158  0.2637788408192705
  0.0020840890522891  0.8333890598875229  0.3581158354233196
  0.9116434673772602  0.9347833105335184  0.4265828203374369
  0.8410962252051988  0.0201262596899241  0.5122820750683985
  0.7359634832421307  0.0974453773369817  0.5757415735674130
  0.6765840847773248  0.1700160890712894  0.6943873522761805
  0.6435780860503115  0.1335339741032087  0.8423101093441261
  0.5695710960062286  0.2370114972830208  0.9291120558785551
  0.4739391159370712  0.3306905366507067  0.9979349240956097
  0.4104268448852437  0.4285525972792215  0.0705401775535819
  0.3161649690302468  0.5076682826037384  0.1793393786099742
  0.2523441456718345  0.5760290455426329  0.2426983208884295
  0.1854133625931027  0.6625134148426781  0.3508854541913635
  0.0777290835423301  0.7544053019075818  0.4162101102941165
  0.9857231304149536  0.8449400521545840  0.4973184536023680
  0.9333641919364624  0.9336099734952086  0.5912196752925993
  0.8410879797461632  0.0416942202462351  0.6570699009157934
  0.7389485593365279  0.0733167141662889  0.7725449612403068
  0.7327802506079948  0.0629462627298949  0.9059566418718674
  0.6729623057265570  0.1518629574213435  0.9912429040317647
  0.5876136475908211  0.2495198173164610  0.0837265926622592
  0.5046934279525743  0.3447931785795717  0.1889402578279373
  0.4039038873688980  0.4234473775459762  0.2491713221044236
  0.3157433187034471  0.4929088943038451  0.3428447954666396
  0.2415617219562236  0.5841613647590833  0.4136010991412036
  0.1761723827709361  0.6733854670162671  0.5133557080293372
  0.0792244314295516  0.7458577894626828  0.5982027830027334
  0.9907777592529285  0.8412498997758036  0.6966457088843256
  0.9284497805517589  0.9333352157432770  0.7630821990424081
  0.8491175948092433  0.0004438345493227  0.8234301475338199
  0.8354056154050795  0.9847182298791637  0.9978982942886461
  0.7505945190188470  0.0615360583865296  0.0595190041229685
  0.6832181253799945  0.1725925629844980  0.1441363239094073
  0.5884010459416302  0.2387248608261103  0.2196390413626688
  0.5042002460480290  0.3545569591693294  0.2974616606817122
  0.4116416766415867  0.3908303603321173  0.4082715306277578
  0.3212968412752701  0.4944858807379546  0.4770680740804067
  0.2633443005205933  0.5682850737194087  0.5782463268543836
  0.1727912149452777  0.6721686987004105  0.6557478169174615
  0.0807698576911378  0.7795638470892214  0.7381888214394294
  0.0065531544497617  0.8677531178750542  0.8063018287353714
  0.8857822940416469  0.9014359681372568  0.9112534698472388
 
  0.00000000E+00  0.00000000E+00  0.00000000E+00
  0.00000000E+00  0.00000000E+00  0.00000000E+00
  0.00000000E+00  0.00000000E+00  0.00000000E+00
  0.00000000E+00  0.00000000E+00  0.00000000E+00
  0.00000000E+00  0.00000000E+00  0.00000000E+00
  0.00000000E+00  0.00000000E+00  0.00000000E+00
  0.00000000E+00  0.00000000E+00  0.00000000E+00
  0.00000000E+00  0.00000000E+00  0.00000000E+00
  0.00000000E+00  0.00000000E+00  0.00000000E+00
  0.00000000E+00  0.00000000E+00  0.00000000E+00
  0.00000000E+00  0.00000000E+00  0.00000000E+00
  0.00000000E+00  0.00000000E+00  0.00000000E+00
  0.00000000E+00  0.00000000E+00  0.00000000E+00
  0.00000000E+00  0.00000000E+00  0.00000000E+00
  0.00000000E+00  0.00000000E+00  0.00000000E+00
  0.00000000E+00  0.00000000E+00  0.00000000E+00
  0.00000000E+00  0.00000000E+00  0.00000000E+00
  0.00000000E+00  0.00000000E+00  0.00000000E+00
  0.00000000E+00  0.00000000E+00  0.00000000E+00
  0.00000000E+00  0.00000000E+00  0.00000000E+00
  0.00000000E+00  0.00000000E+00  0.00000000E+00
  0.00000000E+00  0.00000000E+00  0.00000000E+00
  0.00000000E+00  0.00000000E+00  0.00000000E+00
  0.00000000E+00  0.00000000E+00  0.00000000E+00
  0.00000000E+00  0.00000000E+00  0.00000000E+00
  0.00000000E+00  0.00000000E+00  0.00000000E+00
  0.00000000E+00  0.00000000E+00  0.00000000E+00
  0.00000000E+00  0.00000000E+00  0.00000000E+00
  0.00000000E+00  0.00000000E+00  0.00000000E+00
  0.00000000E+00  0.00000000E+00  0.00000000E+00
  0.00000000E+00  0.00000000E+00  0.00000000E+00
  0.00000000E+00  0.00000000E+00  0.00000000E+00
  0.00000000E+00  0.00000000E+00  0.00000000E+00
  0.00000000E+00  0.00000000E+00  0.00000000E+00
  0.00000000E+00  0.00000000E+00  0.00000000E+00
  0.00000000E+00  0.00000000E+00  0.00000000E+00
  0.00000000E+00  0.00000000E+00  0.00000000E+00
  0.00000000E+00  0.00000000E+00  0.00000000E+00
  0.00000000E+00  0.00000000E+00  0.00000000E+00
  0.00000000E+00  0.00000000E+00  0.00000000E+00
  0.00000000E+00  0.00000000E+00  0.00000000E+00
  0.00000000E+00  0.00000000E+00  0.00000000E+00
  0.00000000E+00  0.00000000E+00  0.00000000E+00
  0.00000000E+00  0.00000000E+00  0.00000000E+00
  0.00000000E+00  0.00000000E+00  0.00000000E+00
  0.00000000E+00  0.00000000E+00  0.00000000E+00
  0.00000000E+00  0.00000000E+00  0.00000000E+00
  0.00000000E+00  0.00000000E+00  0.00000000E+00
  0.00000000E+00  0.00000000E+00  0.00000000E+00
  0.00000000E+00  0.00000000E+00  0.00000000E+00
  0.00000000E+00  0.00000000E+00  0.00000000E+00
  0.00000000E+00  0.00000000E+00  0.00000000E+00
  0.00000000E+00  0.00000000E+00  0.00000000E+00
  0.00000000E+00  0.00000000E+00  0.00000000E+00
  0.00000000E+00  0.00000000E+00  0.00000000E+00
  0.00000000E+00  0.00000000E+00  0.00000000E+00
  0.00000000E+00  0.00000000E+00  0.00000000E+00
  0.00000000E+00  0.00000000E+00  0.00000000E+00
  0.00000000E+00  0.00000000E+00  0.00000000E+00
  0.00000000E+00  0.00000000E+00  0.00000000E+00
  0.00000000E+00  0.00000000E+00  0.00000000E+00
  0.00000000E+00  0.00000000E+00  0.00000000E+00
  0.00000000E+00  0.00000000E+00  0.00000000E+00
  0.00000000E+00  0.00000000E+00  0.00000000E+00
  0.00000000E+00  0.00000000E+00  0.00000000E+00
  0.00000000E+00  0.00000000E+00  0.00000000E+00
  0.00000000E+00  0.00000000E+00  0.00000000E+00
  0.00000000E+00  0.00000000E+00  0.00000000E+00