Li 
 1.0000000000000000
    21.0527999999999977    0.0000000000000000    0.0000000000000000
     0.0000000000000000   21.0527999999999977    0.0000000000000000
     0.0000000000000000    0.0000000000000000   21.0527999999999977
 Li 
 432
Cartesian
 -0.2200604400000000 -0.5556948200000000 -0.3948651400000000
 19.2011594199999998  1.4096775699999999  1.4004779700000001
 17.3572424599999984  3.5217285800000000  3.2933058700000002
 15.9851660899999999  4.8660297200000002  5.4641879099999997
 14.0960648099999997  6.4108206299999999  6.6264217700000003
 13.0248343900000005  8.0445745700000000  8.7272991199999996
 10.2120279800000002 10.3335897100000000  9.8036661100000000
  8.8067484300000007 11.9120427099999997 12.2908777499999999
  7.0719461900000002 13.9913188099999992 13.8729808299999995
  5.4755948999999999 15.9406322899999999 15.1492299599999996
  3.5659174199999999 17.5485248399999989 17.7088703699999996
  2.0947738299999998 19.0596224700000008 19.0004693899999992
  1.9032034300000000 19.1924552499999983  1.6531460800000000
  0.0238981400000000 -0.2981899400000000  3.7026856200000000
 19.3470650999999982  1.6618427600000001  5.6424310899999996
 17.6996546899999991  3.2701165300000001  7.7241467200000002
 15.6293042100000008  5.1279438300000004  8.8234818900000000
 14.3534389499999993  7.2944764400000004 10.7535783800000004
 12.0173928100000005  8.7223960799999993 12.1910456400000005
 10.8173709799999997 10.8468402299999997 14.3313683100000002
  8.3744362399999996 12.1034984500000000 15.8984498500000004
  7.0957992900000004 13.9247589200000004 17.9067832299999985
  5.6319062200000003 15.9117879500000008 19.0133468100000016
  3.9089077900000002 17.3602952100000003  0.0607629800000000
  3.5518931500000002 17.6147005900000018  3.2751876100000001
  1.6395521600000000 19.4508038300000017  5.7808776599999998
  0.1807791300000000  0.0326420800000000  7.2605440400000001
 19.7138458199999995  1.7034600799999999  8.6680512899999993
 17.5198572699999993  3.7183317300000001 10.5349637699999992
 15.6874598400000007  5.1975349800000004 12.6826031700000001
 14.1755692999999994  7.2000564000000002 13.9569965099999997
 12.2102535400000001  8.5504597300000000 15.8940131800000000
 10.7411639200000000 11.0762490600000003 17.3207845099999993
  8.8647968699999993 12.3619707800000000 19.7162574500000005
  6.8109804499999997 13.8369142800000002 21.1142133600000008
  5.3574628999999998 15.4860644500000006  2.3163413199999998
  4.9981058000000003 16.1246925200000000  4.7453629499999996
  3.6284503300000002 17.9517862000000008  7.2933533900000000
  1.7388367300000001 19.3361210899999989  8.8082577799999999
 -0.1833167600000000  0.4295155800000000 10.5809949900000007
 19.2461082599999997  2.0538633100000001 11.8042380799999993
 16.7291363500000010  3.0980254399999998 14.1401149099999994
 15.5851322700000008  5.0096001100000001 15.5384782099999992
 13.6167271099999994  6.8701820900000001 17.3531729500000012
 11.9403821899999993  8.6148321800000005 19.7020654200000003
 10.0642832500000008 10.5208639300000009 -0.0665214800000000
  8.5671516899999993 12.0162778499999998  2.3586819800000001
  7.0623792200000004 14.3204857299999997  3.9027701900000000
  6.7446388700000002 14.0892346699999997  6.8387640200000002
  5.1579518499999999 16.2226667099999986  9.0375423399999999
  3.0145400499999999 18.2498402300000002 10.6744331199999998
  1.2019694599999999 19.7565787499999992 12.2779618700000004
  0.2919825100000000  1.0295549600000000 13.9822985299999996
 19.4968146599999983  2.1121975200000001 16.0035945300000009
 17.2198783099999986  3.5023252199999999 17.1562297900000011
 16.0554931500000002  4.8758193399999996 19.3486947799999989
 14.2831021099999997  7.2178866700000004 -0.4557530400000000
 12.2158263199999997  8.3573822799999995  1.7377031000000001
 10.1558985300000000 10.4690373900000004  3.5344679900000000
  8.7747967800000009 12.0735136700000005  5.6019531100000002
  8.6139069199999998 12.6041798600000003  8.4558836399999997
  7.0516045600000004 13.5278335199999997 10.2249580899999994
  5.4804159300000004 16.2218153500000000 12.8401360100000002
  3.1149350000000000 18.0977346099999998 13.0480185800000008
  1.3051928600000000 19.5621338499999986 15.8166335500000006
  0.0467924200000000 -0.4766074500000000 17.5718009899999998
 19.3503353000000011  1.7159296100000001 19.1097048799999989
 17.6033673300000011  3.2229651300000000 20.8442600300000009
 15.4724359099999997  5.0330459899999997  0.8360952699999999
 14.5086435100000006  7.2330525000000003  3.4347415400000001
 12.7697370699999997  8.6697140800000003  4.6418708100000003
 10.6855302000000005 10.2050820400000006  7.3770274000000002
  1.7705275100000000  1.6917475500000001 19.5414515999999985
  0.0413097500000000  3.5761618999999998 -0.4912065800000000
 19.4090120400000004  4.9852277300000001  1.6064235400000000
 17.3727133800000004  6.7362656200000002  3.2546714600000000
 16.6673890000000000  8.6714777900000009  5.1109113300000004
 14.5056764999999999 10.5502541099999991  6.4730810500000002
 12.4953421200000001 11.8967956200000007  8.9717557400000008
 10.6359660799999993 13.5834559099999996  9.9530248599999993
  8.6438664400000000 15.2016421000000008 12.3649137200000006
  7.1500527399999996 17.7557855300000007 13.7331805899999999
  5.4490379500000001 19.5473822800000008 15.4661495900000006
  3.4752265300000000  0.1573559300000000 17.4350115199999998
  3.0365374400000000 -0.2101155300000000 -0.4654031500000000
  1.5774245600000001  1.0076077800000001  1.5231160699999999
 -0.1225857100000000  2.6603486200000002  3.1414809500000000
 18.7075616300000007  4.7544100900000004  5.5946209800000002
 17.2550156100000009  6.8084489599999998  6.7995571899999998
 15.7911024799999993  8.7528796399999997  8.6430173299999993
 14.2354536899999999 10.2775672900000004 10.4770903900000008
 12.3567223399999992 11.8027427199999995 12.2076035100000002
 10.5064935699999999 13.8231279199999992 13.6609836700000002
  8.6464617300000004 15.6177367199999999 15.3160114800000002
  7.6096729800000000 17.0981031100000003 17.6079001300000009
  5.3748765799999996 19.5153010199999990 18.9469068800000002
  5.5458191399999999 19.6479730000000004  1.7902474200000000
  3.2144203600000001 -0.4265967900000000  3.6566317900000000
  1.7597843099999999  1.7559861800000001  4.6158480800000001
  0.1865755700000000  3.2772194099999998  7.0285193699999997
 19.3422709499999996  5.3362582500000002  8.9199709600000006
 17.1533064999999993  6.8080338400000002 10.5181734299999992
 16.2664408300000005  8.5415416099999995 12.0840254300000005
 14.0083134999999999 10.2798198900000006 13.7969868899999994
 12.8576557499999993 11.9205813400000000 15.3882621499999992
 10.2521207600000004 13.6738033300000001 17.0053219300000009
  8.8059686300000006 15.3398060300000001 19.8804739899999987
  7.1022592600000003 17.3279381199999989 21.3271683299999992
  7.3963019100000000 17.7795655500000009  3.7667972000000001
  5.0293695999999999 19.7886257500000013  4.9343651499999996
  3.7339235400000002  0.2053580800000000  7.7416621599999997
  2.2068335100000001  1.9964213000000000  9.0462804299999995
  0.2781905900000000  3.6840239900000000 10.5549926900000006
 19.2075581900000003  4.7905238399999996 12.9393363699999995
 17.4745382999999990  6.7488515600000003 14.7836299300000000
 15.1274909500000003  8.7785755400000003 15.7497764000000000
 13.8722151999999994 10.4440443900000002 17.6826229400000017
 12.0748405000000005 12.5699622499999997 19.7891816799999987
 10.8616537900000001 13.4577286399999991 21.2221484400000016
  9.1319021300000003 15.3457195700000000  1.8303870400000000
  8.8774683099999994 15.6016986499999994  5.6445434099999998
  6.4076215400000001 17.8727781999999991  6.7201204499999996
  5.4800136200000003 19.7627094600000000  9.1576012799999997
  3.3995544999999998  0.3065468700000000 10.4721467700000002
  1.5968059600000000  2.2116918499999998 12.1683678499999992
  0.3452865600000000  3.4209105399999999 13.6558140899999998
 19.4745288800000012  4.8360413900000001 15.8118455200000003
 17.5761368800000000  6.4886932799999997 17.7383314399999996
 16.0569415900000010  8.7744706400000005 19.0866044600000002
 13.8325623800000006 10.9962335899999992 20.9598008500000006
 12.6360664000000007 12.6065642699999998  1.5435835300000000
 10.7080884699999999 13.9589112199999992  3.3709875999999999
 10.7112132899999999 14.0077499999999997  7.3796436999999999
  8.6083939800000007 15.7007250099999993  8.6697717900000004
  7.7162909400000004 18.0011812300000003 10.9741539199999991
  5.6325340600000002 19.7295564699999986 11.6436572799999993
  3.3903196900000001  0.2305276600000000 13.9209707199999997
  1.8707629500000000  1.3865684000000000 15.8880989300000000
  0.5571818500000000  3.1762356600000001 17.6733182199999987
 19.1831867799999998  4.2147446300000002 18.6603962800000005
 17.9142846999999996  6.6701694900000001 21.0312316400000014
 16.1200087200000013  8.4739033199999998  1.1788588300000000
 14.7161377699999996 10.0330918600000008  3.3705143700000000
 12.3118215000000006 12.4016784700000002  4.8127099099999997
  3.1700591899999999  3.2224621199999999 17.9257925500000006
  2.3402526099999998  4.9364411099999996 19.8737998100000013
 -0.0054084600000000  6.8775423900000003 -0.1634268500000000
 19.4415337000000008  8.5235298299999993  1.5865502199999999
 17.6699406199999984 11.1027489700000004  3.4587282799999999
 16.2519333099999983 12.4102244299999995  5.4066649800000004
 14.0689882900000001 14.3329835400000007  6.9021379700000001
 12.0810170200000009 15.7621927900000003  9.1791987099999997
 10.5639520200000003 17.9067932300000017 10.2208255200000000
  8.7935054299999997 20.1177162699999990 12.7686894700000000
  7.1348206400000000 21.6625660700000005 13.4980257699999999
  5.3528442299999996  1.4904998599999999 16.4258538700000010
  5.3466475800000000  1.7829684600000000 19.4830103799999996
  3.5587500300000001  2.9086490399999998  0.5059886200000000
  1.2651013200000001  5.2685959899999997  1.5437990100000001
 -0.6676662100000000  6.6054856900000001  3.4179802200000000
 19.0431415999999984  8.9349345499999995  5.2555122599999997
 17.5329173000000011 10.5777724099999997  7.0554743100000001
 15.8027676699999997 12.3084180300000003  8.4188337799999999
 14.4692651100000003 13.6928514799999999 10.8363223400000006
 11.8388015200000005 16.3090907300000012 12.1894188000000003
 10.1711532499999997 17.7590428100000004 14.0080872700000008
  8.5271159999999995 19.4874364200000016 15.5618907600000007
  7.9188394000000004 20.9543190300000006 17.8289784599999983
  7.1868724400000001 -0.6744557100000000 -0.2353081000000000
  5.7958344400000001  1.1749534699999999  1.8896329000000001
  3.1716243500000001  2.8378193199999999  2.6676377200000001
  1.6199764000000001  4.7852309399999999  4.9430406500000004
 -0.2541792800000000  6.6252683699999997  7.2258238199999996
 19.3358213899999996  8.0766326300000006  8.7555171699999992
 17.4883214600000017 10.6263541700000008  9.8486916799999999
 16.0473577100000000 11.7785182499999994 12.3722087199999997
 13.7204099900000003 14.4277449499999992 13.5533351599999996
 12.2098689300000007 15.8764827499999992 16.0150037099999984
 10.3969873699999997 17.6620668000000016 17.5392655700000013
  9.3437603100000004 19.2108077799999997 19.5766867399999995
  9.4218662999999996 19.3065237299999986  2.2160561900000002
  7.7464061199999996 -0.3214715000000000  3.6882980399999998
  5.0959118500000002  1.7221731100000000  5.2138102999999996
  3.7657774499999999  3.7377470100000001  7.2053409400000001
  1.6976427300000001  5.6334962500000003  8.9524512299999994
  0.0603980600000000  6.6001547399999998 11.2530637500000008
 19.2585508700000005  8.9288005899999998 12.3781146199999998
 17.2257966099999997 10.2040661000000004 14.1459772499999996
 15.3154467000000007 11.8648837000000000 15.7713361499999998
 13.6546504100000003 14.3691159499999994 17.6086012300000014
 12.2653281199999995 16.0249139499999984 18.7691207400000017
 11.1975633800000001 17.1334944200000017 21.1037093700000007
 10.5044047400000000 17.5222394299999991  3.8591129099999999
  9.3615819899999995 19.3436771000000007  5.8453911400000003
  7.1398539000000003  0.0250203900000000  7.4456249500000000
  5.9503846200000003  2.1520066299999998  9.5195873500000001
  4.1632841899999997  3.8270124900000000 10.8330735600000008
  1.9678961399999999  4.9458742400000002 12.3837265700000003
  0.1745305300000000  6.6400221899999998 14.2091612999999999
 19.4508331100000014  8.5392747100000008 15.5505562800000003
 17.2676180099999996 10.8050757900000001 17.1507068400000016
 15.2355875800000007 11.8063682599999993 19.1602566000000003
 14.2986624399999993 14.4682211899999995 20.6085879699999985
 12.9588493499999995 15.6529910399999999  2.0179921200000002
 11.6157946899999995 16.0191268800000017  5.5322353700000004
 10.4678190699999991 17.7912768099999994  7.1457821700000004
  8.9859439400000003 18.9192975899999993  8.8984183199999993
  7.8688889199999998  0.4095049200000000 10.4743593700000002
  5.2134331899999999  1.6073869599999999 11.9845168399999995
  3.2763087400000002  3.0830798399999999 14.6730486599999992
  1.9255181900000000  5.1427592600000001 15.7563311099999996
  0.4810249400000000  6.7311729500000004 18.0858288300000005
 18.9987699399999990  8.9433559099999993 19.0368674599999999
 17.9248290899999994 10.6099601900000007 20.9456065199999983
 16.0663346199999992 12.7882956799999992  1.7227783299999999
 14.4155606800000005 13.9442527900000002  3.7500505600000000
  5.0336586900000002  5.0760122399999998 15.5205998600000008
  3.0570993600000000  7.1017034700000004 17.7912919999999986
  1.6852574600000001  9.2471067399999995 19.9715607800000008
 -0.3471230600000000 10.4865739199999997  0.1947904300000000
 18.9771195699999993 12.9558556300000003  1.5986090100000001
 17.6207483399999987 14.6960236700000006  3.8848023199999999
 15.9832701299999993 16.2101262800000008  5.6545380099999996
 14.1581775600000004 17.5570540199999989  6.8850714300000000
 12.6488641299999998 19.4038768600000004  8.8600906199999994
 10.6005457599999993 -0.2646906900000000 10.7887515399999998
  9.1442021699999998  1.9263397700000000 12.0132228300000001
  7.6222623100000000  3.3498365400000001 13.5633924300000004
  7.0211708000000002  3.2770898700000002 17.2784724700000005
  5.2874170100000004  5.0970173399999998 19.4820200200000002
  3.1716553599999999  6.9104283200000003  0.2779687400000000
  1.4189406700000000  8.7006495899999994  1.5338769400000001
 -0.6613336700000000 10.6905782499999997  3.5670973899999998
 19.1799637199999999 12.3244211799999999  5.6278143700000003
 17.8386256400000001 14.2036389799999991  7.1951182999999999
 15.9049961900000003 15.6957157800000004  9.0067649599999999
 14.1785011500000007 17.6401504100000004 10.5752645199999993
 12.8881880199999994 19.3986914400000003 12.2203478600000004
 11.0489667800000007 21.1808215699999991 13.9693381999999993
  9.0480801700000004  2.0440385200000000 15.7861755400000003
  8.7940165700000001  1.8384503800000001 19.3351141800000015
  7.0977525100000003  3.2615340399999999  0.1208860600000000
  5.7281250200000002  5.4285761399999997  1.3832967500000000
  3.2575696800000000  6.7862770200000000  3.7437187199999999
  1.1967408799999999  8.1874582199999999  5.4309781099999999
 -0.0942389500000000 10.4597460200000008  7.6923346800000001
 19.1993407400000002 12.2781502800000002  8.8051177999999997
 17.5870831699999997 14.0121192200000007 10.6051231200000000
 16.1183996000000000 16.0616401300000007 11.9904726900000007
 14.1874613899999993 17.7634002100000004 14.3637878699999995
 12.1169315300000004 19.1469332500000000 15.3479595900000003
 10.2813743599999992 -0.2956423500000000 17.3794645800000005
 10.3465653799999995 -0.2619545700000000  0.2396977100000000
  8.8205577999999996  1.6030646900000001  2.0022395099999999
  7.0265937100000002  3.5899638299999999  3.4776500499999998
  4.2043673100000003  4.8819524500000000  5.2778376700000003
  3.4099684300000002  6.9531849599999997  6.7074503700000001
  1.5185973900000000  7.6770677400000000  8.1497942099999996
 -0.1369432100000000 10.3282429400000009 10.2476162700000000
 19.6297144800000005 12.2842849199999993 12.3117208500000004
 17.0010616399999996 14.0673228500000000 14.1301552600000004
 15.7262603500000004 15.3213639199999996 15.8420176200000000
 13.9890370399999995 17.7111171700000014 17.2001254000000010
 12.1136870999999999 19.1279773800000008 19.2139620600000001
 12.1556255100000001 19.5557175100000009  2.2439808499999998
 10.4012379300000006  0.2002207100000000  3.8846010199999998
  8.5732709499999995  1.9673702900000001  5.5478215000000004
  6.9245499300000004  3.6880993499999999  7.0185869900000002
  5.5913017199999997  5.8334705500000004  9.2394511500000007
  3.6052023800000002  6.8893705599999997 10.5689075100000007
  1.2491847500000000  8.4220542300000005 12.1369487100000004
  0.2337552200000000 10.7743189200000007 14.2291571599999997
 18.8540310600000005 12.2660002099999996 15.7559413900000003
 16.9969200700000016 13.9411163400000007 17.3924993999999984
 15.6586218099999996 16.2082837700000013 18.8231931800000005
 13.6515955200000008 17.9052887799999993  0.5639976100000000
 14.0268107900000008 18.0266893599999989  3.7870781400000002
 12.2290236300000004 19.1356314500000018  5.4469745100000004
 10.4337369399999993  0.0500252700000000  7.2343463400000001
  8.9297984499999998  2.5422708799999998  8.9183234700000007
  7.5397374299999997  4.3217581899999997 10.4770854500000006
  5.0906996299999996  5.2377100900000002 12.6613268699999999
  2.8367029600000002  7.1014687700000003 14.2300073000000005
  1.3583858000000000  8.8480995999999994 15.8807347399999994
  0.1129539600000000 10.6854340000000008 17.4410418699999994
 19.4017315400000001 12.6201656399999997 18.8521797100000015
 17.2260756999999991 13.7300272499999991 -0.4777874500000000
 15.5432453200000005 16.1187455799999988  1.6256176899999999
  7.1042801600000001  6.7519211800000001 14.1542975599999998
  5.0064624300000000  8.8368406099999994 15.8246767399999992
  3.4102386099999999 10.6125347800000007 17.6146022600000016
  1.7161690999999999 12.1213412599999995 19.4675841699999985
 -0.1123714400000000 14.4956785700000008 -0.2311698100000000
 19.6152401800000007 15.4506297499999992  1.3652641299999999
 17.6123864499999989 18.0048974800000003  3.7142886599999998
 16.1919804599999999 18.9787957300000016  5.5020964200000000
 14.1952610400000001  0.1048087900000000  7.2645585199999996
 12.0098076099999993  1.9030604000000000  8.7638067700000004
 10.6659319999999997  3.6567357800000000 10.4836438600000008
  9.2507191599999992  5.4981064100000001 12.3395334299999995
  8.9342081400000009  5.4108150500000001 15.5752278600000000
  6.7609326799999998  7.2222708799999999 17.4614495299999994
  5.1551773000000001  8.5923109499999999 19.0521435399999994
  2.9846124800000000 10.6569840199999994  0.0746607800000000
  1.2459050300000001 11.9525695100000000  1.6330361400000000
  0.2395385000000000 14.3010227299999997  3.5391552700000002
 19.7328900800000007 15.9359468399999997  5.3101883299999999
 17.8437761200000011 18.0389544000000015  7.1231397599999999
 16.5712592000000001 19.8331136699999995  8.5403781700000003
 14.1757246099999996  0.5741552599999999  9.8742183899999993
 11.9889383699999996  1.9203359099999999 11.8998688500000007
 10.9133454800000003  3.2959714299999998 13.5070792999999991
 10.6824240600000007  3.5329752999999999 17.6420998900000008
  8.9877081200000006  5.0223181700000001 18.9657064999999996
  6.9922472700000000  7.1381151300000001 -0.0563970500000000
  5.0700473099999996  8.8397162700000003  1.8449093000000001
  3.3925376200000001 10.0721271699999999  3.8985365999999999
  1.3247582499999999 12.3695763099999994  5.5616105300000003
 -0.6491150700000000 14.1629402500000001  7.2133111500000000
 19.4076228800000017 16.0507707599999989  9.3344983999999993
 17.4832352600000007 17.6922125500000007 10.5227418900000007
 15.4207095100000000 20.0008638599999991 12.0003276000000003
 13.5672692999999995  0.8324166500000000 14.1815018399999992
 11.7410542499999995  1.4511096200000000 15.7173803900000006
 12.0306769199999994  1.0897813400000000 19.3879656300000001
 10.7474712399999994  3.5548208200000002  0.9676417400000000
  8.2122978599999996  5.5554646300000003  1.7372446300000000
  6.7089003900000002  7.3447111800000000  3.8228180900000002
  5.1446156099999998  8.2843245799999998  5.1505097600000003
  3.4036257600000002 10.5103409800000005  7.6185620700000003
  2.0032296500000002 12.4960275500000009  8.7414678899999991
 -0.0599275200000000 14.3775767099999996 10.3836918600000008
 19.5411536400000010 16.0934700500000005 13.1621101399999993
 17.2142469399999989 18.4070728999999993 14.4783281099999996
 15.5172737200000004 20.3865507500000014 15.8318274900000002
 13.1794671399999999 -0.1500645900000000 17.9122481700000016
 14.4070197300000000 -0.6728339300000000 -0.4682524900000000
 12.5587047700000003  1.4318239100000001  1.5887723499999999
 10.4694171300000001  3.1903894199999998  3.0121072500000001
  8.5395308900000000  5.5067354499999999  5.1547447100000001
  7.0238091000000002  7.2540659300000003  6.4888691500000002
  5.0102299700000001  7.9085698400000002  8.3882359799999993
  3.1230035500000000 10.0382382600000000 10.4505881200000008
  1.9214070999999999 12.0700046499999996 12.5243879299999996
  0.0144846400000000 13.9781130099999995 14.5090858600000008
 18.7443658900000010 16.2988564300000007 16.1287212199999992
 17.7212275699999999 17.6855076800000006 17.3957626300000001
 15.5902766300000000 19.1844658800000012 19.3217198100000012
 15.6138273200000004 19.0773630400000016  1.4105767700000000
 14.7182012699999998 -0.4702519700000000  3.4123177400000002
 12.0278841700000001  1.4134201300000000  4.8959835900000002
 10.6487853000000001  4.3241921600000000  6.4718224900000001
  8.3568259800000000  6.0389077100000002  8.1241792700000008
  7.4442420699999996  7.5521972599999998 11.6770512199999992
  4.8867818200000004  9.1671839599999991 12.4125707399999996
  3.6953150500000000 10.5190856099999994 14.0524944800000000
  2.1555970100000001 12.0575555600000008 15.5978845199999991
  0.1091895300000000 14.3855167599999998 17.2280777100000009
 19.5184835099999994 15.7078964200000009 19.0073029499999997
 17.3562037400000015 17.2503352999999997 -0.2947660200000000
  9.1583610199999992  8.6440281100000007 12.3216430300000006
  7.0718884900000001  9.9930484499999999 14.1504230799999995
  5.6187836100000004 12.6899850399999998 15.3345292200000003
  3.3686134600000002 14.2769163599999995 17.1312061399999997
  2.0671198500000001 16.7353434700000001 18.8675047000000013
  0.2304614700000000 17.7368651600000007  0.1446265700000000
 19.1686309000000001 18.8014031800000012  1.4104110200000000
 17.0039460899999995 21.0924951500000013  3.5803274799999998
 16.0834158199999990  1.2918557600000000  5.6220972700000003
 13.6158039199999994  3.4166162000000000  6.9921662400000004
 12.0348613499999999  5.8191314500000004  8.2701572799999994
 10.2280907899999995  7.3128093800000000 10.5238236500000006
 10.3310224399999999  6.9380846600000003 14.2797883100000007
  9.1911592399999993  9.0955800300000007 15.9734510000000007
  6.5916998199999997 10.9914474900000005 17.7322035100000015
  4.9977623500000004 12.1381421599999992 19.1134132200000018
  3.2670148700000001 14.0950317100000007 -0.2340070500000000
  1.8009488899999999 15.5168995499999998  1.9946630700000001
  0.4601692500000000 17.4967971700000007  3.8576124100000002
 19.3524388800000011 18.7796766700000006  5.1396859399999997
 17.9314561800000014 21.0262884899999989  6.9495277299999998
 16.0295589900000017  2.0401519900000000  8.3634736800000002
 14.0130654000000003  4.1181106099999996 10.1752888000000006
 12.9159893799999992  4.9572346300000003 12.5180633199999995
 11.8319100499999994  5.2648120900000004 15.4480412400000002
 10.1409867499999997  6.8988201000000000 17.8044264100000014
  8.4468032900000001  9.2458191099999993 19.0654077899999983
  6.9445628199999998 11.0891678200000001  0.1966430500000000
  4.8673775499999996 12.3492536899999994  2.6015616000000001
  2.9254939499999999 13.5613120400000007  3.4529818699999999
  2.0185405400000000 15.7855604599999992  5.5532831800000002
  0.0438759100000000 17.5451732000000007  7.5393410599999999
 19.1926475900000000 19.6798060799999988  8.9807628000000008
 17.7074306099999994  0.4237141200000000 10.7849720700000002
 15.4940920200000001  2.0514980399999998 12.1209722000000006
 14.2439894200000001  3.5793147200000002 14.6187980500000005
 13.5491207300000003  2.8112640500000001 17.7329862700000014
 11.9910663700000004  4.9897556500000002 19.5604102900000001
  9.9777454199999998  6.9619617299999996 -0.0434756300000000
  8.6406342800000004  9.0222321200000000  1.4850682500000001
  6.6561578600000004 10.6878388199999996  3.7755960700000002
  5.3125508300000002 12.1270242899999996  5.1094792099999999
  3.9034704400000000 13.9477624200000001  7.3871212899999996
  1.6364148500000000 15.8823439400000002  8.7623882099999992
 -0.3005680800000000 17.7883539299999995 10.4699459400000006
 19.6499296600000015 19.6551040499999985 12.4468295799999993
 17.7072570200000001 21.9305800799999986 13.8331612100000001
 15.5569362299999998  1.5435221200000000 16.2642345599999985
 15.4270760599999992  1.3251950800000001 19.0729239899999996
 14.1677408299999996  3.1971404699999999 -0.1843613900000000
 12.3709126000000005  5.2530908099999998  1.7626792099999999
 10.6252098000000004  7.2588618299999998  3.9777214600000002
  8.5033077600000002  8.9147529500000005  5.2457540099999997
  6.6472809399999999 10.3771123700000008  7.2178429099999999
  5.0855506200000002 12.2982323800000000  8.7074612200000008
  3.7089219400000002 14.1766495599999995 10.8075750500000005
  1.6678961100000000 15.7023948699999991 12.5938435500000008
 -0.1941539900000000 17.7106658900000014 14.6663427800000008
 19.5464675399999983 19.6493196300000008 16.0650169200000015
 17.8763028999999989 21.0621439600000002 17.3355102099999989
 17.5876273400000009 -0.3217240500000000 -0.0442467900000000
 15.8021162900000007  1.2955063300000000  1.2530416900000001
 14.3836545499999993  3.6335567100000001  3.0344731999999999
 12.3874895400000007  5.0258267500000002  4.6240168099999996
 10.6148269400000004  7.4644167499999998  6.2624008499999997
  8.6662098899999993  8.2280734100000004  8.5952588799999994
  6.7641981400000004 10.4103123499999999 10.0436187500000003
  5.5441348899999996 11.9639919999999993 12.1737042700000000
  3.6377388900000001 14.1510331800000007 13.8053276399999998
  1.7004316600000000 16.4120017599999990 15.5409416199999999
  0.1379622500000000 18.2686328399999987 16.9749111399999997
 18.6481974800000003 18.9777511499999996 19.1844370499999997
