Li                                      
   1.00000000000000     
    22.7325000000000017   -0.0000000000000006    0.0000000000000000
    -0.0000000000000006   22.7325000000000017    0.0000000000000000
     0.0000000000000006    0.0000000000000006   22.7325000000000017
   Li
   500
Direct
  0.0287718904651939  0.9860317884086669  0.9879093289343430
  0.0123443519190616  0.1019622280875367  0.0962002481029387
  0.0476869913119984  0.2051590810513559  0.1975009752556929
  0.0181698392169807  0.2826259205982637  0.3030380270537805
  0.9820090861101960  0.4001178422962752  0.3796510603761121
  0.9726602133509274  0.4981448485648272  0.4880771015066543
  0.9750341264709093  0.5988171393379531  0.5838303033102363
  0.0068821898163449  0.7095954738810093  0.6813150023094678
  0.0032901304300026  0.8054515807764204  0.7974336183877710
  0.9988043673155147  0.8748902131309819  0.9044051780490463
  0.1272023534587063  0.9848090438799062  0.0998576012317187
  0.1134725692290743  0.0993283013306936  0.1993943204662898
  0.1166271773891978  0.1829011371384581  0.3059573883206852
  0.1068818449356641  0.3108468162322637  0.4165409035521819
  0.1002129844935666  0.3952475359067407  0.4977835957329830
  0.0994111949851515  0.4833198438359148  0.5696391087649815
  0.0893922375453613  0.6196021625426127  0.6714991954250493
  0.0831339109204876  0.6982670172660264  0.8112669310458571
  0.0874872763664385  0.7782266688661608  0.9256249589794336
  0.1188057864291210  0.8669492391949873  0.0199413056197102
  0.1815172506323535  0.9562759489717365  0.2249410909490805
  0.2171260389310490  0.0722970531177793  0.2718030449796558
  0.2454387726822844  0.1968078055647169  0.3819809770152887
  0.2228701211921233  0.3022092787858810  0.4696275161112951
  0.2096320246343311  0.4126096782140110  0.5831445775871558
  0.1834964258220637  0.5202983670955703  0.6677562142307281
  0.1707579175189693  0.6203051534147122  0.7970218669306064
  0.1980331696909730  0.6904182131309824  0.9288169449026711
  0.2251124667326536  0.8001407161552834  0.9951547260530091
  0.1839301871769479  0.9101107049378641  0.1262870770922717
  0.2976301871769493  0.9892026134389056  0.2988003571978410
  0.3078376531397780  0.0896380103376231  0.4261517523369633
  0.2915026877818079  0.2091211582536019  0.5207591826679874
  0.2817623525789088  0.2762310229847103  0.5837138330583969
  0.2812252352358939  0.4265670225448162  0.6908161583635746
  0.3089430322225866  0.5122624819091612  0.8070989050918271
  0.3300767377103284  0.6090365762674566  0.9119907084570542
  0.3080964297811519  0.6961847601451652  0.0205101656219071
  0.2922531661717827  0.8051064286814054  0.1062707572858272
  0.3092504775101759  0.8829981211921236  0.1906219830638918
  0.3907169479819643  0.0179609444627715  0.3956087891784890
  0.4011360721434087  0.1042323800725811  0.4986467801605627
  0.4077243615968342  0.2037235244693747  0.6050712530517970
  0.3722749657978639  0.2842693328934374  0.7174659337952249
  0.3750810205652684  0.3983121860771988  0.7689909847135183
  0.3982978678104061  0.5111426622676802  0.8733217428791349
  0.4065295831958622  0.5968347159353371  0.9969866622676804
  0.4036122186297177  0.6824299003629193  0.0950764706917440
  0.4141521482459041  0.7882628531837668  0.1821928542835138
  0.4145815308479044  0.8802866935004943  0.2719255968327303
  0.5195370460793995  0.0139271100846798  0.4978234228527469
  0.5071505954030542  0.1036489418233799  0.5812110775321671
  0.4823005885846285  0.2025275579016821  0.7027827832398543
  0.5044895590014278  0.3080248432860415  0.8033962678983855
  0.4807963035301910  0.4166232464533124  0.8999532537116437
  0.4835129963708340  0.5411940301330702  0.0157325124821313
  0.4890980032992402  0.6239188008358099  0.0880001495656018
  0.5082785329374246  0.6948750317826864  0.2098323743539012
  0.4953453188166748  0.8001062936324672  0.2868555125921048
  0.4939949908720962  0.9089845265588892  0.3804495563620378
  0.6051274628835372  0.9960384058066651  0.5919439683272856
  0.5758440545474528  0.0971506899813050  0.7099085182008125
  0.5773384709116911  0.1847248714395704  0.7815508870559782
  0.5602813535686764  0.3283246308149117  0.8878529946112366
  0.5744171498955239  0.4222529563400386  0.0180924860882001
  0.6027027709226900  0.5347795543824887  0.1145964803695136
  0.5888808186517096  0.5917742131309822  0.2218634606840411
  0.5828894745408562  0.6902438561530815  0.3339194215330465
  0.5950545830858900  0.8132087007588282  0.3934436581986134
  0.6175382289673408  0.9103956076102477  0.5035081975145701
  0.7069983530188040  0.0070320431100868  0.7072834074562877
  0.7167756546794237  0.0855732035631789  0.7965051780490455
  0.6885972431540779  0.2078073344330775  0.8746663292642722
  0.6925681676014506  0.3028214353898591  0.9773393339931786
  0.6898530781920158  0.4136978035851726  0.0919955939733867
  0.6902857424392366  0.4748095493236590  0.2265204962058718
  0.6918893139777822  0.5847101986143173  0.2892412106015598
  0.7174038178818876  0.6840910361816768  0.3880897191246007
  0.6917338722093902  0.7898485252391936  0.5177586376333423
  0.6872959274166917  0.9123109635983724  0.5842547687231914
  0.8348309394039362  0.0008542610799509  0.7929232490927092
  0.8298687236335667  0.1180289528208505  0.9096353850214456
  0.8163958975035754  0.2160840118772711  0.9679929928516415
  0.8110732563510368  0.3014335246893225  0.0904648723193660
  0.8152712490927101  0.3968529915319507  0.2036659540305763
  0.8071162634993954  0.4866915922137878  0.3111845577917052
  0.7872248956340044  0.6153798565929804  0.3858142549213710
  0.7779199256571019  0.7100022984713519  0.5196133812823049
  0.7871022025734078  0.8191591919058610  0.6136404425382196
  0.7951109438029249  0.9009041869569998  0.7044596014516671
  0.9032196630375040  0.9934907722423816  0.8987142342461212
  0.9297892422742748  0.1082967764214260  0.9763522410645535
  0.9421015246893205  0.2090616245463508  0.0809841438469121
  0.8924026583085904  0.2658015510832499  0.1820854675024748
  0.9148717457384805  0.3947111897063706  0.2905071905861618
  0.8932250957879688  0.4886225817661938  0.3773489286264180
  0.8629983464203264  0.5987519098207414  0.5107235271087660
  0.9068827128560457  0.7180901260310151  0.5862174023974518
  0.9104478174419910  0.8058920875398670  0.6795622192895650
  0.9101319309358828  0.8709853100186962  0.7966221796986659
  0.1212491397778521  0.0967214384691530  0.0058100107775232
  0.1208731023864544  0.2195865043440008  0.0816717818101864
  0.1136196757945669  0.3169980547674029  0.2316433036401619
  0.0725283976685347  0.4188589587594862  0.3100994901572633
  0.0821653821621027  0.5103397523369608  0.4084965938634113
  0.0865038205212798  0.5811287944572712  0.4963035662597619
  0.1046987352908815  0.7212843202463404  0.5709399366545682
  0.1158491331793670  0.7822851322995703  0.6854855981524253
  0.0979960466292766  0.8992818229407220  0.7900425848454873
  0.1101250170460801  0.9744299843835904  0.8997408705597678
  0.2024992728472483  0.0909168991531928  0.1140330720334291
  0.1998819940613643  0.2035971375783561  0.2097404896073911
  0.2167210808314053  0.3222172682283073  0.3185562019135588
  0.1969291050258448  0.4255251793687478  0.4118297934675041
  0.2104790810513606  0.4930016056307025  0.5058987731221833
  0.2052079938414195  0.6048778981634229  0.5791294367095574
  0.1991837602551385  0.6995710506983386  0.6882996089299454
  0.1871289145496533  0.7755817081271275  0.8287548817771935
  0.2153125441548411  0.8906548171120647  0.8839675293082578
  0.2073734859782235  0.9889419509512791  0.9822265747278109
  0.3094081803585169  0.0875763642362273  0.1847215655999150
  0.2910043677554128  0.2067014169141075  0.2992096210271669
  0.3086262883536790  0.2985482247882985  0.3978584568349248
  0.3144912666886626  0.4047706411525382  0.4792520633454274
  0.3416508791377950  0.5059914826789864  0.5875580925987052
  0.2988904977455178  0.5844902267678407  0.6810630762124745
  0.2842817327614640  0.6741965379962593  0.7747010579566691
  0.3116515939733873  0.7846086541295492  0.8749115988122753
  0.3103501445067636  0.8783637686132195  0.0246059509512833
  0.2840544436379631  0.9752628113933781  0.1003155196304846
  0.3729013680853370  0.1177647759815272  0.3014150524579335
  0.3980628663807337  0.1995635112724088  0.4083774177939077
  0.3901305285384353  0.2901093311338414  0.5011310370614765
  0.3781498620917176  0.3862981731001867  0.6182851195425059
  0.4184714571648556  0.4926279041020578  0.6846800461893778
  0.4100132682283046  0.5997092387550893  0.7865139377543144
  0.3987672900032990  0.7141540838007288  0.9001579579896628
  0.4025235996920742  0.7949689946112386  0.9955294903772156
  0.3937353190366224  0.9005997857692734  0.0991535585615324
  0.3974826244363783  0.9994554518860639  0.2135189143297040
  0.5120236067304518  0.1052810759925222  0.3989467691630892
  0.4920132787858762  0.2025280914989551  0.5147512380952364
  0.4903918099637110  0.2852125023644589  0.6298100653249747
  0.5294671210821491  0.3740878693500491  0.6900917162652576
  0.5033087205542728  0.4838726800835786  0.7853151043659992
  0.5004429723963497  0.6142175163312444  0.8887848564830065
  0.4966418871659499  0.7051282639392937  0.9638184471571520
  0.5103338964038286  0.8025212884636517  0.1112774749807528
  0.5113849211481352  0.9088153414714597  0.1850916766743680
  0.5037415827559641  0.9948289858132640  0.3151579346750282
  0.6071401777191241  0.0953858924447388  0.5046018150225464
  0.5888517540965594  0.1771161904761911  0.6279123884306586
  0.6269707880787436  0.2927534054767378  0.7031887764214204
  0.6005589807544283  0.4036091309798735  0.8221955838557164
  0.5757199643681972  0.5045559172990224  0.9232587036181670
  0.6224159370944662  0.6247471329594205  0.0260709345650483
  0.5797621946552312  0.6841894213130999  0.0833182492026836
  0.5979616267458496  0.8065000774221929  0.1936163000109943
  0.5950163347630024  0.9206518165621915  0.2864736386231144
  0.6157436498405389  0.9952705558121622  0.4203356753546714
  0.6986270902892358  0.0913479159793269  0.6055614380292553
  0.7091701299900990  0.1583911479159781  0.7023436150885303
  0.6851931111844252  0.2851941079951601  0.7965987568459241
  0.6816655097327597  0.3932581691410988  0.8977396595183080
  0.6845111721104118  0.5182391268008359  0.9835726158583498
  0.6865296078302023  0.5921643901902556  0.1202313683052907
  0.6806582527218765  0.7005332220389278  0.2107189002529424
  0.6679056333443327  0.8050726382931899  0.3066245291982810
  0.7011261022764756  0.8996245463543389  0.3851094041570420
  0.7134324764104250  0.0192930702738394  0.4874853782030115
  0.8151501101946579  0.1053004341801369  0.7124530192455722
  0.8257933544484786  0.2177363651160249  0.8101026327944538
  0.8121258858462568  0.3016142558011623  0.8967702861541866
  0.7873301933355350  0.4045718931045883  0.9734200272737255
  0.7694647456285040  0.4988626468712170  0.1134624845485561
  0.7839376100296960  0.5918430854503498  0.2276988729792180
  0.7832154413284940  0.7213162964918070  0.2969645969427006
  0.7881033564280244  0.7948028201913573  0.3889933830418997
  0.7797554866380736  0.9139041825580136  0.5081147295721991
  0.7864782773562098  0.9726782175299675  0.6112949864731121
  0.9333169770152878  0.1037361192125843  0.8200506943802921
  0.9381178730891904  0.2235759001429685  0.8977554078961845
  0.9065229609589807  0.3100975977125273  0.9830652906631485
  0.8954563246453304  0.4071095568019345  0.0940600285934252
  0.9016552187396911  0.5072130531177805  0.2076829134499079
  0.9046142685582339  0.5993656144286845  0.3221380578466935
  0.8766962014736635  0.7138074202133495  0.4187742016936085
  0.8869850333223326  0.7973617653139797  0.4874505602111512
  0.8928738510942509  0.8873160321126150  0.6053921983943695
  0.9206976258660475  0.0101583530188023  0.6978766444517746
  0.0228334952160978  0.0704779118002890  0.8929919678873830
  0.0181048837567346  0.2155140292532707  0.9924482137908299
  0.0201701044759730  0.2935651516551161  0.0988716599582062
  0.9886794941163544  0.4027487227537634  0.2198809748157942
  0.9969899170790697  0.5241562498625285  0.3249559604091061
  0.9728789679973602  0.5937519247773011  0.4453932651490149
  0.9830666283954699  0.6919353093588470  0.4858692237985238
  0.0120502483228861  0.8219422214890599  0.5931264453975587
  0.0113147282525006  0.8787656936104682  0.7056985465742898
  0.9883931723303618  0.9913569642582232  0.8214173051798070
  0.2000669957109835  0.2226166259760234  0.9825687817002091
  0.2055583433410320  0.3274238029253240  0.1035058880457527
  0.1753102113713823  0.4313732040030800  0.2080174076762376
  0.1712006136588613  0.5084346587484845  0.3128004755306293
  0.1994505606510515  0.6213103521390053  0.4125658911250412
  0.2224256060706011  0.7036717914879560  0.5037311778291027
  0.2094980873199148  0.7730988439458955  0.5965219487517857
  0.2125040840206722  0.8723303591773899  0.7132684451776115
  0.1882642784559536  0.9835849959309328  0.7840290284834452
  0.2069100939183954  0.1076133667656407  0.9093000519080618
  0.2675891213021018  0.2203703961288923  0.0871957087869788
  0.2910593630265055  0.3345046998790266  0.2128684508962948
  0.2833846308149148  0.4076474118552724  0.3124574872979196
  0.3200500556472008  0.5330796366435706  0.3788274290113307
  0.3223334415484445  0.6284616742549218  0.4868037263829308
  0.3376925415154517  0.7091853562080743  0.6191746455515243
  0.3106437928076531  0.7770775581216327  0.7055657151655126
  0.2868591241614453  0.8733631268008324  0.7935020230946890
  0.2799828637413384  0.9618009567799390  0.9012948918948638
  0.2819514694820171  0.0876567113163986  0.9951265712086226
  0.3884252123611560  0.2164881530847893  0.1702923699549075
  0.4082885591114049  0.2916414367095541  0.2961518152424958
  0.3923836410425636  0.4234808094138316  0.3948205032442544
  0.4041120479489706  0.4972888186517110  0.5090843431210814
  0.4242473172770289  0.6087378590124288  0.6186132836247680
  0.4216291912460122  0.7205273128780405  0.7068882564610135
  0.3854124205432754  0.8456445010447595  0.8060759282964938
  0.3968878165621916  0.9090424612339163  0.9199438060046177
  0.3932630493786462  0.0225864176839323  0.9982298027053744
  0.3743535840756635  0.1158680048388874  0.0927011714505639
  0.5037666473111173  0.2252149182887919  0.2810685718684738
  0.5094703569778929  0.2966126822830759  0.3863986992191784
  0.4831398284394623  0.3994860631254795  0.5085721900362898
  0.5040823961288936  0.4930033744638749  0.5810271144836676
  0.5203004394589215  0.5949704528758417  0.7204531617727952
  0.5112219755856131  0.7141998587924760  0.8293069094908176
  0.5216672706477539  0.8052059188386664  0.8967487693830449
  0.5116510678543946  0.9155720712636111  0.0106463904102085
  0.5068910375013758  0.0024197321016146  0.1001021247113130
  0.5009686620477325  0.0718852330364044  0.1961814890575155
  0.6233138440558648  0.2006664489167491  0.4111381040360698
  0.6232347110964511  0.2976604654129531  0.5129186055207313
  0.6207629354448443  0.3883531740899571  0.5938769097107652
  0.5882382404047064  0.5009682762564580  0.6874334067964369
  0.6132927605850682  0.5947227678433933  0.8024104823490603
  0.6106416368635195  0.6894214019575529  0.9007977631144826
  0.6385776276256436  0.8018345540525686  0.0049214485868276
  0.6153948413064967  0.9142838913449935  0.1020035798966248
  0.6075449361046950  0.0256457573958002  0.1913410113273954
  0.6001251762894526  0.1003505804464950  0.3164769325855019
  0.6988536953700617  0.1596109543604953  0.5231696148685785
  0.7106784480369512  0.2523664823490606  0.6038525028043580
  0.6869000985373361  0.3819884086660039  0.7149694468272330
  0.6955616601781571  0.5019647957769706  0.7919849422632765
  0.6660188452655902  0.5946930535576840  0.9080560875398689
  0.7217484429781180  0.6861586086000244  0.0031130597162630
  0.6863525371164627  0.7792439063015522  0.0954129444627725
  0.7197420054987376  0.9008592662487658  0.2059761205322772
  0.7043306116793104  0.0070835099527073  0.2926349011327360
  0.7038299104805930  0.1111043879907641  0.4034353023204673
  0.8333558983833740  0.1812248846365350  0.6227907128560446
  0.7970420151765083  0.2829723756735945  0.7086595631804684
  0.7873297587154937  0.3714436991092072  0.8009605094028345
  0.7956791290003267  0.5061120897393607  0.8748905091828902
  0.7833581000769811  0.5747545663697338  0.9995731872869271
  0.7750167838997015  0.7117278821071125  0.1155934974155954
  0.7815043541185531  0.8224140802815327  0.1981022962718555
  0.8179472226987770  0.8938825932035641  0.2879149446827256
  0.7981754861981756  0.9906138625316174  0.3997063785329402
  0.8004475411855267  0.0672075081931141  0.5203405247992947
  0.9356402269877933  0.1937839762454630  0.7057357404596942
  0.9247500446497270  0.3144013152974807  0.8271701585835274
  0.8940235970526800  0.4106452576707369  0.8893770852304002
  0.8907012281975142  0.5035439683272855  0.0171409251072276
  0.8761556397228674  0.5951546587484913  0.1098553709446861
  0.8743659008028146  0.7013332937424366  0.2060104146046413
  0.9014209149895507  0.7809170614758614  0.2829734639832822
  0.8853424146046436  0.9078965494336302  0.4008049053117801
  0.8839265069833928  0.0021138946442321  0.5378653135378855
  0.9213143081491282  0.0751587097767512  0.6040391206422555
  0.0261540525679109  0.2057486132189581  0.7750223864511128
  0.9963921486857998  0.3255544119652498  0.8972257560761037
  0.9911186217969856  0.4124397694930195  0.0006784066864611
  0.9867453438909024  0.5082339879027842  0.1215564201033743
  0.9859223772132424  0.5872391954250489  0.1917822377653167
  0.0035591197624569  0.6978657666336758  0.3289019139997791
  0.9702092295172093  0.8041260010997462  0.4322814846585317
  0.9807131292202769  0.8890829226877841  0.4986734358297582
  0.9970917387000995  0.9612520065984853  0.6043628795776996
  0.0212835970526797  0.0923320417903852  0.7015373606070625
  0.0847529602991344  0.1991447671835473  0.9026589983503825
  0.1143164187836803  0.3342632174199949  0.9916863684152659
  0.1093670317826891  0.3913544251622127  0.1028387594853157
  0.0901343666556684  0.5130980503684128  0.1937384027273694
  0.0790403576377443  0.6087818031452770  0.3115240963378412
  0.1187305949631607  0.7177754584845459  0.4293104075662626
  0.1049607091169023  0.8180147889585427  0.4990541752996833
  0.1107183085890213  0.8907172664687124  0.6134782210491565
  0.1125300679643715  0.0267787665236980  0.6874099210381601
  0.1094701533047413  0.0943831989442430  0.8211348254701392
  0.3092547973166191  0.3080283268448269  0.9884792908830988
  0.2840004979654651  0.4240784722313862  0.1120007438689115
  0.2870672838447135  0.4976987401297706  0.2139221687011954
  0.2987273898603320  0.6158092761464857  0.2937484473771050
  0.3088001988342697  0.7104038495546021  0.3721544726712835
  0.2928083655559206  0.8153175963928305  0.5139374177939047
  0.2938042854943390  0.9193340252941837  0.5897805353568657
  0.2725796225668091  0.0208575585615307  0.7020934793797409
  0.3042783842516243  0.0798823719344526  0.8247278139227987
  0.3180290944682724  0.2092399582096149  0.8997282793357542
  0.3743572242384232  0.3141222865940847  0.1075907823600559
  0.4233280030792912  0.4281613254151537  0.2024433133179357
  0.4147863068294271  0.5103815893544450  0.2986619285164380
  0.4365640246343361  0.6081051424172443  0.3828624093258526
  0.4188920079181813  0.7176762758165651  0.5027379122401854
  0.4061155090729116  0.8271137186847000  0.5962612990212222
  0.4024017367205559  0.9148767962168733  0.6966883255251304
  0.3988011943253085  0.9731441077752123  0.7855949072913262
  0.3734399780050595  0.0752052453535654  0.9079267436489573
  0.3973505074232904  0.1960172633894217  0.9970222483228852
  0.4861247245133598  0.3260542135708775  0.1810816914109736
  0.4747401227317738  0.4027385201803568  0.2983547849994466
  0.5100338304190046  0.4816638807874156  0.4274489255471252
  0.4990522472231405  0.5869233388320652  0.4829448388870574
  0.5055397219839435  0.7207940895194085  0.6150112398548302
  0.4998002203893108  0.8256354628835396  0.7427827656439021
  0.4835659373144168  0.9102466847025212  0.7960997646541301
  0.5066845054437508  0.9910821577037296  0.9023604214230758
  0.5032274153744609  0.1081800030792905  0.9837081033762232
  0.5179331564940028  0.1915322393049621  0.1216512411745327
  0.5913555974925799  0.2955153256351011  0.2704359665676890
  0.5811289818541709  0.3936514118552736  0.4129321807984141
  0.6020803114483684  0.4843290957879702  0.4979059329154296
  0.5836368494446305  0.5661041658418569  0.6062172246783248
  0.5936526616078268  0.6976818673705054  0.7162911531947671
  0.6187406066204773  0.8201643871109638  0.7943682788958526
  0.6140466913009988  0.9121229345650477  0.8760557360607066
  0.6009241420873224  0.0036786002419475  0.0053344581546213
  0.6080551012867019  0.0878357646541303  0.0809932915429457
  0.5811283004508994  0.1966246796436835  0.1620655568019345
  0.7006105346970202  0.2896655110524549  0.3843468069943938
  0.7205585478939867  0.3654550916089292  0.4794467053777609
  0.7150105764874084  0.4702676727152735  0.5902088212910996
  0.6851193907401267  0.5873912042230316  0.6933522956120086
  0.7233585971626511  0.6889109222478851  0.7714868465852831
  0.7141808863961288  0.7779473872209408  0.8895537908281099
  0.6968481508852946  0.9106287882986948  0.9811403523589561
  0.7091012638293179  0.0098166862421678  0.0916287663037494
  0.6983466943802910  0.1088189864731106  0.1806873529088335
  0.6720756502804335  0.1919181818981599  0.2574502870339828
  0.7918424541955318  0.2971990709336865  0.4914900626855854
  0.7788980648850767  0.3814494125151242  0.6033534371494582
  0.7967444073463099  0.5155204174639820  0.7150371529748156
  0.7874675315077511  0.6366828122731789  0.7946360057186865
  0.7590441953150773  0.7016235724183417  0.9144050130869914
  0.7812234861981722  0.8066420512482111  0.0130593441108573
  0.7919169668976167  0.9256518420763200  0.0819008701198740
  0.8197017829099309  0.0085077193445500  0.2179422747168118
  0.8051870599362161  0.0961852809853738  0.2842633106785470
  0.7855876177279200  0.1841393837017478  0.3848293922797765
  0.9002212572308395  0.2887240958979405  0.5854839661277893
  0.8782547344110867  0.3846189715165522  0.7072402120312304
  0.8883971094248295  0.5421600972176392  0.7857643664357212
  0.8667462377653123  0.6219890883096895  0.9090336988892531
  0.8617403664357184  0.6962064453975572  0.9947641390080264
  0.8785112402947348  0.7903300723633535  0.1107391747498099
  0.8848915244693742  0.8802701603431231  0.1910826081601229
  0.9119552240184774  0.9943212686682088  0.3030403805124848
  0.8712915583415821  0.0751422958319594  0.4122608595623021
  0.9133877219839448  0.1556907792807678  0.4872659993401527
  0.0223291393379554  0.3219933623666549  0.6980510128670403
  0.9953207724623354  0.4207408349279689  0.8008152517321037
  0.9905295361266937  0.5252967104365993  0.9047753441108526
  0.9836101519850402  0.5920923778730867  0.0044338238205199
  0.9848215836357639  0.6928521698009433  0.0761604957659756
  0.9934108725393145  0.7746404601341723  0.1796238363576350
  0.9513671655119325  0.8749732963818317  0.3098978748487866
  0.9939775295282089  0.0066253289343479  0.4355194488067724
  0.9991879555702212  0.1005626367535442  0.4891339408336108
  0.0274496381832208  0.2235977939074019  0.6100833419113627
  0.1109398086440123  0.3006011344990682  0.7947059813042969
  0.1027518856263043  0.4194712033432282  0.8659234162542617
  0.0783235759375316  0.4989841733201388  0.0187290122071957
  0.0998236872319396  0.6003575968327297  0.0990829262069752
  0.0663403299241168  0.7147402771362579  0.1936153256351005
  0.0861394879577730  0.7874332875838590  0.3143265470141898
  0.0944656425822075  0.8857165965028031  0.3944163888705603
  0.1049982434839976  0.9768171925657114  0.4914126061805817
  0.1049533056197092  0.1111688388870533  0.5929504062465654
  0.1256425417354023  0.2125009352248952  0.7147812488727610
  0.1806384775101719  0.3029118878258004  0.9095998847465054
  0.2030367773012216  0.4269711597932471  0.9938414160343143
  0.1979100679643651  0.5127308461453879  0.1182770042890127
  0.1779495765973849  0.6277931252611921  0.2210463662157736
  0.1803515332673484  0.7177783367425477  0.2911810803915102
  0.2094233586275180  0.7969227995161106  0.3858660362916524
  0.2044503050698339  0.9058991175629600  0.4955982650390425
  0.2121318354778410  0.9947544146046425  0.6091638675904534
  0.1902948949741585  0.1138299469921904  0.7075552222588826
  0.2063690289233477  0.1894722401847559  0.8219734767403466
  0.4363532941823394  0.4113896628175553  0.0033447104366005
  0.3515695396458796  0.5117382329264260  0.1174027977565189
  0.4264699478719862  0.6096552961618826  0.2266666983393790
  0.4445023094688239  0.6858392710876515  0.3072110480589458
  0.4120318741889335  0.7892083558781451  0.4112621220719248
  0.4147096496205904  0.9029051107445270  0.4917917769712972
  0.3957435508633012  0.0213887201143734  0.5946526994391306
  0.3928892858242605  0.0962628624216464  0.6874211820081371
  0.3803619342351254  0.2167549697569555  0.8079603479599697
  0.4032290522379824  0.3056347137358415  0.8954237272627310
  0.4961330276036477  0.4116103024304394  0.1157875103926074
  0.5101668487847775  0.5125650746728283  0.2002035033542313
  0.5282279001429657  0.5922910410205660  0.3234396656768936
  0.5105092237985289  0.6973678398768257  0.4170835860552060
  0.5307368639612875  0.7972835601011781  0.5019224753106784
  0.4976589952710881  0.9116280699439159  0.5898982733971181
  0.4906699276366453  0.9967423213460904  0.6780955957329837
  0.4709682692180763  0.1046813597272660  0.8145369193885372
  0.4789213223358644  0.2197481961948782  0.9036481851974045
  0.5002180917189065  0.2952349248872750  0.0316483769932887
  0.5952074633234332  0.3719285001649624  0.1792511707907209
  0.5979794501264735  0.4918240171560555  0.3161097683932681
  0.6243506732651483  0.6017495906741459  0.4149067581656212
  0.6097428201913573  0.7162386547894002  0.5171407319916455
  0.5947268879357779  0.8331752807654240  0.6308521658418584
  0.6075663257450756  0.9229744198834240  0.7514008045749492
  0.5943990669745958  0.0165821524249452  0.7888488155724218
  0.5718272011437335  0.1065423301440660  0.8897552785659286
  0.6002086079401749  0.1973955130319993  0.9805558565929857
  0.5884462346860246  0.2997526400527875  0.0918800527878574
  0.7024196753546690  0.3717845925437118  0.3116211732101632
  0.7063716397228603  0.4862842665786857  0.4115467247333129
  0.7113859747058200  0.5855177248432852  0.5162771050258428
  0.6700985417353991  0.6772995293082573  0.6203961838777090
  0.7025755367865401  0.8049973174969765  0.7012667722423842
  0.7199490020895212  0.9081672130210023  0.8199058225008216
  0.6918769339051991  0.0028716779940581  0.8841640589464390
  0.7117970236445643  0.0603230150665368  0.9768401548443890
  0.7046592609699758  0.1969797980864385  0.0633397140657621
  0.7013630806114577  0.2917643413614854  0.1840658220609228
  0.7971389253271752  0.3508530192455765  0.3975834492466745
  0.8024978550533390  0.4829035834158120  0.4744477206642443
  0.7905499659078430  0.5903792561310865  0.5805030920488292
  0.7964130100076972  0.6960771881667185  0.6672829512812086
  0.8170900433300332  0.7686092585505335  0.7861178994831164
  0.8079267454085581  0.8832623129880162  0.8760204882876934
  0.7973345962828517  0.9939232851644135  0.9872008850764331
  0.8201500072583272  0.0985762089519397  0.0567045445947443
  0.8028705984823503  0.1417698726492915  0.1630442432640464
  0.7895560070383780  0.2663700969976901  0.2779842907731194
  0.8872121851974057  0.3859205028043533  0.4864515737380373
  0.8735934292312777  0.4958385923237643  0.6024584717914863
  0.8948275429451229  0.6113813764434184  0.6886553045199619
  0.8895620230946903  0.7101547146156406  0.7714655871549567
  0.8773825131419741  0.7675291081051370  0.9048308980534472
  0.9114431043659934  0.8751033674254955  0.9918242912130211
  0.8974546363136469  0.9911213720444323  0.0580126092598690
  0.9187942118112815  0.1167410944682743  0.2018116287253946
  0.9070114096557802  0.1660590682942953  0.3080374059166360
  0.9167072473331146  0.2840488490047264  0.3913028558231630
  0.9956566096997719  0.3676418796876746  0.5810869600791833
  0.0045440752226966  0.4997491344990621  0.6803298616518205
  0.9857476133289325  0.5965733183767767  0.7798544141647454
  0.9932182148905753  0.6969171736500570  0.9040657789508444
  0.9842030119872405  0.7635922727372702  0.9984236089299472
  0.0127576738150239  0.8911287592653707  0.0973975317277009
  0.9972616421423055  0.0080348650610347  0.1784311329594175
  0.0385405745078629  0.1004634870779739  0.3131660424502343
  0.9913000391509925  0.1823629816342276  0.3943301497855458
  0.9886103934894948  0.3044169910920473  0.4994445437149437
  0.1080387871989430  0.3934021862971520  0.6993475913339964
  0.1052372893434494  0.5304888753986603  0.8004770790718112
  0.0808175506433528  0.5846547366105810  0.9460869451226230
  0.1105868201913580  0.7017619364346217  0.0055528718794662
  0.1087777732321555  0.7740458299791015  0.0749906473111182
  0.0954973218959623  0.8811198605520758  0.2108655783569802
  0.0808623486198172  0.9844420494886208  0.3180895251292171
  0.1135591681513262  0.0841266899813036  0.4147464889475430
  0.1035081324095444  0.1940654045969410  0.4773000708237092
  0.1234637303420243  0.3026987608050149  0.5899562247882955
  0.2044912939623913  0.4373993265148997  0.8150404711316384
  0.2176140283734753  0.5432480101176722  0.9216385184207638
  0.2105175532827417  0.6049447407896196  0.0170052286374158
  0.2119396260860000  0.7084798104036096  0.1090287724623309
  0.1941028567029548  0.8160195570218818  0.2207666332343550
  0.1954264300010990  0.9100650166061826  0.2911494754206529
  0.2065866600681829  0.0218166470911711  0.3910616760145160