Li 
 1.0000000000000000
    22.7325000000000017   -0.0000000000000006    0.0000000000000000
    -0.0000000000000006   22.7325000000000017    0.0000000000000000
     0.0000000000000006    0.0000000000000006   22.7325000000000017
 Li 
 500
Cartesian
  0.6540570000000000 -0.3175323700000000 -0.2748511800000000
  0.2806179800000000  2.3178563500000000  2.1868721400000002
  1.0840445299999999  4.6637788100000002  4.4896909200000001
  0.4130458700000000  6.4247937400000001  6.8888119500000000
 -0.4089784500000000  9.0956788500000005  8.6304177299999996
 -0.6215017000000000 11.3240777700000006 11.0952127100000002
 -0.5675367200000000 13.6126106199999999 13.2719223700000004
  0.1564493800000000 16.1308791099999986 15.4879932900000004
  0.0747928900000000 18.3099280600000007 18.1276597300000013
 -0.0271797200000000 19.8884417700000000 20.5593907099999988
  2.8916274999999998 -0.3453284100000000  2.2700129200000001
  2.5795151800000000  2.2579806100000002  4.5327313900000004
  2.6512273099999999  4.1578001000000002  6.9551763299999996
  2.4296915399999999  7.0663252500000002  9.4690160900000002
  2.2780916699999998  8.9849646100000005 11.3158655899999996
  2.2598649900000001 10.9870683499999995 12.9493210399999992
  2.0321090399999999 14.0851061600000005 15.2648554599999997
  1.8898416300000001 15.8733549699999994 18.4421255100000003
  1.9888045100000000 17.6910377499999996 21.0417693800000016
  2.7007525399999999 19.7079235799999992 23.1858157300000016
  4.1263408999999998 -0.9939569900000000  5.1134733499999996
  4.9358176800000004  1.6434927600000000  6.1787627199999999
  5.5794369000000001  4.4739334399999997  8.6833825600000001
  5.0663950299999998  6.8699724299999998 10.6758075100000003
  4.7654600000000000  9.3796495100000001 13.2563341099999992
  4.1713325000000001 11.8276826300000000 15.1797681400000002
  3.8817543600000000 14.1010869000000003 18.1182995899999995
  4.5017890300000003 15.6949320300000004 21.1143311999999987
  5.1173691500000000 18.1891988299999987 -0.1101451900000000
  4.1811929799999996 20.6890916000000011  2.8708209800000000
  6.7658782300000002 -0.2454515900000000  6.7924791200000003
  6.9979194500000004  2.0376960700000000  9.6874947099999993
  6.6265848500000004  4.7538467300000002 11.8381581199999992
  6.4051626800000001  6.2794217300000001 13.2692747099999995
  6.3929526599999997  9.6969348400000008 15.7039783199999992
  7.0230474799999998 11.6450068699999996 18.3473758599999996
  7.5034694399999999 13.8449239700000000 20.7318287800000007
  7.0038020899999998 15.8260200599999994  0.4662473400000000
  6.6436450999999996 18.3020818900000002  2.4157999900000000
  7.0300364799999997 20.0727547900000012  4.3333142300000000
  8.8819730200000002  0.4082971700000000  8.9931768000000005
  9.1188257600000000  2.3694625800000000 11.3354879299999993
  9.2685940500000008  4.6311450199999999 13.7547822600000007
  8.4627406599999997  6.4621526100000004 16.3097943399999998
  8.5265293000000000  9.0546317700000003 17.4810875599999989
  9.0543062800000005 11.6195505699999995 19.8527865199999987
  9.2414337500000006 13.5675451799999998 -0.0685007000000000
  9.1751147599999996 15.5133377100000001  2.1613258700000002
  9.4147137099999991 17.9191853099999996  4.1416990599999997
  9.4244746500000005 20.0111172599999989  6.1815486300000000
 11.8103759000000004  0.3165980300000000 11.3167709599999995
 11.5288009099999993  2.3561995699999998 13.2123808199999999
 10.9638981300000005  4.6039577100000004 15.9760096199999992
 11.4683089000000002  7.0021747500000000 18.2632056600000006
 10.9297019700000000  9.4708879499999998 20.4581873399999985
 10.9914591900000005 12.3026932900000006  0.3576393400000000
 11.1184203600000000 14.1832341399999997  2.0004634000000001
 11.5544417500000005 15.7962466599999996  4.7700144499999997
 11.2604374600000003 18.1884163200000017  6.5209429400000003
 11.2297411300000007 20.6634907500000011  8.6485695400000004
 13.7560600500000003 -0.0900569400000000 13.4563662599999994
 13.0903749699999992  2.2084780600000000 16.1379953900000004
 13.1243467900000006  4.1992581400000004 17.7666055400000005
 12.7365958700000004  7.4636396700000001 20.1831181999999991
 13.0579378599999991  9.5988653300000006  0.4112874400000000
 13.7009407400000001 12.1568762199999991  2.6050644900000002
 13.3867332099999992 13.4525073000000006  5.0435111199999998
 13.2505349799999994 15.6909684600000006  7.5908232499999997
 13.5270783100000003 18.4862667899999984  8.9439579600000005
 14.0381877900000003 20.6955681499999997 11.4460000999999991
 16.0718400599999995  0.1598559200000000 16.0783200599999994
 16.2941025699999997  1.9452928500000000 18.1065539599999994
 15.6535368300000002  4.7239802299999996 19.8833523300000010
 15.7438058699999992  6.8838882799999999 -0.5151335900000000
 15.6820851000000001  9.4043853199999994  2.0912898400000000
 15.6919206399999993 10.7936080800000003  5.1493771800000001
 15.7283738300000007 13.2919245900000007  6.5751758200000001
 16.3083822900000008 15.5510994799999995  8.8222495399999996
 15.7248402499999997 17.9552316000000012 11.7699482300000007
 15.6239546699999998 20.7391089800000010 13.2815715300000008
 18.9777943299999983  0.0194194900000000 18.0251277600000002
 18.8649907600000013  2.6830931699999998 20.6782863900000002
 18.5587197400000008  4.9121297999999998 -0.7275992900000000
 18.4377227999999995  6.8523376000000003  2.0564927100000001
 18.5331536700000008  9.0214606300000000  4.6298363000000000
 18.3477704599999996 11.0637166199999992  7.0740029599999996
 17.8955899400000007 13.9891225899999991  8.7705225500000008
 17.6840647100000012 16.1401272499999990 11.8121111899999995
 17.8928008200000015 18.6215363300000014 13.9495813599999998
 18.0748595300000012 20.4798044300000015 16.0141278900000010
 20.5324409900000013 -0.1479710200000000 20.4300213299999989
 21.1364339500000007  2.4618564699999999 22.1949273200000015
 21.4163229100000017  4.7524933799999998  1.8409720500000000
 20.2865434299999983  6.0423337600000000  4.1392578899999997
 20.7973219600000014  8.9727721200000001  6.6039547100000000
 20.3052394900000017 11.1076128399999998  8.5780845200000009
 19.6181099100000012 13.6111277899999994 11.6100225800000008
 20.6157112699999985 16.3239837899999998 13.3261871000000003
 20.6967550100000004 18.3199418799999982 15.4481481499999997
 20.6895741199999996 19.7996735599999987 18.1092137000000015
  2.7562960699999999  2.1987201000000001  0.1320760700000000
  2.7477478000000000  4.9917502100000002  1.8566037799999999
  2.5828592800000001  7.2061582800000004  5.2658313999999997
  1.6487518000000001  9.5217112799999999  7.0493366599999998
  1.8678245499999999 11.6012984199999991  9.2861488199999993
  1.9664481000000000 13.2105103199999991 11.2822208199999992
  2.3800640000000000 16.3965958100000009 12.9788921100000003
  2.6335404200000001 17.7832967699999998 15.5828013599999995
  2.2276951299999999 20.4429240400000012 17.9596430600000012
  2.5034169500000001 22.1512296199999987 20.4533593399999987
  4.6033147200000002  2.0667684099999999  2.5922568099999999
  4.5438174299999998  4.6282719300000004  4.7679256800000003
  4.9266119699999997  7.3248040500000000  7.2415788599999997
  4.4766908799999996  9.6732511399999996  9.3619207800000002
  4.7847157100000004 11.2071590000000008 11.5003438599999992
  4.6648907199999998 13.7503868199999992 13.1650599199999991
  4.5279448300000000 15.9029989100000009 15.6467708600000002
  4.2539080499999997 17.6309111799999982 18.8396703499999987
  4.8945924099999996 20.2468106299999988 20.0947918600000008
  4.7141177699999997 22.4811228999999990 22.3284656099999985
  7.0336214600000000  1.9908296999999999  4.1991829899999997
  6.6152567900000001  4.6988399599999999  6.8017827100000003
  7.0158471000000002  6.7867475199999996  9.0443173699999999
  7.1491727200000001  9.2014486000000009 10.8945975300000004
  7.7665786099999998 11.5024513800000001 13.3566643400000000
  6.7945282400000000 13.2869240800000004 15.4822663800000004
  6.4624344899999997 15.3261728000000002 17.6108918000000010
  7.0846198600000001 17.8361162299999982 19.8889279200000004
  7.0550346599999996 19.9674043700000006  0.5593547800000001
  6.4572676400000004 22.1701618600000003  2.2804225499999999
  8.4769803499999998  2.6770877700000000  6.8519176799999997
  9.0489641100000000  4.5365775199999998  9.2834396500000000
  8.8686422399999998  6.5949103700000000 11.3919613000000002
  8.5962917399999998  8.7815232200000004 14.0551664800000005
  9.5129023999999998 11.1986638299999992 15.5644891500000000
  9.3206266200000005 13.6328902700000008 17.8794280900000011
  9.0649774200000000 16.2345077099999990 20.4628407800000005
  9.1503677299999993 18.0716326699999996 -0.1016258600000000
  8.9505881400000007 20.4728846299999994  2.2540082699999999
  9.0357737599999997 22.7201210600000003  4.8538187199999996
 11.6395766399999996  2.3933020599999999  9.0690574300000009
 11.1846918599999992  4.6039698400000004 11.7015825200000005
 11.1478318200000004  6.4835932100000004 14.3171573100000007
 12.0361113300000007  8.5039524899999996 15.6875099400000000
 11.4414654900000006 10.9996357000000007 17.8521756099999998
 11.3763198699999997 13.9626996900000009 20.2043017499999991
 11.2899116999999993 16.0293282599999998 -0.8224971500000000
 11.6011652999999999 18.2433151900000006  2.5296151999999998
 11.6250577199999992 20.6596447499999982  4.2075965399999999
 11.4513055300000008 22.6149499200000008  7.1643277500000000
 13.8018140900000006  2.1683598000000002 11.4708607600000008
 13.3860724999999992  4.0262938000000004 14.2740183700000003
 14.2526134399999993  6.6550167900000003 15.9852388600000008
 13.6522070299999996  9.1750445700000007 18.6905611100000009
 13.0875540899999994 11.4698173899999993 20.9879784799999989
 14.1490702899999992 14.2020642000000006  0.5926575200000000
 13.1794440900000005 15.5533360199999997  1.8940321000000000
 13.5931626800000007 18.3337630099999984  4.4013825400000002
 13.5262088299999998 20.9287174200000017  6.5122619899999998
 13.9973925200000000 22.6249879100000015  9.5552807400000006
 15.8815403300000000  2.0765665000000002 13.7659253899999996
 16.1212099799999997  3.6006267699999999 15.9660262300000007
 15.5761523999999998  6.4831750599999998 18.1086812399999992
 15.4959612000000000  8.9397413300000004 20.4078668100000016
 15.5606502199999994 11.7808709500000006 -0.3734355100000000
 15.6065343100000007 13.4613770000000006  2.7331595800000001
 15.4730637299999998 15.9248714699999994  4.7901673999999996
 15.1831648099999992 18.3013137499999985  6.9703421099999998
 15.9383491199999998 20.4507149999999989  8.7544995300000004
 16.2181037699999990 23.1710797200000016 11.0817613599999998
 18.5303998800000009  2.3937421200000002 16.1958382599999986
 18.7723474299999999  4.9496919200000002 18.4156581000000017
 18.4616517000000009  6.8564460699999996 20.3858305299999998
 17.8979836200000015  9.1969305600000002 -0.6042292300000000
 17.4918573299999984 11.3403951200000002  2.5792859300000002
 17.8208617199999999 13.4540729399999996  5.1761646299999997
 17.8044450199999993 16.3973227100000010  6.7507476999999998
 17.9155595500000011 18.0678551100000000  8.8427920800000006
 17.7257916000000009 20.7753268300000009 11.5507180900000002
 17.8786174399999993 22.1114075800000016 13.8962632799999994
 21.2166281800000007  2.3581813299999999 18.6418024100000004
 21.3257645499999988  5.0824391499999999 20.4082248100000001
 20.6075332099999997  7.0492936400000001 -0.3849682800000000
 20.3559608999999995  9.2546180000000007  2.1382196000000002
 20.4968772600000015 11.5302207299999999  4.7211518300000002
 20.5641438600000015 13.6250788299999996  7.3230034000000002
 19.9294964000000014 16.2266271800000013  9.5197845399999999
 20.1633872700000012 18.1260263299999984 11.0809698599999997
 20.2972548199999991 20.1709117000000013 13.7620781500000007
 20.9297587800000002 22.9634247599999988 15.8644808200000007
 23.2515624299999999  1.6021391300000001 20.2999399099999991
 23.1440692699999992  4.8991726699999996 22.5608290199999999
 23.1910169000000010  6.6734698100000003  2.2476000100000002
 22.4751565999999983  9.1554853400000002  4.9984442600000003
 22.6640732900000010 11.9153819500000004  7.3870613699999996
 22.1159711399999992 13.4974656300000007 10.1249023999999999
 22.3475621300000000 15.7294194199999993 11.0450221299999995
 23.0064322700000012 18.6848015499999995 13.4832469199999991
 22.9897120599999987 19.9765411300000011 16.0422922099999994
 22.4686477899999986 22.5360221900000006 18.6728688900000002
  4.5480229799999998  5.0606324499999999 -0.3962551700000000
  4.6728550400000000  7.4431615999999998  2.3529475999999998
  3.9852393799999999  9.8061913599999997  4.7287557199999997
  3.8918179500000001 11.5579908800000002  7.1107368099999997
  4.5340098700000002 14.1239375799999998  9.3786541200000002
  5.0562900900000001 15.9962190000000000 11.4510690000000004
  4.7624152700000000 17.5744694700000004 13.5604352000000006
  4.8307490900000003 19.8302498900000010 16.2143749300000017
  4.2797177099999999 -0.3731540800000000 17.8229398900000007
  4.7035837100000002  2.4463208600000002 20.6706634300000012
  6.0829696999999996  5.0095700299999999  1.9821764500000001
  6.6165069699999997  7.6041280899999997  4.8390320600000001
  6.4420411199999998  9.2668447900000004  7.1029398300000004
  7.2755378899999998 12.1182328399999992  8.6116945299999994
  7.3274449600000002 14.2865050100000008 11.0662657099999997
  7.6765957000000000 16.1215561100000002 14.0753876299999998
  7.0617100199999996 17.6649155899999997 16.0392726199999984
  6.5210250399999996 19.8537272800000011 18.0382847400000017
  6.3647104499999996 -0.8683597500000000 20.4886861300000014
  6.4094617800000000  1.9926561899999999 22.6217147800000014
  8.8298761399999997  4.9213169399999996  3.8711712999999999
  9.2814196700000000  6.6297389600000001  6.7322711399999999
  8.9198611200000002  9.6267774999999993  8.9752570899999995
  9.1864771300000001 11.3046180700000001 11.5727598300000007
  9.6442021400000009 13.8381333800000004 14.0626264699999997
  9.5846855899999994 16.3793871399999986 16.0693372900000000
  8.7613878500000002 19.2236136199999983 18.3241210400000014
  9.0222522900000008 20.6648077500000014 20.9126225699999999
  8.9398522699999994  0.5134457400000000 -0.0402410100000000
  8.5099928499999997  2.6339694200000001  2.1073293799999999
 11.4518753100000001  5.1196981299999997  6.3893913099999997
 11.5815348900000004  6.7427478000000001  8.7838084300000006
 10.9829761500000007  9.0813169299999998 11.5611173100000002
 11.4590530699999995 11.2071992100000006 13.2081988799999994
 11.8277297400000005 13.5251658199999998 16.3777015000000006
 11.6213535599999993 16.2355482900000005 18.8522193199999997
 11.8588012299999992 18.3043435499999987 20.3853414000000015
 11.6311078999999999 20.8132421100000009  0.2420190700000000
 11.5229005099999995  0.0550065600000000  2.2755715500000000
 11.3882701100000006  1.6341310600000001  4.4596957000000002
 14.1694819600000006  4.5616500499999999  9.3461969499999995
 14.1676830700000007  6.7665665300000004 11.6599222000000005
 14.1114934299999994  8.8282385300000001 13.5003068499999994
 13.3721257999999992 11.3882613399999997 15.6270799199999999
 13.9416776799999997 13.5195353199999992 18.2407962899999987
 13.8814110100000008 15.6722720199999994 20.4773851499999999
 14.5164659199999999 18.2277039999999992  0.1118768300000000
 13.9894632300000001 20.7839585599999985  2.3187963800000002
 13.8110152599999996  0.5829921800000000  4.3496595400000002
 13.6423455699999998  2.2812195700000002  7.1943118699999999
 15.8866916299999996  3.6283560200000000 11.8929532699999996
 16.1554978200000008  5.7369210600000002 13.7270770199999994
 15.6149564900000009  8.6835515000000001 16.2530429500000011
 15.8118554400000004 11.4109147199999992 18.0037976999999998
 15.1402733999999999 13.5188598399999993 20.6423850100000017
 16.4071464800000015 15.5981005699999997  0.0707676300000000
 15.6025090500000001 17.7141620999999994  2.1689747599999998
 16.3615351400000009 20.4787832700000010  4.6823521599999998
 16.0111956299999996  0.1610258900000000  6.6523228899999998
 15.9998134400000005  2.5256805000000000  9.1710930099999999
 18.9442629599999997  4.1196946900000002 14.1575898799999997
 18.1187576099999994  6.4326695300000001 16.1096035200000003
 17.8979737400000012  8.4438438900000001 18.2078347799999989
 18.0877757999999993 11.5051930799999997 19.8884484999999991
 17.8076880099999997 13.0656081799999999 -0.0097025200000000
 17.6180690400000017 16.1793540799999995  2.6277291800000002
 17.7655477300000015 18.6955280799999990  4.5033604499999997
 18.5939852399999985 20.3201860500000002  6.5450264799999998
 18.1445242399999991 -0.2133703700000000  9.0863252499999998
 18.1961737300000017  1.5277946800000000 11.8286409799999994
 21.2694414599999995  4.4051942400000001 16.0431377200000007
 21.0218803899999997  7.1471279000000001 18.8036456299999983
 20.3233914200000001  9.3349933200000006 20.2177645900000016
 20.2478656699999995 11.4468132600000008  0.3896560800000000
 19.9172080800000018 13.5293532800000005  2.4972872200000000
 19.8765228399999998 15.9430590999999993  4.6831317500000003
 20.4915509500000006 17.7521971000000001  6.4326942699999998
 20.1260464399999996 20.6387583100000001  9.1112975100000000
 20.0938593200000000  0.0480541100000000 12.2270232399999994
 20.9437775100000003  1.7085453700000000 13.7313193099999999
  0.5945470000000000  4.6771803500000004 17.6181963999999986
 -0.0820154800000000  7.4006656700000004 20.3961845000000004
 -0.2018959300000000  9.3757870600000004  0.0154218800000000
 -0.3013114700000000 11.5534291299999996  2.7632813199999999
 -0.3200195600000000 13.3494150099999995  4.3596897200000004
  0.0809076900000000 15.8642335400000007  7.4767627599999997
 -0.6772186900000000 18.2797943200000006  9.8268388499999997
 -0.4384387900000000 20.2110775400000016 11.3360938800000000
 -0.0661120500000000 -0.8808387600000001 13.7386791600000002
  0.4838293700000000  2.0989381400000000 15.9476980499999996
  1.9266466700000000  4.5270584200000004 20.5196956800000017
  2.5986979899999998  7.5986385900000002 22.5435103699999999
  2.4861860500000001  8.8964644699999997  2.3377821000000001
  2.0489794899999998 11.6640014300000008  4.4041582400000001
  1.7967849300000001 13.8391323400000008  7.0817215200000003
  2.6990432499999999 16.3168306100000002  9.7592988399999996
  2.3860193199999999 18.5955211899999995 11.3447490400000000
  2.5169039500000001 20.2482302599999997 13.9458936599999994
  2.5580897700000000  0.6087483100000000 15.6265460300000001
  2.4885302600000001  2.1455660700000001 18.6664474200000008
  7.0301346799999997  7.0022539400000001 -0.2618945200000000
  6.4560413199999998  9.6403638699999998  2.5460569099999999
  6.5257570300000003 11.3139366100000007  4.8629857000000003
  6.7908203900000004 13.9988843700000007  6.6776365799999997
  7.0198005200000004 16.1492555099999997  8.4600015499999994
  6.6562661700000003 18.5342072599999987 11.6830823499999994
  6.6789059200000001 20.8987607299999993 13.4071860199999993
  6.1964162700000003  0.4741444500000000 15.9603400200000003
  6.9170083699999996  1.8159260200000000 18.7481250300000006
  7.2295963900000002  4.7565473500000000 20.4530731099999983
  8.5100756000000004  7.1407848800000000  2.4458074600000002
  9.6233038299999993  9.7331773300000002  4.6020426199999998
  9.4291297200000006 11.6022494799999993  6.7893322899999999
  9.9241916900000007 13.8237501500000004  8.7034197199999994
  9.5224625700000001 16.3145759400000010 11.4284895899999999
  9.2320208099999999 18.8023626099999994 13.5545099800000006
  9.1475974799999999 20.7974367700000009 15.8374673599999998
  9.0657481499999992 -0.6105015700000000 17.8585362299999986
  8.4892243000000001  1.7096032400000001 20.6394446999999985
  9.0327704099999995  4.4559624400000004 22.6648082600000009
 11.0508302999999994  7.4120274100000003  4.1164395499999999
 10.7920298399999997  9.1552534100000003  6.7823501500000001
 11.5943440500000001 10.9494241700000003  9.7169827000000009
 11.3447052100000008 13.3422348000000000 10.9785435499999995
 11.4921817300000004 16.3854516399999994 13.9807430099999994
 11.3617085099999997 18.7687581600000009 16.8853092199999999
 10.9926626699999996 20.6921827600000015 18.0973378999999994
 11.5182055200000004 -0.2027248500000000 20.5129082800000013
 11.4396172200000006  2.4592019199999999 -0.3703555400000000
 11.7739154799999994  4.3540066299999998  2.7654368400000000
 13.4429911200000003  6.7178021399999999  6.1476856099999999
 13.2105145799999999  8.9486807200000005  9.3869807999999999
 13.6867906799999997 11.0100111700000003 11.3186466200000009
 13.2675246799999993 12.8689629500000002 13.7808330600000009
 13.4952091299999992 15.8600530499999994 16.2830886399999990
 14.0655208399999996 18.6443869299999996 18.0579768999999999
 13.9588164100000007 20.7348346100000001 19.9149370200000000
 13.6605080599999997  0.0836237800000000  0.1212655700000000
 13.8226125900000003  1.9967265199999999  1.8411800000000000
 13.2104990900000008  4.4697705299999999  3.6841552700000002
 15.9266289800000003  6.5848212300000002  8.7371637900000003
 16.3800971900000008  8.3077078699999998 10.8990222299999999
 16.2539779300000014 10.6903598700000000 13.4169220300000003
 15.5744765500000000 13.3528705500000004 15.7616310599999991
 16.4437493100000012 15.6606675400000004 17.5378247400000014
 16.2351169999999989 17.6846889800000007 20.2217815499999993
 15.8411005899999999 20.7008689299999986 -0.4287269400000000
 16.1196444800000016  0.2231578200000000  2.0829509300000000
 15.8751662299999996  2.4737276100000001  4.1074752500000002
 15.2779597200000001  4.3627800700000003  5.8524886499999997
 18.0005585900000007  6.7560778800000003 11.1727978500000003
 17.7063002599999990  8.6712987699999999 13.7157320100000000
 18.1119922399999993 11.7190678899999998 16.2545820799999987
 17.9011056599999989 14.4733920299999994 18.0640630000000009
 17.2549721699999985 15.9496578600000003 20.7867119600000017
 17.7591628999999998 18.3369904300000002  0.2968715400000000
 18.0022524500000003 21.0423805000000002  1.8618115300000000
 18.6338707799999987  0.1934017300000000  4.9543727600000000
 18.3039148400000009  2.1865318999999999  6.4620157100000002
 17.8583705200000011  4.1859485400000001  8.7481341599999993
 20.4642797300000012  6.5634205100000003 13.3095142600000003
 19.9649257499999990  8.7433507699999993 16.0773381200000003
 20.1954872899999991 12.3246544100000008 17.8623884599999982
 19.7033088499999991 14.1393669499999994 20.6646085600000013
 19.5895128800000009 15.8265130200000002 -0.1190242100000000
 19.9707567700000013 17.9661783700000015  2.5173782899999999
 20.1157965800000014 20.0107414199999987  4.3437853899999999
 20.7310221299999995 -0.1290917600000000  6.8888654499999999
 19.8066353500000005  1.7081722399999999  9.3717199900000008
 20.7635863900000004  3.5392406400000000 11.0767743299999992
  0.5075971600000000  7.3197141099999996 15.8684446500000007
 -0.1063705400000000  9.5644910299999992 18.2045327099999987
 -0.2152873200000000 11.9413074699999999 20.5678055099999995
 -0.3725822200000000 13.4597399800000002  0.1007919000000000
 -0.3450433500000000 15.7502619500000005  1.7313184699999999
 -0.1497873400000000 17.6095142600000010  4.0832988600000002
 -1.1055459100000000 19.8903304600000013  7.0447534400000000
 -0.1369058100000000  0.1506102900000000  9.9004458700000004
 -0.0184598000000000  2.2860401399999999 11.1192373100000008
  0.6239989000000000  5.0829368500000003 13.8687195699999997
  2.5219391999999998  6.8334152899999996 18.0656537200000002
  2.3358072399999998  9.5356291300000002 19.6846040600000016
  1.7804906899999999 11.3431577200000007  0.4257572700000000
  2.2692419699999999 13.6476290700000007  2.2524026199999998
  1.5080815500000000 16.2478333500000005  4.4013603899999998
  1.9581659100000000 17.9003272100000004  7.1454282300000003
  2.1474402200000000 20.1345525300000006  8.9660705600000004
  2.3868725700000000 -0.5270031700000000 11.1710370700000006
  2.3858510200000000  2.5271456300000001 13.4792451100000008
  2.8561690799999999  4.8306775100000001 16.2487647399999986
  4.1063641899999999  6.8859444900000000 20.6774793800000012
  4.6155335400000004  9.7061218900000004 22.5924999900000003
  4.4989906199999998 11.6556539600000004  2.6887319999999999
  4.0452387500000002 14.2713072200000006  5.0249365199999998
  4.0998412300000000 16.3168960399999996  6.6192739100000004
  4.7607165000000000 18.1160475400000003  8.7716996700000003
  4.6476665600000002 20.5933516899999987 11.2661875600000005
  4.8222869499999996 -0.1192452700000000 13.8478176200000007
  4.3258786999999996  2.5876392699999999 16.0844990900000013
  4.6912839499999999  4.3071777000000004 18.6855120600000006
  9.9194012600000008  9.3519155099999995  0.0760336300000000
  7.9920545599999997 11.6330893799999995  2.6688591000000002
  9.6947280899999999 13.8589890199999992  5.1527007200000003
 10.1046487500000008 15.5908412300000006  6.9836751499999998
  9.3665145800000005 17.9406789499999988  9.3490161900000004
  9.4273871099999997 20.5252904299999983 11.1796565700000006
  8.9962402699999995  0.4862190800000000 13.5179424899999994
  8.9313556900000002  2.1882955200000000 15.6268020199999995
  8.6465776699999992  4.9273823500000002 18.3669586100000011
  9.1664044300000000  6.9478411299999996 20.3552198799999999
 11.2783440499999994  9.3569312000000000  2.6321395800000000
 11.5973678899999992 11.6518855600000002  4.5511261400000000
 12.0079407400000004 13.4642560899999992  7.3525922000000001
 11.6051509300000006 15.8529144199999994  9.4813526199999991
 12.0649757599999994 18.1242485299999991 11.4099526699999991
 11.3130331099999992 20.7235851000000011 13.4098624999999991
 11.1541541300000002 -0.0740551800000000 15.4148081300000008
 10.7062861799999993  2.3796690100000002 18.5164605199999990
 10.8870789600000002  4.9954258700000000 20.5421823699999990
 11.3712077699999998  6.7114279300000002 23.4519467299999995
 13.5305536600000007  8.4548646299999994  4.0748272400000003
 13.5935678499999995 11.1803894699999997  7.1859653100000003
 14.1930516799999999 13.6792725700000002  9.4318678800000004
 13.8609786600000007 16.2818952199999991 11.7559016900000000
 13.5196289800000002 18.9401570700000015 14.3408468599999992
 13.8115015000000003 20.9815159999999992 17.0812187900000012
 13.5121767899999998  0.3769537800000000 17.9325057000000001
 12.9990618500000004  2.4219735199999999 20.2263618700000016
 13.6442421800000009  4.4872934999999998 -0.4420139900000000
 13.3768540300000005  6.8141268899999998  2.0886632999999999
 15.9677552699999996  8.4515932500000002  7.0839283200000001
 16.0575933000000006 11.0544570899999997  9.3554859199999996
 16.1715816699999984 13.3102816799999992 11.7362692899999992
 15.2330150999999994 15.3967115499999991 14.1031562499999996
 15.9712983899999994 18.2996015199999995 15.9415469000000005
 16.3662406900000015 20.6449111700000003 18.6385091100000011
 15.7280923999999995  0.0652804200000000 20.0992594699999998
 16.1809258400000004  1.3712929400000000 -0.5264811800000000
 16.0186666500000001  4.4778432600000002  1.4398700499999999
 15.9437362300000007  6.6325328900000002  4.1842762999999996
 18.1209606200000017  7.9757662600000003  9.0380657600000003
 18.2427824899999997 10.9776057100000006 10.7853828099999998
 17.9711770999999985 13.4207964400000002 13.1962865399999991
 18.1044587499999992 15.8235746800000001 15.1690096899999993
 18.5744994100000014 17.4724099700000011 17.8704251499999991
 18.3661947400000010 20.0787605300000003 19.9141357499999998
 18.1254087099999985 -0.1381389200000000 -0.2909558800000000
 18.6440600399999994  2.2408836700000001  1.2890360599999999
 18.2512558799999987  3.2227836299999999  3.7064032600000001
 17.9485819299999996  6.0552582299999997  6.3192778900000004
 20.1685510000000008  8.7729378300000000 11.0582604000000000
 19.8589626300000006 11.2716507999999997 13.6953872099999998
 20.3416671200000003 13.8982271399999995 15.6548567100000007
 20.2219686900000006 16.1435920499999987 17.5373414600000004
 19.9450979799999999 17.4478554499999987 20.5690683900000018
 20.7193803699999997 19.8932873000000008 -0.1858543000000000
 20.4013875200000001 -0.2018334100000000  1.3187716400000000
 20.8864894200000002  2.6538169300000001  4.5876828500000002
 20.6186368699999996  3.7749377700000002  7.0024603299999999
 20.8390474999999995  6.4571404599999997  8.8952921699999994
 -0.0987361200000000  8.3574190300000009 13.2095593200000003
  0.1032981900000000 11.3605471999999992 15.4655985800000000
 -0.3239923800000000 13.5616029600000001 17.7280404699999998
 -0.1541669300000000 15.8426696499999995 20.5516753200000011
 -0.3591050300000000 17.3583613399999983 -0.0358353100000000
  0.2900138200000000 20.2575845200000018  2.2140893899999998
 -0.0622497200000000  0.1826525700000000  4.0561857300000002
  0.8761236100000001  2.2837862200000001  7.1190470599999998
 -0.1977718600000000  4.1455664800000003  8.9641101299999999
 -0.2589142300000000  6.9201592500000002 11.3536230899999993
  2.4559917300000000  8.9430151999999996 15.8979191199999992
  2.3923066799999999 12.0593383599999999 18.1968451999999985
  1.8371849700000000 13.2906638000000008 21.5069214799999990
  2.5139148900000001 15.9528032199999998  0.1262306600000000
  2.4727907299999998 17.5959968300000007  1.7047248900000000
  2.1708928699999999 20.0300572300000006  4.7935017599999998
  1.8382033400000000 -0.3536711100000000  7.2309701300000002
  2.5814837900000001  1.9124099800000001  9.4282245600000003
  2.3529986200000002  4.4115918100000000 10.8502238599999998
  2.8066392499999999  6.8810995799999999 13.4111798800000006
  4.6485983400000004  9.9431801899999996 18.5279075099999986
  4.9469108999999998 12.3493853900000001 20.9511476200000004
  4.7855902800000001 13.7519063199999998  0.3865713600000000
  4.8179175499999998 16.1055172900000017  2.4784965699999999
  4.4124431900000003 18.5501645800000006  5.0185774900000002
  4.4425313199999996 20.6880529899999992  6.6185554499999997
  4.6962312500000003  0.4959469300000000  8.8898095500000007