Li                                      
   1.00000000000000     
    21.0004999999999988    0.0000000000000000    0.0000000000000000
     0.0000000000000000   21.0004999999999988    0.0000000000000000
     0.0000000000000000    0.0000000000000000   21.0004999999999988
   Li
   500
Direct
  0.9925273293493007  0.0040023447060804  0.0064340968072187
  0.9837851008309357  0.0686756786743175  0.0974744896550064
  0.0128158243851360  0.1921633627770802  0.2000843694197769
  0.9995844270374548  0.2832023128020751  0.2749979724292260
  0.9947199771434043  0.3869800704745145  0.3961810133092101
  0.9710391147829824  0.5071820780457585  0.4732968548367893
  0.9829417409109311  0.5871542529939759  0.5740685250351163
  0.0151246970310197  0.7022387943144182  0.6945064403228471
  0.0236698645270366  0.8221120825694612  0.7924921782814707
  0.0237727687435978  0.9259281774243462  0.8947311311635460
  0.1131282936120570  0.9700889921668505  0.1016607909335505
  0.0796950344039402  0.0688860203328474  0.1778867417442456
  0.0955235608675977  0.1758120487607471  0.3123710159281927
  0.0794504321325675  0.3069015332968235  0.3744172781600454
  0.0785641851384469  0.3972517306730765  0.4766506597461984
  0.0954126035094376  0.4932754948691667  0.6036827546963153
  0.1143737730054042  0.5706828161234228  0.6788526858884296
  0.1122186581271905  0.7095058641460952  0.7805426937453888
  0.1191641237113430  0.8256795409633071  0.8992181738530007
  0.1176279121925674  0.8893673045879851  0.0073858303373697
  0.2153089812147329  0.9720055317730498  0.2105994252517789
  0.1860094959643845  0.0888036418180533  0.2611005461774738
  0.1982455541534733  0.2154109945001323  0.3900849598819107
  0.1838756010571174  0.3130883359919991  0.4854782738506245
  0.1944239141925195  0.4067612071141156  0.6019143087069381
  0.2097186057474829  0.4742067522201836  0.7051385428918380
  0.2085782238518163  0.5998549544058491  0.8248372572081593
  0.1920839322873249  0.7240643903716588  0.9303654236803851
  0.1975527625532720  0.8178093893002512  0.9978400971405463
  0.2102511806861713  0.8861729315968674  0.1248338225280321
  0.3177562562796155  0.0105844670365016  0.3259566800790452
  0.2635861984238446  0.0813747006023675  0.3922527187447926
  0.2951644813218763  0.2024303721339962  0.4816833227780322
  0.2925618470988809  0.3035746839360982  0.5800974119663849
  0.3176909606914151  0.3768565753196356  0.7073861808052158
  0.3119318035284877  0.5090250213090144  0.8092077045784620
  0.2601105016547223  0.5861959139068134  0.9243802361848523
  0.2871669669769759  0.7226769434061069  0.9913522087569362
  0.2907536430085003  0.7936895688197865  0.1259596461989005
  0.2894352505892712  0.8844010571176852  0.2126681140925228
  0.4003934382514700  0.9917595376300596  0.4054156372467332
  0.3840903730863516  0.1052557620056689  0.4842152863027067
  0.4177580376657701  0.2094425494631054  0.5862450955929646
  0.4135619594771569  0.3060247822670874  0.6860404404657032
  0.4113379543344209  0.3851441456155840  0.8052088012190168
  0.3835917330539758  0.4983955062974701  0.8896413828242160
  0.3869543329920688  0.5943526277945779  0.9867009242637081
  0.3916301492821574  0.7087824061331887  0.1076346996500064
  0.3831459636675305  0.7989940029999261  0.2016171353063001
  0.4007057331968298  0.9081289045498906  0.3100655936763417
  0.4999789581200460  0.0047394690602616  0.4979606342706120
  0.5037377019594800  0.1090120425704129  0.5494563162781816
  0.4918610828313632  0.1967344520368570  0.7055869284064684
  0.5110380429037420  0.3057120439989518  0.7813512354467775
  0.5116673093497752  0.3848591409728357  0.9024350534511072
  0.4999536158662892  0.4983853813004444  0.9881512335420553
  0.4812657689102622  0.6054194914406779  0.0986450217851953
  0.4831956620080504  0.6901153339206232  0.2082296916740063
  0.4842040951405906  0.7775946310802127  0.2988482402799946
  0.4890423856574841  0.8993742320420921  0.4119878617175772
  0.5920783933715867  0.0056230437370530  0.5938705983190857
  0.5776309249779743  0.1058735506297452  0.6829072322087555
  0.5929954901073771  0.1820748525035114  0.8020399285731301
  0.6200362900883292  0.2811753129687418  0.9184039599057172
  0.5977509097402418  0.3857623228018383  0.9834152263041389
  0.5982722325658898  0.5137434075379161  0.0901370986405112
  0.5991077745767939  0.6038650827361280  0.1787930415942469
  0.6035999800004745  0.6847828923120858  0.2839937849098817
  0.5766548610747364  0.7821239446679868  0.4242206523654204
  0.5931402690412142  0.8938079536201542  0.5119032751601154
  0.7006399604771332  0.0143367281731415  0.6851496583414658
  0.6850272255422496  0.1029306002238073  0.7944908373610176
  0.6847052060665249  0.2063402009475936  0.8984174019666185
  0.7226984676555332  0.2841149967857888  0.9872033118259083
  0.7419701383300392  0.4237122120901873  0.0715322401847587
  0.7158580267136472  0.4986166105568941  0.1707982562319970
  0.7061863493726364  0.6036059889050236  0.2999994633461114
  0.6925217285302736  0.7154667136496755  0.4075564734173014
  0.6699533477774366  0.7990122735172989  0.5309174957739131
  0.7086097435775329  0.9129272341134751  0.5934387195542996
  0.7957411509249752  0.0083587090783581  0.7995350448798817
  0.7994939044308467  0.0994676169614976  0.8932992557320034
  0.8188767796004868  0.1807322954215351  0.0148988514559178
  0.7984225108925997  0.3041302511844961  0.0926408023618492
  0.8012487102688013  0.4093467855527280  0.1954858850979733
  0.8297181700435701  0.5142858170043567  0.2912059022404208
  0.7966136649127407  0.6027794028713629  0.3999276879121894
  0.7709096902454675  0.7186893373967251  0.4966275841051413
  0.7831084640841866  0.7925849765481772  0.5800181067117478
  0.7819967953143987  0.9041417509106893  0.6996698569081659
  0.9132719211447338  0.0017405037975280  0.8943683831337381
  0.8794825008928342  0.0781316782933743  0.0289269022166110
  0.9059268660270021  0.1994911806861737  0.1041778990976425
  0.9041144777505323  0.2981107959334324  0.1754206947453625
  0.8968634303945109  0.4078489497869100  0.2730370400704771
  0.9107924644651320  0.5124314716316292  0.3885035375348238
  0.8759918663841333  0.6130390695459624  0.5030728001714238
  0.9034704630842114  0.7118152334468206  0.6096690545463233
  0.9062054336801495  0.8133423604199876  0.6970864288945506
  0.8940752053522516  0.9164678869550755  0.7944199533344474
  0.1047343410871164  0.0882083302778511  0.0055423137544324
  0.1039360586652691  0.1998086088426447  0.1018472260184282
  0.1028442613271139  0.3130244656079597  0.2004895435822931
  0.0716260479512414  0.3939018480512360  0.3041556481988508
  0.1016737701483308  0.5293551910668768  0.4068520016190078
  0.0921391043070372  0.5933154067760285  0.4968245970334024
  0.1190447941715647  0.7000080336182464  0.5836055184400379
  0.1092102754696285  0.8051646051284465  0.7081137111021150
  0.1194747658389090  0.9016550515463919  0.7755389819290031
  0.1294789405014143  0.0019860065236514  0.8992475764862746
  0.2064171181638557  0.0908696816742491  0.1170357786719336
  0.1955856851027349  0.2124837380062345  0.1791325716054359
  0.1883501088069366  0.3082482488512213  0.2916560862836590
  0.1870576652936862  0.3916556358181964  0.3916938777648156
  0.1946526811266409  0.4880736301516606  0.5076135249160743
  0.2121957924811326  0.5887538649079787  0.6022469012642588
  0.2319696983405137  0.6979667493631112  0.6745289040737106
  0.2155308249803554  0.7968711573533938  0.7963270293564406
  0.2106326977929101  0.9235696959596211  0.8855467903145140
  0.2082096288183592  0.9773966486512222  0.0148994319182876
  0.3092542568034062  0.1221577091021615  0.2065522706602252
  0.2726254412990201  0.1987170695935845  0.3195083502773741
  0.3053119487631264  0.3189229546915584  0.4069628132663539
  0.2851881969476935  0.4030951682102781  0.4985438465750818
  0.3135926716030539  0.4707742139472870  0.6107082202804719
  0.3170508225994624  0.5867697502440450  0.7064889202638014
  0.2912305264160366  0.6961755901049997  0.7953461617580544
  0.2976294331087388  0.8394541058546210  0.8928992547796497
  0.2696508445037011  0.8918126935072976  0.0336783062308044
  0.3211587986000310  0.0013308383133719  0.1363182076617235
  0.4097122763743712  0.0922700369038836  0.2926713040165723
  0.3982361786624153  0.1949550696411961  0.3848212094950085
  0.3870468655508219  0.3158459089069297  0.4827558615271030
  0.4183772995881014  0.3687256212947290  0.6062600661889022
  0.4163311206876017  0.4967776724363731  0.7408287655055830
  0.3959519163829412  0.5977135182495630  0.8312704959405721
  0.3788454032046857  0.7147461146163181  0.8976177052927312
  0.3661867569819748  0.7942514135377721  0.0052170410228314
  0.4046618923358949  0.8924608295040599  0.1149134753934433
  0.3933464174662475  0.0077090507368851  0.1997459917621001
  0.5040174148234584  0.1011550286897958  0.3903391038308612
  0.4894906702221391  0.2068406728411247  0.4709390224042309
  0.5438911083069442  0.2926162762791336  0.6069308287897925
  0.5364382005190365  0.4020005442727523  0.7026080779029087
  0.5184906121282822  0.4822215409156954  0.8145712459227141
  0.5110467060308110  0.6063515197257203  0.9144248784552715
  0.4947332377800535  0.7176281321873290  0.9976857270064983
  0.4778783462298506  0.7950480950453596  0.1167901726149410
  0.4852788333611073  0.8936262955643883  0.2267769195971496
  0.4931340829980257  0.9797052470179253  0.3086836346753614
  0.6023927035070571  0.1043617180543350  0.4606553558248621
  0.5826277593390614  0.1953180257612885  0.5937218085283718
  0.6089864327039862  0.2969809042641813  0.7008767343634688
  0.6298846432227805  0.4124594947739340  0.8138839637151492
  0.6260196438180046  0.4875324692269203  0.8957488493131081
  0.5810684650365445  0.5969053398728619  0.0055709511678259
  0.5771003704673703  0.7116134872979245  0.1160711930668299
  0.5843800352372597  0.7890252317801938  0.2001179710006937
  0.5953447575057709  0.8635106964119927  0.3182028732649229
  0.5993068765029435  0.0011299335730115  0.3717866331754038
  0.6730772772076890  0.0874496740553781  0.5990884474179197
  0.7112437237208624  0.1699407918859066  0.6899965896050091
  0.6946582095664411  0.2794872112568783  0.8058851165448431
  0.7280890774029203  0.3882167396014395  0.9064551086878865
  0.7182551467822194  0.5040495235827720  0.0077652746363199
  0.6920020051903535  0.6168648846456009  0.0899991724006597
  0.7168433946810779  0.6899047822670923  0.1905885907478364
  0.6811275045832232  0.7985315635342047  0.2902779676674356
  0.6721798395276295  0.8867357701007137  0.4245706592700174
  0.6726764057998622  0.0048028123139900  0.4984669174543441
  0.7889092878740982  0.0976630146901272  0.6839451079736207
  0.8011734230137364  0.1946854793933497  0.7933889545487034
  0.8125368000761881  0.2764941677579102  0.8930002490416911
  0.8321549544058442  0.3736397257208139  0.9894134492035889
  0.8164964796076291  0.5093306354610618  0.1006458727173154
  0.7828736458655712  0.6009880064760367  0.1973560219994752
  0.7812777738625272  0.6998948544082282  0.2915468760267643
  0.7978843956096284  0.8060933006357018  0.3982939310968803
  0.7890798176233886  0.8929675264874675  0.4826326077950540
  0.8129543196590561  0.0153117173400616  0.5981175838670509
  0.9026797257208159  0.0827312735411070  0.8111627808861712
  0.9152683698007209  0.1773368557891501  0.9179893650151172
  0.9175651213066374  0.2873665107973622  0.0173867274588702
  0.9156480483798006  0.4256478383847977  0.1104202190424033
  0.9116683626580340  0.5219355067736515  0.2083468055522459
  0.8977299045260807  0.6209810937834845  0.2895688359800985
  0.8929050594033470  0.6833303368967378  0.3992347053641581
  0.8863930873074466  0.7905757515297225  0.5082960639032379
  0.9032946101283272  0.9094050994023917  0.5827146658412872
  0.9139845356062963  0.0087829613580652  0.7029246289374029
  0.0080967857908121  0.0917357772434002  0.9229419756672428
  0.9993857746244146  0.1836834051570193  0.0300274717268607
  0.0133873855384365  0.3136844298945292  0.1019923401823775
  0.9964858746220315  0.4008664555605819  0.2061524868455535
  0.0047315378205255  0.5149992919216189  0.3025506968881686
  0.9900723130401659  0.6016287583628994  0.4090301807099834
  0.9779408123616093  0.7202272483988494  0.5222157901002333
  0.0264483345634616  0.8163760977119594  0.6054941582343289
  0.0114327801719014  0.8946459274779173  0.6991291259731938
  0.0266317521011388  0.0063481459965260  0.7881827994571537
  0.1997389200257160  0.1866385900335672  0.0056331606390359
  0.1967787838384822  0.3005952601128570  0.1032675788671682
  0.2086082431370713  0.4145666512702064  0.2022417009118840
  0.1694989052641631  0.4992890854979635  0.2837533492059734
  0.1890605314159188  0.6110984386086074  0.4062839132401592
  0.2101881659960512  0.6993540263327063  0.5300626856503428
  0.2098784081331431  0.8274436989595486  0.6029128654079656
  0.2032606023666119  0.8954459522392355  0.7024030346896524
  0.2166181809956882  0.0237087526487443  0.7646694245375087
  0.1932939901430899  0.0868661050927386  0.8988876107711690
  0.3180789781195656  0.2032330868312684  0.1072557629580260
  0.2936363043737060  0.3113287455060600  0.1970678479083858
  0.2966290407371233  0.4013576219613810  0.2973264288945501
  0.2595387014594905  0.5115160505702221  0.4022697807195073
  0.3090282331373047  0.5674263831813562  0.5264232994452485
  0.3074327663627088  0.7029370719744747  0.6070434246803629
  0.3238394966786515  0.8262670860217582  0.6959137739577628
  0.3020374781552846  0.9122419804290374  0.7813313859193798
  0.2992210194995337  0.9923090059760469  0.9194772043522761
  0.3064337230065917  0.0970563643722784  0.0051990024047015
  0.3907017118640042  0.1829786324135156  0.2128330296897687
  0.3977410552129683  0.3126591962096157  0.3070868765029431
  0.4293672026856470  0.4274724535130119  0.3987784547986948
  0.4174569981667133  0.5033147934572995  0.4829748967881713
  0.4129505778433824  0.5978397342920374  0.6181404161805659
  0.4111181429013584  0.6637947434584888  0.7038039180019524
  0.4076087050308317  0.8003607342682315  0.7985080221899494
  0.3919256360562855  0.9228918844789433  0.9259348725030350
  0.4040119678102911  0.9791877845765597  0.0199316568653103
  0.4279364262755649  0.1328392528749305  0.0939970572129241
  0.5051549096450074  0.1961983514678209  0.3005933258731943
  0.5068103321349469  0.3213778076712472  0.3915025223208985
  0.5005661127116028  0.4064514606795058  0.5163413466346043
  0.4940672469703102  0.4931267850765479  0.6085944153710656
  0.5021091369253128  0.5958035156305783  0.7494316787695539
  0.4991061784243200  0.6895168481702783  0.8051273717292418
  0.4908374662508024  0.8059809356920056  0.8918496950072594
  0.4878213218732910  0.8765632165900783  0.9983407285540835
  0.5005088769315051  0.9999921949477368  0.1030458979548072
  0.4954401585676536  0.1031971524487503  0.1860509773576808
  0.5908242527558869  0.2228497473869666  0.3952548429799307
  0.5896281921858986  0.3004947077450524  0.4820257079593375
  0.6158019742387069  0.4111167710292634  0.5911279055260579
  0.6062496935787252  0.5202795057260516  0.7153559386681252
  0.6337093383490853  0.6083772805409424  0.8358152048760772
  0.6317922582795674  0.6971296797695317  0.8955463008023585
  0.6032277226732674  0.8003076679126693  0.9973412904454690
  0.5718813061593764  0.8684385886050308  0.1065895121544713
  0.5849444441799037  0.9865393828718396  0.1927321416156786
  0.5957851960667568  0.0942023551820199  0.3039787933620630
  0.6756277217209146  0.2022691826385099  0.5020762529463596
  0.6875034737268138  0.2913913173495857  0.5919719582867060
  0.7186112711602135  0.3919564100854771  0.6986148410752122
  0.7317156429608787  0.4960589905002237  0.7992679460012866
  0.7316812447322718  0.5995948844075158  0.9109341963286610
  0.6980840570462590  0.6809694245375084  0.9834117187686005
  0.6791248055998693  0.8071548815504386  0.0654352072569679
  0.6637933163496115  0.8821356215328180  0.2020340244279879
  0.6820672574462492  0.9684050884502753  0.3016627156496270
  0.6931943982286128  0.1235548205995087  0.3785963577057672
  0.7909388143139466  0.1934527773148247  0.5872065484155158
  0.8281990757362934  0.2991421680436162  0.6873408699792876
  0.8058662555653413  0.3629146829837353  0.8073340163329448
  0.8164981343301321  0.4902740163329469  0.8950483283731359
  0.8132736482464722  0.6233767772195904  0.0008230204042761
  0.7855844608461666  0.7176808528368355  0.0915916840075255
  0.7685873431584938  0.8063102464227043  0.1888872241137136
  0.8049638013380616  0.8842518992404962  0.3173778576700528
  0.7696655674864914  0.9927229637389559  0.4074882769457844
  0.7660080364753199  0.0898147048879778  0.5052241818051968
  0.9020126620794713  0.1815803609437836  0.6969086040808534
  0.9080566186519334  0.2830738982405165  0.8055564710364038
  0.9181903121354225  0.3666276593414466  0.8960910544987044
  0.9333539177638599  0.5184887850289286  0.0021222204233240
  0.9069738049094056  0.6225441513297270  0.1057171205447460
  0.8723419109068828  0.7240392719220949  0.2126141001404704
  0.8966769629294546  0.7887353582057557  0.3252590719268582
  0.8918130039760968  0.9095172657793853  0.4117355005833190
  0.8799898678602887  0.0065184352753533  0.4929938391943054
  0.8933160981881372  0.1057318063855632  0.5938234875360138
  0.9773042775171987  0.1896528039808558  0.8124270084045619
  0.0052954882026626  0.2759846517940048  0.9138474583938461
  0.9883661827099388  0.3719871703054665  0.0240969748339310
  0.0185949715482963  0.4992869026927949  0.1094982371848303
  0.0051484050379784  0.6128791838289587  0.1925543891812111
  0.0047166662698501  0.7130949101211854  0.3079114011571136
  0.9839181981381415  0.7980215518678122  0.4028124387514609
  0.0047338568129334  0.9073154501083280  0.5043338296707205
  0.0093314140139498  0.0292281702816624  0.5935009137877643
  0.0176328849313094  0.1255023594676317  0.6940852313040153
  0.0913436689602634  0.1957704678460033  0.9234478979071952
  0.1086154377276713  0.3160491012118740  0.9972242794219213
  0.1061444237041940  0.4003183700388107  0.1176999533344443
  0.0746223513725894  0.5014292212090155  0.2058391676388638
  0.0880650194042971  0.6193187314587760  0.3166597814337777
  0.0941222270898336  0.7209152929692166  0.4197019942382312
  0.1058952601128524  0.8276515535344373  0.4917897735768193
  0.1146560196185789  0.9021071955429605  0.6286740272850651
  0.1040459589057434  0.0212747429823068  0.6922006695078693
  0.1044398304802243  0.1222140396657210  0.8059211152115395
  0.2993157143877525  0.2707388862169964  0.0076536472941129
  0.3184326982690919  0.4122144796552476  0.1142827570772127
  0.2897062703268958  0.5120614752029695  0.1855542520416193
  0.2663201185686077  0.5982702154710609  0.2868461441394246
  0.2847251308302177  0.6955143629913607  0.4266035627723141
  0.3124303673722082  0.7908019561439019  0.5187078612413956
  0.3222221942334684  0.9235753824908954  0.6110423675626748
  0.3165534739649090  0.0416787490774055  0.6895086488416950
  0.3014417190066894  0.0916672974452979  0.8031159753339239
  0.2854349663103264  0.2012317587676478  0.8983463584200351
  0.3999463255636755  0.3080469941191879  0.1015365905573660
  0.3964240027618402  0.4254613913954444  0.1991555334396793
  0.4009271050689236  0.5115928773124452  0.2894184419418551
  0.3625671817337661  0.5878021342348987  0.4183246208423625
  0.4082609504535597  0.6908359658103365  0.4953982362324680
  0.4120387462203254  0.7887908397419139  0.6337591781148078
  0.4126007299826213  0.9356531673055386  0.7217483617056715
  0.4159852041618066  0.0305027946953658  0.8268711602104730
  0.3932785052736847  0.1031652851122615  0.9245302526130317
  0.4125102645175147  0.2032042956120108  0.0011498530987382
  0.5013325306540324  0.3152565772243534  0.1873839756196247
  0.5009944334658698  0.4181620637603842  0.2768260122378052
  0.5085032308754549  0.5159522478036251  0.3820712116378147
  0.5118058412894939  0.5770560062855665  0.4939274855360551
  0.5150589014547293  0.6838686850313067  0.6141176262469941
  0.5232766600795244  0.8027443960858065  0.7042563215161550
  0.5169245256065338  0.9103243208495044  0.7867104083236143
  0.5381715121068567  0.9702380633794405  0.9123751291635926
  0.5214110630699267  0.1009499902383268  0.9924222442322801
  0.5033706116521017  0.1924495926287477  0.0844380271898260
  0.6196899888097889  0.3346286274136361  0.2915013052070208
  0.6095933777767186  0.4006824204185619  0.3973752463036604
  0.5902746344134684  0.5152866379371943  0.4932614794885808
  0.6018002090426435  0.5964731992095409  0.6356245675102983
  0.5976616471036422  0.6894492007333142  0.7253715440108550
  0.6241106349848806  0.7751563581819454  0.7955625708911711
  0.6119325654151098  0.8767022461369933  0.8802087555058193
  0.6069747767910272  0.9744154591557361  0.9899305683197994
  0.5856111197352476  0.0721128858836693  0.0921385976524363
  0.5779718525749402  0.1956502502321342  0.2034643760862807
  0.7093862508035542  0.3224982600414279  0.4006598914311539
  0.6948305992714481  0.3942290812123517  0.4837925511297385
  0.7239171495916779  0.4988774691078817  0.5944652793981078
  0.7282168943596545  0.5895277902907097  0.7023616728173110
  0.7232309373586361  0.7105597328635014  0.7853928977881495
  0.7116022499464307  0.8084840256184407  0.9154007999809508
  0.7168897645294123  0.8904708911692580  0.0030263165162765
  0.6961005266541278  0.9653814794885847  0.0822878855265330
  0.6653330496892949  0.0841523739910954  0.2023699721435221
  0.6965879336206271  0.2143501659484315  0.2824289788338348
  0.8050525949382177  0.3020284074188737  0.4868422370895900
  0.7785346615556747  0.3915560253327328  0.5979327077926726
  0.7833885726530312  0.4981434018237678  0.7048475317254344
  0.8274289697864319  0.6047663946096549  0.7949913163972298
  0.8395186252708271  0.7049962953263034  0.8998492407323653
  0.8266214866312680  0.7883607366491248  0.0147941672817282
  0.7905757758148582  0.9025504726077926  0.1040221313778247
  0.7514031846860760  0.9650696531034981  0.2073233237303853
  0.7881471688769324  0.1040340544272738  0.2647428523130415
  0.7981199095259655  0.2062368929311234  0.3905010114044885
  0.9008820470941146  0.2933079231446882  0.5941567634103961
  0.8767172686364617  0.3861890807361732  0.7012648665507939
  0.8914659317635270  0.4844878521939933  0.7878708587890770
  0.9279863355634390  0.6428976067236505  0.8934233599199999
  0.9311810909264082  0.7104455655817716  0.0017957601009471
  0.9141485412252095  0.7996118592414447  0.1194114797266721
  0.8777204304659421  0.8731506564129390  0.2180393033499186
  0.8714465998428622  0.9878745429870719  0.2749671184019462
  0.8694944448941726  0.1029950686888412  0.4068003214209170
  0.8892256298659547  0.1694284431323041  0.4945885631294473
  0.9969401276160070  0.2894950553558218  0.7053437803861797
  0.9813617037689610  0.3945031284969431  0.7767527911240180
  0.9869985971762603  0.4816417718625772  0.9024543758481940
  0.0017239227637447  0.6263558900978552  0.9983894716792463
  0.0172889935953933  0.7169152839218143  0.1248208375991027
  0.0064665631770637  0.8050686659841446  0.2331838118140013
  0.0058138044332310  0.8822984090855002  0.3070184124187492
  0.9960371891145456  0.0014801561867586  0.3987921301873740
  0.0245660231899265  0.1014501069022131  0.4901078074331551
  0.9920064422275630  0.2201356053427332  0.5943321706626037
  0.1256343272779219  0.2884683888478818  0.8075141382348008
  0.0706930106426071  0.3840541525201786  0.9045714059189081
  0.0944526830313563  0.4985470107854582  0.0144734306326058
  0.0939814780600443  0.6064216985309869  0.0870627546963192
  0.1112086964596060  0.7323022142329947  0.2114763581819474
  0.0988590309754542  0.7909351301159475  0.3220499069069760
  0.0968312921120926  0.8855013133020648  0.4025391924001838
  0.1057560372372066  0.9670099307159319  0.4836112830646897
  0.1108311768767436  0.1106664331801639  0.5925106506987916
  0.0894958600985660  0.2070471503059466  0.7223458103378491
  0.2128013409204570  0.3012844303707070  0.9007049817861486
  0.2061133353967790  0.4073469545963206  0.9989998838122887
  0.1977138125282707  0.5059774510130737  0.0781154805837971
  0.1778268107902221  0.6219539730006431  0.1764653808242684
  0.1989611299730925  0.6861457879574289  0.3145986219375700
  0.2248399790481201  0.7996263712768723  0.4265556143901321
  0.2156351501154745  0.9053481155210577  0.5097791871622093
  0.2077641127592216  0.9829748586938436  0.6160021147115557
  0.1831994423942263  0.1133844051332105  0.6820321682817081
  0.2116405318921011  0.2002353839194271  0.7914919206685553
  0.3918147391728795  0.4040758572414944  0.9978027785052745
  0.3929227432680165  0.5080692778743341  0.0703492516844832
  0.3750133463488936  0.6051543968000743  0.1901908259327172
  0.3568017656722446  0.6791146648889281  0.3075575405347521
  0.4121989433584901  0.7810604033237283  0.4063345153686839
  0.3923041965667480  0.8803971481631407  0.5131395642960896
  0.4172166496035814  0.0057328558843821  0.5992269431680199
  0.4067035108687875  0.1269540149044062  0.6958241837099095
  0.4003062141377569  0.2045905759386670  0.7999922820885246
  0.3956980886169390  0.2967393428727902  0.8985804347515511
  0.4864711392585903  0.3830455284398013  0.0821306664127022
  0.4759585471774486  0.4949770634032546  0.1700144915597264
  0.5076786228899337  0.5802152005904588  0.2979490516892440
  0.4879315173448262  0.6642083874193503  0.3842496407228424
  0.5111214261565209  0.7977955729625492  0.4947184928930284
  0.4902942853741550  0.8917197071498322  0.6142318363848460
  0.4990781876621995  0.0178880579033844  0.7037170853074954
  0.4772088912168755  0.1130685207495077  0.8282477836241995
  0.4984030504035601  0.2161076812456812  0.8982592357324819
  0.4871260893788261  0.2852429913573502  0.0093598419085268
  0.6026494635841999  0.4119222618509113  0.1536781124258937
  0.5906408456941534  0.4948911464012795  0.2632132711125905
  0.6190885569391185  0.6029644351324990  0.3764086983643224
  0.5962526544606064  0.6621987543153764  0.5040424313706851
  0.5924299816671024  0.7967566348420263  0.5958442265660366
  0.6038405680817149  0.8941849475012518  0.6911829913573513
  0.5962862027094573  0.0145528544558431  0.7822231389728813
  0.5931751205923632  0.0856384162281856  0.9134246041760932
  0.6035600309516411  0.1833280840932332  0.0030666788886009
  0.6035183833718278  0.3087147248875013  0.0994822832789666
  0.6900195933430169  0.4308783381348036  0.2921184405133204
  0.6949989024070860  0.5090579071926840  0.3943574095854885
  0.6947796247708382  0.5929728935025338  0.4870965191304961
  0.6785376852932075  0.6878054908216455  0.6130062503273734
  0.7123055122497064  0.7995322397085758  0.6764447565534155
  0.6998743829908847  0.8940387071736353  0.7864702868979307
  0.7021775429156421  0.9781046965548441  0.8900155305826019
  0.7102678031475449  0.0827083898002456  0.9811336863408044
  0.6769296116759094  0.1766370091188278  0.1032829718340054
  0.6887348577414798  0.3108589219304321  0.1794633418251976
  0.8040919987619333  0.3926462298516711  0.3710653813004470
  0.7915556429608799  0.4802500873788702  0.4825774495845323
  0.8165031213542520  0.6120205390347877  0.5807605085593224
  0.8036822523273273  0.7072055827242210  0.7099596047713135
  0.7779535625342220  0.7982659455727230  0.7889370829265943
  0.8110515216304393  0.8974709268826899  0.9062751763053285
  0.8054408361705683  0.9947552843979892  0.0093280607604598
  0.7933943844194218  0.0939695302492822  0.1205963819909073
  0.7791854636794326  0.2027573076831501  0.1900565281778981
  0.7951323144687024  0.3238817132925433  0.2705323635151515
  0.8733312673507783  0.4014349477393395  0.4852630146901262
  0.8835700416656778  0.4879816261517576  0.6051740429989749
  0.9038514406799862  0.6064589581200437  0.6901255355824887
  0.9221376767219809  0.7045012747315553  0.7876830284993233
  0.9307602323754196  0.8261006037951475  0.8671453303492740
  0.8916065812718728  0.8988604080855183  0.9944995547725028
  0.8912413190162169  0.9695023175638653  0.1432895969143573
  0.8711034527749320  0.0924493054927282  0.1987001080926660
  0.8751059446203655  0.2037922063760362  0.2791461722339932
  0.8928228437418184  0.3122143863241362  0.3903462217566229
  0.9881486845551279  0.4043995557248650  0.5917537306254630
  0.9972038760981903  0.4895832727792211  0.6919260250946380
  0.9960020732839681  0.6110336311040214  0.7808697502440438
  0.0326202118997188  0.7164847656008178  0.8872255632008788
  0.0141615923430365  0.8172524706554611  0.9990014199661914
  0.0144261112830648  0.8970105545106080  0.1344221199495266
  0.0167433308730764  0.9839470593557280  0.2405872169710221
  0.9820014894883471  0.0989602023761336  0.3155852646365531
  0.9877329044546528  0.2096252565415142  0.3921457593866791
  0.9803186428894577  0.3101835722958981  0.4900054432037351
  0.0959962448513139  0.4031172219709021  0.7227074179186204
  0.0852655770100696  0.5060064584176587  0.8083043579914744
  0.1002368238851474  0.6303667755529645  0.9093865693673990
  0.0830135711054467  0.7375834713459213  0.0297629937382453
  0.1126107578391000  0.8162727863622266  0.1163388071712603
  0.1226624094664430  0.9090687874098222  0.2324782200423812
  0.0943210171186379  0.0020051917811514  0.3399813961572349
  0.1170420770934015  0.1136397390538306  0.4065509711673556
  0.1194268726935093  0.2308695588200251  0.4825474174424400
  0.1009415104402294  0.3077597566724606  0.6130387528868368
  0.2081500140472841  0.3986635194400137  0.8119683388490770
  0.1784104673698224  0.4822445860812863  0.8984556539130040
  0.1656315454393962  0.6046090112140163  0.9983605380824301
  0.2030379786195553  0.7156424699411943  0.0628483440870440
  0.2054732063522309  0.7957933606342706  0.2229106959358091
  0.2221731306397459  0.8895639375252955  0.3175835361062838
  0.1910684550367847  0.9895943253732042  0.3952353558248589