Li 
 1.0000000000000000
    21.0004999999999988    0.0000000000000000    0.0000000000000000
     0.0000000000000000   21.0004999999999988    0.0000000000000000
    -0.0000000000000000   -0.0000000000000000   21.0004999999999988
 Li 
 500
Cartesian
 -0.1569298200000000  0.0840512400000000  0.1351192500000000
 -0.3405209900000000  1.4422235900000000  2.0470130200000001
  0.2691387200000000  4.0355267000000001  4.2018718000000002
 -0.0087272400000000  5.9473901700000003  5.7750949199999999
 -0.1108831200000000  8.1267749699999996  8.3199993699999997
 -0.6081930700000000 10.6510772300000003  9.9394705999999999
 -0.3582319700000000 12.3305328900000006 12.0557260599999996
  0.3176262000000000 14.7473658000000007 14.5849825000000006
  0.4970789900000000 17.2647647900000010 16.6427319900000015
  0.4992400300000000 19.4449546899999994 18.7898011199999999
  2.3757507300000000 -0.6281461200000000  2.1349274399999998
  1.6736355700000001  1.4466408700000000  3.7357105200000000
  2.0060425400000002  3.6921409299999999  6.5599475199999997
  1.6684988000000001  6.4450856500000002  7.8629500500000002
  1.6498871700000000  8.3424849699999992 10.0099021799999992
  2.0037123800000001 10.3590320299999998 12.6776396899999995
  2.4019064200000000 11.9846244800000008 14.2562458299999992
  2.3566479299999998 14.8999778999999997 16.3917868400000017
  2.5025061800000001 17.3396831999999996 18.8840312600000004
  2.4702449700000000 18.6771580800000017 21.1556061299999989
  4.5215962599999999 -0.5878978300000000  4.4226932300000001
  3.9062924200000002  1.8649208799999999  5.4832420199999996
  4.1632557600000002  4.5237385899999998  8.1919792000000005
  3.8614795599999998  6.5750115999999998 10.1952864900000009
  4.0829994100000002  8.5421887299999995 12.6405014399999995
  4.4041955799999997  9.9585788999999991 14.8082619700000002
  4.3802469899999998 12.5972539700000006 17.3219948200000005
  4.0338586200000002 15.2057142299999999 19.5381390800000005
  4.1487067900000003 17.1744060800000007 -0.0453590400000000
  4.4153799200000003 18.6100746500000014  2.6215726899999998
  6.6730402599999996  0.2222791000000000  6.8452532599999998
  5.5354419600000000  1.7089094000000000  8.2375032200000007
  6.1986016900000003  4.2511390300000000 10.1155906200000008
  6.1439450700000000  6.3752201499999996 12.1823356999999994
  6.6716690200000004  7.9141765099999999 14.8554634900000000
  6.5507238399999999 10.6897799599999992 16.9937663999999984
  5.4624505900000004 12.3104072900000006 19.4124471499999984
  6.0306498900000003 15.1765771500000000 -0.1816079400000000
  6.1059718800000002 16.6678777899999986  2.6452155500000001
  6.0782849800000003 18.5728644000000003  4.4661367299999997
  8.4084623999999994 -0.1730538300000000  8.5139310899999998
  8.0660898799999998  2.2104236300000002 10.1687631199999995
  8.7731276699999992  4.3983982599999996 12.3114401299999994
  8.6850079299999994  6.4266734400000001 14.4071922699999995
  8.6383027099999996  8.0882196299999993 16.9097874300000015
  8.0556181900000006 10.4665548299999998 18.6829138599999993
  8.1262344700000000 12.4817023599999999 -0.2792872400000000
  8.2244289500000001 14.8847849199999995  2.2603825099999999
  8.0462568099999991 16.7792735600000000  4.2340606500000000
  8.4150207500000000 19.0711610600000014  6.5115325000000004
 10.4998081100000000  0.0995312200000000 10.4574222999999993
 10.5787436100000001  2.2893074000000002 11.5388573700000006
 10.3293286700000007  4.1315218600000003 14.8176782899999999
 10.7320544200000008  6.4201057800000001 16.4087666200000015
 10.7452693299999993  8.0822343900000000 18.9515873399999997
 10.4992759099999997 10.4663421999999997 -0.2488300200000000
 10.1068217800000006 12.7141120300000008  2.0715947799999999
 10.1473504999999999 14.4927670699999993  4.3729276400000003
 10.1685280999999996 16.3298760499999993  6.2759624699999996
 10.2701346200000003 18.8873085600000010  8.6519510900000007
 12.4339423000000000  0.1180867300000000 12.4715795000000007
 12.1305382399999999  2.2233974999999999 14.3413933300000007
 12.4532017899999996  3.8236629400000002 16.8432395200000009
 13.0210721100000004  5.9048221600000002 19.2869423600000012
 12.5530679799999998  8.1012016599999992 -0.3482885400000000
 12.5640160200000004 10.7888684300000008  1.8929241400000001
 12.5815628200000003 12.6814686699999992  3.7547432700000001
 12.6759013800000009 14.3807831299999993  5.9640114799999999
 12.1100404099999999 16.4249939000000005  8.9088458100000008
 12.4562422200000000 18.7704139300000001 10.7502247299999993
 14.7137894899999999  0.3010784600000000 14.3884854000000004
 14.3859142500000008  2.1615940700000000 16.6847048300000012
 14.3791516799999997  4.3332473900000004 18.8672146500000011
 15.1770291700000008  5.9665569899999999 -0.2687368500000000
 15.5817438900000003  8.8981683100000009  1.5022128100000001
 15.0333764900000002 10.4711981299999994  3.5868487800000000
 14.8302664300000000 12.6760275700000005  6.3001387299999996
 14.5433025600000008 15.0251587200000003  8.5588897199999998
 14.0693552799999999 16.7796572499999996 11.1495328699999998
 14.8811589200000007 19.1719283800000007 12.4625098300000001
 16.7109620399999983  0.1755370700000000 16.7906357100000001
 16.7897717399999991  2.0888696900000001 18.7597310200000003
 17.1968218099999994  3.7954685700000002  0.3128833300000000
 16.7672719400000005  6.3868873400000004  1.9455031700000001
 16.8266235399999999  8.5964871699999996  4.1053013299999996
 17.4244964300000014 10.8002593000000005  6.1154695500000003
 16.7292852699999983 12.6586688499999998  8.3986814100000000
 16.1894889500000012 15.0928354299999992 10.4294275800000005
 16.4456692999999987 16.6446807999999997 12.1806702500000004
 16.4223236999999997 18.9874288399999998 14.6934168300000003
 19.1791669800000015  0.0365514500000000 18.7821832300000011
 18.4695722599999996  1.6408043100000000 21.6079794099999987
 19.0249171500000003  4.1894145399999996  2.1877879700000000
 18.9868560899999999  6.2604757700000002  3.6839222999999999
 18.8345804699999988  8.5650318700000003  5.7339143600000000
 19.1270971500000009 10.7613171199999993  8.1587685400000005
 18.3962671899999997 12.8741269799999998 10.5647803400000004
 18.9733314600000007 14.9484758099999997 12.8033549799999999
 19.0307672100000005 17.0805962399999984 14.6391635499999992
 18.7760263499999986 19.2462838599999984 16.6832162299999993
  2.1994735300000001  1.8524190400000000  0.1163913600000000
  2.1827092000000001  4.1960806899999996  2.1388426699999998
  2.1597809099999998  6.5736702899999999  4.2103806600000002
  1.5041828200000000  8.2721357599999994  6.3874206899999999
  2.1352000100000001 11.1167236900000006  8.5440954599999994
  1.9349672600000001 12.4599201999999991 10.4335649499999992
  2.5000002000000001 14.7005187100000008 12.2560076900000006
  2.2934703900000000 16.9088592899999988 14.8707419900000009
  2.5090298199999999 18.9352069100000016 16.2867063899999991
  2.7191224900000002 21.0422071300000013 18.8846487299999986
  4.3348626899999996  1.9083087500000000  2.4578098700000002
  4.1073971800000004  4.4622647400000002  3.7618735700000001
  3.9554464600000001  6.4733673500000002  6.1249236399999996
  3.9283044999999999  8.2249641800000006  8.2257672799999995
  4.0878036299999998 10.2497902700000001 10.6601378300000000
  4.4562177399999996 12.3641255399999999 12.6474860499999995
  4.8714796500000004 14.6576507199999995 14.1654442500000002
  4.5262550900000003 16.7346927399999998 16.7232657799999984
  4.4233919700000000 19.3954254000000006 18.5969253700000010
  4.3725063100000003 20.5258183199999991 21.3133955200000003
  6.4944940200000003  2.5653729699999999  4.3377009600000003
  5.7252705800000001  4.1731578200000001  6.7098351100000002
  6.4117035800000002  6.6975415099999998  8.5464225599999999
  5.9890947299999997  8.4652000800000007 10.4696700499999995
  6.5856028999999996  9.8864938799999997 12.8251779799999994
  6.6582258000000003 12.3224581400000002 14.8366205699999991
  6.1159866699999998 14.6200354800000003 16.7026670700000004
  6.2503669100000003 17.6289559500000017 18.7513308000000016
  5.6628025600000003 18.7285124699999983  0.7072612700000001
  6.7444953500000002 21.0284482699999984  2.8627505200000001
  8.6041626600000001  1.9377169100000000  6.1462437200000002
  8.3631588699999995  4.0941539400000000  8.0814378100000006
  8.1281777000000002  6.6329220099999997 10.1381144699999997
  8.7861324799999991  7.7434224100000000 12.7317645200000005
  8.7431616999999999 10.4325795100000001 15.5577744899999999
  8.3151882199999996 12.5522827400000008 17.4570960500000005
  7.9559428900000002 15.0100257799999994 18.8504206200000013
  7.6901049900000000 16.6796768100000001  0.1095604700000000
  8.4981020699999998 18.7421236499999999  2.4132404400000000
  8.2604714399999999 21.1623939199999995  4.1947656999999996
 10.5846177200000007  2.1243061800000000  8.1973163499999995
 10.2795488200000005  4.3437575500000003  9.8899549400000009
 11.4219852199999998  6.1450881099999997 12.7458508699999999
 11.2654704300000006  8.4422124299999997 14.7551209399999994
 10.8885620999999997 10.1268934700000006 17.1064034499999984
 10.7322363500000009 12.7336850899999998 19.2033796599999995
 10.3896453599999994 15.0705495900000006 -0.0486008900000000
 10.0356842099999994 16.6964075200000011  2.4526520199999999
 10.1910981399999994 18.7665990200000010  4.7624287000000001
 10.3560623100000004 20.5743000400000007  6.4825106699999999
 12.6505479699999999  2.1916482600000000  9.6739928000000006
 12.2354742600000002  4.1017761999999998 12.4684548399999997
 12.7890195799999997  6.2367474800000000 14.7187618600000008
 13.2278924500000006  8.6618556200000008 17.0919701800000006
 13.1467255299999994 10.2384256199999992 18.8111737099999985
 12.2027283000000004 12.5353105899999999  0.1169927600000000
 12.1193963300000007 14.9442390399999994  2.4375530900000002
 12.2722729299999997 16.5699243799999998  4.2025774499999997
 12.5025375800000003 18.1341563800000003  6.6824194400000003
 12.5857440599999997 21.0242291700000017  7.8077051900000001
 14.1349593599999999  1.8364868800000000 12.5811569399999996
 14.9364738199999998  3.5688415999999998 14.4902733799999996
 14.5881697300000006  5.8693711799999999 16.9239903900000002
 15.2902346700000002  8.1527456399999991 19.0360105100000006
 15.0837172099999997 10.5852920200000007  0.1630746500000000
 14.5323881099999994 12.9544710100000007  1.8900276199999999
 15.0540697100000003 14.4883453800000002  4.0024556999999996
 14.3040181600000000 16.7695621000000017  6.0959824600000001
 14.1161127200000003 18.6218945399999996  8.9161961299999994
 14.1265408600000004 21.1013614599999997 10.4680544999999992
 16.5674895000000006  2.0509721399999998 14.3631892400000005
 16.8250424699999996  4.0884924099999997 16.6615647399999993
 17.0636790699999992  5.8065157699999999 18.7534517299999983
 17.4756701200000002  7.8466210600000004 -0.2223228600000000
 17.1468343200000000 10.6961980099999998  2.1136136500000000
 16.4407379999999996 12.6210486300000007  4.1445751399999997
 16.4072238900000009 14.6981418900000005  6.1226301699999999
 16.7559712500000018 16.9283623600000013  8.3643716999999995
 16.5710707100000008 18.7527645400000011 10.1355260800000000
 17.0724471899999983 21.3220537199999995 12.5607683199999993
 18.9567255800000005  1.7373981100000000 17.0348239799999988
 19.2210934000000009  3.7241626399999999 19.2782356600000000
 19.2693263299999984  6.0348404100000002  0.3651299700000000
 19.2290668400000015  8.9388174300000003  2.3188798099999999
 19.1454914500000015 10.9609066100000003  4.3753870900000003
 18.8527768599999987 13.0409134600000005  6.0810903400000003
 18.7514527000000015 14.3502787400000003  8.3841284300000005
 18.6146980299999996 16.6024860700000012 10.6744714900000002
 18.9696384599999988 19.0979617899999994 12.2372993399999999
 19.1941322399999983 21.1849465799999983 14.7617686700000004
 21.1705365500000013  1.9264971900000001 19.3822429599999992
 20.9876009600000017  3.8574433500000000 21.6310919199999994
 21.2816417899999983  6.5875298700000000  2.1418901400000001
 20.9267016099999985  8.4183959999999995  4.3293052999999997
 21.0998646600000015 10.8152426300000002  6.3537159100000000
 20.7920136100000015 12.6345047400000006  8.5898383099999993
 20.5372460299999986 15.1251323299999996 10.9667926999999992
 21.5559282500000009 17.1443062399999988 12.7156800699999994
 21.2405940999999991 18.7880117999999996 14.6820612100000005
 21.5597801099999984 21.1338142399999995 16.5522328799999983
  4.1946171899999998  3.9195037099999999  0.1182991900000000
  4.1324528500000000  6.3126507600000004  2.1686707900000002
  4.3808774100000001  8.7061069599999996  4.2471768399999998
  3.5595617599999998 10.4853204400000006  5.9589622100000001
  3.9703656899999999 12.8333727599999996  8.5321653200000007
  4.4140565799999996 14.6867842300000007 11.1315814300000007
  4.4075515100000002 17.3767314000000006 12.6614716299999994
  4.2685742800000002 18.8048127200000010 14.7508149300000007
  4.5490901099999999  0.4978956600000000 16.0584402500000003
  4.0592704399999997  1.8242316400000000 18.8770892699999990
  6.6798175799999999  4.2679964400000001  2.2524246500000000
  6.1665092100000001  6.5380593200000003  4.1385233399999999
  6.2293581700000002  8.4287107399999996  6.2440036699999997
  5.4504425000000003 10.7420928199999999  8.4478665300000007
  6.4897474099999997 11.9162377599999996 11.0551525000000002
  6.4562418099999999 14.7620299799999994 12.7482154399999992
  6.8007913499999999 17.3520219400000002 14.6145372099999999
  6.3429380599999998 19.1575377099999997 16.4083497700000009
  6.2837910199999998 -0.1615147200000000 19.3094810300000006
  6.4352613999999999  2.0382321800000001 21.1096816499999989
  8.2049313000000001  3.8426427699999999  4.4696000400000004
  8.3527610299999999  6.5659994499999996  6.4489779499999997
  9.0169259400000001  8.9771352600000007  8.3745469400000001
  8.7668056900000000 10.5698623200000004 10.1427143199999996
  8.6721686099999999 12.5549333399999998 12.9812578100000007
  8.6336865599999992 13.9400215099999993 14.7802341800000008
  8.5599866099999993 16.8079755999999989 16.7690677199999989
  8.2306343200000001 19.3811910199999993 19.4450952900000011
  8.4844533299999991 -0.4370669300000000  0.4185747600000000
  8.9868789200000005  2.7896907299999998  1.9739852000000000
 10.6085056800000004  4.1202634800000002  6.3126101400000003
 10.6432703800000006  6.7490946500000000  8.2217487200000008
 10.5121386500000007  8.5356839000000004 10.8434264500000008
 10.3756592199999993 10.3559090499999993 12.7807870200000000
 10.5445429300000004 12.5121717300000004 15.7384399699999999
 10.4814793000000002 14.4801985700000007 16.9080773700000009
 10.3078322100000008 16.9260026400000001 18.7292895199999982
 10.2444916700000004 18.4082658300000013 -0.0348455300000000
 10.5109366699999995 -0.0001639100000000  2.1640153799999999
 10.4044910500000007  2.1671917999999999  3.9071635499999999
 12.4076047200000001  4.6799561199999999  8.3005493300000008
 12.3824868499999994  6.3105391099999997 10.1227808800000005
 12.9321493600000004  8.6336577499999994 12.4139815799999997
 12.7315466900000001 10.9261297600000002 15.0228323899999996
 13.3082129600000005 12.7762270800000000 17.5525372100000006
 13.2679533200000002 14.6400718399999992 18.8069200899999984
 12.6680837900000007 16.8068611799999985 -0.0558342300000000
 12.0097933700000006 18.2376445800000013  2.2384330499999998
 12.2841258000000000 -0.2826796900000000  4.0474713400000004
 12.5117870100000008  1.9782965600000000  6.3837066499999997
 14.1885199699999998  4.2477539699999998 10.5438523499999999
 14.4379167000000006  6.1193633600000004 12.4317071099999996
 15.0911960000000001  8.2312805900000008 14.6712609700000005
 15.3663943599999993 10.4174868299999996 16.7850265000000007
 15.3656719800000001 12.5917923700000003 19.1300735899999985
 14.6601142400000004 14.3006983999999999 -0.3483622000000000
 14.2619604800000008 16.9506560899999990  1.3741720700000000
 13.9399915399999994 18.5252891200000001  4.2428155299999997
 14.3237534400000008 -0.6635089400000000  6.3350678599999997
 14.5574289599999993  2.5947130100000000  7.9507128099999997
 16.6101105699999998  4.0626050500000002 12.3316311200000008
 17.3925946899999992  6.2821350999999996 14.4345019400000005
 16.9235943000000013  7.6213898000000002 16.9544180100000013
 17.1468690700000010 10.2959994800000008 18.7964624200000010
 17.0791532500000010 13.0912240099999995  0.0172838400000000
 16.4976664699999986 15.0716567500000007  1.9234711600000001
 16.1407184999999984 16.9329183299999997  3.9667261500000000
 16.9046423099999998 18.5697320099999992  6.6650936999999999
 16.1633617500000000 -0.1528214000000000  8.5574575599999996
 16.0865517699999998  1.8861537100000001 10.6099604299999992
 18.9427169100000015  3.8132783699999999 14.6354291399999994
 19.0696430200000009  5.9446934000000002 16.9170886699999983
 19.2824556499999993  7.6993641600000000 18.8183601899999999
 19.6008989500000013 10.8885237299999993  0.0445676900000000
 19.0469033900000007 13.0737384500000005  2.2201123900000002
 18.3196162999999999 15.2051867299999994  4.4650024100000003
 18.8306645599999989 16.5638368900000010  6.8306031400000000
 18.7285189900000013 19.1003173400000001  8.6466513799999998
 18.4802272199999997  0.1368904000000000 10.3531171200000003
 18.7600847199999983  2.2204207999999999 12.4705901499999996
 -0.4766215200000000  3.9828037100000002 17.0613733900000000
  0.1112079000000000  5.7958156799999996 19.1912535499999990
 -0.2443159800000000  7.8119165700000002  0.5060485200000000
  0.3905037000000000 10.4852746000000003  2.2995177299999998
  0.1081190800000000 12.8707692999999992  4.0437384500000002
  0.0990523500000000 14.9753496599999991  6.4662933799999998
 -0.3377258800000000 16.7588515999999998  8.4592626200000005
  0.0994133600000000 19.0540781099999990 10.5912625899999995
  0.1959643600000000  0.6138061900000000 12.4638159399999999
  0.3702994000000000  2.6356123000000000 14.5761368999999998
  1.9182627200000000  4.1112777100000004 19.3928675800000008
  2.2809784999999998  6.6371891500000002 20.9422084800000015
  2.2290859699999999  8.4068859299999996  2.4717578699999998
  1.5671066899999999 10.5302643600000003  4.3227254400000001
  1.8494094400000001 13.0060030199999996  6.6500137400000003
  1.9766138300000000 15.1395816100000005  8.8139517299999994
  2.2238534099999998 17.3810964500000011 10.3278311400000007
  2.4078337400000001 18.9447021599999985 13.2024689100000003
  2.1850171600000001  0.4467802400000000 14.5365601600000005
  2.1932886599999999  2.5665559400000002 16.9247463799999984
  6.2857796600000002  5.6856519800000003  0.1607304200000000
  6.6872458799999999  8.6567101799999993  2.3999950399999999
  6.0839765300000002 10.7535470100000001  3.8967320700000001
  5.5928556499999997 12.5639736600000003  6.0239124500000001
  5.9793701099999996 14.6061493799999997  8.9588881199999992
  6.5611939300000000 16.6072364800000010 10.8931244399999994
  6.7668271899999999 19.3955448200000014 12.8321952400000008
  6.6477812299999997  0.8752745700000000 14.4800263800000000
  6.3304268199999996  1.9250590800000000 16.8658370399999988
  5.9942770100000002  4.2259675500000000 18.8657226999999992
  8.3990728099999998  6.4691409000000002  2.1323191700000002
  8.3251022700000004  8.9349019500000004  4.1823657799999996
  8.4196696699999993 10.7437062200000000  6.0779319899999997
  7.6140920999999997 12.3441387200000001  8.7850262000000008
  8.5736840900000004 14.5079007000000004 10.4036106600000000
  8.6530196900000007 16.5650020299999987 13.3092596200000006
  8.6648216300000005 19.6491843400000015 15.1570764699999998
  8.7358972799999997  0.6405739400000000 17.3647078000000015
  8.2590452499999998  2.1665225700000001 19.4155975699999992
  8.6629218100000003  4.2673918100000003 21.0246474899999996
 10.5282338099999997  6.6205457499999998  3.9351571800000000
 10.5211336000000006  8.7816124200000001  5.8134846700000002
 10.6788220999999997 10.8352551800000008  8.0236864800000003
 10.7481785700000003 12.1184646600000008 10.3727241600000006
 10.8164944599999995 14.3615843200000004 12.8967772099999998
 10.9890714999999997 16.8580336899999992 14.7897348799999993
 10.8556735000000000 19.1172658999999996 16.5213119299999995
 11.3018708399999994 -0.6250155500000000 19.1603339000000013
 10.9498930300000001  2.1200002699999998 -0.1591366600000000
 10.5710345300000004  4.0415376700000003  1.7732407900000000
 13.0137996099999995  7.0273684899999997  6.1216731600000003
 12.8017657299999996  8.4145311700000001  8.3450788599999992
 12.3960624599999996 10.8212770400000000 10.3587377000000007
 12.6381052900000004 12.5262354200000008 13.3484337300000000
 12.5511934200000006 14.4787779400000005 15.2331651099999998
 13.1066353899999992 16.2786711000000004 16.7072117700000007
 12.8508898400000007 18.4111855200000001 18.4848239700000008
 12.7467737999999997 -0.5372881500000000 -0.2114631000000000
 12.2981263199999997  1.5144066599999999  1.9349566199999999
 12.1376978900000001  4.1087530799999996  4.2728536300000002
 14.8974659599999999  6.7726247099999997  8.4140580499999995
 14.5917899999999996  8.2790078200000004 10.1598854700000008
 15.2026220999999993 10.4766762900000003 12.4840681000000000
 15.2929188899999993 12.3803783599999999 14.7499463100000003
 15.1882113000000007 14.9221096699999993 16.4936435500000016
 14.9440030499999992 16.9785687799999998 19.2238745000000009
 15.0550435000000000 18.7003339500000010  0.0635541600000000
 14.6184591099999999 -0.7270062400000000  1.7280867400000000
 13.9723267100000008  1.7672419300000000  4.2498706000000004
 14.6286948999999993  4.5014606600000002  5.9311497700000002
 16.9065070199999994  6.3427475700000002 10.2239304000000004
 16.3496171600000011  8.2228723099999996 12.5568858300000006
 16.4515517200000012 10.4612605100000007 14.8021505900000001
 17.3764220800000011 12.7003966699999999 16.6952151399999984
 17.6303108900000005 14.8052747000000000 18.8972839800000010
 17.3594645300000003 16.5559696500000015  0.3106849100000000
 16.6024865800000008 18.9540112000000001  2.1845167700000001
 15.7798425800000004 -0.7335547500000000  4.3538934600000001
 16.5514846200000001  2.1847671599999998  5.5597322699999996
 16.7609171600000018  4.3310778699999997  8.2007164899999996
 18.9189734300000012  6.1596130400000000 12.4775891100000003
 18.4115010000000012  8.1101637899999997 14.7269128299999998
 18.7212302999999984 10.1744871400000001 16.5456819700000004
 19.4881770400000001 13.5011711900000009 18.7623372699999997
 19.5552685000000004 14.9197120999999999  0.0377118600000000
 19.1975764399999989 16.7922488500000000  2.5077007800000000
 18.4325678999999987 18.3366003599999985  4.5789343899999997
 18.3008143200000006 -0.2546406600000000  5.7744469699999996
 18.2598180899999996  2.1629479400000000  8.5430101500000006
 18.6741828400000003  3.5580820200000001 10.3866071200000007
 -0.0642588500000000  6.0795409100000004 14.8125720600000008
 -0.3914135400000000  8.2847629499999993 16.3121969900000003
 -0.2730359600000000 10.1147180300000006 18.9519931200000009
  0.0362032400000000 13.1537868699999994 -0.0338219000000000
  0.3630775100000000 15.0555794200000008  2.6213000000000002
  0.1358010600000000 16.9068445199999999  4.8969766400000001
  0.1220928000000000 18.5287077400000015  6.4475401699999999
 -0.0832210100000000  0.0310840200000000  8.3748341300000000
  0.5158987700000000  2.1305029700000002 10.2925090099999998
 -0.1678687100000000  4.6229577800000001 12.4812727500000005
  2.6383836899999999  6.0579803999999999 16.9582006599999993
  1.4845885700000001  8.0653292299999997 18.9964518099999999
  1.9835535700000000 10.4697364999999998  0.3039492800000000
  1.9736580300000000 12.7351588800000002  1.8283613800000000
  2.3354382299999998 15.3787126500000007  4.4411092600000002
  2.0760890800000000 16.6100332000000002  6.7632090700000003
  2.0335055500000001 18.5959703300000001  8.4535243100000006
  2.2209296599999999 -0.6928079500000000 10.1560787500000007
  2.3275101299999998  2.3240504299999998 12.4430199199999993
  1.8794578099999999  4.3480936799999998 15.1696231899999994
  4.4689345600000001  6.3271236799999997 18.9152549699999994
  4.3284830999999997  8.5544897199999994 20.9794970599999999
  4.1520889199999997 10.6257794600000004  1.6404641499999999
  3.7344519400000000 13.0613444100000002  3.7058612300000000
  4.1782832100000000 14.4094046200000001  6.6067283600000000
  4.7217519799999996 16.7925536099999988  8.9578811799999993
  4.5284459699999999 19.0127631000000008 10.7056178200000005
  4.3631502500000003 -0.3575364800000000 12.9363524099999996
  3.8472798899999998  2.3811292000000002 14.3230165500000002
  4.4445569899999997  4.2050431799999997 16.6217260799999984
  8.2283054300000007  8.4857950399999993 -0.0461427500000000
  8.2515740700000002 10.6697088699999991  1.4773694600000000
  7.8754677800000001 12.7085449100000005  3.9941024399999998
  7.4930154800000004 14.2617475200000001  6.4588621300000000
  8.6563839100000006 16.4026589999999999  8.5332279900000003
  8.2385842799999995 18.4887803099999992 10.7761874199999994
  8.7617582499999997  0.1203928400000000 12.5840654199999999
  8.5409770799999993  2.6660977899999998 14.6126557699999999
  8.4066306500000003  4.2965043900000000 16.8002379200000007
  8.3098577099999993  6.2316745700000000 18.8706384199999988
 10.2161371600000006  8.0441476200000004  1.7247850600000001
  9.9953674699999997 10.3947658199999999  3.5703893299999998
 10.6615049200000005 12.1848093199999994  6.2570790599999997
 10.2468058299999996 13.9487082400000002  8.0694345799999994
 10.7338055099999998 16.7541059300000015 10.3893357099999992
 10.2964251400000002 18.7265597100000001 12.8991756800000008
 10.4808914800000004  0.3756581600000000 14.7784106499999996
 10.0216253200000001  2.3744954699999998 17.3936175800000008
 10.4667132600000006  4.5383693599999999 18.8638930800000004
 10.2298914399999994  5.9902454399999998 21.1970613599999993
 12.6559400600000007  8.6505734600000004  3.2273171999999999
 12.4037530799999995 10.3929615200000001  5.5276103000000001
 13.0011692399999994 12.6625546199999999  7.9047708700000001
 12.5216038699999999 13.9065049399999996 10.5851430799999999
 12.4413258300000003 16.7322877100000014 12.5130266799999994
 12.6809538499999999 18.7783309900000006 14.5151884100000004
 12.5223084000000000  0.3056172200000000 16.4270770299999995
 12.4569741199999999  1.7984495599999999 19.1823733999999995
 12.6750624300000005  3.8499814300000001  0.0644017900000000
 12.6741878099999994  6.4831635800000003  2.0891776900000001
 14.4907564699999991  9.0486605400000002  6.1346333099999999
 14.5953244499999997 10.6904705799999995  8.2817027799999998
 14.5907195099999996 12.4527272500000006 10.2292704499999996
 14.2496306599999993 14.4442592100000002 12.8734377599999998
 14.9587719099999994 16.7905768000000002 14.2056781099999991
 14.6977119799999993 18.7752598699999993 16.5162692600000014
 14.7460794899999996 -0.4598123200000000 18.6907711499999998
 14.9159790000000001  1.7369175400000001 -0.3962020200000000
 14.2158603100000001  3.7094655099999998  2.1689940499999998
 14.4637763800000005  6.5281927900000003  3.7688199099999999
 16.8863340199999996  8.2457671500000007  7.7925585399999999
 16.6230642800000012 10.0854919600000006 10.1343677299999992
 17.1469738000000014 12.8527373300000001 12.1962610599999994
 16.8777291399999996 14.8516708400000006 14.9095066799999998
 16.3374137899999994 16.7639839899999998 16.5680732100000014
 17.0324874800000003 18.8473381999999994 19.0322318400000015
 16.9146602799999997 -0.1101416500000000  0.1958939400000000
 16.6616787700000017  1.9734071200000001  2.5325843200000002
 16.3632843299999990  4.2580048399999999  3.9912821200000002
 16.6981761700000000  6.8016779200000004  5.6813149000000003
 18.3403932800000007  8.4303346200000000 10.1907659400000004
 18.5554126599999982 10.2478581399999999 12.7089574899999995
 18.9813321799999990 12.7359413499999992 14.4929813099999993
 19.3653522799999998 14.7948790199999998 16.5417374399999986
 19.5464302600000011 17.3485257299999986 18.2104855100000016
 18.7241840099999983 18.8765180000000008 -0.1155121000000000
 18.7165133200000007 -0.6404665800000000  3.0091531800000002
 18.2936080600000004  1.9414816399999999  4.1728016200000004
 18.3776623900000011  4.2797382300000004  5.8622091899999997
 18.7497261299999991  6.5566582200000001  8.1974658300000005
 -0.2488835500000000  8.4925928699999993 12.4271242199999996
 -0.0587200000000000 10.2814935199999997 14.5307924899999996
 -0.0839584600000000 12.8320117699999994 16.3986551899999995
  0.6850407600000000 15.0465383199999998 18.6321804399999991
  0.2974005200000000 17.1627105100000001 -0.0209706800000000
  0.3029555500000000 18.8376701500000010  2.8229317300000001
  0.3516183200000000 -0.3371197800000000  5.0524518499999997
 -0.3779777200000000  2.0782137299999999  6.6274483499999999
 -0.2576151400000000  4.4022351999999998  8.2352570200000006
 -0.4133183400000000  6.5140101100000001 10.2903593099999995
  2.0159691400000002  8.4656632199999997 15.1772171300000007
  1.7906197500000001 10.6263886299999992 16.9747956699999989
  2.1050234200000002 13.2380174700000008 19.0975726500000000
  1.7433265000000000 15.4896216899999999  0.6250377499999999
  2.3648822200000001 17.1421366500000012  2.4431731200000000
  2.5759719300000001 19.0908990699999990  4.8821588599999997
  1.9807885199999999  0.0421100300000000  7.1397793099999998
  2.4579421400000001  2.3864913400000001  8.5377736700000000
  2.5080240400000000  4.8483761699999999 10.1337370399999998
  2.1198221899999998  6.4631087699999998 12.8741203300000002
  4.3712543699999999  8.3721332400000001 17.0517411000000010
  3.7467090199999999 10.1273774299999992 18.8680179599999995
  3.4783452700000002 12.6970915400000006 -0.0344295200000000
  4.2638990699999999 15.0288496899999995  1.3198466499999999
  4.3150400700000002 16.7120584699999988  4.6812360699999997
  4.6657468299999998 18.6812874700000009  6.6694130500000002
  4.0125330899999998 -0.2185243700000000  8.3001400899999993