Li                                      
   1.00000000000000     
    21.2169999999999987    0.0000000000000006    0.0000000000000000
     0.0000000000000006   21.2169999999999987    0.0000000000000000
    -0.0000000000000006   -0.0000000000000006   21.2169999999999987
   Li
   500
Direct
  0.9770871635952290  0.0271047999245866  0.9815811118442781
  0.9898725894329985  0.0943157189989137  0.0894981147193263
  0.9819676028656232  0.1920749219965145  0.2275485195833511
  0.9892840769194535  0.3150756195503632  0.3075346613564562
  0.9944617537823461  0.4089293382664820  0.3922794066079121
  0.9928549229391521  0.5036953853042405  0.4965558104350265
  0.0052766333600403  0.5976603897817796  0.5882319196870469
  0.0069140321440386  0.6959850822453717  0.6950908695857123
  0.9851347198001577  0.7966586864306890  0.8061857185275940
  0.0121399123344474  0.9214870518923490  0.8853193156431161
  0.0910546745534262  0.0235522797756502  0.0910049502757246
  0.0803980770137187  0.1057217834755164  0.2044758481406390
  0.0918382212376869  0.1818473690908249  0.3005908431917774
  0.1024655785455053  0.3005846071546401  0.3935512541829667
  0.1107791280576862  0.4057348541264076  0.4756336253947282
  0.0911160677758431  0.4857326728566704  0.6005616053164928
  0.1028920615544138  0.5982763703633864  0.6689436055992815
  0.0644788608191575  0.7000809671489847  0.7862699754913507
  0.1005042918414460  0.7861869147381810  0.8916724060894552
  0.0784272093132898  0.9264645477682976  0.9989416538624667
  0.1836834293255407  0.9953900212094098  0.1966950223877078
  0.1802935047367669  0.0812617995004032  0.3001066192204362
  0.2195358943300150  0.1954785238252370  0.4010716604609499
  0.2200466720082943  0.3045202102087927  0.4879668251873497
  0.1834825569119118  0.3990630843191809  0.6091097473723934
  0.2147342937267283  0.5034164872507887  0.7176073917141892
  0.1810280529763872  0.6099337304991295  0.8035451067540151
  0.1810285850968540  0.6992794909742202  0.8902845147758853
  0.1900607182919387  0.8158980869114387  0.9999464339916102
  0.1779149794975723  0.8934110048545989  0.1174551213649409
  0.2939372305226939  0.0174479323184258  0.2753428194372418
  0.3100172677569901  0.0811822137908251  0.3946994476127657
  0.2998877895084107  0.1790302983456655  0.5111653683367123
  0.3093295720412854  0.3011659867087744  0.5981722496111601
  0.3017614040627805  0.4035495720412854  0.7007547325258017
  0.3019685836828927  0.5109858924447366  0.7964622057783828
  0.2903659391054347  0.5936108808973941  0.9061066984022261
  0.2962645020502421  0.7106688188716603  0.9990232304284277
  0.2820430023094715  0.8003566163925129  0.1244749474478013
  0.3182485799123356  0.8923901380968076  0.2127287227223462
  0.3954829264269222  0.9785898133572104  0.3989352679455180
  0.3799273837017481  0.0749870985530450  0.4699514483668779
  0.4162797605693527  0.2020289758212783  0.6059133986897294
  0.3994779601263119  0.3100386746476858  0.7121104746194078
  0.4235342602629970  0.3995394914455375  0.7930496658339976
  0.3975009252014914  0.4946014026488186  0.8838178809445267
  0.3869138332469220  0.6042090634868273  0.9918905142103043
  0.3850798331526590  0.7015122613941642  0.0990859061130251
  0.4136661017108949  0.8074760687184792  0.1740815115237808
  0.3951273130037265  0.9082355799594666  0.2891068633642817
  0.5057306636187988  0.9802254479898167  0.4893541735400859
  0.4897042956120075  0.0950805490879958  0.5856476490550051
  0.5089123085261846  0.2084621605316457  0.7002951972474918
  0.5135515742093588  0.3324243201206585  0.7984171159918958
  0.5100776278455967  0.3898319112032809  0.9130753075364098
  0.4847918975349970  0.5263132898147731  0.0098256039967950
  0.5029991200452457  0.5810209874157550  0.0720088004901740
  0.5049680237545360  0.6609112570108877  0.1872788249988204
  0.5012847127303601  0.8162364184380451  0.2734634651458734
  0.5174495027572235  0.8887793891690592  0.3963811877268242
  0.5911582235942845  0.9900107984163640  0.5994425672809527
  0.5766680543903462  0.0868181382853379  0.6820009176603676
  0.6026624211717007  0.2092102450864886  0.7942155780741871
  0.6067191676485848  0.3399043469859109  0.9021936291652892
  0.6034903101286702  0.4105271706650342  0.9960318725550295
  0.6020282127539218  0.4889629099307129  0.1074434995522466
  0.6041328170806395  0.5803298086440094  0.2116837625489012
  0.6156043526417463  0.6825580115002126  0.2806293825705808
  0.6132452259980212  0.7974335584672687  0.3726959570156012
  0.6181371522835448  0.8713518772682249  0.5033256803506632
  0.6974035749634737  0.9863972847245108  0.7069900216807241
  0.6755751142951425  0.0979870075882516  0.7957803803553745
  0.6772445538954628  0.1890064801809856  0.9084300853089502
  0.7041562586605110  0.3182806900127275  0.9942783008907981
  0.7082005467313977  0.4192806664467170  0.0832614766460864
  0.7112209544233394  0.4758361026535312  0.2080748079370309
  0.6980811613328939  0.6045673365697297  0.2732860187585402
  0.6985170716877960  0.7134149318942349  0.3967456468869273
  0.7020837870575463  0.7978914634491190  0.5095562709148354
  0.7110608111420120  0.9107096606494807  0.6278674317764086
  0.7803487599566381  0.9903656091813176  0.7802756379318438
  0.7804927916293565  0.1223951981901337  0.8806876778055326
  0.8112198882971171  0.2237395560164046  0.9946635146344889
  0.8020758297591541  0.2989332483385994  0.1174362407503438
  0.8021773389263345  0.4133248173634314  0.2101976801621319
  0.8102643696092784  0.5004873436395343  0.2950597412452254
  0.7792999080925682  0.6019069590422745  0.3790535155771337
  0.7962024362539495  0.6939344530329450  0.5166294980440185
  0.8003323853513677  0.7886755587500573  0.5890634510062682
  0.7940503629165292  0.8862498699156305  0.6935466597539701
  0.8651253659801128  0.9985408342366995  0.9080949069142648
  0.8720185040297892  0.1126262760993555  0.0048864038271219
  0.9201391832021457  0.2069907852193964  0.0880619875571469
  0.8975021595890098  0.3219217665079910  0.2138832181741037
  0.9174282726115877  0.4078529919404232  0.3094273191308829
  0.8876958919734150  0.5065527798463521  0.4076454248951293
  0.9073830621671277  0.6264190064570840  0.4546534335674224
  0.9077427473252584  0.6998929085167589  0.5899118423905350
  0.9128876523542431  0.7869489970306844  0.6840473153603241
  0.8880975166140388  0.8743847947400667  0.8166307611820685
  0.0818040425130775  0.1124573229014487  0.9746585742564946
  0.0869053273318556  0.1896465932978302  0.0945429806287379
  0.0997405132676619  0.3007979106376979  0.1950041287646727
  0.0883605019559752  0.3828287891784896  0.2899410519866166
  0.1257645670924248  0.4954268562944790  0.3883714026488221
  0.1176545916010738  0.5899692110100361  0.5085321723146521
  0.1136276410425623  0.7023918211811306  0.5680082514021763
  0.1021352999952896  0.8069497134373407  0.7038011622755320
  0.1176195107696643  0.9160723368053922  0.8124540863458520
  0.0958698251402197  0.0161857444502047  0.8815882141678841
  0.1900710519866138  0.1114923566008414  0.0974314134891827
  0.1966399934015186  0.1907836932648337  0.1988881118914065
  0.2036381830607539  0.2929480421360253  0.3028575882547031
  0.2165947188575217  0.4008510911061904  0.3750264420040565
  0.2166113866239314  0.4736700212094078  0.4972528995616727
  0.1856722448979582  0.5792497662251961  0.5897881868313135
  0.2070376848753384  0.7115662473488271  0.6890680633454309
  0.1910981533675837  0.7810103714002921  0.8204876707357300
  0.2009921119856699  0.9184641980487314  0.9088105514445957
  0.1952604227741901  0.0097450139039452  0.0072792953763496
  0.2980364533157385  0.0849995729839250  0.1958062911815972
  0.3200468751472840  0.1882608134986086  0.2974508709996684
  0.3141571791487934  0.3070692487156492  0.3921815935334863
  0.3089571932883999  0.3968827906867105  0.4947254098128866
  0.3003918409765731  0.4983784748079358  0.6210497219211035
  0.3266230791346558  0.6092254998350413  0.7114022689352879
  0.3028018626573044  0.6929615996606486  0.7979753928453590
  0.2734666578686884  0.7913187934203734  0.8989899962294388
  0.3015879285478604  0.8964216826129956  0.0239083301126470
  0.2976713550454804  0.9991547480793699  0.0805106876561226
  0.4147282612998993  0.0924632403261541  0.3043324880991634
  0.4105365739737010  0.1776188683602768  0.4099623796955285
  0.4059650035349023  0.3038193462789280  0.4986174298911266
  0.4005097242777040  0.4255122892020538  0.5997115233067802
  0.4057263123910104  0.5133348282037957  0.7208403761134932
  0.3976959942498937  0.6291239006457090  0.8122051543573576
  0.3718839638026097  0.7082093839845385  0.9209809143611238
  0.3819335504548249  0.8054189876042770  0.0273073926568301
  0.4109935947589207  0.9217925498421096  0.1273009878870681
  0.4218530225762365  0.0231045095913629  0.1802715732667224
  0.4783334109440531  0.0792053947306428  0.3916380619314666
  0.5008196809162442  0.1928768991846184  0.5044645279728499
  0.4727483513220534  0.2807243201206546  0.6182454145260863
  0.4897442908988054  0.4157338516284099  0.6682933638120403
  0.4977611641608135  0.5277603789414158  0.8071725064806543
  0.4840109002215200  0.6005356002262303  0.8967519833152693
  0.4970925074232895  0.7065191709478214  0.9874423688551630
  0.4922796201159443  0.7960234675024722  0.1141508568600642
  0.5166911523778097  0.9063493580619308  0.2126600603289788
  0.4994536055992853  0.9805690578309836  0.2808575430079685
  0.5923953688080346  0.0957486751190118  0.5112096154027412
  0.5618897299335472  0.1776063590517012  0.6084029839279808
  0.6050906292124267  0.3084448475279231  0.6863128816515029
  0.6128923401046364  0.4244896088042580  0.7714003869538573
  0.6030143568836337  0.4750559259084710  0.8986263213460930
  0.6053402465004467  0.5880186953857773  0.9911115185935842
  0.6026075538483298  0.7010825234481786  0.0910439256256765
  0.5988767921949361  0.8166801885280677  0.1872038063816746
  0.6286519465522957  0.9098854112268455  0.3087687759815267
  0.5957692378752881  0.9877793095159575  0.4036840877598138
  0.6921492020549564  0.0929143766790759  0.6248844897959174
  0.6755702064382305  0.1912325206202539  0.6839952990526470
  0.6881028359334493  0.2829055714757018  0.8046790111702862
  0.6996923844087277  0.4217507611820679  0.9097346198802825
  0.6998242852429684  0.5071670240844597  0.0089525045953707
  0.6852816835556368  0.6035774987038707  0.1096665871706648
  0.7051299731347527  0.6948757430362420  0.1843928566715363
  0.7005144860253552  0.8134065381533659  0.2845254560022639
  0.7074092039402373  0.8980890785690718  0.3989015553565523
  0.6686488820285632  0.9945989334024574  0.5243293703162593
  0.8054163552811389  0.1182654880520317  0.6994060333694705
  0.7729195890088150  0.1994524843286030  0.7932461375312272
  0.7955095734552486  0.2956178983833695  0.9028477890370894
  0.7817077748974910  0.3824059622001243  0.0094746373191299
  0.8084890026865281  0.5132107055662942  0.1090559032851033
  0.8156299396710196  0.6008836876089916  0.2280391191026041
  0.7786036541452575  0.7178312032803902  0.3030931074138650
  0.8013223716830851  0.7797995107696636  0.4166848352735997
  0.7878602818494613  0.8820020573125333  0.5021825814205556
  0.7969419423104114  0.9769350157892234  0.6130864990337912
  0.9008243630107913  0.1259737441674105  0.8017727331856506
  0.8840560583494366  0.1942879012112897  0.8855031748126478
  0.8959809435829769  0.2977861351746256  0.0010239341094405
  0.8977759683272879  0.4007844327661800  0.1000411005325930
  0.9114828090681968  0.4921620893623029  0.1999785582316065
  0.9167314898430519  0.5853505867936093  0.2851757312532399
  0.9095940773907714  0.6960679690813976  0.4051636324645358
  0.9094204793326099  0.8003537130602822  0.5007204260734284
  0.9231891219305268  0.8974636909082321  0.6018230334166006
  0.8818314992694525  0.9876248234905987  0.7312632884008110
  0.0157996941132126  0.1136411693453354  0.8760550695197225
  0.9983400697553861  0.1945603648018093  0.9769100457180571
  0.9870963208747696  0.2964836828957900  0.1050940745628495
  0.0028808540321421  0.3943149964650985  0.1903109746901066
  0.0068973280859694  0.4926380751284327  0.2890363972286352
  0.0256844813121546  0.5754930536833669  0.3928340462836388
  0.0151463453834211  0.7077785172267497  0.4659763788471523
  0.0156312235471532  0.8062427685346663  0.6000936824244718
  0.0133396700758794  0.9152869552717178  0.7121094683508531
  0.9879812862327384  0.9871344304095757  0.8082475029457541
  0.1970735829759178  0.1795453871895205  0.0045181505396599
  0.2168477621718452  0.2857818334354505  0.0856220167789985
  0.2087997794221650  0.3902034128293366  0.2162314648630783
  0.2206696205872660  0.4938215812791640  0.3094650973276174
  0.2125606367535440  0.5768911900834226  0.3898846448602526
  0.1921613932224133  0.7005455281142474  0.4965753377009037
  0.1869293863411414  0.7979883730027808  0.5701796903426484
  0.1999316675307554  0.8900388905123222  0.6998590917660366
  0.2237605368336730  0.0065811740585389  0.8082936070132476
  0.2005886751190076  0.0986690347362966  0.8905474675967398
  0.3078764797096696  0.1832812306169558  0.1014946655983380
  0.3059217259744571  0.2656458580383685  0.1871290677287050
  0.3155447659895358  0.4007380331809429  0.3036779789791240
  0.2961959791676492  0.5135567290380365  0.3930493043314343
  0.2995711264551986  0.6054156534854158  0.4963441692982045
  0.2790093010321897  0.6904915581844762  0.5841295032285458
  0.3171208554461060  0.7915173907715527  0.6940355794881441
  0.2836763241740101  0.9053366493849282  0.7976965046896325
  0.3124858057218276  0.0130988466795472  0.9093406249705396
  0.3004884017533129  0.0790200692840628  0.0044184432294827
  0.4045337163595235  0.1821074369609263  0.2135644214544925
  0.4256649300089563  0.2949440938869756  0.3045474270632056
  0.3991607550549077  0.4274130221049148  0.3899554404486949
  0.4146611189140756  0.5126162968374430  0.4978443828062424
  0.4067755922137906  0.5872799773766317  0.5964077452043171
  0.3974522260451536  0.7034953344016586  0.6905610953480732
  0.3930449031437036  0.8165323872366486  0.8078404336145510
  0.3880897181505389  0.8886000966206353  0.8950846038554019
  0.4125364905500319  0.9804548479992476  0.0253397337041079
  0.4309831140123492  0.1005572210962882  0.0932975401800462
  0.4993555587500609  0.1914478470094707  0.3052424494509154
  0.4855468063345398  0.2731341773106450  0.3948601258424844
  0.4996887684404001  0.3865029052175117  0.5119486661639243
  0.5178302870339806  0.5136118753829493  0.6010306207286575
  0.5051024527501511  0.5961405580430821  0.7093871947023587
  0.4980982938209948  0.6976388674176377  0.7966327760757892
  0.4861422745911312  0.8025151788660025  0.9088152302399024
  0.4869148838195798  0.9024174468586494  0.0314685865108189
  0.5270486416552771  0.0161682391478521  0.1167242729886411
  0.5263767474195191  0.0946558627515657  0.1924266738935785
  0.5962184795211414  0.1918113903944985  0.4159143714945586
  0.5809391431399362  0.2769872602158614  0.4991614997407723
  0.5888912452278845  0.3960449884526582  0.5630551001555375
  0.5904065150586817  0.5072583499080920  0.7102972649290678
  0.6205911669887385  0.6001658038365463  0.8140361761794779
  0.6055350167318636  0.6863187731536016  0.9223030362445215
  0.5872973771032690  0.8216107126360939  0.0077558123203119
  0.6029786727624042  0.9046504029787457  0.1207964189093644
  0.6263867851251348  0.9724931583164462  0.2137019526794575
  0.6045614464815969  0.0809816397228644  0.3142497407739100
  0.6945171607673117  0.2053836758259919  0.5219418046849214
  0.6875576966583381  0.2919705957486940  0.6006704991280571
  0.6945419668190596  0.3920998948956012  0.6922942475373546
  0.6933144539755887  0.5069726351510582  0.7855001512937747
  0.7219159202526271  0.6003324433237509  0.8893509379271336
  0.6910624202290592  0.7128535306593733  0.0106159626714444
  0.7057842630909192  0.8158830664090146  0.1111382052128036
  0.7445988080312986  0.9037614191450274  0.1959896007918189
  0.7265643974171638  0.9876647028326317  0.3097458537964854
  0.7028226431635005  0.0851688325399422  0.4286953975585632
  0.7827466955743034  0.2145378159023394  0.6028329250129616
  0.7732116119149737  0.3126737870575482  0.6854343677239925
  0.7668819691756639  0.4177500570297425  0.8076494598670863
  0.7971389805344771  0.5067785709572519  0.9108500999198768
  0.8019915308479071  0.6206253169628155  0.0033368605363648
  0.8055845680350657  0.7072995258519086  0.1149156878917879
  0.8294955700617450  0.7851771829193552  0.1938665749163420
  0.8220279775651633  0.9027872818965932  0.3142246910496311
  0.8138961068954131  0.0105282641278208  0.4207575665739753
  0.7988707866333584  0.1021426445774622  0.5176557373804016
  0.8994749102135060  0.2123533185652988  0.6813596941132118
  0.8781206541923936  0.2996130583965666  0.7920761907904037
  0.8692561007682542  0.4112776825187368  0.9177674209360447
  0.8932079238346589  0.4970915902342483  0.0271932318423893
  0.9218386327001937  0.5998856662110583  0.0987416269972172
  0.9271967478908394  0.6806173516519749  0.2145596177593418
  0.9033245345713325  0.7793094532686027  0.3143035485695407
  0.8953599231748157  0.9029522415987188  0.4263594688221701
  0.8987101498798111  0.0004222312296775  0.5229054371494541
  0.8871473643776184  0.1198885997077781  0.6245506188433794
  0.9982643974171665  0.2259850011783016  0.8001810901635480
  0.9711787203657423  0.2978633454305495  0.8902702366027242
  0.9993313423198344  0.3729415935334899  0.0094201428100078
  0.0079012749210534  0.5063181189612109  0.0947456384031682
  0.0142266036668701  0.6181899241174520  0.2055242720459987
  0.9985078922562067  0.7084080289390613  0.3394978719894439
  0.0145103657444494  0.7903172253381712  0.4070237592496611
  0.0058462251967768  0.9013959862374534  0.4906512881180163
  0.0079176825187375  0.0003748385728457  0.6290583126737985
  0.9713500603289802  0.0854196149314248  0.7187475472498477
  0.1047020705094965  0.2162203746995317  0.8920978276853475
  0.0953538450299263  0.2881807154640157  0.0105521751425712
  0.1078538586982134  0.4044546401470512  0.1124321068011511
  0.1143142974972875  0.4843798303247411  0.2006389202054990
  0.1157105340057498  0.5857241612857607  0.2915888198143008
  0.1231797379459891  0.6964966446717256  0.3914795602582828
  0.1049416086157322  0.8088080449639463  0.4536280331809408
  0.0915176386859571  0.9129922802469750  0.5880866979309047
  0.1346128321628868  0.0163348758071393  0.7153732205307080
  0.0905110472734094  0.1119462468775012  0.7853269383041876
  0.3106587241363030  0.3135039939671032  0.0040120224348428
  0.3149097605693569  0.3858152882122852  0.0997137729179443
  0.3052139930244593  0.4940135815619584  0.1864688740161213
  0.3192150049488589  0.6056660484517167  0.3039137045765159
  0.3071134382806235  0.6971997784795221  0.4014504439835989
  0.3015239722863754  0.8039955125606824  0.4895825814205566
  0.3069526568317826  0.8944491172173272  0.6012694815478170
  0.3108576316161589  0.0160400169675228  0.6994949903379393
  0.3218351454022752  0.0892201428100137  0.8128430772493758
  0.3062123391619949  0.2086724324833824  0.8866484842343425
  0.4128178847150892  0.2728093396804425  0.1320885959372191
  0.4058629127586357  0.4010586044209816  0.2251180077296482
  0.4056623203091831  0.5208443229485766  0.2900168742046461
  0.4100432898147730  0.5940015605410736  0.4083693839845424
  0.4075056869491434  0.7121921360229990  0.4994071876325563
  0.4084975001178321  0.8039817184333344  0.5977345529528222
  0.3955806725738782  0.9165438747230965  0.7162553494839017
  0.4046057741433771  0.0051417782909908  0.8054477282367927
  0.4278569745958407  0.1058312023377468  0.9135928745817026
  0.4177967078286287  0.1994494405429634  0.9881492741669433
  0.4938094556252040  0.3036770867700440  0.1954200410048514
  0.4811409237875282  0.4089282141678865  0.3057916086157348
  0.5153027708912674  0.5066905509732749  0.4151337502945722
  0.5058328354621295  0.6250570825281585  0.4898874708959795
  0.5112486840740900  0.6963014577932825  0.6033316053164910
  0.4576386718197654  0.7937085620021662  0.7044533770090027
  0.4986848649667692  0.9097277673563653  0.8188591855587504
  0.5088253405288228  0.9895406989678079  0.8987828632700214
  0.5301852099731335  0.0900806179007390  0.0068824772587988
  0.5120977692416488  0.1941483711174996  0.0986828660979384
  0.5801417146627728  0.2813052080878506  0.3243861837205984
  0.5901172074280083  0.4074161917330414  0.4078251397464285
  0.5908766988735437  0.5295451750954427  0.5024621077437885
  0.5886252443795073  0.5991411448366861  0.6218169543290770
  0.6100012471131606  0.6957436192675672  0.7157605655842048
  0.5838648649667704  0.7945533831361615  0.8123645373992545
  0.6011598119432549  0.8931079129942958  0.9119804373851181
  0.6118446797379491  0.9807746745534232  0.0110492392892496
  0.6242812777489775  0.0967469345336269  0.0800211523778103
  0.6055444256963725  0.2219505043125807  0.2026829221850406
  0.6670261983315271  0.2876208945656771  0.3900914823019264
  0.6861003916670612  0.4068662581891900  0.4741347466654133
  0.6780792732242986  0.4963353292171391  0.5767028816515065
  0.7040624683037180  0.5874636348211340  0.7046609916576330
  0.7104152896262406  0.7141454055710028  0.8025376895885401
  0.7138647014186716  0.7808885106282730  0.8943456468869329
  0.7025609520667402  0.8649209685629415  0.0275871796201130
  0.7069447089597958  0.9898661832492834  0.0949322995710986
  0.6957821610029669  0.0884012777489716  0.1901730631097678
  0.6787631884809358  0.1866056487722076  0.2826689993872833
  0.7699538233491978  0.2967443022104916  0.4790740250742331
  0.7711235056794052  0.4013152646462714  0.5642979172361819
  0.8064731583164431  0.4771035947589226  0.7043304058066653
  0.7875694542112441  0.6300675090729158  0.8031726907668357
  0.7964929594193322  0.6838850106047047  0.9077467921949349
  0.8185343846915174  0.7871565004477574  0.0129261672243928
  0.8222134618466299  0.8870062629023892  0.0860823184239052
  0.8134601244285236  0.0033954343215328  0.1806164839515461
  0.7769011773577787  0.0942824018475719  0.3037668355563952
  0.7760157868690172  0.2124407602394314  0.3963241443182355
  0.8654639939671043  0.3114911787717389  0.5968333515577129
  0.8677364792383457  0.3959971155205722  0.6953692854786269
  0.9012120394023668  0.4946926667295060  0.7977146241221647
  0.9119010387896509  0.5907414738181629  0.9258407772069575
  0.9271876910025014  0.6975898826412816  0.0023143861054820
  0.9095830216335941  0.7873470980817245  0.0943294664655667
  0.8924640802186943  0.8944392854786258  0.2025879177074970
  0.9079347900268644  0.0096412461705242  0.3181078743460404
  0.8855853249752528  0.1202919710609436  0.3766074925767100
  0.8887379431587874  0.1961562176556555  0.4845930753640957
  0.0008780977518015  0.2998632671914052  0.6853121666588109
  0.9749062228401755  0.3991406155441410  0.7958730126785127
  0.0125179723806355  0.4789098175990958  0.9219644700004679
  0.0262503954376214  0.6038870137154149  0.9979256662110600
  0.0187677183390704  0.7110085544610456  0.1017533576848777
  0.9903355031342826  0.8072492242070055  0.2078983018334384
  0.9886693896403855  0.9011296564075977  0.2929255422538546
  0.9767548399868033  0.0029476071075081  0.4112577984634953
  0.0019812749210573  0.0984375189706341  0.5001373196022030
  0.9904645944289925  0.2063072135551707  0.5832029433944470
  0.1134047372390086  0.2899821614742919  0.8010308955083190
  0.0977846293066875  0.3744977098553051  0.8983811717019350
  0.1128353688080281  0.4794131630296476  0.9870714309280260
  0.1177006094169784  0.6050243710232337  0.1071964203233264
  0.1042946231795270  0.7117737545364591  0.2167074671254170
  0.0822414403544300  0.8194033284630251  0.3060960281849461
  0.1080221902248226  0.9179108446057427  0.3864177753688054
  0.1121988989960911  0.9928024716029569  0.5029444280529773
  0.0893688876844010  0.1124877480322368  0.6132683140877617
  0.0982771357873418  0.1879015303765854  0.6797077697129694
  0.1981918928217965  0.2834337356836514  0.9109954701418701
  0.1978507871046773  0.3852573106471198  0.9960188711881983
  0.2100250332280709  0.5075686986850201  0.0956659494744798
  0.2181090380355357  0.5784494659942467  0.1954661375312270
  0.2242856525427754  0.7092034986096039  0.2993694004807494
  0.2125161092520145  0.7934570047603344  0.3880497370033495
  0.1914901267851263  0.8953868874016138  0.4747493151717990
  0.2112936805391925  0.0019099778479514  0.5857823773389228
  0.2048795206673901  0.1033050610359609  0.6815708290521769
  0.2119606094169768  0.1716746359051697  0.7930927459112951
  0.4155394367723986  0.3898739081868285  0.9843410863929876
  0.4022376509402861  0.4842517080642850  0.0754909482961779
  0.4024602700664559  0.5997195663854455  0.1770816359523053
  0.4026216119149737  0.6843494254607165  0.2942539383513250
  0.4118288905123251  0.8042432177027834  0.3859143639534324
  0.3829019644624623  0.9021458415421577  0.4974039760569369
  0.3976794018947061  0.9985047386529686  0.6142202384880022
  0.4337959659706812  0.1086642013479775  0.7173275005891497
  0.4056436447188574  0.2362876928877782  0.8093704732054476
  0.4237096681906038  0.3052618984776387  0.8797477814959720
  0.4994066602252900  0.4057853004666043  0.0986753579676645
  0.4929138935759028  0.5058472258094895  0.1909213654145248
  0.5174032926426904  0.6157590182400909  0.3111652014893735
  0.5196760197011798  0.7385783324692454  0.3774065904699029
  0.4939667516614037  0.8239868661922074  0.5113922119055445
  0.4899408818400346  0.8975818145826437  0.6171835353725754
  0.5008176316161581  0.9982410204081660  0.7096019592779399
  0.5139980246971732  0.1218929325540827  0.8235063661215065
  0.5427354776829887  0.2178951293773892  0.9191711094876780
  0.5025118291935726  0.3088017245604959  0.0272717990290801
  0.6013689329311376  0.4084114007635407  0.2170258933873797
  0.5788304633077246  0.5098125319319422  0.3067908757128706
  0.6155511269265190  0.6358956586699378  0.3962071414431847
  0.5970330565112860  0.7122445991421955  0.5136625691662360
  0.6074521807984183  0.8039093373238444  0.6199011594476147
  0.5696549794975709  0.8988487288495079  0.7326905566291160
  0.5889644374793761  0.0161922180327068  0.8223860649479207
  0.6156280265824563  0.0878670320969022  0.9316291407833361
  0.5952475891973421  0.2289122397134378  0.0118817245604959
  0.5952377140971876  0.3237778531366331  0.1127849818541762
  0.6984270490644278  0.3982782165244885  0.3063148989018245
  0.6914119757741446  0.5041643149361335  0.3751009143611270
  0.6935947282839265  0.6222678366404324  0.5150046849224665
  0.7012529259556004  0.7016668148183030  0.6273963293585325
  0.6878737898854723  0.8043866786067753  0.7256032030918576
  0.6936784776358564  0.8940304826318481  0.8198332888721325
  0.6930227138615237  0.9859692128953199  0.9164083216288788
  0.7093045487109393  0.1152883484941327  0.0246721911674612
  0.7148851421030287  0.2160222505537988  0.1120479459867099
  0.6977561233916205  0.3045130715935329  0.1978565678465358
  0.7970485714285687  0.4105878262713887  0.4046087175378261
  0.7866047410095689  0.5274133916199304  0.4746342211434253
  0.7834854140547662  0.5833524381392294  0.6001124305981023
  0.8063436833671105  0.7092718782108705  0.6823038021397920
  0.7892338082669568  0.8021232747325229  0.7947909473535404
  0.7990761511995075  0.8866391228731700  0.9250278272140235
  0.7897365551208964  0.0124606485365533  0.9881625027100895
  0.8052373186595645  0.1203230527407300  0.1175980760710758
  0.8090630517980841  0.1953061384738675  0.1965607475137858
  0.7943791704765033  0.3208134741009587  0.3148186963284161
  0.9050228227364840  0.3928668605363654  0.4920058924447375
  0.8858738021397912  0.5165992571994167  0.5761352113870970
  0.8748477046707848  0.5868251241928633  0.6800426558891459
  0.8831020950181454  0.6820135235895748  0.7850331644436039
  0.9029043017391700  0.7745994697648086  0.8966910967620336
  0.9062859819955662  0.9061268487533596  0.9722736319932110
  0.8874866837913018  0.0110780284677361  0.0929382622425408
  0.9018387015129363  0.0898832624782031  0.2085866918037453
  0.8970110345477664  0.2098376094641097  0.3102300673987841
  0.9026600772965097  0.2919048692086506  0.3924252429655439
  0.9888768181175465  0.4005233336475484  0.5957402879766249
  0.9943350200311087  0.4957428717537837  0.6848842366969876
  0.9675016072017755  0.5901596323702663  0.7789756336899671
  0.0045776980723033  0.6799713804967737  0.8797193660743758
  0.9697727289437736  0.8163783932695452  0.9964541188669429
  0.9901050096620665  0.9100569585709550  0.0866877913936932
  0.9691353164914958  0.0032800871942342  0.1766232271291912
  0.0076272856671551  0.0835406202573381  0.3241658575670456
  0.9911771866899173  0.1883442772305202  0.4073773709761070
  0.0016813008436642  0.2851540660790874  0.4840988466795508
  0.0891156275628049  0.4200880605175072  0.7132267318659586
  0.0716989583824272  0.5067402851487017  0.8078994471414447
  0.0788808257529325  0.5959427313003687  0.9032713569307660
  0.1084642814724077  0.7007218777395465  0.9925507107508125
  0.0781283993967108  0.8142999688928683  0.0835717330442591
  0.0812929763868624  0.8941996154027407  0.1874771164632136
  0.1001333034830552  0.9909314427110303  0.2951915086958579
  0.0907417490691458  0.0791497539708743  0.4218178620917215
  0.1248632737898845  0.2066891959277939  0.4964409996700780
  0.1027913903944935  0.3241501267851277  0.5925094839044149
  0.2125895069991017  0.4136709407550541  0.7864322613941681
  0.2077223825234498  0.4765692058255198  0.8762797464297520
  0.2147261134938958  0.5775463609369851  0.9840954074562873
  0.1862116958099662  0.7225202865626628  0.0789836192675679
  0.1780347593910534  0.8134982759108240  0.2097705057265387
  0.1952738139227961  0.9092294028373473  0.3045476773342131
  0.1913420667389332  0.0064607248904167  0.4046653433567400