Li 
 1.0000000000000000
    21.2169999999999987    0.0000000000000006    0.0000000000000000
     0.0000000000000006   21.2169999999999987    0.0000000000000000
    -0.0000000000000006   -0.0000000000000006   21.2169999999999987
 Li 
 500
Cartesian
 -0.4861416500000000  0.5750825400000000 -0.3907935500000000
 -0.2148732700000000  2.0010966099999998  1.8988815000000001
 -0.3825933700000000  4.0752536199999998  4.8278969399999996
 -0.2273597400000000  6.6849594200000002  6.5249629100000002
 -0.1175049700000000  8.6762537700000006  8.3229921699999991
 -0.1515971000000000 10.6869049900000004 10.5354246299999996
  0.1119543300000000 12.6805604899999995 12.4805166399999994
  0.1466950200000000 14.7667154899999993 14.7477429799999999
 -0.3153966500000000 16.9027073500000000 17.1048423900000017
  0.2575725200000000 19.5511907799999989 18.7838199199999991
  1.9319070300000001  0.4997087200000000  1.9308520300000001
  1.7058059999999999  2.2430990799999999  4.3383640699999999
  1.9485315400000001  3.8582556299999999  6.3776359200000003
  2.1740121800000001  6.3775036099999998  8.3499769599999993
  2.3504007599999999  8.6084764000000007 10.0915186299999995
  1.9332096100000000 10.3057901199999993 12.7421155800000001
  2.1830608699999998 12.6936297499999995 14.1929764800000004
  1.3680479900000000 14.8536178799999998 16.6822900700000005
  2.1323995600000001 16.6805277700000012 18.9186134400000014
  1.6639900999999999 19.6567983099999992 21.1945450700000002
  3.8972113199999998 -0.0978099200000000  4.1732782899999998
  3.8252872899999999  1.7241316000000000  6.3673621400000000
  4.6578930700000001  4.1474678400000000  8.5095374199999991
  4.6687302400000004  6.4610053000000001 10.3531921300000000
  3.8929494099999999  8.4669214600000000 12.9234815100000002
  4.5560175100000002 10.6809876100000007 15.2254760299999994
  3.8408722000000002 12.9409639599999995 17.0488165299999999
  3.8408834900000000 14.8366129600000001 18.8891665499999988
  4.0325182599999998 17.3109097100000007 -0.0011365100000000
  3.7748221200000001 18.9555012900000008  2.4920453100000000
  6.2364662199999996  0.3701927800000000  5.8419486000000003
  6.5776363699999996  1.7224430300000000  8.3743381800000005
  6.3627192299999997  3.7984858400000001 10.8453956199999997
  6.5630455300000001  6.3898387400000001 12.6914206200000006
  6.4024717100000004  8.5621112700000008 14.8679131600000005
  6.4068674400000001 10.8415876799999999 16.8985386200000001
  6.1606941300000004 12.5946420600000000 19.2248658200000015
  6.2858439400000004 15.0782603300000009 -0.0207241200000000
  5.9841063800000001 16.9811663300000006  2.6409849599999999
  6.7522801200000000 18.9338415600000012  4.5134653100000000
  8.3909612500000001 -0.4542599300000000  8.4642095800000003
  8.0609193000000001  1.5910012700000000  9.9709598800000006
  8.8322076799999998  4.2864487799999997 12.8556645799999991
  8.4757238800000003  6.5780905599999997 15.1088479400000004
  8.9861263999999998  8.4770293900000002 16.8261347599999986
  8.4337771299999993 10.4939579599999995 18.7519639799999993
  8.2091507999999997 12.8195037000000003 -0.1720589600000000
  8.1702388199999998 14.8839856499999996  2.1023056699999998
  8.7767536800000006 17.1322197500000009  3.6934874299999998
  8.3834161999999992 19.2700342999999990  6.1339803200000000
 10.7300874900000007 -0.4195566700000000 10.3826274999999999
 10.3900560399999993  2.0173240099999998 12.4256861700000005
 10.7975924499999998  4.4229416600000002 14.8581631999999999
 10.8960237499999995  7.0530467999999997 16.9400159499999994
 10.8223170300000007  8.2710636599999994 19.3727188000000012
 10.2858296899999999 11.1667890700000001  0.2084698400000000
 10.6721323300000002 12.3275222899999992  1.5278107200000000
 10.7139065599999999 14.0225541400000004  3.9734948299999999
 10.6357577499999998 17.3180880899999998  5.8020743399999999
 10.9787260999999994 18.8572322999999997  8.4100196599999997
 12.5426040299999997 -0.2119408900000000 12.7183729499999991
 12.2351661099999998  1.8420204400000000 14.4700134699999996
 12.7866885900000007  4.4388137700000003 16.8508719199999994
 12.8727605799999996  7.2117505299999998 19.1418422300000017
 12.8042539099999999  8.7101549800000004 -0.0841917600000000
 12.7732325899999992 10.3743260599999996  2.2796287300000002
 12.8178859799999998 12.3128575500000004  4.4912943900000002
 13.0612775499999998 14.4818333300000006  5.9541136100000003
 13.0112239600000006 16.9191478099999983  7.9074901200000003
 13.1150159599999991 18.4874727800000009 10.6790609599999993
 14.7968116500000004 -0.2886088100000000 15.0002072900000005
 14.3336772000000003  2.0789903399999998 16.8840723299999986
 14.3690976999999993  4.0101504900000000 19.2741611199999987
 14.9400833399999993  6.7529614000000002 -0.1213972900000000
 15.0258909999999997  8.8958779000000003  1.7665587500000000
 15.0899749900000000 10.0958145899999998  4.4147232000000001
 14.8111879999999996 12.8271051800000002  5.7983094599999996
 14.8204367099999992 15.1365246100000004  8.4177523900000004
 14.8961117099999996 16.9288631800000005 10.8112554000000003
 15.0865772299999996 19.3225268700000008 13.3214632999999996
 16.5566596399999995 -0.2044128700000000 16.5551082100000002
 16.5597155600000008  2.5968589199999998 18.6855504600000017
 17.2116523699999995  4.7470821599999997 -0.1132242100000000
 17.0176428800000004  6.3424667299999999  2.4916447200000000
 17.0197965999999994  8.7695126499999994  4.4597641799999996
 17.1913791300000014 10.6188399699999998  6.2602825299999996
 16.5344061499999988 12.7706599500000006  8.0423784400000002
 16.8930270900000004 14.7232072899999995 10.9613280599999996
 16.9806522199999996 16.7333293300000001 12.4981592399999997
 16.8473665500000003 18.8035634899999984 14.7149794800000002
 18.3553648900000006 -0.0309591200000000 19.2670496399999998
 18.5016165999999984  2.3895917000000000 21.3206748300000015
 19.5225930500000011  4.3917234900000004  1.8684111900000000
 19.0423033199999985  6.8302141199999999  4.5379602400000003
 19.4650756600000001  8.6534169300000006  6.5651194300000002
 18.8342437400000016 10.7475303300000000  8.6490129800000002
 19.2519464300000003 13.2907320599999998  9.6463818999999997
 19.2595778700000011 14.8496278400000001 12.5161595600000002
 19.3687373200000010 16.6966968700000002 14.5134318899999997
 18.8427650100000008 18.5518221899999993 17.3264548599999983
  1.7356363699999999  2.3860070200000001 -0.5376690300000000
  1.8438703299999999  4.0237317700000004  2.0059184200000000
  2.1161944699999999  6.3820292700000003  4.1374025999999997
  1.8747447699999999  8.1224784200000002  6.1516792999999996
  2.6683468200000000 10.5114716099999992  8.2400760500000008
  2.4962774699999999 12.5173767500000004 10.7895271000000008
  2.4108376599999999 14.9026472699999992 12.0514310699999996
  2.1670046599999999 17.1210520700000011 14.9325492600000000
  2.4955331599999999 19.4363067700000016 17.2378383500000005
  2.0340700799999998 21.5604129399999991 18.7046571399999983
  4.0327375099999996  2.3655333299999999  2.0672022999999999
  4.1721107399999999  4.0478576200000003  4.2198090700000002
  4.3205913300000001  6.2154786099999999  6.4257294500000004
  4.5954901499999998  8.5048575999999994  7.9569360199999997
  4.5958437900000000 10.0498568400000003 10.5502147700000002
  3.9394080200000001 12.2899422900000008 12.5135359600000005
  4.3927185599999996 15.0973010700000003 14.6199571000000006
  4.0545295200000000 16.5706970499999997 17.4082869100000011
  4.2644496399999996 19.4870548899999996 19.2822334700000013
  4.1428403899999999 21.4237599600000017 21.3714448099999998
  6.3234394299999996  1.8034359400000000  4.1544220799999998
  6.7904345499999996  3.9943296799999999  6.3110151300000004
  6.6654728700000003  6.5150882499999998  8.3209168699999996
  6.5551447700000001  8.4206621699999999 10.4965890200000000
  6.3734136899999996 10.5740961000000002 13.1768119499999994
  6.9299618699999996 12.9259374299999994 15.0938219399999998
  6.4245471199999997 14.7025662599999993 16.9306439100000006
  5.8021420800000003 16.7894108399999986 19.0738707500000011
  6.3987910799999996 19.0193788400000017  0.5072630400000000
  6.3156931399999996 21.1990662900000011  1.7081952600000001
  8.7992895200000003  1.9617925700000001  6.4570223999999996
  8.7103544900000003  3.7685395300000000  8.6981718099999998
  8.6133594799999997  6.4461350700000004 10.5791660099999998
  8.4976148200000008  9.0280942399999997 12.7240793900000000
  8.6082951699999999 10.8914250500000005 15.2940702599999998
  8.4379159099999992 13.3481217999999995 17.2325567600000014
  7.8902620600000004 15.0260785000000006 19.5404520599999998
  8.1034841400000008 17.0885746599999990  0.5793809500000000
  8.7200510999999992 19.5576725300000014  2.7009450600000000
  8.9504555799999999 21.7072083800000009  3.8248219699999999
 10.1487999799999997  1.6805008600000000  8.3093847600000004
 10.6258911699999992  4.0922691699999998 10.7032238900000003
 10.0303017699999995  5.9561279000000003 13.1173129599999996
 10.3909046200000006  8.8206251299999998 14.1791803000000005
 10.5609986199999994 11.1974919600000007 17.1257790700000001
 10.2692592699999992 12.7415638300000005 19.0263868299999999
 10.5468117299999999 14.9902172500000006 -0.2664352600000000
 10.4446966999999997 16.8892299100000010  2.4219387299999999
 10.9626361800000005 19.2300143299999995  4.5120085000000003
 10.5969071499999998 20.8047336999999999  5.9589544900000000
 12.5688525400000000  2.0314996399999998 10.8463344100000008
 11.9216143999999993  3.7682741200000001 12.9084861100000001
 12.8382078800000006  6.5442743300000004 14.5615004100000007
 13.0037367800000006  9.0063960299999994 16.3668020100000007
 12.7941556100000007 10.0792615800000007 19.0661546599999987
 12.8435040100000002 12.4759926599999993 -0.1885869100000000
 12.7855244700000004 14.8748678999999999  1.9316789700000001
 12.7063688999999993 17.3275035600000002  3.9719031600000001
 13.3381083500000006 19.3050387699999995  6.5511471200000004
 12.6404359199999998 20.9577136099999990  8.5649652900000000
 14.6853296199999992  1.9713643300000001 13.2581742200000008
 14.3335730699999999  4.0573803899999996 14.5123282600000003
 14.5994778699999994  6.0024075100000003 17.0728745800000006
 14.8453733200000002  8.9482859000000001 19.3018394300000011
 14.8481718600000008 10.7605627500000001  0.1899452900000000
 14.5396214799999992 12.8061037899999999  2.3267959800000000
 14.9607426399999994 14.7431786400000000  3.9122632400000001
 14.8628158500000005 17.2580465200000006  6.0367765999999996
 15.0091010800000006 19.0547559799999995  8.4634943000000007
 14.1867233299999995 21.1024055699999984 11.1246962499999995
 17.0885188100000001  2.5092388600000000 14.8392978099999997
 16.3990349199999983  4.2317833599999997 16.8303033000000006
 16.8783266199999993  6.2721249500000003 19.1557215399999983
 16.5854938599999997  8.1135073000000002  0.2010233800000000
 17.1537111700000011 10.8887915399999997  2.3138391000000000
 17.3052204299999985 12.7489492000000002  4.8383059900000003
 16.5196337299999989 15.2302246399999994  6.4307264599999998
 17.0016567599999995 16.5450062200000012  8.8408021500000000
 16.7160316000000009 18.7134376499999995 10.6548078299999993
 16.9087171900000008 20.7276302299999990 13.0078562499999997
 19.1127905100000000  2.6727849300000002 17.0112120800000000
 18.7570173900000015  4.1222063999999996 18.7877208600000003
 19.0100276800000003  6.3181284299999998  0.0217248100000000
 19.0481127199999989  8.5034433099999998  2.1225720300000002
 19.3389307600000002 10.4422030499999998  4.2429450700000002
 19.4502920199999991 12.4193833999999992  6.0505734899999997
 19.2988575400000002 14.7684741000000006  8.5963567899999997
 19.2951743100000002 16.9811047299999984 10.6237852799999999
 19.5873035999999985 19.0414871300000001 12.7688793000000000
 18.7098189200000000 20.9544358799999983 15.5152131900000008
 21.5522221099999989  2.4111246899999998 18.5872604099999990
 21.1817812600000011  4.1279872600000003 20.7271004400000010
 20.9432226399999983  6.2904942999999998  2.2297809800000001
 21.2781230800000003  8.3661812799999993  4.0378279499999996
 21.3633406100000016 10.4523020399999993  6.1324852400000003
 21.7619476399999989 12.2102361199999994  8.3347599599999995
 21.5383600100000017 15.0169367999999999  9.8866208300000000
 21.5486476700000011 17.1060528199999986 12.7321876599999992
 21.5000277799999999 19.4196433299999995 15.1088265899999996
 20.9619989500000017 20.9440312099999986 17.1485872700000002
  4.1813102100000004  3.8094144800000000  0.0958616000000000
  4.6008589700000000  6.0634331599999998  1.8166423300000001
  4.4301049199999998  8.2789458099999997  4.5877829900000000
  4.6819473399999998 10.4774124900000007  6.5659209699999996
  4.5098990299999997 12.2399003799999999  8.2721825100000004
  4.0770882799999999 14.8634744699999999 10.5358389399999997
  3.9660807899999999 16.9309193100000002 12.0975024900000001
  4.2419501899999998 18.8839551400000012 14.8489103500000006
  4.7475273099999997  0.1396327700000000 17.1495654600000016
  4.2558899200000004  2.0934609100000001 18.8947456199999984
  6.5322152700000000  3.8886778700000000  2.1534123200000002
  6.4907412600000001  5.6362081699999997  3.9703174300000001
  6.6949132999999996  8.5024588500000000  6.4431356800000001
  6.2843900899999996 10.8961331200000000  8.3393270899999994
  6.3560005899999998 12.8451039199999997 10.5309342400000006
  5.9197403399999997 14.6501593900000007 12.3934756700000008
  6.7283531900000000 16.7936244799999983 14.7253528899999999
  6.0187605700000004 19.2085276900000004 16.9247267400000005
  6.6300113400000003  0.2779182300000000 19.2934800399999986
  6.3754624199999999  1.6765688100000000 21.3107461100000002
  8.5829918599999999  3.8637734899999998  4.5311963300000002
  9.0313328199999994  6.2578288400000002  6.4615827599999998
  8.4689937400000002  9.0684220900000003  8.2736845799999994
  8.7978649600000001 10.8761799700000008 10.5627642700000006
  8.6305577400000004 12.4603192800000002 12.6539831300000003
  8.4327438800000003 14.9260605099999992 14.6516347600000003
  8.3392337100000002 17.3243676600000001 17.1399504799999995
  8.2340995499999998 18.8534282500000003 18.9910100399999990
  8.7527867199999996 -0.4146894900000000  0.5376331300000000
  9.1441687300000005  2.1335225599999998  1.9794939100000000
 10.5948268900000002  4.0619489700000004  6.4763290500000004
 10.3018465900000002  5.7950878399999999  8.3777472900000003
 10.6018965999999999  8.2004321400000002 10.8620148499999996
 10.9868051999999992 10.8973031599999999 12.7520666800000004
 10.7167587399999995 12.6483142199999996 15.0510681099999992
 10.5681515000000008 14.8018038500000007 16.9021576099999997
 10.3144806399999993 17.0269645499999989 19.2823327400000011
 10.3308730900000008 19.1465909699999983  0.6676690000000000
 11.1823910299999998  0.3430415300000000  2.4765389000000000
 11.1681354499999994  2.0083134399999998  4.0827167400000004
 12.6499674800000008  4.0696622700000002  8.8244552200000008
 12.3257858000000002  5.8768387000000004 10.5907095400000006
 12.4945055499999995  8.4028865199999991 11.9463400600000007
 12.5266550300000006 10.7625004099999995 15.0703770699999993
 13.1670827900000003 12.7337178600000005 17.2714055500000008
 12.8476364499999995 14.5616254099999995 19.5685035200000002
 12.4606884499999992 17.4321144900000000  0.1645550700000000
 12.7933985000000003 19.1939676000000006  2.5629376200000000
 13.2900484199999998 -0.5836126600000000  4.5341143300000004
 12.8269802100000003  1.7181874500000001  6.6674367500000002
 14.7355706000000009  4.3576254499999996 11.0740392700000001
 14.5879116500000006  6.1947401299999996 12.7444259800000008
 14.7360969100000005  8.3191834700000005 14.6884070500000004
 14.7100527700000008 10.7564384000000004 16.6659567099999997
 15.3168900800000003 12.7372534500000008 18.8693588500000011
 14.6622713699999991 15.1246133599999997  0.2252388800000000
 14.9746247100000005 17.3105910200000004  2.3580193000000000
 15.7981529100000007 19.1751060299999985  4.1583113599999999
 15.4155168200000006 -0.2617180000000000  6.5718777800000003
 14.9117880199999995  1.8070271200000001  9.0956302499999993
 16.6075366399999993  4.5518488399999999 12.7903061699999991
 16.4052307699999993  6.6339997400000001 14.5428609800000004
 16.2709347400000013  8.8634029600000002 17.1358985900000000
 16.9128977499999991 10.7523209400000006 19.3255065700000017
 17.0158543100000017 13.1678073500000004  0.0707981700000000
 17.0920877800000000 15.0067740399999998  2.4381661499999998
 17.5994075099999989 16.6591042899999984  4.1132671199999997
 17.4409676000000005 19.1544377600000004  6.6669052700000000
 17.2684336999999992  0.2233781800000000  8.9272132899999992
 16.9496414800000004  2.1671604900000001 10.9831017800000001
 19.0841591699999995  4.5055003600000001 14.4564086300000003
 18.6310859200000003  6.3568902600000001 16.8054805400000014
 18.4430066900000007  8.7260785900000002 19.4722713700000014
 18.9511925199999993 10.5467922699999992  0.5769588000000000
 19.5586502700000011 12.7277741800000008  2.0950011000000002
 19.6723333999999994 14.4406583499999996  4.5523114099999997
 19.1658366499999993 16.5346086700000008  6.6685783900000004
 18.9968514900000010 19.1579377099999988  9.0460688499999993
 19.0679332499999994  0.0089584800000000 11.0944846600000009
 18.8226056300000018  2.5436764200000002 13.2510904800000002
 -0.0368242800000000  4.7947237700000001 16.9774421900000014
 -0.6115010900000000  6.3197666000000003 18.8888636100000014
 -0.0141869100000000  7.9127017899999998  0.1998671700000000
  0.1676413500000000 10.7425515300000001  2.0102182100000001
  0.3018458500000000 13.1161356199999997  4.3606084799999998
 -0.0316580500000000 15.0302931500000003  7.2031263499999998
  0.3078664300000000 16.7681605699999992  8.6358230999999996
  0.1240393600000000 19.1249186400000006 10.4101483800000008
  0.1679894700000000  0.0079529500000000 13.3467302199999995
 -0.6078657700000000  1.8123479700000000 15.2496667099999996
  2.2214638299999998  4.5875476900000001 18.9276396099999999
  2.0231225300000002  6.1143302400000001 21.4408855000000003
  2.2883353199999998  8.5813141000000002  2.3854720100000000
  2.4254064500000001 10.2770868600000007  4.2569559699999999
  2.4550304000000001 12.4273095300000005  6.1866399899999998
  2.6135044999999999 14.7775693100000005  8.3060218300000006
  2.2265461100000001 17.1604802899999989  9.6246259799999994
  1.9417297400000000 19.3709572100000003 12.4774354699999996
  2.8560804599999998  0.3465770600000000 15.1780736199999993
  1.9203728900000001  2.3751635200000001 16.6622816500000006
  6.5912461499999999  6.6516142399999998  0.0851230800000000
  6.6814403899999997  8.1858429699999995  2.1156271200000001
  6.4757252899999997 10.4814861599999993  3.9563101000000001
  6.7727847600000004 12.8504165500000003  6.4481370699999996
  6.5160258200000003 14.7924877000000006  8.5175740700000002
  6.3974341199999998 17.0583727900000000 10.3874736300000006
  6.5126145199999996 18.9775269199999990 12.7571345899999997
  6.5954663699999996  0.3403210400000000 14.8411852100000008
  6.8283762799999996  1.8929837700000001 17.2460915700000008
  6.4969071999999999  4.4274030000000000 18.8120208899999994
  8.7587570600000006  5.7881957599999998  2.8025237399999998
  8.6111934199999993  8.5092604099999996  4.7763287700000001
  8.6069374500000002 11.0507539999999995  6.1532880199999997
  8.6998884800000003 12.6029311100000001  8.6643732199999999
  8.6460481599999994 15.1105805499999999 10.5959222999999998
  8.6670914600000000 17.0580801199999996 12.6821340100000004
  8.3930351299999995 19.4463113900000018 15.1967897500000007
  8.5845207099999996  0.1090931100000000 17.0891844500000012
  9.0778414299999994  2.2454206200000000 19.3837000199999991
  8.8643927500000004  4.2317187799999996 20.9655631500000013
 10.4771552200000002  6.4431167499999997  4.1462270099999996
 10.2083669799999992  8.6762299200000008  6.4879805599999996
 10.9331788900000006 10.7504534199999995  8.8078927799999995
 10.7322552699999996 13.2618361199999999 10.3939424700000007
 10.8471633300000008 14.7734280299999998 12.8008866700000006
  9.7097197000000008 16.8401145600000000 14.9463872999999996
 10.5805967800000005 19.3016940400000010 17.3737353399999996
 10.7957472499999998 -0.2219149900000000 19.0694760099999989
 11.2489395999999999  1.9112404700000001  0.1460255200000000
 10.8651783700000006  4.1192459899999996  2.0937543700000001
 12.3088667600000008  5.9684526000000000  6.8825016600000000
 12.5205167900000003  8.6441493400000002  8.6528259900000002
 12.5366309200000003 11.2353599800000001 10.6607385400000005
 12.4888618099999995 12.7119776699999996 13.1930903199999996
 12.9423964599999994 14.7615923700000007 15.1862919200000004
 12.3878608400000001 16.8580391300000016 17.2359383900000012
 12.7548077299999996 18.9490705900000016 19.3494889400000005
 12.9815085700000008 -0.4079037300000000  0.2344317100000000
 13.2453758700000002  2.0526797100000000  1.6978087900000001
 12.8478360800000004  4.7091238500000001  4.3003235599999998
 14.1522948500000005  6.1024525199999999  8.2765709800000007
 14.5569920100000001  8.6324813999999996 10.0597169199999996
 14.3868079400000006 10.5307466800000000 12.2359050400000005
 14.9380933900000006 12.4642159400000008 14.9507922600000001
 15.0728811999999994 15.1520230700000003 17.0274421599999997
 15.1460673700000008 16.5681115299999995 18.9753315899999997
 14.9062357199999997 18.3510281900000010  0.5853171900000000
 14.9992458899999992 -0.2150091900000000  2.0141786000000002
 14.7624101099999994  1.8756099100000001  4.0349018799999996
 14.4013185700000008  3.9592120500000001  5.9973881599999999
 16.3361102699999989  6.2960238600000000 10.1645135900000003
 16.3609274199999994  8.5147059699999996 11.9727089099999997
 17.1109410000000004 10.1227069699999994 14.9437782200000004
 16.7098611099999985 13.3681423400000003 17.0409149800000002
 16.8991911200000011 14.5099882699999991 19.2596636900000000
 17.3668440400000001 16.7010994699999991  0.2742544900000000
 17.4449030200000017 18.8196118800000001  1.8264085500000000
 17.2591834599999991  0.0720409300000000  3.8321399399999998
 16.4835122799999994  2.0003897199999998  6.4450209500000000
 16.4647269499999993  4.5073556100000003  8.4088093700000002
 18.3625495600000015  6.6089083400000002 12.6630132199999998
 18.4107648799999986  8.4018707999999993 14.7536501300000005
 19.1210158399999983 10.4958943100000006 16.9251111799999983
 19.3478043399999997 12.5337618499999994 19.6435637700000001
 19.6721412399999984 14.8007645399999994  0.0491043300000000
 19.2986229700000003 16.7051433799999991  2.0013882900000000
 18.9354103900000013 18.9773183199999984  4.2983078499999996
 19.2636524400000013  0.2045583200000000  6.7492947699999997
 18.7894638399999998  2.5522347500000002  7.9904811699999998
 18.8563529400000007  4.1618464700000004 10.2816112799999999
  0.0186306000000000  6.3621989399999999 14.5402682399999996
 -0.5324146700000000  8.4685664400000000 16.8860377100000001
  0.2655938200000000 10.1610296000000009 19.5613201600000011
  0.5569546399999999 12.8126707700000004 -0.0440111400000000
  0.3981946800000000 15.0854684999999993  2.1589009899999998
 -0.2050516300000000 17.1274067899999984  4.4109782700000002
 -0.2404015600000000 19.1192679199999986  6.2150012300000004
 -0.4931925600000000  0.0625393800000000  8.7256567100000009
  0.0420367100000000  2.0885488400000001 10.6114135100000002
 -0.2023127000000000  4.3772201500000003 12.3738168500000008
  2.4061083100000000  6.1525515200000003 16.9954725099999990
  2.0746964800000001  7.9457179099999999 19.0609533199999994
  2.3940280199999999 10.1717090799999994 -0.2743054500000000
  2.4972538300000000 12.8368020800000000  2.2743864500000002
  2.2128190200000000 15.1017037500000004  4.5978823300000000
  1.7449166400000000 17.3852804200000008  6.4944394299999999
  2.2919068100000000 19.4753143900000012  8.1986259399999994
  2.3805240400000001 -0.1527099600000000 10.6709719300000003
  1.8961396900000000  2.3866525500000000 13.0117138200000007
  2.0851459900000000  3.9867067700000001 14.4213597500000006
  4.2050373900000002  6.0136135700000004 19.3285908900000010
  4.1978001500000000  8.1740043599999996 21.1325323900000015
  4.4561011300000004 10.7690850800000000  2.0297444499999999
  4.6276194600000000 12.2729623199999995  4.1472050400000002
  4.7586686900000004 15.0471706300000001  6.3517205700000003
  4.5089542900000001 16.8347772700000000  8.2332512700000002
  4.0628460200000003 18.9974235900000004 10.0727562200000005
  4.4830180200000003  0.0405240000000000 12.4285446999999998
  4.3469287899999998  2.1918234800000000 14.4608882800000007
  4.4971682499999996  3.6424207499999999 16.8270487899999992
  8.8165002300000008  8.2719547099999993 -0.3322351700000000
  8.5342762400000005 10.2743684900000005  1.6016914499999999
  8.5389995499999998 12.7242500399999994  3.7571410699999999
  8.5424227399999992 14.5198417600000003  6.2431858099999999
  8.7377735699999999 17.0636283499999983  8.1879450600000006
  8.1240309800000006 19.1408283200000007 10.5534201599999999
  8.4375638700000000 -0.0317249600000000 13.0319108000000003
  9.2038490100000008  2.3055283599999998 15.2195375800000008
  8.6065412099999996  5.0133159799999998 17.1724133300000013
  8.9898480299999992  6.4767416999999998 18.6656086799999983
 10.5959111099999994  8.6095467200000009  2.0935950700000001
 10.4581540799999999 10.7325605900000003  4.0507786100000001
 10.9777456600000001 13.0645590899999995  6.6019920799999996
 11.0259661100000006 15.6704164800000001  8.0074356299999998
 10.4804925699999991 17.4825293399999993 10.8502085600000004
 10.3950756900000005 19.0439933600000018 13.0947830700000001
 10.6258476900000005 -0.0373202700000000 15.0556247699999997
 10.9054960899999998  2.5862023500000002 17.4723345700000010
 11.5152186299999997  4.6230809600000002 19.5020534300000001
 10.6617934800000000  6.5518461900000000 21.7956257600000001
 12.7592446499999994  8.6652646900000008  4.6046383799999999
 12.2810459400000003 10.8166924899999994  6.5091820100000000
 13.0601482600000001 13.4917981900000008  8.4063269199999997
 12.6672503600000006 15.1116936600000002 10.8983787299999992
 12.8883129200000006 17.0565444100000008 13.1524429000000005
 12.0863697000000005 19.0708734799999995 15.5454955399999992
 12.4960584699999995  0.3435502900000000 17.4485651399999995
 13.0617798399999998  1.8642748200000001 19.7663754800000007
 12.6293681000000007  4.8568309899999997  0.2520945500000000
 12.6291585800000004  6.8695947100000003  2.3929589600000001
 14.8185266999999996  8.4502689199999992  6.4990832100000002
 14.6696878900000005 10.6968542699999993  7.9585160999999998
 14.7159993500000006 13.2026566899999995 10.9268543999999999
 14.8784833299999999 14.8872648099999996 13.3114679200000001
 14.5946181999999993 17.0666721599999995 15.3951231600000007
 14.7177762600000008 18.9686447499999993 17.3944028899999985
 14.7038629200000006 -0.2976912100000000 19.4434353599999987
 15.0493146099999997  2.4460728899999999  0.5234698800000001
 15.1677180600000003  4.5833440899999998  2.3773212699999999
 14.8042916699999996  6.4608538400000004  4.1979227999999997
 16.9109795399999996  8.7114419099999996  8.5845831599999993
 16.6893927899999994 11.1901299299999994 10.0703142700000008
 16.6232100299999992 12.3769886800000002 12.7325854399999994
 17.1081939299999988 15.0486214399999998 14.4764397700000007
 16.7451737099999995 17.0186495200000003 16.8630795300000003
 16.9539986999999996 18.8118222700000004 19.6263154100000001
 16.7558404900000006  0.2643775800000000 -0.2511561800000000
 17.0847201899999988  2.5528942099999998  2.4950783799999998
 17.1658907700000007  4.1438103399999999  4.1704293799999999
 16.8543428599999991  6.8066994799999998  6.6795082800000003
 19.2018692299999998  8.3354561799999995 10.4388890199999995
 18.7955844600000006 10.9606864399999999 12.2238607800000008
 18.5616437500000018 12.4506686599999998 14.4284650299999999
 18.7367771500000018 14.4702809299999995 16.6560486499999989
 19.1569205700000005 16.4346769500000001 19.0250950000000003
 19.2286696799999994 19.2252933500000012 -0.5882703500000001
 18.8298049700000014  0.2350425300000000  1.9718711099999999
 19.1343117300000003  1.9070531799999999  4.4255838399999998
 19.0318831199999998  4.4521245599999997  6.5821513400000002
 19.1517388599999983  6.1933456099999997  8.3260863799999996
 -0.2360005500000000  8.4979035700000001 12.6398216899999998
 -0.1201938800000000 10.5181765100000000 14.5311888499999995
 -0.6895184000000000 12.5214169200000001 16.5275260199999998
  0.0971250200000000 14.4269527800000006 18.6650057899999986
 -0.6413320100000000 17.3211003699999999 -0.0752329600000000
 -0.2099420100000000 19.3086784899999984  1.8392548700000000
 -0.6548559900000001  0.0695936100000000  3.7474150100000001
  0.1618281200000000  1.7724813399999999  6.8778269999999999
 -0.1871936300000000  3.9961005300000001  8.6433256800000002
  0.0356721600000000  6.0501138200000000 10.2711252300000009
  1.8907662700000001  8.9130083800000008 15.1325315699999994
  1.5212368000000001 10.7515086300000000 17.1412025700000008
  1.6736144799999999 12.6441169299999991 19.1647083800000004
  2.3012866600000002 14.8672160800000004 -0.1580515700000000
  1.6576502500000001 17.2770024400000004  1.7731414599999999
  1.7247930800000000 18.9722332400000013  3.9777019800000000
  2.1245283000000001 -0.1924075800000000  6.2630782399999996
  1.9252676900000001  1.6793203299999999  8.9497095800000004
  2.6492240800000002  4.3853246700000001 10.5329886899999998
  2.1809249300000002  6.8774932399999997 12.5712737200000007
  4.5105115700000002  8.7768563499999992 16.6857332900000017
  4.4072457900000002 10.1113688400000008 18.5920273800000011
  4.5558439499999999 12.2538011400000002 -0.3374477400000000
  3.9508535500000002 15.3297129200000004  1.6757954500000001
  3.7773634899999999 17.2599929199999984  4.4507008199999998
  4.1431245099999998 19.2911202400000015  6.4615880700000004
  4.0597046299999997  0.1370772000000000  8.5857845899999994