Li                                      
   1.00000000000000     
    22.7325000000000017   -0.0000000000000006    0.0000000000000000
    -0.0000000000000006   22.7325000000000017    0.0000000000000000
     0.0000000000000006    0.0000000000000006   22.7325000000000017
   Li
   500
Direct
  0.9848787493676454  0.9914912059826264  0.0102977376003537
  0.0157035491037050  0.1102984951061288  0.0953365639502906
  0.9791432182997895  0.2005050949081735  0.1808882982514035
  0.0097073419113585  0.2917368767183532  0.2939381330693962
  0.0259652145606495  0.3778917343011088  0.3890143266248742
  0.0125793480699414  0.5019662505223792  0.4967004790498208
  0.9900585316177271  0.6127206110194621  0.6088987022984682
  0.0053853821621033  0.7171264181238328  0.6996111250412440
  0.9999767878587917  0.8050460525679100  0.7999286431320769
  0.9849623622566810  0.9095533381722234  0.9064348782579970
  0.0999748518640686  0.9894976601781593  0.0927983297041663
  0.0975713762234705  0.0993793872209423  0.2017188536236674
  0.0761800708237104  0.1912833106785428  0.2699927460684037
  0.1254698365775866  0.2912896808534029  0.3862173570878724
  0.1158955271087621  0.4040556036511589  0.4849134494666245
  0.0941794721214109  0.5053218612119181  0.5992018594523287
  0.1204499821840983  0.6122713603871119  0.6954794598042469
  0.0955851837677315  0.7192504823490609  0.7985208463653350
  0.0676329413834793  0.7952441891564916  0.9096438332783450
  0.0728892532717467  0.8972364130649950  0.0123419659078436
  0.2096913032002661  0.0075934688221722  0.2152690152864807
  0.2246815299681089  0.1120170223248635  0.2931218040250769
  0.1954192772462306  0.2189851287803819  0.3755996828329486
  0.1872670203453239  0.2603535022544818  0.5085176377433172
  0.1982891322995712  0.3842575167711431  0.6037636485208395
  0.1750721425272204  0.4919220472891226  0.6915162634993948
  0.1985126576487417  0.5936181827779592  0.8157898942043360
  0.1954017573957998  0.7033153564280212  0.8947773135378867
  0.1902023077092281  0.7987971120642285  0.0314507071373598
  0.1927306952600887  0.9041458273397112  0.1346447297921500
  0.2960833361926731  0.9975492453535679  0.3033769972506306
  0.3058297921478044  0.1146748668206286  0.3699093073793023
  0.3003902716375251  0.1823351804684918  0.4933604689321456
  0.2911147282525022  0.2876172827449679  0.6221820899593098
  0.2850296153084813  0.4294307018585712  0.6998010962278656
  0.2903661053557656  0.4966253258550566  0.8097390410205634
  0.2989070216650163  0.6061903442208276  0.8865264515561435
  0.3169802727372684  0.6830076903112285  0.9994073203563190
  0.3075913062795550  0.7712523162872529  0.1219772889035511
  0.3062066974595865  0.8824064497965480  0.2124373504893882
  0.3898955653799661  0.0026282863741329  0.3918968164522170
  0.3884682472231376  0.1099988747388068  0.5015856782140133
  0.3986483228857338  0.2043325340371709  0.6003599010227632
  0.3799067454085545  0.2984157039480948  0.7027665800065961
  0.4119745610909504  0.4051455735180909  0.7900015787968755
  0.4035333584075644  0.5132327645441563  0.8996602001539671
  0.3909674017375977  0.5842336258660481  0.9992210249642568
  0.4024760822610816  0.6742210825910036  0.0982590251842055
  0.3995728234905940  0.7901205168811174  0.2066641979544670
  0.4033435376663377  0.9051045397558539  0.2810387933575242
  0.4989056817331985  0.0194949350049498  0.5178190863301424
  0.4896296461013989  0.1133957395799001  0.6033918205212814
  0.4831955152314933  0.2078509015726411  0.7171017604750887
  0.4819359956010132  0.3142123189266499  0.7901734085560292
  0.4923674351699106  0.4048832869240044  0.8891851446167394
  0.5079446114593651  0.5091762920928176  0.0179482661387880
  0.4904281073353118  0.6041065043440028  0.1105683250852323
  0.5085350273837008  0.7012595341471481  0.2228352565709883
  0.5153234976355421  0.8185048683602787  0.3163444654129535
  0.4937708351479131  0.9195263006708458  0.4030299104805906
  0.6130956243264052  0.0187771745298591  0.5984269992301776
  0.5982756647971001  0.0796564966457680  0.7221668747388108
  0.5912423231056891  0.1998945940833607  0.8146356854723393
  0.6012735642802127  0.3063837065874822  0.8877083118882680
  0.6012638126031007  0.3937265989222496  0.9896667357307791
  0.6205574169141101  0.5036839678873832  0.0929261744198868
  0.5881230058286562  0.5994811006268534  0.2082193634664051
  0.5957558455955123  0.6874031773892000  0.3166167680633478
  0.6178988672605286  0.8369374626635846  0.3996714378093031
  0.5976264629935102  0.9183816373034190  0.5001919612889054
  0.6929108386671032  0.9866929471021635  0.7016159410535607
  0.7150153185967199  0.0933557466182791  0.8122099197184625
  0.6984460178159040  0.2086971257010859  0.9150738497745508
  0.7052587366105811  0.2914355662597572  0.9734728947542095
  0.7039942606400516  0.4194626160782988  0.0868234206532463
  0.7027041011767281  0.5272936975695615  0.1815953291542911
  0.7011476353238777  0.5918488274496880  0.3210527183547782
  0.7094424269218109  0.6947275086330151  0.4092282740569644
  0.7138096830529008  0.8110053183767718  0.5028112482129075
  0.7015000655449271  0.8927449449026739  0.5975992895633979
  0.7774770491586906  0.9808061735400884  0.8129843418013891
  0.7936844354998343  0.0910567847795036  0.9263014191136065
  0.7932513194765178  0.1969348962938540  0.0028604429781183
  0.7867847289123517  0.3066597299021225  0.1097468061145932
  0.7821296425822055  0.4008863829319225  0.1929401029363262
  0.7918061049158709  0.4922926462113679  0.3023010755526201
  0.8137023442208289  0.6052214872979249  0.4005569383041916
  0.8053300200153970  0.7094545817661952  0.4937958029253267
  0.7996938928846333  0.8224088124931299  0.5969541497855460
  0.7997541247113134  0.9042404253821630  0.7102656654569444
  0.9005250416804103  0.9741766910810483  0.9113000479489699
  0.9092668030353011  0.1104457767513480  0.9979161566039778
  0.8844504647531082  0.2022571789288463  0.1046021823380627
  0.9087173236555586  0.3173316718354755  0.1875156986693085
  0.9219982320466258  0.3890773773232183  0.2745022654789366
  0.9121008899153225  0.4811089132299600  0.3857352592103851
  0.9001249629385271  0.6234339113603866  0.4817491595732974
  0.8991494688221735  0.7034935730781910  0.5906391404377018
  0.8928877334213112  0.8011770144066830  0.6914653553282761
  0.9249145932035603  0.9022460912790038  0.7916793177169268
  0.0953107326514910  0.0826072292972597  0.0033613676454394
  0.0998915710986452  0.1715097239634886  0.0957092726272961
  0.0979564931265813  0.2824740785219433  0.1872824594743179
  0.1115636920708241  0.3845062289673393  0.2788912847245157
  0.0921239630485005  0.5143885529528234  0.3922955425052237
  0.1291316111294378  0.6142645058836465  0.5124682564610126
  0.1072677312218175  0.7276542465632900  0.5872198878258033
  0.0984808173320104  0.8233872429341247  0.6946730487187978
  0.0887901396678785  0.8908915746178394  0.8069865153414710
  0.1020279432530486  0.9918170601561656  0.9148099346750271
  0.1970871857472787  0.0860899716265280  0.1039170447597044
  0.1891874457274838  0.1729985193005632  0.1980979971406569
  0.2154409585395385  0.3042715438249175  0.2815039190586148
  0.2028946059606298  0.3948036832728476  0.3813799744858670
  0.2032730430001095  0.4984833577477161  0.5088969655779181
  0.2254918816672173  0.6076675891345005  0.6049984973056226
  0.2230795499835025  0.7149311347190164  0.7016705408556021
  0.2094307630045122  0.8092699962608592  0.7955276555592192
  0.1912933535686818  0.8785689286264144  0.9108084407786237
  0.2005430533377321  0.9862536526998795  0.0128322599802075
  0.3137549996700741  0.1099016570988667  0.1908463376223466
  0.3070787317716892  0.2308436282854913  0.2802341013966796
  0.3086453399318145  0.2901865355768152  0.3913874263719350
  0.2834221836577555  0.4068288063345449  0.5029052598702322
  0.2954756559991196  0.5014130258440588  0.5928099447926982
  0.3026231246013396  0.5895545109424845  0.7030754092158773
  0.2925646664467152  0.6843666191575934  0.7787956247663033
  0.2952353859012433  0.8117888371274589  0.9078372466732674
  0.2959278143626989  0.8899428861761791  0.0211830885296393
  0.2950033727042793  0.9793665316177282  0.0997418625316158
  0.3978481957549747  0.1130901744198809  0.2763992407346336
  0.4148143371824489  0.1974087773012201  0.3852698101836580
  0.3889970627955535  0.3022336883316825  0.5101031232816453
  0.4032086110194655  0.3938358332783451  0.5930978594523282
  0.3710178730891869  0.5036147088969543  0.6927531780490455
  0.3935247597052651  0.6036458704497960  0.7999680585065434
  0.3936823455405261  0.7030559859232355  0.8893193454305504
  0.4094330258440593  0.7869417332013668  0.0039663173870039
  0.3962851023864502  0.8939429671175603  0.1104015581216302
  0.4033542140107755  0.0113941409875764  0.1967716775541604
  0.5187341445067659  0.0904134912570100  0.3923364350599385
  0.4876772119212589  0.2151002806554487  0.4864958957439782
  0.4980695185307411  0.2827994444077859  0.6266895968327262
  0.4860470528978311  0.4013137107665230  0.7106517928076528
  0.4715079265368942  0.4850131204223018  0.8214283286044193
  0.4886540156164116  0.6038915807764198  0.8949873696249853
  0.4938890922687804  0.7019177573957975  0.0178492660288114
  0.5039419302760351  0.7867110300230920  0.0871231408776012
  0.5124425131419770  0.9005393168371256  0.1946798345980412
  0.4878736087099966  0.0073031008468050  0.2993267484878501
  0.6089840972176432  0.1081272974815803  0.4946995710986499
  0.5977415704387994  0.1829159054217513  0.6120944568349245
  0.5815456386231190  0.3065992935224884  0.7186152631694682
  0.5939589332453536  0.4120091208622014  0.7917996779940637
  0.5979701585835286  0.4860188523039710  0.8810467458484581
  0.6169387489277440  0.6084239463323442  0.9818600466292722
  0.6014318746288367  0.6963689220279363  0.0993478715495471
  0.6053819263169444  0.8104437470581800  0.1887643884306627
  0.5999730649950479  0.9241742030133082  0.3231946561090950
  0.6097159362146698  0.0031496685362384  0.4094448459254352
  0.7165891512152172  0.1140339733861211  0.6184007882986933
  0.7224088855163302  0.2078053412515146  0.7084175378862838
  0.6776463780930371  0.3029795253491727  0.7994986657868708
  0.6938859549103711  0.4069050861101928  0.8906381172330384
  0.7077372092818663  0.5165238394369283  0.9906488133729212
  0.6830542799956021  0.6090731982843920  0.0778528138128252
  0.6928194105355772  0.6849551633124378  0.1996037422192884
  0.6720826173979972  0.8006702685582283  0.3108005063235453
  0.7056605762674550  0.9097565186407124  0.4166864876278424
  0.7320880307929158  0.9932062707577245  0.5145670278236025
  0.7992327891784896  0.1129401684812521  0.7040758966237775
  0.8026729998900279  0.1973830128670429  0.7974707317716891
  0.7877980028593399  0.3170194919168594  0.8842944185637336
  0.8207762630594999  0.4142809281865141  0.0010325274386886
  0.7942660129770118  0.5155185624106480  0.1001803651160245
  0.8022667533267338  0.6021880633454302  0.2124759709666790
  0.7946449840536687  0.7083881310898477  0.3147812004838855
  0.8031931125041254  0.7947902192895668  0.3836126492906615
  0.8324496188276669  0.9032159824040491  0.5043267652040058
  0.8201852911030443  0.0075558922247865  0.6190667836797559
  0.9000679304959860  0.0759901805784651  0.8201333804025097
  0.8886855585615336  0.2011258682503012  0.8917011041460441
  0.8811595719784435  0.2967811701308705  0.0025933289343456
  0.8941318187616858  0.3821196238865028  0.1181994532057615
  0.8918940772022452  0.4864375968327295  0.1967250240844578
  0.9010946754646412  0.5835305514131761  0.3027813043000123
  0.8938491529748163  0.7270120158363582  0.3985131503354253
  0.9156814899373131  0.8151619364346203  0.5007179610689576
  0.9170647082371062  0.9092421436269689  0.6112216746948178
  0.8807596089299494  0.0206306235565847  0.7291990612559118
  0.9974760571868444  0.0940691428571441  0.9078474523259672
  0.9932426389530420  0.1868048217310019  0.9776484676124468
  0.9967479260970009  0.2774360514681646  0.0767352156603991
  0.9992497833498319  0.3739323475200678  0.1945497010887465
  0.0001432328164555  0.4857239093808445  0.2926045789068539
  0.9923548395469055  0.6025711109644760  0.4018633489497390
  0.0142814820191361  0.7035152169800938  0.5066608309688760
  0.0165678662707549  0.8132285116023326  0.5974154417683906
  0.0147585210601591  0.9132838451556111  0.6925572242384277
  0.0165284464973041  0.9971049035521844  0.7917392235785741
  0.1888993903002287  0.1924785206202557  0.0057408995930928
  0.1898190370614756  0.2960224238425155  0.0907603176069500
  0.1892933540085764  0.3936699901022749  0.1751435411855269
  0.2050430713735807  0.4898526242164323  0.3087646585285384
  0.2072635275486618  0.6005704858682535  0.4047032438139198
  0.2291385258990459  0.7088018937644307  0.5049651798086430
  0.1964181066754662  0.8162117061475840  0.5928835944132871
  0.2136030273837051  0.8906759828439448  0.7073076634774011
  0.2136965855053319  0.9836927073573065  0.8299549411635354
  0.2062032099417124  0.1067172163202486  0.9128824440778587
  0.2807293043000101  0.1993595130320003  0.0997015730781925
  0.2761144502364488  0.2910842102716344  0.1848854226327958
  0.3105797831298815  0.4103349794347295  0.2909640576267449
  0.3145069508413059  0.4995375598812259  0.4160106701858552
  0.2968308685802299  0.6025931085450367  0.4985598491147059
  0.2954174468272299  0.7250509847135191  0.5992319036621581
  0.3031672244583774  0.8132793071593554  0.7140175845155596
  0.3027729259870213  0.9187043352029036  0.8251909094908143
  0.2955201517650963  0.0031590106675452  0.9096849286264188
  0.3022951778291016  0.1064862228087549  0.0015042934125162
  0.4003697780710453  0.2213434444077862  0.1994962925327144
  0.4216880334323108  0.3058637422192874  0.2868638209611802
  0.3972333412515141  0.3892890531177855  0.4022440673045224
  0.3973246853623635  0.5017579799846033  0.4985591729902126
  0.3792508633014435  0.6052334380292521  0.5835688428461481
  0.3978384300011015  0.7200006202573377  0.7009528177719133
  0.3807463758935441  0.8036991474760811  0.8061033291542969
  0.3946299113603899  0.8907077928076532  0.9394801816782135
  0.3840244900472882  0.9953182681183321  0.0204650108874986
  0.3933410685142391  0.0985726730451972  0.0908377402397420
  0.5147775370064878  0.1994031545144637  0.2962767918178812
  0.4895537441988367  0.3059088560431107  0.3925669600791792
  0.4951011344990661  0.4034876208072120  0.5105477400197955
  0.4862076995491051  0.4933637021884962  0.5956175752776858
  0.4833681772792247  0.6001540204552924  0.7037958697899498
  0.4936913137578358  0.7151582544814659  0.7974110744528744
  0.5177792640492669  0.7908263301440641  0.9113019135598819
  0.4980829222478818  0.8963094952161015  0.0190016135488804
  0.5148277470581775  0.0039374054767407  0.1031238856263030
  0.4823679872429310  0.0948689827339706  0.1858867858792479
  0.5752341770592793  0.2215961654019551  0.4113161544044885
  0.5961811494556244  0.2975720664247206  0.5203718328384497
  0.6136680268338282  0.3977241799186189  0.6260817310018680
  0.5994031844275796  0.5176729831738669  0.7114543635763795
  0.5775175823160694  0.6092545294182372  0.7916470524579324
  0.6024888278895872  0.7049035763774327  0.9033819192785657
  0.6025124900472889  0.7944528375673627  0.0075725679093779
  0.6280830454195510  0.8896687566259729  0.1098510506983388
  0.6006787005388787  0.0177422879137765  0.2062996656768945
  0.5934051019465514  0.1020944783899722  0.3017222346860251
  0.6989866723853524  0.1933804764104252  0.4840451982843916
  0.6835869077312253  0.3122818625316199  0.6060499078411965
  0.7002385760475107  0.3869984471571541  0.7262544000879814
  0.7044141735400871  0.5140081632024618  0.7970195359067418
  0.7126156903112317  0.6064326044209807  0.8704916194875167
  0.7262142034532033  0.7055642595403029  0.9972220534477074
  0.7176993366325775  0.7766145219399547  0.1082800259540306
  0.7052733544484795  0.8813747731221824  0.1859664515561406
  0.6946830150665377  0.9875065452545897  0.2944003374024007
  0.6805353625866033  0.0961413104585915  0.4013271158033618
  0.8270441469262053  0.2061531309798781  0.5870907022984682
  0.8111301902562431  0.2975758253601697  0.7078275798966231
  0.7904431307599253  0.4002326602881325  0.7919104093258582
  0.8106121983943666  0.4898610605960627  0.8818850834707987
  0.8129416694160341  0.6005463363026493  0.9645949160892968
  0.7944351386781037  0.6782190260640064  0.1000581304299999
  0.8073744695919913  0.7898501581436292  0.1960554795996927
  0.7853216839326933  0.9066437725723091  0.3157403624766317
  0.7912487293522474  0.0043139808644028  0.3836282982514021
  0.7917363523589600  0.0923743767733427  0.4815262909930738
  0.8979635970526800  0.1854584709116907  0.7120960162762557
  0.9012008270097880  0.3180806668866154  0.7937452792257815
  0.8991602969317043  0.4130752675684590  0.8933935647201139
  0.8984611147036148  0.4796562428241486  0.0051935383261821
  0.9090781893764444  0.5702482076322468  0.1019539100406917
  0.8762788179918601  0.6869712358957472  0.1952540288133733
  0.8993395139117979  0.8092657820301312  0.2854597277026301
  0.8892292493126561  0.8989045652699872  0.3885966576487405
  0.9116847636643541  0.0149935084130632  0.4998444865280973
  0.8841504682722956  0.0896397813702876  0.5810700688441628
  0.9829001588034743  0.1894936082700980  0.8130245498735320
  0.9770921931155812  0.3002547110964500  0.8716678631914689
  0.9883655787968735  0.3854613918398755  0.0028566101396663
  0.9847802076322481  0.4751907000989775  0.0986838060046225
  0.0084192433740213  0.5727207882986889  0.2041817112064237
  0.0095596441218504  0.6901301106345556  0.3076396973496074
  0.0027031954250489  0.8135345131419740  0.3826769655779145
  0.0291839080611425  0.9137072908830959  0.4883342755966140
  0.9863557228637418  0.0184662382052139  0.6034749482019137
  0.9835760417903856  0.0977381484658508  0.7042113784229613
  0.1087014384691543  0.1787915781370302  0.9141833243154096
  0.0850605894644261  0.2965136390630150  0.9926459791048075
  0.0965198843066091  0.4064598535136952  0.0986924007478294
  0.1114363013306914  0.4965962441438450  0.2028647746618262
  0.1070979637083482  0.5983908342681161  0.2965915231496723
  0.1207192706477542  0.7055628980534507  0.4078072693280532
  0.1281782351259224  0.8060788808973953  0.4911505492136783
  0.0948618097437617  0.9124301132739490  0.5956898225008231
  0.1125626534697020  0.0025058247003216  0.7000753410315639
  0.1093328582426025  0.1004543129880133  0.8179028206312537
  0.2725578282195116  0.2887184445177624  0.9982031056856897
  0.2872396168481259  0.3939678851864059  0.0697673652259994
  0.2872127790608161  0.4849902236885484  0.2091655801165757
  0.2891003343231091  0.5766224282415067  0.2978646840426720
  0.2988235328274484  0.6963273590674177  0.3848357598152390
  0.3034240717035104  0.8134990493786418  0.4815996366435726
  0.2899103063895296  0.9061546270757717  0.5945557387001017
  0.3212124016276263  0.0085276458814505  0.7125570368415239
  0.3239200083580798  0.0941898466952580  0.8089781519850447
  0.3028410883096910  0.2155601038161237  0.9019615084130663
  0.3854310630155098  0.2980223930495995  0.0842173113383922
  0.4165604662927507  0.3856242450236422  0.1901805155614227
  0.3984495066534706  0.4841073067194515  0.2942563651160199
  0.4157118873859034  0.6094437545364570  0.3886844456175069
  0.3883723985483343  0.7133968085340356  0.4904515878148032
  0.4041967016386252  0.7916146385131384  0.5878726598482373
  0.3957790682942957  0.8823277430990899  0.6838076353238733
  0.4032888322885739  0.9911980983173905  0.8030946081601229
  0.4125229728362498  0.1036517831298767  0.9106811996040918
  0.4018833661057926  0.1892686017815919  0.9982070603761102
  0.5145742509622764  0.2926592988012757  0.1698997624546337
  0.4825132215990351  0.3881733619267536  0.2879071333993153
  0.5058441425272164  0.4579219056417045  0.3771123747937963
  0.5044273564280246  0.6040505509732768  0.4974554637633375
  0.4917081702408481  0.6929506811833264  0.5933627915979329
  0.4945225245793452  0.8408794677224236  0.6877553621467030
  0.4883570777521200  0.8717354523259644  0.7840032288573653
  0.4924954967557440  0.0059241473661089  0.8994737815902312
  0.5001285525129191  0.0954928270097852  0.9914351958649519
  0.4836655154514489  0.2046892585505304  0.0971098229407232
  0.5974561926756863  0.3081676124491395  0.2927312477730126
  0.5890739491916861  0.3904653614868607  0.3877701031562708
  0.6014807412295156  0.4818040954580454  0.4980070401407701
  0.5813256139887812  0.5823507713625844  0.5989995798966206
  0.5710785764874089  0.6999019791048084  0.6748806189376424
  0.5970901603431216  0.7947186486308127  0.7734823706147580
  0.5831481662817524  0.8957823992081799  0.9182840382711959
  0.5779106068404261  0.9788126242164310  0.9974782817551997
  0.5886189112504141  0.0981526651270173  0.0917682863741334
  0.6301802036731559  0.1833349244473794  0.1979248226108012
  0.7095819645881463  0.3079218625316145  0.3939611850874272
  0.7036867053777627  0.3882957422192916  0.4871739839436913
  0.7094274175739557  0.4949560343121107  0.6041258049048750
  0.6797933381722174  0.5981578629715187  0.6953457886286145
  0.6832889167491487  0.6879145949631607  0.7745783358627492
  0.6938559560101183  0.7936756472011410  0.8672289875728580
  0.6932943182668012  0.8940767926976818  0.9953883589574417
  0.6763715645001653  0.0099339038821071  0.0870903648960706
  0.7250165643901880  0.0905296465412988  0.2167422786759019
  0.6971882929726192  0.2059612123611601  0.3068944075662614
  0.7935923193665460  0.2935427849994525  0.4980367663037484
  0.8036721948751762  0.3913320400307896  0.5944333289343433
  0.7931267436489620  0.5187078917848922  0.6990211147036192
  0.8119309693170536  0.6185578066644695  0.7941299962608568
  0.7948780380512517  0.7221694107555265  0.9189257261629820
  0.8020021119542520  0.8110594518860665  0.0019507317716929
  0.7989129695370067  0.8998669310458567  0.0988017978664928
  0.7826977323215658  0.9839209884526525  0.1927947731221806
  0.7931392596502818  0.1000344775101709  0.2918124579346753
  0.8069597721324087  0.2195642331463787  0.3839265888045773
  0.8933923901902574  0.3014511465962855  0.6108749081711196
  0.8957972136808507  0.4029603083690745  0.6909979892224811
  0.9059004174639824  0.4855435508632979  0.7968452378752886
  0.8895490205652692  0.5855962243484001  0.8716853702848368
  0.8974216826130004  0.7038582030133043  0.0101712161002965
  0.8812690979874631  0.7906094279115834  0.1099913735840730
  0.8799188215110547  0.9084648164522164  0.2209670344220811
  0.9028971050258434  0.0080507370504819  0.2934529981304266
  0.9101071386781072  0.1130914021775027  0.3804115631804663
  0.8905367962168711  0.1910592891235012  0.5073518526338958
  0.0158101585835269  0.3042076806334535  0.7184215167711443
  0.0080122863741323  0.4106396876718321  0.7872516463213444
  0.9879651991641936  0.5087155328274520  0.9065564425382178
  0.9894063582975932  0.5984762344660695  0.9981957527768586
  0.0089258022654803  0.6720813034202138  0.0858064942263255
  0.9828058717694930  0.7878405133619282  0.2046691525349189
  0.0083801799186176  0.9220603576377400  0.2796534072363386
  0.9886927438689099  0.0144194628835379  0.3860779764654154
  0.9900445489937297  0.1099783464203199  0.4913962305069859
  0.0053591826679877  0.1765502689981275  0.6034322173100222
  0.0994120527878621  0.2978366312548104  0.8216498295392043
  0.1246416632574494  0.4013322753766602  0.9101567777411219
  0.0712848591224002  0.4977774600241958  0.0062714624436353
  0.1046687869789977  0.5916565344770675  0.0789178528538415
  0.0971795266688673  0.6917104286814038  0.1947738634114131
  0.0874134129550228  0.7935882309468809  0.3161338480149567
  0.1213208089739339  0.8890413016606189  0.3975060446497309
  0.1078093408116132  0.0150078772682249  0.5063222465632933
  0.1106363765533942  0.1068200285934253  0.6023362146706290
  0.1109319406136606  0.1897019958209611  0.7217375180908405
  0.2000341220719264  0.3020864374793817  0.9113560395908920
  0.1818327852193988  0.4166372545914427  0.0126107093368546
  0.1918365028043567  0.5153319687671853  0.0854760954580414
  0.1914365335972761  0.5924170425602142  0.2125961895963897
  0.1933336522599802  0.7044832196194903  0.3071959274166929
  0.1958803783129852  0.8018050227647606  0.3936757202243513
  0.1899940521280072  0.9138695911140431  0.4934450856702952
  0.2172076595183086  0.0137736047509094  0.6227806818431745
  0.2392366594083342  0.1001540085780306  0.7224272099417135
  0.2176511738700100  0.2007664515561416  0.8109204614538683
  0.4093678711096445  0.4011223393819421  0.0100738999230146
  0.3706208155724156  0.4805508531837646  0.1042658594523260
  0.4121274932365537  0.5990417609149929  0.2006058673705056
  0.4180234844385780  0.6917592614098780  0.3150313850214417
  0.3965677483778762  0.8219074628835372  0.3985772431540724
  0.3921070982074113  0.9043531098647293  0.5138414890575191
  0.3718877818101802  0.0086930526778843  0.6085072152204987
  0.4082405657098889  0.0983032754866358  0.6951412990212233
  0.4024325107225337  0.1961453922797745  0.8190971454965350
  0.4056629508413039  0.2930131384581571  0.9066794188936527
  0.5069200761024959  0.3994566440118774  0.0968348320686232
  0.5022141950951280  0.4838828113933786  0.1885753291542969
  0.5033549218079827  0.5719305672495310  0.3185063679753668
  0.5117561306499496  0.7216013047399130  0.4190885674694798
  0.4865259034422067  0.8267417063675353  0.5037305003849113
  0.4976113960189181  0.9307843963488409  0.5876423068294301
  0.4916762617397978  0.9958128041350491  0.7007928028153501
  0.4999823411415392  0.0838036590784128  0.8361233243154089
  0.5095189992301741  0.2063512882437024  0.8923138717694954
  0.5008784124051502  0.3036539293962406  0.0022289506213582
  0.6043772488727583  0.4178071276806321  0.2014236441218529
  0.6073346275156695  0.4967006651270225  0.3101131186627057
  0.6050824568349285  0.6049414582645980  0.4216842626195998
  0.6034197387000972  0.7080877189046504  0.5093255787968758
  0.5884075147915979  0.8176263785329354  0.6031620499285140
  0.5965309420433300  0.9225095264489198  0.7118631936654580
  0.6144133601671626  0.9928193845815443  0.8268954061365861
  0.6002106578686934  0.1050559085010434  0.9261313647861016
  0.6094765476740349  0.2054820274936731  0.0003658656109096
  0.6162739267568469  0.2815266886616072  0.1051673313537904
  0.6869536575387656  0.3973710660947987  0.3016459346750224
  0.7199737345210622  0.4898083347630049  0.3986122881337266
  0.7187413689651407  0.6028317369405016  0.4972437290223226
  0.7026142689981327  0.6848099131199845  0.5885302074122976
  0.6807793454305511  0.7978951311998230  0.6785695198504342
  0.6979245617507956  0.8872167003189233  0.8055598790278253
  0.6894276999890039  0.9790191690311261  0.9241028839766869
  0.7064259346750248  0.0860132814252736  0.9966142698779308
  0.7153385852853873  0.1854330042890169  0.0873927676234487
  0.6920932836247644  0.3093279960409134  0.1937594008578003
  0.8187524038271192  0.3912633788628597  0.3948356841526461
  0.8141106908610993  0.5002258009457847  0.5053236779940633
  0.8274984841086521  0.6101635557021865  0.5820088375673578
  0.7847453091388985  0.7010847948971701  0.6741213707247340
  0.8053535150115465  0.7816254697019716  0.7715972691081063
  0.8077949649180667  0.8787016553392704  0.8839423591773894
  0.7906777208841973  0.9915513053997600  0.0082766752446943
  0.8005894336302646  0.1061920607060358  0.0985520664247233
  0.7935561271307563  0.2147051903662174  0.1888727346310333
  0.8178268677004255  0.3150735048938742  0.2994801790388237
  0.9227478785879271  0.3976237818101822  0.4916870858902485
  0.9125252303970086  0.5060433287143979  0.5983401130540003
  0.9170018431760667  0.6008918130429990  0.7003475174309912
  0.8931240875398672  0.7108652950621348  0.7887850478389993
  0.9076886079401731  0.7816558992631712  0.8794441341691410
  0.8952364962058752  0.8855541585835240  0.0023382056526984
  0.8971144660728001  0.9954734670625740  0.0989896905311767
  0.9031113221159117  0.0975313608270127  0.2018081368085376
  0.9281459689871312  0.2174813953590657  0.2709723242054309
  0.9204291564940092  0.2728987225338173  0.3975236265258957
  0.9972640417903875  0.3804039472121445  0.6196184621137135
  0.0270674259320387  0.5141718161222926  0.7017353669855950
  0.9960229745958458  0.6150306200373947  0.7945227731221820
  0.9797563149675597  0.7148758689101484  0.9068280123171704
  0.9885258000659860  0.7940337367205572  0.0109055392059858
  0.9939855493236536  0.9210283299241198  0.1237895079731643
  0.0068860134169171  0.0074448890355185  0.2143095933135371
  0.0074768476850338  0.0848525010447574  0.2915464480369536
  0.0147933478499951  0.1889228373474126  0.3911562648190881
  0.0187332158803457  0.2865918649510633  0.4874319291762887
  0.1044531798086439  0.4039351822280892  0.6887731344990655
  0.0997006880017608  0.5138950608160116  0.7945144260420136
  0.0851890962278645  0.5895231791487987  0.9024575880347498
  0.0929959225778063  0.6935255312878041  0.0111721636423638
  0.0858850971076635  0.7928765547124144  0.1054266635873731
  0.0988506534697038  0.9062418242604195  0.2154732554712382
  0.1096219509512792  0.9945416395029127  0.2934836216870096
  0.1153013570878727  0.1135687997360577  0.4057593665456949
  0.1060436766743678  0.1979531683712779  0.4932708984933498
  0.0925041016166261  0.2895430212251213  0.5939467876388420
  0.1734700327724639  0.4087619628285495  0.8203517378203031
  0.1983450073683031  0.4819605709886758  0.9116828237105494
  0.1825295541625422  0.6067251226217962  0.0032158218409748
  0.2050613003409225  0.6832778299791045  0.1053823732541517
  0.2114294763004523  0.7836343899703095  0.1945044500164954
  0.1987251248212942  0.8944612523919488  0.3068539918618711
  0.1880003105685688  0.0139418066644694  0.3930420314527652