Li 
 1.0000000000000000
    22.7325000000000017   -0.0000000000000006    0.0000000000000000
    -0.0000000000000006   22.7325000000000017    0.0000000000000000
     0.0000000000000006    0.0000000000000006   22.7325000000000017
 Li 
 500
Cartesian
 -0.3437438300000000 -0.1934261600000000  0.2340933200000000
  0.3569809300000000  2.5073605400000001  2.1672384400000002
 -0.4741267900000000  4.5579820700000004  4.1120432400000002
  0.2206721500000000  6.6319085500000003  6.6819486100000001
  0.5902542400000000  8.5904238500000005  8.8432681800000008
  0.2859600300000000 11.4109477899999998 11.2912436399999994
 -0.2259944300000000 13.9286712900000005 13.8417897500000002
  0.1224232000000000 16.3020762999999995 15.9039099000000004
 -0.0005276700000000 18.3007093900000015 18.1843778799999995
 -0.3418431000000000 20.6764212600000015 20.6055308699999991
  2.2726783199999998 -0.2387444400000000  2.1095380300000000
  2.2180413099999998  2.2591419199999998  4.5855738400000003
  1.7317634600000000  4.3483478599999996  6.1376100999999998
  2.8522430600000002  6.6217426699999997  8.7796860700000003
  2.6345950700000000  9.1851940100000000 11.0232949900000001
  2.1409348499999998 11.4872292100000006 13.6213562699999997
  2.7381292199999998 13.9184587000000004 15.8099868200000007
  2.1728901899999999 16.3503615899999986 18.1523751400000002
  1.5374658400000001 18.0778885299999992 20.6784784399999992
  1.6569549500000000 20.3964267600000007 23.0130637399999998
  4.7668075500000002  0.1726185300000000  4.8936028900000004
  5.1075728800000002  2.5464269599999998  6.6633914100000000
  4.4423687200000002  4.9780794400000001  8.5383197899999992
  4.2570475400000003  5.9184859899999998 11.5598772000000007
  4.5076077000000003  8.7351340000000004 13.7250571400000005
  3.9798274800000000 11.1826179400000001 15.7198934599999998
  4.5126889900000000 13.4944253399999994 18.5449437699999997
  4.4419704500000003 15.9881163399999995 20.3405252800000014
  4.3237739599999996 18.1586553500000001  0.7149532000000000
  4.3812505300000000 20.5534950199999997  3.0608113200000000
  6.7307144399999999 -0.0557117800000000  6.8965175900000002
  6.9522757500000001  2.6068464100000002  8.4089633300000006
  6.8286218500000002  4.1449344899999998 11.2153168599999997
  6.6177655599999996  6.5382598800000000 14.1437543600000009
  6.4794357299999996  9.7620334300000007 15.9082284200000004
  6.6007474899999998 11.2895352199999994 18.4073927499999996
  6.7949038699999997 13.7802220000000002 20.1529625599999989
  7.2057540500000004 15.5264723199999999 -0.0134730900000000
  6.9923193699999997 17.5324932800000006  2.7728487199999998
  6.9608437500000004 20.0593046199999989  4.8292320699999998
  8.8633009400000002  0.0597475200000000  8.9087943799999998
  8.8308544300000005  2.5005494200000000 11.4022964299999998
  9.0622729999999994  4.6449893299999996 13.6476814500000003
  8.6362300899999997  6.7837349900000001 15.9756412799999996
  9.3652117100000005  9.2099717499999993 17.9587108899999990
  9.1733220699999993 11.6670638199999992 20.4515254999999989
  8.8876664600000002 13.2810909000000006 -0.0177080500000000
  9.1492875399999996 15.3267307600000002  2.2336732900000000
  9.0832892100000002 17.9614146499999983  4.6979938800000003
  9.1690069699999999 20.5752889500000009  6.3887143699999998
 11.3413734099999992  0.4431686100000000 11.7713223800000009
 11.1305059300000000  2.5777686499999999 13.7166045600000004
 10.9842420500000006  4.7249706199999997 16.3015157700000017
 10.9556100199999999  7.1428315400000004 17.9626170099999989
 11.1927427200000000  9.2040093200000008 20.2134013000000010
 11.5468508799999992 11.5748500599999993  0.4080089600000000
 11.1486569499999995 13.7328511100000004  2.5134944500000000
 11.5602725100000008 15.9413823600000004  5.0656024700000000
 11.7145914100000006 18.6066619200000005  7.1913005600000002
 11.2246455100000002 20.9031316300000007  9.1618774399999996
 13.9371962800000002  0.4268521200000000 13.6037417600000001
 13.6003015499999993  1.8107913099999999 16.4166584799999988
 13.4404161099999993  4.5441038599999999 18.5187057199999998
 13.6684512999999992  6.9648676099999998 20.1798292000000004
 13.6682296200000000  8.9503899100000002 -0.2349009300000000
 14.1068214800000007 11.4499957999999999  2.1124442600000002
 13.3695062300000007 13.6277041200000006  4.7333466800000004
 13.5430197600000000 15.6263927299999992  7.1974906799999996
 14.0463860000000000 19.0256808699999986  9.0855309599999998
 13.5855435700000005 20.8771105699999993 11.3706137599999995
 15.7515956399999997 -0.3025025800000000 15.9494843799999995
 16.2540857299999999  2.1222095099999998 18.4635619999999996
 15.8774241000000007  4.7442074099999996 20.8019162900000012
 16.0322942300000015  6.6250590100000002 -0.6030274200000000
 16.0035495300000008  9.5354339199999991  1.9737134100000000
 15.9742209800000001 11.9867039799999997  4.1281158199999997
 15.9388386200000003 13.4542034699999995  7.2983309199999997
 16.1273999699999990 15.7928930899999997  9.3027817400000004
 16.2266786200000013 18.4361783999999993 11.4301566999999995
 15.9468502399999998 20.2943244599999986 13.5849258499999994
 17.6739970200000016 -0.4363236600000000 18.4811665500000011
 18.0424314300000006  2.0699483600000002 21.0571470100000013
 18.0325856199999990  4.4768225299999997  0.0650250200000000
 17.8855838499999997  6.9711423100000003  2.4948192699999998
 17.7797620999999992  9.1131496999999992  4.3860108899999997
 17.9997322799999999 11.1910425799999995  6.8720591999999998
 18.4974885399999991 13.7581974599999999  9.1056606000000002
 18.3071646799999996 16.1276762799999993 11.2252130900000004
 18.1790414200000008 18.6954083299999994 13.5702602100000007
 18.1804106400000016 20.5556454700000018 16.1461142399999993
 20.4711855100000015 -0.5870283700000000 20.7161283400000009
 20.6699075999999984  2.5107086199999999 22.6851290299999988
 20.1057701900000012  4.5978113199999999  2.3778691099999998
 20.6574165600000015  7.2137422300000003  4.2627006200000004
 20.9593248099999983  8.8447014799999994  6.2401227500000003
 20.7343334800000001 10.9368083699999996  8.7687267799999997
 20.4620907199999991 14.1722113899999993 10.9513627699999994
 20.4399152999999991 15.9921676500000007 13.4267042599999993
 20.2975704000000015 18.2127564799999995 15.7187361899999996
 21.0256209900000002 20.5103092700000005 17.9968500899999988
  2.1666512299999998  1.8778688400000001  0.0764122900000000
  2.2707851400000001  3.8988448000000000  2.1757110399999999
  2.2267959799999999  6.4213419900000002  4.2573985099999998
  2.5361216299999998  8.7407878500000002  6.3398961299999996
  2.0942079900000001 11.6933377800000002  8.9178584200000000
  2.9354843499999999 13.9637678800000007 11.6496846400000003
  2.4384636999999998 16.5414001599999985 13.3489760999999998
  2.2387151799999998 18.7176505000000013 15.7916550800000000
  2.0184218500000002 20.2521927200000000 18.3448209599999998
  2.3193502200000000 22.5464813200000016 20.7959168400000003
  4.4802844500000001  1.9570402800000000  2.3622942199999999
  4.3007036100000002  3.9326888400000000  4.5032627200000004
  4.8975115899999997  6.9168528699999996  6.3992878400000004
  4.6123016300000002  8.9748747299999998  8.6697202699999991
  4.6209044500000003 11.3317729299999996 11.5685002699999995
  5.1259942000000001 13.8138034699999999 13.7531283400000000
  5.0711558700000001 16.2521720199999997 15.9507255699999995
  4.7608848200000002 18.3967301899999995 18.0843324299999999
  4.3485761600000004 19.9720681700000000 20.7049528800000004
  4.5588449600000001 22.4200111600000014 23.0242093499999996
  7.1324355300000004  2.4983394200000002  4.3384143699999997
  6.9806672699999996  5.2476527800000001  6.3704217099999996
  7.0162801899999998  6.5966654199999999  8.8972146700000003
  6.4428947900000004  9.2482358399999995 11.4322938199999999
  6.7169003500000004 11.3983716099999999 13.4760520699999997
  6.8793801800000001 13.4020479199999993 15.9826617399999993
  6.6507262799999998 15.5573641699999996 17.7039715400000013
  6.7114384100000004 18.4539897400000008 20.6374102099999988
  6.7271790400000002 20.2306266599999987  0.4815445600000000
  6.7061641700000001 22.2634496800000008  2.2673818899999998
  9.0440841100000000  2.5708223900000000  6.2832457399999999
  9.4297669200000005  4.4875950299999996  8.7581459600000002
  8.8428757299999994  6.8705273199999999 11.5959192499999997
  9.1659397499999997  8.9528730799999998 13.4825970900000005
  8.4341638000000003 11.4484213700000002 15.7480116199999998
  8.9458015999999994 13.7223797500000000 18.1852738900000013
  8.9493839200000007 15.9822202000000004 20.2164520199999984
  9.3074362599999994 17.8891529499999997  0.0901643100000000
  9.0085510899999992 20.3215584999999983  2.5097034200000001
  9.1692496699999992 22.9915173099999990  4.4731121600000003
 11.7921239399999997  2.0553246900000000  8.9187880100000001
 11.0861222200000000  4.8897671300000001 11.0592679500000006
 11.3223653300000002  6.4287383699999996 14.2462212600000004
 11.0490646300000002  9.1228639299999994 16.1548918800000010
 10.7185539399999996 11.0255607599999994 18.6731194800000004
 11.1083274099999993 13.7279653600000007 20.3453003800000012
 11.2273337899999994 15.9563454199999999  0.4057584400000000
 11.4558599300000008 17.8839084899999996  1.9805268000000000
 11.6490994299999997 20.4715100200000002  4.4255593400000004
 11.0905868099999996 22.8985177399999991  6.8044453100000002
 13.8437309899999992  2.4580037899999998 11.2457580000000004
 13.5881602499999996  4.1581358200000000 13.9144372399999998
 13.2199862299999999  6.9697684400000002 16.3359214699999988
 13.5021714500000005  9.3659973399999998 17.9995861800000014
 13.5933566300000006 11.0484235599999998 20.0283951500000015
 14.0245601099999995 13.8309973599999996 -0.4123664900000000
 13.6720500900000008 15.8302065200000008  2.2584254900000000
 13.7618446399999996 18.4234124799999996  4.2910864599999998
 13.6388876999999997 21.0087900699999999  7.3470225200000003
 13.8603675200000005 22.8040998399999992  9.3077049600000006
 16.2898628800000012  2.5922773000000001 14.0577959200000002
 16.4221599900000008  4.7239349199999996 16.1041016799999994
 15.4045962900000006  6.8874820600000000 18.1746034200000004
 15.7737624699999994  9.2499698699999993 20.2464310000000012
 16.0886361099999995 11.7418781800000005 -0.2125758500000000
 15.5275314200000008 13.8457564800000004  1.7697890900000000
 15.7495172500000002 15.5707432499999996  4.5374920699999999
 15.2781181000000004 18.2012368799999997  7.0652725099999998
 16.0414290500000014 20.6810400600000008  9.4723255799999997
 16.6421911599999994 22.5780615500000010 11.6973949600000005
 18.1685593800000014  2.5674123799999999 16.0054053200000013
 18.2467639699999999  4.4870093400000002 18.1285034100000004
 17.9086181000000018  7.2066455999999999 20.1022228699999985
 18.6582964000000011  9.4176412000000003  0.0234719300000000
 18.0556521399999994 11.7190257199999994  2.2773501500000002
 18.2375289699999996 13.6892401499999998  4.8301100100000003
 18.0642670999999986 16.1034331900000005  7.1557636400000000
 18.2585874299999986 18.0675686599999992  8.7204745500000005
 18.9236609599999994 20.5323573199999991 11.4646081899999999
 18.6448621299999999 22.9042643199999993 14.0729356600000006
 20.4607942300000012  1.7274467800000000 18.6436820700000006
 20.2020444599999998  4.5720938000000002 20.2705953500000007
 20.0309599700000014  6.7465779499999998  0.0589528500000000
 20.3258515700000011  8.6865343500000005  2.6869690700000000
 20.2749821099999998 11.0579426699999992  4.4720516100000003
 20.4841347099999993 13.2651082599999999  6.8829760000000002
 20.3194258699999999 16.5268006499999984  9.0592001900000003
 20.8157294700000008 18.5306687200000013 11.3825710499999992
 20.8471734799999986 20.6693470300000008 13.8945967199999991
 20.0218678099999998 23.2014856499999986 16.5765176600000004
 22.6751244700000001  2.1384267900000000 20.6376422099999992
 22.5788882899999983  4.2465406100000003 22.2243937900000006
 22.6585722300000008  6.3068150400000000  1.7443832900000000
 22.7154457000000001  8.5004170899999991  4.4226010799999997
 22.7357560399999983 11.0417187699999992  6.6516335900000003
 22.5587063900000011 13.6979477799999998  9.1353585800000001
 23.0571537900000010 15.9926596700000001 11.5176673399999991
 23.1091290200000010 18.4867171399999997 13.5807465300000008
 23.0679980799999989 20.7612250100000004 15.7435571000000003
 23.1082329100000017 22.6666872200000000 17.9982119000000012
  4.2941553900000002  4.3755179699999998  0.1305050000000000
  4.3150612600000002  6.7293297499999998  2.0632089200000001
  4.3031111700000002  8.9491030499999997  3.9814505499999999
  4.6611416200000004 11.1355747800000007  7.0189925999999998
  4.7116181399999997 13.6524685699999999  9.1999164899999997
  5.2088915399999998 16.1128390500000016 11.4791209500000004
  4.4650746100000003 18.5545326099999990 13.4777263099999995
  4.8557308199999998 20.2472917800000012 16.0788714599999985
  4.8578576299999998 -0.3707055300000000 18.8669507000000003
  4.6875144700000000  2.4259491199999998 20.7521001600000012
  6.3816789099999998  4.5319401299999997  2.2664660099999998
  6.2767717400000000  6.6170718099999997  4.2029078699999998
  7.0602549200000002  9.3279399200000004  6.6143404400000003
  7.1495292600000004 11.3557375799999996  9.4569625599999991
  6.7477077200000002 13.6984478400000000 11.3335117699999994
  6.7155771099999999 16.4822215099999987 13.6220392500000003
  6.8917489300000003 18.4878718500000012 16.2314047399999986
  6.8827855400000004 20.8844463000000005 18.7586523499999984
  6.7179118500000001  0.0718122100000000 20.6794126399999989
  6.8719251300000002  2.4206980599999999 22.7666963500000001
  9.1014059799999991  5.0316898500000002  4.5350494699999997
  9.5860232199999995  6.9530475200000001  6.5211318100000000
  9.0301069300000005  8.8495133999999993  9.1440132599999995
  9.0321834100000000 11.4062132799999993 11.3334963999999996
  8.6213202500000001 13.7584691299999999 13.2659787199999997
  9.0438621099999992 16.3674141000000013 15.9344099299999993
  8.6553169899999993 18.2700908700000006 18.3247439300000003
  8.9709244600000009 20.2480149000000011 21.3567332299999997
  8.7298367199999998 -0.1064274700000000  0.4652208600000000
  8.9416258400000004  2.2408032900000001  2.0649689300000000
 11.7021803599999998  4.5329322100000002  6.7351121699999998
 11.1287804900000005  6.9540730699999997  8.9240284200000008
 11.2548865399999993  9.1722823400000006 11.6060265000000005
 11.0527165299999997 11.2153903600000007 13.5398765300000008
 10.9881670899999992 13.6430012699999992 15.9990396100000005
 11.2228377899999998 16.2573350199999993 18.1271472500000002
 11.7704171199999994 17.9774595499999990 20.7161707499999999
 11.3226700299999994 20.3753555999999989  0.4319541800000000
 11.7033217599999997  0.0895070700000000  2.3442637300000002
 10.9654302700000006  2.1566091500000000  4.2256713599999998
 13.0765109299999995  5.0374348299999996  9.3502444800000006
 13.5526879800000000  6.7645569999999999 11.8293526900000003
 13.9502084199999992  9.0412649199999997 14.2324029500000009
 13.6259328899999996 11.7680010900000003 16.1731363200000011
 13.1284184400000008 13.8498785899999994 17.9961166199999987
 13.6960772800000008 16.0242205499999990 20.5361294799999996
 13.6966151800000002 18.0598991300000016  0.1721434000000000
 14.2778978300000006 20.2243950099999985  2.4971890100000000
 13.6549285600000001  0.4033265600000000  4.6897071500000003
 13.4895814800000000  2.3208627300000000  6.8589007000000004
 15.8897145299999991  4.3960216799999996 11.0035574700000005
 15.5396393800000006  7.0989474399999999 13.7770295300000001
 15.9181734299999995  8.7974422000000008 16.5095781499999994
 16.0130951999999986 11.6846905700000008 18.1182465999999991
 16.1995361799999991 13.7857291800000006 19.7884507399999983
 16.5086643799999990 16.0392395299999997 -0.0631496700000000
 16.3151001700000009 17.6543896199999999  2.4614756899999999
 16.0326265300000017 20.0358520300000009  4.2274823599999998
 15.7918816399999997 -0.2840074600000000  6.6924556700000002
 15.4702701299999994  2.1855323400000000  9.1231686599999993
 18.8007810699999993  4.6863760499999998 13.3460393899999996
 18.4390170500000004  6.7646424500000002 16.0906904600000011
 17.9687484700000013  9.0982889500000006 18.0021033800000012
 18.4272418000000009 11.1357665600000004 20.0474526600000011
 18.4801965000000017 13.6519195900000003 -0.8048460700000000
 18.0594967900000007 15.4176140099999994  2.2745714499999998
 18.3536401299999987 17.9552687199999994  4.4568311899999999
 17.8523251800000011 20.6102795599999986  7.1775677900000003
 17.9870617400000015  0.0980675700000000  8.7208302900000003
 17.9981466300000008  2.0999005199999998 10.9462964100000004
 20.4129574699999985  4.2159346900000001 16.1877226900000011
 20.4865478000000003  7.2307687600000001 18.0438145600000013
 20.4401614500000015  9.3902335200000007 20.3090692100000005
 20.4242672899999995 10.9037855399999994  0.1180621100000000
 20.6656199399999991 12.9631673799999998  2.3176672599999999
 19.9200082300000005 15.6165736200000005  4.4386122099999996
 20.4442355000000013 18.3966343899999991  6.4892132599999997
 20.2144039100000015 20.4343480299999989  8.8337735199999994
 20.7248738900000014  0.3408399300000000 11.3627147900000001
 20.0989505199999989  2.0377363300000000 13.2091753399999998
 -0.3887221400000000  4.3076634499999997 18.4820805800000016
 -0.5207517200000000  6.8255402199999997 19.8151897000000012
 -0.2644794800000000  8.7625010900000007  0.0649378900000000
 -0.3459839300000000 10.8022725899999994  2.2433296199999999
  0.1913904500000000 13.0193753200000000  4.6415607500000000
  0.2173146100000000 15.6883827399999998  6.9934194200000004
  0.0614503900000000 18.4936733199999992  8.6992041199999992
  0.6634231900000001 20.7708509899999996 11.1010589199999998
 -0.3101685300000000  0.4197837600000000 13.7184942599999999
 -0.3733576300000000  2.2218324599999999 16.0084851599999993
  2.4710554500000002  4.0643795500000000 20.7816724199999996
  1.9336398500000000  6.7404963000000002 22.5653247199999996
  2.1941382699999998  9.2398486200000001  2.2435250000000000
  2.5332257199999999 11.2888741199999991  4.6116234900000004
  2.4346044600000001 13.6029196399999996  6.7422668000000003
  2.7442508200000000 16.0392085800000004  9.2704787500000005
  2.9138117299999999 18.3241881599999985 11.1650798600000005
  2.1564460900000002 20.7418175500000004 13.5415188900000008
  2.5588305199999999  0.0569636600000000 15.9144626900000006
  2.4854091999999999  2.2835776700000001 18.5929758700000001
  6.1959208300000004  6.5632920400000003 -0.0408479000000000
  6.5296745899999999  8.9558749500000001  1.5859866300000001
  6.5290644999999996 11.0250402600000008  4.7548565500000004
  6.5719733500000004 13.1080693499999992  6.7712089300000002
  6.7930059600000003 15.8292616899999992  8.7482789099999998
  6.8975877099999998 18.4928671400000013 10.9479637400000005
  6.5903860400000003 20.5991600599999991 13.5157383299999996
  7.3019609200000000  0.1938547100000000 16.1982028400000004
  7.3635115899999999  2.1411706900000000 18.3900958400000007
  6.8843350399999999  4.9002200599999997 20.5038399899999995
  8.7618116399999995  6.7747940499999997  1.9144700299999999
  9.4694608000000002  8.7662031500000008  4.3232785700000003
  9.0577534100000001 11.0049693499999997  6.6891828200000001
  9.4501704800000006 13.8541801499999995  8.8357691599999999
  8.8286755499999998 16.2172929500000009 11.1491907200000000
  9.1884015199999993 17.9953797699999996 13.3638152399999992
  8.9970476700000006 20.0575154200000014 15.5446570699999995
  9.1677633800000002 -0.2000892300000000 18.2563481799999998
  9.3776784800000001  2.3562641599999998 20.7020603700000017
  9.1358136200000004  4.3025484900000004 22.6917420000000014
 11.6975591600000008  6.6528775099999997  3.8622463499999999
 10.9687318099999995  8.8241509499999999  6.5448489099999998
 11.4991019699999999 10.4097097200000004  8.5727070600000008
 11.4668948799999999 13.7315791500000000 11.3084063300000004
 11.1777559800000006 15.7525013600000001 13.4886196599999995
 11.2417332900000009 19.1152924999999989 15.6343987700000007
 11.1015772699999999 19.8167261699999990 17.8223534000000008
 11.1956538800000001  0.1346706800000000 20.4472877400000002
 11.3691723200000006  2.1707906900000000 -0.1946994100000000
 10.9949263300000002  4.6530985700000000  2.2075490499999999
 13.5816728999999992  7.0054202500000002  6.6545130900000000
 13.3911235499999997  8.8762538299999996  8.8149838700000007
 13.6731609499999998 10.9526115999999991 11.3209450399999998
 13.2149845199999998 13.2382889099999996 13.6167579500000002
 12.9820437399999999 15.9105217400000001 15.3417236700000004
 13.5733520700000003 18.0659416800000017 17.5831879899999990
 13.2564156900000008 20.3633733899999996 20.8748919000000015
 13.1373528700000008 -0.4816420200000000 -0.0573249600000000
 13.3807793999999998  2.2312554599999999  2.0861225700000001
 14.3255714800000007  4.1676611699999997  4.4993260299999998
 16.1305720100000016  6.9998337399999997  8.9557226399999994
 15.9965580299999992  8.8269329600000006 11.0746825900000001
 16.1270587700000014 11.2515880500000005 13.7332898599999993
 15.4534020600000002 13.5976236200000002 15.8069481399999994
 15.5328652999999992 15.6380185300000001 17.6081020200000005
 15.7730805200000006 18.0422316500000015 19.7142829599999985
 15.7603130900000004 20.3246006900000005 -0.1048341300000000
 15.3756165899999999  0.2258224700000000  1.9797817200000001
 16.4814390499999988  2.0579651900000000  4.9270938500000003
 15.8488328700000007  4.6820132599999997  6.9764771200000002
 18.0403373999999985  6.6729613600000004 11.3216207900000008
 18.2694781699999993  8.8959556000000006 13.5129556500000003
 18.0297537000000005 11.7915271500000003 15.8904974899999996
 18.4572207599999984 14.0613653400000000 18.0525601400000006
 18.0695650000000008 16.4167161300000011 20.8894790700000001
 18.2315130100000005 18.4374089900000016  0.0443450100000000
 18.1612890799999995 20.4562250100000007  2.2460118699999998
 17.7926761999999989 -0.3655161300000000  4.3827071799999997
 18.0300382200000016  2.2740337600000000  6.6336266999999998
 18.3442130200000015  4.9912439300000004  8.7276111800000002
 20.3090425100000012  6.8527381900000002 13.8867138499999996
 20.3637101600000001  9.1602952099999992 15.7081117900000002
 20.5933812399999994 11.0376187699999999 18.1142843700000000
 20.2216731100000011 13.3120661699999996 19.8155876800000001
 20.4006383999999983 16.0004565999999997  0.2312171700000000
 20.0334497700000007 17.9725288200000008  2.5003788999999998
 20.0027546100000002 20.6516764399999992  5.0231331099999998
 20.5251084400000003  0.1830133800000000  6.6709202799999998
 20.6890105300000009  2.5708503000000000  8.6477058600000003
 20.2441277200000016  4.3432552900000001 11.5333759899999997
  0.3594044300000000  6.9154011000000004 16.3315171300000017
  0.1821393000000000  9.3348666999999992 17.8961980499999989
 -0.2735811100000000 11.5643758499999993 20.6082943299999997
 -0.2408199600000000 13.6048609999999996 -0.0410150500000000
  0.2029058000000000 15.2780882299999998  1.9505961300000001
 -0.3908655200000000 17.9095844699999986  4.6526415099999996
  0.1905024400000000 20.9607370800000012  6.3572210800000004
 -0.2570422000000000  0.3277904400000000  8.7765176000000000
 -0.2263122900000000  2.5000827600000002 11.1706648099999999
  0.1218276200000000  4.0134289900000004 13.7175228800000006
  2.2598844900000001  6.7705712199999999 18.6781547500000009
  2.8334166100000000  9.1232859499999996 20.6901389500000015
  1.6204830600000000 11.3157261099999999  0.1425660200000000
  2.3793831999999999 13.4498321700000005  1.7940000899999999
  2.2091335900000000 15.7243073199999994  4.4276968500000002
  1.9871254100000000 18.0402444600000003  7.1865126999999998
  2.7579252900000002 20.2101313900000008  9.0363061600000005
  2.4507758399999999  0.3411665700000000 11.5099704700000007
  2.5150414300000001  2.4282862999999999 13.6926079999999999
  2.5217603400000002  4.3124006200000000 16.4068981299999983
  4.5472756800000003  6.8671799399999998 20.7174011699999987
  4.1335137900000003  9.4712063900000008 23.0191729500000015
  4.3609232999999996 11.7147839800000000  1.9430853400000001
  4.3518309999999998 13.4671204200000005  4.8328428800000003
  4.3949572500000000 16.0146647900000012  6.9833314199999998
  4.4528506999999999 18.2270326800000007  8.9492333100000003
  4.3190397899999997 20.7745404799999989 11.2172404100000005
  4.9376731200000004  0.3131084700000000 14.1573618499999991
  5.4384473599999996  2.2767510000000000 16.4225765499999987
  4.9477553099999998  4.5639233600000004 18.4342493900000015
  9.3059551299999992  9.1185135800000001  0.2290049300000000
  8.4251376899999997 10.9241222699999998  2.3702236499999998
  9.3686882399999991 13.6177168300000009  4.5602728800000003
  9.5027188599999999 15.7254174100000004  7.1614509599999998
  9.0149763400000005 18.6840113999999993  9.0606571799999998
  8.9135746099999995 20.5582070700000017 11.6809016499999991
  8.4539390000000001  0.1976148200000000 13.8328902700000000
  9.2803286600000003  2.2346792099999999 15.8022995799999997
  9.1482970500000000  4.4588751300000000 18.6201258600000017
  9.2217330299999993  6.6609211699999999 20.6110898899999988
 11.5235606300000004  9.0806481600000009  2.2012978200000002
 11.4165841900000000 10.9998660099999999  4.2867886700000000
 11.4425157599999991 13.0014116200000007  7.2404460100000003
 11.6334962399999995 16.4038016599999992  9.5269308600000002
 11.0599501000000000 18.7939058400000008 11.4510535999999998
 11.3119510600000002 21.1590562899999988 13.3585787400000005
 11.1770306200000000 -0.0951854300000000 15.9307723899999996
 11.3658485700000007  1.9050666800000000 19.0071734700000015
 11.5826406500000001  4.6908806600000004 20.2845250899999989
 11.3862185100000008  6.9028129500000004 22.7831696199999989
 13.7390058100000001  9.4978005299999992  4.5788629900000002
 13.8062344199999991 11.2912478699999994  7.0496464699999999
 13.7550369499999992 13.7518317000000003  9.5859375000000000
 13.7172392100000007 16.0966040700000015 11.5782437199999997
 13.3759738299999995 18.5866916499999988 13.7113812999999993
 13.5606396399999998 20.9709478099999984 16.1824300500000007
 13.9671517099999996 -0.1632333400000000 18.7973998199999990
 13.6442887800000001  2.3881834400000002 21.0532812500000013
 13.8549256199999995  4.6711201899999999  0.0083170400000000
 14.0094470399999995  6.3998054499999997  2.3907163599999999
 15.6161740200000008  9.0332377600000004  6.8571662099999999
 16.3668029200000014 11.1345679700000009  9.0614538400000004
 16.3387881700000008 13.7038724599999995 11.3035930699999998
 15.9721788700000005 15.5674413499999993 13.3787629399999997
 15.4758164699999998 18.1381510699999993 15.4255816100000001
 15.8655700999999993 20.1686536399999987 18.3123899500000000
 15.6724151900000006 -0.4769467400000000 21.0071688099999996
 16.0588275600000010  1.9552969200000001 -0.0769661100000000
 16.2614343900000016  4.2153557700000004  1.9866560900000001
 15.7330105699999994  7.0317986699999997  4.4046355799999999
 18.6122890199999986  8.8943947600000008  8.9756021900000000
 18.5067712799999988 11.3713830199999997 11.4872705100000001
 18.8111092900000010 13.8705430300000003 13.2305159000000003
 17.8392227400000003 15.9374100999999992 15.3244640600000004
 18.3076987799999991 17.7683009900000002 17.5403349199999994
 18.3631990400000014 19.9750853799999994 20.0942196799999984
 17.9740812900000009 -0.1920599500000000  0.1881495200000000
 18.1993992999999996  2.4140110199999998  2.2403348500000000
 18.0395146599999983  4.8807857400000003  4.2935494399999996
 18.5912492699999987  7.1624084500000000  6.8079331700000001
 20.9763661500000005  9.0389826200000005 11.1772766800000003
 20.7439798000000017 11.5036299700000004 13.6017666199999994
 20.8457444000000010 13.6597731400000004 15.9206499400000006
 20.3029433200000007 16.1597453199999990 17.9310560999999993
 20.6340312799999985 17.7689927300000008 19.9919637799999990
 20.3509636500000006 20.1308599100000016  0.0531532600000000
 20.3936546000000014 -0.1028994100000000  2.2502831400000001
 20.5299781299999999  2.2171316600000002  4.5876034700000003
 21.0990782400000008  4.9438958199999998  6.1598783600000004
 20.9236557999999988  6.2036702100000003  9.0367058399999998
 -0.0621951700000000  8.6475327300000000 14.0854766900000001
  0.6153102600000000 11.6884108100000006 15.9521992299999997
 -0.0904077300000000 13.9811835700000007 18.0614889400000003
 -0.4601895700000000 16.2509156899999994 20.6144677899999991
 -0.2608372500000000 18.0503719199999999  0.2479101700000000
 -0.1367235000000000 20.9372765100000002  2.8140449900000002
  0.1565363000000000  0.1692409400000000  4.8717928300000004
  0.1699674400000000  1.9289094800000000  6.6275796299999996
  0.3362897800000000  4.2946884000000001  8.8919597899999996
  0.4258528300000000  6.5149495699999997 11.0805463300000007
  2.3744819100000001  9.1824565299999996 15.6575352799999994
  2.2664458900000000 11.6821194700000000 18.0612991899999997
  1.9365611300000001 13.4013356699999999 20.5151171199999993
  2.1140298099999999 15.7655691400000002  0.2539712100000000
  1.9523829699999999 18.0240662799999996  2.3966116300000002
  2.2471224799999998 20.6011422700000004  4.8982457799999999
  2.4919810000000000 -0.1240821800000000  6.6716164300000003
  2.6210881000000001  2.5817027399999999  9.2239248000000007
  2.4106378799999999  4.4999703999999996 11.2132807000000003
  2.1028494900000001  6.5820367299999996 13.5018953499999999
  3.9434075200000001  9.2921813199999992 18.6486458800000001
  4.5088778800000000 10.9561686799999993 20.7248297900000011
  4.1493530900000000 13.7923788500000004  0.0731036700000000
  4.6615560100000000 15.5326132700000006  2.3956048000000001
  4.8063205699999996 17.8139687699999989  4.4215724099999996
  4.5175188999999998 20.3333404199999990  6.9755583699999999
  4.2737170600000001  0.3169321200000000  8.9348279799999997