Li                                      
   1.00000000000000     
    21.0004999999999988    0.0000000000000000    0.0000000000000000
     0.0000000000000000   21.0004999999999988    0.0000000000000000
     0.0000000000000000    0.0000000000000000   21.0004999999999988
   Li
   500
Direct
  0.9768413361586639  0.9891932968262651  0.0037163477060105
  0.9638157996238164  0.1110806880788573  0.0903302192804958
  0.0026016328182692  0.2137460846170356  0.2354410880693294
  0.0067536391990686  0.3170174557748595  0.3122813104449875
  0.0050447946477448  0.4115575286302686  0.3982470536415832
  0.0098849236922902  0.5177435822956582  0.5124192452560621
  0.0144441541868048  0.5759413399680966  0.6169483736101498
  0.0222923882764690  0.6871311335444403  0.6676880093331121
  0.9866497969095960  0.8081646851265418  0.8282652413037752
  0.9957225032737327  0.9048031761148536  0.8995435584867053
  0.0596585595581089  0.9987607476012457  0.1118499392871612
  0.0841589147877428  0.1037444860836629  0.2082971486393177
  0.0968036884836110  0.2115962200899943  0.3163000514273477
  0.1027357515297282  0.3152669407871258  0.3968842651365421
  0.1212699754767712  0.4165093221589942  0.5091001433299240
  0.1210126925549417  0.5125890178805292  0.6121671226875520
  0.1275945815575810  0.6168912725887452  0.6957543263255630
  0.0845524435132532  0.7317640865693704  0.8296781962334236
  0.0919814252041604  0.8267202976119634  0.9164590571653051
  0.1036105516535315  0.8998988576462494  0.0204874164900843
  0.1918918220994712  0.9919493093021572  0.1922354577272003
  0.2060805261779493  0.0911241156162959  0.2889858103378486
  0.2022913092545409  0.1844352177329114  0.4071213542534693
  0.2148145358443827  0.2992892250184553  0.4944025832718282
  0.2120811109259293  0.3968722282802801  0.6123201776148193
  0.1884034813456807  0.5158751205923693  0.7196918087664557
  0.2078768686459824  0.6178090816885344  0.8316794142996571
  0.1852229132639707  0.7077222442322793  0.9173793638246721
  0.1966979129068349  0.8268561272350681  0.9925766091283563
  0.2106348315516300  0.9138040113330632  0.1142290054998725
  0.2872355615342457  0.0059222523273235  0.2838757653389195
  0.2985753315397233  0.0827953015404361  0.4197934349182191
  0.3017428042189465  0.2068894840599000  0.4920092926358919
  0.2931312730649296  0.2872550524987503  0.6095275417251997
  0.3102174214899662  0.4145812461608074  0.7054114159186682
  0.2975198347658363  0.5127329054070131  0.8108758567653140
  0.2986747491726405  0.6159277041022833  0.8776137153877315
  0.2902182400419022  0.7095658384324182  0.9963290659746207
  0.3116041113306807  0.8220211885431326  0.0938087640770462
  0.3233856246279885  0.9134220951882099  0.2046327425537484
  0.3701081936144348  0.9934590862122334  0.4061127530296886
  0.4026299902383244  0.0941499997619104  0.5087682874217307
  0.3877855546296516  0.2194003538010989  0.6028892635889633
  0.4020870203090396  0.3019535287255053  0.7030609733101585
  0.3933839880002878  0.3974646689364505  0.8072859555724889
  0.4221243627532658  0.5253100154758243  0.9027357124830360
  0.4044754705840319  0.6090638994309643  0.9800482474226797
  0.3983523539915694  0.7194353510630691  0.1015992071617333
  0.3934512297326265  0.7912081774243447  0.2093082507559316
  0.3923151724958913  0.9252730463560397  0.3124491716863886
  0.4906810409275977  0.9748215823432744  0.5154300726173204
  0.4627296326277914  0.1017857827194604  0.5993569895954849
  0.5047502202328502  0.2193599133353956  0.7052558462893757
  0.5003656203423716  0.2995836756267707  0.7831812542558509
  0.5002129054070110  0.3973300526177965  0.8834358396228694
  0.5019816709125990  0.4781119644770371  0.9914063598485754
  0.4876810009285464  0.6015302202328527  0.0841218166234157
  0.5148059098592910  0.7119622151853520  0.1890782505178450
  0.4952650732125434  0.7941187152686808  0.3164751444013234
  0.5088513911573500  0.8789208090283580  0.3940881702816625
  0.5834856979595742  0.9933933196828661  0.6001819532868282
  0.5897081793290653  0.0943588433608724  0.7016056674841096
  0.6158878840980009  0.1954188328849327  0.7876049284540869
  0.6029514887740746  0.2995575981524254  0.8825831165924640
  0.6149931658770029  0.3749141115687706  0.9930994638222899
  0.5877438389562144  0.5049876821980419  0.0986284859884279
  0.6019680093331132  0.6077035470584065  0.1874291516868638
  0.6055455993904886  0.6932492483512291  0.3055646917930517
  0.5998176495797694  0.7788223818480517  0.4160166686507480
  0.5927748767886456  0.8965885002738005  0.4819848094092976
  0.7012204533225415  0.9876276431513560  0.7026521873288729
  0.7114241022832815  0.1135997276255338  0.7700614871074478
  0.7075113202066632  0.1830355182019474  0.8930970034046837
  0.6849914330611142  0.2807230480226650  0.9770925497011973
  0.7196021747101256  0.3845305964143719  0.0679614504416577
  0.7069707092688304  0.4981823756577199  0.1887470945929834
  0.6982629399300038  0.6184951539249042  0.2761045670341176
  0.6981554277279116  0.6915274407752179  0.4144082488512169
  0.6788231037356240  0.7915337411014036  0.5027724377991021
  0.6774057470060271  0.8804455303445167  0.5970237370538811
  0.8001637070545939  0.9837796533415855  0.8049894864407960
  0.7819537739577598  0.0877222547082184  0.8846404780838526
  0.8013104759410510  0.2118068841218061  0.9859146229851703
  0.7920107626008885  0.2985911706864144  0.0951925782719485
  0.7652286616985293  0.3955351091640651  0.1873771191162135
  0.8082241532344483  0.4801653874907714  0.3025487964572307
  0.7962357767672188  0.5722714149663091  0.4034809485488466
  0.8214309511678266  0.6903729487393164  0.5015779562391387
  0.8077366953167768  0.8126982290897828  0.5786888564557984
  0.8123278817171027  0.8959534220613818  0.6820772795885830
  0.8777909764053220  0.9830717482917066  0.9143309006928391
  0.8896256351039256  0.1297273769672174  0.0113888969310239
  0.9042929925477949  0.2099088483607545  0.1388623432775375
  0.8978169462631840  0.3027808809314081  0.2041705207018865
  0.8892485726530310  0.4066895202495147  0.2813872007809337
  0.8621390876407702  0.4904855903430843  0.4109577038641916
  0.9058326825551788  0.5803617966238903  0.5215365634151539
  0.9359161524725579  0.7167112892550165  0.6002162467560268
  0.9215750320230498  0.8035149067879317  0.7110475002976102
  0.8663994109664088  0.9088210771172101  0.7732058479559996
  0.0805303297540547  0.0813923597057240  0.0223399709530696
  0.0821334606318871  0.1996158320039996  0.0688668650746393
  0.0888295859622374  0.2999562019951938  0.1919629275493406
  0.1093263179448130  0.4198041099021452  0.2872932982548022
  0.0893829161210462  0.4992064803218952  0.4135815785338437
  0.1045042184709857  0.5874006042713233  0.4986154496321547
  0.0849533996809626  0.7167162462798515  0.5769028742172821
  0.0900864688935954  0.8067930849265466  0.7201948739315753
  0.1121896716744857  0.9008112187805040  0.8118059998571496
  0.0893979543344230  0.0010100592843045  0.9116557662912754
  0.2016120787600286  0.1025498745267939  0.1016742401371431
  0.1730623270874503  0.1984172662555679  0.1785210890216931
  0.2121619442394262  0.2996327287445553  0.2870143148972630
  0.2040156224851799  0.4151731187352681  0.4068061774719638
  0.2181372100664305  0.4858584490845459  0.5131346391752558
  0.1719755801052330  0.6208068907883160  0.6251478807647430
  0.1888579910002122  0.7253945748910766  0.7061831332587332
  0.1885322054236838  0.8206678483845593  0.8202134644413235
  0.2041778552891600  0.9269506530796860  0.9197428337420561
  0.1903303502297575  0.9995456493892974  0.0241635213447324
  0.2941064522273251  0.1064166657936738  0.2237182443275145
  0.2978784967024595  0.1926802142806139  0.3148889221685209
  0.3019129530249245  0.3016208975976795  0.3949645913192512
  0.3213144572748234  0.4001838394323940  0.5052292402561847
  0.2899271022118555  0.5167325949382189  0.6198685055117750
  0.2898672103045143  0.6303151029737393  0.7123050160710491
  0.2913528592176391  0.7090929068355507  0.8186454760600910
  0.2974008495035818  0.8170250370229297  0.9065208990262121
  0.3148215552010640  0.9312904878455299  0.9904945439394268
  0.3121670412609205  0.0225234361086635  0.1080110335468234
  0.4188464165138939  0.0949203961810454  0.2956029589771703
  0.3948624823218481  0.1909403052308249  0.3982713154448732
  0.4009578024332754  0.3056072341134737  0.4929416990071687
  0.3864059736672942  0.4147632784933677  0.6129113225875571
  0.3903917740053799  0.5429863008023617  0.7068629951667802
  0.4112229694531067  0.6077877460060463  0.8169228304087994
  0.4092600080950461  0.6935688340753785  0.8809787562200881
  0.3878875369634045  0.7882651460679497  0.9836368215042484
  0.4231388243137033  0.8976573662531848  0.1163472522082785
  0.4190513916335306  0.0029959939049036  0.1844947948858362
  0.5210434765838912  0.0776851070212601  0.4053659674769676
  0.4925174348229788  0.2168007171257855  0.4965093569200718
  0.5143664969881669  0.3133860408085525  0.6124298469084053
  0.4742309673579186  0.4146283026594588  0.6994788181233815
  0.4974610861646127  0.4976735844384663  0.7908136339610934
  0.5235865555582038  0.5950022004237994  0.9041466084140879
  0.5276499483345631  0.7101448446465568  0.9775788962167553
  0.5005481017118640  0.7947002352324972  0.0779283798004826
  0.4857860246184629  0.8820259798576231  0.1959060012856852
  0.4967021689959736  0.9918829513582992  0.2914465284159888
  0.5848004999880985  0.0756917401966604  0.4954587533630175
  0.6038182028999302  0.1466271722101880  0.5954441808528372
  0.5900323673245893  0.2872943729911199  0.6850089526439831
  0.6033692888264568  0.3797617166257936  0.8023691616866273
  0.5871802033284936  0.4999661279493353  0.9103347891716851
  0.5909183443251322  0.6051593204923691  0.9830500235708683
  0.6071684640841895  0.7083170381657595  0.0925840665698416
  0.5933432637318177  0.8189275822004234  0.2019675355348696
  0.5966307830765913  0.8868297154829676  0.3243629104068972
  0.5918778533844460  0.9890124682745665  0.3973371362586633
  0.7298985371776894  0.0685420766172200  0.5947412156853389
  0.6992945320349548  0.2041362110425951  0.6864098288136020
  0.6965147353634435  0.2747355986762230  0.8032211942572829
  0.7141739025261273  0.3999492026380338  0.8979675002976109
  0.7087751582105213  0.5081938225280354  0.9714717654341598
  0.6890791162115164  0.6025185981286185  0.1044765438918134
  0.6978358010523564  0.7078370243565644  0.1918347439346704
  0.7131863865146073  0.7781477579105243  0.2904051379729040
  0.6805372586366971  0.8863883850384511  0.3881655512963960
  0.7067737120544777  0.9932001638056249  0.4943237218161443
  0.8139372819694799  0.1185183367062663  0.6819770024523208
  0.8220566281755168  0.1868022775648228  0.7753849913097284
  0.7845856298659584  0.2844075479155279  0.8709113821099521
  0.8186447384586089  0.3844897611961642  0.9807390509749752
  0.8113081450441655  0.4948181881383746  0.0789980690935934
  0.7951889235970597  0.5755893735863395  0.2119599338111016
  0.7865301654722501  0.7051084678936235  0.3096325049403603
  0.7904586566986467  0.7822256431989700  0.4123816956739148
  0.7817406333182575  0.9065146358420009  0.4913844913216323
  0.8030719340015722  0.9787913083021849  0.6246629418347212
  0.8963667331730178  0.0926241027594585  0.8124618313849652
  0.8882254384419426  0.2026377486250297  0.8994271326873147
  0.9184033227780262  0.2710206004618954  0.0103183305159433
  0.8981201414252027  0.4056715359158147  0.0912179967143629
  0.8981897902430873  0.5011554220137597  0.2034125611294968
  0.8924275231542111  0.5977129635008680  0.3211360262850889
  0.9055376495797702  0.6775662398514299  0.4133600942834690
  0.9270358134330152  0.8008762124711311  0.5140528735030117
  0.9136366791266894  0.9070248403609469  0.6044662741363283
  0.9076123530392124  0.0409578814790095  0.6839998328611188
  0.9772640656174829  0.0962589647865499  0.9067014875836321
  0.9927492864455587  0.2067395542963268  0.9963398095283438
  0.0140018461465203  0.3144529415966275  0.1111712183043281
  0.0111334911073513  0.4053867712673522  0.1996528854074882
  0.9732905645103713  0.4978847265541262  0.3065066093664441
  0.9979376643413218  0.5901502878502924  0.4177803195162042
  0.0294322597081020  0.6899302907073661  0.5146718849551206
  0.0179129358824781  0.8167314944882236  0.6006246579843335
  0.0064105835575319  0.9202040870455477  0.7014710430704056
  0.9802339534772955  0.0086104602271391  0.7919847627437449
  0.2038254698697628  0.1867661517582917  0.0114785981286190
  0.2033648927406517  0.3059999104783202  0.1028299697626238
  0.2035840103807018  0.3927457146258391  0.2063450308326011
  0.2008339939525214  0.5110204604652253  0.2851239941906130
  0.2079500078569581  0.5700022932787334  0.3933318701935633
  0.1941835927716014  0.6723066679364749  0.4831040441894245
  0.1656691621628070  0.7984946501273811  0.5962843698959546
  0.2035837546725077  0.9044370514987747  0.7008869241208515
  0.1789835061069951  0.9998110987833613  0.8278455417728168
  0.2007059650960699  0.0902320149520222  0.9187789657389089
  0.3276090321659026  0.2036121778052902  0.0895665569867390
  0.2957253908240247  0.2664227451727328  0.2096540677602903
  0.2975770576891037  0.4069543329920720  0.2881513735387244
  0.3025087312206836  0.4972843918001928  0.3735962896121521
  0.2800723730387347  0.6089937734815862  0.4914457293873937
  0.2711999519059063  0.7085561515201988  0.6000201528535030
  0.2913241137115818  0.8048513811575901  0.7044736915787695
  0.3135980795695374  0.8999496964357974  0.8293637308635482
  0.3059562586605082  0.0195378290993062  0.9028314592509687
  0.2906298111949681  0.0839662869931672  0.9975368762648529
  0.4300574938691923  0.1903270331658788  0.1845389862146121
  0.3984656531987341  0.2957453732053992  0.3125018680507594
  0.4075904949882130  0.3900725687483657  0.3869952705887982
  0.4072157420061444  0.5086148263136607  0.5035696521511426
  0.3740280636175299  0.6102167972191168  0.5869773143496602
  0.3917084607509338  0.7072505083212306  0.7084064007999800
  0.4238848775029140  0.7734719154305836  0.8103035703911843
  0.4036559158115267  0.9107034456322438  0.9060357558153385
  0.4011289983571800  0.0066794847741747  0.9998425132734923
  0.4184359943810847  0.0974784090854968  0.1010967676960064
  0.5002489674055397  0.1882879093354930  0.2941407509345026
  0.5127224318468606  0.2842492426370811  0.4042572643508464
  0.5031327277921989  0.3887217190066892  0.5088807671245945
  0.4685372762553257  0.5044714154424881  0.6024023489916885
  0.4904499364300818  0.6295722554224881  0.6868554353467786
  0.5272838660984291  0.6945821094735862  0.8197088807409330
  0.5085543072783949  0.8251722597081041  0.9022127554105879
  0.4895508678364777  0.9022991295445379  0.9986779657627167
  0.5061197609580717  0.9931482550415467  0.0889569376919610
  0.5225556858170037  0.0710618199566682  0.1867444217994816
  0.5967433737291969  0.2003526406514098  0.3978669203114222
  0.6168719578105311  0.3005524773219719  0.5109338577652949
  0.6091022051855930  0.4198731334968215  0.5886177833861126
  0.5902983224208924  0.5065607109354531  0.7064867984095642
  0.6061395700102352  0.5978199523820891  0.7760305854622516
  0.6213666136520573  0.7036877112449673  0.8981166491274024
  0.6067847056022444  0.8032222608985506  0.9879143939430008
  0.5905194628699348  0.9049167400776170  0.0678290607366492
  0.6034433575391063  0.9739958191471629  0.1848280402847564
  0.5943662512797303  0.0811388109806899  0.2997618323373246
  0.7004117249589328  0.1616658412894907  0.5034551434489671
  0.6933561819956680  0.2919318663841324  0.5905531277826697
  0.6761311316397212  0.3887633270636428  0.6981797981000426
  0.6772542415656773  0.5123401771386398  0.7684278517178171
  0.6790258484321825  0.5869530134996808  0.9027024227994573
  0.7195565915097291  0.6956825937477689  0.9993754101092804
  0.7088502130901659  0.7980665493678742  0.1068260489035993
  0.6891404466560331  0.8737322168519768  0.1986266360324720
  0.6952476888645478  0.9763338810980713  0.3134950405942689
  0.6861513506821240  0.0827770314992478  0.4118572757791483
  0.8165246046522725  0.2157742810885424  0.5928420113806823
  0.7964858527177938  0.3065524382752756  0.7089613237780057
  0.7922324873217335  0.4075900959500984  0.8031789643103764
  0.8033152629699316  0.5112573562534237  0.8838761205685586
  0.8110450898788102  0.6172337758624806  0.9808535263446103
  0.8011516840075217  0.6728840118092450  0.1412399819051942
  0.8160127539820508  0.8228433861098523  0.1964174452989198
  0.7852872293516810  0.9131851141639515  0.3206867346015585
  0.8053129596914346  0.0030444565605592  0.3971104173710174
  0.8246678712411608  0.0970359581914693  0.5074140039522845
  0.9158495035832459  0.2152610252136853  0.7090407642675203
  0.9296878498130994  0.3209086764600855  0.8090125825575569
  0.9141134415847247  0.3847735253922551  0.8844195519154283
  0.8809318516225773  0.5227059074783966  0.9890756015332940
  0.9060488393133497  0.5836898602414209  0.0947521916144822
  0.8968173333968252  0.6889907468869794  0.2119501973762539
  0.8904513478250493  0.7979260169995968  0.3199316278183844
  0.9057693459679541  0.8942741901383329  0.3991960658079563
  0.9082973924430391  0.9978616599604777  0.4948912178281475
  0.9043083450394036  0.1228310159281918  0.5753303416585354
  0.0025233780148071  0.1930210261660434  0.8039352772553059
  0.9901350624985099  0.2971109016451976  0.8991063969905468
  0.9974451127354129  0.3979382276612426  0.9907975924382768
  0.9812976857693840  0.4867896354848682  0.0932787847908401
  0.9875609209304557  0.6031357691483521  0.2138797914335342
  0.0178609595009647  0.6775432675412461  0.3336138615747259
  0.0158406128425526  0.7923477802909460  0.3864569676912453
  0.9959534487274126  0.9056316092474006  0.4942487174114873
  0.9982486059855731  0.9935321130449282  0.6015072422085197
  0.0117115854384409  0.0983224932739688  0.6911440337134849
  0.0912283164686585  0.1884569257874844  0.9011926016047269
  0.0911623289921693  0.3062223723244699  0.9815246998880980
  0.1382178976691009  0.4247596533415887  0.0894922335182500
  0.0983070636413430  0.5107279021928051  0.1719698559558083
  0.1015609966429381  0.5730496116759127  0.2932930087378907
  0.1218895164400848  0.6815503492774013  0.3939259027166031
  0.1198272450655935  0.7976342529939728  0.4803758553367743
  0.1040503945144167  0.9139031389728842  0.6077068488845470
  0.1006224108949780  0.0230238846694135  0.6919530596890553
  0.0961368281707564  0.0942006209375990  0.8009360129520715
  0.3167995728673105  0.2886815023451845  0.9943782700411887
  0.3303746996500081  0.3947419175733913  0.1197674222042338
  0.2981605995095364  0.4930963253255882  0.2055718620985232
  0.2951826851741615  0.5977624666079393  0.2847108525987494
  0.2775132625413690  0.6580037970524515  0.3775783909906920
  0.2695273512535437  0.8118987471726840  0.4777380029046938
  0.2926985924144674  0.8773939734768206  0.5986828823123247
  0.3144152896359600  0.9930114573462561  0.7274347077450543
  0.3069557901002327  0.0909678321944725  0.8197399523820863
  0.3018410285469386  0.2000042208518877  0.8877117682912328
  0.3897259150972587  0.2932769715006813  0.1050320778076710
  0.3850758196233457  0.3807441246636998  0.2286549072641151
  0.4021333201590451  0.5143939658579555  0.2994272836361063
  0.3815055236780083  0.5951828832646839  0.3692061579486179
  0.3703046165567514  0.7097431084974133  0.4830394842979899
  0.3892503668960288  0.8190649675007720  0.6066211175924394
  0.4073384262279447  0.8807916373419715  0.7319039803814178
  0.4175445608437869  0.0111041379967176  0.8033078693364430
  0.4100898088140781  0.1094785138449055  0.8918153696340596
  0.4118269084069439  0.1885119582867105  0.9834985743196611
  0.4748979510011679  0.2818123535153916  0.1911931968286495
  0.4812013552058261  0.3971420347134611  0.2877013780624296
  0.4866351444013262  0.5047168181709978  0.4076925744625157
  0.4848832546844122  0.6157870850693996  0.4943492550177382
  0.4869938225280350  0.6863259736672944  0.5864656655793894
  0.4769128682650390  0.8158765062736606  0.7138112202090454
  0.5235618332896834  0.8914677683864696  0.8299888635984871
  0.4992490669269785  0.9794478645746523  0.9015092783505168
  0.5190848651222595  0.0882924030380252  0.9807483512297352
  0.5177761243779884  0.1885046841741840  0.0826358867645993
  0.5727613156829605  0.3174280236184828  0.2706416842456107
  0.5762219694769186  0.4227793023975650  0.4108784743220397
  0.5861598971453077  0.5228488064569916  0.5214169353110663
  0.5870602876121964  0.5847933430156402  0.6183628223137561
  0.6032399504773664  0.7256862331849234  0.6901353748720283
  0.5935168219804297  0.8038686026523152  0.8070790519273316
  0.6072385833670637  0.8856293507297437  0.9274968115044899
  0.5915380419513809  0.9977620185233675  0.9836474236327675
  0.6044913840146648  0.0993336696745288  0.0803608552177337
  0.6162165338920502  0.2034698845265623  0.2195743134687262
  0.6805614980595678  0.3158597847670279  0.3779843541820398
  0.6806333515868701  0.4164155286778879  0.5103845194162062
  0.7131857670055481  0.4961885755101036  0.6154091969238848
  0.6643681655198677  0.6093174114902027  0.6739683478964764
  0.7129556043903733  0.6843036980071915  0.7798948991690651
  0.6965071922097081  0.8009264931787357  0.8990785109878345
  0.7002298288135975  0.9016996642937087  0.0108788105045150
  0.7105006614128229  0.0067494383467093  0.1052611709244999
  0.7049677179114795  0.0824864493702506  0.2110877045784605
  0.6728844241803742  0.2064464598461910  0.3075985676531516
  0.7651147577438664  0.2975220618556733  0.4999704416561528
  0.8107928215994846  0.3954573495869127  0.6018202304707003
  0.8019292573986334  0.4964267479345708  0.7125875531534973
  0.7952715911525914  0.6130300897597678  0.8033107592676387
  0.7854301602342773  0.6926540034761075  0.8823515354396321
  0.7843238194328706  0.7671853636818184  0.0103556148663131
  0.8012613133020636  0.9067079117163885  0.1081910849741661
  0.7895203014213976  0.9943686093188262  0.1962160681888534
  0.7843549010737831  0.1129660241422812  0.3079369367396012
  0.7762023475631565  0.2054790266898436  0.4083579595723918
  0.8906601438061017  0.3160809137877649  0.5994365372253014
  0.9295261641389487  0.4145910240232382  0.6935999866669817
  0.9156182114711555  0.4835437075307709  0.8065462122330445
  0.9152766572224493  0.6118489055022494  0.8979594295373943
  0.8865641722816093  0.7031618266231732  0.9980859236684836
  0.8875379867146052  0.7901678217185335  0.0939710659270006
  0.8963226761267578  0.8885575614866283  0.2206576429132667
  0.8827518482893240  0.0137868631699263  0.3035912130663547
  0.9138539006214117  0.1016470169757895  0.4134547501249983
  0.9082388200280960  0.2247767505535592  0.4696157948620296
  0.0287529601676155  0.3005614056808170  0.6974200090474056
  0.0436514411561646  0.3868844956072479  0.7956802761839015
  0.0093131063546110  0.4974650384514661  0.9011116197233378
  0.9827331649246460  0.6023049903573749  0.0052316249613114
  0.9819776038665751  0.6986888335991992  0.0962002942787095
  0.9781585109878321  0.7783504507035559  0.1965955291540666
  0.0029438660984269  0.9214037475298227  0.3047238713363996
  0.9869835527725499  0.0010772786362239  0.3982450898788130
  0.0263446860789003  0.0843955020118585  0.4952048898835741
  0.9949310411656853  0.2221494312040164  0.6068451541629969
  0.1254829708816487  0.2920041775195799  0.8172038860979498
  0.1316304149901200  0.4112699845241750  0.9021318635270603
  0.0836586014618703  0.5267618390038322  0.0136390004999853
  0.0842268903121379  0.6078341749005958  0.1029378171948281
  0.1019561124735091  0.6982656417704334  0.2087550748791713
  0.0692976052951124  0.7929205923668476  0.3014969348348870
  0.1087375214875834  0.9328519168591214  0.3875083593247766
  0.1041886274136345  0.0086780176662486  0.5208011080688522
  0.1086344853693930  0.1195168476941006  0.5988621632818294
  0.1176295678674322  0.1915870474512502  0.7178593519201897
  0.2041173472060223  0.2886303911811652  0.9036889769291179
  0.2356692640651445  0.4154969991190711  0.9958384667031766
  0.2199513735387271  0.4785706264136564  0.1031810599747658
  0.2064087226494635  0.6074596395323937  0.1728122444703715
  0.1888723887526496  0.6897193643008492  0.2832125939858585
  0.1946878040998996  0.7883079664769852  0.3962762210423563
  0.1947379890955006  0.9021487469345999  0.5202045656055816
  0.2032337320539952  0.0263099873812536  0.6131958215280591
  0.2324478512416377  0.0985738291945424  0.7197773881574250
  0.1871166448417867  0.1901864803218984  0.8006256012952093
  0.3888080569510279  0.3853720387609840  0.9950781990905000
  0.4065214394895378  0.5192352834456315  0.0835851055927250
  0.4048713659198597  0.6134896302468960  0.2126308749791690
  0.4048502202328521  0.6899304068950727  0.2936175281540940
  0.3727231975429177  0.7979748948834526  0.3610382986119376
  0.3887018137663389  0.8666534292040637  0.4805316401990396
  0.3760261822337583  0.9811723573248230  0.6230190219280516
  0.4170404380848041  0.0947713349682147  0.7201252579700466
  0.4055885145591773  0.1799878764791316  0.8001842841837075
  0.3919749167876958  0.2817741729958811  0.8862960253327330
  0.4720975381538537  0.3961163134211105  0.0783297469107893
  0.5278212090188319  0.4841121568534064  0.1828815228208853
  0.5122443746577474  0.6031398071474499  0.2908944791790660
  0.4849574067284124  0.6676059017642473  0.3901980824266076
  0.4708752029713565  0.8019685564629384  0.4710855712959230
  0.5060060808076017  0.8981403399919046  0.5792959748577431
  0.5039993266826954  0.9667196719125712  0.6969113083021838
  0.5144319720958990  0.0903488274088744  0.7957093007309339
  0.5132341420442401  0.1921649255970124  0.8884969129306413
  0.4841439684769426  0.3109297845289376  0.9900847965524662
  0.6089443279921909  0.3906150429751705  0.1662579205257018
  0.6155540553796328  0.4768866117473394  0.2907241970429268
  0.6001019290016885  0.5789435308683153  0.4184970381657607
  0.6048607033165894  0.6989467193638248  0.5124144148948844
  0.5767268426942209  0.8106406818885290  0.5871062474702953
  0.6000917782909951  0.8783824956548685  0.6896732487321700
  0.6103302354705846  0.9983747420299522  0.8028102354705808
  0.6095754358229541  0.0971407223637542  0.8701614247279821
  0.6010450341658498  0.1971374210137853  0.9737930530225469
  0.5990849117878128  0.3024862598509586  0.0880333244446589
  0.7020798909549768  0.4031953891574034  0.2943396876264828
  0.6978802190424034  0.5054824247041765  0.3866775562486637
  0.6849947782195684  0.5907933263493703  0.5167397771481603
  0.7200869922144690  0.6972863131830209  0.5802987914573450
  0.6988961762815151  0.8124672369705479  0.6925656455798688
  0.6831388662174689  0.8925953115401981  0.8097530663555617
  0.7065538253851074  0.9806561515202006  0.8962609233113525
  0.6940022104235624  0.0840790452608289  0.9825318644794194
  0.6986581971857788  0.1993133149210706  0.0919539634770601
  0.7019200895216784  0.3005197400061874  0.2032560462846149
  0.7956844227518403  0.4063299016690110  0.4232302026142207
  0.8088506040332391  0.4949637303873686  0.5244247508392661
  0.8091748629794537  0.5951935311064034  0.6128047079831447
  0.8031408109330727  0.6991047398871473  0.6971998861931894
  0.8031847422680443  0.7923345234637296  0.7982005871288749
  0.8042945348920227  0.8791593057308162  0.9088756234375381
  0.7980417342444213  0.0185862541368067  0.0161520368562620
  0.7948877007690314  0.1207693535868160  0.1024551339253819
  0.7882164329420718  0.2055155743910859  0.2083321911383038
  0.7807778643365637  0.3287414628223146  0.3128942710887870
  0.9174434794409621  0.4012762853265386  0.4986870669745969
  0.9151533649198811  0.4723259850955941  0.5961330906406985
  0.9039709892621630  0.5888801619009101  0.6851029985000352
  0.9062033146829833  0.6900474726792254  0.7691526163662772
  0.8990168553129720  0.7966505368919812  0.8978078207661753
  0.8807209495012032  0.8943644941787099  0.0199316816266304
  0.8962852055903454  0.0096155072498263  0.0875062512797342
  0.8820490740696627  0.0994606728411256  0.2290997947667890
  0.9076822751839231  0.2082159415252036  0.3076172395895327
  0.8966363819909020  0.3177866988881206  0.3850888121711407
  0.0332267293635837  0.3694386909835501  0.6088583114687722
  0.0368625070831641  0.5131108540272820  0.6977429970715008
  0.0065164362753265  0.6215832103997556  0.7909913487774105
  0.9812476993404928  0.6981251484488453  0.9063635499154756
  0.9765668831694470  0.8033144529892127  0.0168095016785301
  0.9654320411418809  0.8937406204614149  0.1077908240280010
  0.9830140334753921  0.0110592981119524  0.1972413323492290
  0.0043891574010146  0.1135771381633788  0.3220061084259882
  0.0255189924049404  0.2119990419275766  0.4063224751791594
  0.0218554710602135  0.3019588190757361  0.5066029480250478
  0.1225015271065004  0.4221458146234625  0.6941695992952575
  0.1055273260160448  0.5146632237327680  0.8177186109854517
  0.1080068122187541  0.6206707778386260  0.9134145653674892
  0.0838939372872076  0.7235097526249348  0.0240976095807213
  0.0819707940287131  0.8261266398419096  0.1170011414013956
  0.1038180095711994  0.8956368662650860  0.2111871122116113
  0.1159226199376207  0.0182130839741887  0.2862942934692043
  0.1024070055474837  0.0787001695197702  0.3991013113973452
  0.1217863427061232  0.2033273393490660  0.4966834213471074
  0.1378886397942907  0.3030167738863341  0.5935939006214142
  0.2066078550510682  0.4066260893788254  0.7988071917335304
  0.1989553582057582  0.5092405823670845  0.8859789081212384
  0.2244595885812259  0.6019865693673978  0.0044363677055301
  0.2137346639365703  0.7106166076998193  0.0741319097164350
  0.2073643775148213  0.7779909087878849  0.1741941187114620
  0.1808802542796570  0.9126809714054431  0.3072986071760226
  0.1971027699340482  0.9988187800290476  0.4090530796885758